TimeStep;Np;Nbound;Nfixed;Nmoving;Nfloat;Nfluid
0.540042;10047;2448;2448;0;0;7599

Pos.x;Pos.y;Pos.z;Idp;Vel.x;Vel.y;Vel.z;Rhop;Mass;Press;Type;Acec.x;Acec.y;Acec.z;CellOffSpring;GradVel;Qfxx;Qfxy;Qfxz;Qfyy;Qfyz;Qfzz;StrainDot.x;StrainDot.y;StrainDot.z;VonMises3D;
 -1.9000000E-01;  9.9999998E-03; -4.4999999E-01;89;  0.0000000E+00;  0.0000000E+00;  0.0000000E+00;  1.0000000E+03;  1.0000000E-01;  0.0000000E+00;0;  0.0000000E+00;  0.0000000E+00;  0.0000000E+00;0;  0.0000000E+00;  4.0000000E+04;  0.0000000E+00;  0.0000000E+00;  4.0000000E+04;  0.0000000E+00;  4.0000000E+04;  0.0000000E+00;  0.0000000E+00;  0.0000000E+00;  0.0000000E+00;
 -1.8000001E-01;  9.9999998E-03; -4.4999999E-01;180;  0.0000000E+00;  0.0000000E+00;  0.0000000E+00;  1.0000000E+03;  1.0000000E-01;  0.0000000E+00;0;  0.0000000E+00;  0.0000000E+00;  0.0000000E+00;0;  0.0000000E+00;  4.0000000E+04;  0.0000000E+00;  0.0000000E+00;  4.0000000E+04;  0.0000000E+00;  4.0000000E+04;  0.0000000E+00;  0.0000000E+00;  0.0000000E+00;  0.0000000E+00;
 -1.7000000E-01;  9.9999998E-03; -4.4999999E-01;271;  0.0000000E+00;  0.0000000E+00;  0.0000000E+00;  1.0000000E+03;  1.0000000E-01;  0.0000000E+00;0;  0.0000000E+00;  0.0000000E+00;  0.0000000E+00;0;  0.0000000E+00;  4.0000000E+04;  0.0000000E+00;  0.0000000E+00;  4.0000000E+04;  0.0000000E+00;  4.0000000E+04;  0.0000000E+00;  0.0000000E+00;  0.0000000E+00;  0.0000000E+00;
 -1.6000000E-01;  9.9999998E-03; -4.4999999E-01;362;  0.0000000E+00;  0.0000000E+00;  0.0000000E+00;  1.0000000E+03;  1.0000000E-01;  0.0000000E+00;0;  0.0000000E+00;  0.0000000E+00;  0.0000000E+00;0;  0.0000000E+00;  4.0000000E+04;  0.0000000E+00;  0.0000000E+00;  4.0000000E+04;  0.0000000E+00;  4.0000000E+04;  0.0000000E+00;  0.0000000E+00;  0.0000000E+00;  0.0000000E+00;
 -1.5000001E-01;  9.9999998E-03; -4.4999999E-01;453;  0.0000000E+00;  0.0000000E+00;  0.0000000E+00;  1.0000000E+03;  1.0000000E-01;  0.0000000E+00;0;  0.0000000E+00;  0.0000000E+00;  0.0000000E+00;0;  0.0000000E+00;  4.0000000E+04;  0.0000000E+00;  0.0000000E+00;  4.0000000E+04;  0.0000000E+00;  4.0000000E+04;  0.0000000E+00;  0.0000000E+00;  0.0000000E+00;  0.0000000E+00;
 -1.4000000E-01;  9.9999998E-03; -4.4999999E-01;544;  0.0000000E+00;  0.0000000E+00;  0.0000000E+00;  1.0000000E+03;  1.0000000E-01;  0.0000000E+00;0;  0.0000000E+00;  0.0000000E+00;  0.0000000E+00;0;  0.0000000E+00;  4.0000000E+04;  0.0000000E+00;  0.0000000E+00;  4.0000000E+04;  0.0000000E+00;  4.0000000E+04;  0.0000000E+00;  0.0000000E+00;  0.0000000E+00;  0.0000000E+00;
 -1.3000000E-01;  9.9999998E-03; -4.4999999E-01;635;  0.0000000E+00;  0.0000000E+00;  0.0000000E+00;  1.0000000E+03;  1.0000000E-01;  0.0000000E+00;0;  0.0000000E+00;  0.0000000E+00;  0.0000000E+00;0;  0.0000000E+00;  4.0000000E+04;  0.0000000E+00;  0.0000000E+00;  4.0000000E+04;  0.0000000E+00;  4.0000000E+04;  0.0000000E+00;  0.0000000E+00;  0.0000000E+00;  0.0000000E+00;
 -1.2000000E-01;  9.9999998E-03; -4.4999999E-01;726;  0.0000000E+00;  0.0000000E+00;  0.0000000E+00;  1.0000000E+03;  1.0000000E-01;  0.0000000E+00;0;  0.0000000E+00;  0.0000000E+00;  0.0000000E+00;0;  0.0000000E+00;  4.0000000E+04;  0.0000000E+00;  0.0000000E+00;  4.0000000E+04;  0.0000000E+00;  4.0000000E+04;  0.0000000E+00;  0.0000000E+00;  0.0000000E+00;  0.0000000E+00;
 -1.1000000E-01;  9.9999998E-03; -4.4999999E-01;817;  0.0000000E+00;  0.0000000E+00;  0.0000000E+00;  1.0000000E+03;  1.0000000E-01;  0.0000000E+00;0;  0.0000000E+00;  0.0000000E+00;  0.0000000E+00;0;  0.0000000E+00;  4.0000000E+04;  0.0000000E+00;  0.0000000E+00;  4.0000000E+04;  0.0000000E+00;  4.0000000E+04;  0.0000000E+00;  0.0000000E+00;  0.0000000E+00;  0.0000000E+00;
 -1.0000000E-01;  9.9999998E-03; -4.4999999E-01;908;  0.0000000E+00;  0.0000000E+00;  0.0000000E+00;  1.0000000E+03;  1.0000000E-01;  0.0000000E+00;0;  0.0000000E+00;  0.0000000E+00;  0.0000000E+00;0;  0.0000000E+00;  4.0000000E+04;  0.0000000E+00;  0.0000000E+00;  4.0000000E+04;  0.0000000E+00;  4.0000000E+04;  0.0000000E+00;  0.0000000E+00;  0.0000000E+00;  0.0000000E+00;
 -9.0000004E-02;  9.9999998E-03; -4.4999999E-01;999;  0.0000000E+00;  0.0000000E+00;  0.0000000E+00;  1.0000000E+03;  1.0000000E-01;  0.0000000E+00;0;  0.0000000E+00;  0.0000000E+00;  0.0000000E+00;0;  0.0000000E+00;  4.0000000E+04;  0.0000000E+00;  0.0000000E+00;  4.0000000E+04;  0.0000000E+00;  4.0000000E+04;  0.0000000E+00;  0.0000000E+00;  0.0000000E+00;  0.0000000E+00;
 -7.9999998E-02;  9.9999998E-03; -4.4999999E-01;1090;  0.0000000E+00;  0.0000000E+00;  0.0000000E+00;  1.0000000E+03;  1.0000000E-01;  0.0000000E+00;0;  0.0000000E+00;  0.0000000E+00;  0.0000000E+00;0;  0.0000000E+00;  4.0000000E+04;  0.0000000E+00;  0.0000000E+00;  4.0000000E+04;  0.0000000E+00;  4.0000000E+04;  0.0000000E+00;  0.0000000E+00;  0.0000000E+00;  0.0000000E+00;
 -7.0000000E-02;  9.9999998E-03; -4.4999999E-01;1181;  0.0000000E+00;  0.0000000E+00;  0.0000000E+00;  1.0000000E+03;  1.0000000E-01;  0.0000000E+00;0;  0.0000000E+00;  0.0000000E+00;  0.0000000E+00;0;  0.0000000E+00;  4.0000000E+04;  0.0000000E+00;  0.0000000E+00;  4.0000000E+04;  0.0000000E+00;  4.0000000E+04;  0.0000000E+00;  0.0000000E+00;  0.0000000E+00;  8.6648275E-12;
 -5.9999999E-02;  9.9999998E-03; -4.4999999E-01;1272;  0.0000000E+00;  0.0000000E+00;  0.0000000E+00;  1.0000000E+03;  1.0000000E-01;  0.0000000E+00;0;  0.0000000E+00;  0.0000000E+00;  0.0000000E+00;0; -1.1551779E-08;  4.0000000E+04;  0.0000000E+00;  0.0000000E+00;  4.0000000E+04;  0.0000000E+00;  4.0000000E+04; -4.3808162E-09;  0.0000000E+00; -7.1709629E-09;  3.5256989E-02;
 -5.0000001E-02;  9.9999998E-03; -4.4999999E-01;1363;  0.0000000E+00;  0.0000000E+00;  0.0000000E+00;  1.0000000E+03;  1.0000000E-01;  0.0000000E+00;0;  0.0000000E+00;  0.0000000E+00;  0.0000000E+00;0; -9.4249664E-08;  4.0000000E+04;  0.0000000E+00;  0.0000000E+00;  4.0000000E+04;  0.0000000E+00;  4.0000000E+04; -3.4328110E-08;  0.0000000E+00; -5.9921554E-08;  3.0374643E-01;
 -3.9999999E-02;  9.9999998E-03; -4.4999999E-01;1454;  0.0000000E+00;  0.0000000E+00;  0.0000000E+00;  1.0000000E+03;  1.0000000E-01;  0.0000000E+00;0;  0.0000000E+00;  0.0000000E+00;  0.0000000E+00;0; -3.2455986E-07;  4.0000000E+04;  0.0000000E+00;  0.0000000E+00;  4.0000000E+04;  0.0000000E+00;  4.0000000E+04; -1.1553573E-07;  0.0000000E+00; -2.0902412E-07;  1.1189572E+00;
 -2.9999999E-02;  9.9999998E-03; -4.4999999E-01;1545;  0.0000000E+00;  0.0000000E+00;  0.0000000E+00;  1.0000000E+03;  1.0000000E-01;  0.0000000E+00;0;  0.0000000E+00;  0.0000000E+00;  0.0000000E+00;0; -7.4046659E-07;  4.0000000E+04;  0.0000000E+00;  0.0000000E+00;  4.0000000E+04;  0.0000000E+00;  4.0000000E+04; -2.6387892E-07;  0.0000000E+00; -4.7658767E-07;  2.7384815E+00;
 -2.0000000E-02;  9.9999998E-03; -4.4999999E-01;1636;  0.0000000E+00;  0.0000000E+00;  0.0000000E+00;  1.0000000E+03;  1.0000000E-01;  0.0000000E+00;0;  0.0000000E+00;  0.0000000E+00;  0.0000000E+00;0; -1.3081049E-06;  4.0000000E+04;  0.0000000E+00;  0.0000000E+00;  4.0000000E+04;  0.0000000E+00;  4.0000000E+04; -4.7625346E-07;  0.0000000E+00; -8.3185137E-07;  5.1717701E+00;
 -9.9999998E-03;  9.9999998E-03; -4.4999999E-01;1727;  0.0000000E+00;  0.0000000E+00;  0.0000000E+00;  1.0000000E+03;  1.0000000E-01;  0.0000000E+00;0;  0.0000000E+00;  0.0000000E+00;  0.0000000E+00;0; -1.9273866E-06;  4.0000000E+04;  0.0000000E+00;  0.0000000E+00;  4.0000000E+04;  0.0000000E+00;  4.0000000E+04; -7.2841902E-07;  0.0000000E+00; -1.1989677E-06;  8.0813379E+00;
  0.0000000E+00;  9.9999998E-03; -4.4999999E-01;1818;  0.0000000E+00;  0.0000000E+00;  0.0000000E+00;  1.0000000E+03;  1.0000000E-01;  0.0000000E+00;0;  0.0000000E+00;  0.0000000E+00;  0.0000000E+00;0; -2.4659046E-06;  4.0000000E+04;  0.0000000E+00;  0.0000000E+00;  4.0000000E+04;  0.0000000E+00;  4.0000000E+04; -9.7968177E-07;  0.0000000E+00; -1.4862228E-06;  1.0829670E+01;
  9.9999998E-03;  9.9999998E-03; -4.4999999E-01;1850;  0.0000000E+00;  0.0000000E+00;  0.0000000E+00;  1.0000000E+03;  1.0000000E-01;  0.0000000E+00;0;  0.0000000E+00;  0.0000000E+00;  0.0000000E+00;0; -2.8064042E-06;  4.0000000E+04;  0.0000000E+00;  0.0000000E+00;  4.0000000E+04;  0.0000000E+00;  4.0000000E+04; -1.1827652E-06;  0.0000000E+00; -1.6236389E-06;  1.2640183E+01;
  2.0000000E-02;  9.9999998E-03; -4.4999999E-01;1880;  0.0000000E+00;  0.0000000E+00;  0.0000000E+00;  1.0000000E+03;  1.0000000E-01;  0.0000000E+00;0;  0.0000000E+00;  0.0000000E+00;  0.0000000E+00;0; -2.8903078E-06;  4.0000000E+04;  0.0000000E+00;  0.0000000E+00;  4.0000000E+04;  0.0000000E+00;  4.0000000E+04; -1.2955655E-06;  0.0000000E+00; -1.5947423E-06;  1.2818707E+01;
  2.9999999E-02;  9.9999998E-03; -4.4999999E-01;1910;  0.0000000E+00;  0.0000000E+00;  0.0000000E+00;  1.0000000E+03;  1.0000000E-01;  0.0000000E+00;0;  0.0000000E+00;  0.0000000E+00;  0.0000000E+00;0; -2.7411129E-06;  4.0000000E+04;  0.0000000E+00;  0.0000000E+00;  4.0000000E+04;  0.0000000E+00;  4.0000000E+04; -1.2902960E-06;  0.0000000E+00; -1.4508169E-06;  1.0969660E+01;
  3.9999999E-02;  9.9999998E-03; -4.4999999E-01;1940;  0.0000000E+00;  0.0000000E+00;  0.0000000E+00;  1.0000000E+03;  1.0000000E-01;  0.0000000E+00;0;  0.0000000E+00;  0.0000000E+00;  0.0000000E+00;0; -2.4564802E-06;  4.0000000E+04;  0.0000000E+00;  0.0000000E+00;  4.0000000E+04;  0.0000000E+00;  4.0000000E+04; -1.1572470E-06;  0.0000000E+00; -1.2992332E-06;  7.1785436E+00;
  5.0000001E-02;  9.9999998E-03; -4.4999999E-01;1970;  0.0000000E+00;  0.0000000E+00;  0.0000000E+00;  1.0000000E+03;  1.0000000E-01;  0.0000000E+00;0;  0.0000000E+00;  0.0000000E+00;  0.0000000E+00;0; -2.1686503E-06;  4.0000000E+04;  0.0000000E+00;  0.0000000E+00;  4.0000000E+04;  0.0000000E+00;  4.0000000E+04; -9.0525697E-07;  0.0000000E+00; -1.2633933E-06;  2.1622453E+00;
  5.9999999E-02;  9.9999998E-03; -4.4999999E-01;2000;  0.0000000E+00;  0.0000000E+00;  0.0000000E+00;  1.0000000E+03;  1.0000000E-01;  0.0000000E+00;0;  0.0000000E+00;  0.0000000E+00;  0.0000000E+00;0; -1.9836043E-06;  4.0000000E+04;  0.0000000E+00;  0.0000000E+00;  4.0000000E+04;  0.0000000E+00;  4.0000000E+04; -5.6259574E-07;  0.0000000E+00; -1.4210085E-06;  2.7205555E+00;
  7.0000000E-02;  9.9999998E-03; -4.4999999E-01;2030;  0.0000000E+00;  0.0000000E+00;  0.0000000E+00;  1.0000000E+03;  1.0000000E-01;  0.0000000E+00;0;  0.0000000E+00;  0.0000000E+00;  0.0000000E+00;0; -1.9307142E-06;  4.0000000E+04;  0.0000000E+00;  0.0000000E+00;  4.0000000E+04;  0.0000000E+00;  4.0000000E+04; -1.7497945E-07;  0.0000000E+00; -1.7557347E-06;  5.6169839E+00;
  7.9999998E-02;  9.9999998E-03; -4.4999999E-01;2060;  0.0000000E+00;  0.0000000E+00;  0.0000000E+00;  1.0000000E+03;  1.0000000E-01;  0.0000000E+00;0;  0.0000000E+00;  0.0000000E+00;  0.0000000E+00;0; -1.9548115E-06;  4.0000000E+04;  0.0000000E+00;  0.0000000E+00;  4.0000000E+04;  0.0000000E+00;  4.0000000E+04;  2.0142629E-07;  0.0000000E+00; -2.1562378E-06;  4.7759809E+00;
  9.0000004E-02;  9.9999998E-03; -4.4999999E-01;2090;  0.0000000E+00;  0.0000000E+00;  0.0000000E+00;  1.0000000E+03;  1.0000000E-01;  0.0000000E+00;0;  0.0000000E+00;  0.0000000E+00;  0.0000000E+00;0; -1.9458200E-06;  4.0000000E+04;  0.0000000E+00;  0.0000000E+00;  4.0000000E+04;  0.0000000E+00;  4.0000000E+04;  5.0607946E-07;  0.0000000E+00; -2.4518995E-06;  2.1193106E+00;
  1.0000000E-01;  9.9999998E-03; -4.4999999E-01;2120;  0.0000000E+00;  0.0000000E+00;  0.0000000E+00;  1.0000000E+03;  1.0000000E-01;  0.0000000E+00;0;  0.0000000E+00;  0.0000000E+00;  0.0000000E+00;0; -1.8193502E-06;  4.0000000E+04;  0.0000000E+00;  0.0000000E+00;  4.0000000E+04;  0.0000000E+00;  4.0000000E+04;  6.8539015E-07;  0.0000000E+00; -2.5047405E-06;  1.2802352E+01;
  1.1000000E-01;  9.9999998E-03; -4.4999999E-01;2150;  0.0000000E+00;  0.0000000E+00;  0.0000000E+00;  1.0000000E+03;  1.0000000E-01;  0.0000000E+00;0;  0.0000000E+00;  0.0000000E+00;  0.0000000E+00;0; -1.5650622E-06;  4.0000000E+04;  0.0000000E+00;  0.0000000E+00;  4.0000000E+04;  0.0000000E+00;  4.0000000E+04;  7.0254634E-07;  0.0000000E+00; -2.2676086E-06;  2.9256409E+01;
  1.2000000E-01;  9.9999998E-03; -4.4999999E-01;2180;  0.0000000E+00;  0.0000000E+00;  0.0000000E+00;  1.0000000E+03;  1.0000000E-01;  0.0000000E+00;0;  0.0000000E+00;  0.0000000E+00;  0.0000000E+00;0; -1.2626235E-06;  4.0000000E+04;  0.0000000E+00;  0.0000000E+00;  4.0000000E+04;  0.0000000E+00;  4.0000000E+04;  5.1062693E-07;  0.0000000E+00; -1.7732505E-06;  5.3203686E+01;
  1.3000000E-01;  9.9999998E-03; -4.4999999E-01;2210;  0.0000000E+00;  0.0000000E+00;  0.0000000E+00;  1.0000000E+03;  1.0000000E-01;  0.0000000E+00;0;  0.0000000E+00;  0.0000000E+00;  0.0000000E+00;0; -1.0720719E-06;  4.0000000E+04;  0.0000000E+00;  0.0000000E+00;  4.0000000E+04;  0.0000000E+00;  4.0000000E+04;  5.0943353E-08;  0.0000000E+00; -1.1230152E-06;  9.2488335E+01;
  1.4000000E-01;  9.9999998E-03; -4.4999999E-01;2240;  0.0000000E+00;  0.0000000E+00;  0.0000000E+00;  1.0000000E+03;  1.0000000E-01;  0.0000000E+00;0;  0.0000000E+00;  0.0000000E+00;  0.0000000E+00;0; -1.1345558E-06;  4.0000000E+04;  0.0000000E+00;  0.0000000E+00;  4.0000000E+04;  0.0000000E+00;  4.0000000E+04; -7.1583401E-07;  0.0000000E+00; -4.1872175E-07;  1.6255753E+02;
  1.5000001E-01;  9.9999998E-03; -4.4999999E-01;2270;  0.0000000E+00;  0.0000000E+00;  0.0000000E+00;  1.0000000E+03;  1.0000000E-01;  0.0000000E+00;0;  0.0000000E+00;  0.0000000E+00;  0.0000000E+00;0; -1.4993789E-06;  4.0000000E+04;  0.0000000E+00;  0.0000000E+00;  4.0000000E+04;  0.0000000E+00;  4.0000000E+04; -1.7881159E-06;  0.0000000E+00;  2.8873700E-07;  2.8603781E+02;
  1.6000000E-01;  9.9999998E-03; -4.4999999E-01;2300;  0.0000000E+00;  0.0000000E+00;  0.0000000E+00;  1.0000000E+03;  1.0000000E-01;  0.0000000E+00;0;  0.0000000E+00;  0.0000000E+00;  0.0000000E+00;0; -2.0956074E-06;  4.0000000E+04;  0.0000000E+00;  0.0000000E+00;  4.0000000E+04;  0.0000000E+00;  4.0000000E+04; -3.1029595E-06;  0.0000000E+00;  1.0073520E-06;  4.9249030E+02;
  1.7000000E-01;  9.9999998E-03; -4.4999999E-01;2330;  0.0000000E+00;  0.0000000E+00;  0.0000000E+00;  1.0000000E+03;  1.0000000E-01;  0.0000000E+00;0;  0.0000000E+00;  0.0000000E+00;  0.0000000E+00;0; -2.7138694E-06;  4.0000000E+04;  0.0000000E+00;  0.0000000E+00;  4.0000000E+04;  0.0000000E+00;  4.0000000E+04; -4.5108950E-06;  0.0000000E+00;  1.7970256E-06;  8.1761053E+02;
  1.8000001E-01;  9.9999998E-03; -4.4999999E-01;2360;  0.0000000E+00;  0.0000000E+00;  0.0000000E+00;  1.0000000E+03;  1.0000000E-01;  0.0000000E+00;0;  0.0000000E+00;  0.0000000E+00;  0.0000000E+00;0; -3.0238079E-06;  4.0000000E+04;  0.0000000E+00;  0.0000000E+00;  4.0000000E+04;  0.0000000E+00;  4.0000000E+04; -5.7701227E-06;  0.0000000E+00;  2.7463147E-06;  1.2967375E+03;
  1.9000000E-01;  9.9999998E-03; -4.4999999E-01;2390;  0.0000000E+00;  0.0000000E+00;  0.0000000E+00;  1.0000000E+03;  1.0000000E-01;  0.0000000E+00;0;  0.0000000E+00;  0.0000000E+00;  0.0000000E+00;0; -2.6752568E-06;  4.0000000E+04;  0.0000000E+00;  0.0000000E+00;  4.0000000E+04;  0.0000000E+00;  4.0000000E+04; -6.5916324E-06;  0.0000000E+00;  3.9163756E-06;  1.9502606E+03;
 -1.9000000E-01;  9.9999998E-03; -4.4000000E-01;90;  0.0000000E+00;  0.0000000E+00;  0.0000000E+00;  1.0000000E+03;  1.0000000E-01;  0.0000000E+00;0;  0.0000000E+00;  0.0000000E+00;  0.0000000E+00;0;  0.0000000E+00;  4.0000000E+04;  0.0000000E+00;  0.0000000E+00;  4.0000000E+04;  0.0000000E+00;  4.0000000E+04;  0.0000000E+00;  0.0000000E+00;  0.0000000E+00;  0.0000000E+00;
 -1.9000000E-01;  9.9999998E-03; -4.3000001E-01;91;  0.0000000E+00;  0.0000000E+00;  0.0000000E+00;  1.0000000E+03;  1.0000000E-01;  0.0000000E+00;0;  0.0000000E+00;  0.0000000E+00;  0.0000000E+00;0;  0.0000000E+00;  4.0000000E+04;  0.0000000E+00;  0.0000000E+00;  4.0000000E+04;  0.0000000E+00;  4.0000000E+04;  0.0000000E+00;  0.0000000E+00;  0.0000000E+00;  0.0000000E+00;
 -1.9000000E-01;  9.9999998E-03; -4.1999999E-01;92;  0.0000000E+00;  0.0000000E+00;  0.0000000E+00;  1.0000000E+03;  1.0000000E-01;  0.0000000E+00;0;  0.0000000E+00;  0.0000000E+00;  0.0000000E+00;0;  0.0000000E+00;  4.0000000E+04;  0.0000000E+00;  0.0000000E+00;  4.0000000E+04;  0.0000000E+00;  4.0000000E+04;  0.0000000E+00;  0.0000000E+00;  0.0000000E+00;  0.0000000E+00;
 -1.9000000E-01;  9.9999998E-03; -4.1000000E-01;93;  0.0000000E+00;  0.0000000E+00;  0.0000000E+00;  1.0000000E+03;  1.0000000E-01;  0.0000000E+00;0;  0.0000000E+00;  0.0000000E+00;  0.0000000E+00;0;  0.0000000E+00;  4.0000000E+04;  0.0000000E+00;  0.0000000E+00;  4.0000000E+04;  0.0000000E+00;  4.0000000E+04;  0.0000000E+00;  0.0000000E+00;  0.0000000E+00;  0.0000000E+00;
 -1.9000000E-01;  9.9999998E-03; -4.0000001E-01;94;  0.0000000E+00;  0.0000000E+00;  0.0000000E+00;  1.0000000E+03;  1.0000000E-01;  0.0000000E+00;0;  0.0000000E+00;  0.0000000E+00;  0.0000000E+00;0;  0.0000000E+00;  4.0000000E+04;  0.0000000E+00;  0.0000000E+00;  4.0000000E+04;  0.0000000E+00;  4.0000000E+04;  0.0000000E+00;  0.0000000E+00;  0.0000000E+00;  0.0000000E+00;
 -1.9000000E-01;  9.9999998E-03; -3.8999999E-01;95;  0.0000000E+00;  0.0000000E+00;  0.0000000E+00;  1.0000000E+03;  1.0000000E-01;  0.0000000E+00;0;  0.0000000E+00;  0.0000000E+00;  0.0000000E+00;0;  0.0000000E+00;  4.0000000E+04;  0.0000000E+00;  0.0000000E+00;  4.0000000E+04;  0.0000000E+00;  4.0000000E+04;  0.0000000E+00;  0.0000000E+00;  0.0000000E+00;  0.0000000E+00;
 -1.9000000E-01;  9.9999998E-03; -3.8000000E-01;96;  0.0000000E+00;  0.0000000E+00;  0.0000000E+00;  1.0000000E+03;  1.0000000E-01;  0.0000000E+00;0;  0.0000000E+00;  0.0000000E+00;  0.0000000E+00;0;  0.0000000E+00;  4.0000000E+04;  0.0000000E+00;  0.0000000E+00;  4.0000000E+04;  0.0000000E+00;  4.0000000E+04;  0.0000000E+00;  0.0000000E+00;  0.0000000E+00;  0.0000000E+00;
 -1.9000000E-01;  9.9999998E-03; -3.7000000E-01;97;  0.0000000E+00;  0.0000000E+00;  0.0000000E+00;  1.0000000E+03;  1.0000000E-01;  0.0000000E+00;0;  0.0000000E+00;  0.0000000E+00;  0.0000000E+00;0;  0.0000000E+00;  4.0000000E+04;  0.0000000E+00;  0.0000000E+00;  4.0000000E+04;  0.0000000E+00;  4.0000000E+04;  0.0000000E+00;  0.0000000E+00;  0.0000000E+00;  0.0000000E+00;
 -1.9000000E-01;  9.9999998E-03; -3.6000001E-01;98;  0.0000000E+00;  0.0000000E+00;  0.0000000E+00;  1.0000000E+03;  1.0000000E-01;  0.0000000E+00;0;  0.0000000E+00;  0.0000000E+00;  0.0000000E+00;0;  0.0000000E+00;  4.0000000E+04;  0.0000000E+00;  0.0000000E+00;  4.0000000E+04;  0.0000000E+00;  4.0000000E+04;  0.0000000E+00;  0.0000000E+00;  0.0000000E+00;  0.0000000E+00;
 -1.9000000E-01;  9.9999998E-03; -3.4999999E-01;99;  0.0000000E+00;  0.0000000E+00;  0.0000000E+00;  1.0000000E+03;  1.0000000E-01;  0.0000000E+00;0;  0.0000000E+00;  0.0000000E+00;  0.0000000E+00;0;  0.0000000E+00;  4.0000000E+04;  0.0000000E+00;  0.0000000E+00;  4.0000000E+04;  0.0000000E+00;  4.0000000E+04;  0.0000000E+00;  0.0000000E+00;  0.0000000E+00;  0.0000000E+00;
 -1.9000000E-01;  9.9999998E-03; -3.4000000E-01;100;  0.0000000E+00;  0.0000000E+00;  0.0000000E+00;  1.0000000E+03;  1.0000000E-01;  0.0000000E+00;0;  0.0000000E+00;  0.0000000E+00;  0.0000000E+00;0;  0.0000000E+00;  4.0000000E+04;  0.0000000E+00;  0.0000000E+00;  4.0000000E+04;  0.0000000E+00;  4.0000000E+04;  0.0000000E+00;  0.0000000E+00;  0.0000000E+00;  0.0000000E+00;
 -1.9000000E-01;  9.9999998E-03; -3.3000001E-01;101;  0.0000000E+00;  0.0000000E+00;  0.0000000E+00;  1.0000000E+03;  1.0000000E-01;  0.0000000E+00;0;  0.0000000E+00;  0.0000000E+00;  0.0000000E+00;0;  0.0000000E+00;  4.0000000E+04;  0.0000000E+00;  0.0000000E+00;  4.0000000E+04;  0.0000000E+00;  4.0000000E+04;  0.0000000E+00;  0.0000000E+00;  0.0000000E+00;  0.0000000E+00;
 -1.9000000E-01;  9.9999998E-03; -3.1999999E-01;102;  0.0000000E+00;  0.0000000E+00;  0.0000000E+00;  1.0000000E+03;  1.0000000E-01;  0.0000000E+00;0;  0.0000000E+00;  0.0000000E+00;  0.0000000E+00;0;  0.0000000E+00;  4.0000000E+04;  0.0000000E+00;  0.0000000E+00;  4.0000000E+04;  0.0000000E+00;  4.0000000E+04;  0.0000000E+00;  0.0000000E+00;  0.0000000E+00;  0.0000000E+00;
 -1.9000000E-01;  9.9999998E-03; -3.1000000E-01;103;  0.0000000E+00;  0.0000000E+00;  0.0000000E+00;  1.0000000E+03;  1.0000000E-01;  0.0000000E+00;0;  0.0000000E+00;  0.0000000E+00;  0.0000000E+00;0;  0.0000000E+00;  4.0000000E+04;  0.0000000E+00;  0.0000000E+00;  4.0000000E+04;  0.0000000E+00;  4.0000000E+04;  0.0000000E+00;  0.0000000E+00;  0.0000000E+00;  0.0000000E+00;
 -1.9000000E-01;  9.9999998E-03; -3.0000001E-01;104;  0.0000000E+00;  0.0000000E+00;  0.0000000E+00;  1.0000000E+03;  1.0000000E-01;  0.0000000E+00;0;  0.0000000E+00;  0.0000000E+00;  0.0000000E+00;0;  0.0000000E+00;  4.0000000E+04;  0.0000000E+00;  0.0000000E+00;  4.0000000E+04;  0.0000000E+00;  4.0000000E+04;  0.0000000E+00;  0.0000000E+00;  0.0000000E+00;  0.0000000E+00;
 -1.9000000E-01;  9.9999998E-03; -2.8999999E-01;105;  0.0000000E+00;  0.0000000E+00;  0.0000000E+00;  1.0000000E+03;  1.0000000E-01;  0.0000000E+00;0;  0.0000000E+00;  0.0000000E+00;  0.0000000E+00;0;  0.0000000E+00;  4.0000000E+04;  0.0000000E+00;  0.0000000E+00;  4.0000000E+04;  0.0000000E+00;  4.0000000E+04;  0.0000000E+00;  0.0000000E+00;  0.0000000E+00;  0.0000000E+00;
 -1.9000000E-01;  9.9999998E-03; -2.8000000E-01;106;  0.0000000E+00;  0.0000000E+00;  0.0000000E+00;  1.0000000E+03;  1.0000000E-01;  0.0000000E+00;0;  0.0000000E+00;  0.0000000E+00;  0.0000000E+00;0;  0.0000000E+00;  4.0000000E+04;  0.0000000E+00;  0.0000000E+00;  4.0000000E+04;  0.0000000E+00;  4.0000000E+04;  0.0000000E+00;  0.0000000E+00;  0.0000000E+00;  0.0000000E+00;
 -1.8000001E-01;  9.9999998E-03; -4.4000000E-01;181;  0.0000000E+00;  0.0000000E+00;  0.0000000E+00;  1.0000000E+03;  1.0000000E-01;  0.0000000E+00;0;  0.0000000E+00;  0.0000000E+00;  0.0000000E+00;0;  0.0000000E+00;  4.0000000E+04;  0.0000000E+00;  0.0000000E+00;  4.0000000E+04;  0.0000000E+00;  4.0000000E+04;  0.0000000E+00;  0.0000000E+00;  0.0000000E+00;  0.0000000E+00;
 -1.8000001E-01;  9.9999998E-03; -4.3000001E-01;182;  0.0000000E+00;  0.0000000E+00;  0.0000000E+00;  1.0000000E+03;  1.0000000E-01;  0.0000000E+00;0;  0.0000000E+00;  0.0000000E+00;  0.0000000E+00;0;  0.0000000E+00;  4.0000000E+04;  0.0000000E+00;  0.0000000E+00;  4.0000000E+04;  0.0000000E+00;  4.0000000E+04;  0.0000000E+00;  0.0000000E+00;  0.0000000E+00;  0.0000000E+00;
 -1.8000001E-01;  9.9999998E-03; -4.1999999E-01;183;  0.0000000E+00;  0.0000000E+00;  0.0000000E+00;  1.0000000E+03;  1.0000000E-01;  0.0000000E+00;0;  0.0000000E+00;  0.0000000E+00;  0.0000000E+00;0;  0.0000000E+00;  4.0000000E+04;  0.0000000E+00;  0.0000000E+00;  4.0000000E+04;  0.0000000E+00;  4.0000000E+04;  0.0000000E+00;  0.0000000E+00;  0.0000000E+00;  0.0000000E+00;
 -1.8000001E-01;  9.9999998E-03; -4.1000000E-01;184;  0.0000000E+00;  0.0000000E+00;  0.0000000E+00;  1.0000000E+03;  1.0000000E-01;  0.0000000E+00;0;  0.0000000E+00;  0.0000000E+00;  0.0000000E+00;0;  0.0000000E+00;  4.0000000E+04;  0.0000000E+00;  0.0000000E+00;  4.0000000E+04;  0.0000000E+00;  4.0000000E+04;  0.0000000E+00;  0.0000000E+00;  0.0000000E+00;  0.0000000E+00;
 -1.8000001E-01;  9.9999998E-03; -4.0000001E-01;185;  0.0000000E+00;  0.0000000E+00;  0.0000000E+00;  1.0000000E+03;  1.0000000E-01;  0.0000000E+00;0;  0.0000000E+00;  0.0000000E+00;  0.0000000E+00;0;  0.0000000E+00;  4.0000000E+04;  0.0000000E+00;  0.0000000E+00;  4.0000000E+04;  0.0000000E+00;  4.0000000E+04;  0.0000000E+00;  0.0000000E+00;  0.0000000E+00;  0.0000000E+00;
 -1.8000001E-01;  9.9999998E-03; -3.8999999E-01;186;  0.0000000E+00;  0.0000000E+00;  0.0000000E+00;  1.0000000E+03;  1.0000000E-01;  0.0000000E+00;0;  0.0000000E+00;  0.0000000E+00;  0.0000000E+00;0;  0.0000000E+00;  4.0000000E+04;  0.0000000E+00;  0.0000000E+00;  4.0000000E+04;  0.0000000E+00;  4.0000000E+04;  0.0000000E+00;  0.0000000E+00;  0.0000000E+00;  0.0000000E+00;
 -1.8000001E-01;  9.9999998E-03; -3.8000000E-01;187;  0.0000000E+00;  0.0000000E+00;  0.0000000E+00;  1.0000000E+03;  1.0000000E-01;  0.0000000E+00;0;  0.0000000E+00;  0.0000000E+00;  0.0000000E+00;0;  0.0000000E+00;  4.0000000E+04;  0.0000000E+00;  0.0000000E+00;  4.0000000E+04;  0.0000000E+00;  4.0000000E+04;  0.0000000E+00;  0.0000000E+00;  0.0000000E+00;  0.0000000E+00;
 -1.8000001E-01;  9.9999998E-03; -3.7000000E-01;188;  0.0000000E+00;  0.0000000E+00;  0.0000000E+00;  1.0000000E+03;  1.0000000E-01;  0.0000000E+00;0;  0.0000000E+00;  0.0000000E+00;  0.0000000E+00;0;  0.0000000E+00;  4.0000000E+04;  0.0000000E+00;  0.0000000E+00;  4.0000000E+04;  0.0000000E+00;  4.0000000E+04;  0.0000000E+00;  0.0000000E+00;  0.0000000E+00;  0.0000000E+00;
 -1.8000001E-01;  9.9999998E-03; -3.6000001E-01;189;  0.0000000E+00;  0.0000000E+00;  0.0000000E+00;  1.0000000E+03;  1.0000000E-01;  0.0000000E+00;0;  0.0000000E+00;  0.0000000E+00;  0.0000000E+00;0;  0.0000000E+00;  4.0000000E+04;  0.0000000E+00;  0.0000000E+00;  4.0000000E+04;  0.0000000E+00;  4.0000000E+04;  0.0000000E+00;  0.0000000E+00;  0.0000000E+00;  0.0000000E+00;
 -1.8000001E-01;  9.9999998E-03; -3.4999999E-01;190;  0.0000000E+00;  0.0000000E+00;  0.0000000E+00;  1.0000000E+03;  1.0000000E-01;  0.0000000E+00;0;  0.0000000E+00;  0.0000000E+00;  0.0000000E+00;0;  0.0000000E+00;  4.0000000E+04;  0.0000000E+00;  0.0000000E+00;  4.0000000E+04;  0.0000000E+00;  4.0000000E+04;  0.0000000E+00;  0.0000000E+00;  0.0000000E+00;  0.0000000E+00;
 -1.8000001E-01;  9.9999998E-03; -3.4000000E-01;191;  0.0000000E+00;  0.0000000E+00;  0.0000000E+00;  1.0000000E+03;  1.0000000E-01;  0.0000000E+00;0;  0.0000000E+00;  0.0000000E+00;  0.0000000E+00;0;  0.0000000E+00;  4.0000000E+04;  0.0000000E+00;  0.0000000E+00;  4.0000000E+04;  0.0000000E+00;  4.0000000E+04;  0.0000000E+00;  0.0000000E+00;  0.0000000E+00;  0.0000000E+00;
 -1.8000001E-01;  9.9999998E-03; -3.3000001E-01;192;  0.0000000E+00;  0.0000000E+00;  0.0000000E+00;  1.0000000E+03;  1.0000000E-01;  0.0000000E+00;0;  0.0000000E+00;  0.0000000E+00;  0.0000000E+00;0;  0.0000000E+00;  4.0000000E+04;  0.0000000E+00;  0.0000000E+00;  4.0000000E+04;  0.0000000E+00;  4.0000000E+04;  0.0000000E+00;  0.0000000E+00;  0.0000000E+00;  0.0000000E+00;
 -1.8000001E-01;  9.9999998E-03; -3.1999999E-01;193;  0.0000000E+00;  0.0000000E+00;  0.0000000E+00;  1.0000000E+03;  1.0000000E-01;  0.0000000E+00;0;  0.0000000E+00;  0.0000000E+00;  0.0000000E+00;0;  0.0000000E+00;  4.0000000E+04;  0.0000000E+00;  0.0000000E+00;  4.0000000E+04;  0.0000000E+00;  4.0000000E+04;  0.0000000E+00;  0.0000000E+00;  0.0000000E+00;  0.0000000E+00;
 -1.8000001E-01;  9.9999998E-03; -3.1000000E-01;194;  0.0000000E+00;  0.0000000E+00;  0.0000000E+00;  1.0000000E+03;  1.0000000E-01;  0.0000000E+00;0;  0.0000000E+00;  0.0000000E+00;  0.0000000E+00;0;  0.0000000E+00;  4.0000000E+04;  0.0000000E+00;  0.0000000E+00;  4.0000000E+04;  0.0000000E+00;  4.0000000E+04;  0.0000000E+00;  0.0000000E+00;  0.0000000E+00;  0.0000000E+00;
 -1.8000001E-01;  9.9999998E-03; -3.0000001E-01;195;  0.0000000E+00;  0.0000000E+00;  0.0000000E+00;  1.0000000E+03;  1.0000000E-01;  0.0000000E+00;0;  0.0000000E+00;  0.0000000E+00;  0.0000000E+00;0;  0.0000000E+00;  4.0000000E+04;  0.0000000E+00;  0.0000000E+00;  4.0000000E+04;  0.0000000E+00;  4.0000000E+04;  0.0000000E+00;  0.0000000E+00;  0.0000000E+00;  0.0000000E+00;
 -1.8000001E-01;  9.9999998E-03; -2.8999999E-01;196;  0.0000000E+00;  0.0000000E+00;  0.0000000E+00;  1.0000000E+03;  1.0000000E-01;  0.0000000E+00;0;  0.0000000E+00;  0.0000000E+00;  0.0000000E+00;0;  0.0000000E+00;  4.0000000E+04;  0.0000000E+00;  0.0000000E+00;  4.0000000E+04;  0.0000000E+00;  4.0000000E+04;  0.0000000E+00;  0.0000000E+00;  0.0000000E+00;  0.0000000E+00;
 -1.8000001E-01;  9.9999998E-03; -2.8000000E-01;197;  0.0000000E+00;  0.0000000E+00;  0.0000000E+00;  1.0000000E+03;  1.0000000E-01;  0.0000000E+00;0;  0.0000000E+00;  0.0000000E+00;  0.0000000E+00;0;  0.0000000E+00;  4.0000000E+04;  0.0000000E+00;  0.0000000E+00;  4.0000000E+04;  0.0000000E+00;  4.0000000E+04;  0.0000000E+00;  0.0000000E+00;  0.0000000E+00;  0.0000000E+00;
 -1.7000000E-01;  9.9999998E-03; -4.4000000E-01;272;  0.0000000E+00;  0.0000000E+00;  0.0000000E+00;  1.0000000E+03;  1.0000000E-01;  0.0000000E+00;0;  0.0000000E+00;  0.0000000E+00;  0.0000000E+00;0;  0.0000000E+00;  4.0000000E+04;  0.0000000E+00;  0.0000000E+00;  4.0000000E+04;  0.0000000E+00;  4.0000000E+04;  0.0000000E+00;  0.0000000E+00;  0.0000000E+00;  0.0000000E+00;
 -1.7000000E-01;  9.9999998E-03; -4.3000001E-01;273;  0.0000000E+00;  0.0000000E+00;  0.0000000E+00;  1.0000000E+03;  1.0000000E-01;  0.0000000E+00;0;  0.0000000E+00;  0.0000000E+00;  0.0000000E+00;0;  0.0000000E+00;  4.0000000E+04;  0.0000000E+00;  0.0000000E+00;  4.0000000E+04;  0.0000000E+00;  4.0000000E+04;  0.0000000E+00;  0.0000000E+00;  0.0000000E+00;  0.0000000E+00;
 -1.7000000E-01;  9.9999998E-03; -4.1999999E-01;274;  0.0000000E+00;  0.0000000E+00;  0.0000000E+00;  1.0000000E+03;  1.0000000E-01;  0.0000000E+00;0;  0.0000000E+00;  0.0000000E+00;  0.0000000E+00;0;  0.0000000E+00;  4.0000000E+04;  0.0000000E+00;  0.0000000E+00;  4.0000000E+04;  0.0000000E+00;  4.0000000E+04;  0.0000000E+00;  0.0000000E+00;  0.0000000E+00;  0.0000000E+00;
 -1.7000000E-01;  9.9999998E-03; -4.1000000E-01;275;  0.0000000E+00;  0.0000000E+00;  0.0000000E+00;  1.0000000E+03;  1.0000000E-01;  0.0000000E+00;0;  0.0000000E+00;  0.0000000E+00;  0.0000000E+00;0;  0.0000000E+00;  4.0000000E+04;  0.0000000E+00;  0.0000000E+00;  4.0000000E+04;  0.0000000E+00;  4.0000000E+04;  0.0000000E+00;  0.0000000E+00;  0.0000000E+00;  0.0000000E+00;
 -1.7000000E-01;  9.9999998E-03; -4.0000001E-01;276;  0.0000000E+00;  0.0000000E+00;  0.0000000E+00;  1.0000000E+03;  1.0000000E-01;  0.0000000E+00;0;  0.0000000E+00;  0.0000000E+00;  0.0000000E+00;0;  0.0000000E+00;  4.0000000E+04;  0.0000000E+00;  0.0000000E+00;  4.0000000E+04;  0.0000000E+00;  4.0000000E+04;  0.0000000E+00;  0.0000000E+00;  0.0000000E+00;  0.0000000E+00;
 -1.7000000E-01;  9.9999998E-03; -3.8999999E-01;277;  0.0000000E+00;  0.0000000E+00;  0.0000000E+00;  1.0000000E+03;  1.0000000E-01;  0.0000000E+00;0;  0.0000000E+00;  0.0000000E+00;  0.0000000E+00;0;  0.0000000E+00;  4.0000000E+04;  0.0000000E+00;  0.0000000E+00;  4.0000000E+04;  0.0000000E+00;  4.0000000E+04;  0.0000000E+00;  0.0000000E+00;  0.0000000E+00;  0.0000000E+00;
 -1.7000000E-01;  9.9999998E-03; -3.8000000E-01;278;  0.0000000E+00;  0.0000000E+00;  0.0000000E+00;  1.0000000E+03;  1.0000000E-01;  0.0000000E+00;0;  0.0000000E+00;  0.0000000E+00;  0.0000000E+00;0;  0.0000000E+00;  4.0000000E+04;  0.0000000E+00;  0.0000000E+00;  4.0000000E+04;  0.0000000E+00;  4.0000000E+04;  0.0000000E+00;  0.0000000E+00;  0.0000000E+00;  0.0000000E+00;
 -1.7000000E-01;  9.9999998E-03; -3.7000000E-01;279;  0.0000000E+00;  0.0000000E+00;  0.0000000E+00;  1.0000000E+03;  1.0000000E-01;  0.0000000E+00;0;  0.0000000E+00;  0.0000000E+00;  0.0000000E+00;0;  0.0000000E+00;  4.0000000E+04;  0.0000000E+00;  0.0000000E+00;  4.0000000E+04;  0.0000000E+00;  4.0000000E+04;  0.0000000E+00;  0.0000000E+00;  0.0000000E+00;  0.0000000E+00;
 -1.7000000E-01;  9.9999998E-03; -3.6000001E-01;280;  0.0000000E+00;  0.0000000E+00;  0.0000000E+00;  1.0000000E+03;  1.0000000E-01;  0.0000000E+00;0;  0.0000000E+00;  0.0000000E+00;  0.0000000E+00;0;  0.0000000E+00;  4.0000000E+04;  0.0000000E+00;  0.0000000E+00;  4.0000000E+04;  0.0000000E+00;  4.0000000E+04;  0.0000000E+00;  0.0000000E+00;  0.0000000E+00;  0.0000000E+00;
 -1.7000000E-01;  9.9999998E-03; -3.4999999E-01;281;  0.0000000E+00;  0.0000000E+00;  0.0000000E+00;  1.0000000E+03;  1.0000000E-01;  0.0000000E+00;0;  0.0000000E+00;  0.0000000E+00;  0.0000000E+00;0;  0.0000000E+00;  4.0000000E+04;  0.0000000E+00;  0.0000000E+00;  4.0000000E+04;  0.0000000E+00;  4.0000000E+04;  0.0000000E+00;  0.0000000E+00;  0.0000000E+00;  0.0000000E+00;
 -1.7000000E-01;  9.9999998E-03; -3.4000000E-01;282;  0.0000000E+00;  0.0000000E+00;  0.0000000E+00;  1.0000000E+03;  1.0000000E-01;  0.0000000E+00;0;  0.0000000E+00;  0.0000000E+00;  0.0000000E+00;0;  0.0000000E+00;  4.0000000E+04;  0.0000000E+00;  0.0000000E+00;  4.0000000E+04;  0.0000000E+00;  4.0000000E+04;  0.0000000E+00;  0.0000000E+00;  0.0000000E+00;  0.0000000E+00;
 -1.7000000E-01;  9.9999998E-03; -3.3000001E-01;283;  0.0000000E+00;  0.0000000E+00;  0.0000000E+00;  1.0000000E+03;  1.0000000E-01;  0.0000000E+00;0;  0.0000000E+00;  0.0000000E+00;  0.0000000E+00;0;  0.0000000E+00;  4.0000000E+04;  0.0000000E+00;  0.0000000E+00;  4.0000000E+04;  0.0000000E+00;  4.0000000E+04;  0.0000000E+00;  0.0000000E+00;  0.0000000E+00;  0.0000000E+00;
 -1.7000000E-01;  9.9999998E-03; -3.1999999E-01;284;  0.0000000E+00;  0.0000000E+00;  0.0000000E+00;  1.0000000E+03;  1.0000000E-01;  0.0000000E+00;0;  0.0000000E+00;  0.0000000E+00;  0.0000000E+00;0;  0.0000000E+00;  4.0000000E+04;  0.0000000E+00;  0.0000000E+00;  4.0000000E+04;  0.0000000E+00;  4.0000000E+04;  0.0000000E+00;  0.0000000E+00;  0.0000000E+00;  0.0000000E+00;
 -1.7000000E-01;  9.9999998E-03; -3.1000000E-01;285;  0.0000000E+00;  0.0000000E+00;  0.0000000E+00;  1.0000000E+03;  1.0000000E-01;  0.0000000E+00;0;  0.0000000E+00;  0.0000000E+00;  0.0000000E+00;0;  0.0000000E+00;  4.0000000E+04;  0.0000000E+00;  0.0000000E+00;  4.0000000E+04;  0.0000000E+00;  4.0000000E+04;  0.0000000E+00;  0.0000000E+00;  0.0000000E+00;  0.0000000E+00;
 -1.7000000E-01;  9.9999998E-03; -3.0000001E-01;286;  0.0000000E+00;  0.0000000E+00;  0.0000000E+00;  1.0000000E+03;  1.0000000E-01;  0.0000000E+00;0;  0.0000000E+00;  0.0000000E+00;  0.0000000E+00;0;  0.0000000E+00;  4.0000000E+04;  0.0000000E+00;  0.0000000E+00;  4.0000000E+04;  0.0000000E+00;  4.0000000E+04;  0.0000000E+00;  0.0000000E+00;  0.0000000E+00;  0.0000000E+00;
 -1.7000000E-01;  9.9999998E-03; -2.8999999E-01;287;  0.0000000E+00;  0.0000000E+00;  0.0000000E+00;  1.0000000E+03;  1.0000000E-01;  0.0000000E+00;0;  0.0000000E+00;  0.0000000E+00;  0.0000000E+00;0;  0.0000000E+00;  4.0000000E+04;  0.0000000E+00;  0.0000000E+00;  4.0000000E+04;  0.0000000E+00;  4.0000000E+04;  0.0000000E+00;  0.0000000E+00;  0.0000000E+00;  6.8926012E-14;
 -1.7000000E-01;  9.9999998E-03; -2.8000000E-01;288;  0.0000000E+00;  0.0000000E+00;  0.0000000E+00;  1.0000000E+03;  1.0000000E-01;  0.0000000E+00;0;  0.0000000E+00;  0.0000000E+00;  0.0000000E+00;0;  0.0000000E+00;  4.0000000E+04;  0.0000000E+00;  0.0000000E+00;  4.0000000E+04;  0.0000000E+00;  4.0000000E+04;  0.0000000E+00;  0.0000000E+00;  0.0000000E+00;  1.4968563E-11;
 -1.6000000E-01;  9.9999998E-03; -4.4000000E-01;363;  0.0000000E+00;  0.0000000E+00;  0.0000000E+00;  1.0000000E+03;  1.0000000E-01;  0.0000000E+00;0;  0.0000000E+00;  0.0000000E+00;  0.0000000E+00;0;  0.0000000E+00;  4.0000000E+04;  0.0000000E+00;  0.0000000E+00;  4.0000000E+04;  0.0000000E+00;  4.0000000E+04;  0.0000000E+00;  0.0000000E+00;  0.0000000E+00;  0.0000000E+00;
 -1.6000000E-01;  9.9999998E-03; -4.3000001E-01;364;  0.0000000E+00;  0.0000000E+00;  0.0000000E+00;  1.0000000E+03;  1.0000000E-01;  0.0000000E+00;0;  0.0000000E+00;  0.0000000E+00;  0.0000000E+00;0;  0.0000000E+00;  4.0000000E+04;  0.0000000E+00;  0.0000000E+00;  4.0000000E+04;  0.0000000E+00;  4.0000000E+04;  0.0000000E+00;  0.0000000E+00;  0.0000000E+00;  0.0000000E+00;
 -1.6000000E-01;  9.9999998E-03; -4.1999999E-01;365;  0.0000000E+00;  0.0000000E+00;  0.0000000E+00;  1.0000000E+03;  1.0000000E-01;  0.0000000E+00;0;  0.0000000E+00;  0.0000000E+00;  0.0000000E+00;0;  0.0000000E+00;  4.0000000E+04;  0.0000000E+00;  0.0000000E+00;  4.0000000E+04;  0.0000000E+00;  4.0000000E+04;  0.0000000E+00;  0.0000000E+00;  0.0000000E+00;  0.0000000E+00;
 -1.6000000E-01;  9.9999998E-03; -4.1000000E-01;366;  0.0000000E+00;  0.0000000E+00;  0.0000000E+00;  1.0000000E+03;  1.0000000E-01;  0.0000000E+00;0;  0.0000000E+00;  0.0000000E+00;  0.0000000E+00;0;  0.0000000E+00;  4.0000000E+04;  0.0000000E+00;  0.0000000E+00;  4.0000000E+04;  0.0000000E+00;  4.0000000E+04;  0.0000000E+00;  0.0000000E+00;  0.0000000E+00;  0.0000000E+00;
 -1.6000000E-01;  9.9999998E-03; -4.0000001E-01;367;  0.0000000E+00;  0.0000000E+00;  0.0000000E+00;  1.0000000E+03;  1.0000000E-01;  0.0000000E+00;0;  0.0000000E+00;  0.0000000E+00;  0.0000000E+00;0;  0.0000000E+00;  4.0000000E+04;  0.0000000E+00;  0.0000000E+00;  4.0000000E+04;  0.0000000E+00;  4.0000000E+04;  0.0000000E+00;  0.0000000E+00;  0.0000000E+00;  0.0000000E+00;
 -1.6000000E-01;  9.9999998E-03; -3.8999999E-01;368;  0.0000000E+00;  0.0000000E+00;  0.0000000E+00;  1.0000000E+03;  1.0000000E-01;  0.0000000E+00;0;  0.0000000E+00;  0.0000000E+00;  0.0000000E+00;0;  0.0000000E+00;  4.0000000E+04;  0.0000000E+00;  0.0000000E+00;  4.0000000E+04;  0.0000000E+00;  4.0000000E+04;  0.0000000E+00;  0.0000000E+00;  0.0000000E+00;  0.0000000E+00;
 -1.6000000E-01;  9.9999998E-03; -3.8000000E-01;369;  0.0000000E+00;  0.0000000E+00;  0.0000000E+00;  1.0000000E+03;  1.0000000E-01;  0.0000000E+00;0;  0.0000000E+00;  0.0000000E+00;  0.0000000E+00;0;  0.0000000E+00;  4.0000000E+04;  0.0000000E+00;  0.0000000E+00;  4.0000000E+04;  0.0000000E+00;  4.0000000E+04;  0.0000000E+00;  0.0000000E+00;  0.0000000E+00;  0.0000000E+00;
 -1.6000000E-01;  9.9999998E-03; -3.7000000E-01;370;  0.0000000E+00;  0.0000000E+00;  0.0000000E+00;  1.0000000E+03;  1.0000000E-01;  0.0000000E+00;0;  0.0000000E+00;  0.0000000E+00;  0.0000000E+00;0;  0.0000000E+00;  4.0000000E+04;  0.0000000E+00;  0.0000000E+00;  4.0000000E+04;  0.0000000E+00;  4.0000000E+04;  0.0000000E+00;  0.0000000E+00;  0.0000000E+00;  0.0000000E+00;
 -1.6000000E-01;  9.9999998E-03; -3.6000001E-01;371;  0.0000000E+00;  0.0000000E+00;  0.0000000E+00;  1.0000000E+03;  1.0000000E-01;  0.0000000E+00;0;  0.0000000E+00;  0.0000000E+00;  0.0000000E+00;0;  0.0000000E+00;  4.0000000E+04;  0.0000000E+00;  0.0000000E+00;  4.0000000E+04;  0.0000000E+00;  4.0000000E+04;  0.0000000E+00;  0.0000000E+00;  0.0000000E+00;  0.0000000E+00;
 -1.6000000E-01;  9.9999998E-03; -3.4999999E-01;372;  0.0000000E+00;  0.0000000E+00;  0.0000000E+00;  1.0000000E+03;  1.0000000E-01;  0.0000000E+00;0;  0.0000000E+00;  0.0000000E+00;  0.0000000E+00;0;  0.0000000E+00;  4.0000000E+04;  0.0000000E+00;  0.0000000E+00;  4.0000000E+04;  0.0000000E+00;  4.0000000E+04;  0.0000000E+00;  0.0000000E+00;  0.0000000E+00;  0.0000000E+00;
 -1.6000000E-01;  9.9999998E-03; -3.4000000E-01;373;  0.0000000E+00;  0.0000000E+00;  0.0000000E+00;  1.0000000E+03;  1.0000000E-01;  0.0000000E+00;0;  0.0000000E+00;  0.0000000E+00;  0.0000000E+00;0; -4.2831408E-10;  4.0000000E+04;  0.0000000E+00;  0.0000000E+00;  4.0000000E+04;  0.0000000E+00;  4.0000000E+04; -2.3787541E-10;  0.0000000E+00; -1.9043866E-10;  1.0047148E-03;
 -1.6000000E-01;  9.9999998E-03; -3.3000001E-01;374;  0.0000000E+00;  0.0000000E+00;  0.0000000E+00;  1.0000000E+03;  1.0000000E-01;  0.0000000E+00;0;  0.0000000E+00;  0.0000000E+00;  0.0000000E+00;0; -6.1914123E-09;  4.0000000E+04;  0.0000000E+00;  0.0000000E+00;  4.0000000E+04;  0.0000000E+00;  4.0000000E+04; -3.7286645E-09;  0.0000000E+00; -2.4627478E-09;  7.7600363E-03;
 -1.6000000E-01;  9.9999998E-03; -3.1999999E-01;375;  0.0000000E+00;  0.0000000E+00;  0.0000000E+00;  1.0000000E+03;  1.0000000E-01;  0.0000000E+00;0;  0.0000000E+00;  0.0000000E+00;  0.0000000E+00;0; -1.7569548E-08;  4.0000000E+04;  0.0000000E+00;  0.0000000E+00;  4.0000000E+04;  0.0000000E+00;  4.0000000E+04; -1.0094280E-08;  0.0000000E+00; -7.4752675E-09;  2.3641529E-02;
 -1.6000000E-01;  9.9999998E-03; -3.1000000E-01;376;  0.0000000E+00;  0.0000000E+00;  0.0000000E+00;  1.0000000E+03;  1.0000000E-01;  0.0000000E+00;0;  0.0000000E+00;  0.0000000E+00;  0.0000000E+00;0; -2.3696053E-08;  4.0000000E+04;  0.0000000E+00;  0.0000000E+00;  4.0000000E+04;  0.0000000E+00;  4.0000000E+04; -1.0572927E-08;  0.0000000E+00; -1.3123126E-08;  4.4145264E-02;
 -1.6000000E-01;  9.9999998E-03; -3.0000001E-01;377;  0.0000000E+00;  0.0000000E+00;  0.0000000E+00;  1.0000000E+03;  1.0000000E-01;  0.0000000E+00;0;  0.0000000E+00;  0.0000000E+00;  0.0000000E+00;0; -7.6645996E-09;  4.0000000E+04;  0.0000000E+00;  0.0000000E+00;  4.0000000E+04;  0.0000000E+00;  4.0000000E+04;  8.3375760E-09;  0.0000000E+00; -1.6002176E-08;  5.6221705E-02;
 -1.6000000E-01;  9.9999998E-03; -2.8999999E-01;378;  0.0000000E+00;  0.0000000E+00;  0.0000000E+00;  1.0000000E+03;  1.0000000E-01;  0.0000000E+00;0;  0.0000000E+00;  0.0000000E+00;  0.0000000E+00;0;  4.3166736E-08;  4.0000000E+04;  0.0000000E+00;  0.0000000E+00;  4.0000000E+04;  0.0000000E+00;  4.0000000E+04;  5.6933860E-08;  0.0000000E+00; -1.3767123E-08;  4.5424815E-02;
 -1.6000000E-01;  9.9999998E-03; -2.8000000E-01;379;  0.0000000E+00;  0.0000000E+00;  0.0000000E+00;  1.0000000E+03;  1.0000000E-01;  0.0000000E+00;0;  0.0000000E+00;  0.0000000E+00;  0.0000000E+00;0;  1.2813726E-07;  4.0000000E+04;  0.0000000E+00;  0.0000000E+00;  4.0000000E+04;  0.0000000E+00;  4.0000000E+04;  1.3496648E-07;  0.0000000E+00; -6.8292247E-09;  5.7370956E-03;
 -1.5000001E-01;  9.9999998E-03; -4.4000000E-01;454;  0.0000000E+00;  0.0000000E+00;  0.0000000E+00;  1.0000000E+03;  1.0000000E-01;  0.0000000E+00;0;  0.0000000E+00;  0.0000000E+00;  0.0000000E+00;0;  0.0000000E+00;  4.0000000E+04;  0.0000000E+00;  0.0000000E+00;  4.0000000E+04;  0.0000000E+00;  4.0000000E+04;  0.0000000E+00;  0.0000000E+00;  0.0000000E+00;  0.0000000E+00;
 -1.5000001E-01;  9.9999998E-03; -4.3000001E-01;455;  0.0000000E+00;  0.0000000E+00;  0.0000000E+00;  1.0000000E+03;  1.0000000E-01;  0.0000000E+00;0;  0.0000000E+00;  0.0000000E+00;  0.0000000E+00;0;  0.0000000E+00;  4.0000000E+04;  0.0000000E+00;  0.0000000E+00;  4.0000000E+04;  0.0000000E+00;  4.0000000E+04;  0.0000000E+00;  0.0000000E+00;  0.0000000E+00;  0.0000000E+00;
 -1.5000001E-01;  9.9999998E-03; -4.1999999E-01;456;  0.0000000E+00;  0.0000000E+00;  0.0000000E+00;  1.0000000E+03;  1.0000000E-01;  0.0000000E+00;0;  0.0000000E+00;  0.0000000E+00;  0.0000000E+00;0;  0.0000000E+00;  4.0000000E+04;  0.0000000E+00;  0.0000000E+00;  4.0000000E+04;  0.0000000E+00;  4.0000000E+04;  0.0000000E+00;  0.0000000E+00;  0.0000000E+00;  0.0000000E+00;
 -1.5000001E-01;  9.9999998E-03; -4.1000000E-01;457;  0.0000000E+00;  0.0000000E+00;  0.0000000E+00;  1.0000000E+03;  1.0000000E-01;  0.0000000E+00;0;  0.0000000E+00;  0.0000000E+00;  0.0000000E+00;0;  0.0000000E+00;  4.0000000E+04;  0.0000000E+00;  0.0000000E+00;  4.0000000E+04;  0.0000000E+00;  4.0000000E+04;  0.0000000E+00;  0.0000000E+00;  0.0000000E+00;  0.0000000E+00;
 -1.5000001E-01;  9.9999998E-03; -4.0000001E-01;458;  0.0000000E+00;  0.0000000E+00;  0.0000000E+00;  1.0000000E+03;  1.0000000E-01;  0.0000000E+00;0;  0.0000000E+00;  0.0000000E+00;  0.0000000E+00;0;  0.0000000E+00;  4.0000000E+04;  0.0000000E+00;  0.0000000E+00;  4.0000000E+04;  0.0000000E+00;  4.0000000E+04;  0.0000000E+00;  0.0000000E+00;  0.0000000E+00;  0.0000000E+00;
 -1.5000001E-01;  9.9999998E-03; -3.8999999E-01;459;  0.0000000E+00;  0.0000000E+00;  0.0000000E+00;  1.0000000E+03;  1.0000000E-01;  0.0000000E+00;0;  0.0000000E+00;  0.0000000E+00;  0.0000000E+00;0;  0.0000000E+00;  4.0000000E+04;  0.0000000E+00;  0.0000000E+00;  4.0000000E+04;  0.0000000E+00;  4.0000000E+04;  0.0000000E+00;  0.0000000E+00;  0.0000000E+00;  0.0000000E+00;
 -1.5000001E-01;  9.9999998E-03; -3.8000000E-01;460;  0.0000000E+00;  0.0000000E+00;  0.0000000E+00;  1.0000000E+03;  1.0000000E-01;  0.0000000E+00;0;  0.0000000E+00;  0.0000000E+00;  0.0000000E+00;0;  0.0000000E+00;  4.0000000E+04;  0.0000000E+00;  0.0000000E+00;  4.0000000E+04;  0.0000000E+00;  4.0000000E+04;  0.0000000E+00;  0.0000000E+00;  0.0000000E+00;  0.0000000E+00;
 -1.5000001E-01;  9.9999998E-03; -3.7000000E-01;461;  0.0000000E+00;  0.0000000E+00;  0.0000000E+00;  1.0000000E+03;  1.0000000E-01;  0.0000000E+00;0;  0.0000000E+00;  0.0000000E+00;  0.0000000E+00;0;  0.0000000E+00;  4.0000000E+04;  0.0000000E+00;  0.0000000E+00;  4.0000000E+04;  0.0000000E+00;  4.0000000E+04;  0.0000000E+00;  0.0000000E+00;  0.0000000E+00;  3.0836722E-09;
 -1.5000001E-01;  9.9999998E-03; -3.6000001E-01;462;  0.0000000E+00;  0.0000000E+00;  0.0000000E+00;  1.0000000E+03;  1.0000000E-01;  0.0000000E+00;0;  0.0000000E+00;  0.0000000E+00;  0.0000000E+00;0; -4.9671094E-09;  4.0000000E+04;  0.0000000E+00;  0.0000000E+00;  4.0000000E+04;  0.0000000E+00;  4.0000000E+04; -2.1757007E-09;  0.0000000E+00; -2.7914084E-09;  8.7945173E-03;
 -1.5000001E-01;  9.9999998E-03; -3.4999999E-01;463;  0.0000000E+00;  0.0000000E+00;  0.0000000E+00;  1.0000000E+03;  1.0000000E-01;  0.0000000E+00;0;  0.0000000E+00;  0.0000000E+00;  0.0000000E+00;0; -3.9072951E-08;  4.0000000E+04;  0.0000000E+00;  0.0000000E+00;  4.0000000E+04;  0.0000000E+00;  4.0000000E+04; -1.8070386E-08;  0.0000000E+00; -2.1002565E-08;  5.6113333E-02;
 -1.5000001E-01;  9.9999998E-03; -3.4000000E-01;464;  0.0000000E+00;  0.0000000E+00;  0.0000000E+00;  1.0000000E+03;  1.0000000E-01;  0.0000000E+00;0;  0.0000000E+00;  0.0000000E+00;  0.0000000E+00;0; -1.1937124E-07;  4.0000000E+04;  0.0000000E+00;  0.0000000E+00;  4.0000000E+04;  0.0000000E+00;  4.0000000E+04; -5.4819090E-08;  0.0000000E+00; -6.4552147E-08;  1.8018834E-01;
 -1.5000001E-01;  9.9999998E-03; -3.3000001E-01;465;  0.0000000E+00;  0.0000000E+00;  0.0000000E+00;  1.0000000E+03;  1.0000000E-01;  0.0000000E+00;0;  0.0000000E+00;  0.0000000E+00;  0.0000000E+00;0; -2.1809494E-07;  4.0000000E+04;  0.0000000E+00;  0.0000000E+00;  4.0000000E+04;  0.0000000E+00;  4.0000000E+04; -8.6748713E-08;  0.0000000E+00; -1.3134623E-07;  3.9055026E-01;
 -1.5000001E-01;  9.9999998E-03; -3.1999999E-01;466;  0.0000000E+00;  0.0000000E+00;  0.0000000E+00;  1.0000000E+03;  1.0000000E-01;  0.0000000E+00;0;  0.0000000E+00;  0.0000000E+00;  0.0000000E+00;0; -2.5310206E-07;  4.0000000E+04;  0.0000000E+00;  0.0000000E+00;  4.0000000E+04;  0.0000000E+00;  4.0000000E+04; -4.6202761E-08;  0.0000000E+00; -2.0689930E-07;  6.3871312E-01;
 -1.5000001E-01;  9.9999998E-03; -3.1000000E-01;467;  0.0000000E+00;  0.0000000E+00;  0.0000000E+00;  1.0000000E+03;  1.0000000E-01;  0.0000000E+00;0;  0.0000000E+00;  0.0000000E+00;  0.0000000E+00;0; -1.1133578E-07;  4.0000000E+04;  0.0000000E+00;  0.0000000E+00;  4.0000000E+04;  0.0000000E+00;  4.0000000E+04;  1.5826073E-07;  0.0000000E+00; -2.6959651E-07;  8.2313508E-01;
 -1.5000001E-01;  9.9999998E-03; -3.0000001E-01;468;  0.0000000E+00;  0.0000000E+00;  0.0000000E+00;  1.0000000E+03;  1.0000000E-01;  0.0000000E+00;0;  0.0000000E+00;  0.0000000E+00;  0.0000000E+00;0;  3.0993908E-07;  4.0000000E+04;  0.0000000E+00;  0.0000000E+00;  4.0000000E+04;  0.0000000E+00;  4.0000000E+04;  6.0839608E-07;  0.0000000E+00; -2.9845700E-07;  8.2609278E-01;
 -1.5000001E-01;  9.9999998E-03; -2.8999999E-01;469;  0.0000000E+00;  0.0000000E+00;  0.0000000E+00;  1.0000000E+03;  1.0000000E-01;  0.0000000E+00;0;  0.0000000E+00;  0.0000000E+00;  0.0000000E+00;0;  1.0601869E-06;  4.0000000E+04;  0.0000000E+00;  0.0000000E+00;  4.0000000E+04;  0.0000000E+00;  4.0000000E+04;  1.3411886E-06;  0.0000000E+00; -2.8100172E-07;  5.6312412E-01;
 -1.5000001E-01;  9.9999998E-03; -2.8000000E-01;470;  0.0000000E+00;  0.0000000E+00;  0.0000000E+00;  1.0000000E+03;  1.0000000E-01;  0.0000000E+00;0;  0.0000000E+00;  0.0000000E+00;  0.0000000E+00;0;  2.1065118E-06;  4.0000000E+04;  0.0000000E+00;  0.0000000E+00;  4.0000000E+04;  0.0000000E+00;  4.0000000E+04;  2.3248911E-06;  0.0000000E+00; -2.1837921E-07;  2.6784059E-02;
 -1.4000000E-01;  9.9999998E-03; -4.4000000E-01;545;  0.0000000E+00;  0.0000000E+00;  0.0000000E+00;  1.0000000E+03;  1.0000000E-01;  0.0000000E+00;0;  0.0000000E+00;  0.0000000E+00;  0.0000000E+00;0;  0.0000000E+00;  4.0000000E+04;  0.0000000E+00;  0.0000000E+00;  4.0000000E+04;  0.0000000E+00;  4.0000000E+04;  0.0000000E+00;  0.0000000E+00;  0.0000000E+00;  0.0000000E+00;
 -1.4000000E-01;  9.9999998E-03; -4.3000001E-01;546;  0.0000000E+00;  0.0000000E+00;  0.0000000E+00;  1.0000000E+03;  1.0000000E-01;  0.0000000E+00;0;  0.0000000E+00;  0.0000000E+00;  0.0000000E+00;0;  0.0000000E+00;  4.0000000E+04;  0.0000000E+00;  0.0000000E+00;  4.0000000E+04;  0.0000000E+00;  4.0000000E+04;  0.0000000E+00;  0.0000000E+00;  0.0000000E+00;  0.0000000E+00;
 -1.4000000E-01;  9.9999998E-03; -4.1999999E-01;547;  0.0000000E+00;  0.0000000E+00;  0.0000000E+00;  1.0000000E+03;  1.0000000E-01;  0.0000000E+00;0;  0.0000000E+00;  0.0000000E+00;  0.0000000E+00;0;  0.0000000E+00;  4.0000000E+04;  0.0000000E+00;  0.0000000E+00;  4.0000000E+04;  0.0000000E+00;  4.0000000E+04;  0.0000000E+00;  0.0000000E+00;  0.0000000E+00;  0.0000000E+00;
 -1.4000000E-01;  9.9999998E-03; -4.1000000E-01;548;  0.0000000E+00;  0.0000000E+00;  0.0000000E+00;  1.0000000E+03;  1.0000000E-01;  0.0000000E+00;0;  0.0000000E+00;  0.0000000E+00;  0.0000000E+00;0;  0.0000000E+00;  4.0000000E+04;  0.0000000E+00;  0.0000000E+00;  4.0000000E+04;  0.0000000E+00;  4.0000000E+04;  0.0000000E+00;  0.0000000E+00;  0.0000000E+00;  0.0000000E+00;
 -1.4000000E-01;  9.9999998E-03; -4.0000001E-01;549;  0.0000000E+00;  0.0000000E+00;  0.0000000E+00;  1.0000000E+03;  1.0000000E-01;  0.0000000E+00;0;  0.0000000E+00;  0.0000000E+00;  0.0000000E+00;0;  0.0000000E+00;  4.0000000E+04;  0.0000000E+00;  0.0000000E+00;  4.0000000E+04;  0.0000000E+00;  4.0000000E+04;  0.0000000E+00;  0.0000000E+00;  0.0000000E+00;  0.0000000E+00;
 -1.4000000E-01;  9.9999998E-03; -3.8999999E-01;550;  0.0000000E+00;  0.0000000E+00;  0.0000000E+00;  1.0000000E+03;  1.0000000E-01;  0.0000000E+00;0;  0.0000000E+00;  0.0000000E+00;  0.0000000E+00;0;  0.0000000E+00;  4.0000000E+04;  0.0000000E+00;  0.0000000E+00;  4.0000000E+04;  0.0000000E+00;  4.0000000E+04;  0.0000000E+00;  0.0000000E+00;  0.0000000E+00;  0.0000000E+00;
 -1.4000000E-01;  9.9999998E-03; -3.8000000E-01;551;  0.0000000E+00;  0.0000000E+00;  0.0000000E+00;  1.0000000E+03;  1.0000000E-01;  0.0000000E+00;0;  0.0000000E+00;  0.0000000E+00;  0.0000000E+00;0; -2.6537805E-09;  4.0000000E+04;  0.0000000E+00;  0.0000000E+00;  4.0000000E+04;  0.0000000E+00;  4.0000000E+04; -8.7810442E-10;  0.0000000E+00; -1.7756762E-09;  6.8888427E-03;
 -1.4000000E-01;  9.9999998E-03; -3.7000000E-01;552;  0.0000000E+00;  0.0000000E+00;  0.0000000E+00;  1.0000000E+03;  1.0000000E-01;  0.0000000E+00;0;  0.0000000E+00;  0.0000000E+00;  0.0000000E+00;0; -5.9453100E-08;  4.0000000E+04;  0.0000000E+00;  0.0000000E+00;  4.0000000E+04;  0.0000000E+00;  4.0000000E+04; -2.6027582E-08;  0.0000000E+00; -3.3425518E-08;  9.2904814E-02;
 -1.4000000E-01;  9.9999998E-03; -3.6000001E-01;553;  0.0000000E+00;  0.0000000E+00;  0.0000000E+00;  1.0000000E+03;  1.0000000E-01;  0.0000000E+00;0;  0.0000000E+00;  0.0000000E+00;  0.0000000E+00;0; -2.6217705E-07;  4.0000000E+04;  0.0000000E+00;  0.0000000E+00;  4.0000000E+04;  0.0000000E+00;  4.0000000E+04; -1.2399451E-07;  0.0000000E+00; -1.3818254E-07;  4.0056312E-01;
 -1.4000000E-01;  9.9999998E-03; -3.4999999E-01;554;  0.0000000E+00;  0.0000000E+00;  0.0000000E+00;  1.0000000E+03;  1.0000000E-01;  0.0000000E+00;0;  0.0000000E+00;  0.0000000E+00;  0.0000000E+00;0; -6.3472385E-07;  4.0000000E+04;  0.0000000E+00;  0.0000000E+00;  4.0000000E+04;  0.0000000E+00;  4.0000000E+04; -2.9639497E-07;  0.0000000E+00; -3.3832885E-07;  1.0486573E+00;
 -1.4000000E-01;  9.9999998E-03; -3.4000000E-01;555;  0.0000000E+00;  0.0000000E+00;  0.0000000E+00;  1.0000000E+03;  1.0000000E-01;  0.0000000E+00;0;  0.0000000E+00;  0.0000000E+00;  0.0000000E+00;0; -1.0912078E-06;  4.0000000E+04;  0.0000000E+00;  0.0000000E+00;  4.0000000E+04;  0.0000000E+00;  4.0000000E+04; -4.6558543E-07;  0.0000000E+00; -6.2562236E-07;  2.0442803E+00;
 -1.4000000E-01;  9.9999998E-03; -3.3000001E-01;556;  0.0000000E+00;  0.0000000E+00;  0.0000000E+00;  1.0000000E+03;  1.0000000E-01;  0.0000000E+00;0;  0.0000000E+00;  0.0000000E+00;  0.0000000E+00;0; -1.4230770E-06;  4.0000000E+04;  0.0000000E+00;  0.0000000E+00;  4.0000000E+04;  0.0000000E+00;  4.0000000E+04; -4.6063099E-07;  0.0000000E+00; -9.6244605E-07;  3.2235677E+00;
 -1.4000000E-01;  9.9999998E-03; -3.1999999E-01;557;  0.0000000E+00;  0.0000000E+00;  0.0000000E+00;  1.0000000E+03;  1.0000000E-01;  0.0000000E+00;0;  0.0000000E+00;  0.0000000E+00;  0.0000000E+00;0; -1.3290187E-06;  4.0000000E+04;  0.0000000E+00;  0.0000000E+00;  4.0000000E+04;  0.0000000E+00;  4.0000000E+04; -3.9632823E-08;  0.0000000E+00; -1.2893859E-06;  4.2550464E+00;
 -1.4000000E-01;  9.9999998E-03; -3.1000000E-01;558;  0.0000000E+00;  0.0000000E+00;  0.0000000E+00;  1.0000000E+03;  1.0000000E-01;  0.0000000E+00;0;  0.0000000E+00;  0.0000000E+00;  0.0000000E+00;0; -4.8880827E-07;  4.0000000E+04;  0.0000000E+00;  0.0000000E+00;  4.0000000E+04;  0.0000000E+00;  4.0000000E+04;  1.0488877E-06;  0.0000000E+00; -1.5376960E-06;  4.7214055E+00;
 -1.4000000E-01;  9.9999998E-03; -3.0000001E-01;559;  0.0000000E+00;  0.0000000E+00;  0.0000000E+00;  1.0000000E+03;  1.0000000E-01;  0.0000000E+00;0;  0.0000000E+00;  0.0000000E+00;  0.0000000E+00;0;  1.3416667E-06;  4.0000000E+04;  0.0000000E+00;  0.0000000E+00;  4.0000000E+04;  0.0000000E+00;  4.0000000E+04;  2.9871817E-06;  0.0000000E+00; -1.6455150E-06;  4.2469301E+00;
 -1.4000000E-01;  9.9999998E-03; -2.8999999E-01;560;  0.0000000E+00;  0.0000000E+00;  0.0000000E+00;  1.0000000E+03;  1.0000000E-01;  0.0000000E+00;0;  0.0000000E+00;  0.0000000E+00;  0.0000000E+00;0;  4.2418978E-06;  4.0000000E+04;  0.0000000E+00;  0.0000000E+00;  4.0000000E+04;  0.0000000E+00;  4.0000000E+04;  5.8171468E-06;  0.0000000E+00; -1.5752487E-06;  2.6276631E+00;
 -1.4000000E-01;  9.9999998E-03; -2.8000000E-01;561;  0.0000000E+00;  0.0000000E+00;  0.0000000E+00;  1.0000000E+03;  1.0000000E-01;  0.0000000E+00;0;  0.0000000E+00;  0.0000000E+00;  0.0000000E+00;0;  8.0729342E-06;  4.0000000E+04;  0.0000000E+00;  0.0000000E+00;  4.0000000E+04;  0.0000000E+00;  4.0000000E+04;  9.3992858E-06;  0.0000000E+00; -1.3263514E-06;  9.4237939E-02;
 -1.3000000E-01;  9.9999998E-03; -4.4000000E-01;636;  0.0000000E+00;  0.0000000E+00;  0.0000000E+00;  1.0000000E+03;  1.0000000E-01;  0.0000000E+00;0;  0.0000000E+00;  0.0000000E+00;  0.0000000E+00;0;  0.0000000E+00;  4.0000000E+04;  0.0000000E+00;  0.0000000E+00;  4.0000000E+04;  0.0000000E+00;  4.0000000E+04;  0.0000000E+00;  0.0000000E+00;  0.0000000E+00;  0.0000000E+00;
 -1.3000000E-01;  9.9999998E-03; -4.3000001E-01;637;  0.0000000E+00;  0.0000000E+00;  0.0000000E+00;  1.0000000E+03;  1.0000000E-01;  0.0000000E+00;0;  0.0000000E+00;  0.0000000E+00;  0.0000000E+00;0;  0.0000000E+00;  4.0000000E+04;  0.0000000E+00;  0.0000000E+00;  4.0000000E+04;  0.0000000E+00;  4.0000000E+04;  0.0000000E+00;  0.0000000E+00;  0.0000000E+00;  0.0000000E+00;
 -1.3000000E-01;  9.9999998E-03; -4.1999999E-01;638;  0.0000000E+00;  0.0000000E+00;  0.0000000E+00;  1.0000000E+03;  1.0000000E-01;  0.0000000E+00;0;  0.0000000E+00;  0.0000000E+00;  0.0000000E+00;0;  0.0000000E+00;  4.0000000E+04;  0.0000000E+00;  0.0000000E+00;  4.0000000E+04;  0.0000000E+00;  4.0000000E+04;  0.0000000E+00;  0.0000000E+00;  0.0000000E+00;  0.0000000E+00;
 -1.3000000E-01;  9.9999998E-03; -4.1000000E-01;639;  0.0000000E+00;  0.0000000E+00;  0.0000000E+00;  1.0000000E+03;  1.0000000E-01;  0.0000000E+00;0;  0.0000000E+00;  0.0000000E+00;  0.0000000E+00;0;  0.0000000E+00;  4.0000000E+04;  0.0000000E+00;  0.0000000E+00;  4.0000000E+04;  0.0000000E+00;  4.0000000E+04;  0.0000000E+00;  0.0000000E+00;  0.0000000E+00;  0.0000000E+00;
 -1.3000000E-01;  9.9999998E-03; -4.0000001E-01;640;  0.0000000E+00;  0.0000000E+00;  0.0000000E+00;  1.0000000E+03;  1.0000000E-01;  0.0000000E+00;0;  0.0000000E+00;  0.0000000E+00;  0.0000000E+00;0;  0.0000000E+00;  4.0000000E+04;  0.0000000E+00;  0.0000000E+00;  4.0000000E+04;  0.0000000E+00;  4.0000000E+04;  0.0000000E+00;  0.0000000E+00;  0.0000000E+00;  0.0000000E+00;
 -1.3000000E-01;  9.9999998E-03; -3.8999999E-01;641;  0.0000000E+00;  0.0000000E+00;  0.0000000E+00;  1.0000000E+03;  1.0000000E-01;  0.0000000E+00;0;  0.0000000E+00;  0.0000000E+00;  0.0000000E+00;0; -2.2349811E-08;  4.0000000E+04;  0.0000000E+00;  0.0000000E+00;  4.0000000E+04;  0.0000000E+00;  4.0000000E+04; -8.3608578E-09;  0.0000000E+00; -1.3988953E-08;  4.3630708E-02;
 -1.3000000E-01;  9.9999998E-03; -3.8000000E-01;642;  0.0000000E+00;  0.0000000E+00;  0.0000000E+00;  1.0000000E+03;  1.0000000E-01;  0.0000000E+00;0;  0.0000000E+00;  0.0000000E+00;  0.0000000E+00;0; -2.2780804E-07;  4.0000000E+04;  0.0000000E+00;  0.0000000E+00;  4.0000000E+04;  0.0000000E+00;  4.0000000E+04; -1.0164753E-07;  0.0000000E+00; -1.2616051E-07;  3.7780902E-01;
 -1.3000000E-01;  9.9999998E-03; -3.7000000E-01;643;  0.0000000E+00;  0.0000000E+00;  0.0000000E+00;  1.0000000E+03;  1.0000000E-01;  0.0000000E+00;0;  0.0000000E+00;  0.0000000E+00;  0.0000000E+00;0; -7.9763902E-07;  4.0000000E+04;  0.0000000E+00;  0.0000000E+00;  4.0000000E+04;  0.0000000E+00;  4.0000000E+04; -3.7015980E-07;  0.0000000E+00; -4.2747922E-07;  1.3759511E+00;
 -1.3000000E-01;  9.9999998E-03; -3.6000001E-01;644;  0.0000000E+00;  0.0000000E+00;  0.0000000E+00;  1.0000000E+03;  1.0000000E-01;  0.0000000E+00;0;  0.0000000E+00;  0.0000000E+00;  0.0000000E+00;0; -1.8130843E-06;  4.0000000E+04;  0.0000000E+00;  0.0000000E+00;  4.0000000E+04;  0.0000000E+00;  4.0000000E+04; -8.4692346E-07;  0.0000000E+00; -9.6616077E-07;  3.3299081E+00;
 -1.3000000E-01;  9.9999998E-03; -3.4999999E-01;645;  0.0000000E+00;  0.0000000E+00;  0.0000000E+00;  1.0000000E+03;  1.0000000E-01;  0.0000000E+00;0;  0.0000000E+00;  0.0000000E+00;  0.0000000E+00;0; -3.1579445E-06;  4.0000000E+04;  0.0000000E+00;  0.0000000E+00;  4.0000000E+04;  0.0000000E+00;  4.0000000E+04; -1.4252070E-06;  0.0000000E+00; -1.7327376E-06;  6.2618093E+00;
 -1.3000000E-01;  9.9999998E-03; -3.4000000E-01;646;  0.0000000E+00;  0.0000000E+00;  0.0000000E+00;  1.0000000E+03;  1.0000000E-01;  0.0000000E+00;0;  0.0000000E+00;  0.0000000E+00;  0.0000000E+00;0; -4.5027027E-06;  4.0000000E+04;  0.0000000E+00;  0.0000000E+00;  4.0000000E+04;  0.0000000E+00;  4.0000000E+04; -1.8392628E-06;  0.0000000E+00; -2.6634400E-06;  9.8295841E+00;
 -1.3000000E-01;  9.9999998E-03; -3.3000001E-01;647;  0.0000000E+00;  0.0000000E+00;  0.0000000E+00;  1.0000000E+03;  1.0000000E-01;  0.0000000E+00;0;  0.0000000E+00;  0.0000000E+00;  0.0000000E+00;0; -5.3278682E-06;  4.0000000E+04;  0.0000000E+00;  0.0000000E+00;  4.0000000E+04;  0.0000000E+00;  4.0000000E+04; -1.6793383E-06;  0.0000000E+00; -3.6485299E-06;  1.3321245E+01;
 -1.3000000E-01;  9.9999998E-03; -3.1999999E-01;648;  0.0000000E+00;  0.0000000E+00;  0.0000000E+00;  1.0000000E+03;  1.0000000E-01;  0.0000000E+00;0;  0.0000000E+00;  0.0000000E+00;  0.0000000E+00;0; -5.0052877E-06;  4.0000000E+04;  0.0000000E+00;  0.0000000E+00;  4.0000000E+04;  0.0000000E+00;  4.0000000E+04; -4.6043056E-07;  0.0000000E+00; -4.5448573E-06;  1.5765905E+01;
 -1.3000000E-01;  9.9999998E-03; -3.1000000E-01;649;  0.0000000E+00;  0.0000000E+00;  0.0000000E+00;  1.0000000E+03;  1.0000000E-01;  0.0000000E+00;0;  0.0000000E+00;  0.0000000E+00;  0.0000000E+00;0; -2.9348330E-06;  4.0000000E+04;  0.0000000E+00;  0.0000000E+00;  4.0000000E+04;  0.0000000E+00;  4.0000000E+04;  2.2608920E-06;  0.0000000E+00; -5.1957250E-06;  1.6148680E+01;
 -1.3000000E-01;  9.9999998E-03; -3.0000001E-01;650;  0.0000000E+00;  0.0000000E+00;  0.0000000E+00;  1.0000000E+03;  1.0000000E-01;  0.0000000E+00;0;  0.0000000E+00;  0.0000000E+00;  0.0000000E+00;0;  1.2965415E-06;  4.0000000E+04;  0.0000000E+00;  0.0000000E+00;  4.0000000E+04;  0.0000000E+00;  4.0000000E+04;  6.7566580E-06;  0.0000000E+00; -5.4601164E-06;  1.3677344E+01;
 -1.3000000E-01;  9.9999998E-03; -2.8999999E-01;651;  0.0000000E+00;  0.0000000E+00;  0.0000000E+00;  1.0000025E+03;  1.0000000E-01;  2.0740154E+00;0;  0.0000000E+00;  0.0000000E+00;  0.0000000E+00;0;  7.7741261E-06;  4.0000000E+04;  0.0000000E+00;  0.0000000E+00;  4.0000000E+04;  0.0000000E+00;  4.0000000E+04;  1.3022009E-05;  0.0000000E+00; -5.2478831E-06;  8.0388031E+00;
 -1.3000000E-01;  9.9999998E-03; -2.8000000E-01;652;  0.0000000E+00;  0.0000000E+00;  0.0000000E+00;  1.0000000E+03;  1.0000000E-01;  0.0000000E+00;0;  0.0000000E+00;  0.0000000E+00;  0.0000000E+00;0;  1.6176053E-05;  4.0000000E+04;  0.0000000E+00;  0.0000000E+00;  4.0000000E+04;  0.0000000E+00;  4.0000000E+04;  2.0725151E-05;  0.0000000E+00; -4.5490974E-06;  4.5981097E-01;
 -1.2000000E-01;  9.9999998E-03; -4.4000000E-01;727;  0.0000000E+00;  0.0000000E+00;  0.0000000E+00;  1.0000000E+03;  1.0000000E-01;  0.0000000E+00;0;  0.0000000E+00;  0.0000000E+00;  0.0000000E+00;0;  0.0000000E+00;  4.0000000E+04;  0.0000000E+00;  0.0000000E+00;  4.0000000E+04;  0.0000000E+00;  4.0000000E+04;  0.0000000E+00;  0.0000000E+00;  0.0000000E+00;  0.0000000E+00;
 -1.2000000E-01;  9.9999998E-03; -4.3000001E-01;728;  0.0000000E+00;  0.0000000E+00;  0.0000000E+00;  1.0000000E+03;  1.0000000E-01;  0.0000000E+00;0;  0.0000000E+00;  0.0000000E+00;  0.0000000E+00;0;  0.0000000E+00;  4.0000000E+04;  0.0000000E+00;  0.0000000E+00;  4.0000000E+04;  0.0000000E+00;  4.0000000E+04;  0.0000000E+00;  0.0000000E+00;  0.0000000E+00;  0.0000000E+00;
 -1.2000000E-01;  9.9999998E-03; -4.1999999E-01;729;  0.0000000E+00;  0.0000000E+00;  0.0000000E+00;  1.0000000E+03;  1.0000000E-01;  0.0000000E+00;0;  0.0000000E+00;  0.0000000E+00;  0.0000000E+00;0;  0.0000000E+00;  4.0000000E+04;  0.0000000E+00;  0.0000000E+00;  4.0000000E+04;  0.0000000E+00;  4.0000000E+04;  0.0000000E+00;  0.0000000E+00;  0.0000000E+00;  0.0000000E+00;
 -1.2000000E-01;  9.9999998E-03; -4.1000000E-01;730;  0.0000000E+00;  0.0000000E+00;  0.0000000E+00;  1.0000000E+03;  1.0000000E-01;  0.0000000E+00;0;  0.0000000E+00;  0.0000000E+00;  0.0000000E+00;0;  0.0000000E+00;  4.0000000E+04;  0.0000000E+00;  0.0000000E+00;  4.0000000E+04;  0.0000000E+00;  4.0000000E+04;  0.0000000E+00;  0.0000000E+00;  0.0000000E+00;  3.0553806E-06;
 -1.2000000E-01;  9.9999998E-03; -4.0000001E-01;731;  0.0000000E+00;  0.0000000E+00;  0.0000000E+00;  1.0000000E+03;  1.0000000E-01;  0.0000000E+00;0;  0.0000000E+00;  0.0000000E+00;  0.0000000E+00;0; -6.1811981E-08;  4.0000000E+04;  0.0000000E+00;  0.0000000E+00;  4.0000000E+04;  0.0000000E+00;  4.0000000E+04; -2.4802462E-08;  0.0000000E+00; -3.7009517E-08;  1.1613160E-01;
 -1.2000000E-01;  9.9999998E-03; -3.8999999E-01;732;  0.0000000E+00;  0.0000000E+00;  0.0000000E+00;  1.0000000E+03;  1.0000000E-01;  0.0000000E+00;0;  0.0000000E+00;  0.0000000E+00;  0.0000000E+00;0; -4.7962311E-07;  4.0000000E+04;  0.0000000E+00;  0.0000000E+00;  4.0000000E+04;  0.0000000E+00;  4.0000000E+04; -2.0492472E-07;  0.0000000E+00; -2.7469841E-07;  8.7770611E-01;
 -1.2000000E-01;  9.9999998E-03; -3.8000000E-01;733;  0.0000000E+00;  0.0000000E+00;  0.0000000E+00;  1.0000000E+03;  1.0000000E-01;  0.0000000E+00;0;  0.0000000E+00;  0.0000000E+00;  0.0000000E+00;0; -1.6002817E-06;  4.0000000E+04;  0.0000000E+00;  0.0000000E+00;  4.0000000E+04;  0.0000000E+00;  4.0000000E+04; -7.1497203E-07;  0.0000000E+00; -8.8530970E-07;  3.0908751E+00;
 -1.2000000E-01;  9.9999998E-03; -3.7000000E-01;734;  0.0000000E+00;  0.0000000E+00;  0.0000000E+00;  1.0000000E+03;  1.0000000E-01;  0.0000000E+00;0;  0.0000000E+00;  0.0000000E+00;  0.0000000E+00;0; -3.6273987E-06;  4.0000000E+04;  0.0000000E+00;  0.0000000E+00;  4.0000000E+04;  0.0000000E+00;  4.0000000E+04; -1.6611947E-06;  0.0000000E+00; -1.9662039E-06;  7.3778210E+00;
 -1.2000000E-01;  9.9999998E-03; -3.6000001E-01;735;  0.0000000E+00;  0.0000000E+00;  0.0000000E+00;  1.0000000E+03;  1.0000000E-01;  0.0000000E+00;0;  0.0000000E+00;  0.0000000E+00;  0.0000000E+00;0; -6.5224958E-06;  4.0000000E+04;  0.0000000E+00;  0.0000000E+00;  4.0000000E+04;  0.0000000E+00;  4.0000000E+04; -3.0003464E-06;  0.0000000E+00; -3.5221494E-06;  1.3861022E+01;
 -1.2000000E-01;  9.9999998E-03; -3.4999999E-01;736;  0.0000000E+00;  0.0000000E+00;  0.0000000E+00;  1.0000000E+03;  1.0000000E-01;  0.0000000E+00;0;  0.0000000E+00;  0.0000000E+00;  0.0000000E+00;0; -9.9282533E-06;  4.0000000E+04;  0.0000000E+00;  0.0000000E+00;  4.0000000E+04;  0.0000000E+00;  4.0000000E+04; -4.4566209E-06;  0.0000000E+00; -5.4716324E-06;  2.2014885E+01;
 -1.2000000E-01;  9.9999998E-03; -3.4000000E-01;737;  0.0000000E+00;  0.0000000E+00;  0.0000000E+00;  1.0000000E+03;  1.0000000E-01;  0.0000000E+00;0;  0.0000000E+00;  0.0000000E+00;  0.0000000E+00;0; -1.3179819E-05;  4.0000000E+04;  0.0000000E+00;  0.0000000E+00;  4.0000000E+04;  0.0000000E+00;  4.0000000E+04; -5.5230971E-06;  0.0000000E+00; -7.6567212E-06;  3.0650627E+01;
 -1.2000000E-01;  9.9999998E-03; -3.3000001E-01;738;  0.0000000E+00;  0.0000000E+00;  0.0000000E+00;  1.0000000E+03;  1.0000000E-01;  0.0000000E+00;0;  0.0000000E+00;  0.0000000E+00;  0.0000000E+00;0; -1.5365076E-05;  4.0000000E+04;  0.0000000E+00;  0.0000000E+00;  4.0000000E+04;  0.0000000E+00;  4.0000000E+04; -5.5133687E-06;  0.0000000E+00; -9.8517085E-06;  3.8034431E+01;
 -1.2000000E-01;  9.9999998E-03; -3.1999999E-01;739;  0.0000000E+00;  0.0000000E+00;  0.0000000E+00;  1.0000133E+03;  1.0000000E-01;  1.1061416E+01;0;  0.0000000E+00;  0.0000000E+00;  0.0000000E+00;0; -1.5458201E-05;  4.0000000E+04;  0.0000000E+00;  0.0000000E+00;  4.0000000E+04;  0.0000000E+00;  4.0000000E+04; -3.6810229E-06;  0.0000000E+00; -1.1777178E-05;  4.2151062E+01;
 -1.2000000E-01;  9.9999998E-03; -3.1000000E-01;740;  0.0000000E+00;  0.0000000E+00;  0.0000000E+00;  1.0000146E+03;  1.0000000E-01;  1.2049042E+01;0;  0.0000000E+00;  0.0000000E+00;  0.0000000E+00;0; -1.2521667E-05;  4.0000000E+04;  0.0000000E+00;  0.0000000E+00;  4.0000000E+04;  0.0000000E+00;  4.0000000E+04;  6.0774778E-07;  0.0000000E+00; -1.3129415E-05;  4.1093163E+01;
 -1.2000000E-01;  9.9999998E-03; -3.0000001E-01;741;  0.0000000E+00;  0.0000000E+00;  0.0000000E+00;  1.0000049E+03;  1.0000000E-01;  4.0492682E+00;0;  0.0000000E+00;  0.0000000E+00;  0.0000000E+00;0; -5.9359654E-06;  4.0000000E+04;  0.0000000E+00;  0.0000000E+00;  4.0000000E+04;  0.0000000E+00;  4.0000000E+04;  7.6956394E-06;  0.0000000E+00; -1.3631605E-05;  3.3527599E+01;
 -1.2000000E-01;  9.9999998E-03; -2.8999999E-01;742;  0.0000000E+00;  0.0000000E+00;  0.0000000E+00;  1.0000000E+03;  1.0000000E-01;  0.0000000E+00;0;  0.0000000E+00;  0.0000000E+00;  0.0000000E+00;0;  4.3968839E-06;  4.0000000E+04;  0.0000000E+00;  0.0000000E+00;  4.0000000E+04;  0.0000000E+00;  4.0000000E+04;  1.7498323E-05;  0.0000000E+00; -1.3101439E-05;  1.9149145E+01;
 -1.2000000E-01;  9.9999998E-03; -2.8000000E-01;743;  0.0000000E+00;  0.0000000E+00;  0.0000000E+00;  1.0000000E+03;  1.0000000E-01;  0.0000000E+00;0;  0.0000000E+00;  0.0000000E+00;  0.0000000E+00;0;  1.7938557E-05;  4.0000000E+04;  0.0000000E+00;  0.0000000E+00;  4.0000000E+04;  0.0000000E+00;  4.0000000E+04;  2.9448602E-05;  0.0000000E+00; -1.1510044E-05;  1.6656910E+00;
 -1.1000000E-01;  9.9999998E-03; -4.4000000E-01;818;  0.0000000E+00;  0.0000000E+00;  0.0000000E+00;  1.0000000E+03;  1.0000000E-01;  0.0000000E+00;0;  0.0000000E+00;  0.0000000E+00;  0.0000000E+00;0;  0.0000000E+00;  4.0000000E+04;  0.0000000E+00;  0.0000000E+00;  4.0000000E+04;  0.0000000E+00;  4.0000000E+04;  0.0000000E+00;  0.0000000E+00;  0.0000000E+00;  0.0000000E+00;
 -1.1000000E-01;  9.9999998E-03; -4.3000001E-01;819;  0.0000000E+00;  0.0000000E+00;  0.0000000E+00;  1.0000000E+03;  1.0000000E-01;  0.0000000E+00;0;  0.0000000E+00;  0.0000000E+00;  0.0000000E+00;0;  0.0000000E+00;  4.0000000E+04;  0.0000000E+00;  0.0000000E+00;  4.0000000E+04;  0.0000000E+00;  4.0000000E+04;  0.0000000E+00;  0.0000000E+00;  0.0000000E+00;  0.0000000E+00;
 -1.1000000E-01;  9.9999998E-03; -4.1999999E-01;820;  0.0000000E+00;  0.0000000E+00;  0.0000000E+00;  1.0000000E+03;  1.0000000E-01;  0.0000000E+00;0;  0.0000000E+00;  0.0000000E+00;  0.0000000E+00;0;  0.0000000E+00;  4.0000000E+04;  0.0000000E+00;  0.0000000E+00;  4.0000000E+04;  0.0000000E+00;  4.0000000E+04;  0.0000000E+00;  0.0000000E+00;  0.0000000E+00;  2.4097387E-06;
 -1.1000000E-01;  9.9999998E-03; -4.1000000E-01;821;  0.0000000E+00;  0.0000000E+00;  0.0000000E+00;  1.0000000E+03;  1.0000000E-01;  0.0000000E+00;0;  0.0000000E+00;  0.0000000E+00;  0.0000000E+00;0; -8.7725645E-08;  4.0000000E+04;  0.0000000E+00;  0.0000000E+00;  4.0000000E+04;  0.0000000E+00;  4.0000000E+04; -3.4653532E-08;  0.0000000E+00; -5.3072114E-08;  1.7640154E-01;
 -1.1000000E-01;  9.9999998E-03; -4.0000001E-01;822;  0.0000000E+00;  0.0000000E+00;  0.0000000E+00;  1.0000000E+03;  1.0000000E-01;  0.0000000E+00;0;  0.0000000E+00;  0.0000000E+00;  0.0000000E+00;0; -7.0475249E-07;  4.0000000E+04;  0.0000000E+00;  0.0000000E+00;  4.0000000E+04;  0.0000000E+00;  4.0000000E+04; -2.8592913E-07;  0.0000000E+00; -4.1882336E-07;  1.4168786E+00;
 -1.1000000E-01;  9.9999998E-03; -3.8999999E-01;823;  0.0000000E+00;  0.0000000E+00;  0.0000000E+00;  1.0000000E+03;  1.0000000E-01;  0.0000000E+00;0;  0.0000000E+00;  0.0000000E+00;  0.0000000E+00;0; -2.4272440E-06;  4.0000000E+04;  0.0000000E+00;  0.0000000E+00;  4.0000000E+04;  0.0000000E+00;  4.0000000E+04; -1.0301777E-06;  0.0000000E+00; -1.3970662E-06;  5.1894779E+00;
 -1.1000000E-01;  9.9999998E-03; -3.8000000E-01;824;  0.0000000E+00;  0.0000000E+00;  0.0000000E+00;  1.0000000E+03;  1.0000000E-01;  0.0000000E+00;0;  0.0000000E+00;  0.0000000E+00;  0.0000000E+00;0; -5.7031793E-06;  4.0000000E+04;  0.0000000E+00;  0.0000000E+00;  4.0000000E+04;  0.0000000E+00;  4.0000000E+04; -2.5259678E-06;  0.0000000E+00; -3.1772113E-06;  1.2741939E+01;
 -1.1000000E-01;  9.9999998E-03; -3.7000000E-01;825;  0.0000000E+00;  0.0000000E+00;  0.0000000E+00;  1.0000000E+03;  1.0000000E-01;  0.0000000E+00;0;  0.0000000E+00;  0.0000000E+00;  0.0000000E+00;0; -1.0689913E-05;  4.0000000E+04;  0.0000000E+00;  0.0000000E+00;  4.0000000E+04;  0.0000000E+00;  4.0000000E+04; -4.8847692E-06;  0.0000000E+00; -5.8051442E-06;  2.4494986E+01;
 -1.1000000E-01;  9.9999998E-03; -3.6000001E-01;826;  0.0000000E+00;  0.0000000E+00;  0.0000000E+00;  1.0000000E+03;  1.0000000E-01;  0.0000000E+00;0;  0.0000000E+00;  0.0000000E+00;  0.0000000E+00;0; -1.7182319E-05;  4.0000000E+04;  0.0000000E+00;  0.0000000E+00;  4.0000000E+04;  0.0000000E+00;  4.0000000E+04; -7.9822221E-06;  0.0000000E+00; -9.2000964E-06;  3.9829460E+01;
 -1.1000000E-01;  9.9999998E-03; -3.4999999E-01;827;  0.0000000E+00;  0.0000000E+00;  0.0000000E+00;  1.0000000E+03;  1.0000000E-01;  0.0000000E+00;0;  0.0000000E+00;  0.0000000E+00;  0.0000000E+00;0; -2.4548497E-05;  4.0000000E+04;  0.0000000E+00;  0.0000000E+00;  4.0000000E+04;  0.0000000E+00;  4.0000000E+04; -1.1376011E-05;  0.0000000E+00; -1.3172486E-05;  5.7081150E+01;
 -1.1000000E-01;  9.9999998E-03; -3.4000000E-01;828;  0.0000000E+00;  0.0000000E+00;  0.0000000E+00;  1.0000266E+03;  1.0000000E-01;  2.2024069E+01;0;  0.0000000E+00;  0.0000000E+00;  0.0000000E+00;0; -3.1755837E-05;  4.0000000E+04;  0.0000000E+00;  0.0000000E+00;  4.0000000E+04;  0.0000000E+00;  4.0000000E+04; -1.4326452E-05;  0.0000000E+00; -1.7429384E-05;  7.3663246E+01;
 -1.1000000E-01;  9.9999998E-03; -3.3000001E-01;829;  0.0000000E+00;  0.0000000E+00;  0.0000000E+00;  1.0000227E+03;  1.0000000E-01;  1.8764902E+01;0;  0.0000000E+00;  0.0000000E+00;  0.0000000E+00;0; -3.7455582E-05;  4.0000000E+04;  0.0000000E+00;  0.0000000E+00;  4.0000000E+04;  0.0000000E+00;  4.0000000E+04; -1.5880210E-05;  0.0000000E+00; -2.1575372E-05;  8.6327843E+01;
 -1.1000000E-01;  9.9999998E-03; -3.1999999E-01;830;  0.0000000E+00;  0.0000000E+00;  0.0000000E+00;  1.0000166E+03;  1.0000000E-01;  1.3728006E+01;0;  0.0000000E+00;  0.0000000E+00;  0.0000000E+00;0; -4.0159910E-05;  4.0000000E+04;  0.0000000E+00;  0.0000000E+00;  4.0000000E+04;  0.0000000E+00;  4.0000000E+04; -1.5034511E-05;  0.0000000E+00; -2.5125399E-05;  9.1595680E+01;
 -1.1000000E-01;  9.9999998E-03; -3.1000000E-01;831;  0.0000000E+00;  0.0000000E+00;  0.0000000E+00;  1.0000000E+03;  1.0000000E-01;  0.0000000E+00;0;  0.0000000E+00;  0.0000000E+00;  0.0000000E+00;0; -3.8510694E-05;  4.0000000E+04;  0.0000000E+00;  0.0000000E+00;  4.0000000E+04;  0.0000000E+00;  4.0000000E+04; -1.0961428E-05;  0.0000000E+00; -2.7549266E-05;  8.6372871E+01;
 -1.1000000E-01;  9.9999998E-03; -3.0000001E-01;832;  0.0000000E+00;  0.0000000E+00;  0.0000000E+00;  1.0000000E+03;  1.0000000E-01;  0.0000000E+00;0;  0.0000000E+00;  0.0000000E+00;  0.0000000E+00;0; -3.1595475E-05;  4.0000000E+04;  0.0000000E+00;  0.0000000E+00;  4.0000000E+04;  0.0000000E+00;  4.0000000E+04; -3.2356625E-06;  0.0000000E+00; -2.8359811E-05;  6.8723892E+01;
 -1.1000000E-01;  9.9999998E-03; -2.8999999E-01;833;  0.0000000E+00;  0.0000000E+00;  0.0000000E+00;  1.0000000E+03;  1.0000000E-01;  0.0000000E+00;0;  0.0000000E+00;  0.0000000E+00;  0.0000000E+00;0; -1.9238527E-05;  4.0000000E+04;  0.0000000E+00;  0.0000000E+00;  4.0000000E+04;  0.0000000E+00;  4.0000000E+04;  7.9939955E-06;  0.0000000E+00; -2.7232521E-05;  3.8639450E+01;
 -1.1000000E-01;  9.9999998E-03; -2.8000000E-01;834;  0.0000000E+00;  0.0000000E+00;  0.0000000E+00;  1.0000000E+03;  1.0000000E-01;  0.0000000E+00;0;  0.0000000E+00;  0.0000000E+00;  0.0000000E+00;0; -2.1715132E-06;  4.0000000E+04;  0.0000000E+00;  0.0000000E+00;  4.0000000E+04;  0.0000000E+00;  4.0000000E+04;  2.1937167E-05;  0.0000000E+00; -2.4108680E-05;  5.6940074E+00;
 -1.0000000E-01;  9.9999998E-03; -4.4000000E-01;909;  0.0000000E+00;  0.0000000E+00;  0.0000000E+00;  1.0000000E+03;  1.0000000E-01;  0.0000000E+00;0;  0.0000000E+00;  0.0000000E+00;  0.0000000E+00;0;  0.0000000E+00;  4.0000000E+04;  0.0000000E+00;  0.0000000E+00;  4.0000000E+04;  0.0000000E+00;  4.0000000E+04;  0.0000000E+00;  0.0000000E+00;  0.0000000E+00;  0.0000000E+00;
 -1.0000000E-01;  9.9999998E-03; -4.3000001E-01;910;  0.0000000E+00;  0.0000000E+00;  0.0000000E+00;  1.0000000E+03;  1.0000000E-01;  0.0000000E+00;0;  0.0000000E+00;  0.0000000E+00;  0.0000000E+00;0;  0.0000000E+00;  4.0000000E+04;  0.0000000E+00;  0.0000000E+00;  4.0000000E+04;  0.0000000E+00;  4.0000000E+04;  0.0000000E+00;  0.0000000E+00;  0.0000000E+00;  0.0000000E+00;
 -1.0000000E-01;  9.9999998E-03; -4.1999999E-01;911;  0.0000000E+00;  0.0000000E+00;  0.0000000E+00;  1.0000000E+03;  1.0000000E-01;  0.0000000E+00;0;  0.0000000E+00;  0.0000000E+00;  0.0000000E+00;0; -7.4095226E-08;  4.0000000E+04;  0.0000000E+00;  0.0000000E+00;  4.0000000E+04;  0.0000000E+00;  4.0000000E+04; -2.9099157E-08;  0.0000000E+00; -4.4996067E-08;  1.6635580E-01;
 -1.0000000E-01;  9.9999998E-03; -4.1000000E-01;912;  0.0000000E+00;  0.0000000E+00;  0.0000000E+00;  1.0000000E+03;  1.0000000E-01;  0.0000000E+00;0;  0.0000000E+00;  0.0000000E+00;  0.0000000E+00;0; -7.7014943E-07;  4.0000000E+04;  0.0000000E+00;  0.0000000E+00;  4.0000000E+04;  0.0000000E+00;  4.0000000E+04; -2.9682636E-07;  0.0000000E+00; -4.7332310E-07;  1.6884538E+00;
 -1.0000000E-01;  9.9999998E-03; -4.0000001E-01;913;  0.0000000E+00;  0.0000000E+00;  0.0000000E+00;  1.0000000E+03;  1.0000000E-01;  0.0000000E+00;0;  0.0000000E+00;  0.0000000E+00;  0.0000000E+00;0; -2.9535363E-06;  4.0000000E+04;  0.0000000E+00;  0.0000000E+00;  4.0000000E+04;  0.0000000E+00;  4.0000000E+04; -1.1871872E-06;  0.0000000E+00; -1.7663490E-06;  6.8965282E+00;
 -1.0000000E-01;  9.9999998E-03; -3.8999999E-01;914;  0.0000000E+00;  0.0000000E+00;  0.0000000E+00;  1.0000000E+03;  1.0000000E-01;  0.0000000E+00;0;  0.0000000E+00;  0.0000000E+00;  0.0000000E+00;0; -7.4217833E-06;  4.0000000E+04;  0.0000000E+00;  0.0000000E+00;  4.0000000E+04;  0.0000000E+00;  4.0000000E+04; -3.1464285E-06;  0.0000000E+00; -4.2753550E-06;  1.8079088E+01;
 -1.0000000E-01;  9.9999998E-03; -3.8000000E-01;915;  0.0000000E+00;  0.0000000E+00;  0.0000000E+00;  1.0000000E+03;  1.0000000E-01;  0.0000000E+00;0;  0.0000000E+00;  0.0000000E+00;  0.0000000E+00;0; -1.4691868E-05;  4.0000000E+04;  0.0000000E+00;  0.0000000E+00;  4.0000000E+04;  0.0000000E+00;  4.0000000E+04; -6.5563772E-06;  0.0000000E+00; -8.1354910E-06;  3.6347347E+01;
 -1.0000000E-01;  9.9999998E-03; -3.7000000E-01;916;  0.0000000E+00;  0.0000000E+00;  0.0000000E+00;  1.0000000E+03;  1.0000000E-01;  0.0000000E+00;0;  0.0000000E+00;  0.0000000E+00;  0.0000000E+00;0; -2.4882240E-05;  4.0000000E+04;  0.0000000E+00;  0.0000000E+00;  4.0000000E+04;  0.0000000E+00;  4.0000000E+04; -1.1587448E-05;  0.0000000E+00; -1.3294793E-05;  6.1229050E+01;
 -1.0000000E-01;  9.9999998E-03; -3.6000001E-01;917;  0.0000000E+00;  0.0000000E+00;  0.0000000E+00;  1.0000137E+03;  1.0000000E-01;  1.1357703E+01;0;  0.0000000E+00;  0.0000000E+00;  0.0000000E+00;0; -3.7655387E-05;  4.0000000E+04;  0.0000000E+00;  0.0000000E+00;  4.0000000E+04;  0.0000000E+00;  4.0000000E+04; -1.8099106E-05;  0.0000000E+00; -1.9556281E-05;  9.0708679E+01;
 -1.0000000E-01;  9.9999998E-03; -3.4999999E-01;918;  0.0000000E+00;  0.0000000E+00;  0.0000000E+00;  1.0000374E+03;  1.0000000E-01;  3.0912706E+01;0;  0.0000000E+00;  0.0000000E+00;  0.0000000E+00;0; -5.2142856E-05;  4.0000000E+04;  0.0000000E+00;  0.0000000E+00;  4.0000000E+04;  0.0000000E+00;  4.0000000E+04; -2.5551029E-05;  0.0000000E+00; -2.6591826E-05;  1.2139808E+02;
 -1.0000000E-01;  9.9999998E-03; -3.4000000E-01;919;  0.0000000E+00;  0.0000000E+00;  0.0000000E+00;  1.0000366E+03;  1.0000000E-01;  3.0320129E+01;0;  0.0000000E+00;  0.0000000E+00;  0.0000000E+00;0; -6.6958848E-05;  4.0000000E+04;  0.0000000E+00;  0.0000000E+00;  4.0000000E+04;  0.0000000E+00;  4.0000000E+04; -3.3028704E-05;  0.0000000E+00; -3.3930144E-05;  1.4878540E+02;
 -1.0000000E-01;  9.9999998E-03; -3.3000001E-01;920;  0.0000000E+00;  0.0000000E+00;  0.0000000E+00;  1.0000089E+03;  1.0000000E-01;  7.4071980E+00;0;  0.0000000E+00;  0.0000000E+00;  0.0000000E+00;0; -8.0285812E-05;  4.0000000E+04;  0.0000000E+00;  0.0000000E+00;  4.0000000E+04;  0.0000000E+00;  4.0000000E+04; -3.9344934E-05;  0.0000000E+00; -4.0940882E-05;  1.6761047E+02;
 -1.0000000E-01;  9.9999998E-03; -3.1999999E-01;921;  0.0000000E+00;  0.0000000E+00;  0.0000000E+00;  1.0000187E+03;  1.0000000E-01;  1.5505734E+01;0;  0.0000000E+00;  0.0000000E+00;  0.0000000E+00;0; -9.0084519E-05;  4.0000000E+04;  0.0000000E+00;  0.0000000E+00;  4.0000000E+04;  0.0000000E+00;  4.0000000E+04; -4.3238826E-05;  0.0000000E+00; -4.6845689E-05;  1.7248746E+02;
 -1.0000000E-01;  9.9999998E-03; -3.1000000E-01;922;  0.0000000E+00;  0.0000000E+00;  0.0000000E+00;  1.0000143E+03;  1.0000000E-01;  1.1851517E+01;0;  0.0000000E+00;  0.0000000E+00;  0.0000000E+00;0; -9.4438794E-05;  4.0000000E+04;  0.0000000E+00;  0.0000000E+00;  4.0000000E+04;  0.0000000E+00;  4.0000000E+04; -4.3651595E-05;  0.0000000E+00; -5.0787199E-05;  1.5886101E+02;
 -1.0000000E-01;  9.9999998E-03; -3.0000001E-01;923;  0.0000000E+00;  0.0000000E+00;  0.0000000E+00;  1.0000256E+03;  1.0000000E-01;  2.1233967E+01;0;  0.0000000E+00;  0.0000000E+00;  0.0000000E+00;0; -9.1986847E-05;  4.0000000E+04;  0.0000000E+00;  0.0000000E+00;  4.0000000E+04;  0.0000000E+00;  4.0000000E+04; -4.0013318E-05;  0.0000000E+00; -5.1973529E-05;  1.2421409E+02;
 -1.0000000E-01;  9.9999998E-03; -2.8999999E-01;924;  0.0000000E+00;  0.0000000E+00;  0.0000000E+00;  1.0000000E+03;  1.0000000E-01;  0.0000000E+00;0;  0.0000000E+00;  0.0000000E+00;  0.0000000E+00;0; -8.2338112E-05;  4.0000000E+04;  0.0000000E+00;  0.0000000E+00;  4.0000000E+04;  0.0000000E+00;  4.0000000E+04; -3.2464282E-05;  0.0000000E+00; -4.9873826E-05;  6.9438042E+01;
 -1.0000000E-01;  9.9999998E-03; -2.8000000E-01;925;  0.0000000E+00;  0.0000000E+00;  0.0000000E+00;  1.0000000E+03;  1.0000000E-01;  0.0000000E+00;0;  0.0000000E+00;  0.0000000E+00;  0.0000000E+00;0; -6.6328997E-05;  4.0000000E+04;  0.0000000E+00;  0.0000000E+00;  4.0000000E+04;  0.0000000E+00;  4.0000000E+04; -2.1943521E-05;  0.0000000E+00; -4.4385473E-05;  1.6033506E+01;
 -9.0000004E-02;  9.9999998E-03; -4.4000000E-01;1000;  0.0000000E+00;  0.0000000E+00;  0.0000000E+00;  1.0000000E+03;  1.0000000E-01;  0.0000000E+00;0;  0.0000000E+00;  0.0000000E+00;  0.0000000E+00;0;  0.0000000E+00;  4.0000000E+04;  0.0000000E+00;  0.0000000E+00;  4.0000000E+04;  0.0000000E+00;  4.0000000E+04;  0.0000000E+00;  0.0000000E+00;  0.0000000E+00;  0.0000000E+00;
 -9.0000004E-02;  9.9999998E-03; -4.3000001E-01;1001;  0.0000000E+00;  0.0000000E+00;  0.0000000E+00;  1.0000000E+03;  1.0000000E-01;  0.0000000E+00;0;  0.0000000E+00;  0.0000000E+00;  0.0000000E+00;0; -3.3809311E-08;  4.0000000E+04;  0.0000000E+00;  0.0000000E+00;  4.0000000E+04;  0.0000000E+00;  4.0000000E+04; -1.4072083E-08;  0.0000000E+00; -1.9737229E-08;  8.7173574E-02;
 -9.0000004E-02;  9.9999998E-03; -4.1999999E-01;1002;  0.0000000E+00;  0.0000000E+00;  0.0000000E+00;  1.0000000E+03;  1.0000000E-01;  0.0000000E+00;0;  0.0000000E+00;  0.0000000E+00;  0.0000000E+00;0; -6.2433071E-07;  4.0000000E+04;  0.0000000E+00;  0.0000000E+00;  4.0000000E+04;  0.0000000E+00;  4.0000000E+04; -2.3158363E-07;  0.0000000E+00; -3.9274707E-07;  1.4776348E+00;
 -9.0000004E-02;  9.9999998E-03; -4.1000000E-01;1003;  0.0000000E+00;  0.0000000E+00;  0.0000000E+00;  1.0000000E+03;  1.0000000E-01;  0.0000000E+00;0;  0.0000000E+00;  0.0000000E+00;  0.0000000E+00;0; -2.9176535E-06;  4.0000000E+04;  0.0000000E+00;  0.0000000E+00;  4.0000000E+04;  0.0000000E+00;  4.0000000E+04; -1.1133696E-06;  0.0000000E+00; -1.8042840E-06;  7.3418479E+00;
 -9.0000004E-02;  9.9999998E-03; -4.0000001E-01;1004;  0.0000000E+00;  0.0000000E+00;  0.0000000E+00;  1.0000000E+03;  1.0000000E-01;  0.0000000E+00;0;  0.0000000E+00;  0.0000000E+00;  0.0000000E+00;0; -8.1673325E-06;  4.0000000E+04;  0.0000000E+00;  0.0000000E+00;  4.0000000E+04;  0.0000000E+00;  4.0000000E+04; -3.3001213E-06;  0.0000000E+00; -4.8672114E-06;  2.1485012E+01;
 -9.0000004E-02;  9.9999998E-03; -3.8999999E-01;1005;  0.0000000E+00;  0.0000000E+00;  0.0000000E+00;  1.0000000E+03;  1.0000000E-01;  0.0000000E+00;0;  0.0000000E+00;  0.0000000E+00;  0.0000000E+00;0; -1.7384227E-05;  4.0000000E+04;  0.0000000E+00;  0.0000000E+00;  4.0000000E+04;  0.0000000E+00;  4.0000000E+04; -7.4889513E-06;  0.0000000E+00; -9.8952751E-06;  4.6351555E+01;
 -9.0000004E-02;  9.9999998E-03; -3.8000000E-01;1006;  0.0000000E+00;  0.0000000E+00;  0.0000000E+00;  1.0000000E+03;  1.0000000E-01;  0.0000000E+00;0;  0.0000000E+00;  0.0000000E+00;  0.0000000E+00;0; -3.1203916E-05;  4.0000000E+04;  0.0000000E+00;  0.0000000E+00;  4.0000000E+04;  0.0000000E+00;  4.0000000E+04; -1.4290626E-05;  0.0000000E+00; -1.6913291E-05;  8.2101845E+01;
 -9.0000004E-02;  9.9999998E-03; -3.7000000E-01;1007;  0.0000000E+00;  0.0000000E+00;  0.0000000E+00;  1.0000407E+03;  1.0000000E-01;  3.3776821E+01;0;  0.0000000E+00;  0.0000000E+00;  0.0000000E+00;0; -4.9805843E-05;  4.0000000E+04;  0.0000000E+00;  0.0000000E+00;  4.0000000E+04;  0.0000000E+00;  4.0000000E+04; -2.4061279E-05;  0.0000000E+00; -2.5744566E-05;  1.2665278E+02;
 -9.0000004E-02;  9.9999998E-03; -3.6000001E-01;1008;  0.0000000E+00;  0.0000000E+00;  0.0000000E+00;  1.0000438E+03;  1.0000000E-01;  3.6245888E+01;0;  0.0000000E+00;  0.0000000E+00;  0.0000000E+00;0; -7.2840790E-05;  4.0000000E+04;  0.0000000E+00;  0.0000000E+00;  4.0000000E+04;  0.0000000E+00;  4.0000000E+04; -3.6780599E-05;  0.0000000E+00; -3.6060195E-05;  1.7600111E+02;
 -9.0000004E-02;  9.9999998E-03; -3.4999999E-01;1009;  0.0000000E+00;  0.0000000E+00;  0.0000000E+00;  1.0000502E+03;  1.0000000E-01;  4.1579071E+01;0;  0.0000000E+00;  0.0000000E+00;  0.0000000E+00;0; -9.9307101E-05;  4.0000000E+04;  0.0000000E+00;  0.0000000E+00;  4.0000000E+04;  0.0000000E+00;  4.0000000E+04; -5.1937364E-05;  0.0000000E+00; -4.7369733E-05;  2.2452512E+02;
 -9.0000004E-02;  9.9999998E-03; -3.4000000E-01;1010;  0.0000000E+00;  0.0000000E+00;  0.0000000E+00;  1.0000413E+03;  1.0000000E-01;  3.4171871E+01;0;  0.0000000E+00;  0.0000000E+00;  0.0000000E+00;0; -1.2751325E-04;  4.0000000E+04;  0.0000000E+00;  0.0000000E+00;  4.0000000E+04;  0.0000000E+00;  4.0000000E+04; -6.8536378E-05;  0.0000000E+00; -5.8976872E-05;  2.6528174E+02;
 -9.0000004E-02;  9.9999998E-03; -3.3000001E-01;1011;  0.0000000E+00;  0.0000000E+00;  0.0000000E+00;  1.0000583E+03;  1.0000000E-01;  4.8294930E+01;0;  0.0000000E+00;  0.0000000E+00;  0.0000000E+00;0; -1.5513523E-04;  4.0000000E+04;  0.0000000E+00;  0.0000000E+00;  4.0000000E+04;  0.0000000E+00;  4.0000000E+04; -8.5196392E-05;  0.0000000E+00; -6.9938847E-05;  2.9049298E+02;
 -9.0000004E-02;  9.9999998E-03; -3.1999999E-01;1012;  0.0000000E+00;  0.0000000E+00;  0.0000000E+00;  1.0000800E+03;  1.0000000E-01;  6.6269730E+01;0;  0.0000000E+00;  0.0000000E+00;  0.0000000E+00;0; -1.7945011E-04;  4.0000000E+04;  0.0000000E+00;  0.0000000E+00;  4.0000000E+04;  0.0000000E+00;  4.0000000E+04; -1.0037444E-04;  0.0000000E+00; -7.9075682E-05;  2.9241827E+02;
 -9.0000004E-02;  9.9999998E-03; -3.1000000E-01;1013;  0.0000000E+00;  0.0000000E+00;  0.0000000E+00;  1.0000652E+03;  1.0000000E-01;  5.4023163E+01;0;  0.0000000E+00;  0.0000000E+00;  0.0000000E+00;0; -1.9777217E-04;  4.0000000E+04;  0.0000000E+00;  0.0000000E+00;  4.0000000E+04;  0.0000000E+00;  4.0000000E+04; -1.1269622E-04;  0.0000000E+00; -8.5075953E-05;  2.6476559E+02;
 -9.0000004E-02;  9.9999998E-03; -3.0000001E-01;1014;  0.0000000E+00;  0.0000000E+00;  0.0000000E+00;  1.0000848E+03;  1.0000000E-01;  7.0319000E+01;0;  0.0000000E+00;  0.0000000E+00;  0.0000000E+00;0; -2.0804181E-04;  4.0000000E+04;  0.0000000E+00;  0.0000000E+00;  4.0000000E+04;  0.0000000E+00;  4.0000000E+04; -1.2131879E-04;  0.0000000E+00; -8.6723012E-05;  2.0458162E+02;
 -9.0000004E-02;  9.9999998E-03; -2.8999999E-01;1015;  0.0000000E+00;  0.0000000E+00;  0.0000000E+00;  1.0000502E+03;  1.0000000E-01;  4.1579071E+01;0;  0.0000000E+00;  0.0000000E+00;  0.0000000E+00;0; -2.0941992E-04;  4.0000000E+04;  0.0000000E+00;  0.0000000E+00;  4.0000000E+04;  0.0000000E+00;  4.0000000E+04; -1.2622181E-04;  0.0000000E+00; -8.3198101E-05;  1.1474841E+02;
 -9.0000004E-02;  9.9999998E-03; -2.8000000E-01;1016;  0.0000000E+00;  0.0000000E+00;  0.0000000E+00;  1.0000410E+03;  1.0000000E-01;  3.3974346E+01;0;  0.0000000E+00;  0.0000000E+00;  0.0000000E+00;0; -2.0267893E-04;  4.0000000E+04;  0.0000000E+00;  0.0000000E+00;  4.0000000E+04;  0.0000000E+00;  4.0000000E+04; -1.2833840E-04;  0.0000000E+00; -7.4340533E-05;  3.7136787E+01;
 -7.9999998E-02;  9.9999998E-03; -4.4000000E-01;1091;  0.0000000E+00;  0.0000000E+00;  0.0000000E+00;  1.0000000E+03;  1.0000000E-01;  0.0000000E+00;0;  0.0000000E+00;  0.0000000E+00;  0.0000000E+00;0; -5.6804694E-09;  4.0000000E+04;  0.0000000E+00;  0.0000000E+00;  4.0000000E+04;  0.0000000E+00;  4.0000000E+04; -2.4466016E-09;  0.0000000E+00; -3.2338676E-09;  1.6247973E-02;
 -7.9999998E-02;  9.9999998E-03; -4.3000001E-01;1092;  0.0000000E+00;  0.0000000E+00;  0.0000000E+00;  1.0000000E+03;  1.0000000E-01;  0.0000000E+00;0;  0.0000000E+00;  0.0000000E+00;  0.0000000E+00;0; -3.5026636E-07;  4.0000000E+04;  0.0000000E+00;  0.0000000E+00;  4.0000000E+04;  0.0000000E+00;  4.0000000E+04; -1.2807173E-07;  0.0000000E+00; -2.2219464E-07;  8.9409637E-01;
 -7.9999998E-02;  9.9999998E-03; -4.1999999E-01;1093;  0.0000000E+00;  0.0000000E+00;  0.0000000E+00;  1.0000000E+03;  1.0000000E-01;  0.0000000E+00;0;  0.0000000E+00;  0.0000000E+00;  0.0000000E+00;0; -2.2929096E-06;  4.0000000E+04;  0.0000000E+00;  0.0000000E+00;  4.0000000E+04;  0.0000000E+00;  4.0000000E+04; -8.3968615E-07;  0.0000000E+00; -1.4532234E-06;  6.1353087E+00;
 -7.9999998E-02;  9.9999998E-03; -4.1000000E-01;1094;  0.0000000E+00;  0.0000000E+00;  0.0000000E+00;  1.0000000E+03;  1.0000000E-01;  0.0000000E+00;0;  0.0000000E+00;  0.0000000E+00;  0.0000000E+00;0; -7.5780999E-06;  4.0000000E+04;  0.0000000E+00;  0.0000000E+00;  4.0000000E+04;  0.0000000E+00;  4.0000000E+04; -2.9229293E-06;  0.0000000E+00; -4.6551709E-06;  2.1288731E+01;
 -7.9999998E-02;  9.9999998E-03; -4.0000001E-01;1095;  0.0000000E+00;  0.0000000E+00;  0.0000000E+00;  1.0000000E+03;  1.0000000E-01;  0.0000000E+00;0;  0.0000000E+00;  0.0000000E+00;  0.0000000E+00;0; -1.7852783E-05;  4.0000000E+04;  0.0000000E+00;  0.0000000E+00;  4.0000000E+04;  0.0000000E+00;  4.0000000E+04; -7.3833139E-06;  0.0000000E+00; -1.0469468E-05;  5.1017044E+01;
 -7.9999998E-02;  9.9999998E-03; -3.8999999E-01;1096;  0.0000000E+00;  0.0000000E+00;  0.0000000E+00;  1.0000000E+03;  1.0000000E-01;  0.0000000E+00;0;  0.0000000E+00;  0.0000000E+00;  0.0000000E+00;0; -3.4412165E-05;  4.0000000E+04;  0.0000000E+00;  0.0000000E+00;  4.0000000E+04;  0.0000000E+00;  4.0000000E+04; -1.5312478E-05;  0.0000000E+00; -1.9099689E-05;  9.6995491E+01;
 -7.9999998E-02;  9.9999998E-03; -3.8000000E-01;1097;  0.0000000E+00;  0.0000000E+00;  0.0000000E+00;  1.0000444E+03;  1.0000000E-01;  3.6739700E+01;0;  0.0000000E+00;  0.0000000E+00;  0.0000000E+00;0; -5.8158446E-05;  4.0000000E+04;  0.0000000E+00;  0.0000000E+00;  4.0000000E+04;  0.0000000E+00;  4.0000000E+04; -2.7726788E-05;  0.0000000E+00; -3.0431656E-05;  1.5762477E+02;
 -7.9999998E-02;  9.9999998E-03; -3.7000000E-01;1098;  0.0000000E+00;  0.0000000E+00;  0.0000000E+00;  1.0000494E+03;  1.0000000E-01;  4.0986496E+01;0;  0.0000000E+00;  0.0000000E+00;  0.0000000E+00;0; -8.9530236E-05;  4.0000000E+04;  0.0000000E+00;  0.0000000E+00;  4.0000000E+04;  0.0000000E+00;  4.0000000E+04; -4.5368797E-05;  0.0000000E+00; -4.4161443E-05;  2.2860791E+02;
 -7.9999998E-02;  9.9999998E-03; -3.6000001E-01;1099;  0.0000000E+00;  0.0000000E+00;  0.0000000E+00;  1.0000682E+03;  1.0000000E-01;  5.6492229E+01;0;  0.0000000E+00;  0.0000000E+00;  0.0000000E+00;0; -1.2837269E-04;  4.0000000E+04;  0.0000000E+00;  0.0000000E+00;  4.0000000E+04;  0.0000000E+00;  4.0000000E+04; -6.8543872E-05;  0.0000000E+00; -5.9828813E-05;  3.0348691E+02;
 -7.9999998E-02;  9.9999998E-03; -3.4999999E-01;1100;  0.0000000E+00;  0.0000000E+00;  0.0000000E+00;  1.0000714E+03;  1.0000000E-01;  5.9158821E+01;0;  0.0000000E+00;  0.0000000E+00;  0.0000000E+00;0; -1.7371622E-04;  4.0000000E+04;  0.0000000E+00;  0.0000000E+00;  4.0000000E+04;  0.0000000E+00;  4.0000000E+04; -9.6952863E-05;  0.0000000E+00; -7.6763361E-05;  3.7398169E+02;
 -7.9999998E-02;  9.9999998E-03; -3.4000000E-01;1101;  0.0000000E+00;  0.0000000E+00;  0.0000000E+00;  1.0001165E+03;  1.0000000E-01;  9.6491096E+01;0;  0.0000000E+00;  0.0000000E+00;  0.0000000E+00;0; -2.2364038E-04;  4.0000000E+04;  0.0000000E+00;  0.0000000E+00;  4.0000000E+04;  0.0000000E+00;  4.0000000E+04; -1.2964677E-04;  0.0000000E+00; -9.3993622E-05;  4.3025864E+02;
 -7.9999998E-02;  9.9999998E-03; -3.3000001E-01;1102;  0.0000000E+00;  0.0000000E+00;  0.0000000E+00;  1.0001454E+03;  1.0000000E-01;  1.2049042E+02;0;  0.0000000E+00;  0.0000000E+00;  0.0000000E+00;0; -2.7526636E-04;  4.0000000E+04;  0.0000000E+00;  0.0000000E+00;  4.0000000E+04;  0.0000000E+00;  4.0000000E+04; -1.6509462E-04;  0.0000000E+00; -1.1017174E-04;  4.6150742E+02;
 -7.9999998E-02;  9.9999998E-03; -3.1999999E-01;1103;  0.0000000E+00;  0.0000000E+00;  0.0000000E+00;  1.0001580E+03;  1.0000000E-01;  1.3086049E+02;0;  0.0000000E+00;  0.0000000E+00;  0.0000000E+00;0; -3.2499735E-04;  4.0000000E+04;  0.0000000E+00;  0.0000000E+00;  4.0000000E+04;  0.0000000E+00;  4.0000000E+04; -2.0141514E-04;  0.0000000E+00; -1.2358221E-04;  4.5714539E+02;
 -7.9999998E-02;  9.9999998E-03; -3.1000000E-01;1104;  0.0000000E+00;  0.0000000E+00;  0.0000000E+00;  1.0001769E+03;  1.0000000E-01;  1.4656375E+02;0;  0.0000000E+00;  0.0000000E+00;  0.0000000E+00;0; -3.6906838E-04;  4.0000000E+04;  0.0000000E+00;  0.0000000E+00;  4.0000000E+04;  0.0000000E+00;  4.0000000E+04; -2.3676686E-04;  0.0000000E+00; -1.3230152E-04;  4.0888251E+02;
 -7.9999998E-02;  9.9999998E-03; -3.0000001E-01;1105;  0.0000000E+00;  0.0000000E+00;  0.0000000E+00;  1.0001970E+03;  1.0000000E-01;  1.6325464E+02;0;  0.0000000E+00;  0.0000000E+00;  0.0000000E+00;0; -4.0434496E-04;  4.0000000E+04;  0.0000000E+00;  0.0000000E+00;  4.0000000E+04;  0.0000000E+00;  4.0000000E+04; -2.6980665E-04;  0.0000000E+00; -1.3453831E-04;  3.1355493E+02;
 -7.9999998E-02;  9.9999998E-03; -2.8999999E-01;1106;  0.0000000E+00;  0.0000000E+00;  0.0000000E+00;  1.0001967E+03;  1.0000000E-01;  1.6295836E+02;0;  0.0000000E+00;  0.0000000E+00;  0.0000000E+00;0; -4.2918179E-04;  4.0000000E+04;  0.0000000E+00;  0.0000000E+00;  4.0000000E+04;  0.0000000E+00;  4.0000000E+04; -3.0009367E-04;  0.0000000E+00; -1.2908812E-04;  1.7771707E+02;
 -7.9999998E-02;  9.9999998E-03; -2.8000000E-01;1107;  0.0000000E+00;  0.0000000E+00;  0.0000000E+00;  1.0001998E+03;  1.0000000E-01;  1.6552618E+02;0;  0.0000000E+00;  0.0000000E+00;  0.0000000E+00;0; -4.4402434E-04;  4.0000000E+04;  0.0000000E+00;  0.0000000E+00;  4.0000000E+04;  0.0000000E+00;  4.0000000E+04; -3.2830302E-04;  0.0000000E+00; -1.1572130E-04;  7.3106178E+01;
 -7.0000000E-02;  9.9999998E-03; -4.4000000E-01;1182;  0.0000000E+00;  0.0000000E+00;  0.0000000E+00;  1.0000000E+03;  1.0000000E-01;  0.0000000E+00;0;  0.0000000E+00;  0.0000000E+00;  0.0000000E+00;0; -1.1042754E-07;  4.0000000E+04;  0.0000000E+00;  0.0000000E+00;  4.0000000E+04;  0.0000000E+00;  4.0000000E+04; -4.1914184E-08;  0.0000000E+00; -6.8513351E-08;  3.1179735E-01;
 -7.0000000E-02;  9.9999998E-03; -4.3000001E-01;1183;  0.0000000E+00;  0.0000000E+00;  0.0000000E+00;  1.0000000E+03;  1.0000000E-01;  0.0000000E+00;0;  0.0000000E+00;  0.0000000E+00;  0.0000000E+00;0; -1.3489525E-06;  4.0000000E+04;  0.0000000E+00;  0.0000000E+00;  4.0000000E+04;  0.0000000E+00;  4.0000000E+04; -4.8433446E-07;  0.0000000E+00; -8.6461813E-07;  3.7981572E+00;
 -7.0000000E-02;  9.9999998E-03; -4.1999999E-01;1184;  0.0000000E+00;  0.0000000E+00;  0.0000000E+00;  1.0000000E+03;  1.0000000E-01;  0.0000000E+00;0;  0.0000000E+00;  0.0000000E+00;  0.0000000E+00;0; -5.7826860E-06;  4.0000000E+04;  0.0000000E+00;  0.0000000E+00;  4.0000000E+04;  0.0000000E+00;  4.0000000E+04; -2.1485432E-06;  0.0000000E+00; -3.6341428E-06;  1.7125463E+01;
 -7.0000000E-02;  9.9999998E-03; -4.1000000E-01;1185;  0.0000000E+00;  0.0000000E+00;  0.0000000E+00;  1.0000000E+03;  1.0000000E-01;  0.0000000E+00;0;  0.0000000E+00;  0.0000000E+00;  0.0000000E+00;0; -1.5771780E-05;  4.0000000E+04;  0.0000000E+00;  0.0000000E+00;  4.0000000E+04;  0.0000000E+00;  4.0000000E+04; -6.2636150E-06;  0.0000000E+00; -9.5081659E-06;  4.7881729E+01;
 -7.0000000E-02;  9.9999998E-03; -4.0000001E-01;1186;  0.0000000E+00;  0.0000000E+00;  0.0000000E+00;  1.0000000E+03;  1.0000000E-01;  0.0000000E+00;0;  0.0000000E+00;  0.0000000E+00;  0.0000000E+00;0; -3.3428187E-05;  4.0000000E+04;  0.0000000E+00;  0.0000000E+00;  4.0000000E+04;  0.0000000E+00;  4.0000000E+04; -1.4361646E-05;  0.0000000E+00; -1.9066540E-05;  1.0063978E+02;
 -7.0000000E-02;  9.9999998E-03; -3.8999999E-01;1187;  0.0000000E+00;  0.0000000E+00;  0.0000000E+00;  1.0000443E+03;  1.0000000E-01;  3.6739700E+01;0;  0.0000000E+00;  0.0000000E+00;  0.0000000E+00;0; -6.0497390E-05;  4.0000000E+04;  0.0000000E+00;  0.0000000E+00;  4.0000000E+04;  0.0000000E+00;  4.0000000E+04; -2.8133501E-05;  0.0000000E+00; -3.2363889E-05;  1.7538441E+02;
 -7.0000000E-02;  9.9999998E-03; -3.8000000E-01;1188;  0.0000000E+00;  0.0000000E+00;  0.0000000E+00;  1.0000561E+03;  1.0000000E-01;  4.6517204E+01;0;  0.0000000E+00;  0.0000000E+00;  0.0000000E+00;0; -9.8397402E-05;  4.0000000E+04;  0.0000000E+00;  0.0000000E+00;  4.0000000E+04;  0.0000000E+00;  4.0000000E+04; -4.9245358E-05;  0.0000000E+00; -4.9152044E-05;  2.6810251E+02;
 -7.0000000E-02;  9.9999998E-03; -3.7000000E-01;1189;  0.0000000E+00;  0.0000000E+00;  0.0000000E+00;  1.0000927E+03;  1.0000000E-01;  7.6837334E+01;0;  0.0000000E+00;  0.0000000E+00;  0.0000000E+00;0; -1.4811964E-04;  4.0000000E+04;  0.0000000E+00;  0.0000000E+00;  4.0000000E+04;  0.0000000E+00;  4.0000000E+04; -7.9097539E-05;  0.0000000E+00; -6.9022091E-05;  3.7185300E+02;
 -7.0000000E-02;  9.9999998E-03; -3.6000001E-01;1190;  0.0000000E+00;  0.0000000E+00;  0.0000000E+00;  1.0000938E+03;  1.0000000E-01;  7.7726196E+01;0;  0.0000000E+00;  0.0000000E+00;  0.0000000E+00;0; -2.0999202E-04;  4.0000000E+04;  0.0000000E+00;  0.0000000E+00;  4.0000000E+04;  0.0000000E+00;  4.0000000E+04; -1.1859467E-04;  0.0000000E+00; -9.1397349E-05;  4.7741174E+02;
 -7.0000000E-02;  9.9999998E-03; -3.4999999E-01;1191;  0.0000000E+00;  0.0000000E+00;  0.0000000E+00;  1.0001500E+03;  1.0000000E-01;  1.2424340E+02;0;  0.0000000E+00;  0.0000000E+00;  0.0000000E+00;0; -2.8330620E-04;  4.0000000E+04;  0.0000000E+00;  0.0000000E+00;  4.0000000E+04;  0.0000000E+00;  4.0000000E+04; -1.6789086E-04;  0.0000000E+00; -1.1541535E-04;  5.7352313E+02;
 -7.0000000E-02;  9.9999998E-03; -3.4000000E-01;1192;  0.0000000E+00;  0.0000000E+00;  0.0000000E+00;  1.0002136E+03;  1.0000000E-01;  1.7688388E+02;0;  0.0000000E+00;  0.0000000E+00;  0.0000000E+00;0; -3.6602255E-04;  4.0000000E+04;  0.0000000E+00;  0.0000000E+00;  4.0000000E+04;  0.0000000E+00;  4.0000000E+04; -2.2624854E-04;  0.0000000E+00; -1.3977401E-04;  6.4705060E+02;
 -7.0000000E-02;  9.9999998E-03; -3.3000001E-01;1193;  0.0000000E+00;  0.0000000E+00;  0.0000000E+00;  1.0002649E+03;  1.0000000E-01;  2.1945058E+02;0;  0.0000000E+00;  0.0000000E+00;  0.0000000E+00;0; -4.5464741E-04;  4.0000000E+04;  0.0000000E+00;  0.0000000E+00;  4.0000000E+04;  0.0000000E+00;  4.0000000E+04; -2.9203549E-04;  0.0000000E+00; -1.6261193E-04;  6.8366077E+02;
 -7.0000000E-02;  9.9999998E-03; -3.1999999E-01;1194;  0.0000000E+00;  0.0000000E+00;  0.0000000E+00;  1.0003339E+03;  1.0000000E-01;  2.7663416E+02;0;  0.0000000E+00;  0.0000000E+00;  0.0000000E+00;0; -5.4445461E-04;  4.0000000E+04;  0.0000000E+00;  0.0000000E+00;  4.0000000E+04;  0.0000000E+00;  4.0000000E+04; -3.6293583E-04;  0.0000000E+00; -1.8151877E-04;  6.6939661E+02;
 -7.0000000E-02;  9.9999998E-03; -3.1000000E-01;1195;  0.0000000E+00;  0.0000000E+00;  0.0000000E+00;  1.0003715E+03;  1.0000000E-01;  3.0774438E+02;0;  0.0000000E+00;  0.0000000E+00;  0.0000000E+00;0; -6.3016312E-04;  4.0000000E+04;  0.0000000E+00;  0.0000000E+00;  4.0000000E+04;  0.0000000E+00;  4.0000000E+04; -4.3639701E-04;  0.0000000E+00; -1.9376613E-04;  5.9361139E+02;
 -7.0000000E-02;  9.9999998E-03; -3.0000001E-01;1196;  0.0000000E+00;  0.0000000E+00;  0.0000000E+00;  1.0004042E+03;  1.0000000E-01;  3.3490411E+02;0;  0.0000000E+00;  0.0000000E+00;  0.0000000E+00;0; -7.0702605E-04;  4.0000000E+04;  0.0000000E+00;  0.0000000E+00;  4.0000000E+04;  0.0000000E+00;  4.0000000E+04; -5.1022315E-04;  0.0000000E+00; -1.9680290E-04;  4.5314069E+02;
 -7.0000000E-02;  9.9999998E-03; -2.8999999E-01;1197;  0.0000000E+00;  0.0000000E+00;  0.0000000E+00;  1.0004376E+03;  1.0000000E-01;  3.6255765E+02;0;  0.0000000E+00;  0.0000000E+00;  0.0000000E+00;0; -7.7208184E-04;  4.0000000E+04;  0.0000000E+00;  0.0000000E+00;  4.0000000E+04;  0.0000000E+00;  4.0000000E+04; -5.8315956E-04;  0.0000000E+00; -1.8892229E-04;  2.6014313E+02;
 -7.0000000E-02;  9.9999998E-03; -2.8000000E-01;1198;  0.0000000E+00;  0.0000000E+00;  0.0000000E+00;  1.0004544E+03;  1.0000000E-01;  3.7648318E+02;0;  0.0000000E+00;  0.0000000E+00;  0.0000000E+00;0; -8.2507654E-04;  4.0000000E+04;  0.0000000E+00;  0.0000000E+00;  4.0000000E+04;  0.0000000E+00;  4.0000000E+04; -6.5525697E-04;  0.0000000E+00; -1.6981957E-04;  1.2533069E+02;
 -5.9999999E-02;  9.9999998E-03; -4.4000000E-01;1273;  0.0000000E+00;  0.0000000E+00;  0.0000000E+00;  1.0000000E+03;  1.0000000E-01;  0.0000000E+00;0;  0.0000000E+00;  0.0000000E+00;  0.0000000E+00;0; -5.2045493E-07;  4.0000000E+04;  0.0000000E+00;  0.0000000E+00;  4.0000000E+04;  0.0000000E+00;  4.0000000E+04; -1.8709727E-07;  0.0000000E+00; -3.3335769E-07;  1.5489202E+00;
 -5.9999999E-02;  9.9999998E-03; -4.3000001E-01;1274;  0.0000000E+00;  0.0000000E+00;  0.0000000E+00;  1.0000000E+03;  1.0000000E-01;  0.0000000E+00;0;  0.0000000E+00;  0.0000000E+00;  0.0000000E+00;0; -3.4397376E-06;  4.0000000E+04;  0.0000000E+00;  0.0000000E+00;  4.0000000E+04;  0.0000000E+00;  4.0000000E+04; -1.2481968E-06;  0.0000000E+00; -2.1915407E-06;  1.0625050E+01;
 -5.9999999E-02;  9.9999998E-03; -4.1999999E-01;1275;  0.0000000E+00;  0.0000000E+00;  0.0000000E+00;  1.0000000E+03;  1.0000000E-01;  0.0000000E+00;0;  0.0000000E+00;  0.0000000E+00;  0.0000000E+00;0; -1.1676457E-05;  4.0000000E+04;  0.0000000E+00;  0.0000000E+00;  4.0000000E+04;  0.0000000E+00;  4.0000000E+04; -4.4796334E-06;  0.0000000E+00; -7.1968234E-06;  3.7259270E+01;
 -5.9999999E-02;  9.9999998E-03; -4.1000000E-01;1276;  0.0000000E+00;  0.0000000E+00;  0.0000000E+00;  1.0000000E+03;  1.0000000E-01;  0.0000000E+00;0;  0.0000000E+00;  0.0000000E+00;  0.0000000E+00;0; -2.8266371E-05;  4.0000000E+04;  0.0000000E+00;  0.0000000E+00;  4.0000000E+04;  0.0000000E+00;  4.0000000E+04; -1.1711681E-05;  0.0000000E+00; -1.6554692E-05;  9.0299980E+01;
 -5.9999999E-02;  9.9999998E-03; -4.0000001E-01;1277;  0.0000000E+00;  0.0000000E+00;  0.0000000E+00;  1.0000315E+03;  1.0000000E-01;  2.6073338E+01;0;  0.0000000E+00;  0.0000000E+00;  0.0000000E+00;0; -5.5937984E-05;  4.0000000E+04;  0.0000000E+00;  0.0000000E+00;  4.0000000E+04;  0.0000000E+00;  4.0000000E+04; -2.5207168E-05;  0.0000000E+00; -3.0730815E-05;  1.7324765E+02;
 -5.9999999E-02;  9.9999998E-03; -3.8999999E-01;1278;  0.0000000E+00;  0.0000000E+00;  0.0000000E+00;  1.0000620E+03;  1.0000000E-01;  5.1356571E+01;0;  0.0000000E+00;  0.0000000E+00;  0.0000000E+00;0; -9.7144672E-05;  4.0000000E+04;  0.0000000E+00;  0.0000000E+00;  4.0000000E+04;  0.0000000E+00;  4.0000000E+04; -4.7509704E-05;  0.0000000E+00; -4.9634964E-05;  2.8364636E+02;
 -5.9999999E-02;  9.9999998E-03; -3.8000000E-01;1279;  0.0000000E+00;  0.0000000E+00;  0.0000000E+00;  1.0000936E+03;  1.0000000E-01;  7.7528671E+01;0;  0.0000000E+00;  0.0000000E+00;  0.0000000E+00;0; -1.5415580E-04;  4.0000000E+04;  0.0000000E+00;  0.0000000E+00;  4.0000000E+04;  0.0000000E+00;  4.0000000E+04; -8.1233818E-05;  0.0000000E+00; -7.2921976E-05;  4.1462000E+02;
 -5.9999999E-02;  9.9999998E-03; -3.7000000E-01;1280;  0.0000000E+00;  0.0000000E+00;  0.0000000E+00;  1.0001255E+03;  1.0000000E-01;  1.0399706E+02;0;  0.0000000E+00;  0.0000000E+00;  0.0000000E+00;0; -2.2888856E-04;  4.0000000E+04;  0.0000000E+00;  0.0000000E+00;  4.0000000E+04;  0.0000000E+00;  4.0000000E+04; -1.2876838E-04;  0.0000000E+00; -1.0012018E-04;  5.5637299E+02;
 -5.9999999E-02;  9.9999998E-03; -3.6000001E-01;1281;  0.0000000E+00;  0.0000000E+00;  0.0000000E+00;  1.0001920E+03;  1.0000000E-01;  1.5910661E+02;0;  0.0000000E+00;  0.0000000E+00;  0.0000000E+00;0; -3.2251555E-04;  4.0000000E+04;  0.0000000E+00;  0.0000000E+00;  4.0000000E+04;  0.0000000E+00;  4.0000000E+04; -1.9195322E-04;  0.0000000E+00; -1.3056232E-04;  6.9678265E+02;
 -5.9999999E-02;  9.9999998E-03; -3.4999999E-01;1282;  0.0000000E+00;  0.0000000E+00;  0.0000000E+00;  1.0002872E+03;  1.0000000E-01;  2.3791919E+02;0;  0.0000000E+00;  0.0000000E+00;  0.0000000E+00;0; -4.3488335E-04;  4.0000000E+04;  0.0000000E+00;  0.0000000E+00;  4.0000000E+04;  0.0000000E+00;  4.0000000E+04; -2.7169747E-04;  0.0000000E+00; -1.6318588E-04;  8.2143994E+02;
 -5.9999999E-02;  9.9999998E-03; -3.4000000E-01;1283;  0.0000000E+00;  0.0000000E+00;  0.0000000E+00;  1.0003732E+03;  1.0000000E-01;  3.0922583E+02;0;  0.0000000E+00;  0.0000000E+00;  0.0000000E+00;0; -5.6398869E-04;  4.0000000E+04;  0.0000000E+00;  0.0000000E+00;  4.0000000E+04;  0.0000000E+00;  4.0000000E+04; -3.6768804E-04;  0.0000000E+00; -1.9630068E-04;  9.1362836E+02;
 -5.9999999E-02;  9.9999998E-03; -3.3000001E-01;1284;  0.0000000E+00;  0.0000000E+00;  0.0000000E+00;  1.0004695E+03;  1.0000000E-01;  3.8902603E+02;0;  0.0000000E+00;  0.0000000E+00;  0.0000000E+00;0; -7.0567016E-04;  4.0000000E+04;  0.0000000E+00;  0.0000000E+00;  4.0000000E+04;  0.0000000E+00;  4.0000000E+04; -4.7825574E-04;  0.0000000E+00; -2.2741442E-04;  9.5497424E+02;
 -5.9999999E-02;  9.9999998E-03; -3.1999999E-01;1285;  0.0000000E+00;  0.0000000E+00;  0.0000000E+00;  1.0005532E+03;  1.0000000E-01;  4.5825864E+02;0;  0.0000000E+00;  0.0000000E+00;  0.0000000E+00;0; -8.5375679E-04;  4.0000000E+04;  0.0000000E+00;  0.0000000E+00;  4.0000000E+04;  0.0000000E+00;  4.0000000E+04; -6.0051936E-04;  0.0000000E+00; -2.5323746E-04;  9.2756067E+02;
 -5.9999999E-02;  9.9999998E-03; -3.1000000E-01;1286;  0.0000000E+00;  0.0000000E+00;  0.0000000E+00;  1.0006411E+03;  1.0000000E-01;  5.3114545E+02;0;  0.0000000E+00;  0.0000000E+00;  0.0000000E+00;0; -1.0008770E-03;  4.0000000E+04;  0.0000000E+00;  0.0000000E+00;  4.0000000E+04;  0.0000000E+00;  4.0000000E+04; -7.3087390E-04;  0.0000000E+00; -2.7000316E-04;  8.1776996E+02;
 -5.9999999E-02;  9.9999998E-03; -3.0000001E-01;1287;  0.0000000E+00;  0.0000000E+00;  0.0000000E+00;  1.0007267E+03;  1.0000000E-01;  6.0205707E+02;0;  0.0000000E+00;  0.0000000E+00;  0.0000000E+00;0; -1.1399471E-03;  4.0000000E+04;  0.0000000E+00;  0.0000000E+00;  4.0000000E+04;  0.0000000E+00;  4.0000000E+04; -8.6577400E-04;  0.0000000E+00; -2.7417307E-04;  6.2235583E+02;
 -5.9999999E-02;  9.9999998E-03; -2.8999999E-01;1288;  0.0000000E+00;  0.0000000E+00;  0.0000000E+00;  1.0008029E+03;  1.0000000E-01;  6.6516638E+02;0;  0.0000000E+00;  0.0000000E+00;  0.0000000E+00;0; -1.2659915E-03;  4.0000000E+04;  0.0000000E+00;  0.0000000E+00;  4.0000000E+04;  0.0000000E+00;  4.0000000E+04; -1.0025977E-03;  0.0000000E+00; -2.6339368E-04;  3.6053818E+02;
 -5.9999999E-02;  9.9999998E-03; -2.8000000E-01;1289;  0.0000000E+00;  0.0000000E+00;  0.0000000E+00;  1.0008734E+03;  1.0000000E-01;  7.2363385E+02;0;  0.0000000E+00;  0.0000000E+00;  0.0000000E+00;0; -1.3775656E-03;  4.0000000E+04;  0.0000000E+00;  0.0000000E+00;  4.0000000E+04;  0.0000000E+00;  4.0000000E+04; -1.1402768E-03;  0.0000000E+00; -2.3728874E-04;  1.8992957E+02;
 -5.0000001E-02;  9.9999998E-03; -4.4000000E-01;1364;  0.0000000E+00;  0.0000000E+00;  0.0000000E+00;  1.0000000E+03;  1.0000000E-01;  0.0000000E+00;0;  0.0000000E+00;  0.0000000E+00;  0.0000000E+00;0; -1.4321707E-06;  4.0000000E+04;  0.0000000E+00;  0.0000000E+00;  4.0000000E+04;  0.0000000E+00;  4.0000000E+04; -5.1463024E-07;  0.0000000E+00; -9.1754049E-07;  4.6144843E+00;
 -5.0000001E-02;  9.9999998E-03; -4.3000001E-01;1365;  0.0000000E+00;  0.0000000E+00;  0.0000000E+00;  1.0000000E+03;  1.0000000E-01;  0.0000000E+00;0;  0.0000000E+00;  0.0000000E+00;  0.0000000E+00;0; -6.8888135E-06;  4.0000000E+04;  0.0000000E+00;  0.0000000E+00;  4.0000000E+04;  0.0000000E+00;  4.0000000E+04; -2.5785280E-06;  0.0000000E+00; -4.3102855E-06;  2.2893545E+01;
 -5.0000001E-02;  9.9999998E-03; -4.1999999E-01;1366;  0.0000000E+00;  0.0000000E+00;  0.0000000E+00;  1.0000000E+03;  1.0000000E-01;  0.0000000E+00;0;  0.0000000E+00;  0.0000000E+00;  0.0000000E+00;0; -2.0251577E-05;  4.0000000E+04;  0.0000000E+00;  0.0000000E+00;  4.0000000E+04;  0.0000000E+00;  4.0000000E+04; -8.1240105E-06;  0.0000000E+00; -1.2127566E-05;  6.8051476E+01;
 -5.0000001E-02;  9.9999998E-03; -4.1000000E-01;1367;  0.0000000E+00;  0.0000000E+00;  0.0000000E+00;  1.0000088E+03;  1.0000000E-01;  7.3084354E+00;0;  0.0000000E+00;  0.0000000E+00;  0.0000000E+00;0; -4.5344837E-05;  4.0000000E+04;  0.0000000E+00;  0.0000000E+00;  4.0000000E+04;  0.0000000E+00;  4.0000000E+04; -1.9760724E-05;  0.0000000E+00; -2.5584115E-05;  1.4928101E+02;
 -5.0000001E-02;  9.9999998E-03; -4.0000001E-01;1368;  0.0000000E+00;  0.0000000E+00;  0.0000000E+00;  1.0000590E+03;  1.0000000E-01;  4.8887505E+01;0;  0.0000000E+00;  0.0000000E+00;  0.0000000E+00;0; -8.5737120E-05;  4.0000000E+04;  0.0000000E+00;  0.0000000E+00;  4.0000000E+04;  0.0000000E+00;  4.0000000E+04; -4.0707302E-05;  0.0000000E+00; -4.5029814E-05;  2.6817578E+02;
 -5.0000001E-02;  9.9999998E-03; -3.8999999E-01;1369;  0.0000000E+00;  0.0000000E+00;  0.0000000E+00;  1.0000916E+03;  1.0000000E-01;  7.5849709E+01;0;  0.0000000E+00;  0.0000000E+00;  0.0000000E+00;0; -1.4491013E-04;  4.0000000E+04;  0.0000000E+00;  0.0000000E+00;  4.0000000E+04;  0.0000000E+00;  4.0000000E+04; -7.4635755E-05;  0.0000000E+00; -7.0274378E-05;  4.1932153E+02;
 -5.0000001E-02;  9.9999998E-03; -3.8000000E-01;1370;  0.0000000E+00;  0.0000000E+00;  0.0000000E+00;  1.0001434E+03;  1.0000000E-01;  1.1881145E+02;0;  0.0000000E+00;  0.0000000E+00;  0.0000000E+00;0; -2.2637023E-04;  4.0000000E+04;  0.0000000E+00;  0.0000000E+00;  4.0000000E+04;  0.0000000E+00;  4.0000000E+04; -1.2543368E-04;  0.0000000E+00; -1.0093656E-04;  5.9280048E+02;
 -5.0000001E-02;  9.9999998E-03; -3.7000000E-01;1371;  0.0000000E+00;  0.0000000E+00;  0.0000000E+00;  1.0002075E+03;  1.0000000E-01;  1.7184698E+02;0;  0.0000000E+00;  0.0000000E+00;  0.0000000E+00;0; -3.3337928E-04;  4.0000000E+04;  0.0000000E+00;  0.0000000E+00;  4.0000000E+04;  0.0000000E+00;  4.0000000E+04; -1.9684318E-04;  0.0000000E+00; -1.3653611E-04;  7.7596240E+02;
 -5.0000001E-02;  9.9999998E-03; -3.6000001E-01;1372;  0.0000000E+00;  0.0000000E+00;  0.0000000E+00;  1.0003278E+03;  1.0000000E-01;  2.7149850E+02;0;  0.0000000E+00;  0.0000000E+00;  0.0000000E+00;0; -4.6836823E-04;  4.0000000E+04;  0.0000000E+00;  0.0000000E+00;  4.0000000E+04;  0.0000000E+00;  4.0000000E+04; -2.9202198E-04;  0.0000000E+00; -1.7634626E-04;  9.5389801E+02;
 -5.0000001E-02;  9.9999998E-03; -3.4999999E-01;1373;  0.0000000E+00;  0.0000000E+00;  0.0000000E+00;  1.0004499E+03;  1.0000000E-01;  3.7273019E+02;0;  0.0000000E+00;  0.0000000E+00;  0.0000000E+00;0; -6.3209829E-04;  4.0000000E+04;  0.0000000E+00;  0.0000000E+00;  4.0000000E+04;  0.0000000E+00;  4.0000000E+04; -4.1299762E-04;  0.0000000E+00; -2.1910065E-04;  1.1090820E+03;
 -5.0000001E-02;  9.9999998E-03; -3.4000000E-01;1374;  0.0000000E+00;  0.0000000E+00;  0.0000000E+00;  1.0005794E+03;  1.0000000E-01;  4.7998642E+02;0;  0.0000000E+00;  0.0000000E+00;  0.0000000E+00;0; -8.2283549E-04;  4.0000000E+04;  0.0000000E+00;  0.0000000E+00;  4.0000000E+04;  0.0000000E+00;  4.0000000E+04; -5.6016532E-04;  0.0000000E+00; -2.6267013E-04;  1.2210637E+03;
 -5.0000001E-02;  9.9999998E-03; -3.3000001E-01;1375;  0.0000000E+00;  0.0000000E+00;  0.0000000E+00;  1.0007175E+03;  1.0000000E-01;  5.9445233E+02;0;  0.0000000E+00;  0.0000000E+00;  0.0000000E+00;0; -1.0357497E-03;  4.0000000E+04;  0.0000000E+00;  0.0000000E+00;  4.0000000E+04;  0.0000000E+00;  4.0000000E+04; -7.3193631E-04;  0.0000000E+00; -3.0381337E-04;  1.2670532E+03;
 -5.0000001E-02;  9.9999998E-03; -3.1999999E-01;1376;  0.0000000E+00;  0.0000000E+00;  0.0000000E+00;  1.0008658E+03;  1.0000000E-01;  7.1731305E+02;0;  0.0000000E+00;  0.0000000E+00;  0.0000000E+00;0; -1.2628946E-03;  4.0000000E+04;  0.0000000E+00;  0.0000000E+00;  4.0000000E+04;  0.0000000E+00;  4.0000000E+04; -9.2473382E-04;  0.0000000E+00; -3.3816072E-04;  1.2243344E+03;
 -5.0000001E-02;  9.9999998E-03; -3.1000000E-01;1377;  0.0000000E+00;  0.0000000E+00;  0.0000000E+00;  1.0010370E+03;  1.0000000E-01;  8.5913617E+02;0;  0.0000000E+00;  0.0000000E+00;  0.0000000E+00;0; -1.4941182E-03;  4.0000000E+04;  0.0000000E+00;  0.0000000E+00;  4.0000000E+04;  0.0000000E+00;  4.0000000E+04; -1.1334867E-03;  0.0000000E+00; -3.6063153E-04;  1.0754128E+03;
 -5.0000001E-02;  9.9999998E-03; -3.0000001E-01;1378;  0.0000000E+00;  0.0000000E+00;  0.0000000E+00;  1.0011940E+03;  1.0000000E-01;  9.8920660E+02;0;  0.0000000E+00;  0.0000000E+00;  0.0000000E+00;0; -1.7190655E-03;  4.0000000E+04;  0.0000000E+00;  0.0000000E+00;  4.0000000E+04;  0.0000000E+00;  4.0000000E+04; -1.3526502E-03;  0.0000000E+00; -3.6641530E-04;  8.1618677E+02;
 -5.0000001E-02;  9.9999998E-03; -2.8999999E-01;1379;  0.0000000E+00;  0.0000000E+00;  0.0000000E+00;  1.0013339E+03;  1.0000000E-01;  1.1051539E+03;0;  0.0000000E+00;  0.0000000E+00;  0.0000000E+00;0; -1.9298370E-03;  4.0000000E+04;  0.0000000E+00;  0.0000000E+00;  4.0000000E+04;  0.0000000E+00;  4.0000000E+04; -1.5775037E-03;  0.0000000E+00; -3.5233327E-04;  4.7290720E+02;
 -5.0000001E-02;  9.9999998E-03; -2.8000000E-01;1380;  0.0000000E+00;  0.0000000E+00;  0.0000000E+00;  1.0014654E+03;  1.0000000E-01;  1.2140891E+03;0;  0.0000000E+00;  0.0000000E+00;  0.0000000E+00;0; -2.1231696E-03;  4.0000000E+04;  0.0000000E+00;  0.0000000E+00;  4.0000000E+04;  0.0000000E+00;  4.0000000E+04; -1.8052112E-03;  0.0000000E+00; -3.1795847E-04;  2.5656738E+02;
 -3.9999999E-02;  9.9999998E-03; -4.4000000E-01;1455;  0.0000000E+00;  0.0000000E+00;  0.0000000E+00;  1.0000000E+03;  1.0000000E-01;  0.0000000E+00;0;  0.0000000E+00;  0.0000000E+00;  0.0000000E+00;0; -2.9441887E-06;  4.0000000E+04;  0.0000000E+00;  0.0000000E+00;  4.0000000E+04;  0.0000000E+00;  4.0000000E+04; -1.0831950E-06;  0.0000000E+00; -1.8609937E-06;  1.0197358E+01;
 -3.9999999E-02;  9.9999998E-03; -4.3000001E-01;1456;  0.0000000E+00;  0.0000000E+00;  0.0000000E+00;  1.0000000E+03;  1.0000000E-01;  0.0000000E+00;0;  0.0000000E+00;  0.0000000E+00;  0.0000000E+00;0; -1.1708969E-05;  4.0000000E+04;  0.0000000E+00;  0.0000000E+00;  4.0000000E+04;  0.0000000E+00;  4.0000000E+04; -4.5789448E-06;  0.0000000E+00; -7.1300246E-06;  4.1091984E+01;
 -3.9999999E-02;  9.9999998E-03; -4.1999999E-01;1457;  0.0000000E+00;  0.0000000E+00;  0.0000000E+00;  1.0000000E+03;  1.0000000E-01;  0.0000000E+00;0;  0.0000000E+00;  0.0000000E+00;  0.0000000E+00;0; -3.1344076E-05;  4.0000000E+04;  0.0000000E+00;  0.0000000E+00;  4.0000000E+04;  0.0000000E+00;  4.0000000E+04; -1.3242314E-05;  0.0000000E+00; -1.8101764E-05;  1.0889666E+02;
 -3.9999999E-02;  9.9999998E-03; -4.1000000E-01;1458;  0.0000000E+00;  0.0000000E+00;  0.0000000E+00;  1.0000480E+03;  1.0000000E-01;  3.9801342E+01;0;  0.0000000E+00;  0.0000000E+00;  0.0000000E+00;0; -6.6620407E-05;  4.0000000E+04;  0.0000000E+00;  0.0000000E+00;  4.0000000E+04;  0.0000000E+00;  4.0000000E+04; -3.0631647E-05;  0.0000000E+00; -3.5988760E-05;  2.2230600E+02;
 -3.9999999E-02;  9.9999998E-03; -4.0000001E-01;1459;  0.0000000E+00;  0.0000000E+00;  0.0000000E+00;  1.0000756E+03;  1.0000000E-01;  6.2615513E+01;0;  0.0000000E+00;  0.0000000E+00;  0.0000000E+00;0; -1.2220477E-04;  4.0000000E+04;  0.0000000E+00;  0.0000000E+00;  4.0000000E+04;  0.0000000E+00;  4.0000000E+04; -6.1130348E-05;  0.0000000E+00; -6.1074425E-05;  3.8041592E+02;
 -3.9999999E-02;  9.9999998E-03; -3.8999999E-01;1460;  0.0000000E+00;  0.0000000E+00;  0.0000000E+00;  1.0001362E+03;  1.0000000E-01;  1.1278693E+02;0;  0.0000000E+00;  0.0000000E+00;  0.0000000E+00;0; -2.0293731E-04;  4.0000000E+04;  0.0000000E+00;  0.0000000E+00;  4.0000000E+04;  0.0000000E+00;  4.0000000E+04; -1.0979344E-04;  0.0000000E+00; -9.3143877E-05;  5.7463715E+02;
 -3.9999999E-02;  9.9999998E-03; -3.8000000E-01;1461;  0.0000000E+00;  0.0000000E+00;  0.0000000E+00;  1.0002114E+03;  1.0000000E-01;  1.7520493E+02;0;  0.0000000E+00;  0.0000000E+00;  0.0000000E+00;0; -3.1393586E-04;  4.0000000E+04;  0.0000000E+00;  0.0000000E+00;  4.0000000E+04;  0.0000000E+00;  4.0000000E+04; -1.8208471E-04;  0.0000000E+00; -1.3185113E-04;  7.9207104E+02;
 -3.9999999E-02;  9.9999998E-03; -3.7000000E-01;1462;  0.0000000E+00;  0.0000000E+00;  0.0000000E+00;  1.0003372E+03;  1.0000000E-01;  2.7930075E+02;0;  0.0000000E+00;  0.0000000E+00;  0.0000000E+00;0; -4.6021835E-04;  4.0000000E+04;  0.0000000E+00;  0.0000000E+00;  4.0000000E+04;  0.0000000E+00;  4.0000000E+04; -2.8345999E-04;  0.0000000E+00; -1.7675836E-04;  1.0175194E+03;
 -3.9999999E-02;  9.9999998E-03; -3.6000001E-01;1463;  0.0000000E+00;  0.0000000E+00;  0.0000000E+00;  1.0004939E+03;  1.0000000E-01;  4.0917361E+02;0;  0.0000000E+00;  0.0000000E+00;  0.0000000E+00;0; -6.4590841E-04;  4.0000000E+04;  0.0000000E+00;  0.0000000E+00;  4.0000000E+04;  0.0000000E+00;  4.0000000E+04; -4.1880499E-04;  0.0000000E+00; -2.2710343E-04;  1.2336188E+03;
 -3.9999999E-02;  9.9999998E-03; -3.4999999E-01;1464;  0.0000000E+00;  0.0000000E+00;  0.0000000E+00;  1.0006448E+03;  1.0000000E-01;  5.3420709E+02;0;  0.0000000E+00;  0.0000000E+00;  0.0000000E+00;0; -8.7311602E-04;  4.0000000E+04;  0.0000000E+00;  0.0000000E+00;  4.0000000E+04;  0.0000000E+00;  4.0000000E+04; -5.9169962E-04;  0.0000000E+00; -2.8141640E-04;  1.4200753E+03;
 -3.9999999E-02;  9.9999998E-03; -3.4000000E-01;1465;  0.0000000E+00;  0.0000000E+00;  0.0000000E+00;  1.0008381E+03;  1.0000000E-01;  6.9440009E+02;0;  0.0000000E+00;  0.0000000E+00;  0.0000000E+00;0; -1.1407238E-03;  4.0000000E+04;  0.0000000E+00;  0.0000000E+00;  4.0000000E+04;  0.0000000E+00;  4.0000000E+04; -8.0362963E-04;  0.0000000E+00; -3.3709416E-04;  1.5527887E+03;
 -3.9999999E-02;  9.9999998E-03; -3.3000001E-01;1466;  0.0000000E+00;  0.0000000E+00;  0.0000000E+00;  1.0010822E+03;  1.0000000E-01;  8.9656726E+02;0;  0.0000000E+00;  0.0000000E+00;  0.0000000E+00;0; -1.4433684E-03;  4.0000000E+04;  0.0000000E+00;  0.0000000E+00;  4.0000000E+04;  0.0000000E+00;  4.0000000E+04; -1.0533197E-03;  0.0000000E+00; -3.9004878E-04;  1.6042406E+03;
 -3.9999999E-02;  9.9999998E-03; -3.1999999E-01;1467;  0.0000000E+00;  0.0000000E+00;  0.0000000E+00;  1.0013073E+03;  1.0000000E-01;  1.0830311E+03;0;  0.0000000E+00;  0.0000000E+00;  0.0000000E+00;0; -1.7710843E-03;  4.0000000E+04;  0.0000000E+00;  0.0000000E+00;  4.0000000E+04;  0.0000000E+00;  4.0000000E+04; -1.3364471E-03;  0.0000000E+00; -4.3463724E-04;  1.5460970E+03;
 -3.9999999E-02;  9.9999998E-03; -3.1000000E-01;1468;  0.0000000E+00;  0.0000000E+00;  0.0000000E+00;  1.0015530E+03;  1.0000000E-01;  1.2866797E+03;0;  0.0000000E+00;  0.0000000E+00;  0.0000000E+00;0; -2.1102098E-03;  4.0000000E+04;  0.0000000E+00;  0.0000000E+00;  4.0000000E+04;  0.0000000E+00;  4.0000000E+04; -1.6460499E-03;  0.0000000E+00; -4.6415976E-04;  1.3554686E+03;
 -3.9999999E-02;  9.9999998E-03; -3.0000001E-01;1469;  0.0000000E+00;  0.0000000E+00;  0.0000000E+00;  1.0018035E+03;  1.0000000E-01;  1.4941799E+03;0;  0.0000000E+00;  0.0000000E+00;  0.0000000E+00;0; -2.4459818E-03;  4.0000000E+04;  0.0000000E+00;  0.0000000E+00;  4.0000000E+04;  0.0000000E+00;  4.0000000E+04; -1.9738015E-03;  0.0000000E+00; -4.7218020E-04;  1.0256353E+03;
 -3.9999999E-02;  9.9999998E-03; -2.8999999E-01;1470;  0.0000000E+00;  0.0000000E+00;  0.0000000E+00;  1.0020372E+03;  1.0000000E-01;  1.6877548E+03;0;  0.0000000E+00;  0.0000000E+00;  0.0000000E+00;0; -2.7663859E-03;  4.0000000E+04;  0.0000000E+00;  0.0000000E+00;  4.0000000E+04;  0.0000000E+00;  4.0000000E+04; -2.3119238E-03;  0.0000000E+00; -4.5446213E-04;  5.8787012E+02;
 -3.9999999E-02;  9.9999998E-03; -2.8000000E-01;1471;  0.0000000E+00;  0.0000000E+00;  0.0000000E+00;  1.0022695E+03;  1.0000000E-01;  1.8802432E+03;0;  0.0000000E+00;  0.0000000E+00;  0.0000000E+00;0; -3.0655891E-03;  4.0000000E+04;  0.0000000E+00;  0.0000000E+00;  4.0000000E+04;  0.0000000E+00;  4.0000000E+04; -2.6550086E-03;  0.0000000E+00; -4.1058063E-04;  3.1100381E+02;
 -2.9999999E-02;  9.9999998E-03; -4.4000000E-01;1546;  0.0000000E+00;  0.0000000E+00;  0.0000000E+00;  1.0000000E+03;  1.0000000E-01;  0.0000000E+00;0;  0.0000000E+00;  0.0000000E+00;  0.0000000E+00;0; -5.0008339E-06;  4.0000000E+04;  0.0000000E+00;  0.0000000E+00;  4.0000000E+04;  0.0000000E+00;  4.0000000E+04; -1.9100576E-06;  0.0000000E+00; -3.0907765E-06;  1.8373758E+01;
 -2.9999999E-02;  9.9999998E-03; -4.3000001E-01;1547;  0.0000000E+00;  0.0000000E+00;  0.0000000E+00;  1.0000000E+03;  1.0000000E-01;  0.0000000E+00;0;  0.0000000E+00;  0.0000000E+00;  0.0000000E+00;0; -1.7609911E-05;  4.0000000E+04;  0.0000000E+00;  0.0000000E+00;  4.0000000E+04;  0.0000000E+00;  4.0000000E+04; -7.2454036E-06;  0.0000000E+00; -1.0364507E-05;  6.4205452E+01;
 -2.9999999E-02;  9.9999998E-03; -4.1999999E-01;1548;  0.0000000E+00;  0.0000000E+00;  0.0000000E+00;  1.0000106E+03;  1.0000000E-01;  8.7898750E+00;0;  0.0000000E+00;  0.0000000E+00;  0.0000000E+00;0; -4.4301156E-05;  4.0000000E+04;  0.0000000E+00;  0.0000000E+00;  4.0000000E+04;  0.0000000E+00;  4.0000000E+04; -1.9756715E-05;  0.0000000E+00; -2.4544441E-05;  1.5668509E+02;
 -2.9999999E-02;  9.9999998E-03; -4.1000000E-01;1549;  0.0000000E+00;  0.0000000E+00;  0.0000000E+00;  1.0000668E+03;  1.0000000E-01;  5.5307079E+01;0;  0.0000000E+00;  0.0000000E+00;  0.0000000E+00;0; -9.0962028E-05;  4.0000000E+04;  0.0000000E+00;  0.0000000E+00;  4.0000000E+04;  0.0000000E+00;  4.0000000E+04; -4.4073797E-05;  0.0000000E+00; -4.6888228E-05;  3.0335785E+02;
 -2.9999999E-02;  9.9999998E-03; -4.0000001E-01;1550;  0.0000000E+00;  0.0000000E+00;  0.0000000E+00;  1.0001212E+03;  1.0000000E-01;  1.0034284E+02;0;  0.0000000E+00;  0.0000000E+00;  0.0000000E+00;0; -1.6359356E-04;  4.0000000E+04;  0.0000000E+00;  0.0000000E+00;  4.0000000E+04;  0.0000000E+00;  4.0000000E+04; -8.5889820E-05;  0.0000000E+00; -7.7703735E-05;  5.0054675E+02;
 -2.9999999E-02;  9.9999998E-03; -3.8999999E-01;1551;  0.0000000E+00;  0.0000000E+00;  0.0000000E+00;  1.0002195E+03;  1.0000000E-01;  1.8192078E+02;0;  0.0000000E+00;  0.0000000E+00;  0.0000000E+00;0; -2.6866118E-04;  4.0000000E+04;  0.0000000E+00;  0.0000000E+00;  4.0000000E+04;  0.0000000E+00;  4.0000000E+04; -1.5182166E-04;  0.0000000E+00; -1.1683954E-04;  7.3656653E+02;
 -2.9999999E-02;  9.9999998E-03; -3.8000000E-01;1552;  0.0000000E+00;  0.0000000E+00;  0.0000000E+00;  1.0003153E+03;  1.0000000E-01;  2.6122717E+02;0;  0.0000000E+00;  0.0000000E+00;  0.0000000E+00;0; -4.1318810E-04;  4.0000000E+04;  0.0000000E+00;  0.0000000E+00;  4.0000000E+04;  0.0000000E+00;  4.0000000E+04; -2.4914616E-04;  0.0000000E+00; -1.6404194E-04;  9.9595038E+02;
 -2.9999999E-02;  9.9999998E-03; -3.7000000E-01;1553;  0.0000000E+00;  0.0000000E+00;  0.0000000E+00;  1.0004906E+03;  1.0000000E-01;  4.0640826E+02;0;  0.0000000E+00;  0.0000000E+00;  0.0000000E+00;0; -6.0429209E-04;  4.0000000E+04;  0.0000000E+00;  0.0000000E+00;  4.0000000E+04;  0.0000000E+00;  4.0000000E+04; -3.8535413E-04;  0.0000000E+00; -2.1893796E-04;  1.2614904E+03;
 -2.9999999E-02;  9.9999998E-03; -3.6000001E-01;1554;  0.0000000E+00;  0.0000000E+00;  0.0000000E+00;  1.0006864E+03;  1.0000000E-01;  5.6867529E+02;0;  0.0000000E+00;  0.0000000E+00;  0.0000000E+00;0; -8.4821152E-04;  4.0000000E+04;  0.0000000E+00;  0.0000000E+00;  4.0000000E+04;  0.0000000E+00;  4.0000000E+04; -5.6747702E-04;  0.0000000E+00; -2.8073450E-04;  1.5140302E+03;
 -2.9999999E-02;  9.9999998E-03; -3.4999999E-01;1555;  0.0000000E+00;  0.0000000E+00;  0.0000000E+00;  1.0009138E+03;  1.0000000E-01;  7.5711438E+02;0;  0.0000000E+00;  0.0000000E+00;  0.0000000E+00;0; -1.1488942E-03;  4.0000000E+04;  0.0000000E+00;  0.0000000E+00;  4.0000000E+04;  0.0000000E+00;  4.0000000E+04; -8.0113776E-04;  0.0000000E+00; -3.4775643E-04;  1.7310383E+03;
 -2.9999999E-02;  9.9999998E-03; -3.4000000E-01;1556;  0.0000000E+00;  0.0000000E+00;  0.0000000E+00;  1.0011884E+03;  1.0000000E-01;  9.8456476E+02;0;  0.0000000E+00;  0.0000000E+00;  0.0000000E+00;0; -1.5063407E-03;  4.0000000E+04;  0.0000000E+00;  0.0000000E+00;  4.0000000E+04;  0.0000000E+00;  4.0000000E+04; -1.0894212E-03;  0.0000000E+00; -4.1691953E-04;  1.8851780E+03;
 -2.9999999E-02;  9.9999998E-03; -3.3000001E-01;1557;  0.0000000E+00;  0.0000000E+00;  0.0000000E+00;  1.0015048E+03;  1.0000000E-01;  1.2466808E+03;0;  0.0000000E+00;  0.0000000E+00;  0.0000000E+00;0; -1.9150237E-03;  4.0000000E+04;  0.0000000E+00;  0.0000000E+00;  4.0000000E+04;  0.0000000E+00;  4.0000000E+04; -1.4317725E-03;  0.0000000E+00; -4.8325123E-04;  1.9440983E+03;
 -2.9999999E-02;  9.9999998E-03; -3.1999999E-01;1558;  0.0000000E+00;  0.0000000E+00;  0.0000000E+00;  1.0018517E+03;  1.0000000E-01;  1.5341788E+03;0;  0.0000000E+00;  0.0000000E+00;  0.0000000E+00;0; -2.3629579E-03;  4.0000000E+04;  0.0000000E+00;  0.0000000E+00;  4.0000000E+04;  0.0000000E+00;  4.0000000E+04; -1.8232599E-03;  0.0000000E+00; -5.3969800E-04;  1.8730173E+03;
 -2.9999999E-02;  9.9999998E-03; -3.1000000E-01;1559;  0.0000000E+00;  0.0000000E+00;  0.0000000E+00;  1.0022153E+03;  1.0000000E-01;  1.8354049E+03;0;  0.0000000E+00;  0.0000000E+00;  0.0000000E+00;0; -2.8323606E-03;  4.0000000E+04;  0.0000000E+00;  0.0000000E+00;  4.0000000E+04;  0.0000000E+00;  4.0000000E+04; -2.2547108E-03;  0.0000000E+00; -5.7764980E-04;  1.6418396E+03;
 -2.9999999E-02;  9.9999998E-03; -3.0000001E-01;1560;  0.0000000E+00;  0.0000000E+00;  0.0000000E+00;  1.0025790E+03;  1.0000000E-01;  2.1366309E+03;0;  0.0000000E+00;  0.0000000E+00;  0.0000000E+00;0; -3.3027730E-03;  4.0000000E+04;  0.0000000E+00;  0.0000000E+00;  4.0000000E+04;  0.0000000E+00;  4.0000000E+04; -2.7141576E-03;  0.0000000E+00; -5.8861531E-04;  1.2386139E+03;
 -2.9999999E-02;  9.9999998E-03; -2.8999999E-01;1561;  0.0000000E+00;  0.0000000E+00;  0.0000000E+00;  1.0029302E+03;  1.0000000E-01;  2.4275857E+03;0;  0.0000000E+00;  0.0000000E+00;  0.0000000E+00;0; -3.7565983E-03;  4.0000000E+04;  0.0000000E+00;  0.0000000E+00;  4.0000000E+04;  0.0000000E+00;  4.0000000E+04; -3.1896173E-03;  0.0000000E+00; -5.6698109E-04;  6.9575787E+02;
 -2.9999999E-02;  9.9999998E-03; -2.8000000E-01;1562;  0.0000000E+00;  0.0000000E+00;  0.0000000E+00;  1.0032698E+03;  1.0000000E-01;  2.7089604E+03;0;  0.0000000E+00;  0.0000000E+00;  0.0000000E+00;0; -4.1845441E-03;  4.0000000E+04;  0.0000000E+00;  0.0000000E+00;  4.0000000E+04;  0.0000000E+00;  4.0000000E+04; -3.6721034E-03;  0.0000000E+00; -5.1244069E-04;  3.4218140E+02;
 -2.0000000E-02;  9.9999998E-03; -4.4000000E-01;1637;  0.0000000E+00;  0.0000000E+00;  0.0000000E+00;  1.0000000E+03;  1.0000000E-01;  0.0000000E+00;0;  0.0000000E+00;  0.0000000E+00;  0.0000000E+00;0; -7.3797437E-06;  4.0000000E+04;  0.0000000E+00;  0.0000000E+00;  4.0000000E+04;  0.0000000E+00;  4.0000000E+04; -2.9541004E-06;  0.0000000E+00; -4.4256431E-06;  2.8377096E+01;
 -2.0000000E-02;  9.9999998E-03; -4.3000001E-01;1638;  0.0000000E+00;  0.0000000E+00;  0.0000000E+00;  1.0000000E+03;  1.0000000E-01;  0.0000000E+00;0;  0.0000000E+00;  0.0000000E+00;  0.0000000E+00;0; -2.4022163E-05;  4.0000000E+04;  0.0000000E+00;  0.0000000E+00;  4.0000000E+04;  0.0000000E+00;  4.0000000E+04; -1.0430012E-05;  0.0000000E+00; -1.3592150E-05;  8.9623535E+01;
 -2.0000000E-02;  9.9999998E-03; -4.1999999E-01;1639;  0.0000000E+00;  0.0000000E+00;  0.0000000E+00;  1.0000462E+03;  1.0000000E-01;  3.8319904E+01;0;  0.0000000E+00;  0.0000000E+00;  0.0000000E+00;0; -5.8043115E-05;  4.0000000E+04;  0.0000000E+00;  0.0000000E+00;  4.0000000E+04;  0.0000000E+00;  4.0000000E+04; -2.7282982E-05;  0.0000000E+00; -3.0760133E-05;  2.0593750E+02;
 -2.0000000E-02;  9.9999998E-03; -4.1000000E-01;1640;  0.0000000E+00;  0.0000000E+00;  0.0000000E+00;  1.0000828E+03;  1.0000000E-01;  6.8541275E+01;0;  0.0000000E+00;  0.0000000E+00;  0.0000000E+00;0; -1.1658204E-04;  4.0000000E+04;  0.0000000E+00;  0.0000000E+00;  4.0000000E+04;  0.0000000E+00;  4.0000000E+04; -5.9250720E-05;  0.0000000E+00; -5.7331315E-05;  3.8334656E+02;
 -2.0000000E-02;  9.9999998E-03; -4.0000001E-01;1641;  0.0000000E+00;  0.0000000E+00;  0.0000000E+00;  1.0001624E+03;  1.0000000E-01;  1.3451471E+02;0;  0.0000000E+00;  0.0000000E+00;  0.0000000E+00;0; -2.0712338E-04;  4.0000000E+04;  0.0000000E+00;  0.0000000E+00;  4.0000000E+04;  0.0000000E+00;  4.0000000E+04; -1.1337364E-04;  0.0000000E+00; -9.3749739E-05;  6.1551843E+02;
 -2.0000000E-02;  9.9999998E-03; -3.8999999E-01;1642;  0.0000000E+00;  0.0000000E+00;  0.0000000E+00;  1.0002778E+03;  1.0000000E-01;  2.3011694E+02;0;  0.0000000E+00;  0.0000000E+00;  0.0000000E+00;0; -3.3789483E-04;  4.0000000E+04;  0.0000000E+00;  0.0000000E+00;  4.0000000E+04;  0.0000000E+00;  4.0000000E+04; -1.9789895E-04;  0.0000000E+00; -1.3999589E-04;  8.8817761E+02;
 -2.0000000E-02;  9.9999998E-03; -3.8000000E-01;1643;  0.0000000E+00;  0.0000000E+00;  0.0000000E+00;  1.0004326E+03;  1.0000000E-01;  3.5840961E+02;0;  0.0000000E+00;  0.0000000E+00;  0.0000000E+00;0; -5.1797705E-04;  4.0000000E+04;  0.0000000E+00;  0.0000000E+00;  4.0000000E+04;  0.0000000E+00;  4.0000000E+04; -3.2206235E-04;  0.0000000E+00; -1.9591472E-04;  1.1839886E+03;
 -2.0000000E-02;  9.9999998E-03; -3.7000000E-01;1644;  0.0000000E+00;  0.0000000E+00;  0.0000000E+00;  1.0006614E+03;  1.0000000E-01;  5.4803387E+02;0;  0.0000000E+00;  0.0000000E+00;  0.0000000E+00;0; -7.5681880E-04;  4.0000000E+04;  0.0000000E+00;  0.0000000E+00;  4.0000000E+04;  0.0000000E+00;  4.0000000E+04; -4.9564900E-04;  0.0000000E+00; -2.6116983E-04;  1.4844335E+03;
 -2.0000000E-02;  9.9999998E-03; -3.6000001E-01;1645;  0.0000000E+00;  0.0000000E+00;  0.0000000E+00;  1.0009046E+03;  1.0000000E-01;  7.4941089E+02;0;  0.0000000E+00;  0.0000000E+00;  0.0000000E+00;0; -1.0631295E-03;  4.0000000E+04;  0.0000000E+00;  0.0000000E+00;  4.0000000E+04;  0.0000000E+00;  4.0000000E+04; -7.2822225E-04;  0.0000000E+00; -3.3490729E-04;  1.7692445E+03;
 -2.0000000E-02;  9.9999998E-03; -3.4999999E-01;1646;  0.0000000E+00;  0.0000000E+00;  0.0000000E+00;  1.0012287E+03;  1.0000000E-01;  1.0179465E+03;0;  0.0000000E+00;  0.0000000E+00;  0.0000000E+00;0; -1.4431934E-03;  4.0000000E+04;  0.0000000E+00;  0.0000000E+00;  4.0000000E+04;  0.0000000E+00;  4.0000000E+04; -1.0279517E-03;  0.0000000E+00; -4.1524172E-04;  2.0142866E+03;
 -2.0000000E-02;  9.9999998E-03; -3.4000000E-01;1647;  0.0000000E+00;  0.0000000E+00;  0.0000000E+00;  1.0015949E+03;  1.0000000E-01;  1.3213453E+03;0;  0.0000000E+00;  0.0000000E+00;  0.0000000E+00;0; -1.8987491E-03;  4.0000000E+04;  0.0000000E+00;  0.0000000E+00;  4.0000000E+04;  0.0000000E+00;  4.0000000E+04; -1.4001110E-03;  0.0000000E+00; -4.9863814E-04;  2.1896848E+03;
 -2.0000000E-02;  9.9999998E-03; -3.3000001E-01;1648;  0.0000000E+00;  0.0000000E+00;  0.0000000E+00;  1.0020269E+03;  1.0000000E-01;  1.6791624E+03;0;  0.0000000E+00;  0.0000000E+00;  0.0000000E+00;0; -2.4247407E-03;  4.0000000E+04;  0.0000000E+00;  0.0000000E+00;  4.0000000E+04;  0.0000000E+00;  4.0000000E+04; -1.8454598E-03;  0.0000000E+00; -5.7928101E-04;  2.2586819E+03;
 -2.0000000E-02;  9.9999998E-03; -3.1999999E-01;1649;  0.0000000E+00;  0.0000000E+00;  0.0000000E+00;  1.0024990E+03;  1.0000000E-01;  2.0703611E+03;0;  0.0000000E+00;  0.0000000E+00;  0.0000000E+00;0; -3.0075992E-03;  4.0000000E+04;  0.0000000E+00;  0.0000000E+00;  4.0000000E+04;  0.0000000E+00;  4.0000000E+04; -2.3588999E-03;  0.0000000E+00; -6.4869912E-04;  2.1795930E+03;
 -2.0000000E-02;  9.9999998E-03; -3.1000000E-01;1650;  0.0000000E+00;  0.0000000E+00;  0.0000000E+00;  1.0029830E+03;  1.0000000E-01;  2.4713374E+03;0;  0.0000000E+00;  0.0000000E+00;  0.0000000E+00;0; -3.6252271E-03;  4.0000000E+04;  0.0000000E+00;  0.0000000E+00;  4.0000000E+04;  0.0000000E+00;  4.0000000E+04; -2.9290379E-03;  0.0000000E+00; -6.9618924E-04;  1.9134493E+03;
 -2.0000000E-02;  9.9999998E-03; -3.0000001E-01;1651;  0.0000000E+00;  0.0000000E+00;  0.0000000E+00;  1.0034838E+03;  1.0000000E-01;  2.8862393E+03;0;  0.0000000E+00;  0.0000000E+00;  0.0000000E+00;0; -4.2503062E-03;  4.0000000E+04;  0.0000000E+00;  0.0000000E+00;  4.0000000E+04;  0.0000000E+00;  4.0000000E+04; -3.5395448E-03;  0.0000000E+00; -7.1076158E-04;  1.4399194E+03;
 -2.0000000E-02;  9.9999998E-03; -2.8999999E-01;1652;  0.0000000E+00;  0.0000000E+00;  0.0000000E+00;  1.0039827E+03;  1.0000000E-01;  3.2996597E+03;0;  0.0000000E+00;  0.0000000E+00;  0.0000000E+00;0; -4.8578782E-03;  4.0000000E+04;  0.0000000E+00;  0.0000000E+00;  4.0000000E+04;  0.0000000E+00;  4.0000000E+04; -4.1729263E-03;  0.0000000E+00; -6.8495184E-04;  7.8847192E+02;
 -2.0000000E-02;  9.9999998E-03; -2.8000000E-01;1653;  0.0000000E+00;  0.0000000E+00;  0.0000000E+00;  1.0044631E+03;  1.0000000E-01;  3.6975745E+03;0;  0.0000000E+00;  0.0000000E+00;  0.0000000E+00;0; -5.4342737E-03;  4.0000000E+04;  0.0000000E+00;  0.0000000E+00;  4.0000000E+04;  0.0000000E+00;  4.0000000E+04; -4.8154672E-03;  0.0000000E+00; -6.1880652E-04;  3.5254181E+02;
 -9.9999998E-03;  9.9999998E-03; -4.4000000E-01;1728;  0.0000000E+00;  0.0000000E+00;  0.0000000E+00;  1.0000000E+03;  1.0000000E-01;  0.0000000E+00;0;  0.0000000E+00;  0.0000000E+00;  0.0000000E+00;0; -9.7422399E-06;  4.0000000E+04;  0.0000000E+00;  0.0000000E+00;  4.0000000E+04;  0.0000000E+00;  4.0000000E+04; -4.1119451E-06;  0.0000000E+00; -5.6302952E-06;  3.8625984E+01;
 -9.9999998E-03;  9.9999998E-03; -4.3000001E-01;1729;  0.0000000E+00;  0.0000000E+00;  0.0000000E+00;  1.0000000E+03;  1.0000000E-01;  0.0000000E+00;0;  0.0000000E+00;  0.0000000E+00;  0.0000000E+00;0; -3.0210156E-05;  4.0000000E+04;  0.0000000E+00;  0.0000000E+00;  4.0000000E+04;  0.0000000E+00;  4.0000000E+04; -1.3834835E-05;  0.0000000E+00; -1.6375321E-05;  1.1344600E+02;
 -9.9999998E-03;  9.9999998E-03; -4.1999999E-01;1730;  0.0000000E+00;  0.0000000E+00;  0.0000000E+00;  1.0000550E+03;  1.0000000E-01;  4.5529575E+01;0;  0.0000000E+00;  0.0000000E+00;  0.0000000E+00;0; -7.1246483E-05;  4.0000000E+04;  0.0000000E+00;  0.0000000E+00;  4.0000000E+04;  0.0000000E+00;  4.0000000E+04; -3.5124165E-05;  0.0000000E+00; -3.6122314E-05;  2.4949687E+02;
 -9.9999998E-03;  9.9999998E-03; -4.1000000E-01;1731;  0.0000000E+00;  0.0000000E+00;  0.0000000E+00;  1.0001279E+03;  1.0000000E-01;  1.0597231E+02;0;  0.0000000E+00;  0.0000000E+00;  0.0000000E+00;0; -1.4129216E-04;  4.0000000E+04;  0.0000000E+00;  0.0000000E+00;  4.0000000E+04;  0.0000000E+00;  4.0000000E+04; -7.4745309E-05;  0.0000000E+00; -6.6546847E-05;  4.5136087E+02;
 -9.9999998E-03;  9.9999998E-03; -4.0000001E-01;1732;  0.0000000E+00;  0.0000000E+00;  0.0000000E+00;  1.0002291E+03;  1.0000000E-01;  1.8982179E+02;0;  0.0000000E+00;  0.0000000E+00;  0.0000000E+00;0; -2.4932361E-04;  4.0000000E+04;  0.0000000E+00;  0.0000000E+00;  4.0000000E+04;  0.0000000E+00;  4.0000000E+04; -1.4100136E-04;  0.0000000E+00; -1.0832224E-04;  7.1072406E+02;
 -9.9999998E-03;  9.9999998E-03; -3.8999999E-01;1733;  0.0000000E+00;  0.0000000E+00;  0.0000000E+00;  1.0003712E+03;  1.0000000E-01;  3.0754684E+02;0;  0.0000000E+00;  0.0000000E+00;  0.0000000E+00;0; -4.0529907E-04;  4.0000000E+04;  0.0000000E+00;  0.0000000E+00;  4.0000000E+04;  0.0000000E+00;  4.0000000E+04; -2.4373281E-04;  0.0000000E+00; -1.6156626E-04;  1.0116791E+03;
 -9.9999998E-03;  9.9999998E-03; -3.8000000E-01;1734;  0.0000000E+00;  0.0000000E+00;  0.0000000E+00;  1.0005729E+03;  1.0000000E-01;  4.7465323E+02;0;  0.0000000E+00;  0.0000000E+00;  0.0000000E+00;0; -6.2035036E-04;  4.0000000E+04;  0.0000000E+00;  0.0000000E+00;  4.0000000E+04;  0.0000000E+00;  4.0000000E+04; -3.9419151E-04;  0.0000000E+00; -2.2615888E-04;  1.3357004E+03;
 -9.9999998E-03;  9.9999998E-03; -3.7000000E-01;1735;  0.0000000E+00;  0.0000000E+00;  0.0000000E+00;  1.0008369E+03;  1.0000000E-01;  6.9331372E+02;0;  0.0000000E+00;  0.0000000E+00;  0.0000000E+00;0; -9.0633385E-04;  4.0000000E+04;  0.0000000E+00;  0.0000000E+00;  4.0000000E+04;  0.0000000E+00;  4.0000000E+04; -6.0461857E-04;  0.0000000E+00; -3.0171528E-04;  1.6634440E+03;
 -9.9999998E-03;  9.9999998E-03; -3.6000001E-01;1736;  0.0000000E+00;  0.0000000E+00;  0.0000000E+00;  1.0011556E+03;  1.0000000E-01;  9.5740503E+02;0;  0.0000000E+00;  0.0000000E+00;  0.0000000E+00;0; -1.2746467E-03;  4.0000000E+04;  0.0000000E+00;  0.0000000E+00;  4.0000000E+04;  0.0000000E+00;  4.0000000E+04; -8.8739133E-04;  0.0000000E+00; -3.8725534E-04;  1.9739011E+03;
 -9.9999998E-03;  9.9999998E-03; -3.4999999E-01;1737;  0.0000000E+00;  0.0000000E+00;  0.0000000E+00;  1.0015683E+03;  1.0000000E-01;  1.2993213E+03;0;  0.0000000E+00;  0.0000000E+00;  0.0000000E+00;0; -1.7343019E-03;  4.0000000E+04;  0.0000000E+00;  0.0000000E+00;  4.0000000E+04;  0.0000000E+00;  4.0000000E+04; -1.2536359E-03;  0.0000000E+00; -4.8066600E-04;  2.2421418E+03;
 -9.9999998E-03;  9.9999998E-03; -3.4000000E-01;1738;  0.0000000E+00;  0.0000000E+00;  0.0000000E+00;  1.0020506E+03;  1.0000000E-01;  1.6989149E+03;0;  0.0000000E+00;  0.0000000E+00;  0.0000000E+00;0; -2.2893688E-03;  4.0000000E+04;  0.0000000E+00;  0.0000000E+00;  4.0000000E+04;  0.0000000E+00;  4.0000000E+04; -1.7113643E-03;  0.0000000E+00; -5.7800463E-04;  2.4366072E+03;
 -9.9999998E-03;  9.9999998E-03; -3.3000001E-01;1739;  0.0000000E+00;  0.0000000E+00;  0.0000000E+00;  1.0025935E+03;  1.0000000E-01;  2.1486799E+03;0;  0.0000000E+00;  0.0000000E+00;  0.0000000E+00;0; -2.9360806E-03;  4.0000000E+04;  0.0000000E+00;  0.0000000E+00;  4.0000000E+04;  0.0000000E+00;  4.0000000E+04; -2.2633560E-03;  0.0000000E+00; -6.7272451E-04;  2.5172175E+03;
 -9.9999998E-03;  9.9999998E-03; -3.1999999E-01;1740;  0.0000000E+00;  0.0000000E+00;  0.0000000E+00;  1.0032010E+03;  1.0000000E-01;  2.6519744E+03;0;  0.0000000E+00;  0.0000000E+00;  0.0000000E+00;0; -3.6601927E-03;  4.0000000E+04;  0.0000000E+00;  0.0000000E+00;  4.0000000E+04;  0.0000000E+00;  4.0000000E+04; -2.9051087E-03;  0.0000000E+00; -7.5508410E-04;  2.4359482E+03;
 -9.9999998E-03;  9.9999998E-03; -3.1000000E-01;1741;  0.0000000E+00;  0.0000000E+00;  0.0000000E+00;  1.0038539E+03;  1.0000000E-01;  3.1928975E+03;0;  0.0000000E+00;  0.0000000E+00;  0.0000000E+00;0; -4.4359011E-03;  4.0000000E+04;  0.0000000E+00;  0.0000000E+00;  4.0000000E+04;  0.0000000E+00;  4.0000000E+04; -3.6235584E-03;  0.0000000E+00; -8.1234257E-04;  2.1437507E+03;
 -9.9999998E-03;  9.9999998E-03; -3.0000001E-01;1742;  0.0000000E+00;  0.0000000E+00;  0.0000000E+00;  1.0045096E+03;  1.0000000E-01;  3.7360918E+03;0;  0.0000000E+00;  0.0000000E+00;  0.0000000E+00;0; -5.2285655E-03;  4.0000000E+04;  0.0000000E+00;  0.0000000E+00;  4.0000000E+04;  0.0000000E+00;  4.0000000E+04; -4.3977685E-03;  0.0000000E+00; -8.3079684E-04;  1.6091290E+03;
 -9.9999998E-03;  9.9999998E-03; -2.8999999E-01;1743;  0.0000000E+00;  0.0000000E+00;  0.0000000E+00;  1.0051600E+03;  1.0000000E-01;  4.2749409E+03;0;  0.0000000E+00;  0.0000000E+00;  0.0000000E+00;0; -6.0041794E-03;  4.0000000E+04;  0.0000000E+00;  0.0000000E+00;  4.0000000E+04;  0.0000000E+00;  4.0000000E+04; -5.2036615E-03;  0.0000000E+00; -8.0051774E-04;  8.5660352E+02;
 -9.9999998E-03;  9.9999998E-03; -2.8000000E-01;1744;  0.0000000E+00;  0.0000000E+00;  0.0000000E+00;  1.0057984E+03;  1.0000000E-01;  4.8039136E+03;0;  0.0000000E+00;  0.0000000E+00;  0.0000000E+00;0; -6.7441370E-03;  4.0000000E+04;  0.0000000E+00;  0.0000000E+00;  4.0000000E+04;  0.0000000E+00;  4.0000000E+04; -6.0217539E-03;  0.0000000E+00; -7.2238309E-04;  3.6606830E+02;
  0.0000000E+00;  9.9999998E-03; -4.4000000E-01;1819;  0.0000000E+00;  0.0000000E+00;  0.0000000E+00;  1.0000000E+03;  1.0000000E-01;  0.0000000E+00;0;  0.0000000E+00;  0.0000000E+00;  0.0000000E+00;0; -1.1722657E-05;  4.0000000E+04;  0.0000000E+00;  0.0000000E+00;  4.0000000E+04;  0.0000000E+00;  4.0000000E+04; -5.2280711E-06;  0.0000000E+00; -6.4945857E-06;  4.7012028E+01;
  0.0000000E+00;  9.9999998E-03; -4.3000001E-01;1820;  0.0000000E+00;  0.0000000E+00;  0.0000000E+00;  1.0000084E+03;  1.0000000E-01;  6.9133849E+00;0;  0.0000000E+00;  0.0000000E+00;  0.0000000E+00;0; -3.5428875E-05;  4.0000000E+04;  0.0000000E+00;  0.0000000E+00;  4.0000000E+04;  0.0000000E+00;  4.0000000E+04; -1.7030514E-05;  0.0000000E+00; -1.8398361E-05;  1.3114127E+02;
  0.0000000E+00;  9.9999998E-03; -4.1999999E-01;1821;  0.0000000E+00;  0.0000000E+00;  0.0000000E+00;  1.0000707E+03;  1.0000000E-01;  5.8566246E+01;0;  0.0000000E+00;  0.0000000E+00;  0.0000000E+00;0; -8.2569546E-05;  4.0000000E+04;  0.0000000E+00;  0.0000000E+00;  4.0000000E+04;  0.0000000E+00;  4.0000000E+04; -4.2307427E-05;  0.0000000E+00; -4.0262115E-05;  2.7979639E+02;
  0.0000000E+00;  9.9999998E-03; -4.1000000E-01;1822;  0.0000000E+00;  0.0000000E+00;  0.0000000E+00;  1.0001492E+03;  1.0000000E-01;  1.2355206E+02;0;  0.0000000E+00;  0.0000000E+00;  0.0000000E+00;0; -1.6280820E-04;  4.0000000E+04;  0.0000000E+00;  0.0000000E+00;  4.0000000E+04;  0.0000000E+00;  4.0000000E+04; -8.8656452E-05;  0.0000000E+00; -7.4151751E-05;  4.9688669E+02;
  0.0000000E+00;  9.9999998E-03; -4.0000001E-01;1823;  0.0000000E+00;  0.0000000E+00;  0.0000000E+00;  1.0002874E+03;  1.0000000E-01;  2.3811673E+02;0;  0.0000000E+00;  0.0000000E+00;  0.0000000E+00;0; -2.8646120E-04;  4.0000000E+04;  0.0000000E+00;  0.0000000E+00;  4.0000000E+04;  0.0000000E+00;  4.0000000E+04; -1.6546623E-04;  0.0000000E+00; -1.2099498E-04;  7.7348999E+02;
  0.0000000E+00;  9.9999998E-03; -3.8999999E-01;1824;  0.0000000E+00;  0.0000000E+00;  0.0000000E+00;  1.0004694E+03;  1.0000000E-01;  3.8892728E+02;0;  0.0000000E+00;  0.0000000E+00;  0.0000000E+00;0; -4.6502391E-04;  4.0000000E+04;  0.0000000E+00;  0.0000000E+00;  4.0000000E+04;  0.0000000E+00;  4.0000000E+04; -2.8405522E-04;  0.0000000E+00; -1.8096868E-04;  1.0929093E+03;
  0.0000000E+00;  9.9999998E-03; -3.8000000E-01;1825;  0.0000000E+00;  0.0000000E+00;  0.0000000E+00;  1.0007152E+03;  1.0000000E-01;  5.9257581E+02;0;  0.0000000E+00;  0.0000000E+00;  0.0000000E+00;0; -7.1150740E-04;  4.0000000E+04;  0.0000000E+00;  0.0000000E+00;  4.0000000E+04;  0.0000000E+00;  4.0000000E+04; -4.5764065E-04;  0.0000000E+00; -2.5386672E-04;  1.4357078E+03;
  0.0000000E+00;  9.9999998E-03; -3.7000000E-01;1826;  0.0000000E+00;  0.0000000E+00;  0.0000000E+00;  1.0010248E+03;  1.0000000E-01;  8.4896362E+02;0;  0.0000000E+00;  0.0000000E+00;  0.0000000E+00;0; -1.0400733E-03;  4.0000000E+04;  0.0000000E+00;  0.0000000E+00;  4.0000000E+04;  0.0000000E+00;  4.0000000E+04; -7.0093287E-04;  0.0000000E+00; -3.3914050E-04;  1.7816963E+03;
  0.0000000E+00;  9.9999998E-03; -3.6000001E-01;1827;  0.0000000E+00;  0.0000000E+00;  0.0000000E+00;  1.0014300E+03;  1.0000000E-01;  1.1847566E+03;0;  0.0000000E+00;  0.0000000E+00;  0.0000000E+00;0; -1.4648060E-03;  4.0000000E+04;  0.0000000E+00;  0.0000000E+00;  4.0000000E+04;  0.0000000E+00;  4.0000000E+04; -1.0292066E-03;  0.0000000E+00; -4.3559945E-04;  2.1092490E+03;
  0.0000000E+00;  9.9999998E-03; -3.4999999E-01;1828;  0.0000000E+00;  0.0000000E+00;  0.0000000E+00;  1.0019120E+03;  1.0000000E-01;  1.5840540E+03;0;  0.0000000E+00;  0.0000000E+00;  0.0000000E+00;0; -1.9975796E-03;  4.0000000E+04;  0.0000000E+00;  0.0000000E+00;  4.0000000E+04;  0.0000000E+00;  4.0000000E+04; -1.4567286E-03;  0.0000000E+00; -5.4085109E-04;  2.3930437E+03;
  0.0000000E+00;  9.9999998E-03; -3.4000000E-01;1829;  0.0000000E+00;  0.0000000E+00;  0.0000000E+00;  1.0025000E+03;  1.0000000E-01;  2.0712500E+03;0;  0.0000000E+00;  0.0000000E+00;  0.0000000E+00;0; -2.6451340E-03;  4.0000000E+04;  0.0000000E+00;  0.0000000E+00;  4.0000000E+04;  0.0000000E+00;  4.0000000E+04; -1.9945872E-03;  0.0000000E+00; -6.5054686E-04;  2.6008477E+03;
  0.0000000E+00;  9.9999998E-03; -3.3000001E-01;1830;  0.0000000E+00;  0.0000000E+00;  0.0000000E+00;  1.0031740E+03;  1.0000000E-01;  2.6296541E+03;0;  0.0000000E+00;  0.0000000E+00;  0.0000000E+00;0; -3.4056269E-03;  4.0000000E+04;  0.0000000E+00;  0.0000000E+00;  4.0000000E+04;  0.0000000E+00;  4.0000000E+04; -2.6481238E-03;  0.0000000E+00; -7.5750315E-04;  2.6908650E+03;
  0.0000000E+00;  9.9999998E-03; -3.1999999E-01;1831;  0.0000000E+00;  0.0000000E+00;  0.0000000E+00;  1.0039325E+03;  1.0000000E-01;  3.2579819E+03;0;  0.0000000E+00;  0.0000000E+00;  0.0000000E+00;0; -4.2652106E-03;  4.0000000E+04;  0.0000000E+00;  0.0000000E+00;  4.0000000E+04;  0.0000000E+00;  4.0000000E+04; -3.4142693E-03;  0.0000000E+00; -8.5094152E-04;  2.6105325E+03;
  0.0000000E+00;  9.9999998E-03; -3.1000000E-01;1832;  0.0000000E+00;  0.0000000E+00;  0.0000000E+00;  1.0047529E+03;  1.0000000E-01;  3.9376665E+03;0;  0.0000000E+00;  0.0000000E+00;  0.0000000E+00;0; -5.1957788E-03;  4.0000000E+04;  0.0000000E+00;  0.0000000E+00;  4.0000000E+04;  0.0000000E+00;  4.0000000E+04; -4.2794202E-03;  0.0000000E+00; -9.1635872E-04;  2.3012524E+03;
  0.0000000E+00;  9.9999998E-03; -3.0000001E-01;1833;  0.0000000E+00;  0.0000000E+00;  0.0000000E+00;  1.0055903E+03;  1.0000000E-01;  4.6314741E+03;0;  0.0000000E+00;  0.0000000E+00;  0.0000000E+00;0; -6.1561312E-03;  4.0000000E+04;  0.0000000E+00;  0.0000000E+00;  4.0000000E+04;  0.0000000E+00;  4.0000000E+04; -5.2187135E-03;  0.0000000E+00; -9.3741773E-04;  1.7175398E+03;
  9.9999998E-03;  9.9999998E-03; -4.4000000E-01;1851;  0.0000000E+00;  0.0000000E+00;  0.0000000E+00;  1.0000000E+03;  1.0000000E-01;  0.0000000E+00;0;  0.0000000E+00;  0.0000000E+00;  0.0000000E+00;0; -1.3029599E-05;  4.0000000E+04;  0.0000000E+00;  0.0000000E+00;  4.0000000E+04;  0.0000000E+00;  4.0000000E+04; -6.1183191E-06;  0.0000000E+00; -6.9112807E-06;  5.1362366E+01;
  9.9999998E-03;  9.9999998E-03; -4.3000001E-01;1852;  0.0000000E+00;  0.0000000E+00;  0.0000000E+00;  1.0000317E+03;  1.0000000E-01;  2.6270863E+01;0;  0.0000000E+00;  0.0000000E+00;  0.0000000E+00;0; -3.9086015E-05;  4.0000000E+04;  0.0000000E+00;  0.0000000E+00;  4.0000000E+04;  0.0000000E+00;  4.0000000E+04; -1.9506771E-05;  0.0000000E+00; -1.9579244E-05;  1.3853410E+02;
  9.9999998E-03;  9.9999998E-03; -4.1999999E-01;1853;  0.0000000E+00;  0.0000000E+00;  0.0000000E+00;  1.0000889E+03;  1.0000000E-01;  7.3676926E+01;0;  0.0000000E+00;  0.0000000E+00;  0.0000000E+00;0; -9.0888039E-05;  4.0000000E+04;  0.0000000E+00;  0.0000000E+00;  4.0000000E+04;  0.0000000E+00;  4.0000000E+04; -4.7706133E-05;  0.0000000E+00; -4.3181906E-05;  2.9080435E+02;
  9.9999998E-03;  9.9999998E-03; -4.1000000E-01;1854;  0.0000000E+00;  0.0000000E+00;  0.0000000E+00;  1.0001854E+03;  1.0000000E-01;  1.5357590E+02;0;  0.0000000E+00;  0.0000000E+00;  0.0000000E+00;0; -1.7910376E-04;  4.0000000E+04;  0.0000000E+00;  0.0000000E+00;  4.0000000E+04;  0.0000000E+00;  4.0000000E+04; -9.8884069E-05;  0.0000000E+00; -8.0219696E-05;  5.1310400E+02;
  9.9999998E-03;  9.9999998E-03; -4.0000001E-01;1855;  0.0000000E+00;  0.0000000E+00;  0.0000000E+00;  1.0003432E+03;  1.0000000E-01;  2.8433765E+02;0;  0.0000000E+00;  0.0000000E+00;  0.0000000E+00;0; -3.1509646E-04;  4.0000000E+04;  0.0000000E+00;  0.0000000E+00;  4.0000000E+04;  0.0000000E+00;  4.0000000E+04; -1.8329352E-04;  0.0000000E+00; -1.3180295E-04;  7.9722729E+02;
  9.9999998E-03;  9.9999998E-03; -3.8999999E-01;1856;  0.0000000E+00;  0.0000000E+00;  0.0000000E+00;  1.0005603E+03;  1.0000000E-01;  4.6418442E+02;0;  0.0000000E+00;  0.0000000E+00;  0.0000000E+00;0; -5.1158335E-04;  4.0000000E+04;  0.0000000E+00;  0.0000000E+00;  4.0000000E+04;  0.0000000E+00;  4.0000000E+04; -3.1354616E-04;  0.0000000E+00; -1.9803720E-04;  1.1261008E+03;
  9.9999998E-03;  9.9999998E-03; -3.8000000E-01;1857;  0.0000000E+00;  0.0000000E+00;  0.0000000E+00;  1.0008411E+03;  1.0000000E-01;  6.9677045E+02;0;  0.0000000E+00;  0.0000000E+00;  0.0000000E+00;0; -7.8316021E-04;  4.0000000E+04;  0.0000000E+00;  0.0000000E+00;  4.0000000E+04;  0.0000000E+00;  4.0000000E+04; -5.0464820E-04;  0.0000000E+00; -2.7851199E-04;  1.4789989E+03;
  9.9999998E-03;  9.9999998E-03; -3.7000000E-01;1858;  0.0000000E+00;  0.0000000E+00;  0.0000000E+00;  1.0012023E+03;  1.0000000E-01;  9.9602124E+02;0;  0.0000000E+00;  0.0000000E+00;  0.0000000E+00;0; -1.1460159E-03;  4.0000000E+04;  0.0000000E+00;  0.0000000E+00;  4.0000000E+04;  0.0000000E+00;  4.0000000E+04; -7.7359582E-04;  0.0000000E+00; -3.7242015E-04;  1.8343029E+03;
  9.9999998E-03;  9.9999998E-03; -3.6000001E-01;1859;  0.0000000E+00;  0.0000000E+00;  0.0000000E+00;  1.0016791E+03;  1.0000000E-01;  1.3910718E+03;0;  0.0000000E+00;  0.0000000E+00;  0.0000000E+00;0; -1.6166443E-03;  4.0000000E+04;  0.0000000E+00;  0.0000000E+00;  4.0000000E+04;  0.0000000E+00;  4.0000000E+04; -1.1383714E-03;  0.0000000E+00; -4.7827291E-04;  2.1693821E+03;
  9.9999998E-03;  9.9999998E-03; -3.4999999E-01;1860;  0.0000000E+00;  0.0000000E+00;  0.0000000E+00;  1.0022439E+03;  1.0000000E-01;  1.8590092E+03;0;  0.0000000E+00;  0.0000000E+00;  0.0000000E+00;0; -2.2095386E-03;  4.0000000E+04;  0.0000000E+00;  0.0000000E+00;  4.0000000E+04;  0.0000000E+00;  4.0000000E+04; -1.6162366E-03;  0.0000000E+00; -5.9330190E-04;  2.4584780E+03;
  9.9999998E-03;  9.9999998E-03; -3.4000000E-01;1861;  0.0000000E+00;  0.0000000E+00;  0.0000000E+00;  1.0029363E+03;  1.0000000E-01;  2.4327214E+03;0;  0.0000000E+00;  0.0000000E+00;  0.0000000E+00;0; -2.9339786E-03;  4.0000000E+04;  0.0000000E+00;  0.0000000E+00;  4.0000000E+04;  0.0000000E+00;  4.0000000E+04; -2.2213252E-03;  0.0000000E+00; -7.1265327E-04;  2.6694124E+03;
  9.9999998E-03;  9.9999998E-03; -3.3000001E-01;1862;  0.0000000E+00;  0.0000000E+00;  0.0000000E+00;  1.0037455E+03;  1.0000000E-01;  3.1031221E+03;0;  0.0000000E+00;  0.0000000E+00;  0.0000000E+00;0; -3.7901425E-03;  4.0000000E+04;  0.0000000E+00;  0.0000000E+00;  4.0000000E+04;  0.0000000E+00;  4.0000000E+04; -2.9616682E-03;  0.0000000E+00; -8.2847435E-04;  2.7601975E+03;
  9.9999998E-03;  9.9999998E-03; -3.1999999E-01;1863;  0.0000000E+00;  0.0000000E+00;  0.0000000E+00;  1.0046457E+03;  1.0000000E-01;  3.8488789E+03;0;  0.0000000E+00;  0.0000000E+00;  0.0000000E+00;0; -4.7651320E-03;  4.0000000E+04;  0.0000000E+00;  0.0000000E+00;  4.0000000E+04;  0.0000000E+00;  4.0000000E+04; -3.8360206E-03;  0.0000000E+00; -9.2911121E-04;  2.6765730E+03;
  9.9999998E-03;  9.9999998E-03; -3.1000000E-01;1864;  0.0000000E+00;  0.0000000E+00;  0.0000000E+00;  1.0056309E+03;  1.0000000E-01;  4.6651519E+03;0;  0.0000000E+00;  0.0000000E+00;  0.0000000E+00;0; -5.8298055E-03;  4.0000000E+04;  0.0000000E+00;  0.0000000E+00;  4.0000000E+04;  0.0000000E+00;  4.0000000E+04; -4.8309988E-03;  0.0000000E+00; -9.9880644E-04;  2.3539062E+03;
  2.0000000E-02;  9.9999998E-03; -4.4000000E-01;1881;  0.0000000E+00;  0.0000000E+00;  0.0000000E+00;  1.0000000E+03;  1.0000000E-01;  0.0000000E+00;0;  0.0000000E+00;  0.0000000E+00;  0.0000000E+00;0; -1.3527258E-05;  4.0000000E+04;  0.0000000E+00;  0.0000000E+00;  4.0000000E+04;  0.0000000E+00;  4.0000000E+04; -6.6014304E-06;  0.0000000E+00; -6.9258281E-06;  4.9994419E+01;
  2.0000000E-02;  9.9999998E-03; -4.3000001E-01;1882;  0.0000000E+00;  0.0000000E+00;  0.0000000E+00;  1.0000461E+03;  1.0000000E-01;  3.8221142E+01;0;  0.0000000E+00;  0.0000000E+00;  0.0000000E+00;0; -4.0864812E-05;  4.0000000E+04;  0.0000000E+00;  0.0000000E+00;  4.0000000E+04;  0.0000000E+00;  4.0000000E+04; -2.0757487E-05;  0.0000000E+00; -2.0107327E-05;  1.3311763E+02;
  2.0000000E-02;  9.9999998E-03; -4.1999999E-01;1883;  0.0000000E+00;  0.0000000E+00;  0.0000000E+00;  1.0001116E+03;  1.0000000E-01;  9.2441833E+01;0;  0.0000000E+00;  0.0000000E+00;  0.0000000E+00;0; -9.5487252E-05;  4.0000000E+04;  0.0000000E+00;  0.0000000E+00;  4.0000000E+04;  0.0000000E+00;  4.0000000E+04; -5.0258186E-05;  0.0000000E+00; -4.5229070E-05;  2.8047006E+02;
  2.0000000E-02;  9.9999998E-03; -4.1000000E-01;1884;  0.0000000E+00;  0.0000000E+00;  0.0000000E+00;  1.0002181E+03;  1.0000000E-01;  1.8063687E+02;0;  0.0000000E+00;  0.0000000E+00;  0.0000000E+00;0; -1.8873089E-04;  4.0000000E+04;  0.0000000E+00;  0.0000000E+00;  4.0000000E+04;  0.0000000E+00;  4.0000000E+04; -1.0357548E-04;  0.0000000E+00; -8.5155421E-05;  4.9995386E+02;
  2.0000000E-02;  9.9999998E-03; -4.0000001E-01;1885;  0.0000000E+00;  0.0000000E+00;  0.0000000E+00;  1.0004037E+03;  1.0000000E-01;  3.3450906E+02;0;  0.0000000E+00;  0.0000000E+00;  0.0000000E+00;0; -3.3263821E-04;  4.0000000E+04;  0.0000000E+00;  0.0000000E+00;  4.0000000E+04;  0.0000000E+00;  4.0000000E+04; -1.9159129E-04;  0.0000000E+00; -1.4104694E-04;  7.8495813E+02;
  2.0000000E-02;  9.9999998E-03; -3.8999999E-01;1886;  0.0000000E+00;  0.0000000E+00;  0.0000000E+00;  1.0006484E+03;  1.0000000E-01;  5.3716998E+02;0;  0.0000000E+00;  0.0000000E+00;  0.0000000E+00;0; -5.4080604E-04;  4.0000000E+04;  0.0000000E+00;  0.0000000E+00;  4.0000000E+04;  0.0000000E+00;  4.0000000E+04; -3.2795739E-04;  0.0000000E+00; -2.1284864E-04;  1.1176152E+03;
  2.0000000E-02;  9.9999998E-03; -3.8000000E-01;1887;  0.0000000E+00;  0.0000000E+00;  0.0000000E+00;  1.0009561E+03;  1.0000000E-01;  7.9207635E+02;0;  0.0000000E+00;  0.0000000E+00;  0.0000000E+00;0; -8.2904682E-04;  4.0000000E+04;  0.0000000E+00;  0.0000000E+00;  4.0000000E+04;  0.0000000E+00;  4.0000000E+04; -5.2914221E-04;  0.0000000E+00; -2.9990464E-04;  1.4748414E+03;
  2.0000000E-02;  9.9999998E-03; -3.7000000E-01;1888;  0.0000000E+00;  0.0000000E+00;  0.0000000E+00;  1.0013685E+03;  1.0000000E-01;  1.1337950E+03;0;  0.0000000E+00;  0.0000000E+00;  0.0000000E+00;0; -1.2151294E-03;  4.0000000E+04;  0.0000000E+00;  0.0000000E+00;  4.0000000E+04;  0.0000000E+00;  4.0000000E+04; -8.1402366E-04;  0.0000000E+00; -4.0110573E-04;  1.8324862E+03;
  2.0000000E-02;  9.9999998E-03; -3.6000001E-01;1889;  0.0000000E+00;  0.0000000E+00;  0.0000000E+00;  1.0018912E+03;  1.0000000E-01;  1.5668693E+03;0;  0.0000000E+00;  0.0000000E+00;  0.0000000E+00;0; -1.7174161E-03;  4.0000000E+04;  0.0000000E+00;  0.0000000E+00;  4.0000000E+04;  0.0000000E+00;  4.0000000E+04; -1.2028562E-03;  0.0000000E+00; -5.1455991E-04;  2.1659785E+03;
  2.0000000E-02;  9.9999998E-03; -3.4999999E-01;1890;  0.0000000E+00;  0.0000000E+00;  0.0000000E+00;  1.0025400E+03;  1.0000000E-01;  2.1043354E+03;0;  0.0000000E+00;  0.0000000E+00;  0.0000000E+00;0; -2.3524268E-03;  4.0000000E+04;  0.0000000E+00;  0.0000000E+00;  4.0000000E+04;  0.0000000E+00;  4.0000000E+04; -1.7154516E-03;  0.0000000E+00; -6.3697516E-04;  2.4487258E+03;
  2.0000000E-02;  9.9999998E-03; -3.4000000E-01;1891;  0.0000000E+00;  0.0000000E+00;  0.0000000E+00;  1.0033237E+03;  1.0000000E-01;  2.7536011E+03;0;  0.0000000E+00;  0.0000000E+00;  0.0000000E+00;0; -3.1313824E-03;  4.0000000E+04;  0.0000000E+00;  0.0000000E+00;  4.0000000E+04;  0.0000000E+00;  4.0000000E+04; -2.3685498E-03;  0.0000000E+00; -7.6283253E-04;  2.6488350E+03;
  2.0000000E-02;  9.9999998E-03; -3.3000001E-01;1892;  0.0000000E+00;  0.0000000E+00;  0.0000000E+00;  1.0042377E+03;  1.0000000E-01;  3.5109131E+03;0;  0.0000000E+00;  0.0000000E+00;  0.0000000E+00;0; -4.0560719E-03;  4.0000000E+04;  0.0000000E+00;  0.0000000E+00;  4.0000000E+04;  0.0000000E+00;  4.0000000E+04; -3.1725692E-03;  0.0000000E+00; -8.8350289E-04;  2.7254253E+03;
  2.0000000E-02;  9.9999998E-03; -3.1999999E-01;1893;  0.0000000E+00;  0.0000000E+00;  0.0000000E+00;  1.0052770E+03;  1.0000000E-01;  4.3718271E+03;0;  0.0000000E+00;  0.0000000E+00;  0.0000000E+00;0; -5.1144874E-03;  4.0000000E+04;  0.0000000E+00;  0.0000000E+00;  4.0000000E+04;  0.0000000E+00;  4.0000000E+04; -4.1279597E-03;  0.0000000E+00; -9.8652754E-04;  2.6254641E+03;
  2.0000000E-02;  9.9999998E-03; -3.1000000E-01;1894;  0.0000000E+00;  0.0000000E+00;  0.0000000E+00;  1.0063930E+03;  1.0000000E-01;  5.2964429E+03;0;  0.0000000E+00;  0.0000000E+00;  0.0000000E+00;0; -6.2774196E-03;  4.0000000E+04;  0.0000000E+00;  0.0000000E+00;  4.0000000E+04;  0.0000000E+00;  4.0000000E+04; -5.2218554E-03;  0.0000000E+00; -1.0555643E-03;  2.2846174E+03;
  2.9999999E-02;  9.9999998E-03; -4.4000000E-01;1911;  0.0000000E+00;  0.0000000E+00;  0.0000000E+00;  1.0000000E+03;  1.0000000E-01;  0.0000000E+00;0;  0.0000000E+00;  0.0000000E+00;  0.0000000E+00;0; -1.3268213E-05;  4.0000000E+04;  0.0000000E+00;  0.0000000E+00;  4.0000000E+04;  0.0000000E+00;  4.0000000E+04; -6.5341651E-06;  0.0000000E+00; -6.7340475E-06;  4.2356030E+01;
  2.9999999E-02;  9.9999998E-03; -4.3000001E-01;1912;  0.0000000E+00;  0.0000000E+00;  0.0000000E+00;  1.0000506E+03;  1.0000000E-01;  4.1875359E+01;0;  0.0000000E+00;  0.0000000E+00;  0.0000000E+00;0; -4.0773361E-05;  4.0000000E+04;  0.0000000E+00;  0.0000000E+00;  4.0000000E+04;  0.0000000E+00;  4.0000000E+04; -2.0399893E-05;  0.0000000E+00; -2.0373467E-05;  1.1552660E+02;
  2.9999999E-02;  9.9999998E-03; -4.1999999E-01;1913;  0.0000000E+00;  0.0000000E+00;  0.0000000E+00;  1.0001301E+03;  1.0000000E-01;  1.0775004E+02;0;  0.0000000E+00;  0.0000000E+00;  0.0000000E+00;0; -9.6157193E-05;  4.0000000E+04;  0.0000000E+00;  0.0000000E+00;  4.0000000E+04;  0.0000000E+00;  4.0000000E+04; -4.9242848E-05;  0.0000000E+00; -4.6914342E-05;  2.5267638E+02;
  2.9999999E-02;  9.9999998E-03; -4.1000000E-01;1914;  0.0000000E+00;  0.0000000E+00;  0.0000000E+00;  1.0002547E+03;  1.0000000E-01;  2.1105576E+02;0;  0.0000000E+00;  0.0000000E+00;  0.0000000E+00;0; -1.9103829E-04;  4.0000000E+04;  0.0000000E+00;  0.0000000E+00;  4.0000000E+04;  0.0000000E+00;  4.0000000E+04; -1.0161054E-04;  0.0000000E+00; -8.9427747E-05;  4.6622632E+02;
  2.9999999E-02;  9.9999998E-03; -4.0000001E-01;1915;  0.0000000E+00;  0.0000000E+00;  0.0000000E+00;  1.0004472E+03;  1.0000000E-01;  3.7045865E+02;0;  0.0000000E+00;  0.0000000E+00;  0.0000000E+00;0; -3.3782306E-04;  4.0000000E+04;  0.0000000E+00;  0.0000000E+00;  4.0000000E+04;  0.0000000E+00;  4.0000000E+04; -1.8876944E-04;  0.0000000E+00; -1.4905361E-04;  7.5106189E+02;
  2.9999999E-02;  9.9999998E-03; -3.8999999E-01;1916;  0.0000000E+00;  0.0000000E+00;  0.0000000E+00;  1.0007143E+03;  1.0000000E-01;  5.9178571E+02;0;  0.0000000E+00;  0.0000000E+00;  0.0000000E+00;0; -5.5067858E-04;  4.0000000E+04;  0.0000000E+00;  0.0000000E+00;  4.0000000E+04;  0.0000000E+00;  4.0000000E+04; -3.2506161E-04;  0.0000000E+00; -2.2561695E-04;  1.0871879E+03;
  2.9999999E-02;  9.9999998E-03; -3.8000000E-01;1917;  0.0000000E+00;  0.0000000E+00;  0.0000000E+00;  1.0010479E+03;  1.0000000E-01;  8.6822235E+02;0;  0.0000000E+00;  0.0000000E+00;  0.0000000E+00;0; -8.4621634E-04;  4.0000000E+04;  0.0000000E+00;  0.0000000E+00;  4.0000000E+04;  0.0000000E+00;  4.0000000E+04; -5.2798417E-04;  0.0000000E+00; -3.1823220E-04;  1.4476069E+03;
  2.9999999E-02;  9.9999998E-03; -3.7000000E-01;1918;  0.0000000E+00;  0.0000000E+00;  0.0000000E+00;  1.0014992E+03;  1.0000000E-01;  1.2420389E+03;0;  0.0000000E+00;  0.0000000E+00;  0.0000000E+00;0; -1.2432178E-03;  4.0000000E+04;  0.0000000E+00;  0.0000000E+00;  4.0000000E+04;  0.0000000E+00;  4.0000000E+04; -8.1778289E-04;  0.0000000E+00; -4.2543493E-04;  1.8042126E+03;
  2.9999999E-02;  9.9999998E-03; -3.6000001E-01;1919;  0.0000000E+00;  0.0000000E+00;  0.0000000E+00;  1.0020579E+03;  1.0000000E-01;  1.7049395E+03;0;  0.0000000E+00;  0.0000000E+00;  0.0000000E+00;0; -1.7612404E-03;  4.0000000E+04;  0.0000000E+00;  0.0000000E+00;  4.0000000E+04;  0.0000000E+00;  4.0000000E+04; -1.2163934E-03;  0.0000000E+00; -5.4484699E-04;  2.1295417E+03;
  2.9999999E-02;  9.9999998E-03; -3.4999999E-01;1920;  0.0000000E+00;  0.0000000E+00;  0.0000000E+00;  1.0027693E+03;  1.0000000E-01;  2.2943550E+03;0;  0.0000000E+00;  0.0000000E+00;  0.0000000E+00;0; -2.4180440E-03;  4.0000000E+04;  0.0000000E+00;  0.0000000E+00;  4.0000000E+04;  0.0000000E+00;  4.0000000E+04; -1.7455118E-03;  0.0000000E+00; -6.7253225E-04;  2.3954475E+03;
  2.9999999E-02;  9.9999998E-03; -3.4000000E-01;1921;  0.0000000E+00;  0.0000000E+00;  0.0000000E+00;  1.0036257E+03;  1.0000000E-01;  3.0038657E+03;0;  0.0000000E+00;  0.0000000E+00;  0.0000000E+00;0; -3.2259817E-03;  4.0000000E+04;  0.0000000E+00;  0.0000000E+00;  4.0000000E+04;  0.0000000E+00;  4.0000000E+04; -2.4237859E-03;  0.0000000E+00; -8.0219592E-04;  2.5703040E+03;
  2.9999999E-02;  9.9999998E-03; -3.3000001E-01;1922;  0.0000000E+00;  0.0000000E+00;  0.0000000E+00;  1.0046327E+03;  1.0000000E-01;  3.8381138E+03;0;  0.0000000E+00;  0.0000000E+00;  0.0000000E+00;0; -4.1877246E-03;  4.0000000E+04;  0.0000000E+00;  0.0000000E+00;  4.0000000E+04;  0.0000000E+00;  4.0000000E+04; -3.2633396E-03;  0.0000000E+00; -9.2438486E-04;  2.6155513E+03;
  2.9999999E-02;  9.9999998E-03; -3.1999999E-01;1923;  0.0000000E+00;  0.0000000E+00;  0.0000000E+00;  1.0057736E+03;  1.0000000E-01;  4.7832720E+03;0;  0.0000000E+00;  0.0000000E+00;  0.0000000E+00;0; -5.2919467E-03;  4.0000000E+04;  0.0000000E+00;  0.0000000E+00;  4.0000000E+04;  0.0000000E+00;  4.0000000E+04; -4.2659119E-03;  0.0000000E+00; -1.0260347E-03;  2.4832671E+03;
  2.9999999E-02;  9.9999998E-03; -3.1000000E-01;1924;  0.0000000E+00;  0.0000000E+00;  0.0000000E+00;  1.0070006E+03;  1.0000000E-01;  5.7998359E+03;0;  0.0000000E+00;  0.0000000E+00;  0.0000000E+00;0; -6.5103499E-03;  4.0000000E+04;  0.0000000E+00;  0.0000000E+00;  4.0000000E+04;  0.0000000E+00;  4.0000000E+04; -5.4192804E-03;  0.0000000E+00; -1.0910694E-03;  2.1193682E+03;
  3.9999999E-02;  9.9999998E-03; -4.4000000E-01;1941;  0.0000000E+00;  0.0000000E+00;  0.0000000E+00;  1.0000000E+03;  1.0000000E-01;  0.0000000E+00;0;  0.0000000E+00;  0.0000000E+00;  0.0000000E+00;0; -1.2466107E-05;  4.0000000E+04;  0.0000000E+00;  0.0000000E+00;  4.0000000E+04;  0.0000000E+00;  4.0000000E+04; -5.8507671E-06;  0.0000000E+00; -6.6153407E-06;  2.9683062E+01;
  3.9999999E-02;  9.9999998E-03; -4.3000001E-01;1942;  0.0000000E+00;  0.0000000E+00;  0.0000000E+00;  1.0000569E+03;  1.0000000E-01;  4.7109779E+01;0;  0.0000000E+00;  0.0000000E+00;  0.0000000E+00;0; -3.9103430E-05;  4.0000000E+04;  0.0000000E+00;  0.0000000E+00;  4.0000000E+04;  0.0000000E+00;  4.0000000E+04; -1.8303723E-05;  0.0000000E+00; -2.0799707E-05;  9.0468552E+01;
  3.9999999E-02;  9.9999998E-03; -4.1999999E-01;1943;  0.0000000E+00;  0.0000000E+00;  0.0000000E+00;  1.0001376E+03;  1.0000000E-01;  1.1407085E+02;0;  0.0000000E+00;  0.0000000E+00;  0.0000000E+00;0; -9.3181698E-05;  4.0000000E+04;  0.0000000E+00;  0.0000000E+00;  4.0000000E+04;  0.0000000E+00;  4.0000000E+04; -4.4530105E-05;  0.0000000E+00; -4.8651593E-05;  2.1792081E+02;
  3.9999999E-02;  9.9999998E-03; -4.1000000E-01;1944;  0.0000000E+00;  0.0000000E+00;  0.0000000E+00;  1.0002783E+03;  1.0000000E-01;  2.3061076E+02;0;  0.0000000E+00;  0.0000000E+00;  0.0000000E+00;0; -1.8630753E-04;  4.0000000E+04;  0.0000000E+00;  0.0000000E+00;  4.0000000E+04;  0.0000000E+00;  4.0000000E+04; -9.2960800E-05;  0.0000000E+00; -9.3346724E-05;  4.2947552E+02;
  3.9999999E-02;  9.9999998E-03; -4.0000001E-01;1945;  0.0000000E+00;  0.0000000E+00;  0.0000000E+00;  1.0004854E+03;  1.0000000E-01;  4.0216147E+02;0;  0.0000000E+00;  0.0000000E+00;  0.0000000E+00;0; -3.3105101E-04;  4.0000000E+04;  0.0000000E+00;  0.0000000E+00;  4.0000000E+04;  0.0000000E+00;  4.0000000E+04; -1.7495587E-04;  0.0000000E+00; -1.5609515E-04;  7.2005725E+02;
  3.9999999E-02;  9.9999998E-03; -3.8999999E-01;1946;  0.0000000E+00;  0.0000000E+00;  0.0000000E+00;  1.0007555E+03;  1.0000000E-01;  6.2595758E+02;0;  0.0000000E+00;  0.0000000E+00;  0.0000000E+00;0; -5.4186216E-04;  4.0000000E+04;  0.0000000E+00;  0.0000000E+00;  4.0000000E+04;  0.0000000E+00;  4.0000000E+04; -3.0519930E-04;  0.0000000E+00; -2.3666286E-04;  1.0656036E+03;
  3.9999999E-02;  9.9999998E-03; -3.8000000E-01;1947;  0.0000000E+00;  0.0000000E+00;  0.0000000E+00;  1.0011100E+03;  1.0000000E-01;  9.1957892E+02;0;  0.0000000E+00;  0.0000000E+00;  0.0000000E+00;0; -8.3574979E-04;  4.0000000E+04;  0.0000000E+00;  0.0000000E+00;  4.0000000E+04;  0.0000000E+00;  4.0000000E+04; -5.0179882E-04;  0.0000000E+00; -3.3395100E-04;  1.4337021E+03;
  3.9999999E-02;  9.9999998E-03; -3.7000000E-01;1948;  0.0000000E+00;  0.0000000E+00;  0.0000000E+00;  1.0015800E+03;  1.0000000E-01;  1.3090000E+03;0;  0.0000000E+00;  0.0000000E+00;  0.0000000E+00;0; -1.2319929E-03;  4.0000000E+04;  0.0000000E+00;  0.0000000E+00;  4.0000000E+04;  0.0000000E+00;  4.0000000E+04; -7.8587612E-04;  0.0000000E+00; -4.4611673E-04;  1.7912020E+03;
  3.9999999E-02;  9.9999998E-03; -3.6000001E-01;1949;  0.0000000E+00;  0.0000000E+00;  0.0000000E+00;  1.0021912E+03;  1.0000000E-01;  1.8153561E+03;0;  0.0000000E+00;  0.0000000E+00;  0.0000000E+00;0; -1.7506515E-03;  4.0000000E+04;  0.0000000E+00;  0.0000000E+00;  4.0000000E+04;  0.0000000E+00;  4.0000000E+04; -1.1804019E-03;  0.0000000E+00; -5.7024957E-04;  2.1066704E+03;
  3.9999999E-02;  9.9999998E-03; -3.4999999E-01;1950;  0.0000000E+00;  0.0000000E+00;  0.0000000E+00;  1.0029375E+03;  1.0000000E-01;  2.4337090E+03;0;  0.0000000E+00;  0.0000000E+00;  0.0000000E+00;0; -2.4099103E-03;  4.0000000E+04;  0.0000000E+00;  0.0000000E+00;  4.0000000E+04;  0.0000000E+00;  4.0000000E+04; -1.7081586E-03;  0.0000000E+00; -7.0175156E-04;  2.3496663E+03;
  3.9999999E-02;  9.9999998E-03; -3.4000000E-01;1951;  0.0000000E+00;  0.0000000E+00;  0.0000000E+00;  1.0038486E+03;  1.0000000E-01;  3.1885518E+03;0;  0.0000000E+00;  0.0000000E+00;  0.0000000E+00;0; -3.2223705E-03;  4.0000000E+04;  0.0000000E+00;  0.0000000E+00;  4.0000000E+04;  0.0000000E+00;  4.0000000E+04; -2.3888084E-03;  0.0000000E+00; -8.3356211E-04;  2.4886428E+03;
  3.9999999E-02;  9.9999998E-03; -3.3000001E-01;1952;  0.0000000E+00;  0.0000000E+00;  0.0000000E+00;  1.0049122E+03;  1.0000000E-01;  4.0697122E+03;0;  0.0000000E+00;  0.0000000E+00;  0.0000000E+00;0; -4.1907933E-03;  4.0000000E+04;  0.0000000E+00;  0.0000000E+00;  4.0000000E+04;  0.0000000E+00;  4.0000000E+04; -3.2353136E-03;  0.0000000E+00; -9.5547963E-04;  2.4888433E+03;
  3.9999999E-02;  9.9999998E-03; -3.1999999E-01;1953;  0.0000000E+00;  0.0000000E+00;  0.0000000E+00;  1.0061186E+03;  1.0000000E-01;  5.0690913E+03;0;  0.0000000E+00;  0.0000000E+00;  0.0000000E+00;0; -5.3040460E-03;  4.0000000E+04;  0.0000000E+00;  0.0000000E+00;  4.0000000E+04;  0.0000000E+00;  4.0000000E+04; -4.2500137E-03;  0.0000000E+00; -1.0540320E-03;  2.3121023E+03;
  3.9999999E-02;  9.9999998E-03; -3.1000000E-01;1954;  0.0000000E+00;  0.0000000E+00;  0.0000000E+00;  1.0074296E+03;  1.0000000E-01;  6.1552827E+03;0;  0.0000000E+00;  0.0000000E+00;  0.0000000E+00;0; -6.5347482E-03;  4.0000000E+04;  0.0000000E+00;  0.0000000E+00;  4.0000000E+04;  0.0000000E+00;  4.0000000E+04; -5.4210350E-03;  0.0000000E+00; -1.1137134E-03;  1.9252947E+03;
  5.0000001E-02;  9.9999998E-03; -4.4000000E-01;1971;  0.0000000E+00;  0.0000000E+00;  0.0000000E+00;  1.0000000E+03;  1.0000000E-01;  0.0000000E+00;0;  0.0000000E+00;  0.0000000E+00;  0.0000000E+00;0; -1.1413607E-05;  4.0000000E+04;  0.0000000E+00;  0.0000000E+00;  4.0000000E+04;  0.0000000E+00;  4.0000000E+04; -4.5999932E-06;  0.0000000E+00; -6.8136146E-06;  1.5314776E+01;
  5.0000001E-02;  9.9999998E-03; -4.3000001E-01;1972;  0.0000000E+00;  0.0000000E+00;  0.0000000E+00;  1.0000646E+03;  1.0000000E-01;  5.3529350E+01;0;  0.0000000E+00;  0.0000000E+00;  0.0000000E+00;0; -3.6317593E-05;  4.0000000E+04;  0.0000000E+00;  0.0000000E+00;  4.0000000E+04;  0.0000000E+00;  4.0000000E+04; -1.4683571E-05;  0.0000000E+00; -2.1634021E-05;  6.6643478E+01;
  5.0000001E-02;  9.9999998E-03; -4.1999999E-01;1973;  0.0000000E+00;  0.0000000E+00;  0.0000000E+00;  1.0001482E+03;  1.0000000E-01;  1.2276196E+02;0;  0.0000000E+00;  0.0000000E+00;  0.0000000E+00;0; -8.7294902E-05;  4.0000000E+04;  0.0000000E+00;  0.0000000E+00;  4.0000000E+04;  0.0000000E+00;  4.0000000E+04; -3.6701513E-05;  0.0000000E+00; -5.0593386E-05;  1.9219943E+02;
  5.0000001E-02;  9.9999998E-03; -4.1000000E-01;1974;  0.0000000E+00;  0.0000000E+00;  0.0000000E+00;  1.0002839E+03;  1.0000000E-01;  2.3525261E+02;0;  0.0000000E+00;  0.0000000E+00;  0.0000000E+00;0; -1.7581211E-04;  4.0000000E+04;  0.0000000E+00;  0.0000000E+00;  4.0000000E+04;  0.0000000E+00;  4.0000000E+04; -7.8767691E-05;  0.0000000E+00; -9.7044409E-05;  4.1316727E+02;
  5.0000001E-02;  9.9999998E-03; -4.0000001E-01;1975;  0.0000000E+00;  0.0000000E+00;  0.0000000E+00;  1.0005006E+03;  1.0000000E-01;  4.1470432E+02;0;  0.0000000E+00;  0.0000000E+00;  0.0000000E+00;0; -3.1445990E-04;  4.0000000E+04;  0.0000000E+00;  0.0000000E+00;  4.0000000E+04;  0.0000000E+00;  4.0000000E+04; -1.5211578E-04;  0.0000000E+00; -1.6234411E-04;  7.2217938E+02;
  5.0000001E-02;  9.9999998E-03; -3.8999999E-01;1976;  0.0000000E+00;  0.0000000E+00;  0.0000000E+00;  1.0007655E+03;  1.0000000E-01;  6.3425366E+02;0;  0.0000000E+00;  0.0000000E+00;  0.0000000E+00;0; -5.1780045E-04;  4.0000000E+04;  0.0000000E+00;  0.0000000E+00;  4.0000000E+04;  0.0000000E+00;  4.0000000E+04; -2.7154273E-04;  0.0000000E+00; -2.4625772E-04;  1.0893805E+03;
  5.0000001E-02;  9.9999998E-03; -3.8000000E-01;1977;  0.0000000E+00;  0.0000000E+00;  0.0000000E+00;  1.0011513E+03;  1.0000000E-01;  9.5384955E+02;0;  0.0000000E+00;  0.0000000E+00;  0.0000000E+00;0; -8.0295809E-04;  4.0000000E+04;  0.0000000E+00;  0.0000000E+00;  4.0000000E+04;  0.0000000E+00;  4.0000000E+04; -4.5547442E-04;  0.0000000E+00; -3.4748367E-04;  1.4757709E+03;
  5.0000001E-02;  9.9999998E-03; -3.7000000E-01;1978;  0.0000000E+00;  0.0000000E+00;  0.0000000E+00;  1.0016263E+03;  1.0000000E-01;  1.3474187E+03;0;  0.0000000E+00;  0.0000000E+00;  0.0000000E+00;0; -1.1892628E-03;  4.0000000E+04;  0.0000000E+00;  0.0000000E+00;  4.0000000E+04;  0.0000000E+00;  4.0000000E+04; -7.2545366E-04;  0.0000000E+00; -4.6380915E-04;  1.8423051E+03;
  5.0000001E-02;  9.9999998E-03; -3.6000001E-01;1979;  0.0000000E+00;  0.0000000E+00;  0.0000000E+00;  1.0022536E+03;  1.0000000E-01;  1.8671077E+03;0;  0.0000000E+00;  0.0000000E+00;  0.0000000E+00;0; -1.6966797E-03;  4.0000000E+04;  0.0000000E+00;  0.0000000E+00;  4.0000000E+04;  0.0000000E+00;  4.0000000E+04; -1.1048577E-03;  0.0000000E+00; -5.9182203E-04;  2.1527795E+03;
  5.0000001E-02;  9.9999998E-03; -3.4999999E-01;1980;  0.0000000E+00;  0.0000000E+00;  0.0000000E+00;  1.0030311E+03;  1.0000000E-01;  2.5112375E+03;0;  0.0000000E+00;  0.0000000E+00;  0.0000000E+00;0; -2.3430851E-03;  4.0000000E+04;  0.0000000E+00;  0.0000000E+00;  4.0000000E+04;  0.0000000E+00;  4.0000000E+04; -1.6167514E-03;  0.0000000E+00; -7.2633364E-04;  2.3737373E+03;
  5.0000001E-02;  9.9999998E-03; -3.4000000E-01;1981;  0.0000000E+00;  0.0000000E+00;  0.0000000E+00;  1.0039683E+03;  1.0000000E-01;  3.2876108E+03;0;  0.0000000E+00;  0.0000000E+00;  0.0000000E+00;0; -3.1405296E-03;  4.0000000E+04;  0.0000000E+00;  0.0000000E+00;  4.0000000E+04;  0.0000000E+00;  4.0000000E+04; -2.2808756E-03;  0.0000000E+00; -8.5965393E-04;  2.4733816E+03;
  5.0000001E-02;  9.9999998E-03; -3.3000001E-01;1982;  0.0000000E+00;  0.0000000E+00;  0.0000000E+00;  1.0050700E+03;  1.0000000E-01;  4.2003750E+03;0;  0.0000000E+00;  0.0000000E+00;  0.0000000E+00;0; -4.0910547E-03;  4.0000000E+04;  0.0000000E+00;  0.0000000E+00;  4.0000000E+04;  0.0000000E+00;  4.0000000E+04; -3.1100754E-03;  0.0000000E+00; -9.8097918E-04;  2.4214871E+03;
  5.0000001E-02;  9.9999998E-03; -3.1999999E-01;1983;  0.0000000E+00;  0.0000000E+00;  0.0000000E+00;  1.0063188E+03;  1.0000000E-01;  5.2350122E+03;0;  0.0000000E+00;  0.0000000E+00;  0.0000000E+00;0; -5.1829643E-03;  4.0000000E+04;  0.0000000E+00;  0.0000000E+00;  4.0000000E+04;  0.0000000E+00;  4.0000000E+04; -4.1064974E-03;  0.0000000E+00; -1.0764670E-03;  2.1929128E+03;
  5.0000001E-02;  9.9999998E-03; -3.1000000E-01;1984;  0.0000000E+00;  0.0000000E+00;  0.0000000E+00;  1.0076627E+03;  1.0000000E-01;  6.3484624E+03;0;  0.0000000E+00;  0.0000000E+00;  0.0000000E+00;0; -6.3890945E-03;  4.0000000E+04;  0.0000000E+00;  0.0000000E+00;  4.0000000E+04;  0.0000000E+00;  4.0000000E+04; -5.2582594E-03;  0.0000000E+00; -1.1308350E-03;  1.7826971E+03;
  5.9999999E-02;  9.9999998E-03; -4.4000000E-01;2001;  0.0000000E+00;  0.0000000E+00;  0.0000000E+00;  1.0000000E+03;  1.0000000E-01;  0.0000000E+00;0;  0.0000000E+00;  0.0000000E+00;  0.0000000E+00;0; -1.0361360E-05;  4.0000000E+04;  0.0000000E+00;  0.0000000E+00;  4.0000000E+04;  0.0000000E+00;  4.0000000E+04; -2.9572748E-06;  0.0000000E+00; -7.4040854E-06;  4.4214492E+00;
  5.9999999E-02;  9.9999998E-03; -4.3000001E-01;2002;  0.0000000E+00;  0.0000000E+00;  0.0000000E+00;  1.0000660E+03;  1.0000000E-01;  5.4615738E+01;0;  0.0000000E+00;  0.0000000E+00;  0.0000000E+00;0; -3.2935397E-05;  4.0000000E+04;  0.0000000E+00;  0.0000000E+00;  4.0000000E+04;  0.0000000E+00;  4.0000000E+04; -1.0093268E-05;  0.0000000E+00; -2.2842130E-05;  5.5311348E+01;
  5.9999999E-02;  9.9999998E-03; -4.1999999E-01;2003;  0.0000000E+00;  0.0000000E+00;  0.0000000E+00;  1.0001510E+03;  1.0000000E-01;  1.2513226E+02;0;  0.0000000E+00;  0.0000000E+00;  0.0000000E+00;0; -7.9615820E-05;  4.0000000E+04;  0.0000000E+00;  0.0000000E+00;  4.0000000E+04;  0.0000000E+00;  4.0000000E+04; -2.6949438E-05;  0.0000000E+00; -5.2666383E-05;  1.9364215E+02;
  5.9999999E-02;  9.9999998E-03; -4.1000000E-01;2004;  0.0000000E+00;  0.0000000E+00;  0.0000000E+00;  1.0002894E+03;  1.0000000E-01;  2.3979568E+02;0;  0.0000000E+00;  0.0000000E+00;  0.0000000E+00;0; -1.6169321E-04;  4.0000000E+04;  0.0000000E+00;  0.0000000E+00;  4.0000000E+04;  0.0000000E+00;  4.0000000E+04; -6.1236417E-05;  0.0000000E+00; -1.0045680E-04;  4.4169345E+02;
  5.9999999E-02;  9.9999998E-03; -4.0000001E-01;2005;  0.0000000E+00;  0.0000000E+00;  0.0000000E+00;  1.0004890E+03;  1.0000000E-01;  4.0512436E+02;0;  0.0000000E+00;  0.0000000E+00;  0.0000000E+00;0; -2.9180484E-04;  4.0000000E+04;  0.0000000E+00;  0.0000000E+00;  4.0000000E+04;  0.0000000E+00;  4.0000000E+04; -1.2402909E-04;  0.0000000E+00; -1.6777574E-04;  7.8743658E+02;
  5.9999999E-02;  9.9999998E-03; -3.8999999E-01;2006;  0.0000000E+00;  0.0000000E+00;  0.0000000E+00;  1.0007772E+03;  1.0000000E-01;  6.4383362E+02;0;  0.0000000E+00;  0.0000000E+00;  0.0000000E+00;0; -4.8456719E-04;  4.0000000E+04;  0.0000000E+00;  0.0000000E+00;  4.0000000E+04;  0.0000000E+00;  4.0000000E+04; -2.3015922E-04;  0.0000000E+00; -2.5440796E-04;  1.1937513E+03;
  5.9999999E-02;  9.9999998E-03; -3.8000000E-01;2007;  0.0000000E+00;  0.0000000E+00;  0.0000000E+00;  1.0011638E+03;  1.0000000E-01;  9.6412091E+02;0;  0.0000000E+00;  0.0000000E+00;  0.0000000E+00;0; -7.5702835E-04;  4.0000000E+04;  0.0000000E+00;  0.0000000E+00;  4.0000000E+04;  0.0000000E+00;  4.0000000E+04; -3.9817239E-04;  0.0000000E+00; -3.5885596E-04;  1.6143289E+03;
  5.9999999E-02;  9.9999998E-03; -3.7000000E-01;2008;  0.0000000E+00;  0.0000000E+00;  0.0000000E+00;  1.0016412E+03;  1.0000000E-01;  1.3597640E+03;0;  0.0000000E+00;  0.0000000E+00;  0.0000000E+00;0; -1.1282347E-03;  4.0000000E+04;  0.0000000E+00;  0.0000000E+00;  4.0000000E+04;  0.0000000E+00;  4.0000000E+04; -6.4968033E-04;  0.0000000E+00; -4.7855434E-04;  2.0038618E+03;
  5.9999999E-02;  9.9999998E-03; -3.6000001E-01;2009;  0.0000000E+00;  0.0000000E+00;  0.0000000E+00;  1.0022765E+03;  1.0000000E-01;  1.8860701E+03;0;  0.0000000E+00;  0.0000000E+00;  0.0000000E+00;0; -1.6176429E-03;  4.0000000E+04;  0.0000000E+00;  0.0000000E+00;  4.0000000E+04;  0.0000000E+00;  4.0000000E+04; -1.0079577E-03;  0.0000000E+00; -6.0968520E-04;  2.3212195E+03;
  5.9999999E-02;  9.9999998E-03; -3.4999999E-01;2010;  0.0000000E+00;  0.0000000E+00;  0.0000000E+00;  1.0030632E+03;  1.0000000E-01;  2.5378047E+03;0;  0.0000000E+00;  0.0000000E+00;  0.0000000E+00;0; -2.2422986E-03;  4.0000000E+04;  0.0000000E+00;  0.0000000E+00;  4.0000000E+04;  0.0000000E+00;  4.0000000E+04; -1.4956549E-03;  0.0000000E+00; -7.4664369E-04;  2.5290386E+03;
  5.9999999E-02;  9.9999998E-03; -3.4000000E-01;2011;  0.0000000E+00;  0.0000000E+00;  0.0000000E+00;  1.0040189E+03;  1.0000000E-01;  3.3295850E+03;0;  0.0000000E+00;  0.0000000E+00;  0.0000000E+00;0; -3.0130665E-03;  4.0000000E+04;  0.0000000E+00;  0.0000000E+00;  4.0000000E+04;  0.0000000E+00;  4.0000000E+04; -2.1317480E-03;  0.0000000E+00; -8.8131847E-04;  2.5934048E+03;
  5.9999999E-02;  9.9999998E-03; -3.3000001E-01;2012;  0.0000000E+00;  0.0000000E+00;  0.0000000E+00;  1.0051347E+03;  1.0000000E-01;  4.2540029E+03;0;  0.0000000E+00;  0.0000000E+00;  0.0000000E+00;0; -3.9305543E-03;  4.0000000E+04;  0.0000000E+00;  0.0000000E+00;  4.0000000E+04;  0.0000000E+00;  4.0000000E+04; -2.9280765E-03;  0.0000000E+00; -1.0024778E-03;  2.4860935E+03;
  5.9999999E-02;  9.9999998E-03; -3.1999999E-01;2013;  0.0000000E+00;  0.0000000E+00;  0.0000000E+00;  1.0063937E+03;  1.0000000E-01;  5.2971343E+03;0;  0.0000000E+00;  0.0000000E+00;  0.0000000E+00;0; -4.9816659E-03;  4.0000000E+04;  0.0000000E+00;  0.0000000E+00;  4.0000000E+04;  0.0000000E+00;  4.0000000E+04; -3.8858261E-03;  0.0000000E+00; -1.0958398E-03;  2.1920593E+03;
  5.9999999E-02;  9.9999998E-03; -3.1000000E-01;2014;  0.0000000E+00;  0.0000000E+00;  0.0000000E+00;  1.0077470E+03;  1.0000000E-01;  6.4182876E+03;0;  0.0000000E+00;  0.0000000E+00;  0.0000000E+00;0; -6.1383648E-03;  4.0000000E+04;  0.0000000E+00;  0.0000000E+00;  4.0000000E+04;  0.0000000E+00;  4.0000000E+04; -4.9926885E-03;  0.0000000E+00; -1.1456765E-03;  1.7319401E+03;
  7.0000000E-02;  9.9999998E-03; -4.4000000E-01;2031;  0.0000000E+00;  0.0000000E+00;  0.0000000E+00;  1.0000000E+03;  1.0000000E-01;  0.0000000E+00;0;  0.0000000E+00;  0.0000000E+00;  0.0000000E+00;0; -9.4307106E-06;  4.0000000E+04;  0.0000000E+00;  0.0000000E+00;  4.0000000E+04;  0.0000000E+00;  4.0000000E+04; -1.1915138E-06;  0.0000000E+00; -8.2391971E-06;  3.1025171E+00;
  7.0000000E-02;  9.9999998E-03; -4.3000001E-01;2032;  0.0000000E+00;  0.0000000E+00;  0.0000000E+00;  1.0000672E+03;  1.0000000E-01;  5.5702129E+01;0;  0.0000000E+00;  0.0000000E+00;  0.0000000E+00;0; -2.9453964E-05;  4.0000000E+04;  0.0000000E+00;  0.0000000E+00;  4.0000000E+04;  0.0000000E+00;  4.0000000E+04; -5.2658334E-06;  0.0000000E+00; -2.4188132E-05;  6.7493202E+01;
  7.0000000E-02;  9.9999998E-03; -4.1999999E-01;2033;  0.0000000E+00;  0.0000000E+00;  0.0000000E+00;  1.0001518E+03;  1.0000000E-01;  1.2572484E+02;0;  0.0000000E+00;  0.0000000E+00;  0.0000000E+00;0; -7.1425711E-05;  4.0000000E+04;  0.0000000E+00;  0.0000000E+00;  4.0000000E+04;  0.0000000E+00;  4.0000000E+04; -1.6823979E-05;  0.0000000E+00; -5.4601733E-05;  2.3804587E+02;
  7.0000000E-02;  9.9999998E-03; -4.1000000E-01;2034;  0.0000000E+00;  0.0000000E+00;  0.0000000E+00;  1.0002913E+03;  1.0000000E-01;  2.4137589E+02;0;  0.0000000E+00;  0.0000000E+00;  0.0000000E+00;0; -1.4661216E-04;  4.0000000E+04;  0.0000000E+00;  0.0000000E+00;  4.0000000E+04;  0.0000000E+00;  4.0000000E+04; -4.3303804E-05;  0.0000000E+00; -1.0330836E-04;  5.3484564E+02;
  7.0000000E-02;  9.9999998E-03; -4.0000001E-01;2035;  0.0000000E+00;  0.0000000E+00;  0.0000000E+00;  1.0004633E+03;  1.0000000E-01;  3.8379163E+02;0;  0.0000000E+00;  0.0000000E+00;  0.0000000E+00;0; -2.6782430E-04;  4.0000000E+04;  0.0000000E+00;  0.0000000E+00;  4.0000000E+04;  0.0000000E+00;  4.0000000E+04; -9.5744224E-05;  0.0000000E+00; -1.7208008E-04;  9.3888861E+02;
  7.0000000E-02;  9.9999998E-03; -3.8999999E-01;2036;  0.0000000E+00;  0.0000000E+00;  0.0000000E+00;  1.0007692E+03;  1.0000000E-01;  6.3731531E+02;0;  0.0000000E+00;  0.0000000E+00;  0.0000000E+00;0; -4.4973788E-04;  4.0000000E+04;  0.0000000E+00;  0.0000000E+00;  4.0000000E+04;  0.0000000E+00;  4.0000000E+04; -1.8905303E-04;  0.0000000E+00; -2.6068487E-04;  1.4046180E+03;
  7.0000000E-02;  9.9999998E-03; -3.8000000E-01;2037;  0.0000000E+00;  0.0000000E+00;  0.0000000E+00;  1.0011447E+03;  1.0000000E-01;  9.4841760E+02;0;  0.0000000E+00;  0.0000000E+00;  0.0000000E+00;0; -7.0922554E-04;  4.0000000E+04;  0.0000000E+00;  0.0000000E+00;  4.0000000E+04;  0.0000000E+00;  4.0000000E+04; -3.4181910E-04;  0.0000000E+00; -3.6740641E-04;  1.8784521E+03;
  7.0000000E-02;  9.9999998E-03; -3.7000000E-01;2038;  0.0000000E+00;  0.0000000E+00;  0.0000000E+00;  1.0016237E+03;  1.0000000E-01;  1.3451471E+03;0;  0.0000000E+00;  0.0000000E+00;  0.0000000E+00;0; -1.0649059E-03;  4.0000000E+04;  0.0000000E+00;  0.0000000E+00;  4.0000000E+04;  0.0000000E+00;  4.0000000E+04; -5.7552196E-04;  0.0000000E+00; -4.8938399E-04;  2.3093425E+03;
  7.0000000E-02;  9.9999998E-03; -3.6000001E-01;2039;  0.0000000E+00;  0.0000000E+00;  0.0000000E+00;  1.0022617E+03;  1.0000000E-01;  1.8738235E+03;0;  0.0000000E+00;  0.0000000E+00;  0.0000000E+00;0; -1.5355176E-03;  4.0000000E+04;  0.0000000E+00;  0.0000000E+00;  4.0000000E+04;  0.0000000E+00;  4.0000000E+04; -9.1298716E-04;  0.0000000E+00; -6.2253041E-04;  2.6511704E+03;
  7.0000000E-02;  9.9999998E-03; -3.4999999E-01;2040;  0.0000000E+00;  0.0000000E+00;  0.0000000E+00;  1.0030640E+03;  1.0000000E-01;  2.5383975E+03;0;  0.0000000E+00;  0.0000000E+00;  0.0000000E+00;0; -2.1370281E-03;  4.0000000E+04;  0.0000000E+00;  0.0000000E+00;  4.0000000E+04;  0.0000000E+00;  4.0000000E+04; -1.3759917E-03;  0.0000000E+00; -7.6103653E-04;  2.8609775E+03;
  7.0000000E-02;  9.9999998E-03; -3.4000000E-01;2041;  0.0000000E+00;  0.0000000E+00;  0.0000000E+00;  1.0040210E+03;  1.0000000E-01;  3.3313625E+03;0;  0.0000000E+00;  0.0000000E+00;  0.0000000E+00;0; -2.8787747E-03;  4.0000000E+04;  0.0000000E+00;  0.0000000E+00;  4.0000000E+04;  0.0000000E+00;  4.0000000E+04; -1.9821539E-03;  0.0000000E+00; -8.9662086E-04;  2.8980161E+03;
  7.0000000E-02;  9.9999998E-03; -3.3000001E-01;2042;  0.0000000E+00;  0.0000000E+00;  0.0000000E+00;  1.0051425E+03;  1.0000000E-01;  4.2605215E+03;0;  0.0000000E+00;  0.0000000E+00;  0.0000000E+00;0; -3.7593916E-03;  4.0000000E+04;  0.0000000E+00;  0.0000000E+00;  4.0000000E+04;  0.0000000E+00;  4.0000000E+04; -2.7415701E-03;  0.0000000E+00; -1.0178216E-03;  2.7271768E+03;
  7.0000000E-02;  9.9999998E-03; -3.1999999E-01;2043;  0.0000000E+00;  0.0000000E+00;  0.0000000E+00;  1.0063943E+03;  1.0000000E-01;  5.2976279E+03;0;  0.0000000E+00;  0.0000000E+00;  0.0000000E+00;0; -4.7636330E-03;  4.0000000E+04;  0.0000000E+00;  0.0000000E+00;  4.0000000E+04;  0.0000000E+00;  4.0000000E+04; -3.6537610E-03;  0.0000000E+00; -1.1098718E-03;  2.3300754E+03;
  7.0000000E-02;  9.9999998E-03; -3.1000000E-01;2044;  0.0000000E+00;  0.0000000E+00;  0.0000000E+00;  1.0077290E+03;  1.0000000E-01;  6.4033745E+03;0;  0.0000000E+00;  0.0000000E+00;  0.0000000E+00;0; -5.8615841E-03;  4.0000000E+04;  0.0000000E+00;  0.0000000E+00;  4.0000000E+04;  0.0000000E+00;  4.0000000E+04; -4.7055753E-03;  0.0000000E+00; -1.1560086E-03;  1.7327054E+03;
  7.9999998E-02;  9.9999998E-03; -4.4000000E-01;2061;  0.0000000E+00;  0.0000000E+00;  0.0000000E+00;  1.0000000E+03;  1.0000000E-01;  0.0000000E+00;0;  0.0000000E+00;  0.0000000E+00;  0.0000000E+00;0; -8.6310256E-06;  4.0000000E+04;  0.0000000E+00;  0.0000000E+00;  4.0000000E+04;  0.0000000E+00;  4.0000000E+04;  4.1490722E-07;  0.0000000E+00; -9.0459325E-06;  1.5057508E+01;
  7.9999998E-02;  9.9999998E-03; -4.3000001E-01;2062;  0.0000000E+00;  0.0000000E+00;  0.0000000E+00;  1.0000687E+03;  1.0000000E-01;  5.6887280E+01;0;  0.0000000E+00;  0.0000000E+00;  0.0000000E+00;0; -2.6270805E-05;  4.0000000E+04;  0.0000000E+00;  0.0000000E+00;  4.0000000E+04;  0.0000000E+00;  4.0000000E+04; -9.5327925E-07;  0.0000000E+00; -2.5317526E-05;  1.1071413E+02;
  7.9999998E-02;  9.9999998E-03; -4.1999999E-01;2063;  0.0000000E+00;  0.0000000E+00;  0.0000000E+00;  1.0001441E+03;  1.0000000E-01;  1.1940403E+02;0;  0.0000000E+00;  0.0000000E+00;  0.0000000E+00;0; -6.4009306E-05;  4.0000000E+04;  0.0000000E+00;  0.0000000E+00;  4.0000000E+04;  0.0000000E+00;  4.0000000E+04; -8.0122691E-06;  0.0000000E+00; -5.5997039E-05;  3.3481149E+02;
  7.9999998E-02;  9.9999998E-03; -4.1000000E-01;2064;  0.0000000E+00;  0.0000000E+00;  0.0000000E+00;  1.0002736E+03;  1.0000000E-01;  2.2666026E+02;0;  0.0000000E+00;  0.0000000E+00;  0.0000000E+00;0; -1.3332440E-04;  4.0000000E+04;  0.0000000E+00;  0.0000000E+00;  4.0000000E+04;  0.0000000E+00;  4.0000000E+04; -2.8188366E-05;  0.0000000E+00; -1.0513604E-04;  7.0276831E+02;
  7.9999998E-02;  9.9999998E-03; -4.0000001E-01;2065;  0.0000000E+00;  0.0000000E+00;  0.0000000E+00;  1.0004531E+03;  1.0000000E-01;  3.7539679E+02;0;  0.0000000E+00;  0.0000000E+00;  0.0000000E+00;0; -2.4731798E-04;  4.0000000E+04;  0.0000000E+00;  0.0000000E+00;  4.0000000E+04;  0.0000000E+00;  4.0000000E+04; -7.2695999E-05;  0.0000000E+00; -1.7462198E-04;  1.1864935E+03;
  7.9999998E-02;  9.9999998E-03; -3.8999999E-01;2066;  0.0000000E+00;  0.0000000E+00;  0.0000000E+00;  1.0007490E+03;  1.0000000E-01;  6.2052563E+02;0;  0.0000000E+00;  0.0000000E+00;  0.0000000E+00;0; -4.2080681E-04;  4.0000000E+04;  0.0000000E+00;  0.0000000E+00;  4.0000000E+04;  0.0000000E+00;  4.0000000E+04; -1.5667199E-04;  0.0000000E+00; -2.6413481E-04;  1.7318372E+03;
  7.9999998E-02;  9.9999998E-03; -3.8000000E-01;2067;  0.0000000E+00;  0.0000000E+00;  0.0000000E+00;  1.0011170E+03;  1.0000000E-01;  9.2540594E+02;0;  0.0000000E+00;  0.0000000E+00;  0.0000000E+00;0; -6.7057228E-04;  4.0000000E+04;  0.0000000E+00;  0.0000000E+00;  4.0000000E+04;  0.0000000E+00;  4.0000000E+04; -2.9882893E-04;  0.0000000E+00; -3.7174334E-04;  2.2787563E+03;
  7.9999998E-02;  9.9999998E-03; -3.7000000E-01;2068;  0.0000000E+00;  0.0000000E+00;  0.0000000E+00;  1.0016093E+03;  1.0000000E-01;  1.3332957E+03;0;  0.0000000E+00;  0.0000000E+00;  0.0000000E+00;0; -1.0148722E-03;  4.0000000E+04;  0.0000000E+00;  0.0000000E+00;  4.0000000E+04;  0.0000000E+00;  4.0000000E+04; -5.2051054E-04;  0.0000000E+00; -4.9436162E-04;  2.7711543E+03;
  7.9999998E-02;  9.9999998E-03; -3.6000001E-01;2069;  0.0000000E+00;  0.0000000E+00;  0.0000000E+00;  1.0022464E+03;  1.0000000E-01;  1.8610831E+03;0;  0.0000000E+00;  0.0000000E+00;  0.0000000E+00;0; -1.4717457E-03;  4.0000000E+04;  0.0000000E+00;  0.0000000E+00;  4.0000000E+04;  0.0000000E+00;  4.0000000E+04; -8.4399327E-04;  0.0000000E+00; -6.2775239E-04;  3.1575352E+03;
  7.9999998E-02;  9.9999998E-03; -3.4999999E-01;2070;  0.0000000E+00;  0.0000000E+00;  0.0000000E+00;  1.0030463E+03;  1.0000000E-01;  2.5237805E+03;0;  0.0000000E+00;  0.0000000E+00;  0.0000000E+00;0; -2.0560306E-03;  4.0000000E+04;  0.0000000E+00;  0.0000000E+00;  4.0000000E+04;  0.0000000E+00;  4.0000000E+04; -1.2899542E-03;  0.0000000E+00; -7.6607632E-04;  3.3870747E+03;
  7.9999998E-02;  9.9999998E-03; -3.4000000E-01;2071;  0.0000000E+00;  0.0000000E+00;  0.0000000E+00;  1.0040110E+03;  1.0000000E-01;  3.3230664E+03;0;  0.0000000E+00;  0.0000000E+00;  0.0000000E+00;0; -2.7754190E-03;  4.0000000E+04;  0.0000000E+00;  0.0000000E+00;  4.0000000E+04;  0.0000000E+00;  4.0000000E+04; -1.8742980E-03;  0.0000000E+00; -9.0112118E-04;  3.4065249E+03;
  7.9999998E-02;  9.9999998E-03; -3.3000001E-01;2072;  0.0000000E+00;  0.0000000E+00;  0.0000000E+00;  1.0051311E+03;  1.0000000E-01;  4.2510400E+03;0;  0.0000000E+00;  0.0000000E+00;  0.0000000E+00;0; -3.6263596E-03;  4.0000000E+04;  0.0000000E+00;  0.0000000E+00;  4.0000000E+04;  0.0000000E+00;  4.0000000E+04; -2.6049158E-03;  0.0000000E+00; -1.0214439E-03;  3.1636780E+03;
  7.9999998E-02;  9.9999998E-03; -3.1999999E-01;2073;  0.0000000E+00;  0.0000000E+00;  0.0000000E+00;  1.0063692E+03;  1.0000000E-01;  5.2767891E+03;0;  0.0000000E+00;  0.0000000E+00;  0.0000000E+00;0; -4.5909705E-03;  4.0000000E+04;  0.0000000E+00;  0.0000000E+00;  4.0000000E+04;  0.0000000E+00;  4.0000000E+04; -3.4790554E-03;  0.0000000E+00; -1.1119150E-03;  2.6215842E+03;
  7.9999998E-02;  9.9999998E-03; -3.1000000E-01;2074;  0.0000000E+00;  0.0000000E+00;  0.0000000E+00;  1.0076812E+03;  1.0000000E-01;  6.3636719E+03;0;  0.0000000E+00;  0.0000000E+00;  0.0000000E+00;0; -5.6366622E-03;  4.0000000E+04;  0.0000000E+00;  0.0000000E+00;  4.0000000E+04;  0.0000000E+00;  4.0000000E+04; -4.4821273E-03;  0.0000000E+00; -1.1545352E-03;  1.7829381E+03;
  9.0000004E-02;  9.9999998E-03; -4.4000000E-01;2091;  0.0000000E+00;  0.0000000E+00;  0.0000000E+00;  1.0000000E+03;  1.0000000E-01;  0.0000000E+00;0;  0.0000000E+00;  0.0000000E+00;  0.0000000E+00;0; -7.8940557E-06;  4.0000000E+04;  0.0000000E+00;  0.0000000E+00;  4.0000000E+04;  0.0000000E+00;  4.0000000E+04;  1.6298053E-06;  0.0000000E+00; -9.5238611E-06;  4.3283760E+01;
  9.0000004E-02;  9.9999998E-03; -4.3000001E-01;2092;  0.0000000E+00;  0.0000000E+00;  0.0000000E+00;  1.0000709E+03;  1.0000000E-01;  5.8763771E+01;0;  0.0000000E+00;  0.0000000E+00;  0.0000000E+00;0; -2.3688970E-05;  4.0000000E+04;  0.0000000E+00;  0.0000000E+00;  4.0000000E+04;  0.0000000E+00;  4.0000000E+04;  2.1324918E-06;  0.0000000E+00; -2.5821462E-05;  1.8676834E+02;
  9.0000004E-02;  9.9999998E-03; -4.1999999E-01;2093;  0.0000000E+00;  0.0000000E+00;  0.0000000E+00;  1.0001380E+03;  1.0000000E-01;  1.1436713E+02;0;  0.0000000E+00;  0.0000000E+00;  0.0000000E+00;0; -5.8511534E-05;  4.0000000E+04;  0.0000000E+00;  0.0000000E+00;  4.0000000E+04;  0.0000000E+00;  4.0000000E+04; -2.1456308E-06;  0.0000000E+00; -5.6365901E-05;  4.8403726E+02;
  9.0000004E-02;  9.9999998E-03; -4.1000000E-01;2094;  0.0000000E+00;  0.0000000E+00;  0.0000000E+00;  1.0002465E+03;  1.0000000E-01;  2.0414238E+02;0;  0.0000000E+00;  0.0000000E+00;  0.0000000E+00;0; -1.2421922E-04;  4.0000000E+04;  0.0000000E+00;  0.0000000E+00;  4.0000000E+04;  0.0000000E+00;  4.0000000E+04; -1.8936002E-05;  0.0000000E+00; -1.0528322E-04;  9.4251428E+02;
  9.0000004E-02;  9.9999998E-03; -4.0000001E-01;2095;  0.0000000E+00;  0.0000000E+00;  0.0000000E+00;  1.0004385E+03;  1.0000000E-01;  3.6324899E+02;0;  0.0000000E+00;  0.0000000E+00;  0.0000000E+00;0; -2.3436313E-04;  4.0000000E+04;  0.0000000E+00;  0.0000000E+00;  4.0000000E+04;  0.0000000E+00;  4.0000000E+04; -5.9917933E-05;  0.0000000E+00; -1.7444520E-04;  1.5238821E+03;
  9.0000004E-02;  9.9999998E-03; -3.8999999E-01;2096;  0.0000000E+00;  0.0000000E+00;  0.0000000E+00;  1.0007220E+03;  1.0000000E-01;  5.9820532E+02;0;  0.0000000E+00;  0.0000000E+00;  0.0000000E+00;0; -4.0410785E-04;  4.0000000E+04;  0.0000000E+00;  0.0000000E+00;  4.0000000E+04;  0.0000000E+00;  4.0000000E+04; -1.4070880E-04;  0.0000000E+00; -2.6339904E-04;  2.1659436E+03;
  9.0000004E-02;  9.9999998E-03; -3.8000000E-01;2097;  0.0000000E+00;  0.0000000E+00;  0.0000000E+00;  1.0011007E+03;  1.0000000E-01;  9.1187543E+02;0;  0.0000000E+00;  0.0000000E+00;  0.0000000E+00;0; -6.5039680E-04;  4.0000000E+04;  0.0000000E+00;  0.0000000E+00;  4.0000000E+04;  0.0000000E+00;  4.0000000E+04; -2.8037964E-04;  0.0000000E+00; -3.7001719E-04;  2.8034355E+03;
  9.0000004E-02;  9.9999998E-03; -3.7000000E-01;2098;  0.0000000E+00;  0.0000000E+00;  0.0000000E+00;  1.0015964E+03;  1.0000000E-01;  1.3225305E+03;0;  0.0000000E+00;  0.0000000E+00;  0.0000000E+00;0; -9.9137356E-04;  4.0000000E+04;  0.0000000E+00;  0.0000000E+00;  4.0000000E+04;  0.0000000E+00;  4.0000000E+04; -5.0034357E-04;  0.0000000E+00; -4.9103005E-04;  3.3761897E+03;
  9.0000004E-02;  9.9999998E-03; -3.6000001E-01;2099;  0.0000000E+00;  0.0000000E+00;  0.0000000E+00;  1.0022444E+03;  1.0000000E-01;  1.8594042E+03;0;  0.0000000E+00;  0.0000000E+00;  0.0000000E+00;0; -1.4445652E-03;  4.0000000E+04;  0.0000000E+00;  0.0000000E+00;  4.0000000E+04;  0.0000000E+00;  4.0000000E+04; -8.2245201E-04;  0.0000000E+00; -6.2211324E-04;  3.8276572E+03;
  9.0000004E-02;  9.9999998E-03; -3.4999999E-01;2100;  0.0000000E+00;  0.0000000E+00;  0.0000000E+00;  1.0030602E+03;  1.0000000E-01;  2.5353357E+03;0;  0.0000000E+00;  0.0000000E+00;  0.0000000E+00;0; -2.0237633E-03;  4.0000000E+04;  0.0000000E+00;  0.0000000E+00;  4.0000000E+04;  0.0000000E+00;  4.0000000E+04; -1.2662665E-03;  0.0000000E+00; -7.5749686E-04;  4.0995381E+03;
  9.0000004E-02;  9.9999998E-03; -3.4000000E-01;2101;  0.0000000E+00;  0.0000000E+00;  0.0000000E+00;  1.0040323E+03;  1.0000000E-01;  3.3407451E+03;0;  0.0000000E+00;  0.0000000E+00;  0.0000000E+00;0; -2.7349945E-03;  4.0000000E+04;  0.0000000E+00;  0.0000000E+00;  4.0000000E+04;  0.0000000E+00;  4.0000000E+04; -1.8458006E-03;  0.0000000E+00; -8.8919402E-04;  4.1294590E+03;
  9.0000004E-02;  9.9999998E-03; -3.3000001E-01;2102;  0.0000000E+00;  0.0000000E+00;  0.0000000E+00;  1.0051591E+03;  1.0000000E-01;  4.2742495E+03;0;  0.0000000E+00;  0.0000000E+00;  0.0000000E+00;0; -3.5724465E-03;  4.0000000E+04;  0.0000000E+00;  0.0000000E+00;  4.0000000E+04;  0.0000000E+00;  4.0000000E+04; -2.5664025E-03;  0.0000000E+00; -1.0060440E-03;  3.8579072E+03;
  9.0000004E-02;  9.9999998E-03; -3.1999999E-01;2103;  0.0000000E+00;  0.0000000E+00;  0.0000000E+00;  1.0063974E+03;  1.0000000E-01;  5.3000972E+03;0;  0.0000000E+00;  0.0000000E+00;  0.0000000E+00;0; -4.5154686E-03;  4.0000000E+04;  0.0000000E+00;  0.0000000E+00;  4.0000000E+04;  0.0000000E+00;  4.0000000E+04; -3.4225290E-03;  0.0000000E+00; -1.0929398E-03;  3.2532061E+03;
  9.0000004E-02;  9.9999998E-03; -3.1000000E-01;2104;  0.0000000E+00;  0.0000000E+00;  0.0000000E+00;  1.0076880E+03;  1.0000000E-01;  6.3693999E+03;0;  0.0000000E+00;  0.0000000E+00;  0.0000000E+00;0; -5.5283657E-03;  4.0000000E+04;  0.0000000E+00;  0.0000000E+00;  4.0000000E+04;  0.0000000E+00;  4.0000000E+04; -4.3973406E-03;  0.0000000E+00; -1.1310253E-03;  2.3685784E+03;
  1.0000000E-01;  9.9999998E-03; -4.4000000E-01;2121;  0.0000000E+00;  0.0000000E+00;  0.0000000E+00;  1.0000000E+03;  1.0000000E-01;  0.0000000E+00;0;  0.0000000E+00;  0.0000000E+00;  0.0000000E+00;0; -7.1898471E-06;  4.0000000E+04;  0.0000000E+00;  0.0000000E+00;  4.0000000E+04;  0.0000000E+00;  4.0000000E+04;  2.2538802E-06;  0.0000000E+00; -9.4437273E-06;  8.6752777E+01;
  1.0000000E-01;  9.9999998E-03; -4.3000001E-01;2122;  0.0000000E+00;  0.0000000E+00;  0.0000000E+00;  1.0000734E+03;  1.0000000E-01;  6.0837784E+01;0;  0.0000000E+00;  0.0000000E+00;  0.0000000E+00;0; -2.2010960E-05;  4.0000000E+04;  0.0000000E+00;  0.0000000E+00;  4.0000000E+04;  0.0000000E+00;  4.0000000E+04;  3.3389208E-06;  0.0000000E+00; -2.5349880E-05;  2.9189676E+02;
  1.0000000E-01;  9.9999998E-03; -4.1999999E-01;2123;  0.0000000E+00;  0.0000000E+00;  0.0000000E+00;  1.0001205E+03;  1.0000000E-01;  9.9849030E+01;0;  0.0000000E+00;  0.0000000E+00;  0.0000000E+00;0; -5.5839791E-05;  4.0000000E+04;  0.0000000E+00;  0.0000000E+00;  4.0000000E+04;  0.0000000E+00;  4.0000000E+04; -6.4860717E-07;  0.0000000E+00; -5.5191183E-05;  6.7709882E+02;
  1.0000000E-01;  9.9999998E-03; -4.1000000E-01;2124;  0.0000000E+00;  0.0000000E+00;  0.0000000E+00;  1.0002173E+03;  1.0000000E-01;  1.8004430E+02;0;  0.0000000E+00;  0.0000000E+00;  0.0000000E+00;0; -1.2110890E-04;  4.0000000E+04;  0.0000000E+00;  0.0000000E+00;  4.0000000E+04;  0.0000000E+00;  4.0000000E+04; -1.8127663E-05;  0.0000000E+00; -1.0298123E-04;  1.2395137E+03;
  1.0000000E-01;  9.9999998E-03; -4.0000001E-01;2125;  0.0000000E+00;  0.0000000E+00;  0.0000000E+00;  1.0004287E+03;  1.0000000E-01;  3.5515045E+02;0;  0.0000000E+00;  0.0000000E+00;  0.0000000E+00;0; -2.3205823E-04;  4.0000000E+04;  0.0000000E+00;  0.0000000E+00;  4.0000000E+04;  0.0000000E+00;  4.0000000E+04; -6.1583305E-05;  0.0000000E+00; -1.7047493E-04;  1.9298798E+03;
  1.0000000E-01;  9.9999998E-03; -3.8999999E-01;2126;  0.0000000E+00;  0.0000000E+00;  0.0000000E+00;  1.0007076E+03;  1.0000000E-01;  5.8625500E+02;0;  0.0000000E+00;  0.0000000E+00;  0.0000000E+00;0; -4.0453070E-04;  4.0000000E+04;  0.0000000E+00;  0.0000000E+00;  4.0000000E+04;  0.0000000E+00;  4.0000000E+04; -1.4746329E-04;  0.0000000E+00; -2.5706741E-04;  2.6788342E+03;
  1.0000000E-01;  9.9999998E-03; -3.8000000E-01;2127;  0.0000000E+00;  0.0000000E+00;  0.0000000E+00;  1.0011026E+03;  1.0000000E-01;  9.1345563E+02;0;  0.0000000E+00;  0.0000000E+00;  0.0000000E+00;0; -6.5599853E-04;  4.0000000E+04;  0.0000000E+00;  0.0000000E+00;  4.0000000E+04;  0.0000000E+00;  4.0000000E+04; -2.9556168E-04;  0.0000000E+00; -3.6043685E-04;  3.4180791E+03;
  1.0000000E-01;  9.9999998E-03; -3.7000000E-01;2128;  0.0000000E+00;  0.0000000E+00;  0.0000000E+00;  1.0016086E+03;  1.0000000E-01;  1.3327030E+03;0;  0.0000000E+00;  0.0000000E+00;  0.0000000E+00;0; -1.0048290E-03;  4.0000000E+04;  0.0000000E+00;  0.0000000E+00;  4.0000000E+04;  0.0000000E+00;  4.0000000E+04; -5.2769482E-04;  0.0000000E+00; -4.7713410E-04;  4.0871826E+03;
  1.0000000E-01;  9.9999998E-03; -3.6000001E-01;2129;  0.0000000E+00;  0.0000000E+00;  0.0000000E+00;  1.0022789E+03;  1.0000000E-01;  1.8880454E+03;0;  0.0000000E+00;  0.0000000E+00;  0.0000000E+00;0; -1.4682824E-03;  4.0000000E+04;  0.0000000E+00;  0.0000000E+00;  4.0000000E+04;  0.0000000E+00;  4.0000000E+04; -8.6553331E-04;  0.0000000E+00; -6.0274918E-04;  4.6315205E+03;
  1.0000000E-01;  9.9999998E-03; -3.4999999E-01;2130;  0.0000000E+00;  0.0000000E+00;  0.0000000E+00;  1.0031223E+03;  1.0000000E-01;  2.5866924E+03;0;  0.0000000E+00;  0.0000000E+00;  0.0000000E+00;0; -2.0591898E-03;  4.0000000E+04;  0.0000000E+00;  0.0000000E+00;  4.0000000E+04;  0.0000000E+00;  4.0000000E+04; -1.3276022E-03;  0.0000000E+00; -7.3158764E-04;  4.9999727E+03;
  1.0000000E-01;  9.9999998E-03; -3.4000000E-01;2131;  0.0000000E+00;  0.0000000E+00;  0.0000000E+00;  1.0041252E+03;  1.0000000E-01;  3.4176812E+03;0;  0.0000000E+00;  0.0000000E+00;  0.0000000E+00;0; -2.7818454E-03;  4.0000000E+04;  0.0000000E+00;  0.0000000E+00;  4.0000000E+04;  0.0000000E+00;  4.0000000E+04; -1.9258936E-03;  0.0000000E+00; -8.5595180E-04;  5.1497979E+03;
  1.0000000E-01;  9.9999998E-03; -3.3000001E-01;2132;  0.0000000E+00;  0.0000000E+00;  0.0000000E+00;  1.0052700E+03;  1.0000000E-01;  4.3660986E+03;0;  0.0000000E+00;  0.0000000E+00;  0.0000000E+00;0; -3.6280064E-03;  4.0000000E+04;  0.0000000E+00;  0.0000000E+00;  4.0000000E+04;  0.0000000E+00;  4.0000000E+04; -2.6628377E-03;  0.0000000E+00; -9.6516876E-04;  5.0646318E+03;
  1.0000000E-01;  9.9999998E-03; -3.1999999E-01;2133;  0.0000000E+00;  0.0000000E+00;  0.0000000E+00;  1.0065232E+03;  1.0000000E-01;  5.4043901E+03;0;  0.0000000E+00;  0.0000000E+00;  0.0000000E+00;0; -4.5741596E-03;  4.0000000E+04;  0.0000000E+00;  0.0000000E+00;  4.0000000E+04;  0.0000000E+00;  4.0000000E+04; -3.5294793E-03;  0.0000000E+00; -1.0446804E-03;  4.7890322E+03;
  1.0000000E-01;  9.9999998E-03; -3.1000000E-01;2134;  0.0000000E+00;  0.0000000E+00;  0.0000000E+00;  1.0078062E+03;  1.0000000E-01;  6.4672739E+03;0;  0.0000000E+00;  0.0000000E+00;  0.0000000E+00;0; -5.5814562E-03;  4.0000000E+04;  0.0000000E+00;  0.0000000E+00;  4.0000000E+04;  0.0000000E+00;  4.0000000E+04; -4.5056576E-03;  0.0000000E+00; -1.0757985E-03;  4.4716050E+03;
  1.1000000E-01;  9.9999998E-03; -4.4000000E-01;2151;  0.0000000E+00;  0.0000000E+00;  0.0000000E+00;  1.0000000E+03;  1.0000000E-01;  0.0000000E+00;0;  0.0000000E+00;  0.0000000E+00;  0.0000000E+00;0; -6.6219591E-06;  4.0000000E+04;  0.0000000E+00;  0.0000000E+00;  4.0000000E+04;  0.0000000E+00;  4.0000000E+04;  2.0742621E-06;  0.0000000E+00; -8.6962209E-06;  1.4443454E+02;
  1.1000000E-01;  9.9999998E-03; -4.3000001E-01;2152;  0.0000000E+00;  0.0000000E+00;  0.0000000E+00;  1.0000651E+03;  1.0000000E-01;  5.3924400E+01;0;  0.0000000E+00;  0.0000000E+00;  0.0000000E+00;0; -2.1549255E-05;  4.0000000E+04;  0.0000000E+00;  0.0000000E+00;  4.0000000E+04;  0.0000000E+00;  4.0000000E+04;  2.1077597E-06;  0.0000000E+00; -2.3657014E-05;  4.2243250E+02;
  1.1000000E-01;  9.9999998E-03; -4.1999999E-01;2153;  0.0000000E+00;  0.0000000E+00;  0.0000000E+00;  1.0001102E+03;  1.0000000E-01;  9.1256676E+01;0;  0.0000000E+00;  0.0000000E+00;  0.0000000E+00;0; -5.6650213E-05;  4.0000000E+04;  0.0000000E+00;  0.0000000E+00;  4.0000000E+04;  0.0000000E+00;  4.0000000E+04; -4.6576183E-06;  0.0000000E+00; -5.1992596E-05;  9.0557935E+02;
  1.1000000E-01;  9.9999998E-03; -4.1000000E-01;2154;  0.0000000E+00;  0.0000000E+00;  0.0000000E+00;  1.0002118E+03;  1.0000000E-01;  1.7550121E+02;0;  0.0000000E+00;  0.0000000E+00;  0.0000000E+00;0; -1.2524075E-04;  4.0000000E+04;  0.0000000E+00;  0.0000000E+00;  4.0000000E+04;  0.0000000E+00;  4.0000000E+04; -2.7727472E-05;  0.0000000E+00; -9.7513279E-05;  1.5776447E+03;
  1.1000000E-01;  9.9999998E-03; -4.0000001E-01;2155;  0.0000000E+00;  0.0000000E+00;  0.0000000E+00;  1.0004332E+03;  1.0000000E-01;  3.5890344E+02;0;  0.0000000E+00;  0.0000000E+00;  0.0000000E+00;0; -2.4259966E-04;  4.0000000E+04;  0.0000000E+00;  0.0000000E+00;  4.0000000E+04;  0.0000000E+00;  4.0000000E+04; -8.0804413E-05;  0.0000000E+00; -1.6179525E-04;  2.3770195E+03;
  1.1000000E-01;  9.9999998E-03; -3.8999999E-01;2156;  0.0000000E+00;  0.0000000E+00;  0.0000000E+00;  1.0007209E+03;  1.0000000E-01;  5.9731647E+02;0;  0.0000000E+00;  0.0000000E+00;  0.0000000E+00;0; -4.2565685E-04;  4.0000000E+04;  0.0000000E+00;  0.0000000E+00;  4.0000000E+04;  0.0000000E+00;  4.0000000E+04; -1.8159751E-04;  0.0000000E+00; -2.4405934E-04;  3.2290393E+03;
  1.1000000E-01;  9.9999998E-03; -3.8000000E-01;2157;  0.0000000E+00;  0.0000000E+00;  0.0000000E+00;  1.0011279E+03;  1.0000000E-01;  9.3449207E+02;0;  0.0000000E+00;  0.0000000E+00;  0.0000000E+00;0; -6.9283205E-04;  4.0000000E+04;  0.0000000E+00;  0.0000000E+00;  4.0000000E+04;  0.0000000E+00;  4.0000000E+04; -3.5105267E-04;  0.0000000E+00; -3.4177941E-04;  4.0694004E+03;
  1.1000000E-01;  9.9999998E-03; -3.7000000E-01;2158;  0.0000000E+00;  0.0000000E+00;  0.0000000E+00;  1.0016723E+03;  1.0000000E-01;  1.3854423E+03;0;  0.0000000E+00;  0.0000000E+00;  0.0000000E+00;0; -1.0630644E-03;  4.0000000E+04;  0.0000000E+00;  0.0000000E+00;  4.0000000E+04;  0.0000000E+00;  4.0000000E+04; -6.1175524E-04;  0.0000000E+00; -4.5130926E-04;  4.8527549E+03;
  1.1000000E-01;  9.9999998E-03; -3.6000001E-01;2159;  0.0000000E+00;  0.0000000E+00;  0.0000000E+00;  1.0023798E+03;  1.0000000E-01;  1.9715985E+03;0;  0.0000000E+00;  0.0000000E+00;  0.0000000E+00;0; -1.5535138E-03;  4.0000000E+04;  0.0000000E+00;  0.0000000E+00;  4.0000000E+04;  0.0000000E+00;  4.0000000E+04; -9.8540343E-04;  0.0000000E+00; -5.6811044E-04;  5.5550728E+03;
  1.1000000E-01;  9.9999998E-03; -3.4999999E-01;2160;  0.0000000E+00;  0.0000000E+00;  0.0000000E+00;  1.0032650E+03;  1.0000000E-01;  2.7049111E+03;0;  0.0000000E+00;  0.0000000E+00;  0.0000000E+00;0; -2.1759735E-03;  4.0000000E+04;  0.0000000E+00;  0.0000000E+00;  4.0000000E+04;  0.0000000E+00;  4.0000000E+04; -1.4894533E-03;  0.0000000E+00; -6.8652019E-04;  6.1782998E+03;
  1.1000000E-01;  9.9999998E-03; -3.4000000E-01;2161;  0.0000000E+00;  0.0000000E+00;  0.0000000E+00;  1.0043144E+03;  1.0000000E-01;  3.5744175E+03;0;  0.0000000E+00;  0.0000000E+00;  0.0000000E+00;0; -2.9326405E-03;  4.0000000E+04;  0.0000000E+00;  0.0000000E+00;  4.0000000E+04;  0.0000000E+00;  4.0000000E+04; -2.1335357E-03;  0.0000000E+00; -7.9910486E-04;  6.7565674E+03;
  1.1000000E-01;  9.9999998E-03; -3.3000001E-01;2162;  0.0000000E+00;  0.0000000E+00;  0.0000000E+00;  1.0055107E+03;  1.0000000E-01;  4.5655005E+03;0;  0.0000000E+00;  0.0000000E+00;  0.0000000E+00;0; -3.8123350E-03;  4.0000000E+04;  0.0000000E+00;  0.0000000E+00;  4.0000000E+04;  0.0000000E+00;  4.0000000E+04; -2.9165419E-03;  0.0000000E+00; -8.9579303E-04;  7.3482593E+03;
  1.1000000E-01;  9.9999998E-03; -3.1999999E-01;2163;  0.0000000E+00;  0.0000000E+00;  0.0000000E+00;  1.0067969E+03;  1.0000000E-01;  5.6311494E+03;0;  0.0000000E+00;  0.0000000E+00;  0.0000000E+00;0; -4.7881990E-03;  4.0000000E+04;  0.0000000E+00;  0.0000000E+00;  4.0000000E+04;  0.0000000E+00;  4.0000000E+04; -3.8251323E-03;  0.0000000E+00; -9.6306676E-04;  7.9954312E+03;
  1.1000000E-01;  9.9999998E-03; -3.1000000E-01;2164;  0.0000000E+00;  0.0000000E+00;  0.0000000E+00;  1.0081026E+03;  1.0000000E-01;  6.7128965E+03;0;  0.0000000E+00;  0.0000000E+00;  0.0000000E+00;0; -5.8181561E-03;  4.0000000E+04;  0.0000000E+00;  0.0000000E+00;  4.0000000E+04;  0.0000000E+00;  4.0000000E+04; -4.8343916E-03;  0.0000000E+00; -9.8376442E-04;  8.6670615E+03;
  1.2000000E-01;  9.9999998E-03; -4.4000000E-01;2181;  0.0000000E+00;  0.0000000E+00;  0.0000000E+00;  1.0000000E+03;  1.0000000E-01;  0.0000000E+00;0;  0.0000000E+00;  0.0000000E+00;  0.0000000E+00;0; -6.4111209E-06;  4.0000000E+04;  0.0000000E+00;  0.0000000E+00;  4.0000000E+04;  0.0000000E+00;  4.0000000E+04;  8.7502480E-07;  0.0000000E+00; -7.2861458E-06;  2.2330937E+02;
  1.2000000E-01;  9.9999998E-03; -4.3000001E-01;2182;  0.0000000E+00;  0.0000000E+00;  0.0000000E+00;  1.0000621E+03;  1.0000000E-01;  5.1455334E+01;0;  0.0000000E+00;  0.0000000E+00;  0.0000000E+00;0; -2.2654835E-05;  4.0000000E+04;  0.0000000E+00;  0.0000000E+00;  4.0000000E+04;  0.0000000E+00;  4.0000000E+04; -2.0099981E-06;  0.0000000E+00; -2.0644837E-05;  5.9179962E+02;
  1.2000000E-01;  9.9999998E-03; -4.1999999E-01;2183;  0.0000000E+00;  0.0000000E+00;  0.0000000E+00;  1.0001042E+03;  1.0000000E-01;  8.6318550E+01;0;  0.0000000E+00;  0.0000000E+00;  0.0000000E+00;0; -6.1447929E-05;  4.0000000E+04;  0.0000000E+00;  0.0000000E+00;  4.0000000E+04;  0.0000000E+00;  4.0000000E+04; -1.4976838E-05;  0.0000000E+00; -4.6471094E-05;  1.1857235E+03;
  1.2000000E-01;  9.9999998E-03; -4.1000000E-01;2184;  0.0000000E+00;  0.0000000E+00;  0.0000000E+00;  1.0002251E+03;  1.0000000E-01;  1.8646387E+02;0;  0.0000000E+00;  0.0000000E+00;  0.0000000E+00;0; -1.3746254E-04;  4.0000000E+04;  0.0000000E+00;  0.0000000E+00;  4.0000000E+04;  0.0000000E+00;  4.0000000E+04; -4.9028997E-05;  0.0000000E+00; -8.8433546E-05;  1.9654901E+03;
  1.2000000E-01;  9.9999998E-03; -4.0000001E-01;2185;  0.0000000E+00;  0.0000000E+00;  0.0000000E+00;  1.0004474E+03;  1.0000000E-01;  3.7065619E+02;0;  0.0000000E+00;  0.0000000E+00;  0.0000000E+00;0; -2.6746560E-04;  4.0000000E+04;  0.0000000E+00;  0.0000000E+00;  4.0000000E+04;  0.0000000E+00;  4.0000000E+04; -1.1954915E-04;  0.0000000E+00; -1.4791645E-04;  2.8524062E+03;
  1.2000000E-01;  9.9999998E-03; -3.8999999E-01;2186;  0.0000000E+00;  0.0000000E+00;  0.0000000E+00;  1.0007534E+03;  1.0000000E-01;  6.2417987E+02;0;  0.0000000E+00;  0.0000000E+00;  0.0000000E+00;0; -4.6993198E-04;  4.0000000E+04;  0.0000000E+00;  0.0000000E+00;  4.0000000E+04;  0.0000000E+00;  4.0000000E+04; -2.4599239E-04;  0.0000000E+00; -2.2393958E-04;  3.7731414E+03;
  1.2000000E-01;  9.9999998E-03; -3.8000000E-01;2187;  0.0000000E+00;  0.0000000E+00;  0.0000000E+00;  1.0012003E+03;  1.0000000E-01;  9.9434222E+02;0;  0.0000000E+00;  0.0000000E+00;  0.0000000E+00;0; -7.6465355E-04;  4.0000000E+04;  0.0000000E+00;  0.0000000E+00;  4.0000000E+04;  0.0000000E+00;  4.0000000E+04; -4.5089333E-04;  0.0000000E+00; -3.1376025E-04;  4.6922876E+03;
  1.2000000E-01;  9.9999998E-03; -3.7000000E-01;2188;  0.0000000E+00;  0.0000000E+00;  0.0000000E+00;  1.0018031E+03;  1.0000000E-01;  1.4938837E+03;0;  0.0000000E+00;  0.0000000E+00;  0.0000000E+00;0; -1.1714123E-03;  4.0000000E+04;  0.0000000E+00;  0.0000000E+00;  4.0000000E+04;  0.0000000E+00;  4.0000000E+04; -7.5789529E-04;  0.0000000E+00; -4.1351697E-04;  5.6291440E+03;
  1.2000000E-01;  9.9999998E-03; -3.6000001E-01;2189;  0.0000000E+00;  0.0000000E+00;  0.0000000E+00;  1.0025653E+03;  1.0000000E-01;  2.1252732E+03;0;  0.0000000E+00;  0.0000000E+00;  0.0000000E+00;0; -1.7072575E-03;  4.0000000E+04;  0.0000000E+00;  0.0000000E+00;  4.0000000E+04;  0.0000000E+00;  4.0000000E+04; -1.1887327E-03;  0.0000000E+00; -5.1852479E-04;  6.6639351E+03;
  1.2000000E-01;  9.9999998E-03; -3.4999999E-01;2190;  0.0000000E+00;  0.0000000E+00;  0.0000000E+00;  1.0035197E+03;  1.0000000E-01;  2.9160657E+03;0;  0.0000000E+00;  0.0000000E+00;  0.0000000E+00;0; -2.3825255E-03;  4.0000000E+04;  0.0000000E+00;  0.0000000E+00;  4.0000000E+04;  0.0000000E+00;  4.0000000E+04; -1.7594112E-03;  0.0000000E+00; -6.2311435E-04;  7.9222871E+03;
  1.2000000E-01;  9.9999998E-03; -3.4000000E-01;2191;  0.0000000E+00;  0.0000000E+00;  0.0000000E+00;  1.0046442E+03;  1.0000000E-01;  3.8475950E+03;0;  0.0000000E+00;  0.0000000E+00;  0.0000000E+00;0; -3.1964744E-03;  4.0000000E+04;  0.0000000E+00;  0.0000000E+00;  4.0000000E+04;  0.0000000E+00;  4.0000000E+04; -2.4763949E-03;  0.0000000E+00; -7.2007958E-04;  9.5153438E+03;
  1.2000000E-01;  9.9999998E-03; -3.3000001E-01;2192;  0.0000000E+00;  0.0000000E+00;  0.0000000E+00;  1.0059077E+03;  1.0000000E-01;  4.8943799E+03;0;  0.0000000E+00;  0.0000000E+00;  0.0000000E+00;0; -4.1337758E-03;  4.0000000E+04;  0.0000000E+00;  0.0000000E+00;  4.0000000E+04;  0.0000000E+00;  4.0000000E+04; -3.3338058E-03;  0.0000000E+00; -7.9997018E-04;  1.1442799E+04;
  1.2000000E-01;  9.9999998E-03; -3.1999999E-01;2193;  0.0000000E+00;  0.0000000E+00;  0.0000000E+00;  1.0072537E+03;  1.0000000E-01;  6.0096079E+03;0;  0.0000000E+00;  0.0000000E+00;  0.0000000E+00;0; -5.1630368E-03;  4.0000000E+04;  0.0000000E+00;  0.0000000E+00;  4.0000000E+04;  0.0000000E+00;  4.0000000E+04; -4.3124110E-03;  0.0000000E+00; -8.5062574E-04;  1.3517125E+04;
  1.2000000E-01;  9.9999998E-03; -3.1000000E-01;2194;  0.0000000E+00;  0.0000000E+00;  0.0000000E+00;  1.0086015E+03;  1.0000000E-01;  7.1262183E+03;0;  0.0000000E+00;  0.0000000E+00;  0.0000000E+00;0; -6.2383143E-03;  4.0000000E+04;  0.0000000E+00;  0.0000000E+00;  4.0000000E+04;  0.0000000E+00;  4.0000000E+04; -5.3807679E-03;  0.0000000E+00; -8.5754634E-04;  1.5370384E+04;
  1.3000000E-01;  9.9999998E-03; -4.4000000E-01;2211;  0.0000000E+00;  0.0000000E+00;  0.0000000E+00;  1.0000000E+03;  1.0000000E-01;  0.0000000E+00;0;  0.0000000E+00;  0.0000000E+00;  0.0000000E+00;0; -6.8326190E-06;  4.0000000E+04;  0.0000000E+00;  0.0000000E+00;  4.0000000E+04;  0.0000000E+00;  4.0000000E+04; -1.5098053E-06;  0.0000000E+00; -5.3228136E-06;  3.5174637E+02;
  1.3000000E-01;  9.9999998E-03; -4.3000001E-01;2212;  0.0000000E+00;  0.0000000E+00;  0.0000000E+00;  1.0000629E+03;  1.0000000E-01;  5.2146675E+01;0;  0.0000000E+00;  0.0000000E+00;  0.0000000E+00;0; -2.5678915E-05;  4.0000000E+04;  0.0000000E+00;  0.0000000E+00;  4.0000000E+04;  0.0000000E+00;  4.0000000E+04; -9.3275703E-06;  0.0000000E+00; -1.6351345E-05;  8.5932532E+02;
  1.3000000E-01;  9.9999998E-03; -4.1999999E-01;2213;  0.0000000E+00;  0.0000000E+00;  0.0000000E+00;  1.0001001E+03;  1.0000000E-01;  8.2960617E+01;0;  0.0000000E+00;  0.0000000E+00;  0.0000000E+00;0; -7.0659604E-05;  4.0000000E+04;  0.0000000E+00;  0.0000000E+00;  4.0000000E+04;  0.0000000E+00;  4.0000000E+04; -3.2013952E-05;  0.0000000E+00; -3.8645656E-05;  1.6026672E+03;
  1.3000000E-01;  9.9999998E-03; -4.1000000E-01;2214;  0.0000000E+00;  0.0000000E+00;  0.0000000E+00;  1.0002534E+03;  1.0000000E-01;  2.0987061E+02;0;  0.0000000E+00;  0.0000000E+00;  0.0000000E+00;0; -1.5830147E-04;  4.0000000E+04;  0.0000000E+00;  0.0000000E+00;  4.0000000E+04;  0.0000000E+00;  4.0000000E+04; -8.2552448E-05;  0.0000000E+00; -7.5749020E-05;  2.4875786E+03;
  1.3000000E-01;  9.9999998E-03; -4.0000001E-01;2215;  0.0000000E+00;  0.0000000E+00;  0.0000000E+00;  1.0004830E+03;  1.0000000E-01;  4.0018622E+02;0;  0.0000000E+00;  0.0000000E+00;  0.0000000E+00;0; -3.0740246E-04;  4.0000000E+04;  0.0000000E+00;  0.0000000E+00;  4.0000000E+04;  0.0000000E+00;  4.0000000E+04; -1.7844612E-04;  0.0000000E+00; -1.2895635E-04;  3.4005847E+03;
  1.3000000E-01;  9.9999998E-03; -3.8999999E-01;2216;  0.0000000E+00;  0.0000000E+00;  0.0000000E+00;  1.0008323E+03;  1.0000000E-01;  6.8956073E+02;0;  0.0000000E+00;  0.0000000E+00;  0.0000000E+00;0; -5.3846464E-04;  4.0000000E+04;  0.0000000E+00;  0.0000000E+00;  4.0000000E+04;  0.0000000E+00;  4.0000000E+04; -3.4138342E-04;  0.0000000E+00; -1.9708124E-04;  4.2877637E+03;
  1.3000000E-01;  9.9999998E-03; -3.8000000E-01;2217;  0.0000000E+00;  0.0000000E+00;  0.0000000E+00;  1.0013308E+03;  1.0000000E-01;  1.1025861E+03;0;  0.0000000E+00;  0.0000000E+00;  0.0000000E+00;0; -8.7303831E-04;  4.0000000E+04;  0.0000000E+00;  0.0000000E+00;  4.0000000E+04;  0.0000000E+00;  4.0000000E+04; -5.9588492E-04;  0.0000000E+00; -2.7715342E-04;  5.2187866E+03;
  1.3000000E-01;  9.9999998E-03; -3.7000000E-01;2218;  0.0000000E+00;  0.0000000E+00;  0.0000000E+00;  1.0019970E+03;  1.0000000E-01;  1.6544717E+03;0;  0.0000000E+00;  0.0000000E+00;  0.0000000E+00;0; -1.3319023E-03;  4.0000000E+04;  0.0000000E+00;  0.0000000E+00;  4.0000000E+04;  0.0000000E+00;  4.0000000E+04; -9.6678379E-04;  0.0000000E+00; -3.6511861E-04;  6.4146680E+03;
  1.3000000E-01;  9.9999998E-03; -3.6000001E-01;2219;  0.0000000E+00;  0.0000000E+00;  0.0000000E+00;  1.0028523E+03;  1.0000000E-01;  2.3630938E+03;0;  0.0000000E+00;  0.0000000E+00;  0.0000000E+00;0; -1.9317261E-03;  4.0000000E+04;  0.0000000E+00;  0.0000000E+00;  4.0000000E+04;  0.0000000E+00;  4.0000000E+04; -1.4755391E-03;  0.0000000E+00; -4.5618703E-04;  8.1847256E+03;
  1.3000000E-01;  9.9999998E-03; -3.4999999E-01;2220;  0.0000000E+00;  0.0000000E+00;  0.0000000E+00;  1.0038950E+03;  1.0000000E-01;  3.2268716E+03;0;  0.0000000E+00;  0.0000000E+00;  0.0000000E+00;0; -2.6805571E-03;  4.0000000E+04;  0.0000000E+00;  0.0000000E+00;  4.0000000E+04;  0.0000000E+00;  4.0000000E+04; -2.1358258E-03;  0.0000000E+00; -5.4473133E-04;  1.0757525E+04;
  1.3000000E-01;  9.9999998E-03; -3.4000000E-01;2221;  0.0000000E+00;  0.0000000E+00;  0.0000000E+00;  1.0051178E+03;  1.0000000E-01;  4.2399790E+03;0;  0.0000000E+00;  0.0000000E+00;  0.0000000E+00;0; -3.5732682E-03;  4.0000000E+04;  0.0000000E+00;  0.0000000E+00;  4.0000000E+04;  0.0000000E+00;  4.0000000E+04; -2.9494597E-03;  0.0000000E+00; -6.2380842E-04;  1.4129537E+04;
  1.3000000E-01;  9.9999998E-03; -3.3000001E-01;2222;  0.0000000E+00;  0.0000000E+00;  0.0000000E+00;  1.0064810E+03;  1.0000000E-01;  5.3694282E+03;0;  0.0000000E+00;  0.0000000E+00;  0.0000000E+00;0; -4.5884522E-03;  4.0000000E+04;  0.0000000E+00;  0.0000000E+00;  4.0000000E+04;  0.0000000E+00;  4.0000000E+04; -3.9038188E-03;  0.0000000E+00; -6.8463344E-04;  1.8017354E+04;
  1.3000000E-01;  9.9999998E-03; -3.1999999E-01;2223;  0.0000000E+00;  0.0000000E+00;  0.0000000E+00;  1.0079066E+03;  1.0000000E-01;  6.5504321E+03;0;  0.0000000E+00;  0.0000000E+00;  0.0000000E+00;0; -5.6880936E-03;  4.0000000E+04;  0.0000000E+00;  0.0000000E+00;  4.0000000E+04;  0.0000000E+00;  4.0000000E+04; -4.9715973E-03;  0.0000000E+00; -7.1649632E-04;  2.1873766E+04;
  1.3000000E-01;  9.9999998E-03; -3.1000000E-01;2224;  0.0000000E+00;  0.0000000E+00;  0.0000000E+00;  1.0093140E+03;  1.0000000E-01;  7.7164238E+03;0;  0.0000000E+00;  0.0000000E+00;  0.0000000E+00;0; -6.8207644E-03;  4.0000000E+04;  0.0000000E+00;  0.0000000E+00;  4.0000000E+04;  0.0000000E+00;  4.0000000E+04; -6.1128186E-03;  0.0000000E+00; -7.0794596E-04;  2.4969104E+04;
  1.4000000E-01;  9.9999998E-03; -4.4000000E-01;2241;  0.0000000E+00;  0.0000000E+00;  0.0000000E+00;  1.0000000E+03;  1.0000000E-01;  0.0000000E+00;0;  0.0000000E+00;  0.0000000E+00;  0.0000000E+00;0; -8.1175876E-06;  4.0000000E+04;  0.0000000E+00;  0.0000000E+00;  4.0000000E+04;  0.0000000E+00;  4.0000000E+04; -5.1520592E-06;  0.0000000E+00; -2.9655280E-06;  5.8581909E+02;
  1.4000000E-01;  9.9999998E-03; -4.3000001E-01;2242;  0.0000000E+00;  0.0000000E+00;  0.0000000E+00;  1.0000658E+03;  1.0000000E-01;  5.4516975E+01;0;  0.0000000E+00;  0.0000000E+00;  0.0000000E+00;0; -3.0886258E-05;  4.0000000E+04;  0.0000000E+00;  0.0000000E+00;  4.0000000E+04;  0.0000000E+00;  4.0000000E+04; -1.9889942E-05;  0.0000000E+00; -1.0996315E-05;  1.3465355E+03;
  1.4000000E-01;  9.9999998E-03; -4.1999999E-01;2243;  0.0000000E+00;  0.0000000E+00;  0.0000000E+00;  1.0001072E+03;  1.0000000E-01;  8.8886375E+01;0;  0.0000000E+00;  0.0000000E+00;  0.0000000E+00;0; -8.4484782E-05;  4.0000000E+04;  0.0000000E+00;  0.0000000E+00;  4.0000000E+04;  0.0000000E+00;  4.0000000E+04; -5.5648205E-05;  0.0000000E+00; -2.8836575E-05;  2.3446523E+03;
  1.4000000E-01;  9.9999998E-03; -4.1000000E-01;2244;  0.0000000E+00;  0.0000000E+00;  0.0000000E+00;  1.0002935E+03;  1.0000000E-01;  2.4315361E+02;0;  0.0000000E+00;  0.0000000E+00;  0.0000000E+00;0; -1.8774957E-04;  4.0000000E+04;  0.0000000E+00;  0.0000000E+00;  4.0000000E+04;  0.0000000E+00;  4.0000000E+04; -1.2774246E-04;  0.0000000E+00; -6.0007111E-05;  3.3606135E+03;
  1.4000000E-01;  9.9999998E-03; -4.0000001E-01;2245;  0.0000000E+00;  0.0000000E+00;  0.0000000E+00;  1.0005340E+03;  1.0000000E-01;  4.4235785E+02;0;  0.0000000E+00;  0.0000000E+00;  0.0000000E+00;0; -3.6198023E-04;  4.0000000E+04;  0.0000000E+00;  0.0000000E+00;  4.0000000E+04;  0.0000000E+00;  4.0000000E+04; -2.5625451E-04;  0.0000000E+00; -1.0572570E-04;  4.1885337E+03;
  1.4000000E-01;  9.9999998E-03; -3.8999999E-01;2246;  0.0000000E+00;  0.0000000E+00;  0.0000000E+00;  1.0009589E+03;  1.0000000E-01;  7.9444666E+02;0;  0.0000000E+00;  0.0000000E+00;  0.0000000E+00;0; -6.3017325E-04;  4.0000000E+04;  0.0000000E+00;  0.0000000E+00;  4.0000000E+04;  0.0000000E+00;  4.0000000E+04; -4.6549266E-04;  0.0000000E+00; -1.6468058E-04;  4.8088521E+03;
  1.4000000E-01;  9.9999998E-03; -3.8000000E-01;2247;  0.0000000E+00;  0.0000000E+00;  0.0000000E+00;  1.0015151E+03;  1.0000000E-01;  1.2551743E+03;0;  0.0000000E+00;  0.0000000E+00;  0.0000000E+00;0; -1.0159507E-03;  4.0000000E+04;  0.0000000E+00;  0.0000000E+00;  4.0000000E+04;  0.0000000E+00;  4.0000000E+04; -7.8224199E-04;  0.0000000E+00; -2.3370868E-04;  5.5876265E+03;
  1.4000000E-01;  9.9999998E-03; -3.7000000E-01;2248;  0.0000000E+00;  0.0000000E+00;  0.0000000E+00;  1.0022634E+03;  1.0000000E-01;  1.8752062E+03;0;  0.0000000E+00;  0.0000000E+00;  0.0000000E+00;0; -1.5410915E-03;  4.0000000E+04;  0.0000000E+00;  0.0000000E+00;  4.0000000E+04;  0.0000000E+00;  4.0000000E+04; -1.2324649E-03;  0.0000000E+00; -3.0862656E-04;  7.2919380E+03;
  1.4000000E-01;  9.9999998E-03; -3.6000001E-01;2249;  0.0000000E+00;  0.0000000E+00;  0.0000000E+00;  1.0032211E+03;  1.0000000E-01;  2.6686653E+03;0;  0.0000000E+00;  0.0000000E+00;  0.0000000E+00;0; -2.2213731E-03;  4.0000000E+04;  0.0000000E+00;  0.0000000E+00;  4.0000000E+04;  0.0000000E+00;  4.0000000E+04; -1.8367174E-03;  0.0000000E+00; -3.8465572E-04;  1.0525154E+04;
  1.4000000E-01;  9.9999998E-03; -3.4999999E-01;2250;  0.0000000E+00;  0.0000000E+00;  0.0000000E+00;  1.0043891E+03;  1.0000000E-01;  3.6362429E+03;0;  0.0000000E+00;  0.0000000E+00;  0.0000000E+00;0; -3.0613595E-03;  4.0000000E+04;  0.0000000E+00;  0.0000000E+00;  4.0000000E+04;  0.0000000E+00;  4.0000000E+04; -2.6050098E-03;  0.0000000E+00; -4.5634978E-04;  1.5301540E+04;
  1.4000000E-01;  9.9999998E-03; -3.4000000E-01;2251;  0.0000000E+00;  0.0000000E+00;  0.0000000E+00;  1.0057377E+03;  1.0000000E-01;  4.7536436E+03;0;  0.0000000E+00;  0.0000000E+00;  0.0000000E+00;0; -4.0496783E-03;  4.0000000E+04;  0.0000000E+00;  0.0000000E+00;  4.0000000E+04;  0.0000000E+00;  4.0000000E+04; -3.5324648E-03;  0.0000000E+00; -5.1721331E-04;  2.1226244E+04;
  1.4000000E-01;  9.9999998E-03; -3.3000001E-01;2252;  0.0000000E+00;  0.0000000E+00;  0.0000000E+00;  1.0072106E+03;  1.0000000E-01;  5.9738560E+03;0;  0.0000000E+00;  0.0000000E+00;  0.0000000E+00;0; -5.1565063E-03;  4.0000000E+04;  0.0000000E+00;  0.0000000E+00;  4.0000000E+04;  0.0000000E+00;  4.0000000E+04; -4.5971903E-03;  0.0000000E+00; -5.5931613E-04;  2.7610082E+04;
  1.4000000E-01;  9.9999998E-03; -3.1999999E-01;2253;  0.0000000E+00;  0.0000000E+00;  0.0000000E+00;  1.0087332E+03;  1.0000000E-01;  7.2353511E+03;0;  0.0000000E+00;  0.0000000E+00;  0.0000000E+00;0; -6.3345726E-03;  4.0000000E+04;  0.0000000E+00;  0.0000000E+00;  4.0000000E+04;  0.0000000E+00;  4.0000000E+04; -5.7611386E-03;  0.0000000E+00; -5.7343399E-04;  3.3483379E+04;
  1.4000000E-01;  9.9999998E-03; -3.1000000E-01;2254;  0.0000000E+00;  0.0000000E+00;  0.0000000E+00;  1.0102035E+03;  1.0000000E-01;  8.4533906E+03;0;  0.0000000E+00;  0.0000000E+00;  0.0000000E+00;0; -7.5244079E-03;  4.0000000E+04;  0.0000000E+00;  0.0000000E+00;  4.0000000E+04;  0.0000000E+00;  4.0000000E+04; -6.9737574E-03;  0.0000000E+00; -5.5065041E-04;  3.7717848E+04;
  1.5000001E-01;  9.9999998E-03; -4.4000000E-01;2271;  0.0000000E+00;  0.0000000E+00;  0.0000000E+00;  1.0000000E+03;  1.0000000E-01;  0.0000000E+00;0;  0.0000000E+00;  0.0000000E+00;  0.0000000E+00;0; -1.0320350E-05;  4.0000000E+04;  0.0000000E+00;  0.0000000E+00;  4.0000000E+04;  0.0000000E+00;  4.0000000E+04; -9.9592935E-06;  0.0000000E+00; -3.6105664E-07;  1.0011300E+03;
  1.5000001E-01;  9.9999998E-03; -4.3000001E-01;2272;  0.0000000E+00;  0.0000000E+00;  0.0000000E+00;  1.0000737E+03;  1.0000000E-01;  6.1035313E+01;0;  0.0000000E+00;  0.0000000E+00;  0.0000000E+00;0; -3.8223970E-05;  4.0000000E+04;  0.0000000E+00;  0.0000000E+00;  4.0000000E+04;  0.0000000E+00;  4.0000000E+04; -3.3311997E-05;  0.0000000E+00; -4.9119731E-06;  2.2131692E+03;
  1.5000001E-01;  9.9999998E-03; -4.1999999E-01;2273;  0.0000000E+00;  0.0000000E+00;  0.0000000E+00;  1.0001195E+03;  1.0000000E-01;  9.8960167E+01;0;  0.0000000E+00;  0.0000000E+00;  0.0000000E+00;0; -1.0250697E-04;  4.0000000E+04;  0.0000000E+00;  0.0000000E+00;  4.0000000E+04;  0.0000000E+00;  4.0000000E+04; -8.4849904E-05;  0.0000000E+00; -1.7657065E-05;  3.6662266E+03;
  1.5000001E-01;  9.9999998E-03; -4.1000000E-01;2274;  0.0000000E+00;  0.0000000E+00;  0.0000000E+00;  1.0003325E+03;  1.0000000E-01;  2.7544901E+02;0;  0.0000000E+00;  0.0000000E+00;  0.0000000E+00;0; -2.2458070E-04;  4.0000000E+04;  0.0000000E+00;  0.0000000E+00;  4.0000000E+04;  0.0000000E+00;  4.0000000E+04; -1.8239554E-04;  0.0000000E+00; -4.2185162E-05;  4.9098877E+03;
  1.5000001E-01;  9.9999998E-03; -4.0000001E-01;2275;  0.0000000E+00;  0.0000000E+00;  0.0000000E+00;  1.0006345E+03;  1.0000000E-01;  5.2571350E+02;0;  0.0000000E+00;  0.0000000E+00;  0.0000000E+00;0; -4.2853554E-04;  4.0000000E+04;  0.0000000E+00;  0.0000000E+00;  4.0000000E+04;  0.0000000E+00;  4.0000000E+04; -3.4885103E-04;  0.0000000E+00; -7.9684505E-05;  5.5332373E+03;
  1.5000001E-01;  9.9999998E-03; -3.8999999E-01;2276;  0.0000000E+00;  0.0000000E+00;  0.0000000E+00;  1.0011104E+03;  1.0000000E-01;  9.1997400E+02;0;  0.0000000E+00;  0.0000000E+00;  0.0000000E+00;0; -7.4014679E-04;  4.0000000E+04;  0.0000000E+00;  0.0000000E+00;  4.0000000E+04;  0.0000000E+00;  4.0000000E+04; -6.1143917E-04;  0.0000000E+00; -1.2870762E-04;  5.4877622E+03;
  1.5000001E-01;  9.9999998E-03; -3.8000000E-01;2277;  0.0000000E+00;  0.0000000E+00;  0.0000000E+00;  1.0017416E+03;  1.0000000E-01;  1.4428234E+03;0;  0.0000000E+00;  0.0000000E+00;  0.0000000E+00;0; -1.1853053E-03;  4.0000000E+04;  0.0000000E+00;  0.0000000E+00;  4.0000000E+04;  0.0000000E+00;  4.0000000E+04; -9.9931494E-04;  0.0000000E+00; -1.8599036E-04;  5.7521289E+03;
  1.5000001E-01;  9.9999998E-03; -3.7000000E-01;2278;  0.0000000E+00;  0.0000000E+00;  0.0000000E+00;  1.0025964E+03;  1.0000000E-01;  2.1510503E+03;0;  0.0000000E+00;  0.0000000E+00;  0.0000000E+00;0; -1.7866626E-03;  4.0000000E+04;  0.0000000E+00;  0.0000000E+00;  4.0000000E+04;  0.0000000E+00;  4.0000000E+04; -1.5393071E-03;  0.0000000E+00; -2.4735558E-04;  8.4444766E+03;
  1.5000001E-01;  9.9999998E-03; -3.6000001E-01;2279;  0.0000000E+00;  0.0000000E+00;  0.0000000E+00;  1.0036830E+03;  1.0000000E-01;  3.0512717E+03;0;  0.0000000E+00;  0.0000000E+00;  0.0000000E+00;0; -2.5584465E-03;  4.0000000E+04;  0.0000000E+00;  0.0000000E+00;  4.0000000E+04;  0.0000000E+00;  4.0000000E+04; -2.2502716E-03;  0.0000000E+00; -3.0817499E-04;  1.4132058E+04;
  1.5000001E-01;  9.9999998E-03; -3.4999999E-01;2280;  0.0000000E+00;  0.0000000E+00;  0.0000000E+00;  1.0049910E+03;  1.0000000E-01;  4.1349941E+03;0;  0.0000000E+00;  0.0000000E+00;  0.0000000E+00;0; -3.5004448E-03;  4.0000000E+04;  0.0000000E+00;  0.0000000E+00;  4.0000000E+04;  0.0000000E+00;  4.0000000E+04; -3.1370674E-03;  0.0000000E+00; -3.6337733E-04;  2.2032408E+04;
  1.5000001E-01;  9.9999998E-03; -3.4000000E-01;2281;  0.0000000E+00;  0.0000000E+00;  0.0000000E+00;  1.0064666E+03;  1.0000000E-01;  5.3574780E+03;0;  0.0000000E+00;  0.0000000E+00;  0.0000000E+00;0; -4.5931623E-03;  4.0000000E+04;  0.0000000E+00;  0.0000000E+00;  4.0000000E+04;  0.0000000E+00;  4.0000000E+04; -4.1859932E-03;  0.0000000E+00; -4.0716922E-04;  3.1240070E+04;
  1.5000001E-01;  9.9999998E-03; -3.3000001E-01;2282;  0.0000000E+00;  0.0000000E+00;  0.0000000E+00;  1.0080630E+03;  1.0000000E-01;  6.6800088E+03;0;  0.0000000E+00;  0.0000000E+00;  0.0000000E+00;0; -5.7962495E-03;  4.0000000E+04;  0.0000000E+00;  0.0000000E+00;  4.0000000E+04;  0.0000000E+00;  4.0000000E+04; -5.3634658E-03;  0.0000000E+00; -4.3278383E-04;  4.0595367E+04;
  1.5000001E-01;  9.9999998E-03; -3.1999999E-01;2283;  0.0000000E+00;  0.0000000E+00;  0.0000000E+00;  1.0096738E+03;  1.0000000E-01;  8.0145884E+03;0;  0.0000000E+00;  0.0000000E+00;  0.0000000E+00;0; -7.0509873E-03;  4.0000000E+04;  0.0000000E+00;  0.0000000E+00;  4.0000000E+04;  0.0000000E+00;  4.0000000E+04; -6.6183177E-03;  0.0000000E+00; -4.3266965E-04;  4.8611832E+04;
  1.5000001E-01;  9.9999998E-03; -3.1000000E-01;2284;  0.0000000E+00;  0.0000000E+00;  0.0000000E+00;  1.0111978E+03;  1.0000000E-01;  9.2771699E+03;0;  0.0000000E+00;  0.0000000E+00;  0.0000000E+00;0; -8.2874093E-03;  4.0000000E+04;  0.0000000E+00;  0.0000000E+00;  4.0000000E+04;  0.0000000E+00;  4.0000000E+04; -7.8877052E-03;  0.0000000E+00; -3.9970365E-04;  5.3700723E+04;
  1.6000000E-01;  9.9999998E-03; -4.4000000E-01;2301;  0.0000000E+00;  0.0000000E+00;  0.0000000E+00;  1.0000000E+03;  1.0000000E-01;  0.0000000E+00;0;  0.0000000E+00;  0.0000000E+00;  0.0000000E+00;0; -1.3196861E-05;  4.0000000E+04;  0.0000000E+00;  0.0000000E+00;  4.0000000E+04;  0.0000000E+00;  4.0000000E+04; -1.5596415E-05;  0.0000000E+00;  2.3995547E-06;  1.6857628E+03;
  1.6000000E-01;  9.9999998E-03; -4.3000001E-01;2302;  0.0000000E+00;  0.0000000E+00;  0.0000000E+00;  1.0000867E+03;  1.0000000E-01;  7.1800438E+01;0;  0.0000000E+00;  0.0000000E+00;  0.0000000E+00;0; -4.7024248E-05;  4.0000000E+04;  0.0000000E+00;  0.0000000E+00;  4.0000000E+04;  0.0000000E+00;  4.0000000E+04; -4.8574282E-05;  0.0000000E+00;  1.5500333E-06;  3.6272664E+03;
  1.6000000E-01;  9.9999998E-03; -4.1999999E-01;2303;  0.0000000E+00;  0.0000000E+00;  0.0000000E+00;  1.0001569E+03;  1.0000000E-01;  1.2997163E+02;0;  0.0000000E+00;  0.0000000E+00;  0.0000000E+00;0; -1.2311626E-04;  4.0000000E+04;  0.0000000E+00;  0.0000000E+00;  4.0000000E+04;  0.0000000E+00;  4.0000000E+04; -1.1722854E-04;  0.0000000E+00; -5.8877126E-06;  5.8131226E+03;
  1.6000000E-01;  9.9999998E-03; -4.1000000E-01;2304;  0.0000000E+00;  0.0000000E+00;  0.0000000E+00;  1.0003960E+03;  1.0000000E-01;  3.2808948E+02;0;  0.0000000E+00;  0.0000000E+00;  0.0000000E+00;0; -2.6539474E-04;  4.0000000E+04;  0.0000000E+00;  0.0000000E+00;  4.0000000E+04;  0.0000000E+00;  4.0000000E+04; -2.4179037E-04;  0.0000000E+00; -2.3604358E-05;  7.4439248E+03;
  1.6000000E-01;  9.9999998E-03; -4.0000001E-01;2305;  0.0000000E+00;  0.0000000E+00;  0.0000000E+00;  1.0007556E+03;  1.0000000E-01;  6.2595758E+02;0;  0.0000000E+00;  0.0000000E+00;  0.0000000E+00;0; -5.0070073E-04;  4.0000000E+04;  0.0000000E+00;  0.0000000E+00;  4.0000000E+04;  0.0000000E+00;  4.0000000E+04; -4.4795268E-04;  0.0000000E+00; -5.2748037E-05;  7.7876753E+03;
  1.6000000E-01;  9.9999998E-03; -3.8999999E-01;2306;  0.0000000E+00;  0.0000000E+00;  0.0000000E+00;  1.0012836E+03;  1.0000000E-01;  1.0633773E+03;0;  0.0000000E+00;  0.0000000E+00;  0.0000000E+00;0; -8.5762620E-04;  4.0000000E+04;  0.0000000E+00;  0.0000000E+00;  4.0000000E+04;  0.0000000E+00;  4.0000000E+04; -7.6589052E-04;  0.0000000E+00; -9.1735659E-05;  6.6088901E+03;
  1.6000000E-01;  9.9999998E-03; -3.8000000E-01;2307;  0.0000000E+00;  0.0000000E+00;  0.0000000E+00;  1.0020020E+03;  1.0000000E-01;  1.6586198E+03;0;  0.0000000E+00;  0.0000000E+00;  0.0000000E+00;0; -1.3643408E-03;  4.0000000E+04;  0.0000000E+00;  0.0000000E+00;  4.0000000E+04;  0.0000000E+00;  4.0000000E+04; -1.2271033E-03;  0.0000000E+00; -1.3723748E-04;  5.6869634E+03;
  1.6000000E-01;  9.9999998E-03; -3.7000000E-01;2308;  0.0000000E+00;  0.0000000E+00;  0.0000000E+00;  1.0029662E+03;  1.0000000E-01;  2.4575107E+03;0;  0.0000000E+00;  0.0000000E+00;  0.0000000E+00;0; -2.0441536E-03;  4.0000000E+04;  0.0000000E+00;  0.0000000E+00;  4.0000000E+04;  0.0000000E+00;  4.0000000E+04; -1.8589665E-03;  0.0000000E+00; -1.8518713E-04;  1.0081834E+04;
  1.6000000E-01;  9.9999998E-03; -3.6000001E-01;2309;  0.0000000E+00;  0.0000000E+00;  0.0000000E+00;  1.0041841E+03;  1.0000000E-01;  3.4664700E+03;0;  0.0000000E+00;  0.0000000E+00;  0.0000000E+00;0; -2.9090985E-03;  4.0000000E+04;  0.0000000E+00;  0.0000000E+00;  4.0000000E+04;  0.0000000E+00;  4.0000000E+04; -2.6778323E-03;  0.0000000E+00; -2.3126624E-04;  1.9244576E+04;
  1.6000000E-01;  9.9999998E-03; -3.4999999E-01;2310;  0.0000000E+00;  0.0000000E+00;  0.0000000E+00;  1.0056218E+03;  1.0000000E-01;  4.6575474E+03;0;  0.0000000E+00;  0.0000000E+00;  0.0000000E+00;0; -3.9531114E-03;  4.0000000E+04;  0.0000000E+00;  0.0000000E+00;  4.0000000E+04;  0.0000000E+00;  4.0000000E+04; -3.6821819E-03;  0.0000000E+00; -2.7092957E-04;  3.1113467E+04;
  1.6000000E-01;  9.9999998E-03; -3.4000000E-01;2311;  0.0000000E+00;  0.0000000E+00;  0.0000000E+00;  1.0072404E+03;  1.0000000E-01;  5.9985464E+03;0;  0.0000000E+00;  0.0000000E+00;  0.0000000E+00;0; -5.1473565E-03;  4.0000000E+04;  0.0000000E+00;  0.0000000E+00;  4.0000000E+04;  0.0000000E+00;  4.0000000E+04; -4.8481175E-03;  0.0000000E+00; -2.9923924E-04;  4.4288402E+04;
  1.6000000E-01;  9.9999998E-03; -3.3000001E-01;2312;  0.0000000E+00;  0.0000000E+00;  0.0000000E+00;  1.0089470E+03;  1.0000000E-01;  7.4124321E+03;0;  0.0000000E+00;  0.0000000E+00;  0.0000000E+00;0; -6.4397552E-03;  4.0000000E+04;  0.0000000E+00;  0.0000000E+00;  4.0000000E+04;  0.0000000E+00;  4.0000000E+04; -6.1289724E-03;  0.0000000E+00; -3.1078269E-04;  5.7045598E+04;
  1.6000000E-01;  9.9999998E-03; -3.1999999E-01;2313;  0.0000000E+00;  0.0000000E+00;  0.0000000E+00;  1.0106423E+03;  1.0000000E-01;  8.8169355E+03;0;  0.0000000E+00;  0.0000000E+00;  0.0000000E+00;0; -7.7594472E-03;  4.0000000E+04;  0.0000000E+00;  0.0000000E+00;  4.0000000E+04;  0.0000000E+00;  4.0000000E+04; -7.4595842E-03;  0.0000000E+00; -2.9986320E-04;  6.7260938E+04;
  1.6000000E-01;  9.9999998E-03; -3.1000000E-01;2314;  0.0000000E+00;  0.0000000E+00;  0.0000000E+00;  1.0121901E+03;  1.0000000E-01;  1.0099270E+04;0;  0.0000000E+00;  0.0000000E+00;  0.0000000E+00;0; -9.0253800E-03;  4.0000000E+04;  0.0000000E+00;  0.0000000E+00;  4.0000000E+04;  0.0000000E+00;  4.0000000E+04; -8.7643946E-03;  0.0000000E+00; -2.6098549E-04;  7.2812836E+04;
  1.7000000E-01;  9.9999998E-03; -4.4000000E-01;2331;  0.0000000E+00;  0.0000000E+00;  0.0000000E+00;  1.0000000E+03;  1.0000000E-01;  0.0000000E+00;0;  0.0000000E+00;  0.0000000E+00;  0.0000000E+00;0; -1.6128068E-05;  4.0000000E+04;  0.0000000E+00;  0.0000000E+00;  4.0000000E+04;  0.0000000E+00;  4.0000000E+04; -2.1420383E-05;  0.0000000E+00;  5.2923151E-06;  2.7344336E+03;
  1.7000000E-01;  9.9999998E-03; -4.3000001E-01;2332;  0.0000000E+00;  0.0000000E+00;  0.0000000E+00;  1.0000942E+03;  1.0000000E-01;  7.8022484E+01;0;  0.0000000E+00;  0.0000000E+00;  0.0000000E+00;0; -5.5797689E-05;  4.0000000E+04;  0.0000000E+00;  0.0000000E+00;  4.0000000E+04;  0.0000000E+00;  4.0000000E+04; -6.3869003E-05;  0.0000000E+00;  8.0713125E-06;  5.7432251E+03;
  1.7000000E-01;  9.9999998E-03; -4.1999999E-01;2333;  0.0000000E+00;  0.0000000E+00;  0.0000000E+00;  1.0002234E+03;  1.0000000E-01;  1.8508119E+02;0;  0.0000000E+00;  0.0000000E+00;  0.0000000E+00;0; -1.4313887E-04;  4.0000000E+04;  0.0000000E+00;  0.0000000E+00;  4.0000000E+04;  0.0000000E+00;  4.0000000E+04; -1.4877191E-04;  0.0000000E+00;  5.6330405E-06;  8.9675400E+03;
  1.7000000E-01;  9.9999998E-03; -4.1000000E-01;2334;  0.0000000E+00;  0.0000000E+00;  0.0000000E+00;  1.0004537E+03;  1.0000000E-01;  3.7589059E+02;0;  0.0000000E+00;  0.0000000E+00;  0.0000000E+00;0; -3.0408826E-04;  4.0000000E+04;  0.0000000E+00;  0.0000000E+00;  4.0000000E+04;  0.0000000E+00;  4.0000000E+04; -2.9830445E-04;  0.0000000E+00; -5.7838092E-06;  1.1141852E+04;
  1.7000000E-01;  9.9999998E-03; -4.0000001E-01;2335;  0.0000000E+00;  0.0000000E+00;  0.0000000E+00;  1.0008726E+03;  1.0000000E-01;  7.2294250E+02;0;  0.0000000E+00;  0.0000000E+00;  0.0000000E+00;0; -5.6782825E-04;  4.0000000E+04;  0.0000000E+00;  0.0000000E+00;  4.0000000E+04;  0.0000000E+00;  4.0000000E+04; -5.4064812E-04;  0.0000000E+00; -2.7180102E-05;  1.1147130E+04;
  1.7000000E-01;  9.9999998E-03; -3.8999999E-01;2336;  0.0000000E+00;  0.0000000E+00;  0.0000000E+00;  1.0014472E+03;  1.0000000E-01;  1.1989784E+03;0;  0.0000000E+00;  0.0000000E+00;  0.0000000E+00;0; -9.6550625E-04;  4.0000000E+04;  0.0000000E+00;  0.0000000E+00;  4.0000000E+04;  0.0000000E+00;  4.0000000E+04; -9.0874033E-04;  0.0000000E+00; -5.6765915E-05;  8.4581484E+03;
  1.7000000E-01;  9.9999998E-03; -3.8000000E-01;2337;  0.0000000E+00;  0.0000000E+00;  0.0000000E+00;  1.0022508E+03;  1.0000000E-01;  1.8647374E+03;0;  0.0000000E+00;  0.0000000E+00;  0.0000000E+00;0; -1.5273537E-03;  4.0000000E+04;  0.0000000E+00;  0.0000000E+00;  4.0000000E+04;  0.0000000E+00;  4.0000000E+04; -1.4361904E-03;  0.0000000E+00; -9.1163223E-05;  5.3982856E+03;
  1.7000000E-01;  9.9999998E-03; -3.7000000E-01;2338;  0.0000000E+00;  0.0000000E+00;  0.0000000E+00;  1.0033251E+03;  1.0000000E-01;  2.7547864E+03;0;  0.0000000E+00;  0.0000000E+00;  0.0000000E+00;0; -2.2770744E-03;  4.0000000E+04;  0.0000000E+00;  0.0000000E+00;  4.0000000E+04;  0.0000000E+00;  4.0000000E+04; -2.1505896E-03;  0.0000000E+00; -1.2648475E-04;  1.2269365E+04;
  1.7000000E-01;  9.9999998E-03; -3.6000001E-01;2339;  0.0000000E+00;  0.0000000E+00;  0.0000000E+00;  1.0046417E+03;  1.0000000E-01;  3.8456196E+03;0;  0.0000000E+00;  0.0000000E+00;  0.0000000E+00;0; -3.2242017E-03;  4.0000000E+04;  0.0000000E+00;  0.0000000E+00;  4.0000000E+04;  0.0000000E+00;  4.0000000E+04; -3.0654217E-03;  0.0000000E+00; -1.5878009E-04;  2.5711242E+04;
  1.7000000E-01;  9.9999998E-03; -3.4999999E-01;2340;  0.0000000E+00;  0.0000000E+00;  0.0000000E+00;  1.0062155E+03;  1.0000000E-01;  5.1493853E+03;0;  0.0000000E+00;  0.0000000E+00;  0.0000000E+00;0; -4.3565053E-03;  4.0000000E+04;  0.0000000E+00;  0.0000000E+00;  4.0000000E+04;  0.0000000E+00;  4.0000000E+04; -4.1724551E-03;  0.0000000E+00; -1.8405008E-04;  4.2227520E+04;
  1.7000000E-01;  9.9999998E-03; -3.4000000E-01;2341;  0.0000000E+00;  0.0000000E+00;  0.0000000E+00;  1.0079489E+03;  1.0000000E-01;  6.5854927E+03;0;  0.0000000E+00;  0.0000000E+00;  0.0000000E+00;0; -5.6355488E-03;  4.0000000E+04;  0.0000000E+00;  0.0000000E+00;  4.0000000E+04;  0.0000000E+00;  4.0000000E+04; -5.4373774E-03;  0.0000000E+00; -1.9817153E-04;  5.9940555E+04;
  1.7000000E-01;  9.9999998E-03; -3.3000001E-01;2342;  0.0000000E+00;  0.0000000E+00;  0.0000000E+00;  1.0097548E+03;  1.0000000E-01;  8.0816479E+03;0;  0.0000000E+00;  0.0000000E+00;  0.0000000E+00;0; -6.9976416E-03;  4.0000000E+04;  0.0000000E+00;  0.0000000E+00;  4.0000000E+04;  0.0000000E+00;  4.0000000E+04; -6.8006725E-03;  0.0000000E+00; -1.9696921E-04;  7.6464938E+04;
  1.7000000E-01;  9.9999998E-03; -3.1999999E-01;2343;  0.0000000E+00;  0.0000000E+00;  0.0000000E+00;  1.0115013E+03;  1.0000000E-01;  9.5286191E+03;0;  0.0000000E+00;  0.0000000E+00;  0.0000000E+00;0; -8.3605004E-03;  4.0000000E+04;  0.0000000E+00;  0.0000000E+00;  4.0000000E+04;  0.0000000E+00;  4.0000000E+04; -8.1840381E-03;  0.0000000E+00; -1.7646195E-04;  8.8928984E+04;
  1.7000000E-01;  9.9999998E-03; -3.1000000E-01;2344;  0.0000000E+00;  0.0000000E+00;  0.0000000E+00;  1.0130526E+03;  1.0000000E-01;  1.0813817E+04;0;  0.0000000E+00;  0.0000000E+00;  0.0000000E+00;0; -9.6337879E-03;  4.0000000E+04;  0.0000000E+00;  0.0000000E+00;  4.0000000E+04;  0.0000000E+00;  4.0000000E+04; -9.5008509E-03;  0.0000000E+00; -1.3293709E-04;  9.4597906E+04;
  1.8000001E-01;  9.9999998E-03; -4.4000000E-01;2361;  0.0000000E+00;  0.0000000E+00;  0.0000000E+00;  1.0000000E+03;  1.0000000E-01;  0.0000000E+00;0;  0.0000000E+00;  0.0000000E+00;  0.0000000E+00;0; -1.8178980E-05;  4.0000000E+04;  0.0000000E+00;  0.0000000E+00;  4.0000000E+04;  0.0000000E+00;  4.0000000E+04; -2.6501059E-05;  0.0000000E+00;  8.3220793E-06;  4.2262026E+03;
  1.8000001E-01;  9.9999998E-03; -4.3000001E-01;2362;  0.0000000E+00;  0.0000000E+00;  0.0000000E+00;  1.0000949E+03;  1.0000000E-01;  7.8615059E+01;0;  0.0000000E+00;  0.0000000E+00;  0.0000000E+00;0; -6.2420702E-05;  4.0000000E+04;  0.0000000E+00;  0.0000000E+00;  4.0000000E+04;  0.0000000E+00;  4.0000000E+04; -7.6749464E-05;  0.0000000E+00;  1.4328762E-05;  8.6533584E+03;
  1.8000001E-01;  9.9999998E-03; -4.1999999E-01;2363;  0.0000000E+00;  0.0000000E+00;  0.0000000E+00;  1.0002701E+03;  1.0000000E-01;  2.2379614E+02;0;  0.0000000E+00;  0.0000000E+00;  0.0000000E+00;0; -1.5835367E-04;  4.0000000E+04;  0.0000000E+00;  0.0000000E+00;  4.0000000E+04;  0.0000000E+00;  4.0000000E+04; -1.7434960E-04;  0.0000000E+00;  1.5995936E-05;  1.3175953E+04;
  1.8000001E-01;  9.9999998E-03; -4.1000000E-01;2364;  0.0000000E+00;  0.0000000E+00;  0.0000000E+00;  1.0005216E+03;  1.0000000E-01;  4.3218530E+02;0;  0.0000000E+00;  0.0000000E+00;  0.0000000E+00;0; -3.3310114E-04;  4.0000000E+04;  0.0000000E+00;  0.0000000E+00;  4.0000000E+04;  0.0000000E+00;  4.0000000E+04; -3.4270383E-04;  0.0000000E+00;  9.6026979E-06;  1.5970881E+04;
  1.8000001E-01;  9.9999998E-03; -4.0000001E-01;2365;  0.0000000E+00;  0.0000000E+00;  0.0000000E+00;  1.0009740E+03;  1.0000000E-01;  8.0689075E+02;0;  0.0000000E+00;  0.0000000E+00;  0.0000000E+00;0; -6.1742903E-04;  4.0000000E+04;  0.0000000E+00;  0.0000000E+00;  4.0000000E+04;  0.0000000E+00;  4.0000000E+04; -6.1194069E-04;  0.0000000E+00; -5.4883394E-06;  1.5538299E+04;
  1.8000001E-01;  9.9999998E-03; -3.8999999E-01;2366;  0.0000000E+00;  0.0000000E+00;  0.0000000E+00;  1.0015899E+03;  1.0000000E-01;  1.3171973E+03;0;  0.0000000E+00;  0.0000000E+00;  0.0000000E+00;0; -1.0443922E-03;  4.0000000E+04;  0.0000000E+00;  0.0000000E+00;  4.0000000E+04;  0.0000000E+00;  4.0000000E+04; -1.0172530E-03;  0.0000000E+00; -2.7139215E-05;  1.1098963E+04;
  1.8000001E-01;  9.9999998E-03; -3.8000000E-01;2367;  0.0000000E+00;  0.0000000E+00;  0.0000000E+00;  1.0024565E+03;  1.0000000E-01;  2.0351029E+03;0;  0.0000000E+00;  0.0000000E+00;  0.0000000E+00;0; -1.6458066E-03;  4.0000000E+04;  0.0000000E+00;  0.0000000E+00;  4.0000000E+04;  0.0000000E+00;  4.0000000E+04; -1.5939039E-03;  0.0000000E+00; -5.1902745E-05;  4.9454209E+03;
  1.8000001E-01;  9.9999998E-03; -3.7000000E-01;2368;  0.0000000E+00;  0.0000000E+00;  0.0000000E+00;  1.0035996E+03;  1.0000000E-01;  2.9822366E+03;0;  0.0000000E+00;  0.0000000E+00;  0.0000000E+00;0; -2.4455793E-03;  4.0000000E+04;  0.0000000E+00;  0.0000000E+00;  4.0000000E+04;  0.0000000E+00;  4.0000000E+04; -2.3694802E-03;  0.0000000E+00; -7.6099153E-05;  1.4804164E+04;
  1.8000001E-01;  9.9999998E-03; -3.6000001E-01;2369;  0.0000000E+00;  0.0000000E+00;  0.0000000E+00;  1.0050142E+03;  1.0000000E-01;  4.1541543E+03;0;  0.0000000E+00;  0.0000000E+00;  0.0000000E+00;0; -3.4509646E-03;  4.0000000E+04;  0.0000000E+00;  0.0000000E+00;  4.0000000E+04;  0.0000000E+00;  4.0000000E+04; -3.3548211E-03;  0.0000000E+00; -9.6143478E-05;  3.2930633E+04;
  1.8000001E-01;  9.9999998E-03; -3.4999999E-01;2370;  0.0000000E+00;  0.0000000E+00;  0.0000000E+00;  1.0066675E+03;  1.0000000E-01;  5.5238931E+03;0;  0.0000000E+00;  0.0000000E+00;  0.0000000E+00;0; -4.6442980E-03;  4.0000000E+04;  0.0000000E+00;  0.0000000E+00;  4.0000000E+04;  0.0000000E+00;  4.0000000E+04; -4.5358115E-03;  0.0000000E+00; -1.0848652E-04;  5.4441348E+04;
  1.8000001E-01;  9.9999998E-03; -3.4000000E-01;2371;  0.0000000E+00;  0.0000000E+00;  0.0000000E+00;  1.0084855E+03;  1.0000000E-01;  7.0301221E+03;0;  0.0000000E+00;  0.0000000E+00;  0.0000000E+00;0; -5.9787137E-03;  4.0000000E+04;  0.0000000E+00;  0.0000000E+00;  4.0000000E+04;  0.0000000E+00;  4.0000000E+04; -5.8691008E-03;  0.0000000E+00; -1.0961299E-04;  7.6993852E+04;
  1.8000001E-01;  9.9999998E-03; -3.3000001E-01;2372;  0.0000000E+00;  0.0000000E+00;  0.0000000E+00;  1.0103533E+03;  1.0000000E-01;  8.5775352E+03;0;  0.0000000E+00;  0.0000000E+00;  0.0000000E+00;0; -7.3803342E-03;  4.0000000E+04;  0.0000000E+00;  0.0000000E+00;  4.0000000E+04;  0.0000000E+00;  4.0000000E+04; -7.2840420E-03;  0.0000000E+00; -9.6292417E-05;  9.7501945E+04;
  1.8000001E-01;  9.9999998E-03; -3.1999999E-01;2373;  0.0000000E+00;  0.0000000E+00;  0.0000000E+00;  1.0121263E+03;  1.0000000E-01;  1.0046432E+04;0;  0.0000000E+00;  0.0000000E+00;  0.0000000E+00;0; -8.7570632E-03;  4.0000000E+04;  0.0000000E+00;  0.0000000E+00;  4.0000000E+04;  0.0000000E+00;  4.0000000E+04; -8.6910324E-03;  0.0000000E+00; -6.6030800E-05;  1.1228726E+05;
  1.8000001E-01;  9.9999998E-03; -3.1000000E-01;2374;  0.0000000E+00;  0.0000000E+00;  0.0000000E+00;  1.0136592E+03;  1.0000000E-01;  1.1316421E+04;0;  0.0000000E+00;  0.0000000E+00;  0.0000000E+00;0; -1.0012052E-02;  4.0000000E+04;  0.0000000E+00;  0.0000000E+00;  4.0000000E+04;  0.0000000E+00;  4.0000000E+04; -9.9946326E-03;  0.0000000E+00; -1.7419086E-05;  1.1792245E+05;
  1.9000000E-01;  9.9999998E-03; -4.4000000E-01;2391;  0.0000000E+00;  0.0000000E+00;  0.0000000E+00;  1.0000082E+03;  1.0000000E-01;  6.8146219E+00;0;  0.0000000E+00;  0.0000000E+00;  0.0000000E+00;0; -1.8433548E-05;  4.0000000E+04;  0.0000000E+00;  0.0000000E+00;  4.0000000E+04;  0.0000000E+00;  4.0000000E+04; -2.9842313E-05;  0.0000000E+00;  1.1408764E-05;  6.1858066E+03;
  1.9000000E-01;  9.9999998E-03; -4.3000001E-01;2392;  0.0000000E+00;  0.0000000E+00;  0.0000000E+00;  1.0001091E+03;  1.0000000E-01;  9.0367813E+01;0;  0.0000000E+00;  0.0000000E+00;  0.0000000E+00;0; -6.5015811E-05;  4.0000000E+04;  0.0000000E+00;  0.0000000E+00;  4.0000000E+04;  0.0000000E+00;  4.0000000E+04; -8.4849366E-05;  0.0000000E+00;  1.9833557E-05;  1.2323852E+04;
  1.9000000E-01;  9.9999998E-03; -4.1999999E-01;2393;  0.0000000E+00;  0.0000000E+00;  0.0000000E+00;  1.0003128E+03;  1.0000000E-01;  2.5915317E+02;0;  0.0000000E+00;  0.0000000E+00;  0.0000000E+00;0; -1.6545618E-04;  4.0000000E+04;  0.0000000E+00;  0.0000000E+00;  4.0000000E+04;  0.0000000E+00;  4.0000000E+04; -1.8951508E-04;  0.0000000E+00;  2.4058892E-05;  1.8279629E+04;
  1.9000000E-01;  9.9999998E-03; -4.1000000E-01;2394;  0.0000000E+00;  0.0000000E+00;  0.0000000E+00;  1.0005784E+03;  1.0000000E-01;  4.7919632E+02;0;  0.0000000E+00;  0.0000000E+00;  0.0000000E+00;0; -3.4713594E-04;  4.0000000E+04;  0.0000000E+00;  0.0000000E+00;  4.0000000E+04;  0.0000000E+00;  4.0000000E+04; -3.6775693E-04;  0.0000000E+00;  2.0621002E-05;  2.1644627E+04;
  1.9000000E-01;  9.9999998E-03; -4.0000001E-01;2395;  0.0000000E+00;  0.0000000E+00;  0.0000000E+00;  1.0010549E+03;  1.0000000E-01;  8.7395056E+02;0;  0.0000000E+00;  0.0000000E+00;  0.0000000E+00;0; -6.4136233E-04;  4.0000000E+04;  0.0000000E+00;  0.0000000E+00;  4.0000000E+04;  0.0000000E+00;  4.0000000E+04; -6.5091142E-04;  0.0000000E+00;  9.5490941E-06;  2.0622877E+04;
  1.9000000E-01;  9.9999998E-03; -3.8999999E-01;2396;  0.0000000E+00;  0.0000000E+00;  0.0000000E+00;  1.0016948E+03;  1.0000000E-01;  1.4041084E+03;0;  0.0000000E+00;  0.0000000E+00;  0.0000000E+00;0; -1.0820894E-03;  4.0000000E+04;  0.0000000E+00;  0.0000000E+00;  4.0000000E+04;  0.0000000E+00;  4.0000000E+04; -1.0755862E-03;  0.0000000E+00; -6.5031768E-06;  1.4311982E+04;
  1.9000000E-01;  9.9999998E-03; -3.8000000E-01;2397;  0.0000000E+00;  0.0000000E+00;  0.0000000E+00;  1.0025959E+03;  1.0000000E-01;  2.1506553E+03;0;  0.0000000E+00;  0.0000000E+00;  0.0000000E+00;0; -1.7019513E-03;  4.0000000E+04;  0.0000000E+00;  0.0000000E+00;  4.0000000E+04;  0.0000000E+00;  4.0000000E+04; -1.6779633E-03;  0.0000000E+00; -2.3987952E-05;  4.4754170E+03;
  1.9000000E-01;  9.9999998E-03; -3.7000000E-01;2398;  0.0000000E+00;  0.0000000E+00;  0.0000000E+00;  1.0037837E+03;  1.0000000E-01;  3.1347261E+03;0;  0.0000000E+00;  0.0000000E+00;  0.0000000E+00;0; -2.5248355E-03;  4.0000000E+04;  0.0000000E+00;  0.0000000E+00;  4.0000000E+04;  0.0000000E+00;  4.0000000E+04; -2.4853875E-03;  0.0000000E+00; -3.9448125E-05;  1.7278688E+04;
  1.9000000E-01;  9.9999998E-03; -3.6000001E-01;2399;  0.0000000E+00;  0.0000000E+00;  0.0000000E+00;  1.0052286E+03;  1.0000000E-01;  4.3318281E+03;0;  0.0000000E+00;  0.0000000E+00;  0.0000000E+00;0; -3.5563265E-03;  4.0000000E+04;  0.0000000E+00;  0.0000000E+00;  4.0000000E+04;  0.0000000E+00;  4.0000000E+04; -3.5066942E-03;  0.0000000E+00; -4.9632268E-05;  3.9967078E+04;
  1.9000000E-01;  9.9999998E-03; -3.4999999E-01;2400;  0.0000000E+00;  0.0000000E+00;  0.0000000E+00;  1.0069282E+03;  1.0000000E-01;  5.7398872E+03;0;  0.0000000E+00;  0.0000000E+00;  0.0000000E+00;0; -4.7749537E-03;  4.0000000E+04;  0.0000000E+00;  0.0000000E+00;  4.0000000E+04;  0.0000000E+00;  4.0000000E+04; -4.7236267E-03;  0.0000000E+00; -5.1327272E-05;  6.6294023E+04;
  1.9000000E-01;  9.9999998E-03; -3.4000000E-01;2401;  0.0000000E+00;  0.0000000E+00;  0.0000000E+00;  1.0087788E+03;  1.0000000E-01;  7.2730781E+03;0;  0.0000000E+00;  0.0000000E+00;  0.0000000E+00;0; -6.1279195E-03;  4.0000000E+04;  0.0000000E+00;  0.0000000E+00;  4.0000000E+04;  0.0000000E+00;  4.0000000E+04; -6.0865004E-03;  0.0000000E+00; -4.1419131E-05;  9.3517266E+04;
  1.9000000E-01;  9.9999998E-03; -3.3000001E-01;2402;  0.0000000E+00;  0.0000000E+00;  0.0000000E+00;  1.0106624E+03;  1.0000000E-01;  8.8336270E+03;0;  0.0000000E+00;  0.0000000E+00;  0.0000000E+00;0; -7.5340141E-03;  4.0000000E+04;  0.0000000E+00;  0.0000000E+00;  4.0000000E+04;  0.0000000E+00;  4.0000000E+04; -7.5166705E-03;  0.0000000E+00; -1.7343511E-05;  1.1792723E+05;
  1.9000000E-01;  9.9999998E-03; -3.1999999E-01;2403;  0.0000000E+00;  0.0000000E+00;  0.0000000E+00;  1.0124276E+03;  1.0000000E-01;  1.0296005E+04;0;  0.0000000E+00;  0.0000000E+00;  0.0000000E+00;0; -8.8942014E-03;  4.0000000E+04;  0.0000000E+00;  0.0000000E+00;  4.0000000E+04;  0.0000000E+00;  4.0000000E+04; -8.9162672E-03;  0.0000000E+00;  2.2065451E-05;  1.3507131E+05;
  1.9000000E-01;  9.9999998E-03; -3.1000000E-01;2404;  0.0000000E+00;  0.0000000E+00;  0.0000000E+00;  1.0139127E+03;  1.0000000E-01;  1.1526390E+04;0;  0.0000000E+00;  0.0000000E+00;  0.0000000E+00;0; -1.0107827E-02;  4.0000000E+04;  0.0000000E+00;  0.0000000E+00;  4.0000000E+04;  0.0000000E+00;  4.0000000E+04; -1.0183326E-02;  0.0000000E+00;  7.5498690E-05;  1.4078222E+05;
  2.0000000E-01;  9.9999998E-03; -4.4000000E-01;2420;  0.0000000E+00;  0.0000000E+00;  0.0000000E+00;  1.0000304E+03;  1.0000000E-01;  2.5184473E+01;0;  0.0000000E+00;  0.0000000E+00;  0.0000000E+00;0; -1.6629332E-05;  4.0000000E+04;  0.0000000E+00;  0.0000000E+00;  4.0000000E+04;  0.0000000E+00;  4.0000000E+04; -3.0818774E-05;  0.0000000E+00;  1.4189441E-05;  8.5608516E+03;
  2.0000000E-01;  9.9999998E-03; -4.3000001E-01;2421;  0.0000000E+00;  0.0000000E+00;  0.0000000E+00;  1.0001221E+03;  1.0000000E-01;  1.0123170E+02;0;  0.0000000E+00;  0.0000000E+00;  0.0000000E+00;0; -6.3380343E-05;  4.0000000E+04;  0.0000000E+00;  0.0000000E+00;  4.0000000E+04;  0.0000000E+00;  4.0000000E+04; -8.7056600E-05;  0.0000000E+00;  2.3676257E-05;  1.6585713E+04;
  2.0000000E-01;  9.9999998E-03; -4.1999999E-01;2422;  0.0000000E+00;  0.0000000E+00;  0.0000000E+00;  1.0003312E+03;  1.0000000E-01;  2.7436261E+02;0;  0.0000000E+00;  0.0000000E+00;  0.0000000E+00;0; -1.6472122E-04;  4.0000000E+04;  0.0000000E+00;  0.0000000E+00;  4.0000000E+04;  0.0000000E+00;  4.0000000E+04; -1.9292411E-04;  0.0000000E+00;  2.8202900E-05;  2.3954174E+04;
  2.0000000E-01;  9.9999998E-03; -4.1000000E-01;2423;  0.0000000E+00;  0.0000000E+00;  0.0000000E+00;  1.0006285E+03;  1.0000000E-01;  5.2067664E+02;0;  0.0000000E+00;  0.0000000E+00;  0.0000000E+00;0; -3.4744717E-04;  4.0000000E+04;  0.0000000E+00;  0.0000000E+00;  4.0000000E+04;  0.0000000E+00;  4.0000000E+04; -3.7233470E-04;  0.0000000E+00;  2.4887542E-05;  2.7720426E+04;
  2.0000000E-01;  9.9999998E-03; -4.0000001E-01;2424;  0.0000000E+00;  0.0000000E+00;  0.0000000E+00;  1.0011112E+03;  1.0000000E-01;  9.2056653E+02;0;  0.0000000E+00;  0.0000000E+00;  0.0000000E+00;0; -6.4228929E-04;  4.0000000E+04;  0.0000000E+00;  0.0000000E+00;  4.0000000E+04;  0.0000000E+00;  4.0000000E+04; -6.5705145E-04;  0.0000000E+00;  1.4762173E-05;  2.5935848E+04;
  2.0000000E-01;  9.9999998E-03; -3.8999999E-01;2425;  0.0000000E+00;  0.0000000E+00;  0.0000000E+00;  1.0017701E+03;  1.0000000E-01;  1.4665264E+03;0;  0.0000000E+00;  0.0000000E+00;  0.0000000E+00;0; -1.0829342E-03;  4.0000000E+04;  0.0000000E+00;  0.0000000E+00;  4.0000000E+04;  0.0000000E+00;  4.0000000E+04; -1.0840844E-03;  0.0000000E+00;  1.1501543E-06;  1.7740195E+04;
  2.0000000E-01;  9.9999998E-03; -3.8000000E-01;2426;  0.0000000E+00;  0.0000000E+00;  0.0000000E+00;  1.0026645E+03;  1.0000000E-01;  2.2074438E+03;0;  0.0000000E+00;  0.0000000E+00;  0.0000000E+00;0; -1.7018915E-03;  4.0000000E+04;  0.0000000E+00;  0.0000000E+00;  4.0000000E+04;  0.0000000E+00;  4.0000000E+04; -1.6895898E-03;  0.0000000E+00; -1.2301771E-05;  4.2294404E+03;
  2.0000000E-01;  9.9999998E-03; -3.7000000E-01;2427;  0.0000000E+00;  0.0000000E+00;  0.0000000E+00;  1.0038550E+03;  1.0000000E-01;  3.1937861E+03;0;  0.0000000E+00;  0.0000000E+00;  0.0000000E+00;0; -2.5226045E-03;  4.0000000E+04;  0.0000000E+00;  0.0000000E+00;  4.0000000E+04;  0.0000000E+00;  4.0000000E+04; -2.5001999E-03;  0.0000000E+00; -2.2404656E-05;  1.9292459E+04;
  2.0000000E-01;  9.9999998E-03; -3.6000001E-01;2428;  0.0000000E+00;  0.0000000E+00;  0.0000000E+00;  1.0053120E+03;  1.0000000E-01;  4.4008633E+03;0;  0.0000000E+00;  0.0000000E+00;  0.0000000E+00;0; -3.5494722E-03;  4.0000000E+04;  0.0000000E+00;  0.0000000E+00;  4.0000000E+04;  0.0000000E+00;  4.0000000E+04; -3.5232271E-03;  0.0000000E+00; -2.6245089E-05;  4.5891988E+04;
  2.0000000E-01;  9.9999998E-03; -3.4999999E-01;2429;  0.0000000E+00;  0.0000000E+00;  0.0000000E+00;  1.0070053E+03;  1.0000000E-01;  5.8037866E+03;0;  0.0000000E+00;  0.0000000E+00;  0.0000000E+00;0; -4.7589010E-03;  4.0000000E+04;  0.0000000E+00;  0.0000000E+00;  4.0000000E+04;  0.0000000E+00;  4.0000000E+04; -4.7380012E-03;  0.0000000E+00; -2.0899719E-05;  7.6262914E+04;
  2.0000000E-01;  9.9999998E-03; -3.4000000E-01;2430;  0.0000000E+00;  0.0000000E+00;  0.0000000E+00;  1.0088331E+03;  1.0000000E-01;  7.3181143E+03;0;  0.0000000E+00;  0.0000000E+00;  0.0000000E+00;0; -6.0951235E-03;  4.0000000E+04;  0.0000000E+00;  0.0000000E+00;  4.0000000E+04;  0.0000000E+00;  4.0000000E+04; -6.0915835E-03;  0.0000000E+00; -3.5399646E-06;  1.0739575E+05;
  2.0000000E-01;  9.9999998E-03; -3.3000001E-01;2431;  0.0000000E+00;  0.0000000E+00;  0.0000000E+00;  1.0106836E+03;  1.0000000E-01;  8.8511074E+03;0;  0.0000000E+00;  0.0000000E+00;  0.0000000E+00;0; -7.4736439E-03;  4.0000000E+04;  0.0000000E+00;  0.0000000E+00;  4.0000000E+04;  0.0000000E+00;  4.0000000E+04; -7.5016115E-03;  0.0000000E+00;  2.7967617E-05;  1.3513497E+05;
  2.0000000E-01;  9.9999998E-03; -3.1999999E-01;2432;  0.0000000E+00;  0.0000000E+00;  0.0000000E+00;  1.0123948E+03;  1.0000000E-01;  1.0268846E+04;0;  0.0000000E+00;  0.0000000E+00;  0.0000000E+00;0; -8.7927487E-03;  4.0000000E+04;  0.0000000E+00;  0.0000000E+00;  4.0000000E+04;  0.0000000E+00;  4.0000000E+04; -8.8665951E-03;  0.0000000E+00;  7.3846299E-05;  1.5444484E+05;
  2.0000000E-01;  9.9999998E-03; -3.1000000E-01;2433;  0.0000000E+00;  0.0000000E+00;  0.0000000E+00;  1.0138127E+03;  1.0000000E-01;  1.1443528E+04;0;  0.0000000E+00;  0.0000000E+00;  0.0000000E+00;0; -9.9519864E-03;  4.0000000E+04;  0.0000000E+00;  0.0000000E+00;  4.0000000E+04;  0.0000000E+00;  4.0000000E+04; -1.0082599E-02;  0.0000000E+00;  1.3061284E-04;  1.6051988E+05;
 -1.9000000E-01;  9.9999998E-03; -2.7000001E-01;107;  0.0000000E+00;  0.0000000E+00;  0.0000000E+00;  1.0000000E+03;  1.0000000E-01;  0.0000000E+00;0;  0.0000000E+00;  0.0000000E+00;  0.0000000E+00;0;  0.0000000E+00;  4.0000000E+04;  0.0000000E+00;  0.0000000E+00;  4.0000000E+04;  0.0000000E+00;  4.0000000E+04;  0.0000000E+00;  0.0000000E+00;  0.0000000E+00;  0.0000000E+00;
 -1.9000000E-01;  9.9999998E-03; -2.5999999E-01;108;  0.0000000E+00;  0.0000000E+00;  0.0000000E+00;  1.0000000E+03;  1.0000000E-01;  0.0000000E+00;0;  0.0000000E+00;  0.0000000E+00;  0.0000000E+00;0;  0.0000000E+00;  4.0000000E+04;  0.0000000E+00;  0.0000000E+00;  4.0000000E+04;  0.0000000E+00;  4.0000000E+04;  0.0000000E+00;  0.0000000E+00;  0.0000000E+00;  0.0000000E+00;
 -1.9000000E-01;  9.9999998E-03; -2.5000000E-01;109;  0.0000000E+00;  0.0000000E+00;  0.0000000E+00;  1.0000000E+03;  1.0000000E-01;  0.0000000E+00;0;  0.0000000E+00;  0.0000000E+00;  0.0000000E+00;0;  0.0000000E+00;  4.0000000E+04;  0.0000000E+00;  0.0000000E+00;  4.0000000E+04;  0.0000000E+00;  4.0000000E+04;  0.0000000E+00;  0.0000000E+00;  0.0000000E+00;  0.0000000E+00;
 -1.9000000E-01;  9.9999998E-03; -2.3999999E-01;110;  0.0000000E+00;  0.0000000E+00;  0.0000000E+00;  1.0000000E+03;  1.0000000E-01;  0.0000000E+00;0;  0.0000000E+00;  0.0000000E+00;  0.0000000E+00;0;  0.0000000E+00;  4.0000000E+04;  0.0000000E+00;  0.0000000E+00;  4.0000000E+04;  0.0000000E+00;  4.0000000E+04;  0.0000000E+00;  0.0000000E+00;  0.0000000E+00;  0.0000000E+00;
 -1.9000000E-01;  9.9999998E-03; -2.3000000E-01;111;  0.0000000E+00;  0.0000000E+00;  0.0000000E+00;  1.0000000E+03;  1.0000000E-01;  0.0000000E+00;0;  0.0000000E+00;  0.0000000E+00;  0.0000000E+00;0;  0.0000000E+00;  4.0000000E+04;  0.0000000E+00;  0.0000000E+00;  4.0000000E+04;  0.0000000E+00;  4.0000000E+04;  0.0000000E+00;  0.0000000E+00;  0.0000000E+00;  0.0000000E+00;
 -1.9000000E-01;  9.9999998E-03; -2.2000000E-01;112;  0.0000000E+00;  0.0000000E+00;  0.0000000E+00;  1.0000000E+03;  1.0000000E-01;  0.0000000E+00;0;  0.0000000E+00;  0.0000000E+00;  0.0000000E+00;0;  0.0000000E+00;  4.0000000E+04;  0.0000000E+00;  0.0000000E+00;  4.0000000E+04;  0.0000000E+00;  4.0000000E+04;  0.0000000E+00;  0.0000000E+00;  0.0000000E+00;  0.0000000E+00;
 -1.9000000E-01;  9.9999998E-03; -2.0999999E-01;113;  0.0000000E+00;  0.0000000E+00;  0.0000000E+00;  1.0000000E+03;  1.0000000E-01;  0.0000000E+00;0;  0.0000000E+00;  0.0000000E+00;  0.0000000E+00;0;  0.0000000E+00;  4.0000000E+04;  0.0000000E+00;  0.0000000E+00;  4.0000000E+04;  0.0000000E+00;  4.0000000E+04;  0.0000000E+00;  0.0000000E+00;  0.0000000E+00;  0.0000000E+00;
 -1.9000000E-01;  9.9999998E-03; -2.0000000E-01;114;  0.0000000E+00;  0.0000000E+00;  0.0000000E+00;  1.0000000E+03;  1.0000000E-01;  0.0000000E+00;0;  0.0000000E+00;  0.0000000E+00;  0.0000000E+00;0;  0.0000000E+00;  4.0000000E+04;  0.0000000E+00;  0.0000000E+00;  4.0000000E+04;  0.0000000E+00;  4.0000000E+04;  0.0000000E+00;  0.0000000E+00;  0.0000000E+00;  0.0000000E+00;
 -1.9000000E-01;  9.9999998E-03; -1.9000000E-01;115;  0.0000000E+00;  0.0000000E+00;  0.0000000E+00;  1.0000000E+03;  1.0000000E-01;  0.0000000E+00;0;  0.0000000E+00;  0.0000000E+00;  0.0000000E+00;0;  0.0000000E+00;  4.0000000E+04;  0.0000000E+00;  0.0000000E+00;  4.0000000E+04;  0.0000000E+00;  4.0000000E+04;  0.0000000E+00;  0.0000000E+00;  0.0000000E+00;  0.0000000E+00;
 -1.9000000E-01;  9.9999998E-03; -1.8000001E-01;116;  0.0000000E+00;  0.0000000E+00;  0.0000000E+00;  1.0000000E+03;  1.0000000E-01;  0.0000000E+00;0;  0.0000000E+00;  0.0000000E+00;  0.0000000E+00;0;  0.0000000E+00;  4.0000000E+04;  0.0000000E+00;  0.0000000E+00;  4.0000000E+04;  0.0000000E+00;  4.0000000E+04;  0.0000000E+00;  0.0000000E+00;  0.0000000E+00;  0.0000000E+00;
 -1.9000000E-01;  9.9999998E-03; -1.7000000E-01;117;  0.0000000E+00;  0.0000000E+00;  0.0000000E+00;  1.0000000E+03;  1.0000000E-01;  0.0000000E+00;0;  0.0000000E+00;  0.0000000E+00;  0.0000000E+00;0;  0.0000000E+00;  4.0000000E+04;  0.0000000E+00;  0.0000000E+00;  4.0000000E+04;  0.0000000E+00;  4.0000000E+04;  0.0000000E+00;  0.0000000E+00;  0.0000000E+00;  0.0000000E+00;
 -1.9000000E-01;  9.9999998E-03; -1.6000000E-01;118;  0.0000000E+00;  0.0000000E+00;  0.0000000E+00;  1.0000000E+03;  1.0000000E-01;  0.0000000E+00;0;  0.0000000E+00;  0.0000000E+00;  0.0000000E+00;0;  0.0000000E+00;  4.0000000E+04;  0.0000000E+00;  0.0000000E+00;  4.0000000E+04;  0.0000000E+00;  4.0000000E+04;  0.0000000E+00;  0.0000000E+00;  0.0000000E+00;  0.0000000E+00;
 -1.9000000E-01;  9.9999998E-03; -1.5000001E-01;119;  0.0000000E+00;  0.0000000E+00;  0.0000000E+00;  1.0000000E+03;  1.0000000E-01;  0.0000000E+00;0;  0.0000000E+00;  0.0000000E+00;  0.0000000E+00;0;  0.0000000E+00;  4.0000000E+04;  0.0000000E+00;  0.0000000E+00;  4.0000000E+04;  0.0000000E+00;  4.0000000E+04;  0.0000000E+00;  0.0000000E+00;  0.0000000E+00;  0.0000000E+00;
 -1.9000000E-01;  9.9999998E-03; -1.4000000E-01;120;  0.0000000E+00;  0.0000000E+00;  0.0000000E+00;  1.0000000E+03;  1.0000000E-01;  0.0000000E+00;0;  0.0000000E+00;  0.0000000E+00;  0.0000000E+00;0;  0.0000000E+00;  4.0000000E+04;  0.0000000E+00;  0.0000000E+00;  4.0000000E+04;  0.0000000E+00;  4.0000000E+04;  0.0000000E+00;  0.0000000E+00;  0.0000000E+00;  0.0000000E+00;
 -1.9000000E-01;  9.9999998E-03; -1.3000000E-01;121;  0.0000000E+00;  0.0000000E+00;  0.0000000E+00;  1.0000000E+03;  1.0000000E-01;  0.0000000E+00;0;  0.0000000E+00;  0.0000000E+00;  0.0000000E+00;0;  0.0000000E+00;  4.0000000E+04;  0.0000000E+00;  0.0000000E+00;  4.0000000E+04;  0.0000000E+00;  4.0000000E+04;  0.0000000E+00;  0.0000000E+00;  0.0000000E+00;  0.0000000E+00;
 -1.9000000E-01;  9.9999998E-03; -1.2000000E-01;122;  0.0000000E+00;  0.0000000E+00;  0.0000000E+00;  1.0000000E+03;  1.0000000E-01;  0.0000000E+00;0;  0.0000000E+00;  0.0000000E+00;  0.0000000E+00;0;  0.0000000E+00;  4.0000000E+04;  0.0000000E+00;  0.0000000E+00;  4.0000000E+04;  0.0000000E+00;  4.0000000E+04;  0.0000000E+00;  0.0000000E+00;  0.0000000E+00;  0.0000000E+00;
 -1.9000000E-01;  9.9999998E-03; -1.1000000E-01;123;  0.0000000E+00;  0.0000000E+00;  0.0000000E+00;  1.0000000E+03;  1.0000000E-01;  0.0000000E+00;0;  0.0000000E+00;  0.0000000E+00;  0.0000000E+00;0;  0.0000000E+00;  4.0000000E+04;  0.0000000E+00;  0.0000000E+00;  4.0000000E+04;  0.0000000E+00;  4.0000000E+04;  0.0000000E+00;  0.0000000E+00;  0.0000000E+00;  0.0000000E+00;
 -1.8000001E-01;  9.9999998E-03; -2.7000001E-01;198;  0.0000000E+00;  0.0000000E+00;  0.0000000E+00;  1.0000000E+03;  1.0000000E-01;  0.0000000E+00;0;  0.0000000E+00;  0.0000000E+00;  0.0000000E+00;0;  0.0000000E+00;  4.0000000E+04;  0.0000000E+00;  0.0000000E+00;  4.0000000E+04;  0.0000000E+00;  4.0000000E+04;  0.0000000E+00;  0.0000000E+00;  0.0000000E+00;  0.0000000E+00;
 -1.8000001E-01;  9.9999998E-03; -2.5999999E-01;199;  0.0000000E+00;  0.0000000E+00;  0.0000000E+00;  1.0000000E+03;  1.0000000E-01;  0.0000000E+00;0;  0.0000000E+00;  0.0000000E+00;  0.0000000E+00;0;  0.0000000E+00;  4.0000000E+04;  0.0000000E+00;  0.0000000E+00;  4.0000000E+04;  0.0000000E+00;  4.0000000E+04;  0.0000000E+00;  0.0000000E+00;  0.0000000E+00;  0.0000000E+00;
 -1.8000001E-01;  9.9999998E-03; -2.5000000E-01;200;  0.0000000E+00;  0.0000000E+00;  0.0000000E+00;  1.0000000E+03;  1.0000000E-01;  0.0000000E+00;0;  0.0000000E+00;  0.0000000E+00;  0.0000000E+00;0;  0.0000000E+00;  4.0000000E+04;  0.0000000E+00;  0.0000000E+00;  4.0000000E+04;  0.0000000E+00;  4.0000000E+04;  0.0000000E+00;  0.0000000E+00;  0.0000000E+00;  0.0000000E+00;
 -1.8000001E-01;  9.9999998E-03; -2.3999999E-01;201;  0.0000000E+00;  0.0000000E+00;  0.0000000E+00;  1.0000000E+03;  1.0000000E-01;  0.0000000E+00;0;  0.0000000E+00;  0.0000000E+00;  0.0000000E+00;0;  0.0000000E+00;  4.0000000E+04;  0.0000000E+00;  0.0000000E+00;  4.0000000E+04;  0.0000000E+00;  4.0000000E+04;  0.0000000E+00;  0.0000000E+00;  0.0000000E+00;  0.0000000E+00;
 -1.8000001E-01;  9.9999998E-03; -2.3000000E-01;202;  0.0000000E+00;  0.0000000E+00;  0.0000000E+00;  1.0000000E+03;  1.0000000E-01;  0.0000000E+00;0;  0.0000000E+00;  0.0000000E+00;  0.0000000E+00;0;  0.0000000E+00;  4.0000000E+04;  0.0000000E+00;  0.0000000E+00;  4.0000000E+04;  0.0000000E+00;  4.0000000E+04;  0.0000000E+00;  0.0000000E+00;  0.0000000E+00;  0.0000000E+00;
 -1.8000001E-01;  9.9999998E-03; -2.2000000E-01;203;  0.0000000E+00;  0.0000000E+00;  0.0000000E+00;  1.0000000E+03;  1.0000000E-01;  0.0000000E+00;0;  0.0000000E+00;  0.0000000E+00;  0.0000000E+00;0;  0.0000000E+00;  4.0000000E+04;  0.0000000E+00;  0.0000000E+00;  4.0000000E+04;  0.0000000E+00;  4.0000000E+04;  0.0000000E+00;  0.0000000E+00;  0.0000000E+00;  0.0000000E+00;
 -1.8000001E-01;  9.9999998E-03; -2.0999999E-01;204;  0.0000000E+00;  0.0000000E+00;  0.0000000E+00;  1.0000000E+03;  1.0000000E-01;  0.0000000E+00;0;  0.0000000E+00;  0.0000000E+00;  0.0000000E+00;0;  0.0000000E+00;  4.0000000E+04;  0.0000000E+00;  0.0000000E+00;  4.0000000E+04;  0.0000000E+00;  4.0000000E+04;  0.0000000E+00;  0.0000000E+00;  0.0000000E+00;  0.0000000E+00;
 -1.8000001E-01;  9.9999998E-03; -2.0000000E-01;205;  0.0000000E+00;  0.0000000E+00;  0.0000000E+00;  1.0000000E+03;  1.0000000E-01;  0.0000000E+00;0;  0.0000000E+00;  0.0000000E+00;  0.0000000E+00;0;  0.0000000E+00;  4.0000000E+04;  0.0000000E+00;  0.0000000E+00;  4.0000000E+04;  0.0000000E+00;  4.0000000E+04;  0.0000000E+00;  0.0000000E+00;  0.0000000E+00;  0.0000000E+00;
 -1.8000001E-01;  9.9999998E-03; -1.9000000E-01;206;  0.0000000E+00;  0.0000000E+00;  0.0000000E+00;  1.0000000E+03;  1.0000000E-01;  0.0000000E+00;0;  0.0000000E+00;  0.0000000E+00;  0.0000000E+00;0;  0.0000000E+00;  4.0000000E+04;  0.0000000E+00;  0.0000000E+00;  4.0000000E+04;  0.0000000E+00;  4.0000000E+04;  0.0000000E+00;  0.0000000E+00;  0.0000000E+00;  0.0000000E+00;
 -1.8000001E-01;  9.9999998E-03; -1.8000001E-01;207;  0.0000000E+00;  0.0000000E+00;  0.0000000E+00;  1.0000000E+03;  1.0000000E-01;  0.0000000E+00;0;  0.0000000E+00;  0.0000000E+00;  0.0000000E+00;0;  0.0000000E+00;  4.0000000E+04;  0.0000000E+00;  0.0000000E+00;  4.0000000E+04;  0.0000000E+00;  4.0000000E+04;  0.0000000E+00;  0.0000000E+00;  0.0000000E+00;  0.0000000E+00;
 -1.8000001E-01;  9.9999998E-03; -1.7000000E-01;208;  0.0000000E+00;  0.0000000E+00;  0.0000000E+00;  1.0000000E+03;  1.0000000E-01;  0.0000000E+00;0;  0.0000000E+00;  0.0000000E+00;  0.0000000E+00;0;  0.0000000E+00;  4.0000000E+04;  0.0000000E+00;  0.0000000E+00;  4.0000000E+04;  0.0000000E+00;  4.0000000E+04;  0.0000000E+00;  0.0000000E+00;  0.0000000E+00;  0.0000000E+00;
 -1.8000001E-01;  9.9999998E-03; -1.6000000E-01;209;  0.0000000E+00;  0.0000000E+00;  0.0000000E+00;  1.0000000E+03;  1.0000000E-01;  0.0000000E+00;0;  0.0000000E+00;  0.0000000E+00;  0.0000000E+00;0;  0.0000000E+00;  4.0000000E+04;  0.0000000E+00;  0.0000000E+00;  4.0000000E+04;  0.0000000E+00;  4.0000000E+04;  0.0000000E+00;  0.0000000E+00;  0.0000000E+00;  0.0000000E+00;
 -1.8000001E-01;  9.9999998E-03; -1.5000001E-01;210;  0.0000000E+00;  0.0000000E+00;  0.0000000E+00;  1.0000000E+03;  1.0000000E-01;  0.0000000E+00;0;  0.0000000E+00;  0.0000000E+00;  0.0000000E+00;0;  0.0000000E+00;  4.0000000E+04;  0.0000000E+00;  0.0000000E+00;  4.0000000E+04;  0.0000000E+00;  4.0000000E+04;  0.0000000E+00;  0.0000000E+00;  0.0000000E+00;  0.0000000E+00;
 -1.8000001E-01;  9.9999998E-03; -1.4000000E-01;211;  0.0000000E+00;  0.0000000E+00;  0.0000000E+00;  1.0000000E+03;  1.0000000E-01;  0.0000000E+00;0;  0.0000000E+00;  0.0000000E+00;  0.0000000E+00;0;  0.0000000E+00;  4.0000000E+04;  0.0000000E+00;  0.0000000E+00;  4.0000000E+04;  0.0000000E+00;  4.0000000E+04;  0.0000000E+00;  0.0000000E+00;  0.0000000E+00;  0.0000000E+00;
 -1.8000001E-01;  9.9999998E-03; -1.3000000E-01;212;  0.0000000E+00;  0.0000000E+00;  0.0000000E+00;  1.0000000E+03;  1.0000000E-01;  0.0000000E+00;0;  0.0000000E+00;  0.0000000E+00;  0.0000000E+00;0;  0.0000000E+00;  4.0000000E+04;  0.0000000E+00;  0.0000000E+00;  4.0000000E+04;  0.0000000E+00;  4.0000000E+04;  0.0000000E+00;  0.0000000E+00;  0.0000000E+00;  0.0000000E+00;
 -1.8000001E-01;  9.9999998E-03; -1.2000000E-01;213;  0.0000000E+00;  0.0000000E+00;  0.0000000E+00;  1.0000000E+03;  1.0000000E-01;  0.0000000E+00;0;  0.0000000E+00;  0.0000000E+00;  0.0000000E+00;0;  0.0000000E+00;  4.0000000E+04;  0.0000000E+00;  0.0000000E+00;  4.0000000E+04;  0.0000000E+00;  4.0000000E+04;  0.0000000E+00;  0.0000000E+00;  0.0000000E+00;  0.0000000E+00;
 -1.8000001E-01;  9.9999998E-03; -1.1000000E-01;214;  0.0000000E+00;  0.0000000E+00;  0.0000000E+00;  1.0000000E+03;  1.0000000E-01;  0.0000000E+00;0;  0.0000000E+00;  0.0000000E+00;  0.0000000E+00;0;  0.0000000E+00;  4.0000000E+04;  0.0000000E+00;  0.0000000E+00;  4.0000000E+04;  0.0000000E+00;  4.0000000E+04;  0.0000000E+00;  0.0000000E+00;  0.0000000E+00;  0.0000000E+00;
 -1.7000000E-01;  9.9999998E-03; -2.7000001E-01;289;  0.0000000E+00;  0.0000000E+00;  0.0000000E+00;  1.0000000E+03;  1.0000000E-01;  0.0000000E+00;0;  0.0000000E+00;  0.0000000E+00;  0.0000000E+00;0;  0.0000000E+00;  4.0000000E+04;  0.0000000E+00;  0.0000000E+00;  4.0000000E+04;  0.0000000E+00;  4.0000000E+04;  0.0000000E+00;  0.0000000E+00;  0.0000000E+00;  9.0627929E-11;
 -1.7000000E-01;  9.9999998E-03; -2.5999999E-01;290;  0.0000000E+00;  0.0000000E+00;  0.0000000E+00;  1.0000000E+03;  1.0000000E-01;  0.0000000E+00;0;  0.0000000E+00;  0.0000000E+00;  0.0000000E+00;0;  0.0000000E+00;  4.0000000E+04;  0.0000000E+00;  0.0000000E+00;  4.0000000E+04;  0.0000000E+00;  4.0000000E+04;  0.0000000E+00;  0.0000000E+00;  0.0000000E+00;  2.4658295E-10;
 -1.7000000E-01;  9.9999998E-03; -2.5000000E-01;291;  0.0000000E+00;  0.0000000E+00;  0.0000000E+00;  1.0000000E+03;  1.0000000E-01;  0.0000000E+00;0;  0.0000000E+00;  0.0000000E+00;  0.0000000E+00;0;  0.0000000E+00;  4.0000000E+04;  0.0000000E+00;  0.0000000E+00;  4.0000000E+04;  0.0000000E+00;  4.0000000E+04;  0.0000000E+00;  0.0000000E+00;  0.0000000E+00;  4.6683907E-10;
 -1.7000000E-01;  9.9999998E-03; -2.3999999E-01;292;  0.0000000E+00;  0.0000000E+00;  0.0000000E+00;  1.0000000E+03;  1.0000000E-01;  0.0000000E+00;0;  0.0000000E+00;  0.0000000E+00;  0.0000000E+00;0;  0.0000000E+00;  4.0000000E+04;  0.0000000E+00;  0.0000000E+00;  4.0000000E+04;  0.0000000E+00;  4.0000000E+04;  0.0000000E+00;  0.0000000E+00;  0.0000000E+00;  7.1558121E-10;
 -1.7000000E-01;  9.9999998E-03; -2.3000000E-01;293;  0.0000000E+00;  0.0000000E+00;  0.0000000E+00;  1.0000000E+03;  1.0000000E-01;  0.0000000E+00;0;  0.0000000E+00;  0.0000000E+00;  0.0000000E+00;0;  0.0000000E+00;  4.0000000E+04;  0.0000000E+00;  0.0000000E+00;  4.0000000E+04;  0.0000000E+00;  4.0000000E+04;  0.0000000E+00;  0.0000000E+00;  0.0000000E+00;  9.6112662E-10;
 -1.7000000E-01;  9.9999998E-03; -2.2000000E-01;294;  0.0000000E+00;  0.0000000E+00;  0.0000000E+00;  1.0000000E+03;  1.0000000E-01;  0.0000000E+00;0;  0.0000000E+00;  0.0000000E+00;  0.0000000E+00;0;  0.0000000E+00;  4.0000000E+04;  0.0000000E+00;  0.0000000E+00;  4.0000000E+04;  0.0000000E+00;  4.0000000E+04;  0.0000000E+00;  0.0000000E+00;  0.0000000E+00;  1.1699183E-09;
 -1.7000000E-01;  9.9999998E-03; -2.0999999E-01;295;  0.0000000E+00;  0.0000000E+00;  0.0000000E+00;  1.0000000E+03;  1.0000000E-01;  0.0000000E+00;0;  0.0000000E+00;  0.0000000E+00;  0.0000000E+00;0;  0.0000000E+00;  4.0000000E+04;  0.0000000E+00;  0.0000000E+00;  4.0000000E+04;  0.0000000E+00;  4.0000000E+04;  0.0000000E+00;  0.0000000E+00;  0.0000000E+00;  1.3086691E-09;
 -1.7000000E-01;  9.9999998E-03; -2.0000000E-01;296;  0.0000000E+00;  0.0000000E+00;  0.0000000E+00;  1.0000000E+03;  1.0000000E-01;  0.0000000E+00;0;  0.0000000E+00;  0.0000000E+00;  0.0000000E+00;0;  0.0000000E+00;  4.0000000E+04;  0.0000000E+00;  0.0000000E+00;  4.0000000E+04;  0.0000000E+00;  4.0000000E+04;  0.0000000E+00;  0.0000000E+00;  0.0000000E+00;  1.3572687E-09;
 -1.7000000E-01;  9.9999998E-03; -1.9000000E-01;297;  0.0000000E+00;  0.0000000E+00;  0.0000000E+00;  1.0000000E+03;  1.0000000E-01;  0.0000000E+00;0;  0.0000000E+00;  0.0000000E+00;  0.0000000E+00;0;  0.0000000E+00;  4.0000000E+04;  0.0000000E+00;  0.0000000E+00;  4.0000000E+04;  0.0000000E+00;  4.0000000E+04;  0.0000000E+00;  0.0000000E+00;  0.0000000E+00;  1.3804570E-09;
 -1.7000000E-01;  9.9999998E-03; -1.8000001E-01;298;  0.0000000E+00;  0.0000000E+00;  0.0000000E+00;  1.0000000E+03;  1.0000000E-01;  0.0000000E+00;0;  0.0000000E+00;  0.0000000E+00;  0.0000000E+00;0;  0.0000000E+00;  4.0000000E+04;  0.0000000E+00;  0.0000000E+00;  4.0000000E+04;  0.0000000E+00;  4.0000000E+04;  0.0000000E+00;  0.0000000E+00;  0.0000000E+00;  1.4541069E-09;
 -1.7000000E-01;  9.9999998E-03; -1.7000000E-01;299;  0.0000000E+00;  0.0000000E+00;  0.0000000E+00;  1.0000000E+03;  1.0000000E-01;  0.0000000E+00;0;  0.0000000E+00;  0.0000000E+00;  0.0000000E+00;0;  0.0000000E+00;  4.0000000E+04;  0.0000000E+00;  0.0000000E+00;  4.0000000E+04;  0.0000000E+00;  4.0000000E+04;  0.0000000E+00;  0.0000000E+00;  0.0000000E+00;  1.5733465E-09;
 -1.7000000E-01;  9.9999998E-03; -1.6000000E-01;300;  0.0000000E+00;  0.0000000E+00;  0.0000000E+00;  1.0000000E+03;  1.0000000E-01;  0.0000000E+00;0;  0.0000000E+00;  0.0000000E+00;  0.0000000E+00;0;  0.0000000E+00;  4.0000000E+04;  0.0000000E+00;  0.0000000E+00;  4.0000000E+04;  0.0000000E+00;  4.0000000E+04;  0.0000000E+00;  0.0000000E+00;  0.0000000E+00;  1.7068523E-09;
 -1.7000000E-01;  9.9999998E-03; -1.5000001E-01;301;  0.0000000E+00;  0.0000000E+00;  0.0000000E+00;  1.0000000E+03;  1.0000000E-01;  0.0000000E+00;0;  0.0000000E+00;  0.0000000E+00;  0.0000000E+00;0;  0.0000000E+00;  4.0000000E+04;  0.0000000E+00;  0.0000000E+00;  4.0000000E+04;  0.0000000E+00;  4.0000000E+04;  0.0000000E+00;  0.0000000E+00;  0.0000000E+00;  1.8278684E-09;
 -1.7000000E-01;  9.9999998E-03; -1.4000000E-01;302;  0.0000000E+00;  0.0000000E+00;  0.0000000E+00;  1.0000000E+03;  1.0000000E-01;  0.0000000E+00;0;  0.0000000E+00;  0.0000000E+00;  0.0000000E+00;0;  0.0000000E+00;  4.0000000E+04;  0.0000000E+00;  0.0000000E+00;  4.0000000E+04;  0.0000000E+00;  4.0000000E+04;  0.0000000E+00;  0.0000000E+00;  0.0000000E+00;  1.9071082E-09;
 -1.7000000E-01;  9.9999998E-03; -1.3000000E-01;303;  0.0000000E+00;  0.0000000E+00;  0.0000000E+00;  1.0000000E+03;  1.0000000E-01;  0.0000000E+00;0;  0.0000000E+00;  0.0000000E+00;  0.0000000E+00;0;  0.0000000E+00;  4.0000000E+04;  0.0000000E+00;  0.0000000E+00;  4.0000000E+04;  0.0000000E+00;  4.0000000E+04;  0.0000000E+00;  0.0000000E+00;  0.0000000E+00;  1.9297872E-09;
 -1.7000000E-01;  9.9999998E-03; -1.2000000E-01;304;  0.0000000E+00;  0.0000000E+00;  0.0000000E+00;  1.0000000E+03;  1.0000000E-01;  0.0000000E+00;0;  0.0000000E+00;  0.0000000E+00;  0.0000000E+00;0;  0.0000000E+00;  4.0000000E+04;  0.0000000E+00;  0.0000000E+00;  4.0000000E+04;  0.0000000E+00;  4.0000000E+04;  0.0000000E+00;  0.0000000E+00;  0.0000000E+00;  1.9547151E-09;
 -1.7000000E-01;  9.9999998E-03; -1.1000000E-01;305;  0.0000000E+00;  0.0000000E+00;  0.0000000E+00;  1.0000000E+03;  1.0000000E-01;  0.0000000E+00;0;  0.0000000E+00;  0.0000000E+00;  0.0000000E+00;0;  0.0000000E+00;  4.0000000E+04;  0.0000000E+00;  0.0000000E+00;  4.0000000E+04;  0.0000000E+00;  4.0000000E+04;  0.0000000E+00;  0.0000000E+00;  0.0000000E+00;  1.9624904E-09;
 -1.6000000E-01;  9.9999998E-03; -2.7000001E-01;380;  0.0000000E+00;  0.0000000E+00;  0.0000000E+00;  1.0000000E+03;  1.0000000E-01;  0.0000000E+00;0;  0.0000000E+00;  0.0000000E+00;  0.0000000E+00;0;  2.3053879E-07;  4.0000000E+04;  0.0000000E+00;  0.0000000E+00;  4.0000000E+04;  0.0000000E+00;  4.0000000E+04;  2.2883496E-07;  0.0000000E+00;  1.7038266E-09;  5.5862751E-02;
 -1.6000000E-01;  9.9999998E-03; -2.5999999E-01;381;  0.0000000E+00;  0.0000000E+00;  0.0000000E+00;  1.0000000E+03;  1.0000000E-01;  0.0000000E+00;0;  0.0000000E+00;  0.0000000E+00;  0.0000000E+00;0;  3.2321304E-07;  4.0000000E+04;  0.0000000E+00;  0.0000000E+00;  4.0000000E+04;  0.0000000E+00;  4.0000000E+04;  3.1528688E-07;  0.0000000E+00;  7.9261540E-09;  1.2133506E-01;
 -1.6000000E-01;  9.9999998E-03; -2.5000000E-01;382;  0.0000000E+00;  0.0000000E+00;  0.0000000E+00;  1.0000000E+03;  1.0000000E-01;  0.0000000E+00;0;  0.0000000E+00;  0.0000000E+00;  0.0000000E+00;0;  3.8043362E-07;  4.0000000E+04;  0.0000000E+00;  0.0000000E+00;  4.0000000E+04;  0.0000000E+00;  4.0000000E+04;  3.7062091E-07;  0.0000000E+00;  9.8127106E-09;  1.7354198E-01;
 -1.6000000E-01;  9.9999998E-03; -2.3999999E-01;383;  0.0000000E+00;  0.0000000E+00;  0.0000000E+00;  1.0000000E+03;  1.0000000E-01;  0.0000000E+00;0;  0.0000000E+00;  0.0000000E+00;  0.0000000E+00;0;  3.9056781E-07;  4.0000000E+04;  0.0000000E+00;  0.0000000E+00;  4.0000000E+04;  0.0000000E+00;  4.0000000E+04;  3.8185047E-07;  0.0000000E+00;  8.7173353E-09;  2.0632538E-01;
 -1.6000000E-01;  9.9999998E-03; -2.3000000E-01;384;  0.0000000E+00;  0.0000000E+00;  0.0000000E+00;  1.0000000E+03;  1.0000000E-01;  0.0000000E+00;0;  0.0000000E+00;  0.0000000E+00;  0.0000000E+00;0;  3.6172966E-07;  4.0000000E+04;  0.0000000E+00;  0.0000000E+00;  4.0000000E+04;  0.0000000E+00;  4.0000000E+04;  3.5457771E-07;  0.0000000E+00;  7.1519590E-09;  2.2642173E-01;
 -1.6000000E-01;  9.9999998E-03; -2.2000000E-01;385;  0.0000000E+00;  0.0000000E+00;  0.0000000E+00;  1.0000000E+03;  1.0000000E-01;  0.0000000E+00;0;  0.0000000E+00;  0.0000000E+00;  0.0000000E+00;0;  3.1286919E-07;  4.0000000E+04;  0.0000000E+00;  0.0000000E+00;  4.0000000E+04;  0.0000000E+00;  4.0000000E+04;  3.0723788E-07;  0.0000000E+00;  5.6313167E-09;  2.4171644E-01;
 -1.6000000E-01;  9.9999998E-03; -2.0999999E-01;386;  0.0000000E+00;  0.0000000E+00;  0.0000000E+00;  1.0000000E+03;  1.0000000E-01;  0.0000000E+00;0;  0.0000000E+00;  0.0000000E+00;  0.0000000E+00;0;  2.6010400E-07;  4.0000000E+04;  0.0000000E+00;  0.0000000E+00;  4.0000000E+04;  0.0000000E+00;  4.0000000E+04;  2.5578157E-07;  0.0000000E+00;  4.3224362E-09;  2.5565428E-01;
 -1.6000000E-01;  9.9999998E-03; -2.0000000E-01;387;  0.0000000E+00;  0.0000000E+00;  0.0000000E+00;  1.0000000E+03;  1.0000000E-01;  0.0000000E+00;0;  0.0000000E+00;  0.0000000E+00;  0.0000000E+00;0;  2.1309276E-07;  4.0000000E+04;  0.0000000E+00;  0.0000000E+00;  4.0000000E+04;  0.0000000E+00;  4.0000000E+04;  2.0982010E-07;  0.0000000E+00;  3.2726606E-09;  2.6864183E-01;
 -1.6000000E-01;  9.9999998E-03; -1.9000000E-01;388;  0.0000000E+00;  0.0000000E+00;  0.0000000E+00;  1.0000000E+03;  1.0000000E-01;  0.0000000E+00;0;  0.0000000E+00;  0.0000000E+00;  0.0000000E+00;0;  1.7603966E-07;  4.0000000E+04;  0.0000000E+00;  0.0000000E+00;  4.0000000E+04;  0.0000000E+00;  4.0000000E+04;  1.7357274E-07;  0.0000000E+00;  2.4669182E-09;  2.7977362E-01;
 -1.6000000E-01;  9.9999998E-03; -1.8000001E-01;389;  0.0000000E+00;  0.0000000E+00;  0.0000000E+00;  1.0000000E+03;  1.0000000E-01;  0.0000000E+00;0;  0.0000000E+00;  0.0000000E+00;  0.0000000E+00;0;  1.4980036E-07;  4.0000000E+04;  0.0000000E+00;  0.0000000E+00;  4.0000000E+04;  0.0000000E+00;  4.0000000E+04;  1.4793241E-07;  0.0000000E+00;  1.8679516E-09;  2.8813934E-01;
 -1.6000000E-01;  9.9999998E-03; -1.7000000E-01;390;  0.0000000E+00;  0.0000000E+00;  0.0000000E+00;  1.0000000E+03;  1.0000000E-01;  0.0000000E+00;0;  0.0000000E+00;  0.0000000E+00;  0.0000000E+00;0;  1.3343539E-07;  4.0000000E+04;  0.0000000E+00;  0.0000000E+00;  4.0000000E+04;  0.0000000E+00;  4.0000000E+04;  1.3201438E-07;  0.0000000E+00;  1.4210101E-09;  2.9333669E-01;
 -1.6000000E-01;  9.9999998E-03; -1.6000000E-01;391;  0.0000000E+00;  0.0000000E+00;  0.0000000E+00;  1.0000000E+03;  1.0000000E-01;  0.0000000E+00;0;  0.0000000E+00;  0.0000000E+00;  0.0000000E+00;0;  1.2520663E-07;  4.0000000E+04;  0.0000000E+00;  0.0000000E+00;  4.0000000E+04;  0.0000000E+00;  4.0000000E+04;  1.2413098E-07;  0.0000000E+00;  1.0756472E-09;  2.9546630E-01;
 -1.6000000E-01;  9.9999998E-03; -1.5000001E-01;392;  0.0000000E+00;  0.0000000E+00;  0.0000000E+00;  1.0000000E+03;  1.0000000E-01;  0.0000000E+00;0;  0.0000000E+00;  0.0000000E+00;  0.0000000E+00;0;  1.2307328E-07;  4.0000000E+04;  0.0000000E+00;  0.0000000E+00;  4.0000000E+04;  0.0000000E+00;  4.0000000E+04;  1.2227277E-07;  0.0000000E+00;  8.0050727E-10;  2.9496664E-01;
 -1.6000000E-01;  9.9999998E-03; -1.4000000E-01;393;  0.0000000E+00;  0.0000000E+00;  0.0000000E+00;  1.0000000E+03;  1.0000000E-01;  0.0000000E+00;0;  0.0000000E+00;  0.0000000E+00;  0.0000000E+00;0;  1.2494486E-07;  4.0000000E+04;  0.0000000E+00;  0.0000000E+00;  4.0000000E+04;  0.0000000E+00;  4.0000000E+04;  1.2436169E-07;  0.0000000E+00;  5.8317307E-10;  2.9242790E-01;
 -1.6000000E-01;  9.9999998E-03; -1.3000000E-01;394;  0.0000000E+00;  0.0000000E+00;  0.0000000E+00;  1.0000000E+03;  1.0000000E-01;  0.0000000E+00;0;  0.0000000E+00;  0.0000000E+00;  0.0000000E+00;0;  1.2887506E-07;  4.0000000E+04;  0.0000000E+00;  0.0000000E+00;  4.0000000E+04;  0.0000000E+00;  4.0000000E+04;  1.2845587E-07;  0.0000000E+00;  4.1919543E-10;  2.8853604E-01;
 -1.6000000E-01;  9.9999998E-03; -1.2000000E-01;395;  0.0000000E+00;  0.0000000E+00;  0.0000000E+00;  1.0000000E+03;  1.0000000E-01;  0.0000000E+00;0;  0.0000000E+00;  0.0000000E+00;  0.0000000E+00;0;  1.3323556E-07;  4.0000000E+04;  0.0000000E+00;  0.0000000E+00;  4.0000000E+04;  0.0000000E+00;  4.0000000E+04;  1.3293432E-07;  0.0000000E+00;  3.0124833E-10;  2.8406599E-01;
 -1.6000000E-01;  9.9999998E-03; -1.1000000E-01;396;  0.0000000E+00;  0.0000000E+00;  0.0000000E+00;  1.0000000E+03;  1.0000000E-01;  0.0000000E+00;0;  0.0000000E+00;  0.0000000E+00;  0.0000000E+00;0;  1.3683942E-07;  4.0000000E+04;  0.0000000E+00;  0.0000000E+00;  4.0000000E+04;  0.0000000E+00;  4.0000000E+04;  1.3662211E-07;  0.0000000E+00;  2.1731375E-10;  2.7982214E-01;
 -1.5000001E-01;  9.9999998E-03; -2.7000001E-01;471;  0.0000000E+00;  0.0000000E+00;  0.0000000E+00;  1.0000000E+03;  1.0000000E-01;  0.0000000E+00;0;  0.0000000E+00;  0.0000000E+00;  0.0000000E+00;0;  3.3299557E-06;  4.0000000E+04;  0.0000000E+00;  0.0000000E+00;  4.0000000E+04;  0.0000000E+00;  4.0000000E+04;  3.4550440E-06;  0.0000000E+00; -1.2508828E-07;  7.2834975E-01;
 -1.5000001E-01;  9.9999998E-03; -2.5999999E-01;472;  0.0000000E+00;  0.0000000E+00;  0.0000000E+00;  1.0000000E+03;  1.0000000E-01;  0.0000000E+00;0;  0.0000000E+00;  0.0000000E+00;  0.0000000E+00;0;  4.5504712E-06;  4.0000000E+04;  0.0000000E+00;  0.0000000E+00;  4.0000000E+04;  0.0000000E+00;  4.0000000E+04;  4.5737975E-06;  0.0000000E+00; -2.3326383E-08;  1.5632790E+00;
 -1.5000001E-01;  9.9999998E-03; -2.5000000E-01;473;  0.0000000E+00;  0.0000000E+00;  0.0000000E+00;  1.0000000E+03;  1.0000000E-01;  0.0000000E+00;0;  0.0000000E+00;  0.0000000E+00;  0.0000000E+00;0;  5.5745186E-06;  4.0000000E+04;  0.0000000E+00;  0.0000000E+00;  4.0000000E+04;  0.0000000E+00;  4.0000000E+04;  5.5094629E-06;  0.0000000E+00;  6.5055801E-08;  2.3506763E+00;
 -1.5000001E-01;  9.9999998E-03; -2.3999999E-01;474;  0.0000000E+00;  0.0000000E+00;  0.0000000E+00;  1.0000000E+03;  1.0000000E-01;  0.0000000E+00;0;  0.0000000E+00;  0.0000000E+00;  0.0000000E+00;0;  6.2532658E-06;  4.0000000E+04;  0.0000000E+00;  0.0000000E+00;  4.0000000E+04;  0.0000000E+00;  4.0000000E+04;  6.1279052E-06;  0.0000000E+00;  1.2536054E-07;  2.9914196E+00;
 -1.5000001E-01;  9.9999998E-03; -2.3000000E-01;475;  0.0000000E+00;  0.0000000E+00;  0.0000000E+00;  1.0000000E+03;  1.0000000E-01;  0.0000000E+00;0;  0.0000000E+00;  0.0000000E+00;  0.0000000E+00;0;  6.5239537E-06;  4.0000000E+04;  0.0000000E+00;  0.0000000E+00;  4.0000000E+04;  0.0000000E+00;  4.0000000E+04;  6.3700681E-06;  0.0000000E+00;  1.5388578E-07;  3.4423728E+00;
 -1.5000001E-01;  9.9999998E-03; -2.2000000E-01;476;  0.0000000E+00;  0.0000000E+00;  0.0000000E+00;  1.0000000E+03;  1.0000000E-01;  0.0000000E+00;0;  0.0000000E+00;  0.0000000E+00;  0.0000000E+00;0;  6.4134279E-06;  4.0000000E+04;  0.0000000E+00;  0.0000000E+00;  4.0000000E+04;  0.0000000E+00;  4.0000000E+04;  6.2537565E-06;  0.0000000E+00;  1.5967129E-07;  3.7247910E+00;
 -1.5000001E-01;  9.9999998E-03; -2.0999999E-01;477;  0.0000000E+00;  0.0000000E+00;  0.0000000E+00;  1.0000000E+03;  1.0000000E-01;  0.0000000E+00;0;  0.0000000E+00;  0.0000000E+00;  0.0000000E+00;0;  6.0257971E-06;  4.0000000E+04;  0.0000000E+00;  0.0000000E+00;  4.0000000E+04;  0.0000000E+00;  4.0000000E+04;  5.8700916E-06;  0.0000000E+00;  1.5570534E-07;  3.9036615E+00;
 -1.5000001E-01;  9.9999998E-03; -2.0000000E-01;478;  0.0000000E+00;  0.0000000E+00;  0.0000000E+00;  1.0000000E+03;  1.0000000E-01;  0.0000000E+00;0;  0.0000000E+00;  0.0000000E+00;  0.0000000E+00;0;  5.5005453E-06;  4.0000000E+04;  0.0000000E+00;  0.0000000E+00;  4.0000000E+04;  0.0000000E+00;  4.0000000E+04;  5.3545700E-06;  0.0000000E+00;  1.4597532E-07;  4.0359511E+00;
 -1.5000001E-01;  9.9999998E-03; -1.9000000E-01;479;  0.0000000E+00;  0.0000000E+00;  0.0000000E+00;  1.0000000E+03;  1.0000000E-01;  0.0000000E+00;0;  0.0000000E+00;  0.0000000E+00;  0.0000000E+00;0;  4.9630894E-06;  4.0000000E+04;  0.0000000E+00;  0.0000000E+00;  4.0000000E+04;  0.0000000E+00;  4.0000000E+04;  4.8309389E-06;  0.0000000E+00;  1.3215067E-07;  4.1463165E+00;
 -1.5000001E-01;  9.9999998E-03; -1.8000001E-01;480;  0.0000000E+00;  0.0000000E+00;  0.0000000E+00;  1.0000000E+03;  1.0000000E-01;  0.0000000E+00;0;  0.0000000E+00;  0.0000000E+00;  0.0000000E+00;0;  4.5025699E-06;  4.0000000E+04;  0.0000000E+00;  0.0000000E+00;  4.0000000E+04;  0.0000000E+00;  4.0000000E+04;  4.3867058E-06;  0.0000000E+00;  1.1586402E-07;  4.2391324E+00;
 -1.5000001E-01;  9.9999998E-03; -1.7000000E-01;481;  0.0000000E+00;  0.0000000E+00;  0.0000000E+00;  1.0000000E+03;  1.0000000E-01;  0.0000000E+00;0;  0.0000000E+00;  0.0000000E+00;  0.0000000E+00;0;  4.1679232E-06;  4.0000000E+04;  0.0000000E+00;  0.0000000E+00;  4.0000000E+04;  0.0000000E+00;  4.0000000E+04;  4.0694035E-06;  0.0000000E+00;  9.8519457E-08;  4.3109050E+00;
 -1.5000001E-01;  9.9999998E-03; -1.6000000E-01;482;  0.0000000E+00;  0.0000000E+00;  0.0000000E+00;  1.0000000E+03;  1.0000000E-01;  0.0000000E+00;0;  0.0000000E+00;  0.0000000E+00;  0.0000000E+00;0;  3.9728357E-06;  4.0000000E+04;  0.0000000E+00;  0.0000000E+00;  4.0000000E+04;  0.0000000E+00;  4.0000000E+04;  3.8915246E-06;  0.0000000E+00;  8.1311114E-08;  4.3576508E+00;
 -1.5000001E-01;  9.9999998E-03; -1.5000001E-01;483;  0.0000000E+00;  0.0000000E+00;  0.0000000E+00;  1.0000000E+03;  1.0000000E-01;  0.0000000E+00;0;  0.0000000E+00;  0.0000000E+00;  0.0000000E+00;0;  3.9042020E-06;  4.0000000E+04;  0.0000000E+00;  0.0000000E+00;  4.0000000E+04;  0.0000000E+00;  4.0000000E+04;  3.8390040E-06;  0.0000000E+00;  6.5198257E-08;  4.3781581E+00;
 -1.5000001E-01;  9.9999998E-03; -1.4000000E-01;484;  0.0000000E+00;  0.0000000E+00;  0.0000000E+00;  1.0000000E+03;  1.0000000E-01;  0.0000000E+00;0;  0.0000000E+00;  0.0000000E+00;  0.0000000E+00;0;  3.9317979E-06;  4.0000000E+04;  0.0000000E+00;  0.0000000E+00;  4.0000000E+04;  0.0000000E+00;  4.0000000E+04;  3.8809094E-06;  0.0000000E+00;  5.0888573E-08;  4.3746843E+00;
 -1.5000001E-01;  9.9999998E-03; -1.3000000E-01;485;  0.0000000E+00;  0.0000000E+00;  0.0000000E+00;  1.0000000E+03;  1.0000000E-01;  0.0000000E+00;0;  0.0000000E+00;  0.0000000E+00;  0.0000000E+00;0;  4.0174714E-06;  4.0000000E+04;  0.0000000E+00;  0.0000000E+00;  4.0000000E+04;  0.0000000E+00;  4.0000000E+04;  3.9786537E-06;  0.0000000E+00;  3.8817543E-08;  4.3530755E+00;
 -1.5000001E-01;  9.9999998E-03; -1.2000000E-01;486;  0.0000000E+00;  0.0000000E+00;  0.0000000E+00;  1.0000000E+03;  1.0000000E-01;  0.0000000E+00;0;  0.0000000E+00;  0.0000000E+00;  0.0000000E+00;0;  4.1230646E-06;  4.0000000E+04;  0.0000000E+00;  0.0000000E+00;  4.0000000E+04;  0.0000000E+00;  4.0000000E+04;  4.0939294E-06;  0.0000000E+00;  2.9135128E-08;  4.3220792E+00;
 -1.5000001E-01;  9.9999998E-03; -1.1000000E-01;487;  0.0000000E+00;  0.0000000E+00;  0.0000000E+00;  1.0000000E+03;  1.0000000E-01;  0.0000000E+00;0;  0.0000000E+00;  0.0000000E+00;  0.0000000E+00;0;  4.2164247E-06;  4.0000000E+04;  0.0000000E+00;  0.0000000E+00;  4.0000000E+04;  0.0000000E+00;  4.0000000E+04;  4.1946819E-06;  0.0000000E+00;  2.1742773E-08;  4.2914038E+00;
 -1.4000000E-01;  9.9999998E-03; -2.7000001E-01;562;  0.0000000E+00;  0.0000000E+00;  0.0000000E+00;  1.0000000E+03;  1.0000000E-01;  0.0000000E+00;0;  0.0000000E+00;  0.0000000E+00;  0.0000000E+00;0;  1.2479112E-05;  4.0000000E+04;  0.0000000E+00;  0.0000000E+00;  4.0000000E+04;  0.0000000E+00;  4.0000000E+04;  1.3415425E-05;  0.0000000E+00; -9.3631286E-07;  3.5756648E+00;
 -1.4000000E-01;  9.9999998E-03; -2.5999999E-01;563;  0.0000000E+00;  0.0000000E+00;  0.0000000E+00;  1.0000000E+03;  1.0000000E-01;  0.0000000E+00;0;  0.0000000E+00;  0.0000000E+00;  0.0000000E+00;0;  1.6948681E-05;  4.0000000E+04;  0.0000000E+00;  0.0000000E+00;  4.0000000E+04;  0.0000000E+00;  4.0000000E+04;  1.7418048E-05;  0.0000000E+00; -4.6936680E-07;  7.3770080E+00;
 -1.4000000E-01;  9.9999998E-03; -2.5000000E-01;564;  0.0000000E+00;  0.0000000E+00;  0.0000000E+00;  1.0000000E+03;  1.0000000E-01;  0.0000000E+00;0;  0.0000000E+00;  0.0000000E+00;  0.0000000E+00;0;  2.0919237E-05;  4.0000000E+04;  0.0000000E+00;  0.0000000E+00;  4.0000000E+04;  0.0000000E+00;  4.0000000E+04;  2.0918802E-05;  0.0000000E+00;  4.3463388E-10;  1.0986592E+01;
 -1.4000000E-01;  9.9999998E-03; -2.3999999E-01;565;  0.0000000E+00;  0.0000000E+00;  0.0000000E+00;  1.0000000E+03;  1.0000000E-01;  0.0000000E+00;0;  0.0000000E+00;  0.0000000E+00;  0.0000000E+00;0;  2.3906945E-05;  4.0000000E+04;  0.0000000E+00;  0.0000000E+00;  4.0000000E+04;  0.0000000E+00;  4.0000000E+04;  2.3499422E-05;  0.0000000E+00;  4.0752360E-07;  1.4005052E+01;
 -1.4000000E-01;  9.9999998E-03; -2.3000000E-01;566;  0.0000000E+00;  0.0000000E+00;  0.0000000E+00;  1.0000000E+03;  1.0000000E-01;  0.0000000E+00;0;  0.0000000E+00;  0.0000000E+00;  0.0000000E+00;0;  2.5618914E-05;  4.0000000E+04;  0.0000000E+00;  0.0000000E+00;  4.0000000E+04;  0.0000000E+00;  4.0000000E+04;  2.4909412E-05;  0.0000000E+00;  7.0950301E-07;  1.6220110E+01;
 -1.4000000E-01;  9.9999998E-03; -2.2000000E-01;567;  0.0000000E+00;  0.0000000E+00;  0.0000000E+00;  1.0000000E+03;  1.0000000E-01;  0.0000000E+00;0;  0.0000000E+00;  0.0000000E+00;  0.0000000E+00;0;  2.6006868E-05;  4.0000000E+04;  0.0000000E+00;  0.0000000E+00;  4.0000000E+04;  0.0000000E+00;  4.0000000E+04;  2.5112740E-05;  0.0000000E+00;  8.9412737E-07;  1.7631254E+01;
 -1.4000000E-01;  9.9999998E-03; -2.0999999E-01;568;  0.0000000E+00;  0.0000000E+00;  0.0000000E+00;  1.0000000E+03;  1.0000000E-01;  0.0000000E+00;0;  0.0000000E+00;  0.0000000E+00;  0.0000000E+00;0;  2.5272891E-05;  4.0000000E+04;  0.0000000E+00;  0.0000000E+00;  4.0000000E+04;  0.0000000E+00;  4.0000000E+04;  2.4299028E-05;  0.0000000E+00;  9.7386362E-07;  1.8392290E+01;
 -1.4000000E-01;  9.9999998E-03; -2.0000000E-01;569;  0.0000000E+00;  0.0000000E+00;  0.0000000E+00;  1.0000000E+03;  1.0000000E-01;  0.0000000E+00;0;  0.0000000E+00;  0.0000000E+00;  0.0000000E+00;0;  2.3786182E-05;  4.0000000E+04;  0.0000000E+00;  0.0000000E+00;  4.0000000E+04;  0.0000000E+00;  4.0000000E+04;  2.2805696E-05;  0.0000000E+00;  9.8048599E-07;  1.8745090E+01;
 -1.4000000E-01;  9.9999998E-03; -1.9000000E-01;570;  0.0000000E+00;  0.0000000E+00;  0.0000000E+00;  1.0000000E+03;  1.0000000E-01;  0.0000000E+00;0;  0.0000000E+00;  0.0000000E+00;  0.0000000E+00;0;  2.1980613E-05;  4.0000000E+04;  0.0000000E+00;  0.0000000E+00;  4.0000000E+04;  0.0000000E+00;  4.0000000E+04;  2.1039854E-05;  0.0000000E+00;  9.4075921E-07;  1.8922491E+01;
 -1.4000000E-01;  9.9999998E-03; -1.8000001E-01;571;  0.0000000E+00;  0.0000000E+00;  0.0000000E+00;  1.0000000E+03;  1.0000000E-01;  0.0000000E+00;0;  0.0000000E+00;  0.0000000E+00;  0.0000000E+00;0;  2.0243853E-05;  4.0000000E+04;  0.0000000E+00;  0.0000000E+00;  4.0000000E+04;  0.0000000E+00;  4.0000000E+04;  1.9378074E-05;  0.0000000E+00;  8.6577984E-07;  1.9056080E+01;
 -1.4000000E-01;  9.9999998E-03; -1.7000000E-01;572;  0.0000000E+00;  0.0000000E+00;  0.0000000E+00;  1.0000000E+03;  1.0000000E-01;  0.0000000E+00;0;  0.0000000E+00;  0.0000000E+00;  0.0000000E+00;0;  1.8845201E-05;  4.0000000E+04;  0.0000000E+00;  0.0000000E+00;  4.0000000E+04;  0.0000000E+00;  4.0000000E+04;  1.8077702E-05;  0.0000000E+00;  7.6749842E-07;  1.9183039E+01;
 -1.4000000E-01;  9.9999998E-03; -1.6000000E-01;573;  0.0000000E+00;  0.0000000E+00;  0.0000000E+00;  1.0000000E+03;  1.0000000E-01;  0.0000000E+00;0;  0.0000000E+00;  0.0000000E+00;  0.0000000E+00;0;  1.7917229E-05;  4.0000000E+04;  0.0000000E+00;  0.0000000E+00;  4.0000000E+04;  0.0000000E+00;  4.0000000E+04;  1.7259645E-05;  0.0000000E+00;  6.5758388E-07;  1.9295942E+01;
 -1.4000000E-01;  9.9999998E-03; -1.5000001E-01;574;  0.0000000E+00;  0.0000000E+00;  0.0000000E+00;  1.0000000E+03;  1.0000000E-01;  0.0000000E+00;0;  0.0000000E+00;  0.0000000E+00;  0.0000000E+00;0;  1.7471037E-05;  4.0000000E+04;  0.0000000E+00;  0.0000000E+00;  4.0000000E+04;  0.0000000E+00;  4.0000000E+04;  1.6924925E-05;  0.0000000E+00;  5.4611178E-07;  1.9378147E+01;
 -1.4000000E-01;  9.9999998E-03; -1.4000000E-01;575;  0.0000000E+00;  0.0000000E+00;  0.0000000E+00;  1.0000000E+03;  1.0000000E-01;  0.0000000E+00;0;  0.0000000E+00;  0.0000000E+00;  0.0000000E+00;0;  1.7428361E-05;  4.0000000E+04;  0.0000000E+00;  0.0000000E+00;  4.0000000E+04;  0.0000000E+00;  4.0000000E+04;  1.6987446E-05;  0.0000000E+00;  4.4091487E-07;  1.9422167E+01;
 -1.4000000E-01;  9.9999998E-03; -1.3000000E-01;576;  0.0000000E+00;  0.0000000E+00;  0.0000000E+00;  1.0000000E+03;  1.0000000E-01;  0.0000000E+00;0;  0.0000000E+00;  0.0000000E+00;  0.0000000E+00;0;  1.7658545E-05;  4.0000000E+04;  0.0000000E+00;  0.0000000E+00;  4.0000000E+04;  0.0000000E+00;  4.0000000E+04;  1.7311151E-05;  0.0000000E+00;  3.4739429E-07;  1.9434986E+01;
 -1.4000000E-01;  9.9999998E-03; -1.2000000E-01;577;  0.0000000E+00;  0.0000000E+00;  0.0000000E+00;  1.0000000E+03;  1.0000000E-01;  0.0000000E+00;0;  0.0000000E+00;  0.0000000E+00;  0.0000000E+00;0;  1.8013714E-05;  4.0000000E+04;  0.0000000E+00;  0.0000000E+00;  4.0000000E+04;  0.0000000E+00;  4.0000000E+04;  1.7744982E-05;  0.0000000E+00;  2.6873113E-07;  1.9434835E+01;
 -1.4000000E-01;  9.9999998E-03; -1.1000000E-01;578;  0.0000000E+00;  0.0000000E+00;  0.0000000E+00;  1.0000000E+03;  1.0000000E-01;  0.0000000E+00;0;  0.0000000E+00;  0.0000000E+00;  0.0000000E+00;0;  1.8357950E-05;  4.0000000E+04;  0.0000000E+00;  0.0000000E+00;  4.0000000E+04;  0.0000000E+00;  4.0000000E+04;  1.8151633E-05;  0.0000000E+00;  2.0631705E-07;  1.9444218E+01;
 -1.3000000E-01;  9.9999998E-03; -2.7000001E-01;653;  0.0000000E+00;  0.0000000E+00;  0.0000000E+00;  1.0000000E+03;  1.0000000E-01;  0.0000000E+00;0;  0.0000000E+00;  0.0000000E+00;  0.0000000E+00;0;  2.5787684E-05;  4.0000000E+04;  0.0000000E+00;  0.0000000E+00;  4.0000000E+04;  0.0000000E+00;  4.0000000E+04;  2.9227378E-05;  0.0000000E+00; -3.4396940E-06;  1.0886972E+01;
 -1.3000000E-01;  9.9999998E-03; -2.5999999E-01;654;  0.0000000E+00;  0.0000000E+00;  0.0000000E+00;  1.0000000E+03;  1.0000000E-01;  0.0000000E+00;0;  0.0000000E+00;  0.0000000E+00;  0.0000000E+00;0;  3.5611381E-05;  4.0000000E+04;  0.0000000E+00;  0.0000000E+00;  4.0000000E+04;  0.0000000E+00;  4.0000000E+04;  3.7673290E-05;  0.0000000E+00; -2.0619068E-06;  2.2010900E+01;
 -1.3000000E-01;  9.9999998E-03; -2.5000000E-01;655;  0.0000000E+00;  0.0000000E+00;  0.0000000E+00;  1.0000000E+03;  1.0000000E-01;  0.0000000E+00;0;  0.0000000E+00;  0.0000000E+00;  0.0000000E+00;0;  4.4543904E-05;  4.0000000E+04;  0.0000000E+00;  0.0000000E+00;  4.0000000E+04;  0.0000000E+00;  4.0000000E+04;  4.5137913E-05;  0.0000000E+00; -5.9400810E-07;  3.2501034E+01;
 -1.3000000E-01;  9.9999998E-03; -2.3999999E-01;656;  0.0000000E+00;  0.0000000E+00;  0.0000000E+00;  1.0000000E+03;  1.0000000E-01;  0.0000000E+00;0;  0.0000000E+00;  0.0000000E+00;  0.0000000E+00;0;  5.1593932E-05;  4.0000000E+04;  0.0000000E+00;  0.0000000E+00;  4.0000000E+04;  0.0000000E+00;  4.0000000E+04;  5.0807528E-05;  0.0000000E+00;  7.8640352E-07;  4.1273212E+01;
 -1.3000000E-01;  9.9999998E-03; -2.3000000E-01;657;  0.0000000E+00;  0.0000000E+00;  0.0000000E+00;  1.0000000E+03;  1.0000000E-01;  0.0000000E+00;0;  0.0000000E+00;  0.0000000E+00;  0.0000000E+00;0;  5.6082681E-05;  4.0000000E+04;  0.0000000E+00;  0.0000000E+00;  4.0000000E+04;  0.0000000E+00;  4.0000000E+04;  5.4145650E-05;  0.0000000E+00;  1.9370307E-06;  4.7700539E+01;
 -1.3000000E-01;  9.9999998E-03; -2.2000000E-01;658;  0.0000000E+00;  0.0000000E+00;  0.0000000E+00;  1.0000000E+03;  1.0000000E-01;  0.0000000E+00;0;  0.0000000E+00;  0.0000000E+00;  0.0000000E+00;0;  5.7766469E-05;  4.0000000E+04;  0.0000000E+00;  0.0000000E+00;  4.0000000E+04;  0.0000000E+00;  4.0000000E+04;  5.4991775E-05;  0.0000000E+00;  2.7746926E-06;  5.1695702E+01;
 -1.3000000E-01;  9.9999998E-03; -2.0999999E-01;659;  0.0000000E+00;  0.0000000E+00;  0.0000000E+00;  1.0000000E+03;  1.0000000E-01;  0.0000000E+00;0;  0.0000000E+00;  0.0000000E+00;  0.0000000E+00;0;  5.6885779E-05;  4.0000000E+04;  0.0000000E+00;  0.0000000E+00;  4.0000000E+04;  0.0000000E+00;  4.0000000E+04;  5.3605625E-05;  0.0000000E+00;  3.2801527E-06;  5.3622246E+01;
 -1.3000000E-01;  9.9999998E-03; -2.0000000E-01;660;  0.0000000E+00;  0.0000000E+00;  0.0000000E+00;  1.0000000E+03;  1.0000000E-01;  0.0000000E+00;0;  0.0000000E+00;  0.0000000E+00;  0.0000000E+00;0;  5.4076274E-05;  4.0000000E+04;  0.0000000E+00;  0.0000000E+00;  4.0000000E+04;  0.0000000E+00;  4.0000000E+04;  5.0588915E-05;  0.0000000E+00;  3.4873585E-06;  5.4111515E+01;
 -1.3000000E-01;  9.9999998E-03; -1.9000000E-01;661;  0.0000000E+00;  0.0000000E+00;  0.0000000E+00;  1.0000000E+03;  1.0000000E-01;  0.0000000E+00;0;  0.0000000E+00;  0.0000000E+00;  0.0000000E+00;0;  5.0200619E-05;  4.0000000E+04;  0.0000000E+00;  0.0000000E+00;  4.0000000E+04;  0.0000000E+00;  4.0000000E+04;  4.6738038E-05;  0.0000000E+00;  3.4625798E-06;  5.3840046E+01;
 -1.3000000E-01;  9.9999998E-03; -1.8000001E-01;662;  0.0000000E+00;  0.0000000E+00;  0.0000000E+00;  1.0000000E+03;  1.0000000E-01;  0.0000000E+00;0;  0.0000000E+00;  0.0000000E+00;  0.0000000E+00;0;  4.6131230E-05;  4.0000000E+04;  0.0000000E+00;  0.0000000E+00;  4.0000000E+04;  0.0000000E+00;  4.0000000E+04;  4.2851443E-05;  0.0000000E+00;  3.2797864E-06;  5.3369862E+01;
 -1.3000000E-01;  9.9999998E-03; -1.7000000E-01;663;  0.0000000E+00;  0.0000000E+00;  0.0000000E+00;  1.0000000E+03;  1.0000000E-01;  0.0000000E+00;0;  0.0000000E+00;  0.0000000E+00;  0.0000000E+00;0;  4.2571628E-05;  4.0000000E+04;  0.0000000E+00;  0.0000000E+00;  4.0000000E+04;  0.0000000E+00;  4.0000000E+04;  3.9586412E-05;  0.0000000E+00;  2.9852179E-06;  5.3015579E+01;
 -1.3000000E-01;  9.9999998E-03; -1.6000000E-01;664;  0.0000000E+00;  0.0000000E+00;  0.0000000E+00;  1.0000000E+03;  1.0000000E-01;  0.0000000E+00;0;  0.0000000E+00;  0.0000000E+00;  0.0000000E+00;0;  3.9952793E-05;  4.0000000E+04;  0.0000000E+00;  0.0000000E+00;  4.0000000E+04;  0.0000000E+00;  4.0000000E+04;  3.7330843E-05;  0.0000000E+00;  2.6219477E-06;  5.2860359E+01;
 -1.3000000E-01;  9.9999998E-03; -1.5000001E-01;665;  0.0000000E+00;  0.0000000E+00;  0.0000000E+00;  1.0000000E+03;  1.0000000E-01;  0.0000000E+00;0;  0.0000000E+00;  0.0000000E+00;  0.0000000E+00;0;  3.8417518E-05;  4.0000000E+04;  0.0000000E+00;  0.0000000E+00;  4.0000000E+04;  0.0000000E+00;  4.0000000E+04;  3.6186888E-05;  0.0000000E+00;  2.2306308E-06;  5.2877937E+01;
 -1.3000000E-01;  9.9999998E-03; -1.4000000E-01;666;  0.0000000E+00;  0.0000000E+00;  0.0000000E+00;  1.0000000E+03;  1.0000000E-01;  0.0000000E+00;0;  0.0000000E+00;  0.0000000E+00;  0.0000000E+00;0;  3.7868162E-05;  4.0000000E+04;  0.0000000E+00;  0.0000000E+00;  4.0000000E+04;  0.0000000E+00;  4.0000000E+04;  3.6023292E-05;  0.0000000E+00;  1.8448711E-06;  5.3018047E+01;
 -1.3000000E-01;  9.9999998E-03; -1.3000000E-01;667;  0.0000000E+00;  0.0000000E+00;  0.0000000E+00;  1.0000000E+03;  1.0000000E-01;  0.0000000E+00;0;  0.0000000E+00;  0.0000000E+00;  0.0000000E+00;0;  3.8047438E-05;  4.0000000E+04;  0.0000000E+00;  0.0000000E+00;  4.0000000E+04;  0.0000000E+00;  4.0000000E+04;  3.6557783E-05;  0.0000000E+00;  1.4896535E-06;  5.3247162E+01;
 -1.3000000E-01;  9.9999998E-03; -1.2000000E-01;668;  0.0000000E+00;  0.0000000E+00;  0.0000000E+00;  1.0000000E+03;  1.0000000E-01;  0.0000000E+00;0;  0.0000000E+00;  0.0000000E+00;  0.0000000E+00;0;  3.8625207E-05;  4.0000000E+04;  0.0000000E+00;  0.0000000E+00;  4.0000000E+04;  0.0000000E+00;  4.0000000E+04;  3.7443457E-05;  0.0000000E+00;  1.1817484E-06;  5.3553642E+01;
 -1.3000000E-01;  9.9999998E-03; -1.1000000E-01;669;  0.0000000E+00;  0.0000000E+00;  0.0000000E+00;  1.0000000E+03;  1.0000000E-01;  0.0000000E+00;0;  0.0000000E+00;  0.0000000E+00;  0.0000000E+00;0;  3.9274408E-05;  4.0000000E+04;  0.0000000E+00;  0.0000000E+00;  4.0000000E+04;  0.0000000E+00;  4.0000000E+04;  3.8343198E-05;  0.0000000E+00;  9.3120860E-07;  5.3935917E+01;
 -1.2000000E-01;  9.9999998E-03; -2.7000001E-01;744;  0.0000000E+00;  0.0000000E+00;  0.0000000E+00;  1.0000000E+03;  1.0000000E-01;  0.0000000E+00;0;  0.0000000E+00;  0.0000000E+00;  0.0000000E+00;0;  3.3541481E-05;  4.0000000E+04;  0.0000000E+00;  0.0000000E+00;  4.0000000E+04;  0.0000000E+00;  4.0000000E+04;  4.2536336E-05;  0.0000000E+00; -8.9948571E-06;  2.5319700E+01;
 -1.2000000E-01;  9.9999998E-03; -2.5999999E-01;745;  0.0000000E+00;  0.0000000E+00;  0.0000000E+00;  1.0000000E+03;  1.0000000E-01;  0.0000000E+00;0;  0.0000000E+00;  0.0000000E+00;  0.0000000E+00;0;  4.9617465E-05;  4.0000000E+04;  0.0000000E+00;  0.0000000E+00;  4.0000000E+04;  0.0000000E+00;  4.0000000E+04;  5.5443605E-05;  0.0000000E+00; -5.8261403E-06;  5.0574966E+01;
 -1.2000000E-01;  9.9999998E-03; -2.5000000E-01;746;  0.0000000E+00;  0.0000000E+00;  0.0000000E+00;  1.0000000E+03;  1.0000000E-01;  0.0000000E+00;0;  0.0000000E+00;  0.0000000E+00;  0.0000000E+00;0;  6.4399952E-05;  4.0000000E+04;  0.0000000E+00;  0.0000000E+00;  4.0000000E+04;  0.0000000E+00;  4.0000000E+04;  6.6757319E-05;  0.0000000E+00; -2.3573650E-06;  7.4194809E+01;
 -1.2000000E-01;  9.9999998E-03; -2.3999999E-01;747;  0.0000000E+00;  0.0000000E+00;  0.0000000E+00;  1.0000000E+03;  1.0000000E-01;  0.0000000E+00;0;  0.0000000E+00;  0.0000000E+00;  0.0000000E+00;0;  7.6261807E-05;  4.0000000E+04;  0.0000000E+00;  0.0000000E+00;  4.0000000E+04;  0.0000000E+00;  4.0000000E+04;  7.5224460E-05;  0.0000000E+00;  1.0373501E-06;  9.3855385E+01;
 -1.2000000E-01;  9.9999998E-03; -2.3000000E-01;748;  0.0000000E+00;  0.0000000E+00;  0.0000000E+00;  1.0000000E+03;  1.0000000E-01;  0.0000000E+00;0;  0.0000000E+00;  0.0000000E+00;  0.0000000E+00;0;  8.4018873E-05;  4.0000000E+04;  0.0000000E+00;  0.0000000E+00;  4.0000000E+04;  0.0000000E+00;  4.0000000E+04;  7.9991427E-05;  0.0000000E+00;  4.0274431E-06;  1.0814462E+02;
 -1.2000000E-01;  9.9999998E-03; -2.2000000E-01;749;  0.0000000E+00;  0.0000000E+00;  0.0000000E+00;  1.0000000E+03;  1.0000000E-01;  0.0000000E+00;0;  0.0000000E+00;  0.0000000E+00;  0.0000000E+00;0;  8.7133201E-05;  4.0000000E+04;  0.0000000E+00;  0.0000000E+00;  4.0000000E+04;  0.0000000E+00;  4.0000000E+04;  8.0755388E-05;  0.0000000E+00;  6.3778148E-06;  1.1675181E+02;
 -1.2000000E-01;  9.9999998E-03; -2.0999999E-01;750;  0.0000000E+00;  0.0000000E+00;  0.0000000E+00;  1.0000000E+03;  1.0000000E-01;  0.0000000E+00;0;  0.0000000E+00;  0.0000000E+00;  0.0000000E+00;0;  8.5817694E-05;  4.0000000E+04;  0.0000000E+00;  0.0000000E+00;  4.0000000E+04;  0.0000000E+00;  4.0000000E+04;  7.7841192E-05;  0.0000000E+00;  7.9765041E-06;  1.2036967E+02;
 -1.2000000E-01;  9.9999998E-03; -2.0000000E-01;751;  0.0000000E+00;  0.0000000E+00;  0.0000000E+00;  1.0000000E+03;  1.0000000E-01;  0.0000000E+00;0;  0.0000000E+00;  0.0000000E+00;  0.0000000E+00;0;  8.0953389E-05;  4.0000000E+04;  0.0000000E+00;  0.0000000E+00;  4.0000000E+04;  0.0000000E+00;  4.0000000E+04;  7.2120696E-05;  0.0000000E+00;  8.8326906E-06;  1.2036141E+02;
 -1.2000000E-01;  9.9999998E-03; -1.9000000E-01;752;  0.0000000E+00;  0.0000000E+00;  0.0000000E+00;  1.0000000E+03;  1.0000000E-01;  0.0000000E+00;0;  0.0000000E+00;  0.0000000E+00;  0.0000000E+00;0;  7.3882009E-05;  4.0000000E+04;  0.0000000E+00;  0.0000000E+00;  4.0000000E+04;  0.0000000E+00;  4.0000000E+04;  6.4836597E-05;  0.0000000E+00;  9.0454123E-06;  1.1829962E+02;
 -1.2000000E-01;  9.9999998E-03; -1.8000001E-01;753;  0.0000000E+00;  0.0000000E+00;  0.0000000E+00;  1.0000000E+03;  1.0000000E-01;  0.0000000E+00;0;  0.0000000E+00;  0.0000000E+00;  0.0000000E+00;0;  6.6087960E-05;  4.0000000E+04;  0.0000000E+00;  0.0000000E+00;  4.0000000E+04;  0.0000000E+00;  4.0000000E+04;  5.7327106E-05;  0.0000000E+00;  8.7608569E-06;  1.1557627E+02;
 -1.2000000E-01;  9.9999998E-03; -1.7000000E-01;754;  0.0000000E+00;  0.0000000E+00;  0.0000000E+00;  1.0000000E+03;  1.0000000E-01;  0.0000000E+00;0;  0.0000000E+00;  0.0000000E+00;  0.0000000E+00;0;  5.8877758E-05;  4.0000000E+04;  0.0000000E+00;  0.0000000E+00;  4.0000000E+04;  0.0000000E+00;  4.0000000E+04;  5.0740549E-05;  0.0000000E+00;  8.1372082E-06;  1.1319053E+02;
 -1.2000000E-01;  9.9999998E-03; -1.6000000E-01;755;  0.0000000E+00;  0.0000000E+00;  0.0000000E+00;  1.0000000E+03;  1.0000000E-01;  0.0000000E+00;0;  0.0000000E+00;  0.0000000E+00;  0.0000000E+00;0;  5.3153442E-05;  4.0000000E+04;  0.0000000E+00;  0.0000000E+00;  4.0000000E+04;  0.0000000E+00;  4.0000000E+04;  4.5862216E-05;  0.0000000E+00;  7.2912258E-06;  1.1163289E+02;
 -1.2000000E-01;  9.9999998E-03; -1.5000001E-01;756;  0.0000000E+00;  0.0000000E+00;  0.0000000E+00;  1.0000000E+03;  1.0000000E-01;  0.0000000E+00;0;  0.0000000E+00;  0.0000000E+00;  0.0000000E+00;0;  4.9329316E-05;  4.0000000E+04;  0.0000000E+00;  0.0000000E+00;  4.0000000E+04;  0.0000000E+00;  4.0000000E+04;  4.3001881E-05;  0.0000000E+00;  6.3274356E-06;  1.1097388E+02;
 -1.2000000E-01;  9.9999998E-03; -1.4000000E-01;757;  0.0000000E+00;  0.0000000E+00;  0.0000000E+00;  1.0000000E+03;  1.0000000E-01;  0.0000000E+00;0;  0.0000000E+00;  0.0000000E+00;  0.0000000E+00;0;  4.7365771E-05;  4.0000000E+04;  0.0000000E+00;  0.0000000E+00;  4.0000000E+04;  0.0000000E+00;  4.0000000E+04;  4.2026240E-05;  0.0000000E+00;  5.3395324E-06;  1.1108857E+02;
 -1.2000000E-01;  9.9999998E-03; -1.3000000E-01;758;  0.0000000E+00;  0.0000000E+00;  0.0000000E+00;  1.0000000E+03;  1.0000000E-01;  0.0000000E+00;0;  0.0000000E+00;  0.0000000E+00;  0.0000000E+00;0;  4.6884539E-05;  4.0000000E+04;  0.0000000E+00;  0.0000000E+00;  4.0000000E+04;  0.0000000E+00;  4.0000000E+04;  4.2482145E-05;  0.0000000E+00;  4.4023946E-06;  1.1180648E+02;
 -1.2000000E-01;  9.9999998E-03; -1.2000000E-01;759;  0.0000000E+00;  0.0000000E+00;  0.0000000E+00;  1.0000000E+03;  1.0000000E-01;  0.0000000E+00;0;  0.0000000E+00;  0.0000000E+00;  0.0000000E+00;0;  4.7321937E-05;  4.0000000E+04;  0.0000000E+00;  0.0000000E+00;  4.0000000E+04;  0.0000000E+00;  4.0000000E+04;  4.3751363E-05;  0.0000000E+00;  3.5705737E-06;  1.1296957E+02;
 -1.2000000E-01;  9.9999998E-03; -1.1000000E-01;760;  0.0000000E+00;  0.0000000E+00;  0.0000000E+00;  1.0000000E+03;  1.0000000E-01;  0.0000000E+00;0;  0.0000000E+00;  0.0000000E+00;  0.0000000E+00;0;  4.8076305E-05;  4.0000000E+04;  0.0000000E+00;  0.0000000E+00;  4.0000000E+04;  0.0000000E+00;  4.0000000E+04;  4.5196102E-05;  0.0000000E+00;  2.8802035E-06;  1.1443679E+02;
 -1.1000000E-01;  9.9999998E-03; -2.7000001E-01;835;  0.0000000E+00;  0.0000000E+00;  0.0000000E+00;  1.0000000E+03;  1.0000000E-01;  0.0000000E+00;0;  0.0000000E+00;  0.0000000E+00;  0.0000000E+00;0;  1.8003318E-05;  4.0000000E+04;  0.0000000E+00;  0.0000000E+00;  4.0000000E+04;  0.0000000E+00;  4.0000000E+04;  3.7221296E-05;  0.0000000E+00; -1.9217978E-05;  4.9867317E+01;
 -1.1000000E-01;  9.9999998E-03; -2.5999999E-01;836;  0.0000000E+00;  0.0000000E+00;  0.0000000E+00;  1.0000000E+03;  1.0000000E-01;  0.0000000E+00;0;  0.0000000E+00;  0.0000000E+00;  0.0000000E+00;0;  3.9052364E-05;  4.0000000E+04;  0.0000000E+00;  0.0000000E+00;  4.0000000E+04;  0.0000000E+00;  4.0000000E+04;  5.2075397E-05;  0.0000000E+00; -1.3023035E-05;  9.8458694E+01;
 -1.1000000E-01;  9.9999998E-03; -2.5000000E-01;837;  0.0000000E+00;  0.0000000E+00;  0.0000000E+00;  1.0000000E+03;  1.0000000E-01;  0.0000000E+00;0;  0.0000000E+00;  0.0000000E+00;  0.0000000E+00;0;  5.8470898E-05;  4.0000000E+04;  0.0000000E+00;  0.0000000E+00;  4.0000000E+04;  0.0000000E+00;  4.0000000E+04;  6.4613829E-05;  0.0000000E+00; -6.1429314E-06;  1.4358537E+02;
 -1.1000000E-01;  9.9999998E-03; -2.3999999E-01;838;  0.0000000E+00;  0.0000000E+00;  0.0000000E+00;  1.0000000E+03;  1.0000000E-01;  0.0000000E+00;0;  0.0000000E+00;  0.0000000E+00;  0.0000000E+00;0;  7.3916519E-05;  4.0000000E+04;  0.0000000E+00;  0.0000000E+00;  4.0000000E+04;  0.0000000E+00;  4.0000000E+04;  7.3171424E-05;  0.0000000E+00;  7.4509325E-07;  1.8095140E+02;
 -1.1000000E-01;  9.9999998E-03; -2.3000000E-01;839;  0.0000000E+00;  0.0000000E+00;  0.0000000E+00;  1.0000000E+03;  1.0000000E-01;  0.0000000E+00;0;  0.0000000E+00;  0.0000000E+00;  0.0000000E+00;0;  8.3625906E-05;  4.0000000E+04;  0.0000000E+00;  0.0000000E+00;  4.0000000E+04;  0.0000000E+00;  4.0000000E+04;  7.6615208E-05;  0.0000000E+00;  7.0106976E-06;  2.0788776E+02;
 -1.1000000E-01;  9.9999998E-03; -2.2000000E-01;840;  0.0000000E+00;  0.0000000E+00;  0.0000000E+00;  1.0000000E+03;  1.0000000E-01;  0.0000000E+00;0;  0.0000000E+00;  0.0000000E+00;  0.0000000E+00;0;  8.6709028E-05;  4.0000000E+04;  0.0000000E+00;  0.0000000E+00;  4.0000000E+04;  0.0000000E+00;  4.0000000E+04;  7.4546842E-05;  0.0000000E+00;  1.2162189E-05;  2.2366103E+02;
 -1.1000000E-01;  9.9999998E-03; -2.0999999E-01;841;  0.0000000E+00;  0.0000000E+00;  0.0000000E+00;  1.0000000E+03;  1.0000000E-01;  0.0000000E+00;0;  0.0000000E+00;  0.0000000E+00;  0.0000000E+00;0;  8.3311723E-05;  4.0000000E+04;  0.0000000E+00;  0.0000000E+00;  4.0000000E+04;  0.0000000E+00;  4.0000000E+04;  6.7403715E-05;  0.0000000E+00;  1.5908012E-05;  2.2937985E+02;
 -1.1000000E-01;  9.9999998E-03; -2.0000000E-01;842;  0.0000000E+00;  0.0000000E+00;  0.0000000E+00;  1.0000000E+03;  1.0000000E-01;  0.0000000E+00;0;  0.0000000E+00;  0.0000000E+00;  0.0000000E+00;0;  7.4545780E-05;  4.0000000E+04;  0.0000000E+00;  0.0000000E+00;  4.0000000E+04;  0.0000000E+00;  4.0000000E+04;  5.6370289E-05;  0.0000000E+00;  1.8175488E-05;  2.2751955E+02;
 -1.1000000E-01;  9.9999998E-03; -1.9000000E-01;843;  0.0000000E+00;  0.0000000E+00;  0.0000000E+00;  1.0000000E+03;  1.0000000E-01;  0.0000000E+00;0;  0.0000000E+00;  0.0000000E+00;  0.0000000E+00;0;  6.2248262E-05;  4.0000000E+04;  0.0000000E+00;  0.0000000E+00;  4.0000000E+04;  0.0000000E+00;  4.0000000E+04;  4.3166106E-05;  0.0000000E+00;  1.9082156E-05;  2.2116637E+02;
 -1.1000000E-01;  9.9999998E-03; -1.8000001E-01;844;  0.0000000E+00;  0.0000000E+00;  0.0000000E+00;  1.0000000E+03;  1.0000000E-01;  0.0000000E+00;0;  0.0000000E+00;  0.0000000E+00;  0.0000000E+00;0;  4.8579146E-05;  4.0000000E+04;  0.0000000E+00;  0.0000000E+00;  4.0000000E+04;  0.0000000E+00;  4.0000000E+04;  2.9710207E-05;  0.0000000E+00;  1.8868941E-05;  2.1324640E+02;
 -1.1000000E-01;  9.9999998E-03; -1.7000000E-01;845;  0.0000000E+00;  0.0000000E+00;  0.0000000E+00;  1.0000000E+03;  1.0000000E-01;  0.0000000E+00;0;  0.0000000E+00;  0.0000000E+00;  0.0000000E+00;0;  3.5566205E-05;  4.0000000E+04;  0.0000000E+00;  0.0000000E+00;  4.0000000E+04;  0.0000000E+00;  4.0000000E+04;  1.7739558E-05;  0.0000000E+00;  1.7826647E-05;  2.0599515E+02;
 -1.1000000E-01;  9.9999998E-03; -1.6000000E-01;846;  0.0000000E+00;  0.0000000E+00;  0.0000000E+00;  1.0000000E+03;  1.0000000E-01;  0.0000000E+00;0;  0.0000000E+00;  0.0000000E+00;  0.0000000E+00;0;  2.4723318E-05;  4.0000000E+04;  0.0000000E+00;  0.0000000E+00;  4.0000000E+04;  0.0000000E+00;  4.0000000E+04;  8.4799967E-06;  0.0000000E+00;  1.6243321E-05;  2.0076585E+02;
 -1.1000000E-01;  9.9999998E-03; -1.5000001E-01;847;  0.0000000E+00;  0.0000000E+00;  0.0000000E+00;  1.0000000E+03;  1.0000000E-01;  0.0000000E+00;0;  0.0000000E+00;  0.0000000E+00;  0.0000000E+00;0;  1.6847654E-05;  4.0000000E+04;  0.0000000E+00;  0.0000000E+00;  4.0000000E+04;  0.0000000E+00;  4.0000000E+04;  2.5057052E-06;  0.0000000E+00;  1.4341950E-05;  1.9801982E+02;
 -1.1000000E-01;  9.9999998E-03; -1.4000000E-01;848;  0.0000000E+00;  0.0000000E+00;  0.0000000E+00;  1.0000000E+03;  1.0000000E-01;  0.0000000E+00;0;  0.0000000E+00;  0.0000000E+00;  0.0000000E+00;0;  1.2031975E-05;  4.0000000E+04;  0.0000000E+00;  0.0000000E+00;  4.0000000E+04;  0.0000000E+00;  4.0000000E+04; -2.8932439E-07;  0.0000000E+00;  1.2321299E-05;  1.9758823E+02;
 -1.1000000E-01;  9.9999998E-03; -1.3000000E-01;849;  0.0000000E+00;  0.0000000E+00;  0.0000000E+00;  1.0000000E+03;  1.0000000E-01;  0.0000000E+00;0;  0.0000000E+00;  0.0000000E+00;  0.0000000E+00;0;  9.8010114E-06;  4.0000000E+04;  0.0000000E+00;  0.0000000E+00;  4.0000000E+04;  0.0000000E+00;  4.0000000E+04; -5.5056194E-07;  0.0000000E+00;  1.0351573E-05;  1.9902267E+02;
 -1.1000000E-01;  9.9999998E-03; -1.2000000E-01;850;  0.0000000E+00;  0.0000000E+00;  0.0000000E+00;  1.0000000E+03;  1.0000000E-01;  0.0000000E+00;0;  0.0000000E+00;  0.0000000E+00;  0.0000000E+00;0;  9.3256203E-06;  4.0000000E+04;  0.0000000E+00;  0.0000000E+00;  4.0000000E+04;  0.0000000E+00;  4.0000000E+04;  7.6043193E-07;  0.0000000E+00;  8.5651882E-06;  2.0181195E+02;
 -1.1000000E-01;  9.9999998E-03; -1.1000000E-01;851;  0.0000000E+00;  0.0000000E+00;  0.0000000E+00;  1.0000000E+03;  1.0000000E-01;  0.0000000E+00;0;  0.0000000E+00;  0.0000000E+00;  0.0000000E+00;0;  9.6569411E-06;  4.0000000E+04;  0.0000000E+00;  0.0000000E+00;  4.0000000E+04;  0.0000000E+00;  4.0000000E+04;  2.6006790E-06;  0.0000000E+00;  7.0562623E-06;  2.0546275E+02;
 -1.0000000E-01;  9.9999998E-03; -2.7000001E-01;926;  0.0000000E+00;  0.0000000E+00;  0.0000000E+00;  1.0000000E+03;  1.0000000E-01;  0.0000000E+00;0;  0.0000000E+00;  0.0000000E+00;  0.0000000E+00;0; -4.5983874E-05;  4.0000000E+04;  0.0000000E+00;  0.0000000E+00;  4.0000000E+04;  0.0000000E+00;  4.0000000E+04; -1.0113246E-05;  0.0000000E+00; -3.5870627E-05;  8.8091499E+01;
 -1.0000000E-01;  9.9999998E-03; -2.5999999E-01;927;  0.0000000E+00;  0.0000000E+00;  0.0000000E+00;  1.0000000E+03;  1.0000000E-01;  0.0000000E+00;0;  0.0000000E+00;  0.0000000E+00;  0.0000000E+00;0; -2.4190278E-05;  4.0000000E+04;  0.0000000E+00;  0.0000000E+00;  4.0000000E+04;  0.0000000E+00;  4.0000000E+04;  8.7663210E-07;  0.0000000E+00; -2.5066911E-05;  1.7120767E+02;
 -1.0000000E-01;  9.9999998E-03; -2.5000000E-01;928;  0.0000000E+00;  0.0000000E+00;  0.0000000E+00;  1.0000000E+03;  1.0000000E-01;  0.0000000E+00;0;  0.0000000E+00;  0.0000000E+00;  0.0000000E+00;0; -4.2225392E-06;  4.0000000E+04;  0.0000000E+00;  0.0000000E+00;  4.0000000E+04;  0.0000000E+00;  4.0000000E+04;  8.7490816E-06;  0.0000000E+00; -1.2971621E-05;  2.4802518E+02;
 -1.0000000E-01;  9.9999998E-03; -2.3999999E-01;929;  0.0000000E+00;  0.0000000E+00;  0.0000000E+00;  1.0000000E+03;  1.0000000E-01;  0.0000000E+00;0;  0.0000000E+00;  0.0000000E+00;  0.0000000E+00;0;  1.0826444E-05;  4.0000000E+04;  0.0000000E+00;  0.0000000E+00;  4.0000000E+04;  0.0000000E+00;  4.0000000E+04;  1.1519953E-05;  0.0000000E+00; -6.9350864E-07;  3.1130212E+02;
 -1.0000000E-01;  9.9999998E-03; -2.3000000E-01;930;  0.0000000E+00;  0.0000000E+00;  0.0000000E+00;  1.0000000E+03;  1.0000000E-01;  0.0000000E+00;0;  0.0000000E+00;  0.0000000E+00;  0.0000000E+00;0;  1.8589679E-05;  4.0000000E+04;  0.0000000E+00;  0.0000000E+00;  4.0000000E+04;  0.0000000E+00;  4.0000000E+04;  7.8827625E-06;  0.0000000E+00;  1.0706917E-05;  3.5655530E+02;
 -1.0000000E-01;  9.9999998E-03; -2.2000000E-01;931;  0.0000000E+00;  0.0000000E+00;  0.0000000E+00;  1.0000000E+03;  1.0000000E-01;  0.0000000E+00;0;  0.0000000E+00;  0.0000000E+00;  0.0000000E+00;0;  1.7817953E-05;  4.0000000E+04;  0.0000000E+00;  0.0000000E+00;  4.0000000E+04;  0.0000000E+00;  4.0000000E+04; -2.5427421E-06;  0.0000000E+00;  2.0360694E-05;  3.8240643E+02;
 -1.0000000E-01;  9.9999998E-03; -2.0999999E-01;932;  0.0000000E+00;  0.0000000E+00;  0.0000000E+00;  1.0000000E+03;  1.0000000E-01;  0.0000000E+00;0;  0.0000000E+00;  0.0000000E+00;  0.0000000E+00;0;  8.5986740E-06;  4.0000000E+04;  0.0000000E+00;  0.0000000E+00;  4.0000000E+04;  0.0000000E+00;  4.0000000E+04; -1.9096060E-05;  0.0000000E+00;  2.7694734E-05;  3.9047360E+02;
 -1.0000000E-01;  9.9999998E-03; -2.0000000E-01;933;  0.0000000E+00;  0.0000000E+00;  0.0000000E+00;  1.0000000E+03;  1.0000000E-01;  0.0000000E+00;0;  0.0000000E+00;  0.0000000E+00;  0.0000000E+00;0; -7.7084187E-06;  4.0000000E+04;  0.0000000E+00;  0.0000000E+00;  4.0000000E+04;  0.0000000E+00;  4.0000000E+04; -4.0187690E-05;  0.0000000E+00;  3.2479271E-05;  3.8472656E+02;
 -1.0000000E-01;  9.9999998E-03; -1.9000000E-01;934;  0.0000000E+00;  0.0000000E+00;  0.0000000E+00;  1.0000000E+03;  1.0000000E-01;  0.0000000E+00;0;  0.0000000E+00;  0.0000000E+00;  0.0000000E+00;0; -2.8746366E-05;  4.0000000E+04;  0.0000000E+00;  0.0000000E+00;  4.0000000E+04;  0.0000000E+00;  4.0000000E+04; -6.3557825E-05;  0.0000000E+00;  3.4811459E-05;  3.7043915E+02;
 -1.0000000E-01;  9.9999998E-03; -1.8000001E-01;935;  0.0000000E+00;  0.0000000E+00;  0.0000000E+00;  1.0000000E+03;  1.0000000E-01;  0.0000000E+00;0;  0.0000000E+00;  0.0000000E+00;  0.0000000E+00;0; -5.1642499E-05;  4.0000000E+04;  0.0000000E+00;  0.0000000E+00;  4.0000000E+04;  0.0000000E+00;  4.0000000E+04; -8.6679014E-05;  0.0000000E+00;  3.5036515E-05;  3.5295078E+02;
 -1.0000000E-01;  9.9999998E-03; -1.7000000E-01;936;  0.0000000E+00;  0.0000000E+00;  0.0000000E+00;  1.0000000E+03;  1.0000000E-01;  0.0000000E+00;0;  0.0000000E+00;  0.0000000E+00;  0.0000000E+00;0; -7.3584248E-05;  4.0000000E+04;  0.0000000E+00;  0.0000000E+00;  4.0000000E+04;  0.0000000E+00;  4.0000000E+04; -1.0721369E-04;  0.0000000E+00;  3.3629443E-05;  3.3659622E+02;
 -1.0000000E-01;  9.9999998E-03; -1.6000000E-01;937;  0.0000000E+00;  0.0000000E+00;  0.0000000E+00;  1.0000119E+03;  1.0000000E-01;  9.8762636E+00;0;  0.0000000E+00;  0.0000000E+00;  0.0000000E+00;0; -9.2358576E-05;  4.0000000E+04;  0.0000000E+00;  0.0000000E+00;  4.0000000E+04;  0.0000000E+00;  4.0000000E+04; -1.2344809E-04;  0.0000000E+00;  3.1089508E-05;  3.2418024E+02;
 -1.0000000E-01;  9.9999998E-03; -1.5000001E-01;938;  0.0000000E+00;  0.0000000E+00;  0.0000000E+00;  1.0000334E+03;  1.0000000E-01;  2.7653540E+01;0;  0.0000000E+00;  0.0000000E+00;  0.0000000E+00;0; -1.0669709E-04;  4.0000000E+04;  0.0000000E+00;  0.0000000E+00;  4.0000000E+04;  0.0000000E+00;  4.0000000E+04; -1.3456875E-04;  0.0000000E+00;  2.7871654E-05;  3.1694467E+02;
 -1.0000000E-01;  9.9999998E-03; -1.4000000E-01;939;  0.0000000E+00;  0.0000000E+00;  0.0000000E+00;  1.0000411E+03;  1.0000000E-01;  3.4073109E+01;0;  0.0000000E+00;  0.0000000E+00;  0.0000000E+00;0; -1.1634477E-04;  4.0000000E+04;  0.0000000E+00;  0.0000000E+00;  4.0000000E+04;  0.0000000E+00;  4.0000000E+04; -1.4068160E-04;  0.0000000E+00;  2.4336823E-05;  3.1482565E+02;
 -1.0000000E-01;  9.9999998E-03; -1.3000000E-01;940;  0.0000000E+00;  0.0000000E+00;  0.0000000E+00;  1.0000441E+03;  1.0000000E-01;  3.6542175E+01;0;  0.0000000E+00;  0.0000000E+00;  0.0000000E+00;0; -1.2187882E-04;  4.0000000E+04;  0.0000000E+00;  0.0000000E+00;  4.0000000E+04;  0.0000000E+00;  4.0000000E+04; -1.4268300E-04;  0.0000000E+00;  2.0804184E-05;  3.1696698E+02;
 -1.0000000E-01;  9.9999998E-03; -1.2000000E-01;941;  0.0000000E+00;  0.0000000E+00;  0.0000000E+00;  1.0000421E+03;  1.0000000E-01;  3.4863213E+01;0;  0.0000000E+00;  0.0000000E+00;  0.0000000E+00;0; -1.2443529E-04;  4.0000000E+04;  0.0000000E+00;  0.0000000E+00;  4.0000000E+04;  0.0000000E+00;  4.0000000E+04; -1.4197122E-04;  0.0000000E+00;  1.7535936E-05;  3.2222064E+02;
 -1.0000000E-01;  9.9999998E-03; -1.1000000E-01;942;  0.0000000E+00;  0.0000000E+00;  0.0000000E+00;  1.0000413E+03;  1.0000000E-01;  3.4171871E+01;0;  0.0000000E+00;  0.0000000E+00;  0.0000000E+00;0; -1.2538419E-04;  4.0000000E+04;  0.0000000E+00;  0.0000000E+00;  4.0000000E+04;  0.0000000E+00;  4.0000000E+04; -1.4011347E-04;  0.0000000E+00;  1.4729281E-05;  3.2943488E+02;
 -9.0000004E-02;  9.9999998E-03; -2.7000001E-01;1017;  0.0000000E+00;  0.0000000E+00;  0.0000000E+00;  1.0000208E+03;  1.0000000E-01;  1.7184700E+01;0;  0.0000000E+00;  0.0000000E+00;  0.0000000E+00;0; -1.9017521E-04;  4.0000000E+04;  0.0000000E+00;  0.0000000E+00;  4.0000000E+04;  0.0000000E+00;  4.0000000E+04; -1.2947463E-04;  0.0000000E+00; -6.0700579E-05;  1.4423047E+02;
 -9.0000004E-02;  9.9999998E-03; -2.5999999E-01;1018;  0.0000000E+00;  0.0000000E+00;  0.0000000E+00;  1.0000056E+03;  1.0000000E-01;  4.6418438E+00;0;  0.0000000E+00;  0.0000000E+00;  0.0000000E+00;0; -1.7541820E-04;  4.0000000E+04;  0.0000000E+00;  0.0000000E+00;  4.0000000E+04;  0.0000000E+00;  4.0000000E+04; -1.3202107E-04;  0.0000000E+00; -4.3397125E-05;  2.7432565E+02;
 -9.0000004E-02;  9.9999998E-03; -2.5000000E-01;1019;  0.0000000E+00;  0.0000000E+00;  0.0000000E+00;  1.0000000E+03;  1.0000000E-01;  0.0000000E+00;0;  0.0000000E+00;  0.0000000E+00;  0.0000000E+00;0; -1.6245179E-04;  4.0000000E+04;  0.0000000E+00;  0.0000000E+00;  4.0000000E+04;  0.0000000E+00;  4.0000000E+04; -1.3850880E-04;  0.0000000E+00; -2.3942988E-05;  3.9426755E+02;
 -9.0000004E-02;  9.9999998E-03; -2.3999999E-01;1020;  0.0000000E+00;  0.0000000E+00;  0.0000000E+00;  1.0000000E+03;  1.0000000E-01;  0.0000000E+00;0;  0.0000000E+00;  0.0000000E+00;  0.0000000E+00;0; -1.5511841E-04;  4.0000000E+04;  0.0000000E+00;  0.0000000E+00;  4.0000000E+04;  0.0000000E+00;  4.0000000E+04; -1.5109118E-04;  0.0000000E+00; -4.0272307E-06;  4.9251910E+02;
 -9.0000004E-02;  9.9999998E-03; -2.3000000E-01;1021;  0.0000000E+00;  0.0000000E+00;  0.0000000E+00;  1.0000000E+03;  1.0000000E-01;  0.0000000E+00;0;  0.0000000E+00;  0.0000000E+00;  0.0000000E+00;0; -1.5636691E-04;  4.0000000E+04;  0.0000000E+00;  0.0000000E+00;  4.0000000E+04;  0.0000000E+00;  4.0000000E+04; -1.7108201E-04;  0.0000000E+00;  1.4715095E-05;  5.6218311E+02;
 -9.0000004E-02;  9.9999998E-03; -2.2000000E-01;1022;  0.0000000E+00;  0.0000000E+00;  0.0000000E+00;  1.0000064E+03;  1.0000000E-01;  5.3331823E+00;0;  0.0000000E+00;  0.0000000E+00;  0.0000000E+00;0; -1.6775474E-04;  4.0000000E+04;  0.0000000E+00;  0.0000000E+00;  4.0000000E+04;  0.0000000E+00;  4.0000000E+04; -1.9866420E-04;  0.0000000E+00;  3.0909458E-05;  6.0103668E+02;
 -9.0000004E-02;  9.9999998E-03; -2.0999999E-01;1023;  0.0000000E+00;  0.0000000E+00;  0.0000000E+00;  1.0000243E+03;  1.0000000E-01;  2.0147579E+01;0;  0.0000000E+00;  0.0000000E+00;  0.0000000E+00;0; -1.8918411E-04;  4.0000000E+04;  0.0000000E+00;  0.0000000E+00;  4.0000000E+04;  0.0000000E+00;  4.0000000E+04; -2.3277933E-04;  0.0000000E+00;  4.3595228E-05;  6.1137506E+02;
 -9.0000004E-02;  9.9999998E-03; -2.0000000E-01;1024;  0.0000000E+00;  0.0000000E+00;  0.0000000E+00;  1.0000603E+03;  1.0000000E-01;  4.9973896E+01;0;  0.0000000E+00;  0.0000000E+00;  0.0000000E+00;0; -2.1897488E-04;  4.0000000E+04;  0.0000000E+00;  0.0000000E+00;  4.0000000E+04;  0.0000000E+00;  4.0000000E+04; -2.7128143E-04;  0.0000000E+00;  5.2306554E-05;  5.9910010E+02;
 -9.0000004E-02;  9.9999998E-03; -1.9000000E-01;1025;  0.0000000E+00;  0.0000000E+00;  0.0000000E+00;  1.0001041E+03;  1.0000000E-01;  8.6219780E+01;0;  0.0000000E+00;  0.0000000E+00;  0.0000000E+00;0; -2.5419114E-04;  4.0000000E+04;  0.0000000E+00;  0.0000000E+00;  4.0000000E+04;  0.0000000E+00;  4.0000000E+04; -3.1126241E-04;  0.0000000E+00;  5.7071276E-05;  5.7233594E+02;
 -9.0000004E-02;  9.9999998E-03; -1.8000001E-01;1026;  0.0000000E+00;  0.0000000E+00;  0.0000000E+00;  1.0001403E+03;  1.0000000E-01;  1.1624363E+02;0;  0.0000000E+00;  0.0000000E+00;  0.0000000E+00;0; -2.9121057E-04;  4.0000000E+04;  0.0000000E+00;  0.0000000E+00;  4.0000000E+04;  0.0000000E+00;  4.0000000E+04; -3.4953846E-04;  0.0000000E+00;  5.8327892E-05;  5.3972461E+02;
 -9.0000004E-02;  9.9999998E-03; -1.7000000E-01;1027;  0.0000000E+00;  0.0000000E+00;  0.0000000E+00;  1.0001764E+03;  1.0000000E-01;  1.4616870E+02;0;  0.0000000E+00;  0.0000000E+00;  0.0000000E+00;0; -3.2640825E-04;  4.0000000E+04;  0.0000000E+00;  0.0000000E+00;  4.0000000E+04;  0.0000000E+00;  4.0000000E+04; -3.8318420E-04;  0.0000000E+00;  5.6775945E-05;  5.0871255E+02;
 -9.0000004E-02;  9.9999998E-03; -1.6000000E-01;1028;  0.0000000E+00;  0.0000000E+00;  0.0000000E+00;  1.0002073E+03;  1.0000000E-01;  1.7174823E+02;0;  0.0000000E+00;  0.0000000E+00;  0.0000000E+00;0; -3.5684012E-04;  4.0000000E+04;  0.0000000E+00;  0.0000000E+00;  4.0000000E+04;  0.0000000E+00;  4.0000000E+04; -4.1003889E-04;  0.0000000E+00;  5.3198768E-05;  4.8438351E+02;
 -9.0000004E-02;  9.9999998E-03; -1.5000001E-01;1029;  0.0000000E+00;  0.0000000E+00;  0.0000000E+00;  1.0002346E+03;  1.0000000E-01;  1.9436487E+02;0;  0.0000000E+00;  0.0000000E+00;  0.0000000E+00;0; -3.8074190E-04;  4.0000000E+04;  0.0000000E+00;  0.0000000E+00;  4.0000000E+04;  0.0000000E+00;  4.0000000E+04; -4.2908735E-04;  0.0000000E+00;  4.8345446E-05;  4.6923584E+02;
 -9.0000004E-02;  9.9999998E-03; -1.4000000E-01;1030;  0.0000000E+00;  0.0000000E+00;  0.0000000E+00;  1.0002527E+03;  1.0000000E-01;  2.0937680E+02;0;  0.0000000E+00;  0.0000000E+00;  0.0000000E+00;0; -3.9770012E-04;  4.0000000E+04;  0.0000000E+00;  0.0000000E+00;  4.0000000E+04;  0.0000000E+00;  4.0000000E+04; -4.4054945E-04;  0.0000000E+00;  4.2849322E-05;  4.6351950E+02;
 -9.0000004E-02;  9.9999998E-03; -1.3000000E-01;1031;  0.0000000E+00;  0.0000000E+00;  0.0000000E+00;  1.0002647E+03;  1.0000000E-01;  2.1935182E+02;0;  0.0000000E+00;  0.0000000E+00;  0.0000000E+00;0; -4.0846344E-04;  4.0000000E+04;  0.0000000E+00;  0.0000000E+00;  4.0000000E+04;  0.0000000E+00;  4.0000000E+04; -4.4569463E-04;  0.0000000E+00;  3.7231184E-05;  4.6590546E+02;
 -9.0000004E-02;  9.9999998E-03; -1.2000000E-01;1032;  0.0000000E+00;  0.0000000E+00;  0.0000000E+00;  1.0002649E+03;  1.0000000E-01;  2.1945058E+02;0;  0.0000000E+00;  0.0000000E+00;  0.0000000E+00;0; -4.1456331E-04;  4.0000000E+04;  0.0000000E+00;  0.0000000E+00;  4.0000000E+04;  0.0000000E+00;  4.0000000E+04; -4.4650130E-04;  0.0000000E+00;  3.1937980E-05;  4.7430988E+02;
 -9.0000004E-02;  9.9999998E-03; -1.1000000E-01;1033;  0.0000000E+00;  0.0000000E+00;  0.0000000E+00;  1.0002577E+03;  1.0000000E-01;  2.1352483E+02;0;  0.0000000E+00;  0.0000000E+00;  0.0000000E+00;0; -4.1789433E-04;  4.0000000E+04;  0.0000000E+00;  0.0000000E+00;  4.0000000E+04;  0.0000000E+00;  4.0000000E+04; -4.4521547E-04;  0.0000000E+00;  2.7321139E-05;  4.8653857E+02;
 -7.9999998E-02;  9.9999998E-03; -2.7000001E-01;1108;  0.0000000E+00;  0.0000000E+00;  0.0000000E+00;  1.0001885E+03;  1.0000000E-01;  1.5624249E+02;0;  0.0000000E+00;  0.0000000E+00;  0.0000000E+00;0; -4.5141330E-04;  4.0000000E+04;  0.0000000E+00;  0.0000000E+00;  4.0000000E+04;  0.0000000E+00;  4.0000000E+04; -3.5616060E-04;  0.0000000E+00; -9.5252697E-05;  2.2259122E+02;
 -7.9999998E-02;  9.9999998E-03; -2.5999999E-01;1109;  0.0000000E+00;  0.0000000E+00;  0.0000000E+00;  1.0001749E+03;  1.0000000E-01;  1.4488480E+02;0;  0.0000000E+00;  0.0000000E+00;  0.0000000E+00;0; -4.5542323E-04;  4.0000000E+04;  0.0000000E+00;  0.0000000E+00;  4.0000000E+04;  0.0000000E+00;  4.0000000E+04; -3.8610541E-04;  0.0000000E+00; -6.9317808E-05;  4.1263095E+02;
 -7.9999998E-02;  9.9999998E-03; -2.5000000E-01;1110;  0.0000000E+00;  0.0000000E+00;  0.0000000E+00;  1.0001849E+03;  1.0000000E-01;  1.5318085E+02;0;  0.0000000E+00;  0.0000000E+00;  0.0000000E+00;0; -4.6084914E-04;  4.0000000E+04;  0.0000000E+00;  0.0000000E+00;  4.0000000E+04;  0.0000000E+00;  4.0000000E+04; -4.2073886E-04;  0.0000000E+00; -4.0110292E-05;  5.8763586E+02;
 -7.9999998E-02;  9.9999998E-03; -2.3999999E-01;1111;  0.0000000E+00;  0.0000000E+00;  0.0000000E+00;  1.0001956E+03;  1.0000000E-01;  1.6197073E+02;0;  0.0000000E+00;  0.0000000E+00;  0.0000000E+00;0; -4.7225991E-04;  4.0000000E+04;  0.0000000E+00;  0.0000000E+00;  4.0000000E+04;  0.0000000E+00;  4.0000000E+04; -4.6219098E-04;  0.0000000E+00; -1.0068925E-05;  7.3006073E+02;
 -7.9999998E-02;  9.9999998E-03; -2.3000000E-01;1112;  0.0000000E+00;  0.0000000E+00;  0.0000000E+00;  1.0002205E+03;  1.0000000E-01;  1.8261212E+02;0;  0.0000000E+00;  0.0000000E+00;  0.0000000E+00;0; -4.9312157E-04;  4.0000000E+04;  0.0000000E+00;  0.0000000E+00;  4.0000000E+04;  0.0000000E+00;  4.0000000E+04; -5.1156466E-04;  0.0000000E+00;  1.8443074E-05;  8.2994958E+02;
 -7.9999998E-02;  9.9999998E-03; -2.2000000E-01;1113;  0.0000000E+00;  0.0000000E+00;  0.0000000E+00;  1.0002522E+03;  1.0000000E-01;  2.0898175E+02;0;  0.0000000E+00;  0.0000000E+00;  0.0000000E+00;0; -5.2518840E-04;  4.0000000E+04;  0.0000000E+00;  0.0000000E+00;  4.0000000E+04;  0.0000000E+00;  4.0000000E+04; -5.6860718E-04;  0.0000000E+00;  4.3418797E-05;  8.8421338E+02;
 -7.9999998E-02;  9.9999998E-03; -2.0999999E-01;1114;  0.0000000E+00;  0.0000000E+00;  0.0000000E+00;  1.0002958E+03;  1.0000000E-01;  2.4503011E+02;0;  0.0000000E+00;  0.0000000E+00;  0.0000000E+00;0; -5.6820497E-04;  4.0000000E+04;  0.0000000E+00;  0.0000000E+00;  4.0000000E+04;  0.0000000E+00;  4.0000000E+04; -6.3161826E-04;  0.0000000E+00;  6.3413296E-05;  8.9610358E+02;
 -7.9999998E-02;  9.9999998E-03; -2.0000000E-01;1115;  0.0000000E+00;  0.0000000E+00;  0.0000000E+00;  1.0003539E+03;  1.0000000E-01;  2.9322629E+02;0;  0.0000000E+00;  0.0000000E+00;  0.0000000E+00;0; -6.2002667E-04;  4.0000000E+04;  0.0000000E+00;  0.0000000E+00;  4.0000000E+04;  0.0000000E+00;  4.0000000E+04; -6.9768378E-04;  0.0000000E+00;  7.7657111E-05;  8.7401489E+02;
 -7.9999998E-02;  9.9999998E-03; -1.9000000E-01;1116;  0.0000000E+00;  0.0000000E+00;  0.0000000E+00;  1.0004180E+03;  1.0000000E-01;  3.4626181E+02;0;  0.0000000E+00;  0.0000000E+00;  0.0000000E+00;0; -6.7702634E-04;  4.0000000E+04;  0.0000000E+00;  0.0000000E+00;  4.0000000E+04;  0.0000000E+00;  4.0000000E+04; -7.6309423E-04;  0.0000000E+00;  8.6067877E-05;  8.2962317E+02;
 -7.9999998E-02;  9.9999998E-03; -1.8000001E-01;1117;  0.0000000E+00;  0.0000000E+00;  0.0000000E+00;  1.0004821E+03;  1.0000000E-01;  3.9939612E+02;0;  0.0000000E+00;  0.0000000E+00;  0.0000000E+00;0; -7.3477341E-04;  4.0000000E+04;  0.0000000E+00;  0.0000000E+00;  4.0000000E+04;  0.0000000E+00;  4.0000000E+04; -8.2393666E-04;  0.0000000E+00;  8.9163252E-05;  7.7562006E+02;
 -7.9999998E-02;  9.9999998E-03; -1.7000000E-01;1118;  0.0000000E+00;  0.0000000E+00;  0.0000000E+00;  1.0005425E+03;  1.0000000E-01;  4.4946878E+02;0;  0.0000000E+00;  0.0000000E+00;  0.0000000E+00;0; -7.8882655E-04;  4.0000000E+04;  0.0000000E+00;  0.0000000E+00;  4.0000000E+04;  0.0000000E+00;  4.0000000E+04; -8.7671279E-04;  0.0000000E+00;  8.7886241E-05;  7.2347632E+02;
 -7.9999998E-02;  9.9999998E-03; -1.6000000E-01;1119;  0.0000000E+00;  0.0000000E+00;  0.0000000E+00;  1.0005965E+03;  1.0000000E-01;  4.9420825E+02;0;  0.0000000E+00;  0.0000000E+00;  0.0000000E+00;0; -8.3553983E-04;  4.0000000E+04;  0.0000000E+00;  0.0000000E+00;  4.0000000E+04;  0.0000000E+00;  4.0000000E+04; -9.1891392E-04;  0.0000000E+00;  8.3374078E-05;  6.8154559E+02;
 -7.9999998E-02;  9.9999998E-03; -1.5000001E-01;1120;  0.0000000E+00;  0.0000000E+00;  0.0000000E+00;  1.0006411E+03;  1.0000000E-01;  5.3114545E+02;0;  0.0000000E+00;  0.0000000E+00;  0.0000000E+00;0; -8.7270763E-04;  4.0000000E+04;  0.0000000E+00;  0.0000000E+00;  4.0000000E+04;  0.0000000E+00;  4.0000000E+04; -9.4944745E-04;  0.0000000E+00;  7.6739816E-05;  6.5417560E+02;
 -7.9999998E-02;  9.9999998E-03; -1.4000000E-01;1121;  0.0000000E+00;  0.0000000E+00;  0.0000000E+00;  1.0006653E+03;  1.0000000E-01;  5.5119427E+02;0;  0.0000000E+00;  0.0000000E+00;  0.0000000E+00;0; -8.9982757E-04;  4.0000000E+04;  0.0000000E+00;  0.0000000E+00;  4.0000000E+04;  0.0000000E+00;  4.0000000E+04; -9.6880086E-04;  0.0000000E+00;  6.8973255E-05;  6.4216785E+02;
 -7.9999998E-02;  9.9999998E-03; -1.3000000E-01;1122;  0.0000000E+00;  0.0000000E+00;  0.0000000E+00;  1.0006835E+03;  1.0000000E-01;  5.6630499E+02;0;  0.0000000E+00;  0.0000000E+00;  0.0000000E+00;0; -9.1795367E-04;  4.0000000E+04;  0.0000000E+00;  0.0000000E+00;  4.0000000E+04;  0.0000000E+00;  4.0000000E+04; -9.7882340E-04;  0.0000000E+00;  6.0869741E-05;  6.4371631E+02;
 -7.9999998E-02;  9.9999998E-03; -1.2000000E-01;1123;  0.0000000E+00;  0.0000000E+00;  0.0000000E+00;  1.0006884E+03;  1.0000000E-01;  5.7025549E+02;0;  0.0000000E+00;  0.0000000E+00;  0.0000000E+00;0; -9.2917739E-04;  4.0000000E+04;  0.0000000E+00;  0.0000000E+00;  4.0000000E+04;  0.0000000E+00;  4.0000000E+04; -9.8228292E-04;  0.0000000E+00;  5.3105512E-05;  6.5553497E+02;
 -7.9999998E-02;  9.9999998E-03; -1.1000000E-01;1124;  0.0000000E+00;  0.0000000E+00;  0.0000000E+00;  1.0006833E+03;  1.0000000E-01;  5.6610742E+02;0;  0.0000000E+00;  0.0000000E+00;  0.0000000E+00;0; -9.3607610E-04;  4.0000000E+04;  0.0000000E+00;  0.0000000E+00;  4.0000000E+04;  0.0000000E+00;  4.0000000E+04; -9.8230969E-04;  0.0000000E+00;  4.6233614E-05;  6.7399847E+02;
 -7.0000000E-02;  9.9999998E-03; -2.7000001E-01;1199;  0.0000000E+00;  0.0000000E+00;  0.0000000E+00;  1.0004768E+03;  1.0000000E-01;  3.9505057E+02;0;  0.0000000E+00;  0.0000000E+00;  0.0000000E+00;0; -8.6853950E-04;  4.0000000E+04;  0.0000000E+00;  0.0000000E+00;  4.0000000E+04;  0.0000000E+00;  4.0000000E+04; -7.2786072E-04;  0.0000000E+00; -1.4067879E-04;  3.2583188E+02;
 -7.0000000E-02;  9.9999998E-03; -2.5999999E-01;1200;  0.0000000E+00;  0.0000000E+00;  0.0000000E+00;  1.0005008E+03;  1.0000000E-01;  4.1490186E+02;0;  0.0000000E+00;  0.0000000E+00;  0.0000000E+00;0; -9.0704573E-04;  4.0000000E+04;  0.0000000E+00;  0.0000000E+00;  4.0000000E+04;  0.0000000E+00;  4.0000000E+04; -8.0322038E-04;  0.0000000E+00; -1.0382535E-04;  5.8888501E+02;
 -7.0000000E-02;  9.9999998E-03; -2.5000000E-01;1201;  0.0000000E+00;  0.0000000E+00;  0.0000000E+00;  1.0005299E+03;  1.0000000E-01;  4.3899994E+02;0;  0.0000000E+00;  0.0000000E+00;  0.0000000E+00;0; -9.4613229E-04;  4.0000000E+04;  0.0000000E+00;  0.0000000E+00;  4.0000000E+04;  0.0000000E+00;  4.0000000E+04; -8.8379916E-04;  0.0000000E+00; -6.2333129E-05;  8.3064423E+02;
 -7.0000000E-02;  9.9999998E-03; -2.3999999E-01;1202;  0.0000000E+00;  0.0000000E+00;  0.0000000E+00;  1.0005715E+03;  1.0000000E-01;  4.7346808E+02;0;  0.0000000E+00;  0.0000000E+00;  0.0000000E+00;0; -9.9106168E-04;  4.0000000E+04;  0.0000000E+00;  0.0000000E+00;  4.0000000E+04;  0.0000000E+00;  4.0000000E+04; -9.7148074E-04;  0.0000000E+00; -1.9580908E-05;  1.0256764E+03;
 -7.0000000E-02;  9.9999998E-03; -2.3000000E-01;1203;  0.0000000E+00;  0.0000000E+00;  0.0000000E+00;  1.0006273E+03;  1.0000000E-01;  5.1968903E+02;0;  0.0000000E+00;  0.0000000E+00;  0.0000000E+00;0; -1.0457138E-03;  4.0000000E+04;  0.0000000E+00;  0.0000000E+00;  4.0000000E+04;  0.0000000E+00;  4.0000000E+04; -1.0668958E-03;  0.0000000E+00;  2.1182037E-05;  1.1604790E+03;
 -7.0000000E-02;  9.9999998E-03; -2.2000000E-01;1204;  0.0000000E+00;  0.0000000E+00;  0.0000000E+00;  1.0006856E+03;  1.0000000E-01;  5.6798395E+02;0;  0.0000000E+00;  0.0000000E+00;  0.0000000E+00;0; -1.1118583E-03;  4.0000000E+04;  0.0000000E+00;  0.0000000E+00;  4.0000000E+04;  0.0000000E+00;  4.0000000E+04; -1.1690590E-03;  0.0000000E+00;  5.7200632E-05;  1.2312432E+03;
 -7.0000000E-02;  9.9999998E-03; -2.0999999E-01;1205;  0.0000000E+00;  0.0000000E+00;  0.0000000E+00;  1.0007709E+03;  1.0000000E-01;  6.3869800E+02;0;  0.0000000E+00;  0.0000000E+00;  0.0000000E+00;0; -1.1888533E-03;  4.0000000E+04;  0.0000000E+00;  0.0000000E+00;  4.0000000E+04;  0.0000000E+00;  4.0000000E+04; -1.2753255E-03;  0.0000000E+00;  8.6472253E-05;  1.2428027E+03;
 -7.0000000E-02;  9.9999998E-03; -2.0000000E-01;1206;  0.0000000E+00;  0.0000000E+00;  0.0000000E+00;  1.0008652E+03;  1.0000000E-01;  7.1681921E+02;0;  0.0000000E+00;  0.0000000E+00;  0.0000000E+00;0; -1.2738532E-03;  4.0000000E+04;  0.0000000E+00;  0.0000000E+00;  4.0000000E+04;  0.0000000E+00;  4.0000000E+04; -1.3817390E-03;  0.0000000E+00;  1.0788577E-04;  1.2067960E+03;
 -7.0000000E-02;  9.9999998E-03; -1.9000000E-01;1207;  0.0000000E+00;  0.0000000E+00;  0.0000000E+00;  1.0009634E+03;  1.0000000E-01;  7.9819965E+02;0;  0.0000000E+00;  0.0000000E+00;  0.0000000E+00;0; -1.3623629E-03;  4.0000000E+04;  0.0000000E+00;  0.0000000E+00;  4.0000000E+04;  0.0000000E+00;  4.0000000E+04; -1.4835972E-03;  0.0000000E+00;  1.2123431E-04;  1.1391364E+03;
 -7.0000000E-02;  9.9999998E-03; -1.8000001E-01;1208;  0.0000000E+00;  0.0000000E+00;  0.0000000E+00;  1.0010610E+03;  1.0000000E-01;  8.7908624E+02;0;  0.0000000E+00;  0.0000000E+00;  0.0000000E+00;0; -1.4490498E-03;  4.0000000E+04;  0.0000000E+00;  0.0000000E+00;  4.0000000E+04;  0.0000000E+00;  4.0000000E+04; -1.5761654E-03;  0.0000000E+00;  1.2711568E-04;  1.0572933E+03;
 -7.0000000E-02;  9.9999998E-03; -1.7000000E-01;1209;  0.0000000E+00;  0.0000000E+00;  0.0000000E+00;  1.0011518E+03;  1.0000000E-01;  9.5424463E+02;0;  0.0000000E+00;  0.0000000E+00;  0.0000000E+00;0; -1.5286767E-03;  4.0000000E+04;  0.0000000E+00;  0.0000000E+00;  4.0000000E+04;  0.0000000E+00;  4.0000000E+04; -1.6554089E-03;  0.0000000E+00;  1.2673212E-04;  9.7736517E+02;
 -7.0000000E-02;  9.9999998E-03; -1.6000000E-01;1210;  0.0000000E+00;  0.0000000E+00;  0.0000000E+00;  1.0012372E+03;  1.0000000E-01;  1.0250574E+03;0;  0.0000000E+00;  0.0000000E+00;  0.0000000E+00;0; -1.5969941E-03;  4.0000000E+04;  0.0000000E+00;  0.0000000E+00;  4.0000000E+04;  0.0000000E+00;  4.0000000E+04; -1.7186065E-03;  0.0000000E+00;  1.2161236E-04;  9.1171014E+02;
 -7.0000000E-02;  9.9999998E-03; -1.5000001E-01;1211;  0.0000000E+00;  0.0000000E+00;  0.0000000E+00;  1.0012969E+03;  1.0000000E-01;  1.0744387E+03;0;  0.0000000E+00;  0.0000000E+00;  0.0000000E+00;0; -1.6514843E-03;  4.0000000E+04;  0.0000000E+00;  0.0000000E+00;  4.0000000E+04;  0.0000000E+00;  4.0000000E+04; -1.7647967E-03;  0.0000000E+00;  1.1331237E-04;  8.6725635E+02;
 -7.0000000E-02;  9.9999998E-03; -1.4000000E-01;1212;  0.0000000E+00;  0.0000000E+00;  0.0000000E+00;  1.0013444E+03;  1.0000000E-01;  1.1138451E+03;0;  0.0000000E+00;  0.0000000E+00;  0.0000000E+00;0; -1.6917479E-03;  4.0000000E+04;  0.0000000E+00;  0.0000000E+00;  4.0000000E+04;  0.0000000E+00;  4.0000000E+04; -1.7949640E-03;  0.0000000E+00;  1.0321598E-04;  8.4563629E+02;
 -7.0000000E-02;  9.9999998E-03; -1.3000000E-01;1213;  0.0000000E+00;  0.0000000E+00;  0.0000000E+00;  1.0013745E+03;  1.0000000E-01;  1.1387333E+03;0;  0.0000000E+00;  0.0000000E+00;  0.0000000E+00;0; -1.7193343E-03;  4.0000000E+04;  0.0000000E+00;  0.0000000E+00;  4.0000000E+04;  0.0000000E+00;  4.0000000E+04; -1.8118072E-03;  0.0000000E+00;  9.2472867E-05;  8.4457141E+02;
 -7.0000000E-02;  9.9999998E-03; -1.2000000E-01;1214;  0.0000000E+00;  0.0000000E+00;  0.0000000E+00;  1.0013818E+03;  1.0000000E-01;  1.1448566E+03;0;  0.0000000E+00;  0.0000000E+00;  0.0000000E+00;0; -1.7371485E-03;  4.0000000E+04;  0.0000000E+00;  0.0000000E+00;  4.0000000E+04;  0.0000000E+00;  4.0000000E+04; -1.8191645E-03;  0.0000000E+00;  8.2015991E-05;  8.5942059E+02;
 -7.0000000E-02;  9.9999998E-03; -1.1000000E-01;1215;  0.0000000E+00;  0.0000000E+00;  0.0000000E+00;  1.0013818E+03;  1.0000000E-01;  1.1448566E+03;0;  0.0000000E+00;  0.0000000E+00;  0.0000000E+00;0; -1.7486779E-03;  4.0000000E+04;  0.0000000E+00;  0.0000000E+00;  4.0000000E+04;  0.0000000E+00;  4.0000000E+04; -1.8213096E-03;  0.0000000E+00;  7.2631636E-05;  8.8478833E+02;
 -5.9999999E-02;  9.9999998E-03; -2.7000001E-01;1290;  0.0000000E+00;  0.0000000E+00;  0.0000000E+00;  1.0009334E+03;  1.0000000E-01;  7.7331146E+02;0;  0.0000000E+00;  0.0000000E+00;  0.0000000E+00;0; -1.4769605E-03;  4.0000000E+04;  0.0000000E+00;  0.0000000E+00;  4.0000000E+04;  0.0000000E+00;  4.0000000E+04; -1.2794032E-03;  0.0000000E+00; -1.9755725E-04;  4.5263181E+02;
 -5.9999999E-02;  9.9999998E-03; -2.5999999E-01;1291;  0.0000000E+00;  0.0000000E+00;  0.0000000E+00;  1.0010037E+03;  1.0000000E-01;  8.3148267E+02;0;  0.0000000E+00;  0.0000000E+00;  0.0000000E+00;0; -1.5692080E-03;  4.0000000E+04;  0.0000000E+00;  0.0000000E+00;  4.0000000E+04;  0.0000000E+00;  4.0000000E+04; -1.4217700E-03;  0.0000000E+00; -1.4743800E-04;  8.0194757E+02;
 -5.9999999E-02;  9.9999998E-03; -2.5000000E-01;1292;  0.0000000E+00;  0.0000000E+00;  0.0000000E+00;  1.0010746E+03;  1.0000000E-01;  8.9034521E+02;0;  0.0000000E+00;  0.0000000E+00;  0.0000000E+00;0; -1.6606054E-03;  4.0000000E+04;  0.0000000E+00;  0.0000000E+00;  4.0000000E+04;  0.0000000E+00;  4.0000000E+04; -1.5694820E-03;  0.0000000E+00; -9.1123416E-05;  1.1212096E+03;
 -5.9999999E-02;  9.9999998E-03; -2.3999999E-01;1293;  0.0000000E+00;  0.0000000E+00;  0.0000000E+00;  1.0011649E+03;  1.0000000E-01;  9.6510852E+02;0;  0.0000000E+00;  0.0000000E+00;  0.0000000E+00;0; -1.7570849E-03;  4.0000000E+04;  0.0000000E+00;  0.0000000E+00;  4.0000000E+04;  0.0000000E+00;  4.0000000E+04; -1.7239447E-03;  0.0000000E+00; -3.3140175E-05;  1.3755751E+03;
 -5.9999999E-02;  9.9999998E-03; -2.3000000E-01;1294;  0.0000000E+00;  0.0000000E+00;  0.0000000E+00;  1.0012678E+03;  1.0000000E-01;  1.0503407E+03;0;  0.0000000E+00;  0.0000000E+00;  0.0000000E+00;0; -1.8628025E-03;  4.0000000E+04;  0.0000000E+00;  0.0000000E+00;  4.0000000E+04;  0.0000000E+00;  4.0000000E+04; -1.8850233E-03;  0.0000000E+00;  2.2220831E-05;  1.5477809E+03;
 -5.9999999E-02;  9.9999998E-03; -2.2000000E-01;1295;  0.0000000E+00;  0.0000000E+00;  0.0000000E+00;  1.0013892E+03;  1.0000000E-01;  1.1508810E+03;0;  0.0000000E+00;  0.0000000E+00;  0.0000000E+00;0; -1.9792907E-03;  4.0000000E+04;  0.0000000E+00;  0.0000000E+00;  4.0000000E+04;  0.0000000E+00;  4.0000000E+04; -2.0506524E-03;  0.0000000E+00;  7.1361595E-05;  1.6339072E+03;
 -5.9999999E-02;  9.9999998E-03; -2.0999999E-01;1296;  0.0000000E+00;  0.0000000E+00;  0.0000000E+00;  1.0015188E+03;  1.0000000E-01;  1.2583348E+03;0;  0.0000000E+00;  0.0000000E+00;  0.0000000E+00;0; -2.1052021E-03;  4.0000000E+04;  0.0000000E+00;  0.0000000E+00;  4.0000000E+04;  0.0000000E+00;  4.0000000E+04; -2.2168851E-03;  0.0000000E+00;  1.1168296E-04;  1.6413564E+03;
 -5.9999999E-02;  9.9999998E-03; -2.0000000E-01;1297;  0.0000000E+00;  0.0000000E+00;  0.0000000E+00;  1.0016642E+03;  1.0000000E-01;  1.3788252E+03;0;  0.0000000E+00;  0.0000000E+00;  0.0000000E+00;0; -2.2366731E-03;  4.0000000E+04;  0.0000000E+00;  0.0000000E+00;  4.0000000E+04;  0.0000000E+00;  4.0000000E+04; -2.3784100E-03;  0.0000000E+00;  1.4173688E-04;  1.5860404E+03;
 -5.9999999E-02;  9.9999998E-03; -1.9000000E-01;1298;  0.0000000E+00;  0.0000000E+00;  0.0000000E+00;  1.0018132E+03;  1.0000000E-01;  1.5021797E+03;0;  0.0000000E+00;  0.0000000E+00;  0.0000000E+00;0; -2.3680874E-03;  4.0000000E+04;  0.0000000E+00;  0.0000000E+00;  4.0000000E+04;  0.0000000E+00;  4.0000000E+04; -2.5293108E-03;  0.0000000E+00;  1.6122339E-04;  1.4890470E+03;
 -5.9999999E-02;  9.9999998E-03; -1.8000001E-01;1299;  0.0000000E+00;  0.0000000E+00;  0.0000000E+00;  1.0019601E+03;  1.0000000E-01;  1.6238553E+03;0;  0.0000000E+00;  0.0000000E+00;  0.0000000E+00;0; -2.4930963E-03;  4.0000000E+04;  0.0000000E+00;  0.0000000E+00;  4.0000000E+04;  0.0000000E+00;  4.0000000E+04; -2.6639523E-03;  0.0000000E+00;  1.7085602E-04;  1.3731040E+03;
 -5.9999999E-02;  9.9999998E-03; -1.7000000E-01;1300;  0.0000000E+00;  0.0000000E+00;  0.0000000E+00;  1.0020938E+03;  1.0000000E-01;  1.7346670E+03;0;  0.0000000E+00;  0.0000000E+00;  0.0000000E+00;0; -2.6056902E-03;  4.0000000E+04;  0.0000000E+00;  0.0000000E+00;  4.0000000E+04;  0.0000000E+00;  4.0000000E+04; -2.7778111E-03;  0.0000000E+00;  1.7212106E-04;  1.2593221E+03;
 -5.9999999E-02;  9.9999998E-03; -1.6000000E-01;1301;  0.0000000E+00;  0.0000000E+00;  0.0000000E+00;  1.0022127E+03;  1.0000000E-01;  1.8332321E+03;0;  0.0000000E+00;  0.0000000E+00;  0.0000000E+00;0; -2.7011861E-03;  4.0000000E+04;  0.0000000E+00;  0.0000000E+00;  4.0000000E+04;  0.0000000E+00;  4.0000000E+04; -2.8681448E-03;  0.0000000E+00;  1.6695877E-04;  1.1643068E+03;
 -5.9999999E-02;  9.9999998E-03; -1.5000001E-01;1302;  0.0000000E+00;  0.0000000E+00;  0.0000000E+00;  1.0023057E+03;  1.0000000E-01;  1.9102670E+03;0;  0.0000000E+00;  0.0000000E+00;  0.0000000E+00;0; -2.7770118E-03;  4.0000000E+04;  0.0000000E+00;  0.0000000E+00;  4.0000000E+04;  0.0000000E+00;  4.0000000E+04; -2.9344149E-03;  0.0000000E+00;  1.5740303E-04;  1.0979937E+03;
 -5.9999999E-02;  9.9999998E-03; -1.4000000E-01;1303;  0.0000000E+00;  0.0000000E+00;  0.0000000E+00;  1.0023737E+03;  1.0000000E-01;  1.9665616E+03;0;  0.0000000E+00;  0.0000000E+00;  0.0000000E+00;0; -2.8331396E-03;  4.0000000E+04;  0.0000000E+00;  0.0000000E+00;  4.0000000E+04;  0.0000000E+00;  4.0000000E+04; -2.9784136E-03;  0.0000000E+00;  1.4527389E-04;  1.0632306E+03;
 -5.9999999E-02;  9.9999998E-03; -1.3000000E-01;1304;  0.0000000E+00;  0.0000000E+00;  0.0000000E+00;  1.0024108E+03;  1.0000000E-01;  1.9972769E+03;0;  0.0000000E+00;  0.0000000E+00;  0.0000000E+00;0; -2.8719259E-03;  4.0000000E+04;  0.0000000E+00;  0.0000000E+00;  4.0000000E+04;  0.0000000E+00;  4.0000000E+04; -3.0040171E-03;  0.0000000E+00;  1.3209113E-04;  1.0572775E+03;
 -5.9999999E-02;  9.9999998E-03; -1.2000000E-01;1305;  0.0000000E+00;  0.0000000E+00;  0.0000000E+00;  1.0024307E+03;  1.0000000E-01;  2.0137703E+03;0;  0.0000000E+00;  0.0000000E+00;  0.0000000E+00;0; -2.8974041E-03;  4.0000000E+04;  0.0000000E+00;  0.0000000E+00;  4.0000000E+04;  0.0000000E+00;  4.0000000E+04; -3.0164672E-03;  0.0000000E+00;  1.1906314E-04;  1.0740322E+03;
 -5.9999999E-02;  9.9999998E-03; -1.1000000E-01;1306;  0.0000000E+00;  0.0000000E+00;  0.0000000E+00;  1.0024338E+03;  1.0000000E-01;  2.0164368E+03;0;  0.0000000E+00;  0.0000000E+00;  0.0000000E+00;0; -2.9142718E-03;  4.0000000E+04;  0.0000000E+00;  0.0000000E+00;  4.0000000E+04;  0.0000000E+00;  4.0000000E+04; -3.0214863E-03;  0.0000000E+00;  1.0721466E-04;  1.1061510E+03;
 -5.0000001E-02;  9.9999998E-03; -2.7000001E-01;1381;  0.0000000E+00;  0.0000000E+00;  0.0000000E+00;  1.0015997E+03;  1.0000000E-01;  1.3253947E+03;0;  0.0000000E+00;  0.0000000E+00;  0.0000000E+00;0; -2.3008762E-03;  4.0000000E+04;  0.0000000E+00;  0.0000000E+00;  4.0000000E+04;  0.0000000E+00;  4.0000000E+04; -2.0351654E-03;  0.0000000E+00; -2.6571078E-04;  5.9650818E+02;
 -5.0000001E-02;  9.9999998E-03; -2.5999999E-01;1382;  0.0000000E+00;  0.0000000E+00;  0.0000000E+00;  1.0017281E+03;  1.0000000E-01;  1.4317620E+03;0;  0.0000000E+00;  0.0000000E+00;  0.0000000E+00;0; -2.4684605E-03;  4.0000000E+04;  0.0000000E+00;  0.0000000E+00;  4.0000000E+04;  0.0000000E+00;  4.0000000E+04; -2.2684312E-03;  0.0000000E+00; -2.0002933E-04;  1.0455605E+03;
 -5.0000001E-02;  9.9999998E-03; -2.5000000E-01;1383;  0.0000000E+00;  0.0000000E+00;  0.0000000E+00;  1.0018770E+03;  1.0000000E-01;  1.5551165E+03;0;  0.0000000E+00;  0.0000000E+00;  0.0000000E+00;0; -2.6330543E-03;  4.0000000E+04;  0.0000000E+00;  0.0000000E+00;  4.0000000E+04;  0.0000000E+00;  4.0000000E+04; -2.5065555E-03;  0.0000000E+00; -1.2649868E-04;  1.4513914E+03;
 -5.0000001E-02;  9.9999998E-03; -2.3999999E-01;1384;  0.0000000E+00;  0.0000000E+00;  0.0000000E+00;  1.0020286E+03;  1.0000000E-01;  1.6806438E+03;0;  0.0000000E+00;  0.0000000E+00;  0.0000000E+00;0; -2.8012346E-03;  4.0000000E+04;  0.0000000E+00;  0.0000000E+00;  4.0000000E+04;  0.0000000E+00;  4.0000000E+04; -2.7502265E-03;  0.0000000E+00; -5.1008039E-05;  1.7689961E+03;
 -5.0000001E-02;  9.9999998E-03; -2.3000000E-01;1385;  0.0000000E+00;  0.0000000E+00;  0.0000000E+00;  1.0022007E+03;  1.0000000E-01;  1.8232571E+03;0;  0.0000000E+00;  0.0000000E+00;  0.0000000E+00;0; -2.9772487E-03;  4.0000000E+04;  0.0000000E+00;  0.0000000E+00;  4.0000000E+04;  0.0000000E+00;  4.0000000E+04; -2.9982184E-03;  0.0000000E+00;  2.0969681E-05;  1.9776925E+03;
 -5.0000001E-02;  9.9999998E-03; -2.2000000E-01;1386;  0.0000000E+00;  0.0000000E+00;  0.0000000E+00;  1.0023904E+03;  1.0000000E-01;  1.9803884E+03;0;  0.0000000E+00;  0.0000000E+00;  0.0000000E+00;0; -3.1620841E-03;  4.0000000E+04;  0.0000000E+00;  0.0000000E+00;  4.0000000E+04;  0.0000000E+00;  4.0000000E+04; -3.2470110E-03;  0.0000000E+00;  8.4926825E-05;  2.0746323E+03;
 -5.0000001E-02;  9.9999998E-03; -2.0999999E-01;1387;  0.0000000E+00;  0.0000000E+00;  0.0000000E+00;  1.0025947E+03;  1.0000000E-01;  2.1496675E+03;0;  0.0000000E+00;  0.0000000E+00;  0.0000000E+00;0; -3.3533038E-03;  4.0000000E+04;  0.0000000E+00;  0.0000000E+00;  4.0000000E+04;  0.0000000E+00;  4.0000000E+04; -3.4909737E-03;  0.0000000E+00;  1.3767004E-04;  2.0713967E+03;
 -5.0000001E-02;  9.9999998E-03; -2.0000000E-01;1388;  0.0000000E+00;  0.0000000E+00;  0.0000000E+00;  1.0028128E+03;  1.0000000E-01;  2.3304033E+03;0;  0.0000000E+00;  0.0000000E+00;  0.0000000E+00;0; -3.5456391E-03;  4.0000000E+04;  0.0000000E+00;  0.0000000E+00;  4.0000000E+04;  0.0000000E+00;  4.0000000E+04; -3.7231101E-03;  0.0000000E+00;  1.7747100E-04;  1.9896272E+03;
 -5.0000001E-02;  9.9999998E-03; -1.9000000E-01;1389;  0.0000000E+00;  0.0000000E+00;  0.0000000E+00;  1.0030304E+03;  1.0000000E-01;  2.5106450E+03;0;  0.0000000E+00;  0.0000000E+00;  0.0000000E+00;0; -3.7320645E-03;  4.0000000E+04;  0.0000000E+00;  0.0000000E+00;  4.0000000E+04;  0.0000000E+00;  4.0000000E+04; -3.9360854E-03;  0.0000000E+00;  2.0402088E-04;  1.8565773E+03;
 -5.0000001E-02;  9.9999998E-03; -1.8000001E-01;1390;  0.0000000E+00;  0.0000000E+00;  0.0000000E+00;  1.0032341E+03;  1.0000000E-01;  2.6794304E+03;0;  0.0000000E+00;  0.0000000E+00;  0.0000000E+00;0; -3.9050777E-03;  4.0000000E+04;  0.0000000E+00;  0.0000000E+00;  4.0000000E+04;  0.0000000E+00;  4.0000000E+04; -4.1233082E-03;  0.0000000E+00;  2.1823056E-04;  1.7007620E+03;
 -5.0000001E-02;  9.9999998E-03; -1.7000000E-01;1391;  0.0000000E+00;  0.0000000E+00;  0.0000000E+00;  1.0034225E+03;  1.0000000E-01;  2.8354753E+03;0;  0.0000000E+00;  0.0000000E+00;  0.0000000E+00;0; -4.0579611E-03;  4.0000000E+04;  0.0000000E+00;  0.0000000E+00;  4.0000000E+04;  0.0000000E+00;  4.0000000E+04; -4.2798850E-03;  0.0000000E+00;  2.2192375E-04;  1.5482734E+03;
 -5.0000001E-02;  9.9999998E-03; -1.6000000E-01;1392;  0.0000000E+00;  0.0000000E+00;  0.0000000E+00;  1.0035824E+03;  1.0000000E-01;  2.9679160E+03;0;  0.0000000E+00;  0.0000000E+00;  0.0000000E+00;0; -4.1858265E-03;  4.0000000E+04;  0.0000000E+00;  0.0000000E+00;  4.0000000E+04;  0.0000000E+00;  4.0000000E+04; -4.4032941E-03;  0.0000000E+00;  2.1746760E-04;  1.4196910E+03;
 -5.0000001E-02;  9.9999998E-03; -1.5000001E-01;1393;  0.0000000E+00;  0.0000000E+00;  0.0000000E+00;  1.0037103E+03;  1.0000000E-01;  3.0738884E+03;0;  0.0000000E+00;  0.0000000E+00;  0.0000000E+00;0; -4.2864010E-03;  4.0000000E+04;  0.0000000E+00;  0.0000000E+00;  4.0000000E+04;  0.0000000E+00;  4.0000000E+04; -4.4937702E-03;  0.0000000E+00;  2.0736942E-04;  1.3278584E+03;
 -5.0000001E-02;  9.9999998E-03; -1.4000000E-01;1394;  0.0000000E+00;  0.0000000E+00;  0.0000000E+00;  1.0038036E+03;  1.0000000E-01;  3.1512195E+03;0;  0.0000000E+00;  0.0000000E+00;  0.0000000E+00;0; -4.3604197E-03;  4.0000000E+04;  0.0000000E+00;  0.0000000E+00;  4.0000000E+04;  0.0000000E+00;  4.0000000E+04; -4.5543169E-03;  0.0000000E+00;  1.9389698E-04;  1.2769396E+03;
 -5.0000001E-02;  9.9999998E-03; -1.3000000E-01;1395;  0.0000000E+00;  0.0000000E+00;  0.0000000E+00;  1.0038666E+03;  1.0000000E-01;  3.2034648E+03;0;  0.0000000E+00;  0.0000000E+00;  0.0000000E+00;0; -4.4114389E-03;  4.0000000E+04;  0.0000000E+00;  0.0000000E+00;  4.0000000E+04;  0.0000000E+00;  4.0000000E+04; -4.5903423E-03;  0.0000000E+00;  1.7890356E-04;  1.2637460E+03;
 -5.0000001E-02;  9.9999998E-03; -1.2000000E-01;1396;  0.0000000E+00;  0.0000000E+00;  0.0000000E+00;  1.0038981E+03;  1.0000000E-01;  3.2294395E+03;0;  0.0000000E+00;  0.0000000E+00;  0.0000000E+00;0; -4.4449987E-03;  4.0000000E+04;  0.0000000E+00;  0.0000000E+00;  4.0000000E+04;  0.0000000E+00;  4.0000000E+04; -4.6088616E-03;  0.0000000E+00;  1.6386301E-04;  1.2806843E+03;
 -5.0000001E-02;  9.9999998E-03; -1.1000000E-01;1397;  0.0000000E+00;  0.0000000E+00;  0.0000000E+00;  1.0039093E+03;  1.0000000E-01;  3.2388220E+03;0;  0.0000000E+00;  0.0000000E+00;  0.0000000E+00;0; -4.4673295E-03;  4.0000000E+04;  0.0000000E+00;  0.0000000E+00;  4.0000000E+04;  0.0000000E+00;  4.0000000E+04; -4.6173348E-03;  0.0000000E+00;  1.5000513E-04;  1.3184482E+03;
 -3.9999999E-02;  9.9999998E-03; -2.7000001E-01;1472;  0.0000000E+00;  0.0000000E+00;  0.0000000E+00;  1.0024821E+03;  1.0000000E-01;  2.0564355E+03;0;  0.0000000E+00;  0.0000000E+00;  0.0000000E+00;0; -3.3447165E-03;  4.0000000E+04;  0.0000000E+00;  0.0000000E+00;  4.0000000E+04;  0.0000000E+00;  4.0000000E+04; -3.0007386E-03;  0.0000000E+00; -3.4397785E-04;  7.4792072E+02;
 -3.9999999E-02;  9.9999998E-03; -2.5999999E-01;1473;  0.0000000E+00;  0.0000000E+00;  0.0000000E+00;  1.0027070E+03;  1.0000000E-01;  2.2427019E+03;0;  0.0000000E+00;  0.0000000E+00;  0.0000000E+00;0; -3.6098498E-03;  4.0000000E+04;  0.0000000E+00;  0.0000000E+00;  4.0000000E+04;  0.0000000E+00;  4.0000000E+04; -3.3492029E-03;  0.0000000E+00; -2.6064683E-04;  1.3094407E+03;
 -3.9999999E-02;  9.9999998E-03; -2.5000000E-01;1474;  0.0000000E+00;  0.0000000E+00;  0.0000000E+00;  1.0029375E+03;  1.0000000E-01;  2.4337090E+03;0;  0.0000000E+00;  0.0000000E+00;  0.0000000E+00;0; -3.8690579E-03;  4.0000000E+04;  0.0000000E+00;  0.0000000E+00;  4.0000000E+04;  0.0000000E+00;  4.0000000E+04; -3.7012091E-03;  0.0000000E+00; -1.6784886E-04;  1.8077125E+03;
 -3.9999999E-02;  9.9999998E-03; -2.3999999E-01;1475;  0.0000000E+00;  0.0000000E+00;  0.0000000E+00;  1.0031845E+03;  1.0000000E-01;  2.6383452E+03;0;  0.0000000E+00;  0.0000000E+00;  0.0000000E+00;0; -4.1294903E-03;  4.0000000E+04;  0.0000000E+00;  0.0000000E+00;  4.0000000E+04;  0.0000000E+00;  4.0000000E+04; -4.0564616E-03;  0.0000000E+00; -7.3028728E-05;  2.1880422E+03;
 -3.9999999E-02;  9.9999998E-03; -2.3000000E-01;1476;  0.0000000E+00;  0.0000000E+00;  0.0000000E+00;  1.0034496E+03;  1.0000000E-01;  2.8579932E+03;0;  0.0000000E+00;  0.0000000E+00;  0.0000000E+00;0; -4.3952852E-03;  4.0000000E+04;  0.0000000E+00;  0.0000000E+00;  4.0000000E+04;  0.0000000E+00;  4.0000000E+04; -4.4123339E-03;  0.0000000E+00;  1.7048653E-05;  2.4274048E+03;
 -3.9999999E-02;  9.9999998E-03; -2.2000000E-01;1477;  0.0000000E+00;  0.0000000E+00;  0.0000000E+00;  1.0037290E+03;  1.0000000E-01;  3.0893940E+03;0;  0.0000000E+00;  0.0000000E+00;  0.0000000E+00;0; -4.6665054E-03;  4.0000000E+04;  0.0000000E+00;  0.0000000E+00;  4.0000000E+04;  0.0000000E+00;  4.0000000E+04; -4.7634384E-03;  0.0000000E+00;  9.6932970E-05;  2.5260403E+03;
 -3.9999999E-02;  9.9999998E-03; -2.0999999E-01;1478;  0.0000000E+00;  0.0000000E+00;  0.0000000E+00;  1.0040286E+03;  1.0000000E-01;  3.3376833E+03;0;  0.0000000E+00;  0.0000000E+00;  0.0000000E+00;0; -4.9391966E-03;  4.0000000E+04;  0.0000000E+00;  0.0000000E+00;  4.0000000E+04;  0.0000000E+00;  4.0000000E+04; -5.1020766E-03;  0.0000000E+00;  1.6287985E-04;  2.5018884E+03;
 -3.9999999E-02;  9.9999998E-03; -2.0000000E-01;1479;  0.0000000E+00;  0.0000000E+00;  0.0000000E+00;  1.0043288E+03;  1.0000000E-01;  3.5863677E+03;0;  0.0000000E+00;  0.0000000E+00;  0.0000000E+00;0; -5.2063181E-03;  4.0000000E+04;  0.0000000E+00;  0.0000000E+00;  4.0000000E+04;  0.0000000E+00;  4.0000000E+04; -5.4193051E-03;  0.0000000E+00;  2.1298700E-04;  2.3842590E+03;
 -3.9999999E-02;  9.9999998E-03; -1.9000000E-01;1480;  0.0000000E+00;  0.0000000E+00;  0.0000000E+00;  1.0046224E+03;  1.0000000E-01;  3.8295212E+03;0;  0.0000000E+00;  0.0000000E+00;  0.0000000E+00;0; -5.4591503E-03;  4.0000000E+04;  0.0000000E+00;  0.0000000E+00;  4.0000000E+04;  0.0000000E+00;  4.0000000E+04; -5.7062255E-03;  0.0000000E+00;  2.4707519E-04;  2.2077358E+03;
 -3.9999999E-02;  9.9999998E-03; -1.8000001E-01;1481;  0.0000000E+00;  0.0000000E+00;  0.0000000E+00;  1.0049125E+03;  1.0000000E-01;  4.0699097E+03;0;  0.0000000E+00;  0.0000000E+00;  0.0000000E+00;0; -5.6889500E-03;  4.0000000E+04;  0.0000000E+00;  0.0000000E+00;  4.0000000E+04;  0.0000000E+00;  4.0000000E+04; -5.9553380E-03;  0.0000000E+00;  2.6638826E-04;  2.0069941E+03;
 -3.9999999E-02;  9.9999998E-03; -1.7000000E-01;1482;  0.0000000E+00;  0.0000000E+00;  0.0000000E+00;  1.0051629E+03;  1.0000000E-01;  4.2774097E+03;0;  0.0000000E+00;  0.0000000E+00;  0.0000000E+00;0; -5.8883899E-03;  4.0000000E+04;  0.0000000E+00;  0.0000000E+00;  4.0000000E+04;  0.0000000E+00;  4.0000000E+04; -6.1615692E-03;  0.0000000E+00;  2.7317929E-04;  1.8127012E+03;
 -3.9999999E-02;  9.9999998E-03; -1.6000000E-01;1483;  0.0000000E+00;  0.0000000E+00;  0.0000000E+00;  1.0053740E+03;  1.0000000E-01;  4.4522197E+03;0;  0.0000000E+00;  0.0000000E+00;  0.0000000E+00;0; -6.0526645E-03;  4.0000000E+04;  0.0000000E+00;  0.0000000E+00;  4.0000000E+04;  0.0000000E+00;  4.0000000E+04; -6.3229338E-03;  0.0000000E+00;  2.7026923E-04;  1.6486716E+03;
 -3.9999999E-02;  9.9999998E-03; -1.5000001E-01;1484;  0.0000000E+00;  0.0000000E+00;  0.0000000E+00;  1.0055469E+03;  1.0000000E-01;  4.5955244E+03;0;  0.0000000E+00;  0.0000000E+00;  0.0000000E+00;0; -6.1802384E-03;  4.0000000E+04;  0.0000000E+00;  0.0000000E+00;  4.0000000E+04;  0.0000000E+00;  4.0000000E+04; -6.4408458E-03;  0.0000000E+00;  2.6060734E-04;  1.5297374E+03;
 -3.9999999E-02;  9.9999998E-03; -1.4000000E-01;1485;  0.0000000E+00;  0.0000000E+00;  0.0000000E+00;  1.0056787E+03;  1.0000000E-01;  4.7046572E+03;0;  0.0000000E+00;  0.0000000E+00;  0.0000000E+00;0; -6.2730503E-03;  4.0000000E+04;  0.0000000E+00;  0.0000000E+00;  4.0000000E+04;  0.0000000E+00;  4.0000000E+04; -6.5199123E-03;  0.0000000E+00;  2.4686180E-04;  1.4610308E+03;
 -3.9999999E-02;  9.9999998E-03; -1.3000000E-01;1486;  0.0000000E+00;  0.0000000E+00;  0.0000000E+00;  1.0057666E+03;  1.0000000E-01;  4.7775439E+03;0;  0.0000000E+00;  0.0000000E+00;  0.0000000E+00;0; -6.3363509E-03;  4.0000000E+04;  0.0000000E+00;  0.0000000E+00;  4.0000000E+04;  0.0000000E+00;  4.0000000E+04; -6.5675094E-03;  0.0000000E+00;  2.3115825E-04;  1.4388068E+03;
 -3.9999999E-02;  9.9999998E-03; -1.2000000E-01;1487;  0.0000000E+00;  0.0000000E+00;  0.0000000E+00;  1.0058115E+03;  1.0000000E-01;  4.8146787E+03;0;  0.0000000E+00;  0.0000000E+00;  0.0000000E+00;0; -6.3775601E-03;  4.0000000E+04;  0.0000000E+00;  0.0000000E+00;  4.0000000E+04;  0.0000000E+00;  4.0000000E+04; -6.5927156E-03;  0.0000000E+00;  2.1515547E-04;  1.4540093E+03;
 -3.9999999E-02;  9.9999998E-03; -1.1000000E-01;1488;  0.0000000E+00;  0.0000000E+00;  0.0000000E+00;  1.0058223E+03;  1.0000000E-01;  4.8236660E+03;0;  0.0000000E+00;  0.0000000E+00;  0.0000000E+00;0; -6.4048180E-03;  4.0000000E+04;  0.0000000E+00;  0.0000000E+00;  4.0000000E+04;  0.0000000E+00;  4.0000000E+04; -6.6050352E-03;  0.0000000E+00;  2.0021731E-04;  1.4954773E+03;
 -2.9999999E-02;  9.9999998E-03; -2.7000001E-01;1563;  0.0000000E+00;  0.0000000E+00;  0.0000000E+00;  1.0036089E+03;  1.0000000E-01;  2.9899402E+03;0;  0.0000000E+00;  0.0000000E+00;  0.0000000E+00;0; -4.5869588E-03;  4.0000000E+04;  0.0000000E+00;  0.0000000E+00;  4.0000000E+04;  0.0000000E+00;  4.0000000E+04; -4.1570547E-03;  0.0000000E+00; -4.2990429E-04;  8.9983282E+02;
 -2.9999999E-02;  9.9999998E-03; -2.5999999E-01;1564;  0.0000000E+00;  0.0000000E+00;  0.0000000E+00;  1.0039427E+03;  1.0000000E-01;  3.2664756E+03;0;  0.0000000E+00;  0.0000000E+00;  0.0000000E+00;0; -4.9706399E-03;  4.0000000E+04;  0.0000000E+00;  0.0000000E+00;  4.0000000E+04;  0.0000000E+00;  4.0000000E+04; -4.6433257E-03;  0.0000000E+00; -3.2731431E-04;  1.5825780E+03;
 -2.9999999E-02;  9.9999998E-03; -2.5000000E-01;1565;  0.0000000E+00;  0.0000000E+00;  0.0000000E+00;  1.0042778E+03;  1.0000000E-01;  3.5440974E+03;0;  0.0000000E+00;  0.0000000E+00;  0.0000000E+00;0; -5.3446284E-03;  4.0000000E+04;  0.0000000E+00;  0.0000000E+00;  4.0000000E+04;  0.0000000E+00;  4.0000000E+04; -5.1307897E-03;  0.0000000E+00; -2.1383865E-04;  2.1731477E+03;
 -2.9999999E-02;  9.9999998E-03; -2.3999999E-01;1566;  0.0000000E+00;  0.0000000E+00;  0.0000000E+00;  1.0046388E+03;  1.0000000E-01;  3.8431506E+03;0;  0.0000000E+00;  0.0000000E+00;  0.0000000E+00;0; -5.7164780E-03;  4.0000000E+04;  0.0000000E+00;  0.0000000E+00;  4.0000000E+04;  0.0000000E+00;  4.0000000E+04; -5.6178770E-03;  0.0000000E+00; -9.8601173E-05;  2.6088455E+03;
 -2.9999999E-02;  9.9999998E-03; -2.3000000E-01;1567;  0.0000000E+00;  0.0000000E+00;  0.0000000E+00;  1.0050172E+03;  1.0000000E-01;  4.1566230E+03;0;  0.0000000E+00;  0.0000000E+00;  0.0000000E+00;0; -6.0898741E-03;  4.0000000E+04;  0.0000000E+00;  0.0000000E+00;  4.0000000E+04;  0.0000000E+00;  4.0000000E+04; -6.1001512E-03;  0.0000000E+00;  1.0277337E-05;  2.8664187E+03;
 -2.9999999E-02;  9.9999998E-03; -2.2000000E-01;1568;  0.0000000E+00;  0.0000000E+00;  0.0000000E+00;  1.0054081E+03;  1.0000000E-01;  4.4804658E+03;0;  0.0000000E+00;  0.0000000E+00;  0.0000000E+00;0; -6.4635831E-03;  4.0000000E+04;  0.0000000E+00;  0.0000000E+00;  4.0000000E+04;  0.0000000E+00;  4.0000000E+04; -6.5699872E-03;  0.0000000E+00;  1.0640403E-04;  2.9520137E+03;
 -2.9999999E-02;  9.9999998E-03; -2.0999999E-01;1569;  0.0000000E+00;  0.0000000E+00;  0.0000000E+00;  1.0058135E+03;  1.0000000E-01;  4.8163574E+03;0;  0.0000000E+00;  0.0000000E+00;  0.0000000E+00;0; -6.8317773E-03;  4.0000000E+04;  0.0000000E+00;  0.0000000E+00;  4.0000000E+04;  0.0000000E+00;  4.0000000E+04; -7.0173382E-03;  0.0000000E+00;  1.8556071E-04;  2.8927017E+03;
 -2.9999999E-02;  9.9999998E-03; -2.0000000E-01;1570;  0.0000000E+00;  0.0000000E+00;  0.0000000E+00;  1.0062187E+03;  1.0000000E-01;  5.1520518E+03;0;  0.0000000E+00;  0.0000000E+00;  0.0000000E+00;0; -7.1853185E-03;  4.0000000E+04;  0.0000000E+00;  0.0000000E+00;  4.0000000E+04;  0.0000000E+00;  4.0000000E+04; -7.4311378E-03;  0.0000000E+00;  2.4581910E-04;  2.7276748E+03;
 -2.9999999E-02;  9.9999998E-03; -1.9000000E-01;1571;  0.0000000E+00;  0.0000000E+00;  0.0000000E+00;  1.0066125E+03;  1.0000000E-01;  5.4783638E+03;0;  0.0000000E+00;  0.0000000E+00;  0.0000000E+00;0; -7.5136577E-03;  4.0000000E+04;  0.0000000E+00;  0.0000000E+00;  4.0000000E+04;  0.0000000E+00;  4.0000000E+04; -7.8009823E-03;  0.0000000E+00;  2.8732445E-04;  2.5000710E+03;
 -2.9999999E-02;  9.9999998E-03; -1.8000001E-01;1572;  0.0000000E+00;  0.0000000E+00;  0.0000000E+00;  1.0069759E+03;  1.0000000E-01;  5.7793921E+03;0;  0.0000000E+00;  0.0000000E+00;  0.0000000E+00;0; -7.8067831E-03;  4.0000000E+04;  0.0000000E+00;  0.0000000E+00;  4.0000000E+04;  0.0000000E+00;  4.0000000E+04; -8.1186211E-03;  0.0000000E+00;  3.1183814E-04;  2.2506592E+03;
 -2.9999999E-02;  9.9999998E-03; -1.7000000E-01;1573;  0.0000000E+00;  0.0000000E+00;  0.0000000E+00;  1.0073081E+03;  1.0000000E-01;  6.0546436E+03;0;  0.0000000E+00;  0.0000000E+00;  0.0000000E+00;0; -8.0569489E-03;  4.0000000E+04;  0.0000000E+00;  0.0000000E+00;  4.0000000E+04;  0.0000000E+00;  4.0000000E+04; -8.3791269E-03;  0.0000000E+00;  3.2217795E-04;  2.0139396E+03;
 -2.9999999E-02;  9.9999998E-03; -1.6000000E-01;1574;  0.0000000E+00;  0.0000000E+00;  0.0000000E+00;  1.0075828E+03;  1.0000000E-01;  6.2821929E+03;0;  0.0000000E+00;  0.0000000E+00;  0.0000000E+00;0; -8.2597863E-03;  4.0000000E+04;  0.0000000E+00;  0.0000000E+00;  4.0000000E+04;  0.0000000E+00;  4.0000000E+04; -8.5814493E-03;  0.0000000E+00;  3.2166266E-04;  1.8154585E+03;
 -2.9999999E-02;  9.9999998E-03; -1.5000001E-01;1575;  0.0000000E+00;  0.0000000E+00;  0.0000000E+00;  1.0078083E+03;  1.0000000E-01;  6.4690518E+03;0;  0.0000000E+00;  0.0000000E+00;  0.0000000E+00;0; -8.4149707E-03;  4.0000000E+04;  0.0000000E+00;  0.0000000E+00;  4.0000000E+04;  0.0000000E+00;  4.0000000E+04; -8.7286048E-03;  0.0000000E+00;  3.1363365E-04;  1.6706708E+03;
 -2.9999999E-02;  9.9999998E-03; -1.4000000E-01;1576;  0.0000000E+00;  0.0000000E+00;  0.0000000E+00;  1.0079777E+03;  1.0000000E-01;  6.6093936E+03;0;  0.0000000E+00;  0.0000000E+00;  0.0000000E+00;0; -8.5261995E-03;  4.0000000E+04;  0.0000000E+00;  0.0000000E+00;  4.0000000E+04;  0.0000000E+00;  4.0000000E+04; -8.8272542E-03;  0.0000000E+00;  3.0105430E-04;  1.5846556E+03;
 -2.9999999E-02;  9.9999998E-03; -1.3000000E-01;1577;  0.0000000E+00;  0.0000000E+00;  0.0000000E+00;  1.0080866E+03;  1.0000000E-01;  6.6995635E+03;0;  0.0000000E+00;  0.0000000E+00;  0.0000000E+00;0; -8.6007835E-03;  4.0000000E+04;  0.0000000E+00;  0.0000000E+00;  4.0000000E+04;  0.0000000E+00;  4.0000000E+04; -8.8869967E-03;  0.0000000E+00;  2.8621344E-04;  1.5528094E+03;
 -2.9999999E-02;  9.9999998E-03; -1.2000000E-01;1578;  0.0000000E+00;  0.0000000E+00;  0.0000000E+00;  1.0081443E+03;  1.0000000E-01;  6.7474634E+03;0;  0.0000000E+00;  0.0000000E+00;  0.0000000E+00;0; -8.6484505E-03;  4.0000000E+04;  0.0000000E+00;  0.0000000E+00;  4.0000000E+04;  0.0000000E+00;  4.0000000E+04; -8.9192633E-03;  0.0000000E+00;  2.7081254E-04;  1.5646287E+03;
 -2.9999999E-02;  9.9999998E-03; -1.1000000E-01;1579;  0.0000000E+00;  0.0000000E+00;  0.0000000E+00;  1.0081541E+03;  1.0000000E-01;  6.7555620E+03;0;  0.0000000E+00;  0.0000000E+00;  0.0000000E+00;0; -8.6794998E-03;  4.0000000E+04;  0.0000000E+00;  0.0000000E+00;  4.0000000E+04;  0.0000000E+00;  4.0000000E+04; -8.9357262E-03;  0.0000000E+00;  2.5622611E-04;  1.6073595E+03;
 -2.0000000E-02;  9.9999998E-03; -2.7000001E-01;1654;  0.0000000E+00;  0.0000000E+00;  0.0000000E+00;  1.0049310E+03;  1.0000000E-01;  4.0852178E+03;0;  0.0000000E+00;  0.0000000E+00;  0.0000000E+00;0; -5.9791920E-03;  4.0000000E+04;  0.0000000E+00;  0.0000000E+00;  4.0000000E+04;  0.0000000E+00;  4.0000000E+04; -5.4598097E-03;  0.0000000E+00; -5.1938230E-04;  1.0530800E+03;
 -2.0000000E-02;  9.9999998E-03; -2.5999999E-01;1655;  0.0000000E+00;  0.0000000E+00;  0.0000000E+00;  1.0054009E+03;  1.0000000E-01;  4.4745400E+03;0;  0.0000000E+00;  0.0000000E+00;  0.0000000E+00;0; -6.5001408E-03;  4.0000000E+04;  0.0000000E+00;  0.0000000E+00;  4.0000000E+04;  0.0000000E+00;  4.0000000E+04; -6.1032651E-03;  0.0000000E+00; -3.9687575E-04;  1.8560526E+03;
 -2.0000000E-02;  9.9999998E-03; -2.5000000E-01;1656;  0.0000000E+00;  0.0000000E+00;  0.0000000E+00;  1.0058740E+03;  1.0000000E-01;  4.8664302E+03;0;  0.0000000E+00;  0.0000000E+00;  0.0000000E+00;0; -7.0066820E-03;  4.0000000E+04;  0.0000000E+00;  0.0000000E+00;  4.0000000E+04;  0.0000000E+00;  4.0000000E+04; -6.7442819E-03;  0.0000000E+00; -2.6240025E-04;  2.5286746E+03;
 -2.0000000E-02;  9.9999998E-03; -2.3999999E-01;1657;  0.0000000E+00;  0.0000000E+00;  0.0000000E+00;  1.0063632E+03;  1.0000000E-01;  5.2717520E+03;0;  0.0000000E+00;  0.0000000E+00;  0.0000000E+00;0; -7.5063342E-03;  4.0000000E+04;  0.0000000E+00;  0.0000000E+00;  4.0000000E+04;  0.0000000E+00;  4.0000000E+04; -7.3795645E-03;  0.0000000E+00; -1.2676993E-04;  3.0028684E+03;
 -2.0000000E-02;  9.9999998E-03; -2.3000000E-01;1658;  0.0000000E+00;  0.0000000E+00;  0.0000000E+00;  1.0068694E+03;  1.0000000E-01;  5.6911973E+03;0;  0.0000000E+00;  0.0000000E+00;  0.0000000E+00;0; -8.0018621E-03;  4.0000000E+04;  0.0000000E+00;  0.0000000E+00;  4.0000000E+04;  0.0000000E+00;  4.0000000E+04; -8.0023864E-03;  0.0000000E+00;  5.2422399E-07;  3.2583245E+03;
 -2.0000000E-02;  9.9999998E-03; -2.2000000E-01;1659;  0.0000000E+00;  0.0000000E+00;  0.0000000E+00;  1.0073857E+03;  1.0000000E-01;  6.1189380E+03;0;  0.0000000E+00;  0.0000000E+00;  0.0000000E+00;0; -8.4904749E-03;  4.0000000E+04;  0.0000000E+00;  0.0000000E+00;  4.0000000E+04;  0.0000000E+00;  4.0000000E+04; -8.6026452E-03;  0.0000000E+00;  1.1217063E-04;  3.3105376E+03;
 -2.0000000E-02;  9.9999998E-03; -2.0999999E-01;1660;  0.0000000E+00;  0.0000000E+00;  0.0000000E+00;  1.0079161E+03;  1.0000000E-01;  6.5583330E+03;0;  0.0000000E+00;  0.0000000E+00;  0.0000000E+00;0; -8.9642415E-03;  4.0000000E+04;  0.0000000E+00;  0.0000000E+00;  4.0000000E+04;  0.0000000E+00;  4.0000000E+04; -9.1678211E-03;  0.0000000E+00;  2.0357958E-04;  3.1988408E+03;
 -2.0000000E-02;  9.9999998E-03; -2.0000000E-01;1661;  0.0000000E+00;  0.0000000E+00;  0.0000000E+00;  1.0084317E+03;  1.0000000E-01;  6.9854814E+03;0;  0.0000000E+00;  0.0000000E+00;  0.0000000E+00;0; -9.4118742E-03;  4.0000000E+04;  0.0000000E+00;  0.0000000E+00;  4.0000000E+04;  0.0000000E+00;  4.0000000E+04; -9.6848560E-03;  0.0000000E+00;  2.7298211E-04;  2.9742634E+03;
 -2.0000000E-02;  9.9999998E-03; -1.9000000E-01;1662;  0.0000000E+00;  0.0000000E+00;  0.0000000E+00;  1.0089323E+03;  1.0000000E-01;  7.4001855E+03;0;  0.0000000E+00;  0.0000000E+00;  0.0000000E+00;0; -9.8210461E-03;  4.0000000E+04;  0.0000000E+00;  0.0000000E+00;  4.0000000E+04;  0.0000000E+00;  4.0000000E+04; -1.0142132E-02;  0.0000000E+00;  3.2108545E-04;  2.6890312E+03;
 -2.0000000E-02;  9.9999998E-03; -1.8000001E-01;1663;  0.0000000E+00;  0.0000000E+00;  0.0000000E+00;  1.0093885E+03;  1.0000000E-01;  7.7782490E+03;0;  0.0000000E+00;  0.0000000E+00;  0.0000000E+00;0; -1.0180642E-02;  4.0000000E+04;  0.0000000E+00;  0.0000000E+00;  4.0000000E+04;  0.0000000E+00;  4.0000000E+04; -1.0531045E-02;  0.0000000E+00;  3.5040334E-04;  2.3896372E+03;
 -2.0000000E-02;  9.9999998E-03; -1.7000000E-01;1664;  0.0000000E+00;  0.0000000E+00;  0.0000000E+00;  1.0097971E+03;  1.0000000E-01;  8.1167085E+03;0;  0.0000000E+00;  0.0000000E+00;  0.0000000E+00;0; -1.0482801E-02;  4.0000000E+04;  0.0000000E+00;  0.0000000E+00;  4.0000000E+04;  0.0000000E+00;  4.0000000E+04; -1.0847283E-02;  0.0000000E+00;  3.6448173E-04;  2.1128811E+03;
 -2.0000000E-02;  9.9999998E-03; -1.6000000E-01;1665;  0.0000000E+00;  0.0000000E+00;  0.0000000E+00;  1.0101481E+03;  1.0000000E-01;  8.4075645E+03;0;  0.0000000E+00;  0.0000000E+00;  0.0000000E+00;0; -1.0724091E-02;  4.0000000E+04;  0.0000000E+00;  0.0000000E+00;  4.0000000E+04;  0.0000000E+00;  4.0000000E+04; -1.1091282E-02;  0.0000000E+00;  3.6719051E-04;  1.8842626E+03;
 -2.0000000E-02;  9.9999998E-03; -1.5000001E-01;1666;  0.0000000E+00;  0.0000000E+00;  0.0000000E+00;  1.0104269E+03;  1.0000000E-01;  8.6384717E+03;0;  0.0000000E+00;  0.0000000E+00;  0.0000000E+00;0; -1.0905772E-02;  4.0000000E+04;  0.0000000E+00;  0.0000000E+00;  4.0000000E+04;  0.0000000E+00;  4.0000000E+04; -1.1267968E-02;  0.0000000E+00;  3.6219737E-04;  1.7180363E+03;
 -2.0000000E-02;  9.9999998E-03; -1.4000000E-01;1667;  0.0000000E+00;  0.0000000E+00;  0.0000000E+00;  1.0106281E+03;  1.0000000E-01;  8.8051826E+03;0;  0.0000000E+00;  0.0000000E+00;  0.0000000E+00;0; -1.1033753E-02;  4.0000000E+04;  0.0000000E+00;  0.0000000E+00;  4.0000000E+04;  0.0000000E+00;  4.0000000E+04; -1.1386353E-02;  0.0000000E+00;  3.5259937E-04;  1.6177540E+03;
 -2.0000000E-02;  9.9999998E-03; -1.3000000E-01;1668;  0.0000000E+00;  0.0000000E+00;  0.0000000E+00;  1.0107540E+03;  1.0000000E-01;  8.9094766E+03;0;  0.0000000E+00;  0.0000000E+00;  0.0000000E+00;0; -1.1117825E-02;  4.0000000E+04;  0.0000000E+00;  0.0000000E+00;  4.0000000E+04;  0.0000000E+00;  4.0000000E+04; -1.1458493E-02;  0.0000000E+00;  3.4066709E-04;  1.5773479E+03;
 -2.0000000E-02;  9.9999998E-03; -1.2000000E-01;1669;  0.0000000E+00;  0.0000000E+00;  0.0000000E+00;  1.0108158E+03;  1.0000000E-01;  8.9606357E+03;0;  0.0000000E+00;  0.0000000E+00;  0.0000000E+00;0; -1.1170249E-02;  4.0000000E+04;  0.0000000E+00;  0.0000000E+00;  4.0000000E+04;  0.0000000E+00;  4.0000000E+04; -1.1498191E-02;  0.0000000E+00;  3.2794205E-04;  1.5846755E+03;
 -2.0000000E-02;  9.9999998E-03; -1.1000000E-01;1670;  0.0000000E+00;  0.0000000E+00;  0.0000000E+00;  1.0108244E+03;  1.0000000E-01;  8.9678447E+03;0;  0.0000000E+00;  0.0000000E+00;  0.0000000E+00;0; -1.1203645E-02;  4.0000000E+04;  0.0000000E+00;  0.0000000E+00;  4.0000000E+04;  0.0000000E+00;  4.0000000E+04; -1.1519277E-02;  0.0000000E+00;  3.1563229E-04;  1.6258250E+03;
 -9.9999998E-03;  9.9999998E-03; -2.7000001E-01;1745;  0.0000000E+00;  0.0000000E+00;  0.0000000E+00;  1.0064236E+03;  1.0000000E-01;  5.3218247E+03;0;  0.0000000E+00;  0.0000000E+00;  0.0000000E+00;0; -7.4478127E-03;  4.0000000E+04;  0.0000000E+00;  0.0000000E+00;  4.0000000E+04;  0.0000000E+00;  4.0000000E+04; -6.8413485E-03;  0.0000000E+00; -6.0646416E-04;  1.2152480E+03;
 -9.9999998E-03;  9.9999998E-03; -2.5999999E-01;1746;  0.0000000E+00;  0.0000000E+00;  0.0000000E+00;  1.0070424E+03;  1.0000000E-01;  5.8345015E+03;0;  0.0000000E+00;  0.0000000E+00;  0.0000000E+00;0; -8.1222551E-03;  4.0000000E+04;  0.0000000E+00;  0.0000000E+00;  4.0000000E+04;  0.0000000E+00;  4.0000000E+04; -7.6572448E-03;  0.0000000E+00; -4.6501047E-04;  2.1211113E+03;
 -9.9999998E-03;  9.9999998E-03; -2.5000000E-01;1747;  0.0000000E+00;  0.0000000E+00;  0.0000000E+00;  1.0076656E+03;  1.0000000E-01;  6.3508325E+03;0;  0.0000000E+00;  0.0000000E+00;  0.0000000E+00;0; -8.7762522E-03;  4.0000000E+04;  0.0000000E+00;  0.0000000E+00;  4.0000000E+04;  0.0000000E+00;  4.0000000E+04; -8.4654056E-03;  0.0000000E+00; -3.1084678E-04;  2.8515366E+03;
 -9.9999998E-03;  9.9999998E-03; -2.3999999E-01;1748;  0.0000000E+00;  0.0000000E+00;  0.0000000E+00;  1.0082991E+03;  1.0000000E-01;  6.8756572E+03;0;  0.0000000E+00;  0.0000000E+00;  0.0000000E+00;0; -9.4162552E-03;  4.0000000E+04;  0.0000000E+00;  0.0000000E+00;  4.0000000E+04;  0.0000000E+00;  4.0000000E+04; -9.2598572E-03;  0.0000000E+00; -1.5639828E-04;  3.3364036E+03;
 -9.9999998E-03;  9.9999998E-03; -2.3000000E-01;1749;  0.0000000E+00;  0.0000000E+00;  0.0000000E+00;  1.0089446E+03;  1.0000000E-01;  7.4104570E+03;0;  0.0000000E+00;  0.0000000E+00;  0.0000000E+00;0; -1.0043707E-02;  4.0000000E+04;  0.0000000E+00;  0.0000000E+00;  4.0000000E+04;  0.0000000E+00;  4.0000000E+04; -1.0031193E-02;  0.0000000E+00; -1.2514025E-05;  3.5623799E+03;
 -9.9999998E-03;  9.9999998E-03; -2.2000000E-01;1750;  0.0000000E+00;  0.0000000E+00;  0.0000000E+00;  1.0095970E+03;  1.0000000E-01;  7.9509849E+03;0;  0.0000000E+00;  0.0000000E+00;  0.0000000E+00;0; -1.0654163E-02;  4.0000000E+04;  0.0000000E+00;  0.0000000E+00;  4.0000000E+04;  0.0000000E+00;  4.0000000E+04; -1.0766782E-02;  0.0000000E+00;  1.1261899E-04;  3.5578604E+03;
 -9.9999998E-03;  9.9999998E-03; -2.0999999E-01;1751;  0.0000000E+00;  0.0000000E+00;  0.0000000E+00;  1.0102539E+03;  1.0000000E-01;  8.4951670E+03;0;  0.0000000E+00;  0.0000000E+00;  0.0000000E+00;0; -1.1237797E-02;  4.0000000E+04;  0.0000000E+00;  0.0000000E+00;  4.0000000E+04;  0.0000000E+00;  4.0000000E+04; -1.1451965E-02;  0.0000000E+00;  2.1416802E-04;  3.3768279E+03;
 -9.9999998E-03;  9.9999998E-03; -2.0000000E-01;1752;  0.0000000E+00;  0.0000000E+00;  0.0000000E+00;  1.0108911E+03;  1.0000000E-01;  9.0230537E+03;0;  0.0000000E+00;  0.0000000E+00;  0.0000000E+00;0; -1.1781558E-02;  4.0000000E+04;  0.0000000E+00;  0.0000000E+00;  4.0000000E+04;  0.0000000E+00;  4.0000000E+04; -1.2072307E-02;  0.0000000E+00;  2.9074820E-04;  3.0828977E+03;
 -9.9999998E-03;  9.9999998E-03; -1.9000000E-01;1753;  0.0000000E+00;  0.0000000E+00;  0.0000000E+00;  1.0114979E+03;  1.0000000E-01;  9.5258545E+03;0;  0.0000000E+00;  0.0000000E+00;  0.0000000E+00;0; -1.2271668E-02;  4.0000000E+04;  0.0000000E+00;  0.0000000E+00;  4.0000000E+04;  0.0000000E+00;  4.0000000E+04; -1.2615569E-02;  0.0000000E+00;  3.4390079E-04;  2.7370974E+03;
 -9.9999998E-03;  9.9999998E-03; -1.8000001E-01;1754;  0.0000000E+00;  0.0000000E+00;  0.0000000E+00;  1.0120576E+03;  1.0000000E-01;  9.9895449E+03;0;  0.0000000E+00;  0.0000000E+00;  0.0000000E+00;0; -1.2696476E-02;  4.0000000E+04;  0.0000000E+00;  0.0000000E+00;  4.0000000E+04;  0.0000000E+00;  4.0000000E+04; -1.3073628E-02;  0.0000000E+00;  3.7715244E-04;  2.3901936E+03;
 -9.9999998E-03;  9.9999998E-03; -1.7000000E-01;1755;  0.0000000E+00;  0.0000000E+00;  0.0000000E+00;  1.0125475E+03;  1.0000000E-01;  1.0395360E+04;0;  0.0000000E+00;  0.0000000E+00;  0.0000000E+00;0; -1.3048464E-02;  4.0000000E+04;  0.0000000E+00;  0.0000000E+00;  4.0000000E+04;  0.0000000E+00;  4.0000000E+04; -1.3443412E-02;  0.0000000E+00;  3.9494838E-04;  2.0793892E+03;
 -9.9999998E-03;  9.9999998E-03; -1.6000000E-01;1756;  0.0000000E+00;  0.0000000E+00;  0.0000000E+00;  1.0129626E+03;  1.0000000E-01;  1.0739351E+04;0;  0.0000000E+00;  0.0000000E+00;  0.0000000E+00;0; -1.3325400E-02;  4.0000000E+04;  0.0000000E+00;  0.0000000E+00;  4.0000000E+04;  0.0000000E+00;  4.0000000E+04; -1.3727155E-02;  0.0000000E+00;  4.0175483E-04;  1.8281929E+03;
 -9.9999998E-03;  9.9999998E-03; -1.5000001E-01;1757;  0.0000000E+00;  0.0000000E+00;  0.0000000E+00;  1.0132830E+03;  1.0000000E-01;  1.1004726E+04;0;  0.0000000E+00;  0.0000000E+00;  0.0000000E+00;0; -1.3530746E-02;  4.0000000E+04;  0.0000000E+00;  0.0000000E+00;  4.0000000E+04;  0.0000000E+00;  4.0000000E+04; -1.3932210E-02;  0.0000000E+00;  4.0146447E-04;  1.6477002E+03;
 -9.9999998E-03;  9.9999998E-03; -1.4000000E-01;1758;  0.0000000E+00;  0.0000000E+00;  0.0000000E+00;  1.0135057E+03;  1.0000000E-01;  1.1189215E+04;0;  0.0000000E+00;  0.0000000E+00;  0.0000000E+00;0; -1.3672877E-02;  4.0000000E+04;  0.0000000E+00;  0.0000000E+00;  4.0000000E+04;  0.0000000E+00;  4.0000000E+04; -1.4069960E-02;  0.0000000E+00;  3.9708265E-04;  1.5383810E+03;
 -9.9999998E-03;  9.9999998E-03; -1.3000000E-01;1759;  0.0000000E+00;  0.0000000E+00;  0.0000000E+00;  1.0136483E+03;  1.0000000E-01;  1.1307335E+04;0;  0.0000000E+00;  0.0000000E+00;  0.0000000E+00;0; -1.3764178E-02;  4.0000000E+04;  0.0000000E+00;  0.0000000E+00;  4.0000000E+04;  0.0000000E+00;  4.0000000E+04; -1.4154774E-02;  0.0000000E+00;  3.9059549E-04;  1.4917378E+03;
 -9.9999998E-03;  9.9999998E-03; -1.2000000E-01;1760;  0.0000000E+00;  0.0000000E+00;  0.0000000E+00;  1.0137093E+03;  1.0000000E-01;  1.1357901E+04;0;  0.0000000E+00;  0.0000000E+00;  0.0000000E+00;0; -1.3819571E-02;  4.0000000E+04;  0.0000000E+00;  0.0000000E+00;  4.0000000E+04;  0.0000000E+00;  4.0000000E+04; -1.4202689E-02;  0.0000000E+00;  3.8311855E-04;  1.4938108E+03;
 -9.9999998E-03;  9.9999998E-03; -1.1000000E-01;1761;  0.0000000E+00;  0.0000000E+00;  0.0000000E+00;  1.0137011E+03;  1.0000000E-01;  1.1351086E+04;0;  0.0000000E+00;  0.0000000E+00;  0.0000000E+00;0; -1.3853922E-02;  4.0000000E+04;  0.0000000E+00;  0.0000000E+00;  4.0000000E+04;  0.0000000E+00;  4.0000000E+04; -1.4229375E-02;  0.0000000E+00;  3.7545379E-04;  1.5298729E+03;
 -1.9000000E-01;  9.9999998E-03; -1.0000000E-01;124;  0.0000000E+00;  0.0000000E+00;  0.0000000E+00;  1.0000000E+03;  1.0000000E-01;  0.0000000E+00;0;  0.0000000E+00;  0.0000000E+00;  0.0000000E+00;0;  0.0000000E+00;  4.0000000E+04;  0.0000000E+00;  0.0000000E+00;  4.0000000E+04;  0.0000000E+00;  4.0000000E+04;  0.0000000E+00;  0.0000000E+00;  0.0000000E+00;  0.0000000E+00;
 -1.9000000E-01;  9.9999998E-03; -9.0000004E-02;125;  0.0000000E+00;  0.0000000E+00;  0.0000000E+00;  1.0000000E+03;  1.0000000E-01;  0.0000000E+00;0;  0.0000000E+00;  0.0000000E+00;  0.0000000E+00;0;  0.0000000E+00;  4.0000000E+04;  0.0000000E+00;  0.0000000E+00;  4.0000000E+04;  0.0000000E+00;  4.0000000E+04;  0.0000000E+00;  0.0000000E+00;  0.0000000E+00;  0.0000000E+00;
 -1.9000000E-01;  9.9999998E-03; -7.9999998E-02;126;  0.0000000E+00;  0.0000000E+00;  0.0000000E+00;  1.0000000E+03;  1.0000000E-01;  0.0000000E+00;0;  0.0000000E+00;  0.0000000E+00;  0.0000000E+00;0;  0.0000000E+00;  4.0000000E+04;  0.0000000E+00;  0.0000000E+00;  4.0000000E+04;  0.0000000E+00;  4.0000000E+04;  0.0000000E+00;  0.0000000E+00;  0.0000000E+00;  0.0000000E+00;
 -1.9000000E-01;  9.9999998E-03; -7.0000000E-02;127;  0.0000000E+00;  0.0000000E+00;  0.0000000E+00;  1.0000000E+03;  1.0000000E-01;  0.0000000E+00;0;  0.0000000E+00;  0.0000000E+00;  0.0000000E+00;0;  0.0000000E+00;  4.0000000E+04;  0.0000000E+00;  0.0000000E+00;  4.0000000E+04;  0.0000000E+00;  4.0000000E+04;  0.0000000E+00;  0.0000000E+00;  0.0000000E+00;  0.0000000E+00;
 -1.9000000E-01;  9.9999998E-03; -5.9999999E-02;128;  0.0000000E+00;  0.0000000E+00;  0.0000000E+00;  1.0000000E+03;  1.0000000E-01;  0.0000000E+00;0;  0.0000000E+00;  0.0000000E+00;  0.0000000E+00;0;  0.0000000E+00;  4.0000000E+04;  0.0000000E+00;  0.0000000E+00;  4.0000000E+04;  0.0000000E+00;  4.0000000E+04;  0.0000000E+00;  0.0000000E+00;  0.0000000E+00;  0.0000000E+00;
 -1.9000000E-01;  9.9999998E-03; -5.0000001E-02;129;  0.0000000E+00;  0.0000000E+00;  0.0000000E+00;  1.0000000E+03;  1.0000000E-01;  0.0000000E+00;0;  0.0000000E+00;  0.0000000E+00;  0.0000000E+00;0;  0.0000000E+00;  4.0000000E+04;  0.0000000E+00;  0.0000000E+00;  4.0000000E+04;  0.0000000E+00;  4.0000000E+04;  0.0000000E+00;  0.0000000E+00;  0.0000000E+00;  0.0000000E+00;
 -1.9000000E-01;  9.9999998E-03; -3.9999999E-02;130;  0.0000000E+00;  0.0000000E+00;  0.0000000E+00;  1.0000000E+03;  1.0000000E-01;  0.0000000E+00;0;  0.0000000E+00;  0.0000000E+00;  0.0000000E+00;0;  0.0000000E+00;  4.0000000E+04;  0.0000000E+00;  0.0000000E+00;  4.0000000E+04;  0.0000000E+00;  4.0000000E+04;  0.0000000E+00;  0.0000000E+00;  0.0000000E+00;  0.0000000E+00;
 -1.9000000E-01;  9.9999998E-03; -2.9999999E-02;131;  0.0000000E+00;  0.0000000E+00;  0.0000000E+00;  1.0000000E+03;  1.0000000E-01;  0.0000000E+00;0;  0.0000000E+00;  0.0000000E+00;  0.0000000E+00;0;  0.0000000E+00;  4.0000000E+04;  0.0000000E+00;  0.0000000E+00;  4.0000000E+04;  0.0000000E+00;  4.0000000E+04;  0.0000000E+00;  0.0000000E+00;  0.0000000E+00;  0.0000000E+00;
 -1.9000000E-01;  9.9999998E-03; -2.0000000E-02;132;  0.0000000E+00;  0.0000000E+00;  0.0000000E+00;  1.0000000E+03;  1.0000000E-01;  0.0000000E+00;0;  0.0000000E+00;  0.0000000E+00;  0.0000000E+00;0;  0.0000000E+00;  4.0000000E+04;  0.0000000E+00;  0.0000000E+00;  4.0000000E+04;  0.0000000E+00;  4.0000000E+04;  0.0000000E+00;  0.0000000E+00;  0.0000000E+00;  0.0000000E+00;
 -1.9000000E-01;  9.9999998E-03; -9.9999998E-03;133;  0.0000000E+00;  0.0000000E+00;  0.0000000E+00;  1.0000000E+03;  1.0000000E-01;  0.0000000E+00;0;  0.0000000E+00;  0.0000000E+00;  0.0000000E+00;0;  0.0000000E+00;  4.0000000E+04;  0.0000000E+00;  0.0000000E+00;  4.0000000E+04;  0.0000000E+00;  4.0000000E+04;  0.0000000E+00;  0.0000000E+00;  0.0000000E+00;  0.0000000E+00;
 -1.9000000E-01;  9.9999998E-03;  0.0000000E+00;134;  0.0000000E+00;  0.0000000E+00;  0.0000000E+00;  1.0000000E+03;  1.0000000E-01;  0.0000000E+00;0;  0.0000000E+00;  0.0000000E+00;  0.0000000E+00;0;  0.0000000E+00;  4.0000000E+04;  0.0000000E+00;  0.0000000E+00;  4.0000000E+04;  0.0000000E+00;  4.0000000E+04;  0.0000000E+00;  0.0000000E+00;  0.0000000E+00;  0.0000000E+00;
 -1.9000000E-01;  9.9999998E-03;  9.9999998E-03;135;  0.0000000E+00;  0.0000000E+00;  0.0000000E+00;  1.0000000E+03;  1.0000000E-01;  0.0000000E+00;0;  0.0000000E+00;  0.0000000E+00;  0.0000000E+00;0;  0.0000000E+00;  4.0000000E+04;  0.0000000E+00;  0.0000000E+00;  4.0000000E+04;  0.0000000E+00;  4.0000000E+04;  0.0000000E+00;  0.0000000E+00;  0.0000000E+00;  0.0000000E+00;
 -1.9000000E-01;  9.9999998E-03;  2.0000000E-02;136;  0.0000000E+00;  0.0000000E+00;  0.0000000E+00;  1.0000000E+03;  1.0000000E-01;  0.0000000E+00;0;  0.0000000E+00;  0.0000000E+00;  0.0000000E+00;0;  0.0000000E+00;  4.0000000E+04;  0.0000000E+00;  0.0000000E+00;  4.0000000E+04;  0.0000000E+00;  4.0000000E+04;  0.0000000E+00;  0.0000000E+00;  0.0000000E+00;  0.0000000E+00;
 -1.9000000E-01;  9.9999998E-03;  2.9999999E-02;137;  0.0000000E+00;  0.0000000E+00;  0.0000000E+00;  1.0000000E+03;  1.0000000E-01;  0.0000000E+00;0;  0.0000000E+00;  0.0000000E+00;  0.0000000E+00;0;  0.0000000E+00;  4.0000000E+04;  0.0000000E+00;  0.0000000E+00;  4.0000000E+04;  0.0000000E+00;  4.0000000E+04;  0.0000000E+00;  0.0000000E+00;  0.0000000E+00;  0.0000000E+00;
 -1.9000000E-01;  9.9999998E-03;  3.9999999E-02;138;  0.0000000E+00;  0.0000000E+00;  0.0000000E+00;  1.0000000E+03;  1.0000000E-01;  0.0000000E+00;0;  0.0000000E+00;  0.0000000E+00;  0.0000000E+00;0;  0.0000000E+00;  4.0000000E+04;  0.0000000E+00;  0.0000000E+00;  4.0000000E+04;  0.0000000E+00;  4.0000000E+04;  0.0000000E+00;  0.0000000E+00;  0.0000000E+00;  0.0000000E+00;
 -1.9000000E-01;  9.9999998E-03;  5.0000001E-02;139;  0.0000000E+00;  0.0000000E+00;  0.0000000E+00;  1.0000000E+03;  1.0000000E-01;  0.0000000E+00;0;  0.0000000E+00;  0.0000000E+00;  0.0000000E+00;0;  0.0000000E+00;  4.0000000E+04;  0.0000000E+00;  0.0000000E+00;  4.0000000E+04;  0.0000000E+00;  4.0000000E+04;  0.0000000E+00;  0.0000000E+00;  0.0000000E+00;  0.0000000E+00;
 -1.9000000E-01;  9.9999998E-03;  5.9999999E-02;140;  0.0000000E+00;  0.0000000E+00;  0.0000000E+00;  1.0000000E+03;  1.0000000E-01;  0.0000000E+00;0;  0.0000000E+00;  0.0000000E+00;  0.0000000E+00;0;  0.0000000E+00;  4.0000000E+04;  0.0000000E+00;  0.0000000E+00;  4.0000000E+04;  0.0000000E+00;  4.0000000E+04;  0.0000000E+00;  0.0000000E+00;  0.0000000E+00;  0.0000000E+00;
 -1.8000001E-01;  9.9999998E-03; -1.0000000E-01;215;  0.0000000E+00;  0.0000000E+00;  0.0000000E+00;  1.0000000E+03;  1.0000000E-01;  0.0000000E+00;0;  0.0000000E+00;  0.0000000E+00;  0.0000000E+00;0;  0.0000000E+00;  4.0000000E+04;  0.0000000E+00;  0.0000000E+00;  4.0000000E+04;  0.0000000E+00;  4.0000000E+04;  0.0000000E+00;  0.0000000E+00;  0.0000000E+00;  0.0000000E+00;
 -1.8000001E-01;  9.9999998E-03; -9.0000004E-02;216;  0.0000000E+00;  0.0000000E+00;  0.0000000E+00;  1.0000000E+03;  1.0000000E-01;  0.0000000E+00;0;  0.0000000E+00;  0.0000000E+00;  0.0000000E+00;0;  0.0000000E+00;  4.0000000E+04;  0.0000000E+00;  0.0000000E+00;  4.0000000E+04;  0.0000000E+00;  4.0000000E+04;  0.0000000E+00;  0.0000000E+00;  0.0000000E+00;  0.0000000E+00;
 -1.8000001E-01;  9.9999998E-03; -7.9999998E-02;217;  0.0000000E+00;  0.0000000E+00;  0.0000000E+00;  1.0000000E+03;  1.0000000E-01;  0.0000000E+00;0;  0.0000000E+00;  0.0000000E+00;  0.0000000E+00;0;  0.0000000E+00;  4.0000000E+04;  0.0000000E+00;  0.0000000E+00;  4.0000000E+04;  0.0000000E+00;  4.0000000E+04;  0.0000000E+00;  0.0000000E+00;  0.0000000E+00;  0.0000000E+00;
 -1.8000001E-01;  9.9999998E-03; -7.0000000E-02;218;  0.0000000E+00;  0.0000000E+00;  0.0000000E+00;  1.0000000E+03;  1.0000000E-01;  0.0000000E+00;0;  0.0000000E+00;  0.0000000E+00;  0.0000000E+00;0;  0.0000000E+00;  4.0000000E+04;  0.0000000E+00;  0.0000000E+00;  4.0000000E+04;  0.0000000E+00;  4.0000000E+04;  0.0000000E+00;  0.0000000E+00;  0.0000000E+00;  0.0000000E+00;
 -1.8000001E-01;  9.9999998E-03; -5.9999999E-02;219;  0.0000000E+00;  0.0000000E+00;  0.0000000E+00;  1.0000000E+03;  1.0000000E-01;  0.0000000E+00;0;  0.0000000E+00;  0.0000000E+00;  0.0000000E+00;0;  0.0000000E+00;  4.0000000E+04;  0.0000000E+00;  0.0000000E+00;  4.0000000E+04;  0.0000000E+00;  4.0000000E+04;  0.0000000E+00;  0.0000000E+00;  0.0000000E+00;  0.0000000E+00;
 -1.8000001E-01;  9.9999998E-03; -5.0000001E-02;220;  0.0000000E+00;  0.0000000E+00;  0.0000000E+00;  1.0000000E+03;  1.0000000E-01;  0.0000000E+00;0;  0.0000000E+00;  0.0000000E+00;  0.0000000E+00;0;  0.0000000E+00;  4.0000000E+04;  0.0000000E+00;  0.0000000E+00;  4.0000000E+04;  0.0000000E+00;  4.0000000E+04;  0.0000000E+00;  0.0000000E+00;  0.0000000E+00;  0.0000000E+00;
 -1.8000001E-01;  9.9999998E-03; -3.9999999E-02;221;  0.0000000E+00;  0.0000000E+00;  0.0000000E+00;  1.0000000E+03;  1.0000000E-01;  0.0000000E+00;0;  0.0000000E+00;  0.0000000E+00;  0.0000000E+00;0;  0.0000000E+00;  4.0000000E+04;  0.0000000E+00;  0.0000000E+00;  4.0000000E+04;  0.0000000E+00;  4.0000000E+04;  0.0000000E+00;  0.0000000E+00;  0.0000000E+00;  0.0000000E+00;
 -1.8000001E-01;  9.9999998E-03; -2.9999999E-02;222;  0.0000000E+00;  0.0000000E+00;  0.0000000E+00;  1.0000000E+03;  1.0000000E-01;  0.0000000E+00;0;  0.0000000E+00;  0.0000000E+00;  0.0000000E+00;0;  0.0000000E+00;  4.0000000E+04;  0.0000000E+00;  0.0000000E+00;  4.0000000E+04;  0.0000000E+00;  4.0000000E+04;  0.0000000E+00;  0.0000000E+00;  0.0000000E+00;  0.0000000E+00;
 -1.8000001E-01;  9.9999998E-03; -2.0000000E-02;223;  0.0000000E+00;  0.0000000E+00;  0.0000000E+00;  1.0000000E+03;  1.0000000E-01;  0.0000000E+00;0;  0.0000000E+00;  0.0000000E+00;  0.0000000E+00;0;  0.0000000E+00;  4.0000000E+04;  0.0000000E+00;  0.0000000E+00;  4.0000000E+04;  0.0000000E+00;  4.0000000E+04;  0.0000000E+00;  0.0000000E+00;  0.0000000E+00;  0.0000000E+00;
 -1.8000001E-01;  9.9999998E-03; -9.9999998E-03;224;  0.0000000E+00;  0.0000000E+00;  0.0000000E+00;  1.0000000E+03;  1.0000000E-01;  0.0000000E+00;0;  0.0000000E+00;  0.0000000E+00;  0.0000000E+00;0;  0.0000000E+00;  4.0000000E+04;  0.0000000E+00;  0.0000000E+00;  4.0000000E+04;  0.0000000E+00;  4.0000000E+04;  0.0000000E+00;  0.0000000E+00;  0.0000000E+00;  0.0000000E+00;
 -1.8000001E-01;  9.9999998E-03;  0.0000000E+00;225;  0.0000000E+00;  0.0000000E+00;  0.0000000E+00;  1.0000000E+03;  1.0000000E-01;  0.0000000E+00;0;  0.0000000E+00;  0.0000000E+00;  0.0000000E+00;0;  0.0000000E+00;  4.0000000E+04;  0.0000000E+00;  0.0000000E+00;  4.0000000E+04;  0.0000000E+00;  4.0000000E+04;  0.0000000E+00;  0.0000000E+00;  0.0000000E+00;  0.0000000E+00;
 -1.8000001E-01;  9.9999998E-03;  9.9999998E-03;226;  0.0000000E+00;  0.0000000E+00;  0.0000000E+00;  1.0000000E+03;  1.0000000E-01;  0.0000000E+00;0;  0.0000000E+00;  0.0000000E+00;  0.0000000E+00;0;  0.0000000E+00;  4.0000000E+04;  0.0000000E+00;  0.0000000E+00;  4.0000000E+04;  0.0000000E+00;  4.0000000E+04;  0.0000000E+00;  0.0000000E+00;  0.0000000E+00;  0.0000000E+00;
 -1.8000001E-01;  9.9999998E-03;  2.0000000E-02;227;  0.0000000E+00;  0.0000000E+00;  0.0000000E+00;  1.0000000E+03;  1.0000000E-01;  0.0000000E+00;0;  0.0000000E+00;  0.0000000E+00;  0.0000000E+00;0;  0.0000000E+00;  4.0000000E+04;  0.0000000E+00;  0.0000000E+00;  4.0000000E+04;  0.0000000E+00;  4.0000000E+04;  0.0000000E+00;  0.0000000E+00;  0.0000000E+00;  0.0000000E+00;
 -1.8000001E-01;  9.9999998E-03;  2.9999999E-02;228;  0.0000000E+00;  0.0000000E+00;  0.0000000E+00;  1.0000000E+03;  1.0000000E-01;  0.0000000E+00;0;  0.0000000E+00;  0.0000000E+00;  0.0000000E+00;0;  0.0000000E+00;  4.0000000E+04;  0.0000000E+00;  0.0000000E+00;  4.0000000E+04;  0.0000000E+00;  4.0000000E+04;  0.0000000E+00;  0.0000000E+00;  0.0000000E+00;  0.0000000E+00;
 -1.8000001E-01;  9.9999998E-03;  3.9999999E-02;229;  0.0000000E+00;  0.0000000E+00;  0.0000000E+00;  1.0000000E+03;  1.0000000E-01;  0.0000000E+00;0;  0.0000000E+00;  0.0000000E+00;  0.0000000E+00;0;  0.0000000E+00;  4.0000000E+04;  0.0000000E+00;  0.0000000E+00;  4.0000000E+04;  0.0000000E+00;  4.0000000E+04;  0.0000000E+00;  0.0000000E+00;  0.0000000E+00;  0.0000000E+00;
 -1.8000001E-01;  9.9999998E-03;  5.0000001E-02;230;  0.0000000E+00;  0.0000000E+00;  0.0000000E+00;  1.0000000E+03;  1.0000000E-01;  0.0000000E+00;0;  0.0000000E+00;  0.0000000E+00;  0.0000000E+00;0;  0.0000000E+00;  4.0000000E+04;  0.0000000E+00;  0.0000000E+00;  4.0000000E+04;  0.0000000E+00;  4.0000000E+04;  0.0000000E+00;  0.0000000E+00;  0.0000000E+00;  0.0000000E+00;
 -1.8000001E-01;  9.9999998E-03;  5.9999999E-02;231;  0.0000000E+00;  0.0000000E+00;  0.0000000E+00;  1.0000000E+03;  1.0000000E-01;  0.0000000E+00;0;  0.0000000E+00;  0.0000000E+00;  0.0000000E+00;0;  0.0000000E+00;  4.0000000E+04;  0.0000000E+00;  0.0000000E+00;  4.0000000E+04;  0.0000000E+00;  4.0000000E+04;  0.0000000E+00;  0.0000000E+00;  0.0000000E+00;  0.0000000E+00;
 -1.7000000E-01;  9.9999998E-03; -1.0000000E-01;306;  0.0000000E+00;  0.0000000E+00;  0.0000000E+00;  1.0000000E+03;  1.0000000E-01;  0.0000000E+00;0;  0.0000000E+00;  0.0000000E+00;  0.0000000E+00;0;  0.0000000E+00;  4.0000000E+04;  0.0000000E+00;  0.0000000E+00;  4.0000000E+04;  0.0000000E+00;  4.0000000E+04;  0.0000000E+00;  0.0000000E+00;  0.0000000E+00;  1.9801023E-09;
 -1.7000000E-01;  9.9999998E-03; -9.0000004E-02;307;  0.0000000E+00;  0.0000000E+00;  0.0000000E+00;  1.0000000E+03;  1.0000000E-01;  0.0000000E+00;0;  0.0000000E+00;  0.0000000E+00;  0.0000000E+00;0;  0.0000000E+00;  4.0000000E+04;  0.0000000E+00;  0.0000000E+00;  4.0000000E+04;  0.0000000E+00;  4.0000000E+04;  0.0000000E+00;  0.0000000E+00;  0.0000000E+00;  1.9974504E-09;
 -1.7000000E-01;  9.9999998E-03; -7.9999998E-02;308;  0.0000000E+00;  0.0000000E+00;  0.0000000E+00;  1.0000000E+03;  1.0000000E-01;  0.0000000E+00;0;  0.0000000E+00;  0.0000000E+00;  0.0000000E+00;0;  0.0000000E+00;  4.0000000E+04;  0.0000000E+00;  0.0000000E+00;  4.0000000E+04;  0.0000000E+00;  4.0000000E+04;  0.0000000E+00;  0.0000000E+00;  0.0000000E+00;  2.0288866E-09;
 -1.7000000E-01;  9.9999998E-03; -7.0000000E-02;309;  0.0000000E+00;  0.0000000E+00;  0.0000000E+00;  1.0000000E+03;  1.0000000E-01;  0.0000000E+00;0;  0.0000000E+00;  0.0000000E+00;  0.0000000E+00;0;  0.0000000E+00;  4.0000000E+04;  0.0000000E+00;  0.0000000E+00;  4.0000000E+04;  0.0000000E+00;  4.0000000E+04;  0.0000000E+00;  0.0000000E+00;  0.0000000E+00;  2.0664868E-09;
 -1.7000000E-01;  9.9999998E-03; -5.9999999E-02;310;  0.0000000E+00;  0.0000000E+00;  0.0000000E+00;  1.0000000E+03;  1.0000000E-01;  0.0000000E+00;0;  0.0000000E+00;  0.0000000E+00;  0.0000000E+00;0;  0.0000000E+00;  4.0000000E+04;  0.0000000E+00;  0.0000000E+00;  4.0000000E+04;  0.0000000E+00;  4.0000000E+04;  0.0000000E+00;  0.0000000E+00;  0.0000000E+00;  2.0963358E-09;
 -1.7000000E-01;  9.9999998E-03; -5.0000001E-02;311;  0.0000000E+00;  0.0000000E+00;  0.0000000E+00;  1.0000000E+03;  1.0000000E-01;  0.0000000E+00;0;  0.0000000E+00;  0.0000000E+00;  0.0000000E+00;0;  0.0000000E+00;  4.0000000E+04;  0.0000000E+00;  0.0000000E+00;  4.0000000E+04;  0.0000000E+00;  4.0000000E+04;  0.0000000E+00;  0.0000000E+00;  0.0000000E+00;  2.0985100E-09;
 -1.7000000E-01;  9.9999998E-03; -3.9999999E-02;312;  0.0000000E+00;  0.0000000E+00;  0.0000000E+00;  1.0000000E+03;  1.0000000E-01;  0.0000000E+00;0;  0.0000000E+00;  0.0000000E+00;  0.0000000E+00;0;  0.0000000E+00;  4.0000000E+04;  0.0000000E+00;  0.0000000E+00;  4.0000000E+04;  0.0000000E+00;  4.0000000E+04;  0.0000000E+00;  0.0000000E+00;  0.0000000E+00;  2.0709305E-09;
 -1.7000000E-01;  9.9999998E-03; -2.9999999E-02;313;  0.0000000E+00;  0.0000000E+00;  0.0000000E+00;  1.0000000E+03;  1.0000000E-01;  0.0000000E+00;0;  0.0000000E+00;  0.0000000E+00;  0.0000000E+00;0;  0.0000000E+00;  4.0000000E+04;  0.0000000E+00;  0.0000000E+00;  4.0000000E+04;  0.0000000E+00;  4.0000000E+04;  0.0000000E+00;  0.0000000E+00;  0.0000000E+00;  2.0022204E-09;
 -1.7000000E-01;  9.9999998E-03; -2.0000000E-02;314;  0.0000000E+00;  0.0000000E+00;  0.0000000E+00;  1.0000000E+03;  1.0000000E-01;  0.0000000E+00;0;  0.0000000E+00;  0.0000000E+00;  0.0000000E+00;0;  0.0000000E+00;  4.0000000E+04;  0.0000000E+00;  0.0000000E+00;  4.0000000E+04;  0.0000000E+00;  4.0000000E+04;  0.0000000E+00;  0.0000000E+00;  0.0000000E+00;  1.8807096E-09;
 -1.7000000E-01;  9.9999998E-03; -9.9999998E-03;315;  0.0000000E+00;  0.0000000E+00;  0.0000000E+00;  1.0000000E+03;  1.0000000E-01;  0.0000000E+00;0;  0.0000000E+00;  0.0000000E+00;  0.0000000E+00;0;  0.0000000E+00;  4.0000000E+04;  0.0000000E+00;  0.0000000E+00;  4.0000000E+04;  0.0000000E+00;  4.0000000E+04;  0.0000000E+00;  0.0000000E+00;  0.0000000E+00;  1.7538491E-09;
 -1.7000000E-01;  9.9999998E-03;  0.0000000E+00;316;  0.0000000E+00;  0.0000000E+00;  0.0000000E+00;  1.0000000E+03;  1.0000000E-01;  0.0000000E+00;0;  0.0000000E+00;  0.0000000E+00;  0.0000000E+00;0;  0.0000000E+00;  4.0000000E+04;  0.0000000E+00;  0.0000000E+00;  4.0000000E+04;  0.0000000E+00;  4.0000000E+04;  0.0000000E+00;  0.0000000E+00;  0.0000000E+00;  1.6940426E-09;
 -1.7000000E-01;  9.9999998E-03;  9.9999998E-03;317;  0.0000000E+00;  0.0000000E+00;  0.0000000E+00;  1.0000000E+03;  1.0000000E-01;  0.0000000E+00;0;  0.0000000E+00;  0.0000000E+00;  0.0000000E+00;0;  0.0000000E+00;  4.0000000E+04;  0.0000000E+00;  0.0000000E+00;  4.0000000E+04;  0.0000000E+00;  4.0000000E+04;  0.0000000E+00;  0.0000000E+00;  0.0000000E+00;  1.7541210E-09;
 -1.7000000E-01;  9.9999998E-03;  2.0000000E-02;318;  0.0000000E+00;  0.0000000E+00;  0.0000000E+00;  1.0000000E+03;  1.0000000E-01;  0.0000000E+00;0;  0.0000000E+00;  0.0000000E+00;  0.0000000E+00;0;  0.0000000E+00;  4.0000000E+04;  0.0000000E+00;  0.0000000E+00;  4.0000000E+04;  0.0000000E+00;  4.0000000E+04;  0.0000000E+00;  0.0000000E+00;  0.0000000E+00;  1.8806892E-09;
 -1.7000000E-01;  9.9999998E-03;  2.9999999E-02;319;  0.0000000E+00;  0.0000000E+00;  0.0000000E+00;  1.0000000E+03;  1.0000000E-01;  0.0000000E+00;0;  0.0000000E+00;  0.0000000E+00;  0.0000000E+00;0;  0.0000000E+00;  4.0000000E+04;  0.0000000E+00;  0.0000000E+00;  4.0000000E+04;  0.0000000E+00;  4.0000000E+04;  0.0000000E+00;  0.0000000E+00;  0.0000000E+00;  2.0024555E-09;
 -1.7000000E-01;  9.9999998E-03;  3.9999999E-02;320;  0.0000000E+00;  0.0000000E+00;  0.0000000E+00;  1.0000000E+03;  1.0000000E-01;  0.0000000E+00;0;  0.0000000E+00;  0.0000000E+00;  0.0000000E+00;0;  0.0000000E+00;  4.0000000E+04;  0.0000000E+00;  0.0000000E+00;  4.0000000E+04;  0.0000000E+00;  4.0000000E+04;  0.0000000E+00;  0.0000000E+00;  0.0000000E+00;  2.0701814E-09;
 -1.7000000E-01;  9.9999998E-03;  5.0000001E-02;321;  0.0000000E+00;  0.0000000E+00;  0.0000000E+00;  1.0000000E+03;  1.0000000E-01;  0.0000000E+00;0;  0.0000000E+00;  0.0000000E+00;  0.0000000E+00;0;  0.0000000E+00;  4.0000000E+04;  0.0000000E+00;  0.0000000E+00;  4.0000000E+04;  0.0000000E+00;  4.0000000E+04;  0.0000000E+00;  0.0000000E+00;  0.0000000E+00;  2.0988598E-09;
 -1.7000000E-01;  9.9999998E-03;  5.9999999E-02;322;  0.0000000E+00;  0.0000000E+00;  0.0000000E+00;  1.0000000E+03;  1.0000000E-01;  0.0000000E+00;0;  0.0000000E+00;  0.0000000E+00;  0.0000000E+00;0;  0.0000000E+00;  4.0000000E+04;  0.0000000E+00;  0.0000000E+00;  4.0000000E+04;  0.0000000E+00;  4.0000000E+04;  0.0000000E+00;  0.0000000E+00;  0.0000000E+00;  2.0959194E-09;
 -1.6000000E-01;  9.9999998E-03; -1.0000000E-01;397;  0.0000000E+00;  0.0000000E+00;  0.0000000E+00;  1.0000000E+03;  1.0000000E-01;  0.0000000E+00;0;  0.0000000E+00;  0.0000000E+00;  0.0000000E+00;0;  1.3899013E-07;  4.0000000E+04;  0.0000000E+00;  0.0000000E+00;  4.0000000E+04;  0.0000000E+00;  4.0000000E+04;  1.3883422E-07;  0.0000000E+00;  1.5590700E-10;  2.7644536E-01;
 -1.6000000E-01;  9.9999998E-03; -9.0000004E-02;398;  0.0000000E+00;  0.0000000E+00;  0.0000000E+00;  1.0000000E+03;  1.0000000E-01;  0.0000000E+00;0;  0.0000000E+00;  0.0000000E+00;  0.0000000E+00;0;  1.3944634E-07;  4.0000000E+04;  0.0000000E+00;  0.0000000E+00;  4.0000000E+04;  0.0000000E+00;  4.0000000E+04;  1.3933503E-07;  0.0000000E+00;  1.1130671E-10;  2.7424362E-01;
 -1.6000000E-01;  9.9999998E-03; -7.9999998E-02;399;  0.0000000E+00;  0.0000000E+00;  0.0000000E+00;  1.0000000E+03;  1.0000000E-01;  0.0000000E+00;0;  0.0000000E+00;  0.0000000E+00;  0.0000000E+00;0;  1.3832737E-07;  4.0000000E+04;  0.0000000E+00;  0.0000000E+00;  4.0000000E+04;  0.0000000E+00;  4.0000000E+04;  1.3824332E-07;  0.0000000E+00;  8.4048865E-11;  2.7314463E-01;
 -1.6000000E-01;  9.9999998E-03; -7.0000000E-02;400;  0.0000000E+00;  0.0000000E+00;  0.0000000E+00;  1.0000000E+03;  1.0000000E-01;  0.0000000E+00;0;  0.0000000E+00;  0.0000000E+00;  0.0000000E+00;0;  1.3599248E-07;  4.0000000E+04;  0.0000000E+00;  0.0000000E+00;  4.0000000E+04;  0.0000000E+00;  4.0000000E+04;  1.3591460E-07;  0.0000000E+00;  7.7869426E-11;  2.7282807E-01;
 -1.6000000E-01;  9.9999998E-03; -5.9999999E-02;401;  0.0000000E+00;  0.0000000E+00;  0.0000000E+00;  1.0000000E+03;  1.0000000E-01;  0.0000000E+00;0;  0.0000000E+00;  0.0000000E+00;  0.0000000E+00;0;  1.3292119E-07;  4.0000000E+04;  0.0000000E+00;  0.0000000E+00;  4.0000000E+04;  0.0000000E+00;  4.0000000E+04;  1.3282514E-07;  0.0000000E+00;  9.6056219E-11;  2.7287802E-01;
 -1.6000000E-01;  9.9999998E-03; -5.0000001E-02;402;  0.0000000E+00;  0.0000000E+00;  0.0000000E+00;  1.0000000E+03;  1.0000000E-01;  0.0000000E+00;0;  0.0000000E+00;  0.0000000E+00;  0.0000000E+00;0;  1.2959947E-07;  4.0000000E+04;  0.0000000E+00;  0.0000000E+00;  4.0000000E+04;  0.0000000E+00;  4.0000000E+04;  1.2946114E-07;  0.0000000E+00;  1.3833354E-10;  2.7293354E-01;
 -1.6000000E-01;  9.9999998E-03; -3.9999999E-02;403;  0.0000000E+00;  0.0000000E+00;  0.0000000E+00;  1.0000000E+03;  1.0000000E-01;  0.0000000E+00;0;  0.0000000E+00;  0.0000000E+00;  0.0000000E+00;0;  1.2644638E-07;  4.0000000E+04;  0.0000000E+00;  0.0000000E+00;  4.0000000E+04;  0.0000000E+00;  4.0000000E+04;  1.2624731E-07;  0.0000000E+00;  1.9905950E-10;  2.7277732E-01;
 -1.6000000E-01;  9.9999998E-03; -2.9999999E-02;404;  0.0000000E+00;  0.0000000E+00;  0.0000000E+00;  1.0000000E+03;  1.0000000E-01;  0.0000000E+00;0;  0.0000000E+00;  0.0000000E+00;  0.0000000E+00;0;  1.2376960E-07;  4.0000000E+04;  0.0000000E+00;  0.0000000E+00;  4.0000000E+04;  0.0000000E+00;  4.0000000E+04;  1.2350218E-07;  0.0000000E+00;  2.6741537E-10;  2.7237070E-01;
 -1.6000000E-01;  9.9999998E-03; -2.0000000E-02;405;  0.0000000E+00;  0.0000000E+00;  0.0000000E+00;  1.0000000E+03;  1.0000000E-01;  0.0000000E+00;0;  0.0000000E+00;  0.0000000E+00;  0.0000000E+00;0;  1.2176520E-07;  4.0000000E+04;  0.0000000E+00;  0.0000000E+00;  4.0000000E+04;  0.0000000E+00;  4.0000000E+04;  1.2143545E-07;  0.0000000E+00;  3.2975417E-10;  2.7183512E-01;
 -1.6000000E-01;  9.9999998E-03; -9.9999998E-03;406;  0.0000000E+00;  0.0000000E+00;  0.0000000E+00;  1.0000000E+03;  1.0000000E-01;  0.0000000E+00;0;  0.0000000E+00;  0.0000000E+00;  0.0000000E+00;0;  1.2053530E-07;  4.0000000E+04;  0.0000000E+00;  0.0000000E+00;  4.0000000E+04;  0.0000000E+00;  4.0000000E+04;  1.2016213E-07;  0.0000000E+00;  3.7318251E-10;  2.7137944E-01;
 -1.6000000E-01;  9.9999998E-03;  0.0000000E+00;407;  0.0000000E+00;  0.0000000E+00;  0.0000000E+00;  1.0000000E+03;  1.0000000E-01;  0.0000000E+00;0;  0.0000000E+00;  0.0000000E+00;  0.0000000E+00;0;  1.2012234E-07;  4.0000000E+04;  0.0000000E+00;  0.0000000E+00;  4.0000000E+04;  0.0000000E+00;  4.0000000E+04;  1.1973361E-07;  0.0000000E+00;  3.8872236E-10;  2.7120268E-01;
 -1.6000000E-01;  9.9999998E-03;  9.9999998E-03;408;  0.0000000E+00;  0.0000000E+00;  0.0000000E+00;  1.0000000E+03;  1.0000000E-01;  0.0000000E+00;0;  0.0000000E+00;  0.0000000E+00;  0.0000000E+00;0;  1.2053577E-07;  4.0000000E+04;  0.0000000E+00;  0.0000000E+00;  4.0000000E+04;  0.0000000E+00;  4.0000000E+04;  1.2016258E-07;  0.0000000E+00;  3.7318582E-10;  2.7137926E-01;
 -1.6000000E-01;  9.9999998E-03;  2.0000000E-02;409;  0.0000000E+00;  0.0000000E+00;  0.0000000E+00;  1.0000000E+03;  1.0000000E-01;  0.0000000E+00;0;  0.0000000E+00;  0.0000000E+00;  0.0000000E+00;0;  1.2176613E-07;  4.0000000E+04;  0.0000000E+00;  0.0000000E+00;  4.0000000E+04;  0.0000000E+00;  4.0000000E+04;  1.2143637E-07;  0.0000000E+00;  3.2975811E-10;  2.7183509E-01;
 -1.6000000E-01;  9.9999998E-03;  2.9999999E-02;410;  0.0000000E+00;  0.0000000E+00;  0.0000000E+00;  1.0000000E+03;  1.0000000E-01;  0.0000000E+00;0;  0.0000000E+00;  0.0000000E+00;  0.0000000E+00;0;  1.2377083E-07;  4.0000000E+04;  0.0000000E+00;  0.0000000E+00;  4.0000000E+04;  0.0000000E+00;  4.0000000E+04;  1.2350341E-07;  0.0000000E+00;  2.6742075E-10;  2.7237058E-01;
 -1.6000000E-01;  9.9999998E-03;  3.9999999E-02;411;  0.0000000E+00;  0.0000000E+00;  0.0000000E+00;  1.0000000E+03;  1.0000000E-01;  0.0000000E+00;0;  0.0000000E+00;  0.0000000E+00;  0.0000000E+00;0;  1.2644762E-07;  4.0000000E+04;  0.0000000E+00;  0.0000000E+00;  4.0000000E+04;  0.0000000E+00;  4.0000000E+04;  1.2624855E-07;  0.0000000E+00;  1.9906575E-10;  2.7277726E-01;
 -1.6000000E-01;  9.9999998E-03;  5.0000001E-02;412;  0.0000000E+00;  0.0000000E+00;  0.0000000E+00;  1.0000000E+03;  1.0000000E-01;  0.0000000E+00;0;  0.0000000E+00;  0.0000000E+00;  0.0000000E+00;0;  1.2960058E-07;  4.0000000E+04;  0.0000000E+00;  0.0000000E+00;  4.0000000E+04;  0.0000000E+00;  4.0000000E+04;  1.2946224E-07;  0.0000000E+00;  1.3834069E-10;  2.7293333E-01;
 -1.6000000E-01;  9.9999998E-03;  5.9999999E-02;413;  0.0000000E+00;  0.0000000E+00;  0.0000000E+00;  1.0000000E+03;  1.0000000E-01;  0.0000000E+00;0;  0.0000000E+00;  0.0000000E+00;  0.0000000E+00;0;  1.3292195E-07;  4.0000000E+04;  0.0000000E+00;  0.0000000E+00;  4.0000000E+04;  0.0000000E+00;  4.0000000E+04;  1.3282589E-07;  0.0000000E+00;  9.6065232E-11;  2.7287793E-01;
 -1.5000001E-01;  9.9999998E-03; -1.0000000E-01;488;  0.0000000E+00;  0.0000000E+00;  0.0000000E+00;  1.0000000E+03;  1.0000000E-01;  0.0000000E+00;0;  0.0000000E+00;  0.0000000E+00;  0.0000000E+00;0;  4.2752404E-06;  4.0000000E+04;  0.0000000E+00;  0.0000000E+00;  4.0000000E+04;  0.0000000E+00;  4.0000000E+04;  4.2588390E-06;  0.0000000E+00;  1.6401531E-08;  4.2693367E+00;
 -1.5000001E-01;  9.9999998E-03; -9.0000004E-02;489;  0.0000000E+00;  0.0000000E+00;  0.0000000E+00;  1.0000000E+03;  1.0000000E-01;  0.0000000E+00;0;  0.0000000E+00;  0.0000000E+00;  0.0000000E+00;0;  4.2885067E-06;  4.0000000E+04;  0.0000000E+00;  0.0000000E+00;  4.0000000E+04;  0.0000000E+00;  4.0000000E+04;  4.2756251E-06;  0.0000000E+00;  1.2881636E-08;  4.2603316E+00;
 -1.5000001E-01;  9.9999998E-03; -7.9999998E-02;490;  0.0000000E+00;  0.0000000E+00;  0.0000000E+00;  1.0000000E+03;  1.0000000E-01;  0.0000000E+00;0;  0.0000000E+00;  0.0000000E+00;  0.0000000E+00;0;  4.2557222E-06;  4.0000000E+04;  0.0000000E+00;  0.0000000E+00;  4.0000000E+04;  0.0000000E+00;  4.0000000E+04;  4.2446586E-06;  0.0000000E+00;  1.1063639E-08;  4.2636757E+00;
 -1.5000001E-01;  9.9999998E-03; -7.0000000E-02;491;  0.0000000E+00;  0.0000000E+00;  0.0000000E+00;  1.0000000E+03;  1.0000000E-01;  0.0000000E+00;0;  0.0000000E+00;  0.0000000E+00;  0.0000000E+00;0;  4.1845865E-06;  4.0000000E+04;  0.0000000E+00;  0.0000000E+00;  4.0000000E+04;  0.0000000E+00;  4.0000000E+04;  4.1736603E-06;  0.0000000E+00;  1.0926057E-08;  4.2739639E+00;
 -1.5000001E-01;  9.9999998E-03; -5.9999999E-02;492;  0.0000000E+00;  0.0000000E+00;  0.0000000E+00;  1.0000000E+03;  1.0000000E-01;  0.0000000E+00;0;  0.0000000E+00;  0.0000000E+00;  0.0000000E+00;0;  4.0876844E-06;  4.0000000E+04;  0.0000000E+00;  0.0000000E+00;  4.0000000E+04;  0.0000000E+00;  4.0000000E+04;  4.0752575E-06;  0.0000000E+00;  1.2427027E-08;  4.2836270E+00;
 -1.5000001E-01;  9.9999998E-03; -5.0000001E-02;493;  0.0000000E+00;  0.0000000E+00;  0.0000000E+00;  1.0000000E+03;  1.0000000E-01;  0.0000000E+00;0;  0.0000000E+00;  0.0000000E+00;  0.0000000E+00;0;  3.9793717E-06;  4.0000000E+04;  0.0000000E+00;  0.0000000E+00;  4.0000000E+04;  0.0000000E+00;  4.0000000E+04;  3.9640104E-06;  0.0000000E+00;  1.5361481E-08;  4.2862363E+00;
 -1.5000001E-01;  9.9999998E-03; -3.9999999E-02;494;  0.0000000E+00;  0.0000000E+00;  0.0000000E+00;  1.0000000E+03;  1.0000000E-01;  0.0000000E+00;0;  0.0000000E+00;  0.0000000E+00;  0.0000000E+00;0;  3.8731982E-06;  4.0000000E+04;  0.0000000E+00;  0.0000000E+00;  4.0000000E+04;  0.0000000E+00;  4.0000000E+04;  3.8539160E-06;  0.0000000E+00;  1.9282355E-08;  4.2790089E+00;
 -1.5000001E-01;  9.9999998E-03; -2.9999999E-02;495;  0.0000000E+00;  0.0000000E+00;  0.0000000E+00;  1.0000000E+03;  1.0000000E-01;  0.0000000E+00;0;  0.0000000E+00;  0.0000000E+00;  0.0000000E+00;0;  3.7803193E-06;  4.0000000E+04;  0.0000000E+00;  0.0000000E+00;  4.0000000E+04;  0.0000000E+00;  4.0000000E+04;  3.7567941E-06;  0.0000000E+00;  2.3525159E-08;  4.2637467E+00;
 -1.5000001E-01;  9.9999998E-03; -2.0000000E-02;496;  0.0000000E+00;  0.0000000E+00;  0.0000000E+00;  1.0000000E+03;  1.0000000E-01;  0.0000000E+00;0;  0.0000000E+00;  0.0000000E+00;  0.0000000E+00;0;  3.7088914E-06;  4.0000000E+04;  0.0000000E+00;  0.0000000E+00;  4.0000000E+04;  0.0000000E+00;  4.0000000E+04;  3.6815738E-06;  0.0000000E+00;  2.7317496E-08;  4.2456350E+00;
 -1.5000001E-01;  9.9999998E-03; -9.9999998E-03;497;  0.0000000E+00;  0.0000000E+00;  0.0000000E+00;  1.0000000E+03;  1.0000000E-01;  0.0000000E+00;0;  0.0000000E+00;  0.0000000E+00;  0.0000000E+00;0;  3.6641648E-06;  4.0000000E+04;  0.0000000E+00;  0.0000000E+00;  4.0000000E+04;  0.0000000E+00;  4.0000000E+04;  3.6342276E-06;  0.0000000E+00;  2.9937134E-08;  4.2312436E+00;
 -1.5000001E-01;  9.9999998E-03;  0.0000000E+00;498;  0.0000000E+00;  0.0000000E+00;  0.0000000E+00;  1.0000000E+03;  1.0000000E-01;  0.0000000E+00;0;  0.0000000E+00;  0.0000000E+00;  0.0000000E+00;0;  3.6489671E-06;  4.0000000E+04;  0.0000000E+00;  0.0000000E+00;  4.0000000E+04;  0.0000000E+00;  4.0000000E+04;  3.6180950E-06;  0.0000000E+00;  3.0872080E-08;  4.2257991E+00;
 -1.5000001E-01;  9.9999998E-03;  9.9999998E-03;499;  0.0000000E+00;  0.0000000E+00;  0.0000000E+00;  1.0000000E+03;  1.0000000E-01;  0.0000000E+00;0;  0.0000000E+00;  0.0000000E+00;  0.0000000E+00;0;  3.6641779E-06;  4.0000000E+04;  0.0000000E+00;  0.0000000E+00;  4.0000000E+04;  0.0000000E+00;  4.0000000E+04;  3.6342406E-06;  0.0000000E+00;  2.9937290E-08;  4.2312469E+00;
 -1.5000001E-01;  9.9999998E-03;  2.0000000E-02;500;  0.0000000E+00;  0.0000000E+00;  0.0000000E+00;  1.0000000E+03;  1.0000000E-01;  0.0000000E+00;0;  0.0000000E+00;  0.0000000E+00;  0.0000000E+00;0;  3.7089162E-06;  4.0000000E+04;  0.0000000E+00;  0.0000000E+00;  4.0000000E+04;  0.0000000E+00;  4.0000000E+04;  3.6815984E-06;  0.0000000E+00;  2.7317769E-08;  4.2456403E+00;
 -1.5000001E-01;  9.9999998E-03;  2.9999999E-02;501;  0.0000000E+00;  0.0000000E+00;  0.0000000E+00;  1.0000000E+03;  1.0000000E-01;  0.0000000E+00;0;  0.0000000E+00;  0.0000000E+00;  0.0000000E+00;0;  3.7803479E-06;  4.0000000E+04;  0.0000000E+00;  0.0000000E+00;  4.0000000E+04;  0.0000000E+00;  4.0000000E+04;  3.7568223E-06;  0.0000000E+00;  2.3525613E-08;  4.2637510E+00;
 -1.5000001E-01;  9.9999998E-03;  3.9999999E-02;502;  0.0000000E+00;  0.0000000E+00;  0.0000000E+00;  1.0000000E+03;  1.0000000E-01;  0.0000000E+00;0;  0.0000000E+00;  0.0000000E+00;  0.0000000E+00;0;  3.8732251E-06;  4.0000000E+04;  0.0000000E+00;  0.0000000E+00;  4.0000000E+04;  0.0000000E+00;  4.0000000E+04;  3.8539424E-06;  0.0000000E+00;  1.9282846E-08;  4.2790098E+00;
 -1.5000001E-01;  9.9999998E-03;  5.0000001E-02;503;  0.0000000E+00;  0.0000000E+00;  0.0000000E+00;  1.0000000E+03;  1.0000000E-01;  0.0000000E+00;0;  0.0000000E+00;  0.0000000E+00;  0.0000000E+00;0;  3.9794031E-06;  4.0000000E+04;  0.0000000E+00;  0.0000000E+00;  4.0000000E+04;  0.0000000E+00;  4.0000000E+04;  3.9640408E-06;  0.0000000E+00;  1.5362062E-08;  4.2862358E+00;
 -1.5000001E-01;  9.9999998E-03;  5.9999999E-02;504;  0.0000000E+00;  0.0000000E+00;  0.0000000E+00;  1.0000000E+03;  1.0000000E-01;  0.0000000E+00;0;  0.0000000E+00;  0.0000000E+00;  0.0000000E+00;0;  4.0877076E-06;  4.0000000E+04;  0.0000000E+00;  0.0000000E+00;  4.0000000E+04;  0.0000000E+00;  4.0000000E+04;  4.0752798E-06;  0.0000000E+00;  1.2427822E-08;  4.2836270E+00;
 -1.4000000E-01;  9.9999998E-03; -1.0000000E-01;579;  0.0000000E+00;  0.0000000E+00;  0.0000000E+00;  1.0000000E+03;  1.0000000E-01;  0.0000000E+00;0;  0.0000000E+00;  0.0000000E+00;  0.0000000E+00;0;  1.8587600E-05;  4.0000000E+04;  0.0000000E+00;  0.0000000E+00;  4.0000000E+04;  0.0000000E+00;  4.0000000E+04;  1.8427281E-05;  0.0000000E+00;  1.6031913E-07;  1.9481199E+01;
 -1.4000000E-01;  9.9999998E-03; -9.0000004E-02;580;  0.0000000E+00;  0.0000000E+00;  0.0000000E+00;  1.0000000E+03;  1.0000000E-01;  0.0000000E+00;0;  0.0000000E+00;  0.0000000E+00;  0.0000000E+00;0;  1.8641904E-05;  4.0000000E+04;  0.0000000E+00;  0.0000000E+00;  4.0000000E+04;  0.0000000E+00;  4.0000000E+04;  1.8511679E-05;  0.0000000E+00;  1.3022434E-07;  1.9551662E+01;
 -1.4000000E-01;  9.9999998E-03; -7.9999998E-02;581;  0.0000000E+00;  0.0000000E+00;  0.0000000E+00;  1.0000000E+03;  1.0000000E-01;  0.0000000E+00;0;  0.0000000E+00;  0.0000000E+00;  0.0000000E+00;0;  1.8504030E-05;  4.0000000E+04;  0.0000000E+00;  0.0000000E+00;  4.0000000E+04;  0.0000000E+00;  4.0000000E+04;  1.8388830E-05;  0.0000000E+00;  1.1520061E-07;  1.9646507E+01;
 -1.4000000E-01;  9.9999998E-03; -7.0000000E-02;582;  0.0000000E+00;  0.0000000E+00;  0.0000000E+00;  1.0000000E+03;  1.0000000E-01;  0.0000000E+00;0;  0.0000000E+00;  0.0000000E+00;  0.0000000E+00;0;  1.8194714E-05;  4.0000000E+04;  0.0000000E+00;  0.0000000E+00;  4.0000000E+04;  0.0000000E+00;  4.0000000E+04;  1.8080547E-05;  0.0000000E+00;  1.1416640E-07;  1.9743746E+01;
 -1.4000000E-01;  9.9999998E-03; -5.9999999E-02;583;  0.0000000E+00;  0.0000000E+00;  0.0000000E+00;  1.0000000E+03;  1.0000000E-01;  0.0000000E+00;0;  0.0000000E+00;  0.0000000E+00;  0.0000000E+00;0;  1.7760931E-05;  4.0000000E+04;  0.0000000E+00;  0.0000000E+00;  4.0000000E+04;  0.0000000E+00;  4.0000000E+04;  1.7635381E-05;  0.0000000E+00;  1.2555046E-07;  1.9815733E+01;
 -1.4000000E-01;  9.9999998E-03; -5.0000001E-02;584;  0.0000000E+00;  0.0000000E+00;  0.0000000E+00;  1.0000000E+03;  1.0000000E-01;  0.0000000E+00;0;  0.0000000E+00;  0.0000000E+00;  0.0000000E+00;0;  1.7263026E-05;  4.0000000E+04;  0.0000000E+00;  0.0000000E+00;  4.0000000E+04;  0.0000000E+00;  4.0000000E+04;  1.7116132E-05;  0.0000000E+00;  1.4689400E-07;  1.9840818E+01;
 -1.4000000E-01;  9.9999998E-03; -3.9999999E-02;585;  0.0000000E+00;  0.0000000E+00;  0.0000000E+00;  1.0000000E+03;  1.0000000E-01;  0.0000000E+00;0;  0.0000000E+00;  0.0000000E+00;  0.0000000E+00;0;  1.6763113E-05;  4.0000000E+04;  0.0000000E+00;  0.0000000E+00;  4.0000000E+04;  0.0000000E+00;  4.0000000E+04;  1.6588538E-05;  0.0000000E+00;  1.7457619E-07;  1.9811663E+01;
 -1.4000000E-01;  9.9999998E-03; -2.9999999E-02;586;  0.0000000E+00;  0.0000000E+00;  0.0000000E+00;  1.0000000E+03;  1.0000000E-01;  0.0000000E+00;0;  0.0000000E+00;  0.0000000E+00;  0.0000000E+00;0;  1.6316597E-05;  4.0000000E+04;  0.0000000E+00;  0.0000000E+00;  4.0000000E+04;  0.0000000E+00;  4.0000000E+04;  1.6112670E-05;  0.0000000E+00;  2.0392777E-07;  1.9740389E+01;
 -1.4000000E-01;  9.9999998E-03; -2.0000000E-02;587;  0.0000000E+00;  0.0000000E+00;  0.0000000E+00;  1.0000000E+03;  1.0000000E-01;  0.0000000E+00;0;  0.0000000E+00;  0.0000000E+00;  0.0000000E+00;0;  1.5967291E-05;  4.0000000E+04;  0.0000000E+00;  0.0000000E+00;  4.0000000E+04;  0.0000000E+00;  4.0000000E+04;  1.5737474E-05;  0.0000000E+00;  2.2981719E-07;  1.9654009E+01;
 -1.4000000E-01;  9.9999998E-03; -9.9999998E-03;588;  0.0000000E+00;  0.0000000E+00;  0.0000000E+00;  1.0000000E+03;  1.0000000E-01;  0.0000000E+00;0;  0.0000000E+00;  0.0000000E+00;  0.0000000E+00;0;  1.5745891E-05;  4.0000000E+04;  0.0000000E+00;  0.0000000E+00;  4.0000000E+04;  0.0000000E+00;  4.0000000E+04;  1.5498330E-05;  0.0000000E+00;  2.4756059E-07;  1.9584921E+01;
 -1.4000000E-01;  9.9999998E-03;  0.0000000E+00;589;  0.0000000E+00;  0.0000000E+00;  0.0000000E+00;  1.0000000E+03;  1.0000000E-01;  0.0000000E+00;0;  0.0000000E+00;  0.0000000E+00;  0.0000000E+00;0;  1.5670144E-05;  4.0000000E+04;  0.0000000E+00;  0.0000000E+00;  4.0000000E+04;  0.0000000E+00;  4.0000000E+04;  1.5416275E-05;  0.0000000E+00;  2.5386970E-07;  1.9558661E+01;
 -1.4000000E-01;  9.9999998E-03;  9.9999998E-03;590;  0.0000000E+00;  0.0000000E+00;  0.0000000E+00;  1.0000000E+03;  1.0000000E-01;  0.0000000E+00;0;  0.0000000E+00;  0.0000000E+00;  0.0000000E+00;0;  1.5745934E-05;  4.0000000E+04;  0.0000000E+00;  0.0000000E+00;  4.0000000E+04;  0.0000000E+00;  4.0000000E+04;  1.5498374E-05;  0.0000000E+00;  2.4756153E-07;  1.9584940E+01;
 -1.4000000E-01;  9.9999998E-03;  2.0000000E-02;591;  0.0000000E+00;  0.0000000E+00;  0.0000000E+00;  1.0000000E+03;  1.0000000E-01;  0.0000000E+00;0;  0.0000000E+00;  0.0000000E+00;  0.0000000E+00;0;  1.5967367E-05;  4.0000000E+04;  0.0000000E+00;  0.0000000E+00;  4.0000000E+04;  0.0000000E+00;  4.0000000E+04;  1.5737549E-05;  0.0000000E+00;  2.2981891E-07;  1.9654034E+01;
 -1.4000000E-01;  9.9999998E-03;  2.9999999E-02;592;  0.0000000E+00;  0.0000000E+00;  0.0000000E+00;  1.0000000E+03;  1.0000000E-01;  0.0000000E+00;0;  0.0000000E+00;  0.0000000E+00;  0.0000000E+00;0;  1.6316719E-05;  4.0000000E+04;  0.0000000E+00;  0.0000000E+00;  4.0000000E+04;  0.0000000E+00;  4.0000000E+04;  1.6112788E-05;  0.0000000E+00;  2.0393031E-07;  1.9740429E+01;
 -1.4000000E-01;  9.9999998E-03;  3.9999999E-02;593;  0.0000000E+00;  0.0000000E+00;  0.0000000E+00;  1.0000000E+03;  1.0000000E-01;  0.0000000E+00;0;  0.0000000E+00;  0.0000000E+00;  0.0000000E+00;0;  1.6763253E-05;  4.0000000E+04;  0.0000000E+00;  0.0000000E+00;  4.0000000E+04;  0.0000000E+00;  4.0000000E+04;  1.6588674E-05;  0.0000000E+00;  1.7457982E-07;  1.9811689E+01;
 -1.4000000E-01;  9.9999998E-03;  5.0000001E-02;594;  0.0000000E+00;  0.0000000E+00;  0.0000000E+00;  1.0000000E+03;  1.0000000E-01;  0.0000000E+00;0;  0.0000000E+00;  0.0000000E+00;  0.0000000E+00;0;  1.7263137E-05;  4.0000000E+04;  0.0000000E+00;  0.0000000E+00;  4.0000000E+04;  0.0000000E+00;  4.0000000E+04;  1.7116237E-05;  0.0000000E+00;  1.4689905E-07;  1.9840845E+01;
 -1.4000000E-01;  9.9999998E-03;  5.9999999E-02;595;  0.0000000E+00;  0.0000000E+00;  0.0000000E+00;  1.0000000E+03;  1.0000000E-01;  0.0000000E+00;0;  0.0000000E+00;  0.0000000E+00;  0.0000000E+00;0;  1.7761005E-05;  4.0000000E+04;  0.0000000E+00;  0.0000000E+00;  4.0000000E+04;  0.0000000E+00;  4.0000000E+04;  1.7635448E-05;  0.0000000E+00;  1.2555721E-07;  1.9815746E+01;
 -1.3000000E-01;  9.9999998E-03; -1.0000000E-01;670;  0.0000000E+00;  0.0000000E+00;  0.0000000E+00;  1.0000000E+03;  1.0000000E-01;  0.0000000E+00;0;  0.0000000E+00;  0.0000000E+00;  0.0000000E+00;0;  3.9727689E-05;  4.0000000E+04;  0.0000000E+00;  0.0000000E+00;  4.0000000E+04;  0.0000000E+00;  4.0000000E+04;  3.8984719E-05;  0.0000000E+00;  7.4296912E-07;  5.4386528E+01;
 -1.3000000E-01;  9.9999998E-03; -9.0000004E-02;671;  0.0000000E+00;  0.0000000E+00;  0.0000000E+00;  1.0000000E+03;  1.0000000E-01;  0.0000000E+00;0;  0.0000000E+00;  0.0000000E+00;  0.0000000E+00;0;  3.9810428E-05;  4.0000000E+04;  0.0000000E+00;  0.0000000E+00;  4.0000000E+04;  0.0000000E+00;  4.0000000E+04;  3.9192353E-05;  0.0000000E+00;  6.1807265E-07;  5.4879417E+01;
 -1.3000000E-01;  9.9999998E-03; -7.9999998E-02;672;  0.0000000E+00;  0.0000000E+00;  0.0000000E+00;  1.0000000E+03;  1.0000000E-01;  0.0000000E+00;0;  0.0000000E+00;  0.0000000E+00;  0.0000000E+00;0;  3.9451457E-05;  4.0000000E+04;  0.0000000E+00;  0.0000000E+00;  4.0000000E+04;  0.0000000E+00;  4.0000000E+04;  3.8897040E-05;  0.0000000E+00;  5.5441757E-07;  5.5367363E+01;
 -1.3000000E-01;  9.9999998E-03; -7.0000000E-02;673;  0.0000000E+00;  0.0000000E+00;  0.0000000E+00;  1.0000000E+03;  1.0000000E-01;  0.0000000E+00;0;  0.0000000E+00;  0.0000000E+00;  0.0000000E+00;0;  3.8674443E-05;  4.0000000E+04;  0.0000000E+00;  0.0000000E+00;  4.0000000E+04;  0.0000000E+00;  4.0000000E+04;  3.8127451E-05;  0.0000000E+00;  5.4699285E-07;  5.5788563E+01;
 -1.3000000E-01;  9.9999998E-03; -5.9999999E-02;674;  0.0000000E+00;  0.0000000E+00;  0.0000000E+00;  1.0000000E+03;  1.0000000E-01;  0.0000000E+00;0;  0.0000000E+00;  0.0000000E+00;  0.0000000E+00;0;  3.7575788E-05;  4.0000000E+04;  0.0000000E+00;  0.0000000E+00;  4.0000000E+04;  0.0000000E+00;  4.0000000E+04;  3.6988076E-05;  0.0000000E+00;  5.8771212E-07;  5.6083450E+01;
 -1.3000000E-01;  9.9999998E-03; -5.0000001E-02;675;  0.0000000E+00;  0.0000000E+00;  0.0000000E+00;  1.0000000E+03;  1.0000000E-01;  0.0000000E+00;0;  0.0000000E+00;  0.0000000E+00;  0.0000000E+00;0;  3.6295976E-05;  4.0000000E+04;  0.0000000E+00;  0.0000000E+00;  4.0000000E+04;  0.0000000E+00;  4.0000000E+04;  3.5630837E-05;  0.0000000E+00;  6.6513815E-07;  5.6214630E+01;
 -1.3000000E-01;  9.9999998E-03; -3.9999999E-02;676;  0.0000000E+00;  0.0000000E+00;  0.0000000E+00;  1.0000000E+03;  1.0000000E-01;  0.0000000E+00;0;  0.0000000E+00;  0.0000000E+00;  0.0000000E+00;0;  3.4991070E-05;  4.0000000E+04;  0.0000000E+00;  0.0000000E+00;  4.0000000E+04;  0.0000000E+00;  4.0000000E+04;  3.4226548E-05;  0.0000000E+00;  7.6452250E-07;  5.6181232E+01;
 -1.3000000E-01;  9.9999998E-03; -2.9999999E-02;677;  0.0000000E+00;  0.0000000E+00;  0.0000000E+00;  1.0000000E+03;  1.0000000E-01;  0.0000000E+00;0;  0.0000000E+00;  0.0000000E+00;  0.0000000E+00;0;  3.3809069E-05;  4.0000000E+04;  0.0000000E+00;  0.0000000E+00;  4.0000000E+04;  0.0000000E+00;  4.0000000E+04;  3.2940450E-05;  0.0000000E+00;  8.6861974E-07;  5.6024471E+01;
 -1.3000000E-01;  9.9999998E-03; -2.0000000E-02;678;  0.0000000E+00;  0.0000000E+00;  0.0000000E+00;  1.0000000E+03;  1.0000000E-01;  0.0000000E+00;0;  0.0000000E+00;  0.0000000E+00;  0.0000000E+00;0;  3.2873777E-05;  4.0000000E+04;  0.0000000E+00;  0.0000000E+00;  4.0000000E+04;  0.0000000E+00;  4.0000000E+04;  3.1914235E-05;  0.0000000E+00;  9.5954067E-07;  5.5819450E+01;
 -1.3000000E-01;  9.9999998E-03; -9.9999998E-03;679;  0.0000000E+00;  0.0000000E+00;  0.0000000E+00;  1.0000000E+03;  1.0000000E-01;  0.0000000E+00;0;  0.0000000E+00;  0.0000000E+00;  0.0000000E+00;0;  3.2276079E-05;  4.0000000E+04;  0.0000000E+00;  0.0000000E+00;  4.0000000E+04;  0.0000000E+00;  4.0000000E+04;  3.1254633E-05;  0.0000000E+00;  1.0214468E-06;  5.5650993E+01;
 -1.3000000E-01;  9.9999998E-03;  0.0000000E+00;680;  0.0000000E+00;  0.0000000E+00;  0.0000000E+00;  1.0000000E+03;  1.0000000E-01;  0.0000000E+00;0;  0.0000000E+00;  0.0000000E+00;  0.0000000E+00;0;  3.2070817E-05;  4.0000000E+04;  0.0000000E+00;  0.0000000E+00;  4.0000000E+04;  0.0000000E+00;  4.0000000E+04;  3.1027430E-05;  0.0000000E+00;  1.0433878E-06;  5.5586399E+01;
 -1.3000000E-01;  9.9999998E-03;  9.9999998E-03;681;  0.0000000E+00;  0.0000000E+00;  0.0000000E+00;  1.0000000E+03;  1.0000000E-01;  0.0000000E+00;0;  0.0000000E+00;  0.0000000E+00;  0.0000000E+00;0;  3.2276188E-05;  4.0000000E+04;  0.0000000E+00;  0.0000000E+00;  4.0000000E+04;  0.0000000E+00;  4.0000000E+04;  3.1254738E-05;  0.0000000E+00;  1.0214494E-06;  5.5651039E+01;
 -1.3000000E-01;  9.9999998E-03;  2.0000000E-02;682;  0.0000000E+00;  0.0000000E+00;  0.0000000E+00;  1.0000000E+03;  1.0000000E-01;  0.0000000E+00;0;  0.0000000E+00;  0.0000000E+00;  0.0000000E+00;0;  3.2873995E-05;  4.0000000E+04;  0.0000000E+00;  0.0000000E+00;  4.0000000E+04;  0.0000000E+00;  4.0000000E+04;  3.1914449E-05;  0.0000000E+00;  9.5954647E-07;  5.5819519E+01;
 -1.3000000E-01;  9.9999998E-03;  2.9999999E-02;683;  0.0000000E+00;  0.0000000E+00;  0.0000000E+00;  1.0000000E+03;  1.0000000E-01;  0.0000000E+00;0;  0.0000000E+00;  0.0000000E+00;  0.0000000E+00;0;  3.3809349E-05;  4.0000000E+04;  0.0000000E+00;  0.0000000E+00;  4.0000000E+04;  0.0000000E+00;  4.0000000E+04;  3.2940719E-05;  0.0000000E+00;  8.6862929E-07;  5.6024601E+01;
 -1.3000000E-01;  9.9999998E-03;  3.9999999E-02;684;  0.0000000E+00;  0.0000000E+00;  0.0000000E+00;  1.0000000E+03;  1.0000000E-01;  0.0000000E+00;0;  0.0000000E+00;  0.0000000E+00;  0.0000000E+00;0;  3.4991386E-05;  4.0000000E+04;  0.0000000E+00;  0.0000000E+00;  4.0000000E+04;  0.0000000E+00;  4.0000000E+04;  3.4226847E-05;  0.0000000E+00;  7.6453870E-07;  5.6181370E+01;
 -1.3000000E-01;  9.9999998E-03;  5.0000001E-02;685;  0.0000000E+00;  0.0000000E+00;  0.0000000E+00;  1.0000000E+03;  1.0000000E-01;  0.0000000E+00;0;  0.0000000E+00;  0.0000000E+00;  0.0000000E+00;0;  3.6296267E-05;  4.0000000E+04;  0.0000000E+00;  0.0000000E+00;  4.0000000E+04;  0.0000000E+00;  4.0000000E+04;  3.5631107E-05;  0.0000000E+00;  6.6516009E-07;  5.6214790E+01;
 -1.3000000E-01;  9.9999998E-03;  5.9999999E-02;686;  0.0000000E+00;  0.0000000E+00;  0.0000000E+00;  1.0000000E+03;  1.0000000E-01;  0.0000000E+00;0;  0.0000000E+00;  0.0000000E+00;  0.0000000E+00;0;  3.7575985E-05;  4.0000000E+04;  0.0000000E+00;  0.0000000E+00;  4.0000000E+04;  0.0000000E+00;  4.0000000E+04;  3.6988244E-05;  0.0000000E+00;  5.8773969E-07;  5.6083527E+01;
 -1.2000000E-01;  9.9999998E-03; -1.0000000E-01;761;  0.0000000E+00;  0.0000000E+00;  0.0000000E+00;  1.0000000E+03;  1.0000000E-01;  0.0000000E+00;0;  0.0000000E+00;  0.0000000E+00;  0.0000000E+00;0;  4.8626156E-05;  4.0000000E+04;  0.0000000E+00;  0.0000000E+00;  4.0000000E+04;  0.0000000E+00;  4.0000000E+04;  4.6273817E-05;  0.0000000E+00;  2.3523389E-06;  1.1607375E+02;
 -1.2000000E-01;  9.9999998E-03; -9.0000004E-02;762;  0.0000000E+00;  0.0000000E+00;  0.0000000E+00;  1.0000000E+03;  1.0000000E-01;  0.0000000E+00;0;  0.0000000E+00;  0.0000000E+00;  0.0000000E+00;0;  4.8604586E-05;  4.0000000E+04;  0.0000000E+00;  0.0000000E+00;  4.0000000E+04;  0.0000000E+00;  4.0000000E+04;  4.6608980E-05;  0.0000000E+00;  1.9956058E-06;  1.1773418E+02;
 -1.2000000E-01;  9.9999998E-03; -7.9999998E-02;763;  0.0000000E+00;  0.0000000E+00;  0.0000000E+00;  1.0000000E+03;  1.0000000E-01;  0.0000000E+00;0;  0.0000000E+00;  0.0000000E+00;  0.0000000E+00;0;  4.7830716E-05;  4.0000000E+04;  0.0000000E+00;  0.0000000E+00;  4.0000000E+04;  0.0000000E+00;  4.0000000E+04;  4.6023226E-05;  0.0000000E+00;  1.8074908E-06;  1.1926604E+02;
 -1.2000000E-01;  9.9999998E-03; -7.0000000E-02;764;  0.0000000E+00;  0.0000000E+00;  0.0000000E+00;  1.0000000E+03;  1.0000000E-01;  0.0000000E+00;0;  0.0000000E+00;  0.0000000E+00;  0.0000000E+00;0;  4.6304038E-05;  4.0000000E+04;  0.0000000E+00;  0.0000000E+00;  4.0000000E+04;  0.0000000E+00;  4.0000000E+04;  4.4529246E-05;  0.0000000E+00;  1.7747908E-06;  1.2052758E+02;
 -1.2000000E-01;  9.9999998E-03; -5.9999999E-02;765;  0.0000000E+00;  0.0000000E+00;  0.0000000E+00;  1.0000000E+03;  1.0000000E-01;  0.0000000E+00;0;  0.0000000E+00;  0.0000000E+00;  0.0000000E+00;0;  4.4171316E-05;  4.0000000E+04;  0.0000000E+00;  0.0000000E+00;  4.0000000E+04;  0.0000000E+00;  4.0000000E+04;  4.2297455E-05;  0.0000000E+00;  1.8738623E-06;  1.2141356E+02;
 -1.2000000E-01;  9.9999998E-03; -5.0000001E-02;766;  0.0000000E+00;  0.0000000E+00;  0.0000000E+00;  1.0000000E+03;  1.0000000E-01;  0.0000000E+00;0;  0.0000000E+00;  0.0000000E+00;  0.0000000E+00;0;  4.1678071E-05;  4.0000000E+04;  0.0000000E+00;  0.0000000E+00;  4.0000000E+04;  0.0000000E+00;  4.0000000E+04;  3.9606766E-05;  0.0000000E+00;  2.0713051E-06;  1.2188006E+02;
 -1.2000000E-01;  9.9999998E-03; -3.9999999E-02;767;  0.0000000E+00;  0.0000000E+00;  0.0000000E+00;  1.0000000E+03;  1.0000000E-01;  0.0000000E+00;0;  0.0000000E+00;  0.0000000E+00;  0.0000000E+00;0;  3.9115905E-05;  4.0000000E+04;  0.0000000E+00;  0.0000000E+00;  4.0000000E+04;  0.0000000E+00;  4.0000000E+04;  3.6790163E-05;  0.0000000E+00;  2.3257403E-06;  1.2196220E+02;
 -1.2000000E-01;  9.9999998E-03; -2.9999999E-02;768;  0.0000000E+00;  0.0000000E+00;  0.0000000E+00;  1.0000000E+03;  1.0000000E-01;  0.0000000E+00;0;  0.0000000E+00;  0.0000000E+00;  0.0000000E+00;0;  3.6775356E-05;  4.0000000E+04;  0.0000000E+00;  0.0000000E+00;  4.0000000E+04;  0.0000000E+00;  4.0000000E+04;  3.4184246E-05;  0.0000000E+00;  2.5911104E-06;  1.2176361E+02;
 -1.2000000E-01;  9.9999998E-03; -2.0000000E-02;769;  0.0000000E+00;  0.0000000E+00;  0.0000000E+00;  1.0000000E+03;  1.0000000E-01;  0.0000000E+00;0;  0.0000000E+00;  0.0000000E+00;  0.0000000E+00;0;  3.4909521E-05;  4.0000000E+04;  0.0000000E+00;  0.0000000E+00;  4.0000000E+04;  0.0000000E+00;  4.0000000E+04;  3.2087897E-05;  0.0000000E+00;  2.8216227E-06;  1.2144207E+02;
 -1.2000000E-01;  9.9999998E-03; -9.9999998E-03;770;  0.0000000E+00;  0.0000000E+00;  0.0000000E+00;  1.0000000E+03;  1.0000000E-01;  0.0000000E+00;0;  0.0000000E+00;  0.0000000E+00;  0.0000000E+00;0;  3.3710759E-05;  4.0000000E+04;  0.0000000E+00;  0.0000000E+00;  4.0000000E+04;  0.0000000E+00;  4.0000000E+04;  3.0732866E-05;  0.0000000E+00;  2.9778928E-06;  1.2116411E+02;
 -1.2000000E-01;  9.9999998E-03;  0.0000000E+00;771;  0.0000000E+00;  0.0000000E+00;  0.0000000E+00;  1.0000000E+03;  1.0000000E-01;  0.0000000E+00;0;  0.0000000E+00;  0.0000000E+00;  0.0000000E+00;0;  3.3297889E-05;  4.0000000E+04;  0.0000000E+00;  0.0000000E+00;  4.0000000E+04;  0.0000000E+00;  4.0000000E+04;  3.0264735E-05;  0.0000000E+00;  3.0331530E-06;  1.2105495E+02;
 -1.2000000E-01;  9.9999998E-03;  9.9999998E-03;772;  0.0000000E+00;  0.0000000E+00;  0.0000000E+00;  1.0000000E+03;  1.0000000E-01;  0.0000000E+00;0;  0.0000000E+00;  0.0000000E+00;  0.0000000E+00;0;  3.3710963E-05;  4.0000000E+04;  0.0000000E+00;  0.0000000E+00;  4.0000000E+04;  0.0000000E+00;  4.0000000E+04;  3.0733063E-05;  0.0000000E+00;  2.9779003E-06;  1.2116418E+02;
 -1.2000000E-01;  9.9999998E-03;  2.0000000E-02;773;  0.0000000E+00;  0.0000000E+00;  0.0000000E+00;  1.0000000E+03;  1.0000000E-01;  0.0000000E+00;0;  0.0000000E+00;  0.0000000E+00;  0.0000000E+00;0;  3.4909928E-05;  4.0000000E+04;  0.0000000E+00;  0.0000000E+00;  4.0000000E+04;  0.0000000E+00;  4.0000000E+04;  3.2088286E-05;  0.0000000E+00;  2.8216414E-06;  1.2144224E+02;
 -1.2000000E-01;  9.9999998E-03;  2.9999999E-02;774;  0.0000000E+00;  0.0000000E+00;  0.0000000E+00;  1.0000000E+03;  1.0000000E-01;  0.0000000E+00;0;  0.0000000E+00;  0.0000000E+00;  0.0000000E+00;0;  3.6775873E-05;  4.0000000E+04;  0.0000000E+00;  0.0000000E+00;  4.0000000E+04;  0.0000000E+00;  4.0000000E+04;  3.4184730E-05;  0.0000000E+00;  2.5911422E-06;  1.2176376E+02;
 -1.2000000E-01;  9.9999998E-03;  3.9999999E-02;775;  0.0000000E+00;  0.0000000E+00;  0.0000000E+00;  1.0000000E+03;  1.0000000E-01;  0.0000000E+00;0;  0.0000000E+00;  0.0000000E+00;  0.0000000E+00;0;  3.9116465E-05;  4.0000000E+04;  0.0000000E+00;  0.0000000E+00;  4.0000000E+04;  0.0000000E+00;  4.0000000E+04;  3.6790676E-05;  0.0000000E+00;  2.3257883E-06;  1.2196246E+02;
 -1.2000000E-01;  9.9999998E-03;  5.0000001E-02;776;  0.0000000E+00;  0.0000000E+00;  0.0000000E+00;  1.0000000E+03;  1.0000000E-01;  0.0000000E+00;0;  0.0000000E+00;  0.0000000E+00;  0.0000000E+00;0;  4.1678577E-05;  4.0000000E+04;  0.0000000E+00;  0.0000000E+00;  4.0000000E+04;  0.0000000E+00;  4.0000000E+04;  3.9607206E-05;  0.0000000E+00;  2.0713692E-06;  1.2188036E+02;
 -1.2000000E-01;  9.9999998E-03;  5.9999999E-02;777;  0.0000000E+00;  0.0000000E+00;  0.0000000E+00;  1.0000000E+03;  1.0000000E-01;  0.0000000E+00;0;  0.0000000E+00;  0.0000000E+00;  0.0000000E+00;0;  4.4171637E-05;  4.0000000E+04;  0.0000000E+00;  0.0000000E+00;  4.0000000E+04;  0.0000000E+00;  4.0000000E+04;  4.2297695E-05;  0.0000000E+00;  1.8739413E-06;  1.2141382E+02;
 -1.1000000E-01;  9.9999998E-03; -1.0000000E-01;852;  0.0000000E+00;  0.0000000E+00;  0.0000000E+00;  1.0000000E+03;  1.0000000E-01;  0.0000000E+00;0;  0.0000000E+00;  0.0000000E+00;  0.0000000E+00;0;  9.9275130E-06;  4.0000000E+04;  0.0000000E+00;  0.0000000E+00;  4.0000000E+04;  0.0000000E+00;  4.0000000E+04;  4.0433242E-06;  0.0000000E+00;  5.8841888E-06;  2.0952162E+02;
 -1.1000000E-01;  9.9999998E-03; -9.0000004E-02;853;  0.0000000E+00;  0.0000000E+00;  0.0000000E+00;  1.0000000E+03;  1.0000000E-01;  0.0000000E+00;0;  0.0000000E+00;  0.0000000E+00;  0.0000000E+00;0;  9.4905427E-06;  4.0000000E+04;  0.0000000E+00;  0.0000000E+00;  4.0000000E+04;  0.0000000E+00;  4.0000000E+04;  4.4126355E-06;  0.0000000E+00;  5.0779076E-06;  2.1356915E+02;
 -1.1000000E-01;  9.9999998E-03; -7.9999998E-02;854;  0.0000000E+00;  0.0000000E+00;  0.0000000E+00;  1.0000000E+03;  1.0000000E-01;  0.0000000E+00;0;  0.0000000E+00;  0.0000000E+00;  0.0000000E+00;0;  7.9878337E-06;  4.0000000E+04;  0.0000000E+00;  0.0000000E+00;  4.0000000E+04;  0.0000000E+00;  4.0000000E+04;  3.3491915E-06;  0.0000000E+00;  4.6386417E-06;  2.1723567E+02;
 -1.1000000E-01;  9.9999998E-03; -7.0000000E-02;855;  0.0000000E+00;  0.0000000E+00;  0.0000000E+00;  1.0000000E+03;  1.0000000E-01;  0.0000000E+00;0;  0.0000000E+00;  0.0000000E+00;  0.0000000E+00;0;  5.3544964E-06;  4.0000000E+04;  0.0000000E+00;  0.0000000E+00;  4.0000000E+04;  0.0000000E+00;  4.0000000E+04;  8.1374310E-07;  0.0000000E+00;  4.5407533E-06;  2.2023332E+02;
 -1.1000000E-01;  9.9999998E-03; -5.9999999E-02;856;  0.0000000E+00;  0.0000000E+00;  0.0000000E+00;  1.0000000E+03;  1.0000000E-01;  0.0000000E+00;0;  0.0000000E+00;  0.0000000E+00;  0.0000000E+00;0;  1.7761809E-06;  4.0000000E+04;  0.0000000E+00;  0.0000000E+00;  4.0000000E+04;  0.0000000E+00;  4.0000000E+04; -2.9566058E-06;  0.0000000E+00;  4.7327867E-06;  2.2238490E+02;
 -1.1000000E-01;  9.9999998E-03; -5.0000001E-02;857;  0.0000000E+00;  0.0000000E+00;  0.0000000E+00;  1.0000000E+03;  1.0000000E-01;  0.0000000E+00;0;  0.0000000E+00;  0.0000000E+00;  0.0000000E+00;0; -2.3831781E-06;  4.0000000E+04;  0.0000000E+00;  0.0000000E+00;  4.0000000E+04;  0.0000000E+00;  4.0000000E+04; -7.5235234E-06;  0.0000000E+00;  5.1403454E-06;  2.2365080E+02;
 -1.1000000E-01;  9.9999998E-03; -3.9999999E-02;858;  0.0000000E+00;  0.0000000E+00;  0.0000000E+00;  1.0000000E+03;  1.0000000E-01;  0.0000000E+00;0;  0.0000000E+00;  0.0000000E+00;  0.0000000E+00;0; -6.6638877E-06;  4.0000000E+04;  0.0000000E+00;  0.0000000E+00;  4.0000000E+04;  0.0000000E+00;  4.0000000E+04; -1.2335650E-05;  0.0000000E+00;  5.6717627E-06;  2.2413878E+02;
 -1.1000000E-01;  9.9999998E-03; -2.9999999E-02;859;  0.0000000E+00;  0.0000000E+00;  0.0000000E+00;  1.0000000E+03;  1.0000000E-01;  0.0000000E+00;0;  0.0000000E+00;  0.0000000E+00;  0.0000000E+00;0; -1.0589517E-05;  4.0000000E+04;  0.0000000E+00;  0.0000000E+00;  4.0000000E+04;  0.0000000E+00;  4.0000000E+04; -1.6816393E-05;  0.0000000E+00;  6.2268764E-06;  2.2406577E+02;
 -1.1000000E-01;  9.9999998E-03; -2.0000000E-02;860;  0.0000000E+00;  0.0000000E+00;  0.0000000E+00;  1.0000000E+03;  1.0000000E-01;  0.0000000E+00;0;  0.0000000E+00;  0.0000000E+00;  0.0000000E+00;0; -1.3731733E-05;  4.0000000E+04;  0.0000000E+00;  0.0000000E+00;  4.0000000E+04;  0.0000000E+00;  4.0000000E+04; -2.0440068E-05;  0.0000000E+00;  6.7083347E-06;  2.2371654E+02;
 -1.1000000E-01;  9.9999998E-03; -9.9999998E-03;861;  0.0000000E+00;  0.0000000E+00;  0.0000000E+00;  1.0000000E+03;  1.0000000E-01;  0.0000000E+00;0;  0.0000000E+00;  0.0000000E+00;  0.0000000E+00;0; -1.5757108E-05;  4.0000000E+04;  0.0000000E+00;  0.0000000E+00;  4.0000000E+04;  0.0000000E+00;  4.0000000E+04; -2.2791184E-05;  0.0000000E+00;  7.0340761E-06;  2.2337041E+02;
 -1.1000000E-01;  9.9999998E-03;  0.0000000E+00;862;  0.0000000E+00;  0.0000000E+00;  0.0000000E+00;  1.0000000E+03;  1.0000000E-01;  0.0000000E+00;0;  0.0000000E+00;  0.0000000E+00;  0.0000000E+00;0; -1.6455911E-05;  4.0000000E+04;  0.0000000E+00;  0.0000000E+00;  4.0000000E+04;  0.0000000E+00;  4.0000000E+04; -2.3605025E-05;  0.0000000E+00;  7.1491140E-06;  2.2322891E+02;
 -1.1000000E-01;  9.9999998E-03;  9.9999998E-03;863;  0.0000000E+00;  0.0000000E+00;  0.0000000E+00;  1.0000000E+03;  1.0000000E-01;  0.0000000E+00;0;  0.0000000E+00;  0.0000000E+00;  0.0000000E+00;0; -1.5756823E-05;  4.0000000E+04;  0.0000000E+00;  0.0000000E+00;  4.0000000E+04;  0.0000000E+00;  4.0000000E+04; -2.2790922E-05;  0.0000000E+00;  7.0340993E-06;  2.2337071E+02;
 -1.1000000E-01;  9.9999998E-03;  2.0000000E-02;864;  0.0000000E+00;  0.0000000E+00;  0.0000000E+00;  1.0000000E+03;  1.0000000E-01;  0.0000000E+00;0;  0.0000000E+00;  0.0000000E+00;  0.0000000E+00;0; -1.3731116E-05;  4.0000000E+04;  0.0000000E+00;  0.0000000E+00;  4.0000000E+04;  0.0000000E+00;  4.0000000E+04; -2.0439502E-05;  0.0000000E+00;  6.7083852E-06;  2.2371698E+02;
 -1.1000000E-01;  9.9999998E-03;  2.9999999E-02;865;  0.0000000E+00;  0.0000000E+00;  0.0000000E+00;  1.0000000E+03;  1.0000000E-01;  0.0000000E+00;0;  0.0000000E+00;  0.0000000E+00;  0.0000000E+00;0; -1.0588785E-05;  4.0000000E+04;  0.0000000E+00;  0.0000000E+00;  4.0000000E+04;  0.0000000E+00;  4.0000000E+04; -1.6815744E-05;  0.0000000E+00;  6.2269596E-06;  2.2406650E+02;
 -1.1000000E-01;  9.9999998E-03;  3.9999999E-02;866;  0.0000000E+00;  0.0000000E+00;  0.0000000E+00;  1.0000000E+03;  1.0000000E-01;  0.0000000E+00;0;  0.0000000E+00;  0.0000000E+00;  0.0000000E+00;0; -6.6630851E-06;  4.0000000E+04;  0.0000000E+00;  0.0000000E+00;  4.0000000E+04;  0.0000000E+00;  4.0000000E+04; -1.2334962E-05;  0.0000000E+00;  5.6718768E-06;  2.2413948E+02;
 -1.1000000E-01;  9.9999998E-03;  5.0000001E-02;867;  0.0000000E+00;  0.0000000E+00;  0.0000000E+00;  1.0000000E+03;  1.0000000E-01;  0.0000000E+00;0;  0.0000000E+00;  0.0000000E+00;  0.0000000E+00;0; -2.3825405E-06;  4.0000000E+04;  0.0000000E+00;  0.0000000E+00;  4.0000000E+04;  0.0000000E+00;  4.0000000E+04; -7.5230337E-06;  0.0000000E+00;  5.1404932E-06;  2.2365164E+02;
 -1.1000000E-01;  9.9999998E-03;  5.9999999E-02;868;  0.0000000E+00;  0.0000000E+00;  0.0000000E+00;  1.0000000E+03;  1.0000000E-01;  0.0000000E+00;0;  0.0000000E+00;  0.0000000E+00;  0.0000000E+00;0;  1.7764864E-06;  4.0000000E+04;  0.0000000E+00;  0.0000000E+00;  4.0000000E+04;  0.0000000E+00;  4.0000000E+04; -2.9564758E-06;  0.0000000E+00;  4.7329622E-06;  2.2238570E+02;
 -1.0000000E-01;  9.9999998E-03; -1.0000000E-01;943;  0.0000000E+00;  0.0000000E+00;  0.0000000E+00;  1.0000361E+03;  1.0000000E-01;  2.9925079E+01;0;  0.0000000E+00;  0.0000000E+00;  0.0000000E+00;0; -1.2603142E-04;  4.0000000E+04;  0.0000000E+00;  0.0000000E+00;  4.0000000E+04;  0.0000000E+00;  4.0000000E+04; -1.3854841E-04;  0.0000000E+00;  1.2516986E-05;  3.3755276E+02;
 -1.0000000E-01;  9.9999998E-03; -9.0000004E-02;944;  0.0000000E+00;  0.0000000E+00;  0.0000000E+00;  1.0000246E+03;  1.0000000E-01;  2.0345104E+01;0;  0.0000000E+00;  0.0000000E+00;  0.0000000E+00;0; -1.2739653E-04;  4.0000000E+04;  0.0000000E+00;  0.0000000E+00;  4.0000000E+04;  0.0000000E+00;  4.0000000E+04; -1.3836740E-04;  0.0000000E+00;  1.0970870E-05;  3.4565955E+02;
 -1.0000000E-01;  9.9999998E-03; -7.9999998E-02;945;  0.0000000E+00;  0.0000000E+00;  0.0000000E+00;  1.0000124E+03;  1.0000000E-01;  1.0271315E+01;0;  0.0000000E+00;  0.0000000E+00;  0.0000000E+00;0; -1.3009043E-04;  4.0000000E+04;  0.0000000E+00;  0.0000000E+00;  4.0000000E+04;  0.0000000E+00;  4.0000000E+04; -1.4019615E-04;  0.0000000E+00;  1.0105722E-05;  3.5300595E+02;
 -1.0000000E-01;  9.9999998E-03; -7.0000000E-02;946;  0.0000000E+00;  0.0000000E+00;  0.0000000E+00;  1.0000035E+03;  1.0000000E-01;  2.8641164E+00;0;  0.0000000E+00;  0.0000000E+00;  0.0000000E+00;0; -1.3429097E-04;  4.0000000E+04;  0.0000000E+00;  0.0000000E+00;  4.0000000E+04;  0.0000000E+00;  4.0000000E+04; -1.4417231E-04;  0.0000000E+00;  9.8813507E-06;  3.5905481E+02;
 -1.0000000E-01;  9.9999998E-03; -5.9999999E-02;947;  0.0000000E+00;  0.0000000E+00;  0.0000000E+00;  1.0000000E+03;  1.0000000E-01;  0.0000000E+00;0;  0.0000000E+00;  0.0000000E+00;  0.0000000E+00;0; -1.3979350E-04;  4.0000000E+04;  0.0000000E+00;  0.0000000E+00;  4.0000000E+04;  0.0000000E+00;  4.0000000E+04; -1.4999862E-04;  0.0000000E+00;  1.0205132E-05;  3.6350882E+02;
 -1.0000000E-01;  9.9999998E-03; -5.0000001E-02;948;  0.0000000E+00;  0.0000000E+00;  0.0000000E+00;  1.0000000E+03;  1.0000000E-01;  0.0000000E+00;0;  0.0000000E+00;  0.0000000E+00;  0.0000000E+00;0; -1.4610947E-04;  4.0000000E+04;  0.0000000E+00;  0.0000000E+00;  4.0000000E+04;  0.0000000E+00;  4.0000000E+04; -1.5704763E-04;  0.0000000E+00;  1.0938165E-05;  3.6633667E+02;
 -1.0000000E-01;  9.9999998E-03; -3.9999999E-02;949;  0.0000000E+00;  0.0000000E+00;  0.0000000E+00;  1.0000000E+03;  1.0000000E-01;  0.0000000E+00;0;  0.0000000E+00;  0.0000000E+00;  0.0000000E+00;0; -1.5258684E-04;  4.0000000E+04;  0.0000000E+00;  0.0000000E+00;  4.0000000E+04;  0.0000000E+00;  4.0000000E+04; -1.6449452E-04;  0.0000000E+00;  1.1907674E-05;  3.6774564E+02;
 -1.0000000E-01;  9.9999998E-03; -2.9999999E-02;950;  0.0000000E+00;  0.0000000E+00;  0.0000000E+00;  1.0000000E+03;  1.0000000E-01;  0.0000000E+00;0;  0.0000000E+00;  0.0000000E+00;  0.0000000E+00;0; -1.5852776E-04;  4.0000000E+04;  0.0000000E+00;  0.0000000E+00;  4.0000000E+04;  0.0000000E+00;  4.0000000E+04; -1.7145291E-04;  0.0000000E+00;  1.2925138E-05;  3.6811890E+02;
 -1.0000000E-01;  9.9999998E-03; -2.0000000E-02;951;  0.0000000E+00;  0.0000000E+00;  0.0000000E+00;  1.0000000E+03;  1.0000000E-01;  0.0000000E+00;0;  0.0000000E+00;  0.0000000E+00;  0.0000000E+00;0; -1.6328985E-04;  4.0000000E+04;  0.0000000E+00;  0.0000000E+00;  4.0000000E+04;  0.0000000E+00;  4.0000000E+04; -1.7709851E-04;  0.0000000E+00;  1.3808664E-05;  3.6792770E+02;
 -1.0000000E-01;  9.9999998E-03; -9.9999998E-03;952;  0.0000000E+00;  0.0000000E+00;  0.0000000E+00;  1.0000000E+03;  1.0000000E-01;  0.0000000E+00;0;  0.0000000E+00;  0.0000000E+00;  0.0000000E+00;0; -1.6636350E-04;  4.0000000E+04;  0.0000000E+00;  0.0000000E+00;  4.0000000E+04;  0.0000000E+00;  4.0000000E+04; -1.8076990E-04;  0.0000000E+00;  1.4406398E-05;  3.6760349E+02;
 -1.0000000E-01;  9.9999998E-03;  0.0000000E+00;953;  0.0000000E+00;  0.0000000E+00;  0.0000000E+00;  1.0000000E+03;  1.0000000E-01;  0.0000000E+00;0;  0.0000000E+00;  0.0000000E+00;  0.0000000E+00;0; -1.6742502E-04;  4.0000000E+04;  0.0000000E+00;  0.0000000E+00;  4.0000000E+04;  0.0000000E+00;  4.0000000E+04; -1.8204248E-04;  0.0000000E+00;  1.4617458E-05;  3.6745990E+02;
 -1.0000000E-01;  9.9999998E-03;  9.9999998E-03;954;  0.0000000E+00;  0.0000000E+00;  0.0000000E+00;  1.0000000E+03;  1.0000000E-01;  0.0000000E+00;0;  0.0000000E+00;  0.0000000E+00;  0.0000000E+00;0; -1.6636307E-04;  4.0000000E+04;  0.0000000E+00;  0.0000000E+00;  4.0000000E+04;  0.0000000E+00;  4.0000000E+04; -1.8076952E-04;  0.0000000E+00;  1.4406453E-05;  3.6760382E+02;
 -1.0000000E-01;  9.9999998E-03;  2.0000000E-02;955;  0.0000000E+00;  0.0000000E+00;  0.0000000E+00;  1.0000000E+03;  1.0000000E-01;  0.0000000E+00;0;  0.0000000E+00;  0.0000000E+00;  0.0000000E+00;0; -1.6328892E-04;  4.0000000E+04;  0.0000000E+00;  0.0000000E+00;  4.0000000E+04;  0.0000000E+00;  4.0000000E+04; -1.7709771E-04;  0.0000000E+00;  1.3808786E-05;  3.6792844E+02;
 -1.0000000E-01;  9.9999998E-03;  2.9999999E-02;956;  0.0000000E+00;  0.0000000E+00;  0.0000000E+00;  1.0000000E+03;  1.0000000E-01;  0.0000000E+00;0;  0.0000000E+00;  0.0000000E+00;  0.0000000E+00;0; -1.5852679E-04;  4.0000000E+04;  0.0000000E+00;  0.0000000E+00;  4.0000000E+04;  0.0000000E+00;  4.0000000E+04; -1.7145211E-04;  0.0000000E+00;  1.2925321E-05;  3.6811996E+02;
 -1.0000000E-01;  9.9999998E-03;  3.9999999E-02;957;  0.0000000E+00;  0.0000000E+00;  0.0000000E+00;  1.0000000E+03;  1.0000000E-01;  0.0000000E+00;0;  0.0000000E+00;  0.0000000E+00;  0.0000000E+00;0; -1.5258587E-04;  4.0000000E+04;  0.0000000E+00;  0.0000000E+00;  4.0000000E+04;  0.0000000E+00;  4.0000000E+04; -1.6449377E-04;  0.0000000E+00;  1.1907902E-05;  3.6774710E+02;
 -1.0000000E-01;  9.9999998E-03;  5.0000001E-02;958;  0.0000000E+00;  0.0000000E+00;  0.0000000E+00;  1.0000000E+03;  1.0000000E-01;  0.0000000E+00;0;  0.0000000E+00;  0.0000000E+00;  0.0000000E+00;0; -1.4610858E-04;  4.0000000E+04;  0.0000000E+00;  0.0000000E+00;  4.0000000E+04;  0.0000000E+00;  4.0000000E+04; -1.5704703E-04;  0.0000000E+00;  1.0938460E-05;  3.6633792E+02;
 -1.0000000E-01;  9.9999998E-03;  5.9999999E-02;959;  0.0000000E+00;  0.0000000E+00;  0.0000000E+00;  1.0000000E+03;  1.0000000E-01;  0.0000000E+00;0;  0.0000000E+00;  0.0000000E+00;  0.0000000E+00;0; -1.3979312E-04;  4.0000000E+04;  0.0000000E+00;  0.0000000E+00;  4.0000000E+04;  0.0000000E+00;  4.0000000E+04; -1.4999860E-04;  0.0000000E+00;  1.0205477E-05;  3.6351013E+02;
 -9.0000004E-02;  9.9999998E-03; -1.0000000E-01;1034;  0.0000000E+00;  0.0000000E+00;  0.0000000E+00;  1.0002501E+03;  1.0000000E-01;  2.0720401E+02;0;  0.0000000E+00;  0.0000000E+00;  0.0000000E+00;0; -4.2030695E-04;  4.0000000E+04;  0.0000000E+00;  0.0000000E+00;  4.0000000E+04;  0.0000000E+00;  4.0000000E+04; -4.4393740E-04;  0.0000000E+00;  2.3630446E-05;  5.0058115E+02;
 -9.0000004E-02;  9.9999998E-03; -9.0000004E-02;1035;  0.0000000E+00;  0.0000000E+00;  0.0000000E+00;  1.0002413E+03;  1.0000000E-01;  1.9989558E+02;0;  0.0000000E+00;  0.0000000E+00;  0.0000000E+00;0; -4.2329030E-04;  4.0000000E+04;  0.0000000E+00;  0.0000000E+00;  4.0000000E+04;  0.0000000E+00;  4.0000000E+04; -4.4430402E-04;  0.0000000E+00;  2.1013710E-05;  5.1473816E+02;
 -9.0000004E-02;  9.9999998E-03; -7.9999998E-02;1036;  0.0000000E+00;  0.0000000E+00;  0.0000000E+00;  1.0002294E+03;  1.0000000E-01;  1.9011807E+02;0;  0.0000000E+00;  0.0000000E+00;  0.0000000E+00;0; -4.2778719E-04;  4.0000000E+04;  0.0000000E+00;  0.0000000E+00;  4.0000000E+04;  0.0000000E+00;  4.0000000E+04; -4.4730559E-04;  0.0000000E+00;  1.9518404E-05;  5.2767511E+02;
 -9.0000004E-02;  9.9999998E-03; -7.0000000E-02;1037;  0.0000000E+00;  0.0000000E+00;  0.0000000E+00;  1.0002184E+03;  1.0000000E-01;  1.8093315E+02;0;  0.0000000E+00;  0.0000000E+00;  0.0000000E+00;0; -4.3413640E-04;  4.0000000E+04;  0.0000000E+00;  0.0000000E+00;  4.0000000E+04;  0.0000000E+00;  4.0000000E+04; -4.5323031E-04;  0.0000000E+00;  1.9093919E-05;  5.3846472E+02;
 -9.0000004E-02;  9.9999998E-03; -5.9999999E-02;1038;  0.0000000E+00;  0.0000000E+00;  0.0000000E+00;  1.0002094E+03;  1.0000000E-01;  1.7352596E+02;0;  0.0000000E+00;  0.0000000E+00;  0.0000000E+00;0; -4.4213433E-04;  4.0000000E+04;  0.0000000E+00;  0.0000000E+00;  4.0000000E+04;  0.0000000E+00;  4.0000000E+04; -4.6172985E-04;  0.0000000E+00;  1.9595533E-05;  5.4661041E+02;
 -9.0000004E-02;  9.9999998E-03; -5.0000001E-02;1039;  0.0000000E+00;  0.0000000E+00;  0.0000000E+00;  1.0001993E+03;  1.0000000E-01;  1.6513113E+02;0;  0.0000000E+00;  0.0000000E+00;  0.0000000E+00;0; -4.5116409E-04;  4.0000000E+04;  0.0000000E+00;  0.0000000E+00;  4.0000000E+04;  0.0000000E+00;  4.0000000E+04; -4.7195939E-04;  0.0000000E+00;  2.0795296E-05;  5.5206488E+02;
 -9.0000004E-02;  9.9999998E-03; -3.9999999E-02;1040;  0.0000000E+00;  0.0000000E+00;  0.0000000E+00;  1.0001920E+03;  1.0000000E-01;  1.5910661E+02;0;  0.0000000E+00;  0.0000000E+00;  0.0000000E+00;0; -4.6035924E-04;  4.0000000E+04;  0.0000000E+00;  0.0000000E+00;  4.0000000E+04;  0.0000000E+00;  4.0000000E+04; -4.8276279E-04;  0.0000000E+00;  2.2403547E-05;  5.5514948E+02;
 -9.0000004E-02;  9.9999998E-03; -2.9999999E-02;1041;  0.0000000E+00;  0.0000000E+00;  0.0000000E+00;  1.0001868E+03;  1.0000000E-01;  1.5476106E+02;0;  0.0000000E+00;  0.0000000E+00;  0.0000000E+00;0; -4.6876850E-04;  4.0000000E+04;  0.0000000E+00;  0.0000000E+00;  4.0000000E+04;  0.0000000E+00;  4.0000000E+04; -4.9286964E-04;  0.0000000E+00;  2.4101133E-05;  5.5646344E+02;
 -9.0000004E-02;  9.9999998E-03; -2.0000000E-02;1042;  0.0000000E+00;  0.0000000E+00;  0.0000000E+00;  1.0001833E+03;  1.0000000E-01;  1.5189694E+02;0;  0.0000000E+00;  0.0000000E+00;  0.0000000E+00;0; -4.7550368E-04;  4.0000000E+04;  0.0000000E+00;  0.0000000E+00;  4.0000000E+04;  0.0000000E+00;  4.0000000E+04; -5.0108298E-04;  0.0000000E+00;  2.5579309E-05;  5.5671570E+02;
 -9.0000004E-02;  9.9999998E-03; -9.9999998E-03;1043;  0.0000000E+00;  0.0000000E+00;  0.0000000E+00;  1.0001810E+03;  1.0000000E-01;  1.4992169E+02;0;  0.0000000E+00;  0.0000000E+00;  0.0000000E+00;0; -4.7985071E-04;  4.0000000E+04;  0.0000000E+00;  0.0000000E+00;  4.0000000E+04;  0.0000000E+00;  4.0000000E+04; -5.0643127E-04;  0.0000000E+00;  2.6580545E-05;  5.5656311E+02;
 -9.0000004E-02;  9.9999998E-03;  0.0000000E+00;1044;  0.0000000E+00;  0.0000000E+00;  0.0000000E+00;  1.0001796E+03;  1.0000000E-01;  1.4873654E+02;0;  0.0000000E+00;  0.0000000E+00;  0.0000000E+00;0; -4.8135244E-04;  4.0000000E+04;  0.0000000E+00;  0.0000000E+00;  4.0000000E+04;  0.0000000E+00;  4.0000000E+04; -5.0828670E-04;  0.0000000E+00;  2.6934265E-05;  5.5645886E+02;
 -9.0000004E-02;  9.9999998E-03;  9.9999998E-03;1045;  0.0000000E+00;  0.0000000E+00;  0.0000000E+00;  1.0001810E+03;  1.0000000E-01;  1.4992169E+02;0;  0.0000000E+00;  0.0000000E+00;  0.0000000E+00;0; -4.7984993E-04;  4.0000000E+04;  0.0000000E+00;  0.0000000E+00;  4.0000000E+04;  0.0000000E+00;  4.0000000E+04; -5.0643057E-04;  0.0000000E+00;  2.6580659E-05;  5.5656396E+02;
 -9.0000004E-02;  9.9999998E-03;  2.0000000E-02;1046;  0.0000000E+00;  0.0000000E+00;  0.0000000E+00;  1.0001833E+03;  1.0000000E-01;  1.5189694E+02;0;  0.0000000E+00;  0.0000000E+00;  0.0000000E+00;0; -4.7550272E-04;  4.0000000E+04;  0.0000000E+00;  0.0000000E+00;  4.0000000E+04;  0.0000000E+00;  4.0000000E+04; -5.0108222E-04;  0.0000000E+00;  2.5579515E-05;  5.5671655E+02;
 -9.0000004E-02;  9.9999998E-03;  2.9999999E-02;1047;  0.0000000E+00;  0.0000000E+00;  0.0000000E+00;  1.0001868E+03;  1.0000000E-01;  1.5476106E+02;0;  0.0000000E+00;  0.0000000E+00;  0.0000000E+00;0; -4.6876710E-04;  4.0000000E+04;  0.0000000E+00;  0.0000000E+00;  4.0000000E+04;  0.0000000E+00;  4.0000000E+04; -4.9286860E-04;  0.0000000E+00;  2.4101491E-05;  5.5646613E+02;
 -9.0000004E-02;  9.9999998E-03;  3.9999999E-02;1048;  0.0000000E+00;  0.0000000E+00;  0.0000000E+00;  1.0001920E+03;  1.0000000E-01;  1.5900784E+02;0;  0.0000000E+00;  0.0000000E+00;  0.0000000E+00;0; -4.6035793E-04;  4.0000000E+04;  0.0000000E+00;  0.0000000E+00;  4.0000000E+04;  0.0000000E+00;  4.0000000E+04; -4.8276194E-04;  0.0000000E+00;  2.2404003E-05;  5.5515149E+02;
 -9.0000004E-02;  9.9999998E-03;  5.0000001E-02;1049;  0.0000000E+00;  0.0000000E+00;  0.0000000E+00;  1.0001993E+03;  1.0000000E-01;  1.6513113E+02;0;  0.0000000E+00;  0.0000000E+00;  0.0000000E+00;0; -4.5116292E-04;  4.0000000E+04;  0.0000000E+00;  0.0000000E+00;  4.0000000E+04;  0.0000000E+00;  4.0000000E+04; -4.7195877E-04;  0.0000000E+00;  2.0795856E-05;  5.5206689E+02;
 -9.0000004E-02;  9.9999998E-03;  5.9999999E-02;1050;  0.0000000E+00;  0.0000000E+00;  0.0000000E+00;  1.0002094E+03;  1.0000000E-01;  1.7352596E+02;0;  0.0000000E+00;  0.0000000E+00;  0.0000000E+00;0; -4.4213398E-04;  4.0000000E+04;  0.0000000E+00;  0.0000000E+00;  4.0000000E+04;  0.0000000E+00;  4.0000000E+04; -4.6173015E-04;  0.0000000E+00;  1.9596169E-05;  5.4661090E+02;
 -7.9999998E-02;  9.9999998E-03; -1.0000000E-01;1125;  0.0000000E+00;  0.0000000E+00;  0.0000000E+00;  1.0006706E+03;  1.0000000E-01;  5.5553986E+02;0;  0.0000000E+00;  0.0000000E+00;  0.0000000E+00;0; -9.4118470E-04;  4.0000000E+04;  0.0000000E+00;  0.0000000E+00;  4.0000000E+04;  0.0000000E+00;  4.0000000E+04; -9.8185043E-04;  0.0000000E+00;  4.0665735E-05;  6.9576544E+02;
 -7.9999998E-02;  9.9999998E-03; -9.0000004E-02;1126;  0.0000000E+00;  0.0000000E+00;  0.0000000E+00;  1.0006555E+03;  1.0000000E-01;  5.4309576E+02;0;  0.0000000E+00;  0.0000000E+00;  0.0000000E+00;0; -9.4657223E-04;  4.0000000E+04;  0.0000000E+00;  0.0000000E+00;  4.0000000E+04;  0.0000000E+00;  4.0000000E+04; -9.8323729E-04;  0.0000000E+00;  3.6665075E-05;  7.1803119E+02;
 -7.9999998E-02;  9.9999998E-03; -7.9999998E-02;1127;  0.0000000E+00;  0.0000000E+00;  0.0000000E+00;  1.0006401E+03;  1.0000000E-01;  5.3025659E+02;0;  0.0000000E+00;  0.0000000E+00;  0.0000000E+00;0; -9.5358840E-04;  4.0000000E+04;  0.0000000E+00;  0.0000000E+00;  4.0000000E+04;  0.0000000E+00;  4.0000000E+04; -9.8793011E-04;  0.0000000E+00;  3.4341701E-05;  7.3863110E+02;
 -7.9999998E-02;  9.9999998E-03; -7.0000000E-02;1128;  0.0000000E+00;  0.0000000E+00;  0.0000000E+00;  1.0006252E+03;  1.0000000E-01;  5.1801007E+02;0;  0.0000000E+00;  0.0000000E+00;  0.0000000E+00;0; -9.6277671E-04;  4.0000000E+04;  0.0000000E+00;  0.0000000E+00;  4.0000000E+04;  0.0000000E+00;  4.0000000E+04; -9.9642645E-04;  0.0000000E+00;  3.3649711E-05;  7.5607733E+02;
 -7.9999998E-02;  9.9999998E-03; -5.9999999E-02;1129;  0.0000000E+00;  0.0000000E+00;  0.0000000E+00;  1.0006103E+03;  1.0000000E-01;  5.0556595E+02;0;  0.0000000E+00;  0.0000000E+00;  0.0000000E+00;0; -9.7394362E-04;  4.0000000E+04;  0.0000000E+00;  0.0000000E+00;  4.0000000E+04;  0.0000000E+00;  4.0000000E+04; -1.0083338E-03;  0.0000000E+00;  3.4390141E-05;  7.6956378E+02;
 -7.9999998E-02;  9.9999998E-03; -5.0000001E-02;1130;  0.0000000E+00;  0.0000000E+00;  0.0000000E+00;  1.0005978E+03;  1.0000000E-01;  4.9529465E+02;0;  0.0000000E+00;  0.0000000E+00;  0.0000000E+00;0; -9.8632823E-04;  4.0000000E+04;  0.0000000E+00;  0.0000000E+00;  4.0000000E+04;  0.0000000E+00;  4.0000000E+04; -1.0225537E-03;  0.0000000E+00;  3.6225403E-05;  7.7895898E+02;
 -7.9999998E-02;  9.9999998E-03; -3.9999999E-02;1131;  0.0000000E+00;  0.0000000E+00;  0.0000000E+00;  1.0005888E+03;  1.0000000E-01;  4.8778867E+02;0;  0.0000000E+00;  0.0000000E+00;  0.0000000E+00;0; -9.9882472E-04;  4.0000000E+04;  0.0000000E+00;  0.0000000E+00;  4.0000000E+04;  0.0000000E+00;  4.0000000E+04; -1.0375365E-03;  0.0000000E+00;  3.8711860E-05;  7.8469281E+02;
 -7.9999998E-02;  9.9999998E-03; -2.9999999E-02;1132;  0.0000000E+00;  0.0000000E+00;  0.0000000E+00;  1.0005820E+03;  1.0000000E-01;  4.8215921E+02;0;  0.0000000E+00;  0.0000000E+00;  0.0000000E+00;0; -1.0101952E-03;  4.0000000E+04;  0.0000000E+00;  0.0000000E+00;  4.0000000E+04;  0.0000000E+00;  4.0000000E+04; -1.0515468E-03;  0.0000000E+00;  4.1351566E-05;  7.8760559E+02;
 -7.9999998E-02;  9.9999998E-03; -2.0000000E-02;1133;  0.0000000E+00;  0.0000000E+00;  0.0000000E+00;  1.0005768E+03;  1.0000000E-01;  4.7791241E+02;0;  0.0000000E+00;  0.0000000E+00;  0.0000000E+00;0; -1.0192788E-03;  4.0000000E+04;  0.0000000E+00;  0.0000000E+00;  4.0000000E+04;  0.0000000E+00;  4.0000000E+04; -1.0629366E-03;  0.0000000E+00;  4.3657892E-05;  7.8870490E+02;
 -7.9999998E-02;  9.9999998E-03; -9.9999998E-03;1134;  0.0000000E+00;  0.0000000E+00;  0.0000000E+00;  1.0005743E+03;  1.0000000E-01;  4.7583838E+02;0;  0.0000000E+00;  0.0000000E+00;  0.0000000E+00;0; -1.0251347E-03;  4.0000000E+04;  0.0000000E+00;  0.0000000E+00;  4.0000000E+04;  0.0000000E+00;  4.0000000E+04; -1.0703577E-03;  0.0000000E+00;  4.5223045E-05;  7.8892261E+02;
 -7.9999998E-02;  9.9999998E-03;  0.0000000E+00;1135;  0.0000000E+00;  0.0000000E+00;  0.0000000E+00;  1.0005736E+03;  1.0000000E-01;  4.7524582E+02;0;  0.0000000E+00;  0.0000000E+00;  0.0000000E+00;0; -1.0271561E-03;  4.0000000E+04;  0.0000000E+00;  0.0000000E+00;  4.0000000E+04;  0.0000000E+00;  4.0000000E+04; -1.0729326E-03;  0.0000000E+00;  4.5776524E-05;  7.8892029E+02;
 -7.9999998E-02;  9.9999998E-03;  9.9999998E-03;1136;  0.0000000E+00;  0.0000000E+00;  0.0000000E+00;  1.0005743E+03;  1.0000000E-01;  4.7583838E+02;0;  0.0000000E+00;  0.0000000E+00;  0.0000000E+00;0; -1.0251339E-03;  4.0000000E+04;  0.0000000E+00;  0.0000000E+00;  4.0000000E+04;  0.0000000E+00;  4.0000000E+04; -1.0703572E-03;  0.0000000E+00;  4.5223289E-05;  7.8892340E+02;
 -7.9999998E-02;  9.9999998E-03;  2.0000000E-02;1137;  0.0000000E+00;  0.0000000E+00;  0.0000000E+00;  1.0005768E+03;  1.0000000E-01;  4.7791241E+02;0;  0.0000000E+00;  0.0000000E+00;  0.0000000E+00;0; -1.0192774E-03;  4.0000000E+04;  0.0000000E+00;  0.0000000E+00;  4.0000000E+04;  0.0000000E+00;  4.0000000E+04; -1.0629357E-03;  0.0000000E+00;  4.3658274E-05;  7.8870728E+02;
 -7.9999998E-02;  9.9999998E-03;  2.9999999E-02;1138;  0.0000000E+00;  0.0000000E+00;  0.0000000E+00;  1.0005820E+03;  1.0000000E-01;  4.8215921E+02;0;  0.0000000E+00;  0.0000000E+00;  0.0000000E+00;0; -1.0101936E-03;  4.0000000E+04;  0.0000000E+00;  0.0000000E+00;  4.0000000E+04;  0.0000000E+00;  4.0000000E+04; -1.0515457E-03;  0.0000000E+00;  4.1352123E-05;  7.8760815E+02;
 -7.9999998E-02;  9.9999998E-03;  3.9999999E-02;1139;  0.0000000E+00;  0.0000000E+00;  0.0000000E+00;  1.0005888E+03;  1.0000000E-01;  4.8778867E+02;0;  0.0000000E+00;  0.0000000E+00;  0.0000000E+00;0; -9.9882216E-04;  4.0000000E+04;  0.0000000E+00;  0.0000000E+00;  4.0000000E+04;  0.0000000E+00;  4.0000000E+04; -1.0375348E-03;  0.0000000E+00;  3.8712624E-05;  7.8469427E+02;
 -7.9999998E-02;  9.9999998E-03;  5.0000001E-02;1140;  0.0000000E+00;  0.0000000E+00;  0.0000000E+00;  1.0005978E+03;  1.0000000E-01;  4.9529465E+02;0;  0.0000000E+00;  0.0000000E+00;  0.0000000E+00;0; -9.8632718E-04;  4.0000000E+04;  0.0000000E+00;  0.0000000E+00;  4.0000000E+04;  0.0000000E+00;  4.0000000E+04; -1.0225535E-03;  0.0000000E+00;  3.6226334E-05;  7.7896106E+02;
 -7.9999998E-02;  9.9999998E-03;  5.9999999E-02;1141;  0.0000000E+00;  0.0000000E+00;  0.0000000E+00;  1.0006103E+03;  1.0000000E-01;  5.0556595E+02;0;  0.0000000E+00;  0.0000000E+00;  0.0000000E+00;0; -9.7394321E-04;  4.0000000E+04;  0.0000000E+00;  0.0000000E+00;  4.0000000E+04;  0.0000000E+00;  4.0000000E+04; -1.0083343E-03;  0.0000000E+00;  3.4391149E-05;  7.6956750E+02;
 -7.0000000E-02;  9.9999998E-03; -1.0000000E-01;1216;  0.0000000E+00;  0.0000000E+00;  0.0000000E+00;  1.0013672E+03;  1.0000000E-01;  1.1327087E+03;0;  0.0000000E+00;  0.0000000E+00;  0.0000000E+00;0; -1.7573209E-03;  4.0000000E+04;  0.0000000E+00;  0.0000000E+00;  4.0000000E+04;  0.0000000E+00;  4.0000000E+04; -1.8222521E-03;  0.0000000E+00;  6.4931162E-05;  9.1564453E+02;
 -7.0000000E-02;  9.9999998E-03; -9.0000004E-02;1217;  0.0000000E+00;  0.0000000E+00;  0.0000000E+00;  1.0013493E+03;  1.0000000E-01;  1.1178943E+03;0;  0.0000000E+00;  0.0000000E+00;  0.0000000E+00;0; -1.7658601E-03;  4.0000000E+04;  0.0000000E+00;  0.0000000E+00;  4.0000000E+04;  0.0000000E+00;  4.0000000E+04; -1.8251933E-03;  0.0000000E+00;  5.9333113E-05;  9.4778156E+02;
 -7.0000000E-02;  9.9999998E-03; -7.9999998E-02;1218;  0.0000000E+00;  0.0000000E+00;  0.0000000E+00;  1.0013254E+03;  1.0000000E-01;  1.0981417E+03;0;  0.0000000E+00;  0.0000000E+00;  0.0000000E+00;0; -1.7761264E-03;  4.0000000E+04;  0.0000000E+00;  0.0000000E+00;  4.0000000E+04;  0.0000000E+00;  4.0000000E+04; -1.8321740E-03;  0.0000000E+00;  5.6047600E-05;  9.7795129E+02;
 -7.0000000E-02;  9.9999998E-03; -7.0000000E-02;1219;  0.0000000E+00;  0.0000000E+00;  0.0000000E+00;  1.0013028E+03;  1.0000000E-01;  1.0793768E+03;0;  0.0000000E+00;  0.0000000E+00;  0.0000000E+00;0; -1.7888938E-03;  4.0000000E+04;  0.0000000E+00;  0.0000000E+00;  4.0000000E+04;  0.0000000E+00;  4.0000000E+04; -1.8439548E-03;  0.0000000E+00;  5.5061009E-05;  1.0039269E+03;
 -7.0000000E-02;  9.9999998E-03; -5.9999999E-02;1220;  0.0000000E+00;  0.0000000E+00;  0.0000000E+00;  1.0012844E+03;  1.0000000E-01;  1.0641675E+03;0;  0.0000000E+00;  0.0000000E+00;  0.0000000E+00;0; -1.8039687E-03;  4.0000000E+04;  0.0000000E+00;  0.0000000E+00;  4.0000000E+04;  0.0000000E+00;  4.0000000E+04; -1.8600994E-03;  0.0000000E+00;  5.6130644E-05;  1.0244510E+03;
 -7.0000000E-02;  9.9999998E-03; -5.0000001E-02;1221;  0.0000000E+00;  0.0000000E+00;  0.0000000E+00;  1.0012670E+03;  1.0000000E-01;  1.0497480E+03;0;  0.0000000E+00;  0.0000000E+00;  0.0000000E+00;0; -1.8204150E-03;  4.0000000E+04;  0.0000000E+00;  0.0000000E+00;  4.0000000E+04;  0.0000000E+00;  4.0000000E+04; -1.8792138E-03;  0.0000000E+00;  5.8798774E-05;  1.0392078E+03;
 -7.0000000E-02;  9.9999998E-03; -3.9999999E-02;1222;  0.0000000E+00;  0.0000000E+00;  0.0000000E+00;  1.0012503E+03;  1.0000000E-01;  1.0358225E+03;0;  0.0000000E+00;  0.0000000E+00;  0.0000000E+00;0; -1.8368461E-03;  4.0000000E+04;  0.0000000E+00;  0.0000000E+00;  4.0000000E+04;  0.0000000E+00;  4.0000000E+04; -1.8992819E-03;  0.0000000E+00;  6.2435771E-05;  1.0486978E+03;
 -7.0000000E-02;  9.9999998E-03; -2.9999999E-02;1223;  0.0000000E+00;  0.0000000E+00;  0.0000000E+00;  1.0012402E+03;  1.0000000E-01;  1.0274277E+03;0;  0.0000000E+00;  0.0000000E+00;  0.0000000E+00;0; -1.8517054E-03;  4.0000000E+04;  0.0000000E+00;  0.0000000E+00;  4.0000000E+04;  0.0000000E+00;  4.0000000E+04; -1.9180216E-03;  0.0000000E+00;  6.6316235E-05;  1.0539906E+03;
 -7.0000000E-02;  9.9999998E-03; -2.0000000E-02;1224;  0.0000000E+00;  0.0000000E+00;  0.0000000E+00;  1.0012324E+03;  1.0000000E-01;  1.0210082E+03;0;  0.0000000E+00;  0.0000000E+00;  0.0000000E+00;0; -1.8635297E-03;  4.0000000E+04;  0.0000000E+00;  0.0000000E+00;  4.0000000E+04;  0.0000000E+00;  4.0000000E+04; -1.9332487E-03;  0.0000000E+00;  6.9718990E-05;  1.0564244E+03;
 -7.0000000E-02;  9.9999998E-03; -9.9999998E-03;1225;  0.0000000E+00;  0.0000000E+00;  0.0000000E+00;  1.0012288E+03;  1.0000000E-01;  1.0180453E+03;0;  0.0000000E+00;  0.0000000E+00;  0.0000000E+00;0; -1.8711331E-03;  4.0000000E+04;  0.0000000E+00;  0.0000000E+00;  4.0000000E+04;  0.0000000E+00;  4.0000000E+04; -1.9431668E-03;  0.0000000E+00;  7.2033756E-05;  1.0572797E+03;
 -7.0000000E-02;  9.9999998E-03;  0.0000000E+00;1226;  0.0000000E+00;  0.0000000E+00;  0.0000000E+00;  1.0012277E+03;  1.0000000E-01;  1.0170577E+03;0;  0.0000000E+00;  0.0000000E+00;  0.0000000E+00;0; -1.8737568E-03;  4.0000000E+04;  0.0000000E+00;  0.0000000E+00;  4.0000000E+04;  0.0000000E+00;  4.0000000E+04; -1.9466098E-03;  0.0000000E+00;  7.2853087E-05;  1.0574551E+03;
 -7.0000000E-02;  9.9999998E-03;  9.9999998E-03;1227;  0.0000000E+00;  0.0000000E+00;  0.0000000E+00;  1.0012288E+03;  1.0000000E-01;  1.0180453E+03;0;  0.0000000E+00;  0.0000000E+00;  0.0000000E+00;0; -1.8711324E-03;  4.0000000E+04;  0.0000000E+00;  0.0000000E+00;  4.0000000E+04;  0.0000000E+00;  4.0000000E+04; -1.9431665E-03;  0.0000000E+00;  7.2034069E-05;  1.0572800E+03;
 -7.0000000E-02;  9.9999998E-03;  2.0000000E-02;1228;  0.0000000E+00;  0.0000000E+00;  0.0000000E+00;  1.0012324E+03;  1.0000000E-01;  1.0210082E+03;0;  0.0000000E+00;  0.0000000E+00;  0.0000000E+00;0; -1.8635277E-03;  4.0000000E+04;  0.0000000E+00;  0.0000000E+00;  4.0000000E+04;  0.0000000E+00;  4.0000000E+04; -1.9332474E-03;  0.0000000E+00;  6.9719703E-05;  1.0564272E+03;
 -7.0000000E-02;  9.9999998E-03;  2.9999999E-02;1229;  0.0000000E+00;  0.0000000E+00;  0.0000000E+00;  1.0012402E+03;  1.0000000E-01;  1.0274277E+03;0;  0.0000000E+00;  0.0000000E+00;  0.0000000E+00;0; -1.8517028E-03;  4.0000000E+04;  0.0000000E+00;  0.0000000E+00;  4.0000000E+04;  0.0000000E+00;  4.0000000E+04; -1.9180200E-03;  0.0000000E+00;  6.6317181E-05;  1.0539922E+03;
 -7.0000000E-02;  9.9999998E-03;  3.9999999E-02;1230;  0.0000000E+00;  0.0000000E+00;  0.0000000E+00;  1.0012503E+03;  1.0000000E-01;  1.0358225E+03;0;  0.0000000E+00;  0.0000000E+00;  0.0000000E+00;0; -1.8368430E-03;  4.0000000E+04;  0.0000000E+00;  0.0000000E+00;  4.0000000E+04;  0.0000000E+00;  4.0000000E+04; -1.8992799E-03;  0.0000000E+00;  6.2436906E-05;  1.0486993E+03;
 -7.0000000E-02;  9.9999998E-03;  5.0000001E-02;1231;  0.0000000E+00;  0.0000000E+00;  0.0000000E+00;  1.0012670E+03;  1.0000000E-01;  1.0497480E+03;0;  0.0000000E+00;  0.0000000E+00;  0.0000000E+00;0; -1.8204134E-03;  4.0000000E+04;  0.0000000E+00;  0.0000000E+00;  4.0000000E+04;  0.0000000E+00;  4.0000000E+04; -1.8792136E-03;  0.0000000E+00;  5.8800164E-05;  1.0392119E+03;
 -7.0000000E-02;  9.9999998E-03;  5.9999999E-02;1232;  0.0000000E+00;  0.0000000E+00;  0.0000000E+00;  1.0012844E+03;  1.0000000E-01;  1.0641675E+03;0;  0.0000000E+00;  0.0000000E+00;  0.0000000E+00;0; -1.8039683E-03;  4.0000000E+04;  0.0000000E+00;  0.0000000E+00;  4.0000000E+04;  0.0000000E+00;  4.0000000E+04; -1.8601005E-03;  0.0000000E+00;  5.6132216E-05;  1.0244526E+03;
 -5.9999999E-02;  9.9999998E-03; -1.0000000E-01;1307;  0.0000000E+00;  0.0000000E+00;  0.0000000E+00;  1.0024209E+03;  1.0000000E-01;  2.0056716E+03;0;  0.0000000E+00;  0.0000000E+00;  0.0000000E+00;0; -2.9270102E-03;  4.0000000E+04;  0.0000000E+00;  0.0000000E+00;  4.0000000E+04;  0.0000000E+00;  4.0000000E+04; -3.0243881E-03;  0.0000000E+00;  9.7377895E-05;  1.1466473E+03;
 -5.9999999E-02;  9.9999998E-03; -9.0000004E-02;1308;  0.0000000E+00;  0.0000000E+00;  0.0000000E+00;  1.0023988E+03;  1.0000000E-01;  1.9874006E+03;0;  0.0000000E+00;  0.0000000E+00;  0.0000000E+00;0; -2.9392601E-03;  4.0000000E+04;  0.0000000E+00;  0.0000000E+00;  4.0000000E+04;  0.0000000E+00;  4.0000000E+04; -3.0294203E-03;  0.0000000E+00;  9.0160182E-05;  1.1896888E+03;
 -5.9999999E-02;  9.9999998E-03; -7.9999998E-02;1309;  0.0000000E+00;  0.0000000E+00;  0.0000000E+00;  1.0023719E+03;  1.0000000E-01;  1.9650802E+03;0;  0.0000000E+00;  0.0000000E+00;  0.0000000E+00;0; -2.9533936E-03;  4.0000000E+04;  0.0000000E+00;  0.0000000E+00;  4.0000000E+04;  0.0000000E+00;  4.0000000E+04; -3.0393063E-03;  0.0000000E+00;  8.5912689E-05;  1.2307748E+03;
 -5.9999999E-02;  9.9999998E-03; -7.0000000E-02;1310;  0.0000000E+00;  0.0000000E+00;  0.0000000E+00;  1.0023409E+03;  1.0000000E-01;  1.9394020E+03;0;  0.0000000E+00;  0.0000000E+00;  0.0000000E+00;0; -2.9704277E-03;  4.0000000E+04;  0.0000000E+00;  0.0000000E+00;  4.0000000E+04;  0.0000000E+00;  4.0000000E+04; -3.0551192E-03;  0.0000000E+00;  8.4691521E-05;  1.2667458E+03;
 -5.9999999E-02;  9.9999998E-03; -5.9999999E-02;1311;  0.0000000E+00;  0.0000000E+00;  0.0000000E+00;  1.0023130E+03;  1.0000000E-01;  1.9162915E+03;0;  0.0000000E+00;  0.0000000E+00;  0.0000000E+00;0; -2.9901317E-03;  4.0000000E+04;  0.0000000E+00;  0.0000000E+00;  4.0000000E+04;  0.0000000E+00;  4.0000000E+04; -3.0763664E-03;  0.0000000E+00;  8.6234679E-05;  1.2957520E+03;
 -5.9999999E-02;  9.9999998E-03; -5.0000001E-02;1312;  0.0000000E+00;  0.0000000E+00;  0.0000000E+00;  1.0022917E+03;  1.0000000E-01;  1.8987118E+03;0;  0.0000000E+00;  0.0000000E+00;  0.0000000E+00;0; -3.0113417E-03;  4.0000000E+04;  0.0000000E+00;  0.0000000E+00;  4.0000000E+04;  0.0000000E+00;  4.0000000E+04; -3.1013088E-03;  0.0000000E+00;  8.9967230E-05;  1.3171793E+03;
 -5.9999999E-02;  9.9999998E-03; -3.9999999E-02;1313;  0.0000000E+00;  0.0000000E+00;  0.0000000E+00;  1.0022710E+03;  1.0000000E-01;  1.8814282E+03;0;  0.0000000E+00;  0.0000000E+00;  0.0000000E+00;0; -3.0323330E-03;  4.0000000E+04;  0.0000000E+00;  0.0000000E+00;  4.0000000E+04;  0.0000000E+00;  4.0000000E+04; -3.1273859E-03;  0.0000000E+00;  9.5052819E-05;  1.3314772E+03;
 -5.9999999E-02;  9.9999998E-03; -2.9999999E-02;1314;  0.0000000E+00;  0.0000000E+00;  0.0000000E+00;  1.0022557E+03;  1.0000000E-01;  1.8687866E+03;0;  0.0000000E+00;  0.0000000E+00;  0.0000000E+00;0; -3.0511899E-03;  4.0000000E+04;  0.0000000E+00;  0.0000000E+00;  4.0000000E+04;  0.0000000E+00;  4.0000000E+04; -3.1516862E-03;  0.0000000E+00;  1.0049616E-04;  1.3399341E+03;
 -5.9999999E-02;  9.9999998E-03; -2.0000000E-02;1315;  0.0000000E+00;  0.0000000E+00;  0.0000000E+00;  1.0022452E+03;  1.0000000E-01;  1.8600956E+03;0;  0.0000000E+00;  0.0000000E+00;  0.0000000E+00;0; -3.0661265E-03;  4.0000000E+04;  0.0000000E+00;  0.0000000E+00;  4.0000000E+04;  0.0000000E+00;  4.0000000E+04; -3.1714123E-03;  0.0000000E+00;  1.0528578E-04;  1.3442120E+03;
 -5.9999999E-02;  9.9999998E-03; -9.9999998E-03;1316;  0.0000000E+00;  0.0000000E+00;  0.0000000E+00;  1.0022391E+03;  1.0000000E-01;  1.8550586E+03;0;  0.0000000E+00;  0.0000000E+00;  0.0000000E+00;0; -3.0756965E-03;  4.0000000E+04;  0.0000000E+00;  0.0000000E+00;  4.0000000E+04;  0.0000000E+00;  4.0000000E+04; -3.1842492E-03;  0.0000000E+00;  1.0855257E-04;  1.3459773E+03;
 -5.9999999E-02;  9.9999998E-03;  0.0000000E+00;1317;  0.0000000E+00;  0.0000000E+00;  0.0000000E+00;  1.0022372E+03;  1.0000000E-01;  1.8534784E+03;0;  0.0000000E+00;  0.0000000E+00;  0.0000000E+00;0; -3.0789932E-03;  4.0000000E+04;  0.0000000E+00;  0.0000000E+00;  4.0000000E+04;  0.0000000E+00;  4.0000000E+04; -3.1887037E-03;  0.0000000E+00;  1.0971043E-04;  1.3464250E+03;
 -5.9999999E-02;  9.9999998E-03;  9.9999998E-03;1318;  0.0000000E+00;  0.0000000E+00;  0.0000000E+00;  1.0022391E+03;  1.0000000E-01;  1.8550586E+03;0;  0.0000000E+00;  0.0000000E+00;  0.0000000E+00;0; -3.0756956E-03;  4.0000000E+04;  0.0000000E+00;  0.0000000E+00;  4.0000000E+04;  0.0000000E+00;  4.0000000E+04; -3.1842487E-03;  0.0000000E+00;  1.0855306E-04;  1.3459801E+03;
 -5.9999999E-02;  9.9999998E-03;  2.0000000E-02;1319;  0.0000000E+00;  0.0000000E+00;  0.0000000E+00;  1.0022452E+03;  1.0000000E-01;  1.8600956E+03;0;  0.0000000E+00;  0.0000000E+00;  0.0000000E+00;0; -3.0661246E-03;  4.0000000E+04;  0.0000000E+00;  0.0000000E+00;  4.0000000E+04;  0.0000000E+00;  4.0000000E+04; -3.1714113E-03;  0.0000000E+00;  1.0528668E-04;  1.3442137E+03;
 -5.9999999E-02;  9.9999998E-03;  2.9999999E-02;1320;  0.0000000E+00;  0.0000000E+00;  0.0000000E+00;  1.0022557E+03;  1.0000000E-01;  1.8687866E+03;0;  0.0000000E+00;  0.0000000E+00;  0.0000000E+00;0; -3.0511881E-03;  4.0000000E+04;  0.0000000E+00;  0.0000000E+00;  4.0000000E+04;  0.0000000E+00;  4.0000000E+04; -3.1516857E-03;  0.0000000E+00;  1.0049753E-04;  1.3399377E+03;
 -5.9999999E-02;  9.9999998E-03;  3.9999999E-02;1321;  0.0000000E+00;  0.0000000E+00;  0.0000000E+00;  1.0022710E+03;  1.0000000E-01;  1.8814282E+03;0;  0.0000000E+00;  0.0000000E+00;  0.0000000E+00;0; -3.0323318E-03;  4.0000000E+04;  0.0000000E+00;  0.0000000E+00;  4.0000000E+04;  0.0000000E+00;  4.0000000E+04; -3.1273863E-03;  0.0000000E+00;  9.5054565E-05;  1.3314824E+03;
 -5.9999999E-02;  9.9999998E-03;  5.0000001E-02;1322;  0.0000000E+00;  0.0000000E+00;  0.0000000E+00;  1.0022917E+03;  1.0000000E-01;  1.8987118E+03;0;  0.0000000E+00;  0.0000000E+00;  0.0000000E+00;0; -3.0113393E-03;  4.0000000E+04;  0.0000000E+00;  0.0000000E+00;  4.0000000E+04;  0.0000000E+00;  4.0000000E+04; -3.1013086E-03;  0.0000000E+00;  8.9969326E-05;  1.3171840E+03;
 -5.9999999E-02;  9.9999998E-03;  5.9999999E-02;1323;  0.0000000E+00;  0.0000000E+00;  0.0000000E+00;  1.0023130E+03;  1.0000000E-01;  1.9162915E+03;0;  0.0000000E+00;  0.0000000E+00;  0.0000000E+00;0; -2.9901320E-03;  4.0000000E+04;  0.0000000E+00;  0.0000000E+00;  4.0000000E+04;  0.0000000E+00;  4.0000000E+04; -3.0763689E-03;  0.0000000E+00;  8.6236985E-05;  1.2957563E+03;
 -5.0000001E-02;  9.9999998E-03; -1.0000000E-01;1398;  0.0000000E+00;  0.0000000E+00;  0.0000000E+00;  1.0038943E+03;  1.0000000E-01;  3.2263779E+03;0;  0.0000000E+00;  0.0000000E+00;  0.0000000E+00;0; -4.4842619E-03;  4.0000000E+04;  0.0000000E+00;  0.0000000E+00;  4.0000000E+04;  0.0000000E+00;  4.0000000E+04; -4.6226387E-03;  0.0000000E+00;  1.3837685E-04;  1.3680500E+03;
 -5.0000001E-02;  9.9999998E-03; -9.0000004E-02;1399;  0.0000000E+00;  0.0000000E+00;  0.0000000E+00;  1.0038654E+03;  1.0000000E-01;  3.2023787E+03;0;  0.0000000E+00;  0.0000000E+00;  0.0000000E+00;0; -4.5004208E-03;  4.0000000E+04;  0.0000000E+00;  0.0000000E+00;  4.0000000E+04;  0.0000000E+00;  4.0000000E+04; -4.6302159E-03;  0.0000000E+00;  1.2979511E-04;  1.4219479E+03;
 -5.0000001E-02;  9.9999998E-03; -7.9999998E-02;1400;  0.0000000E+00;  0.0000000E+00;  0.0000000E+00;  1.0038295E+03;  1.0000000E-01;  3.1726511E+03;0;  0.0000000E+00;  0.0000000E+00;  0.0000000E+00;0; -4.5187813E-03;  4.0000000E+04;  0.0000000E+00;  0.0000000E+00;  4.0000000E+04;  0.0000000E+00;  4.0000000E+04; -4.6435702E-03;  0.0000000E+00;  1.2478877E-04;  1.4743177E+03;
 -5.0000001E-02;  9.9999998E-03; -7.0000000E-02;1401;  0.0000000E+00;  0.0000000E+00;  0.0000000E+00;  1.0037910E+03;  1.0000000E-01;  3.1407507E+03;0;  0.0000000E+00;  0.0000000E+00;  0.0000000E+00;0; -4.5405701E-03;  4.0000000E+04;  0.0000000E+00;  0.0000000E+00;  4.0000000E+04;  0.0000000E+00;  4.0000000E+04; -4.6640998E-03;  0.0000000E+00;  1.2352953E-04;  1.5209742E+03;
 -5.0000001E-02;  9.9999998E-03; -5.9999999E-02;1402;  0.0000000E+00;  0.0000000E+00;  0.0000000E+00;  1.0037579E+03;  1.0000000E-01;  3.1132947E+03;0;  0.0000000E+00;  0.0000000E+00;  0.0000000E+00;0; -4.5654746E-03;  4.0000000E+04;  0.0000000E+00;  0.0000000E+00;  4.0000000E+04;  0.0000000E+00;  4.0000000E+04; -4.6912474E-03;  0.0000000E+00;  1.2577283E-04;  1.5593295E+03;
 -5.0000001E-02;  9.9999998E-03; -5.0000001E-02;1403;  0.0000000E+00;  0.0000000E+00;  0.0000000E+00;  1.0037241E+03;  1.0000000E-01;  3.0853447E+03;0;  0.0000000E+00;  0.0000000E+00;  0.0000000E+00;0; -4.5920112E-03;  4.0000000E+04;  0.0000000E+00;  0.0000000E+00;  4.0000000E+04;  0.0000000E+00;  4.0000000E+04; -4.7228574E-03;  0.0000000E+00;  1.3084627E-04;  1.5882999E+03;
 -5.0000001E-02;  9.9999998E-03; -3.9999999E-02;1404;  0.0000000E+00;  0.0000000E+00;  0.0000000E+00;  1.0036965E+03;  1.0000000E-01;  3.0625308E+03;0;  0.0000000E+00;  0.0000000E+00;  0.0000000E+00;0; -4.6180673E-03;  4.0000000E+04;  0.0000000E+00;  0.0000000E+00;  4.0000000E+04;  0.0000000E+00;  4.0000000E+04; -4.7557675E-03;  0.0000000E+00;  1.3770016E-04;  1.6081986E+03;
 -5.0000001E-02;  9.9999998E-03; -2.9999999E-02;1405;  0.0000000E+00;  0.0000000E+00;  0.0000000E+00;  1.0036758E+03;  1.0000000E-01;  3.0453459E+03;0;  0.0000000E+00;  0.0000000E+00;  0.0000000E+00;0; -4.6413247E-03;  4.0000000E+04;  0.0000000E+00;  0.0000000E+00;  4.0000000E+04;  0.0000000E+00;  4.0000000E+04; -4.7863629E-03;  0.0000000E+00;  1.4503820E-04;  1.6204001E+03;
 -5.0000001E-02;  9.9999998E-03; -2.0000000E-02;1406;  0.0000000E+00;  0.0000000E+00;  0.0000000E+00;  1.0036611E+03;  1.0000000E-01;  3.0331982E+03;0;  0.0000000E+00;  0.0000000E+00;  0.0000000E+00;0; -4.6596420E-03;  4.0000000E+04;  0.0000000E+00;  0.0000000E+00;  4.0000000E+04;  0.0000000E+00;  4.0000000E+04; -4.8111524E-03;  0.0000000E+00;  1.5151044E-04;  1.6269335E+03;
 -5.0000001E-02;  9.9999998E-03; -9.9999998E-03;1407;  0.0000000E+00;  0.0000000E+00;  0.0000000E+00;  1.0036542E+03;  1.0000000E-01;  3.0273711E+03;0;  0.0000000E+00;  0.0000000E+00;  0.0000000E+00;0; -4.6713492E-03;  4.0000000E+04;  0.0000000E+00;  0.0000000E+00;  4.0000000E+04;  0.0000000E+00;  4.0000000E+04; -4.8272843E-03;  0.0000000E+00;  1.5593489E-04;  1.6298286E+03;
 -5.0000001E-02;  9.9999998E-03;  0.0000000E+00;1408;  0.0000000E+00;  0.0000000E+00;  0.0000000E+00;  1.0036517E+03;  1.0000000E-01;  3.0253960E+03;0;  0.0000000E+00;  0.0000000E+00;  0.0000000E+00;0; -4.6753711E-03;  4.0000000E+04;  0.0000000E+00;  0.0000000E+00;  4.0000000E+04;  0.0000000E+00;  4.0000000E+04; -4.8328768E-03;  0.0000000E+00;  1.5750559E-04;  1.6306121E+03;
 -5.0000001E-02;  9.9999998E-03;  9.9999998E-03;1409;  0.0000000E+00;  0.0000000E+00;  0.0000000E+00;  1.0036542E+03;  1.0000000E-01;  3.0273711E+03;0;  0.0000000E+00;  0.0000000E+00;  0.0000000E+00;0; -4.6713455E-03;  4.0000000E+04;  0.0000000E+00;  0.0000000E+00;  4.0000000E+04;  0.0000000E+00;  4.0000000E+04; -4.8272810E-03;  0.0000000E+00;  1.5593559E-04;  1.6298293E+03;
 -5.0000001E-02;  9.9999998E-03;  2.0000000E-02;1410;  0.0000000E+00;  0.0000000E+00;  0.0000000E+00;  1.0036611E+03;  1.0000000E-01;  3.0331982E+03;0;  0.0000000E+00;  0.0000000E+00;  0.0000000E+00;0; -4.6596378E-03;  4.0000000E+04;  0.0000000E+00;  0.0000000E+00;  4.0000000E+04;  0.0000000E+00;  4.0000000E+04; -4.8111496E-03;  0.0000000E+00;  1.5151176E-04;  1.6269348E+03;
 -5.0000001E-02;  9.9999998E-03;  2.9999999E-02;1411;  0.0000000E+00;  0.0000000E+00;  0.0000000E+00;  1.0036758E+03;  1.0000000E-01;  3.0453459E+03;0;  0.0000000E+00;  0.0000000E+00;  0.0000000E+00;0; -4.6413196E-03;  4.0000000E+04;  0.0000000E+00;  0.0000000E+00;  4.0000000E+04;  0.0000000E+00;  4.0000000E+04; -4.7863596E-03;  0.0000000E+00;  1.4504010E-04;  1.6204083E+03;
 -5.0000001E-02;  9.9999998E-03;  3.9999999E-02;1412;  0.0000000E+00;  0.0000000E+00;  0.0000000E+00;  1.0036965E+03;  1.0000000E-01;  3.0625308E+03;0;  0.0000000E+00;  0.0000000E+00;  0.0000000E+00;0; -4.6180622E-03;  4.0000000E+04;  0.0000000E+00;  0.0000000E+00;  4.0000000E+04;  0.0000000E+00;  4.0000000E+04; -4.7557647E-03;  0.0000000E+00;  1.3770262E-04;  1.6082032E+03;
 -5.0000001E-02;  9.9999998E-03;  5.0000001E-02;1413;  0.0000000E+00;  0.0000000E+00;  0.0000000E+00;  1.0037241E+03;  1.0000000E-01;  3.0853447E+03;0;  0.0000000E+00;  0.0000000E+00;  0.0000000E+00;0; -4.5920056E-03;  4.0000000E+04;  0.0000000E+00;  0.0000000E+00;  4.0000000E+04;  0.0000000E+00;  4.0000000E+04; -4.7228546E-03;  0.0000000E+00;  1.3084899E-04;  1.5883047E+03;
 -5.0000001E-02;  9.9999998E-03;  5.9999999E-02;1414;  0.0000000E+00;  0.0000000E+00;  0.0000000E+00;  1.0037578E+03;  1.0000000E-01;  3.1132947E+03;0;  0.0000000E+00;  0.0000000E+00;  0.0000000E+00;0; -4.5654718E-03;  4.0000000E+04;  0.0000000E+00;  0.0000000E+00;  4.0000000E+04;  0.0000000E+00;  4.0000000E+04; -4.6912478E-03;  0.0000000E+00;  1.2577600E-04;  1.5593348E+03;
 -3.9999999E-02;  9.9999998E-03; -1.0000000E-01;1489;  0.0000000E+00;  0.0000000E+00;  0.0000000E+00;  1.0058046E+03;  1.0000000E-01;  4.8090493E+03;0;  0.0000000E+00;  0.0000000E+00;  0.0000000E+00;0; -6.4254976E-03;  4.0000000E+04;  0.0000000E+00;  0.0000000E+00;  4.0000000E+04;  0.0000000E+00;  4.0000000E+04; -6.6130580E-03;  0.0000000E+00;  1.8756052E-04;  1.5524407E+03;
 -3.9999999E-02;  9.9999998E-03; -9.0000004E-02;1490;  0.0000000E+00;  0.0000000E+00;  0.0000000E+00;  1.0057656E+03;  1.0000000E-01;  4.7767539E+03;0;  0.0000000E+00;  0.0000000E+00;  0.0000000E+00;0; -6.4453445E-03;  4.0000000E+04;  0.0000000E+00;  0.0000000E+00;  4.0000000E+04;  0.0000000E+00;  4.0000000E+04; -6.6235517E-03;  0.0000000E+00;  1.7820724E-04;  1.6158590E+03;
 -3.9999999E-02;  9.9999998E-03; -7.9999998E-02;1491;  0.0000000E+00;  0.0000000E+00;  0.0000000E+00;  1.0057198E+03;  1.0000000E-01;  4.7388291E+03;0;  0.0000000E+00;  0.0000000E+00;  0.0000000E+00;0; -6.4679440E-03;  4.0000000E+04;  0.0000000E+00;  0.0000000E+00;  4.0000000E+04;  0.0000000E+00;  4.0000000E+04; -6.6408399E-03;  0.0000000E+00;  1.7289596E-04;  1.6786511E+03;
 -3.9999999E-02;  9.9999998E-03; -7.0000000E-02;1492;  0.0000000E+00;  0.0000000E+00;  0.0000000E+00;  1.0056716E+03;  1.0000000E-01;  4.6988301E+03;0;  0.0000000E+00;  0.0000000E+00;  0.0000000E+00;0; -6.4946664E-03;  4.0000000E+04;  0.0000000E+00;  0.0000000E+00;  4.0000000E+04;  0.0000000E+00;  4.0000000E+04; -6.6666286E-03;  0.0000000E+00;  1.7196202E-04;  1.7356006E+03;
 -3.9999999E-02;  9.9999998E-03; -5.9999999E-02;1493;  0.0000000E+00;  0.0000000E+00;  0.0000000E+00;  1.0056237E+03;  1.0000000E-01;  4.6591274E+03;0;  0.0000000E+00;  0.0000000E+00;  0.0000000E+00;0; -6.5250280E-03;  4.0000000E+04;  0.0000000E+00;  0.0000000E+00;  4.0000000E+04;  0.0000000E+00;  4.0000000E+04; -6.7002587E-03;  0.0000000E+00;  1.7523085E-04;  1.7832815E+03;
 -3.9999999E-02;  9.9999998E-03; -5.0000001E-02;1494;  0.0000000E+00;  0.0000000E+00;  0.0000000E+00;  1.0055823E+03;  1.0000000E-01;  4.6248569E+03;0;  0.0000000E+00;  0.0000000E+00;  0.0000000E+00;0; -6.5571740E-03;  4.0000000E+04;  0.0000000E+00;  0.0000000E+00;  4.0000000E+04;  0.0000000E+00;  4.0000000E+04; -6.7391419E-03;  0.0000000E+00;  1.8196773E-04;  1.8200190E+03;
 -3.9999999E-02;  9.9999998E-03; -3.9999999E-02;1495;  0.0000000E+00;  0.0000000E+00;  0.0000000E+00;  1.0055489E+03;  1.0000000E-01;  4.5971045E+03;0;  0.0000000E+00;  0.0000000E+00;  0.0000000E+00;0; -6.5885228E-03;  4.0000000E+04;  0.0000000E+00;  0.0000000E+00;  4.0000000E+04;  0.0000000E+00;  4.0000000E+04; -6.7794449E-03;  0.0000000E+00;  1.9092222E-04;  1.8457987E+03;
 -3.9999999E-02;  9.9999998E-03; -2.9999999E-02;1496;  0.0000000E+00;  0.0000000E+00;  0.0000000E+00;  1.0055227E+03;  1.0000000E-01;  4.5754756E+03;0;  0.0000000E+00;  0.0000000E+00;  0.0000000E+00;0; -6.6163307E-03;  4.0000000E+04;  0.0000000E+00;  0.0000000E+00;  4.0000000E+04;  0.0000000E+00;  4.0000000E+04; -6.8168114E-03;  0.0000000E+00;  2.0048067E-04;  1.8620657E+03;
 -3.9999999E-02;  9.9999998E-03; -2.0000000E-02;1497;  0.0000000E+00;  0.0000000E+00;  0.0000000E+00;  1.0055057E+03;  1.0000000E-01;  4.5613525E+03;0;  0.0000000E+00;  0.0000000E+00;  0.0000000E+00;0; -6.6381269E-03;  4.0000000E+04;  0.0000000E+00;  0.0000000E+00;  4.0000000E+04;  0.0000000E+00;  4.0000000E+04; -6.8470440E-03;  0.0000000E+00;  2.0891696E-04;  1.8710707E+03;
 -3.9999999E-02;  9.9999998E-03; -9.9999998E-03;1498;  0.0000000E+00;  0.0000000E+00;  0.0000000E+00;  1.0054953E+03;  1.0000000E-01;  4.5527603E+03;0;  0.0000000E+00;  0.0000000E+00;  0.0000000E+00;0; -6.6520013E-03;  4.0000000E+04;  0.0000000E+00;  0.0000000E+00;  4.0000000E+04;  0.0000000E+00;  4.0000000E+04; -6.8666940E-03;  0.0000000E+00;  2.1469251E-04;  1.8752545E+03;
 -3.9999999E-02;  9.9999998E-03;  0.0000000E+00;1499;  0.0000000E+00;  0.0000000E+00;  0.0000000E+00;  1.0054930E+03;  1.0000000E-01;  4.5508838E+03;0;  0.0000000E+00;  0.0000000E+00;  0.0000000E+00;0; -6.6567622E-03;  4.0000000E+04;  0.0000000E+00;  0.0000000E+00;  4.0000000E+04;  0.0000000E+00;  4.0000000E+04; -6.8735066E-03;  0.0000000E+00;  2.1674436E-04;  1.8764081E+03;
 -3.9999999E-02;  9.9999998E-03;  9.9999998E-03;1500;  0.0000000E+00;  0.0000000E+00;  0.0000000E+00;  1.0054953E+03;  1.0000000E-01;  4.5527603E+03;0;  0.0000000E+00;  0.0000000E+00;  0.0000000E+00;0; -6.6520004E-03;  4.0000000E+04;  0.0000000E+00;  0.0000000E+00;  4.0000000E+04;  0.0000000E+00;  4.0000000E+04; -6.8666940E-03;  0.0000000E+00;  2.1469343E-04;  1.8752559E+03;
 -3.9999999E-02;  9.9999998E-03;  2.0000000E-02;1501;  0.0000000E+00;  0.0000000E+00;  0.0000000E+00;  1.0055057E+03;  1.0000000E-01;  4.5613525E+03;0;  0.0000000E+00;  0.0000000E+00;  0.0000000E+00;0; -6.6381260E-03;  4.0000000E+04;  0.0000000E+00;  0.0000000E+00;  4.0000000E+04;  0.0000000E+00;  4.0000000E+04; -6.8470445E-03;  0.0000000E+00;  2.0891867E-04;  1.8710774E+03;
 -3.9999999E-02;  9.9999998E-03;  2.9999999E-02;1502;  0.0000000E+00;  0.0000000E+00;  0.0000000E+00;  1.0055228E+03;  1.0000000E-01;  4.5754756E+03;0;  0.0000000E+00;  0.0000000E+00;  0.0000000E+00;0; -6.6163251E-03;  4.0000000E+04;  0.0000000E+00;  0.0000000E+00;  4.0000000E+04;  0.0000000E+00;  4.0000000E+04; -6.8168086E-03;  0.0000000E+00;  2.0048331E-04;  1.8620726E+03;
 -3.9999999E-02;  9.9999998E-03;  3.9999999E-02;1503;  0.0000000E+00;  0.0000000E+00;  0.0000000E+00;  1.0055489E+03;  1.0000000E-01;  4.5971045E+03;0;  0.0000000E+00;  0.0000000E+00;  0.0000000E+00;0; -6.5885154E-03;  4.0000000E+04;  0.0000000E+00;  0.0000000E+00;  4.0000000E+04;  0.0000000E+00;  4.0000000E+04; -6.7794407E-03;  0.0000000E+00;  1.9092549E-04;  1.8458070E+03;
 -3.9999999E-02;  9.9999998E-03;  5.0000001E-02;1504;  0.0000000E+00;  0.0000000E+00;  0.0000000E+00;  1.0055823E+03;  1.0000000E-01;  4.6248569E+03;0;  0.0000000E+00;  0.0000000E+00;  0.0000000E+00;0; -6.5571717E-03;  4.0000000E+04;  0.0000000E+00;  0.0000000E+00;  4.0000000E+04;  0.0000000E+00;  4.0000000E+04; -6.7391433E-03;  0.0000000E+00;  1.8197157E-04;  1.8200240E+03;
 -3.9999999E-02;  9.9999998E-03;  5.9999999E-02;1505;  0.0000000E+00;  0.0000000E+00;  0.0000000E+00;  1.0056237E+03;  1.0000000E-01;  4.6591274E+03;0;  0.0000000E+00;  0.0000000E+00;  0.0000000E+00;0; -6.5250280E-03;  4.0000000E+04;  0.0000000E+00;  0.0000000E+00;  4.0000000E+04;  0.0000000E+00;  4.0000000E+04; -6.7002629E-03;  0.0000000E+00;  1.7523502E-04;  1.7832880E+03;
 -2.9999999E-02;  9.9999998E-03; -1.0000000E-01;1580;  0.0000000E+00;  0.0000000E+00;  0.0000000E+00;  1.0081295E+03;  1.0000000E-01;  6.7351182E+03;0;  0.0000000E+00;  0.0000000E+00;  0.0000000E+00;0; -8.7030577E-03;  4.0000000E+04;  0.0000000E+00;  0.0000000E+00;  4.0000000E+04;  0.0000000E+00;  4.0000000E+04; -8.9468081E-03;  0.0000000E+00;  2.4374999E-04;  1.6688545E+03;
 -2.9999999E-02;  9.9999998E-03; -9.0000004E-02;1581;  0.0000000E+00;  0.0000000E+00;  0.0000000E+00;  1.0080858E+03;  1.0000000E-01;  6.6988721E+03;0;  0.0000000E+00;  0.0000000E+00;  0.0000000E+00;0; -8.7260297E-03;  4.0000000E+04;  0.0000000E+00;  0.0000000E+00;  4.0000000E+04;  0.0000000E+00;  4.0000000E+04; -8.9606065E-03;  0.0000000E+00;  2.3457677E-04;  1.7390096E+03;
 -2.9999999E-02;  9.9999998E-03; -7.9999998E-02;1582;  0.0000000E+00;  0.0000000E+00;  0.0000000E+00;  1.0080264E+03;  1.0000000E-01;  6.6497871E+03;0;  0.0000000E+00;  0.0000000E+00;  0.0000000E+00;0; -8.7525519E-03;  4.0000000E+04;  0.0000000E+00;  0.0000000E+00;  4.0000000E+04;  0.0000000E+00;  4.0000000E+04; -8.9822244E-03;  0.0000000E+00;  2.2967267E-04;  1.8098452E+03;
 -2.9999999E-02;  9.9999998E-03; -7.0000000E-02;1583;  0.0000000E+00;  0.0000000E+00;  0.0000000E+00;  1.0079624E+03;  1.0000000E-01;  6.5966528E+03;0;  0.0000000E+00;  0.0000000E+00;  0.0000000E+00;0; -8.7840753E-03;  4.0000000E+04;  0.0000000E+00;  0.0000000E+00;  4.0000000E+04;  0.0000000E+00;  4.0000000E+04; -9.0136668E-03;  0.0000000E+00;  2.2959147E-04;  1.8753064E+03;
 -2.9999999E-02;  9.9999998E-03; -5.9999999E-02;1584;  0.0000000E+00;  0.0000000E+00;  0.0000000E+00;  1.0078998E+03;  1.0000000E-01;  6.5449014E+03;0;  0.0000000E+00;  0.0000000E+00;  0.0000000E+00;0; -8.8198259E-03;  4.0000000E+04;  0.0000000E+00;  0.0000000E+00;  4.0000000E+04;  0.0000000E+00;  4.0000000E+04; -9.0541206E-03;  0.0000000E+00;  2.3429467E-04;  1.9311675E+03;
 -2.9999999E-02;  9.9999998E-03; -5.0000001E-02;1585;  0.0000000E+00;  0.0000000E+00;  0.0000000E+00;  1.0078509E+03;  1.0000000E-01;  6.5043101E+03;0;  0.0000000E+00;  0.0000000E+00;  0.0000000E+00;0; -8.8574868E-03;  4.0000000E+04;  0.0000000E+00;  0.0000000E+00;  4.0000000E+04;  0.0000000E+00;  4.0000000E+04; -9.1005284E-03;  0.0000000E+00;  2.4304201E-04;  1.9750803E+03;
 -2.9999999E-02;  9.9999998E-03; -3.9999999E-02;1586;  0.0000000E+00;  0.0000000E+00;  0.0000000E+00;  1.0078079E+03;  1.0000000E-01;  6.4687554E+03;0;  0.0000000E+00;  0.0000000E+00;  0.0000000E+00;0; -8.8939602E-03;  4.0000000E+04;  0.0000000E+00;  0.0000000E+00;  4.0000000E+04;  0.0000000E+00;  4.0000000E+04; -9.1483742E-03;  0.0000000E+00;  2.5441413E-04;  2.0065463E+03;
 -2.9999999E-02;  9.9999998E-03; -2.9999999E-02;1587;  0.0000000E+00;  0.0000000E+00;  0.0000000E+00;  1.0077755E+03;  1.0000000E-01;  6.4417930E+03;0;  0.0000000E+00;  0.0000000E+00;  0.0000000E+00;0; -8.9261243E-03;  4.0000000E+04;  0.0000000E+00;  0.0000000E+00;  4.0000000E+04;  0.0000000E+00;  4.0000000E+04; -9.1926074E-03;  0.0000000E+00;  2.6648297E-04;  2.0268722E+03;
 -2.9999999E-02;  9.9999998E-03; -2.0000000E-02;1588;  0.0000000E+00;  0.0000000E+00;  0.0000000E+00;  1.0077524E+03;  1.0000000E-01;  6.4227319E+03;0;  0.0000000E+00;  0.0000000E+00;  0.0000000E+00;0; -8.9511899E-03;  4.0000000E+04;  0.0000000E+00;  0.0000000E+00;  4.0000000E+04;  0.0000000E+00;  4.0000000E+04; -9.2283152E-03;  0.0000000E+00;  2.7712484E-04;  2.0384310E+03;
 -2.9999999E-02;  9.9999998E-03; -9.9999998E-03;1589;  0.0000000E+00;  0.0000000E+00;  0.0000000E+00;  1.0077388E+03;  1.0000000E-01;  6.4114731E+03;0;  0.0000000E+00;  0.0000000E+00;  0.0000000E+00;0; -8.9670727E-03;  4.0000000E+04;  0.0000000E+00;  0.0000000E+00;  4.0000000E+04;  0.0000000E+00;  4.0000000E+04; -9.2514856E-03;  0.0000000E+00;  2.8441302E-04;  2.0439689E+03;
 -2.9999999E-02;  9.9999998E-03;  0.0000000E+00;1590;  0.0000000E+00;  0.0000000E+00;  0.0000000E+00;  1.0077347E+03;  1.0000000E-01;  6.4081152E+03;0;  0.0000000E+00;  0.0000000E+00;  0.0000000E+00;0; -8.9724939E-03;  4.0000000E+04;  0.0000000E+00;  0.0000000E+00;  4.0000000E+04;  0.0000000E+00;  4.0000000E+04; -9.2594968E-03;  0.0000000E+00;  2.8700332E-04;  2.0455410E+03;
 -2.9999999E-02;  9.9999998E-03;  9.9999998E-03;1591;  0.0000000E+00;  0.0000000E+00;  0.0000000E+00;  1.0077388E+03;  1.0000000E-01;  6.4114731E+03;0;  0.0000000E+00;  0.0000000E+00;  0.0000000E+00;0; -8.9670718E-03;  4.0000000E+04;  0.0000000E+00;  0.0000000E+00;  4.0000000E+04;  0.0000000E+00;  4.0000000E+04; -9.2514856E-03;  0.0000000E+00;  2.8441410E-04;  2.0439703E+03;
 -2.9999999E-02;  9.9999998E-03;  2.0000000E-02;1592;  0.0000000E+00;  0.0000000E+00;  0.0000000E+00;  1.0077524E+03;  1.0000000E-01;  6.4227319E+03;0;  0.0000000E+00;  0.0000000E+00;  0.0000000E+00;0; -8.9511797E-03;  4.0000000E+04;  0.0000000E+00;  0.0000000E+00;  4.0000000E+04;  0.0000000E+00;  4.0000000E+04; -9.2283068E-03;  0.0000000E+00;  2.7712746E-04;  2.0384370E+03;
 -2.9999999E-02;  9.9999998E-03;  2.9999999E-02;1593;  0.0000000E+00;  0.0000000E+00;  0.0000000E+00;  1.0077755E+03;  1.0000000E-01;  6.4417930E+03;0;  0.0000000E+00;  0.0000000E+00;  0.0000000E+00;0; -8.9261262E-03;  4.0000000E+04;  0.0000000E+00;  0.0000000E+00;  4.0000000E+04;  0.0000000E+00;  4.0000000E+04; -9.1926120E-03;  0.0000000E+00;  2.6648623E-04;  2.0268792E+03;
 -2.9999999E-02;  9.9999998E-03;  3.9999999E-02;1594;  0.0000000E+00;  0.0000000E+00;  0.0000000E+00;  1.0078079E+03;  1.0000000E-01;  6.4687554E+03;0;  0.0000000E+00;  0.0000000E+00;  0.0000000E+00;0; -8.8939583E-03;  4.0000000E+04;  0.0000000E+00;  0.0000000E+00;  4.0000000E+04;  0.0000000E+00;  4.0000000E+04; -9.1483770E-03;  0.0000000E+00;  2.5441838E-04;  2.0065546E+03;
 -2.9999999E-02;  9.9999998E-03;  5.0000001E-02;1595;  0.0000000E+00;  0.0000000E+00;  0.0000000E+00;  1.0078509E+03;  1.0000000E-01;  6.5043101E+03;0;  0.0000000E+00;  0.0000000E+00;  0.0000000E+00;0; -8.8574728E-03;  4.0000000E+04;  0.0000000E+00;  0.0000000E+00;  4.0000000E+04;  0.0000000E+00;  4.0000000E+04; -9.1005201E-03;  0.0000000E+00;  2.4304690E-04;  1.9750905E+03;
 -2.9999999E-02;  9.9999998E-03;  5.9999999E-02;1596;  0.0000000E+00;  0.0000000E+00;  0.0000000E+00;  1.0078999E+03;  1.0000000E-01;  6.5449014E+03;0;  0.0000000E+00;  0.0000000E+00;  0.0000000E+00;0; -8.8198278E-03;  4.0000000E+04;  0.0000000E+00;  0.0000000E+00;  4.0000000E+04;  0.0000000E+00;  4.0000000E+04; -9.0541281E-03;  0.0000000E+00;  2.3429991E-04;  1.9311680E+03;
 -2.0000000E-02;  9.9999998E-03; -1.0000000E-01;1671;  0.0000000E+00;  0.0000000E+00;  0.0000000E+00;  1.0107866E+03;  1.0000000E-01;  8.9365371E+03;0;  0.0000000E+00;  0.0000000E+00;  0.0000000E+00;0; -1.1228987E-02;  4.0000000E+04;  0.0000000E+00;  0.0000000E+00;  4.0000000E+04;  0.0000000E+00;  4.0000000E+04; -1.1533961E-02;  0.0000000E+00;  3.0497392E-04;  1.6878992E+03;
 -2.0000000E-02;  9.9999998E-03; -9.0000004E-02;1672;  0.0000000E+00;  0.0000000E+00;  0.0000000E+00;  1.0107260E+03;  1.0000000E-01;  8.8862676E+03;0;  0.0000000E+00;  0.0000000E+00;  0.0000000E+00;0; -1.1254267E-02;  4.0000000E+04;  0.0000000E+00;  0.0000000E+00;  4.0000000E+04;  0.0000000E+00;  4.0000000E+04; -1.1551528E-02;  0.0000000E+00;  2.9726169E-04;  1.7604177E+03;
 -2.0000000E-02;  9.9999998E-03; -7.9999998E-02;1673;  0.0000000E+00;  0.0000000E+00;  0.0000000E+00;  1.0106487E+03;  1.0000000E-01;  8.8222686E+03;0;  0.0000000E+00;  0.0000000E+00;  0.0000000E+00;0; -1.1284122E-02;  4.0000000E+04;  0.0000000E+00;  0.0000000E+00;  4.0000000E+04;  0.0000000E+00;  4.0000000E+04; -1.1577815E-02;  0.0000000E+00;  2.9369298E-04;  1.8351836E+03;
 -2.0000000E-02;  9.9999998E-03; -7.0000000E-02;1674;  0.0000000E+00;  0.0000000E+00;  0.0000000E+00;  1.0105698E+03;  1.0000000E-01;  8.7568877E+03;0;  0.0000000E+00;  0.0000000E+00;  0.0000000E+00;0; -1.1319951E-02;  4.0000000E+04;  0.0000000E+00;  0.0000000E+00;  4.0000000E+04;  0.0000000E+00;  4.0000000E+04; -1.1615054E-02;  0.0000000E+00;  2.9510254E-04;  1.9057849E+03;
 -2.0000000E-02;  9.9999998E-03; -5.9999999E-02;1675;  0.0000000E+00;  0.0000000E+00;  0.0000000E+00;  1.0104950E+03;  1.0000000E-01;  8.6948652E+03;0;  0.0000000E+00;  0.0000000E+00;  0.0000000E+00;0; -1.1360554E-02;  4.0000000E+04;  0.0000000E+00;  0.0000000E+00;  4.0000000E+04;  0.0000000E+00;  4.0000000E+04; -1.1662226E-02;  0.0000000E+00;  3.0167247E-04;  1.9674097E+03;
 -2.0000000E-02;  9.9999998E-03; -5.0000001E-02;1676;  0.0000000E+00;  0.0000000E+00;  0.0000000E+00;  1.0104324E+03;  1.0000000E-01;  8.6431133E+03;0;  0.0000000E+00;  0.0000000E+00;  0.0000000E+00;0; -1.1403112E-02;  4.0000000E+04;  0.0000000E+00;  0.0000000E+00;  4.0000000E+04;  0.0000000E+00;  4.0000000E+04; -1.1715852E-02;  0.0000000E+00;  3.1273992E-04;  2.0170032E+03;
 -2.0000000E-02;  9.9999998E-03; -3.9999999E-02;1677;  0.0000000E+00;  0.0000000E+00;  0.0000000E+00;  1.0103790E+03;  1.0000000E-01;  8.5987695E+03;0;  0.0000000E+00;  0.0000000E+00;  0.0000000E+00;0; -1.1444064E-02;  4.0000000E+04;  0.0000000E+00;  0.0000000E+00;  4.0000000E+04;  0.0000000E+00;  4.0000000E+04; -1.1770837E-02;  0.0000000E+00;  3.2677280E-04;  2.0534597E+03;
 -2.0000000E-02;  9.9999998E-03; -2.9999999E-02;1678;  0.0000000E+00;  0.0000000E+00;  0.0000000E+00;  1.0103403E+03;  1.0000000E-01;  8.5666709E+03;0;  0.0000000E+00;  0.0000000E+00;  0.0000000E+00;0; -1.1479889E-02;  4.0000000E+04;  0.0000000E+00;  0.0000000E+00;  4.0000000E+04;  0.0000000E+00;  4.0000000E+04; -1.1821444E-02;  0.0000000E+00;  3.4155510E-04;  2.0776423E+03;
 -2.0000000E-02;  9.9999998E-03; -2.0000000E-02;1679;  0.0000000E+00;  0.0000000E+00;  0.0000000E+00;  1.0103123E+03;  1.0000000E-01;  8.5434619E+03;0;  0.0000000E+00;  0.0000000E+00;  0.0000000E+00;0; -1.1507645E-02;  4.0000000E+04;  0.0000000E+00;  0.0000000E+00;  4.0000000E+04;  0.0000000E+00;  4.0000000E+04; -1.1862210E-02;  0.0000000E+00;  3.5456443E-04;  2.0918123E+03;
 -2.0000000E-02;  9.9999998E-03; -9.9999998E-03;1680;  0.0000000E+00;  0.0000000E+00;  0.0000000E+00;  1.0102962E+03;  1.0000000E-01;  8.5302275E+03;0;  0.0000000E+00;  0.0000000E+00;  0.0000000E+00;0; -1.1525126E-02;  4.0000000E+04;  0.0000000E+00;  0.0000000E+00;  4.0000000E+04;  0.0000000E+00;  4.0000000E+04; -1.1888598E-02;  0.0000000E+00;  3.6347183E-04;  2.0988064E+03;
 -2.0000000E-02;  9.9999998E-03;  0.0000000E+00;1681;  0.0000000E+00;  0.0000000E+00;  0.0000000E+00;  1.0102902E+03;  1.0000000E-01;  8.5252900E+03;0;  0.0000000E+00;  0.0000000E+00;  0.0000000E+00;0; -1.1531110E-02;  4.0000000E+04;  0.0000000E+00;  0.0000000E+00;  4.0000000E+04;  0.0000000E+00;  4.0000000E+04; -1.1897747E-02;  0.0000000E+00;  3.6663783E-04;  2.1008364E+03;
 -2.0000000E-02;  9.9999998E-03;  9.9999998E-03;1682;  0.0000000E+00;  0.0000000E+00;  0.0000000E+00;  1.0102962E+03;  1.0000000E-01;  8.5302275E+03;0;  0.0000000E+00;  0.0000000E+00;  0.0000000E+00;0; -1.1525131E-02;  4.0000000E+04;  0.0000000E+00;  0.0000000E+00;  4.0000000E+04;  0.0000000E+00;  4.0000000E+04; -1.1888605E-02;  0.0000000E+00;  3.6347337E-04;  2.0988105E+03;
 -2.0000000E-02;  9.9999998E-03;  2.0000000E-02;1683;  0.0000000E+00;  0.0000000E+00;  0.0000000E+00;  1.0103123E+03;  1.0000000E-01;  8.5434619E+03;0;  0.0000000E+00;  0.0000000E+00;  0.0000000E+00;0; -1.1507644E-02;  4.0000000E+04;  0.0000000E+00;  0.0000000E+00;  4.0000000E+04;  0.0000000E+00;  4.0000000E+04; -1.1862211E-02;  0.0000000E+00;  3.5456667E-04;  2.0918176E+03;
 -2.0000000E-02;  9.9999998E-03;  2.9999999E-02;1684;  0.0000000E+00;  0.0000000E+00;  0.0000000E+00;  1.0103401E+03;  1.0000000E-01;  8.5665723E+03;0;  0.0000000E+00;  0.0000000E+00;  0.0000000E+00;0; -1.1479891E-02;  4.0000000E+04;  0.0000000E+00;  0.0000000E+00;  4.0000000E+04;  0.0000000E+00;  4.0000000E+04; -1.1821450E-02;  0.0000000E+00;  3.4155895E-04;  2.0776541E+03;
 -2.0000000E-02;  9.9999998E-03;  3.9999999E-02;1685;  0.0000000E+00;  0.0000000E+00;  0.0000000E+00;  1.0103789E+03;  1.0000000E-01;  8.5987695E+03;0;  0.0000000E+00;  0.0000000E+00;  0.0000000E+00;0; -1.1444070E-02;  4.0000000E+04;  0.0000000E+00;  0.0000000E+00;  4.0000000E+04;  0.0000000E+00;  4.0000000E+04; -1.1770848E-02;  0.0000000E+00;  3.2677795E-04;  2.0534651E+03;
 -2.0000000E-02;  9.9999998E-03;  5.0000001E-02;1686;  0.0000000E+00;  0.0000000E+00;  0.0000000E+00;  1.0104324E+03;  1.0000000E-01;  8.6431133E+03;0;  0.0000000E+00;  0.0000000E+00;  0.0000000E+00;0; -1.1403108E-02;  4.0000000E+04;  0.0000000E+00;  0.0000000E+00;  4.0000000E+04;  0.0000000E+00;  4.0000000E+04; -1.1715854E-02;  0.0000000E+00;  3.1274595E-04;  2.0170116E+03;
 -2.0000000E-02;  9.9999998E-03;  5.9999999E-02;1687;  0.0000000E+00;  0.0000000E+00;  0.0000000E+00;  1.0104950E+03;  1.0000000E-01;  8.6948652E+03;0;  0.0000000E+00;  0.0000000E+00;  0.0000000E+00;0; -1.1360552E-02;  4.0000000E+04;  0.0000000E+00;  0.0000000E+00;  4.0000000E+04;  0.0000000E+00;  4.0000000E+04; -1.1662231E-02;  0.0000000E+00;  3.0167899E-04;  1.9674150E+03;
 -9.9999998E-03;  9.9999998E-03; -1.0000000E-01;1762;  0.0000000E+00;  0.0000000E+00;  0.0000000E+00;  1.0136481E+03;  1.0000000E-01;  1.1307137E+04;0;  0.0000000E+00;  0.0000000E+00;  0.0000000E+00;0; -1.3879934E-02;  4.0000000E+04;  0.0000000E+00;  0.0000000E+00;  4.0000000E+04;  0.0000000E+00;  4.0000000E+04; -1.4248538E-02;  0.0000000E+00;  3.6860359E-04;  1.5871963E+03;
 -9.9999998E-03;  9.9999998E-03; -9.0000004E-02;1763;  0.0000000E+00;  0.0000000E+00;  0.0000000E+00;  1.0135643E+03;  1.0000000E-01;  1.1237806E+04;0;  0.0000000E+00;  0.0000000E+00;  0.0000000E+00;0; -1.3906647E-02;  4.0000000E+04;  0.0000000E+00;  0.0000000E+00;  4.0000000E+04;  0.0000000E+00;  4.0000000E+04; -1.4270518E-02;  0.0000000E+00;  3.6387137E-04;  1.6559413E+03;
 -9.9999998E-03;  9.9999998E-03; -7.9999998E-02;1764;  0.0000000E+00;  0.0000000E+00;  0.0000000E+00;  1.0134677E+03;  1.0000000E-01;  1.1157709E+04;0;  0.0000000E+00;  0.0000000E+00;  0.0000000E+00;0; -1.3938969E-02;  4.0000000E+04;  0.0000000E+00;  0.0000000E+00;  4.0000000E+04;  0.0000000E+00;  4.0000000E+04; -1.4301653E-02;  0.0000000E+00;  3.6268428E-04;  1.7286218E+03;
 -9.9999998E-03;  9.9999998E-03; -7.0000000E-02;1765;  0.0000000E+00;  0.0000000E+00;  0.0000000E+00;  1.0133663E+03;  1.0000000E-01;  1.1073662E+04;0;  0.0000000E+00;  0.0000000E+00;  0.0000000E+00;0; -1.3978126E-02;  4.0000000E+04;  0.0000000E+00;  0.0000000E+00;  4.0000000E+04;  0.0000000E+00;  4.0000000E+04; -1.4344353E-02;  0.0000000E+00;  3.6622709E-04;  1.7992859E+03;
 -9.9999998E-03;  9.9999998E-03; -5.9999999E-02;1766;  0.0000000E+00;  0.0000000E+00;  0.0000000E+00;  1.0132755E+03;  1.0000000E-01;  1.0998504E+04;0;  0.0000000E+00;  0.0000000E+00;  0.0000000E+00;0; -1.4022488E-02;  4.0000000E+04;  0.0000000E+00;  0.0000000E+00;  4.0000000E+04;  0.0000000E+00;  4.0000000E+04; -1.4397502E-02;  0.0000000E+00;  3.7501424E-04;  1.8629617E+03;
 -9.9999998E-03;  9.9999998E-03; -5.0000001E-02;1767;  0.0000000E+00;  0.0000000E+00;  0.0000000E+00;  1.0131974E+03;  1.0000000E-01;  1.0933814E+04;0;  0.0000000E+00;  0.0000000E+00;  0.0000000E+00;0; -1.4068663E-02;  4.0000000E+04;  0.0000000E+00;  0.0000000E+00;  4.0000000E+04;  0.0000000E+00;  4.0000000E+04; -1.4457235E-02;  0.0000000E+00;  3.8857193E-04;  1.9159631E+03;
 -9.9999998E-03;  9.9999998E-03; -3.9999999E-02;1768;  0.0000000E+00;  0.0000000E+00;  0.0000000E+00;  1.0131342E+03;  1.0000000E-01;  1.0881470E+04;0;  0.0000000E+00;  0.0000000E+00;  0.0000000E+00;0; -1.4112688E-02;  4.0000000E+04;  0.0000000E+00;  0.0000000E+00;  4.0000000E+04;  0.0000000E+00;  4.0000000E+04; -1.4518030E-02;  0.0000000E+00;  4.0534220E-04;  1.9563792E+03;
 -9.9999998E-03;  9.9999998E-03; -2.9999999E-02;1769;  0.0000000E+00;  0.0000000E+00;  0.0000000E+00;  1.0130885E+03;  1.0000000E-01;  1.0843545E+04;0;  0.0000000E+00;  0.0000000E+00;  0.0000000E+00;0; -1.4150885E-02;  4.0000000E+04;  0.0000000E+00;  0.0000000E+00;  4.0000000E+04;  0.0000000E+00;  4.0000000E+04; -1.4573758E-02;  0.0000000E+00;  4.2287272E-04;  1.9842767E+03;
 -9.9999998E-03;  9.9999998E-03; -2.0000000E-02;1770;  0.0000000E+00;  0.0000000E+00;  0.0000000E+00;  1.0130546E+03;  1.0000000E-01;  1.0815497E+04;0;  0.0000000E+00;  0.0000000E+00;  0.0000000E+00;0; -1.4180220E-02;  4.0000000E+04;  0.0000000E+00;  0.0000000E+00;  4.0000000E+04;  0.0000000E+00;  4.0000000E+04; -1.4618491E-02;  0.0000000E+00;  4.3827129E-04;  2.0013384E+03;
 -9.9999998E-03;  9.9999998E-03; -9.9999998E-03;1771;  0.0000000E+00;  0.0000000E+00;  0.0000000E+00;  1.0130356E+03;  1.0000000E-01;  1.0799793E+04;0;  0.0000000E+00;  0.0000000E+00;  0.0000000E+00;0; -1.4198600E-02;  4.0000000E+04;  0.0000000E+00;  0.0000000E+00;  4.0000000E+04;  0.0000000E+00;  4.0000000E+04; -1.4647413E-02;  0.0000000E+00;  4.4881259E-04;  2.0101293E+03;
 -9.9999998E-03;  9.9999998E-03;  0.0000000E+00;1772;  0.0000000E+00;  0.0000000E+00;  0.0000000E+00;  1.0130299E+03;  1.0000000E-01;  1.0795053E+04;0;  0.0000000E+00;  0.0000000E+00;  0.0000000E+00;0; -1.4204852E-02;  4.0000000E+04;  0.0000000E+00;  0.0000000E+00;  4.0000000E+04;  0.0000000E+00;  4.0000000E+04; -1.4657414E-02;  0.0000000E+00;  4.5256090E-04;  2.0127742E+03;
 -9.9999998E-03;  9.9999998E-03;  9.9999998E-03;1773;  0.0000000E+00;  0.0000000E+00;  0.0000000E+00;  1.0130356E+03;  1.0000000E-01;  1.0799694E+04;0;  0.0000000E+00;  0.0000000E+00;  0.0000000E+00;0; -1.4198607E-02;  4.0000000E+04;  0.0000000E+00;  0.0000000E+00;  4.0000000E+04;  0.0000000E+00;  4.0000000E+04; -1.4647420E-02;  0.0000000E+00;  4.4881410E-04;  2.0101362E+03;
 -9.9999998E-03;  9.9999998E-03;  2.0000000E-02;1774;  0.0000000E+00;  0.0000000E+00;  0.0000000E+00;  1.0130546E+03;  1.0000000E-01;  1.0815497E+04;0;  0.0000000E+00;  0.0000000E+00;  0.0000000E+00;0; -1.4180223E-02;  4.0000000E+04;  0.0000000E+00;  0.0000000E+00;  4.0000000E+04;  0.0000000E+00;  4.0000000E+04; -1.4618496E-02;  0.0000000E+00;  4.3827420E-04;  2.0013490E+03;
 -9.9999998E-03;  9.9999998E-03;  2.9999999E-02;1775;  0.0000000E+00;  0.0000000E+00;  0.0000000E+00;  1.0130885E+03;  1.0000000E-01;  1.0843545E+04;0;  0.0000000E+00;  0.0000000E+00;  0.0000000E+00;0; -1.4150883E-02;  4.0000000E+04;  0.0000000E+00;  0.0000000E+00;  4.0000000E+04;  0.0000000E+00;  4.0000000E+04; -1.4573760E-02;  0.0000000E+00;  4.2287708E-04;  1.9842877E+03;
 -9.9999998E-03;  9.9999998E-03;  3.9999999E-02;1776;  0.0000000E+00;  0.0000000E+00;  0.0000000E+00;  1.0131342E+03;  1.0000000E-01;  1.0881470E+04;0;  0.0000000E+00;  0.0000000E+00;  0.0000000E+00;0; -1.4112695E-02;  4.0000000E+04;  0.0000000E+00;  0.0000000E+00;  4.0000000E+04;  0.0000000E+00;  4.0000000E+04; -1.4518043E-02;  0.0000000E+00;  4.0534747E-04;  1.9563904E+03;
 -9.9999998E-03;  9.9999998E-03;  5.0000001E-02;1777;  0.0000000E+00;  0.0000000E+00;  0.0000000E+00;  1.0131974E+03;  1.0000000E-01;  1.0933814E+04;0;  0.0000000E+00;  0.0000000E+00;  0.0000000E+00;0; -1.4068654E-02;  4.0000000E+04;  0.0000000E+00;  0.0000000E+00;  4.0000000E+04;  0.0000000E+00;  4.0000000E+04; -1.4457232E-02;  0.0000000E+00;  3.8857869E-04;  1.9159725E+03;
 -9.9999998E-03;  9.9999998E-03;  5.9999999E-02;1778;  0.0000000E+00;  0.0000000E+00;  0.0000000E+00;  1.0132755E+03;  1.0000000E-01;  1.0998504E+04;0;  0.0000000E+00;  0.0000000E+00;  0.0000000E+00;0; -1.4022487E-02;  4.0000000E+04;  0.0000000E+00;  0.0000000E+00;  4.0000000E+04;  0.0000000E+00;  4.0000000E+04; -1.4397508E-02;  0.0000000E+00;  3.7502160E-04;  1.8629674E+03;
 -1.9000000E-01;  9.9999998E-03;  7.0000000E-02;141;  0.0000000E+00;  0.0000000E+00;  0.0000000E+00;  1.0000000E+03;  1.0000000E-01;  0.0000000E+00;0;  0.0000000E+00;  0.0000000E+00;  0.0000000E+00;0;  0.0000000E+00;  4.0000000E+04;  0.0000000E+00;  0.0000000E+00;  4.0000000E+04;  0.0000000E+00;  4.0000000E+04;  0.0000000E+00;  0.0000000E+00;  0.0000000E+00;  0.0000000E+00;
 -1.9000000E-01;  9.9999998E-03;  7.9999998E-02;142;  0.0000000E+00;  0.0000000E+00;  0.0000000E+00;  1.0000000E+03;  1.0000000E-01;  0.0000000E+00;0;  0.0000000E+00;  0.0000000E+00;  0.0000000E+00;0;  0.0000000E+00;  4.0000000E+04;  0.0000000E+00;  0.0000000E+00;  4.0000000E+04;  0.0000000E+00;  4.0000000E+04;  0.0000000E+00;  0.0000000E+00;  0.0000000E+00;  0.0000000E+00;
 -1.9000000E-01;  9.9999998E-03;  9.0000004E-02;143;  0.0000000E+00;  0.0000000E+00;  0.0000000E+00;  1.0000000E+03;  1.0000000E-01;  0.0000000E+00;0;  0.0000000E+00;  0.0000000E+00;  0.0000000E+00;0;  0.0000000E+00;  4.0000000E+04;  0.0000000E+00;  0.0000000E+00;  4.0000000E+04;  0.0000000E+00;  4.0000000E+04;  0.0000000E+00;  0.0000000E+00;  0.0000000E+00;  0.0000000E+00;
 -1.9000000E-01;  9.9999998E-03;  1.0000000E-01;144;  0.0000000E+00;  0.0000000E+00;  0.0000000E+00;  1.0000000E+03;  1.0000000E-01;  0.0000000E+00;0;  0.0000000E+00;  0.0000000E+00;  0.0000000E+00;0;  0.0000000E+00;  4.0000000E+04;  0.0000000E+00;  0.0000000E+00;  4.0000000E+04;  0.0000000E+00;  4.0000000E+04;  0.0000000E+00;  0.0000000E+00;  0.0000000E+00;  0.0000000E+00;
 -1.9000000E-01;  9.9999998E-03;  1.1000000E-01;145;  0.0000000E+00;  0.0000000E+00;  0.0000000E+00;  1.0000000E+03;  1.0000000E-01;  0.0000000E+00;0;  0.0000000E+00;  0.0000000E+00;  0.0000000E+00;0;  0.0000000E+00;  4.0000000E+04;  0.0000000E+00;  0.0000000E+00;  4.0000000E+04;  0.0000000E+00;  4.0000000E+04;  0.0000000E+00;  0.0000000E+00;  0.0000000E+00;  0.0000000E+00;
 -1.9000000E-01;  9.9999998E-03;  1.2000000E-01;146;  0.0000000E+00;  0.0000000E+00;  0.0000000E+00;  1.0000000E+03;  1.0000000E-01;  0.0000000E+00;0;  0.0000000E+00;  0.0000000E+00;  0.0000000E+00;0;  0.0000000E+00;  4.0000000E+04;  0.0000000E+00;  0.0000000E+00;  4.0000000E+04;  0.0000000E+00;  4.0000000E+04;  0.0000000E+00;  0.0000000E+00;  0.0000000E+00;  0.0000000E+00;
 -1.9000000E-01;  9.9999998E-03;  1.3000000E-01;147;  0.0000000E+00;  0.0000000E+00;  0.0000000E+00;  1.0000000E+03;  1.0000000E-01;  0.0000000E+00;0;  0.0000000E+00;  0.0000000E+00;  0.0000000E+00;0;  0.0000000E+00;  4.0000000E+04;  0.0000000E+00;  0.0000000E+00;  4.0000000E+04;  0.0000000E+00;  4.0000000E+04;  0.0000000E+00;  0.0000000E+00;  0.0000000E+00;  0.0000000E+00;
 -1.9000000E-01;  9.9999998E-03;  1.4000000E-01;148;  0.0000000E+00;  0.0000000E+00;  0.0000000E+00;  1.0000000E+03;  1.0000000E-01;  0.0000000E+00;0;  0.0000000E+00;  0.0000000E+00;  0.0000000E+00;0;  0.0000000E+00;  4.0000000E+04;  0.0000000E+00;  0.0000000E+00;  4.0000000E+04;  0.0000000E+00;  4.0000000E+04;  0.0000000E+00;  0.0000000E+00;  0.0000000E+00;  0.0000000E+00;
 -1.9000000E-01;  9.9999998E-03;  1.5000001E-01;149;  0.0000000E+00;  0.0000000E+00;  0.0000000E+00;  1.0000000E+03;  1.0000000E-01;  0.0000000E+00;0;  0.0000000E+00;  0.0000000E+00;  0.0000000E+00;0;  0.0000000E+00;  4.0000000E+04;  0.0000000E+00;  0.0000000E+00;  4.0000000E+04;  0.0000000E+00;  4.0000000E+04;  0.0000000E+00;  0.0000000E+00;  0.0000000E+00;  0.0000000E+00;
 -1.9000000E-01;  9.9999998E-03;  1.6000000E-01;150;  0.0000000E+00;  0.0000000E+00;  0.0000000E+00;  1.0000000E+03;  1.0000000E-01;  0.0000000E+00;0;  0.0000000E+00;  0.0000000E+00;  0.0000000E+00;0;  0.0000000E+00;  4.0000000E+04;  0.0000000E+00;  0.0000000E+00;  4.0000000E+04;  0.0000000E+00;  4.0000000E+04;  0.0000000E+00;  0.0000000E+00;  0.0000000E+00;  0.0000000E+00;
 -1.9000000E-01;  9.9999998E-03;  1.7000000E-01;151;  0.0000000E+00;  0.0000000E+00;  0.0000000E+00;  1.0000000E+03;  1.0000000E-01;  0.0000000E+00;0;  0.0000000E+00;  0.0000000E+00;  0.0000000E+00;0;  0.0000000E+00;  4.0000000E+04;  0.0000000E+00;  0.0000000E+00;  4.0000000E+04;  0.0000000E+00;  4.0000000E+04;  0.0000000E+00;  0.0000000E+00;  0.0000000E+00;  0.0000000E+00;
 -1.9000000E-01;  9.9999998E-03;  1.8000001E-01;152;  0.0000000E+00;  0.0000000E+00;  0.0000000E+00;  1.0000000E+03;  1.0000000E-01;  0.0000000E+00;0;  0.0000000E+00;  0.0000000E+00;  0.0000000E+00;0;  0.0000000E+00;  4.0000000E+04;  0.0000000E+00;  0.0000000E+00;  4.0000000E+04;  0.0000000E+00;  4.0000000E+04;  0.0000000E+00;  0.0000000E+00;  0.0000000E+00;  0.0000000E+00;
 -1.9000000E-01;  9.9999998E-03;  1.9000000E-01;153;  0.0000000E+00;  0.0000000E+00;  0.0000000E+00;  1.0000000E+03;  1.0000000E-01;  0.0000000E+00;0;  0.0000000E+00;  0.0000000E+00;  0.0000000E+00;0;  0.0000000E+00;  4.0000000E+04;  0.0000000E+00;  0.0000000E+00;  4.0000000E+04;  0.0000000E+00;  4.0000000E+04;  0.0000000E+00;  0.0000000E+00;  0.0000000E+00;  0.0000000E+00;
 -1.9000000E-01;  9.9999998E-03;  2.0000000E-01;154;  0.0000000E+00;  0.0000000E+00;  0.0000000E+00;  1.0000000E+03;  1.0000000E-01;  0.0000000E+00;0;  0.0000000E+00;  0.0000000E+00;  0.0000000E+00;0;  0.0000000E+00;  4.0000000E+04;  0.0000000E+00;  0.0000000E+00;  4.0000000E+04;  0.0000000E+00;  4.0000000E+04;  0.0000000E+00;  0.0000000E+00;  0.0000000E+00;  0.0000000E+00;
 -1.9000000E-01;  9.9999998E-03;  2.0999999E-01;155;  0.0000000E+00;  0.0000000E+00;  0.0000000E+00;  1.0000000E+03;  1.0000000E-01;  0.0000000E+00;0;  0.0000000E+00;  0.0000000E+00;  0.0000000E+00;0;  0.0000000E+00;  4.0000000E+04;  0.0000000E+00;  0.0000000E+00;  4.0000000E+04;  0.0000000E+00;  4.0000000E+04;  0.0000000E+00;  0.0000000E+00;  0.0000000E+00;  0.0000000E+00;
 -1.9000000E-01;  9.9999998E-03;  2.2000000E-01;156;  0.0000000E+00;  0.0000000E+00;  0.0000000E+00;  1.0000000E+03;  1.0000000E-01;  0.0000000E+00;0;  0.0000000E+00;  0.0000000E+00;  0.0000000E+00;0;  0.0000000E+00;  4.0000000E+04;  0.0000000E+00;  0.0000000E+00;  4.0000000E+04;  0.0000000E+00;  4.0000000E+04;  0.0000000E+00;  0.0000000E+00;  0.0000000E+00;  0.0000000E+00;
 -1.9000000E-01;  9.9999998E-03;  2.3000000E-01;157;  0.0000000E+00;  0.0000000E+00;  0.0000000E+00;  1.0000000E+03;  1.0000000E-01;  0.0000000E+00;0;  0.0000000E+00;  0.0000000E+00;  0.0000000E+00;0;  0.0000000E+00;  4.0000000E+04;  0.0000000E+00;  0.0000000E+00;  4.0000000E+04;  0.0000000E+00;  4.0000000E+04;  0.0000000E+00;  0.0000000E+00;  0.0000000E+00;  0.0000000E+00;
 -1.8000001E-01;  9.9999998E-03;  7.0000000E-02;232;  0.0000000E+00;  0.0000000E+00;  0.0000000E+00;  1.0000000E+03;  1.0000000E-01;  0.0000000E+00;0;  0.0000000E+00;  0.0000000E+00;  0.0000000E+00;0;  0.0000000E+00;  4.0000000E+04;  0.0000000E+00;  0.0000000E+00;  4.0000000E+04;  0.0000000E+00;  4.0000000E+04;  0.0000000E+00;  0.0000000E+00;  0.0000000E+00;  0.0000000E+00;
 -1.8000001E-01;  9.9999998E-03;  7.9999998E-02;233;  0.0000000E+00;  0.0000000E+00;  0.0000000E+00;  1.0000000E+03;  1.0000000E-01;  0.0000000E+00;0;  0.0000000E+00;  0.0000000E+00;  0.0000000E+00;0;  0.0000000E+00;  4.0000000E+04;  0.0000000E+00;  0.0000000E+00;  4.0000000E+04;  0.0000000E+00;  4.0000000E+04;  0.0000000E+00;  0.0000000E+00;  0.0000000E+00;  0.0000000E+00;
 -1.8000001E-01;  9.9999998E-03;  9.0000004E-02;234;  0.0000000E+00;  0.0000000E+00;  0.0000000E+00;  1.0000000E+03;  1.0000000E-01;  0.0000000E+00;0;  0.0000000E+00;  0.0000000E+00;  0.0000000E+00;0;  0.0000000E+00;  4.0000000E+04;  0.0000000E+00;  0.0000000E+00;  4.0000000E+04;  0.0000000E+00;  4.0000000E+04;  0.0000000E+00;  0.0000000E+00;  0.0000000E+00;  0.0000000E+00;
 -1.8000001E-01;  9.9999998E-03;  1.0000000E-01;235;  0.0000000E+00;  0.0000000E+00;  0.0000000E+00;  1.0000000E+03;  1.0000000E-01;  0.0000000E+00;0;  0.0000000E+00;  0.0000000E+00;  0.0000000E+00;0;  0.0000000E+00;  4.0000000E+04;  0.0000000E+00;  0.0000000E+00;  4.0000000E+04;  0.0000000E+00;  4.0000000E+04;  0.0000000E+00;  0.0000000E+00;  0.0000000E+00;  0.0000000E+00;
 -1.8000001E-01;  9.9999998E-03;  1.1000000E-01;236;  0.0000000E+00;  0.0000000E+00;  0.0000000E+00;  1.0000000E+03;  1.0000000E-01;  0.0000000E+00;0;  0.0000000E+00;  0.0000000E+00;  0.0000000E+00;0;  0.0000000E+00;  4.0000000E+04;  0.0000000E+00;  0.0000000E+00;  4.0000000E+04;  0.0000000E+00;  4.0000000E+04;  0.0000000E+00;  0.0000000E+00;  0.0000000E+00;  0.0000000E+00;
 -1.8000001E-01;  9.9999998E-03;  1.2000000E-01;237;  0.0000000E+00;  0.0000000E+00;  0.0000000E+00;  1.0000000E+03;  1.0000000E-01;  0.0000000E+00;0;  0.0000000E+00;  0.0000000E+00;  0.0000000E+00;0;  0.0000000E+00;  4.0000000E+04;  0.0000000E+00;  0.0000000E+00;  4.0000000E+04;  0.0000000E+00;  4.0000000E+04;  0.0000000E+00;  0.0000000E+00;  0.0000000E+00;  0.0000000E+00;
 -1.8000001E-01;  9.9999998E-03;  1.3000000E-01;238;  0.0000000E+00;  0.0000000E+00;  0.0000000E+00;  1.0000000E+03;  1.0000000E-01;  0.0000000E+00;0;  0.0000000E+00;  0.0000000E+00;  0.0000000E+00;0;  0.0000000E+00;  4.0000000E+04;  0.0000000E+00;  0.0000000E+00;  4.0000000E+04;  0.0000000E+00;  4.0000000E+04;  0.0000000E+00;  0.0000000E+00;  0.0000000E+00;  0.0000000E+00;
 -1.8000001E-01;  9.9999998E-03;  1.4000000E-01;239;  0.0000000E+00;  0.0000000E+00;  0.0000000E+00;  1.0000000E+03;  1.0000000E-01;  0.0000000E+00;0;  0.0000000E+00;  0.0000000E+00;  0.0000000E+00;0;  0.0000000E+00;  4.0000000E+04;  0.0000000E+00;  0.0000000E+00;  4.0000000E+04;  0.0000000E+00;  4.0000000E+04;  0.0000000E+00;  0.0000000E+00;  0.0000000E+00;  0.0000000E+00;
 -1.8000001E-01;  9.9999998E-03;  1.5000001E-01;240;  0.0000000E+00;  0.0000000E+00;  0.0000000E+00;  1.0000000E+03;  1.0000000E-01;  0.0000000E+00;0;  0.0000000E+00;  0.0000000E+00;  0.0000000E+00;0;  0.0000000E+00;  4.0000000E+04;  0.0000000E+00;  0.0000000E+00;  4.0000000E+04;  0.0000000E+00;  4.0000000E+04;  0.0000000E+00;  0.0000000E+00;  0.0000000E+00;  0.0000000E+00;
 -1.8000001E-01;  9.9999998E-03;  1.6000000E-01;241;  0.0000000E+00;  0.0000000E+00;  0.0000000E+00;  1.0000000E+03;  1.0000000E-01;  0.0000000E+00;0;  0.0000000E+00;  0.0000000E+00;  0.0000000E+00;0;  0.0000000E+00;  4.0000000E+04;  0.0000000E+00;  0.0000000E+00;  4.0000000E+04;  0.0000000E+00;  4.0000000E+04;  0.0000000E+00;  0.0000000E+00;  0.0000000E+00;  0.0000000E+00;
 -1.8000001E-01;  9.9999998E-03;  1.7000000E-01;242;  0.0000000E+00;  0.0000000E+00;  0.0000000E+00;  1.0000000E+03;  1.0000000E-01;  0.0000000E+00;0;  0.0000000E+00;  0.0000000E+00;  0.0000000E+00;0;  0.0000000E+00;  4.0000000E+04;  0.0000000E+00;  0.0000000E+00;  4.0000000E+04;  0.0000000E+00;  4.0000000E+04;  0.0000000E+00;  0.0000000E+00;  0.0000000E+00;  0.0000000E+00;
 -1.8000001E-01;  9.9999998E-03;  1.8000001E-01;243;  0.0000000E+00;  0.0000000E+00;  0.0000000E+00;  1.0000000E+03;  1.0000000E-01;  0.0000000E+00;0;  0.0000000E+00;  0.0000000E+00;  0.0000000E+00;0;  0.0000000E+00;  4.0000000E+04;  0.0000000E+00;  0.0000000E+00;  4.0000000E+04;  0.0000000E+00;  4.0000000E+04;  0.0000000E+00;  0.0000000E+00;  0.0000000E+00;  0.0000000E+00;
 -1.8000001E-01;  9.9999998E-03;  1.9000000E-01;244;  0.0000000E+00;  0.0000000E+00;  0.0000000E+00;  1.0000000E+03;  1.0000000E-01;  0.0000000E+00;0;  0.0000000E+00;  0.0000000E+00;  0.0000000E+00;0;  0.0000000E+00;  4.0000000E+04;  0.0000000E+00;  0.0000000E+00;  4.0000000E+04;  0.0000000E+00;  4.0000000E+04;  0.0000000E+00;  0.0000000E+00;  0.0000000E+00;  0.0000000E+00;
 -1.8000001E-01;  9.9999998E-03;  2.0000000E-01;245;  0.0000000E+00;  0.0000000E+00;  0.0000000E+00;  1.0000000E+03;  1.0000000E-01;  0.0000000E+00;0;  0.0000000E+00;  0.0000000E+00;  0.0000000E+00;0;  0.0000000E+00;  4.0000000E+04;  0.0000000E+00;  0.0000000E+00;  4.0000000E+04;  0.0000000E+00;  4.0000000E+04;  0.0000000E+00;  0.0000000E+00;  0.0000000E+00;  0.0000000E+00;
 -1.8000001E-01;  9.9999998E-03;  2.0999999E-01;246;  0.0000000E+00;  0.0000000E+00;  0.0000000E+00;  1.0000000E+03;  1.0000000E-01;  0.0000000E+00;0;  0.0000000E+00;  0.0000000E+00;  0.0000000E+00;0;  0.0000000E+00;  4.0000000E+04;  0.0000000E+00;  0.0000000E+00;  4.0000000E+04;  0.0000000E+00;  4.0000000E+04;  0.0000000E+00;  0.0000000E+00;  0.0000000E+00;  0.0000000E+00;
 -1.8000001E-01;  9.9999998E-03;  2.2000000E-01;247;  0.0000000E+00;  0.0000000E+00;  0.0000000E+00;  1.0000000E+03;  1.0000000E-01;  0.0000000E+00;0;  0.0000000E+00;  0.0000000E+00;  0.0000000E+00;0;  0.0000000E+00;  4.0000000E+04;  0.0000000E+00;  0.0000000E+00;  4.0000000E+04;  0.0000000E+00;  4.0000000E+04;  0.0000000E+00;  0.0000000E+00;  0.0000000E+00;  0.0000000E+00;
 -1.8000001E-01;  9.9999998E-03;  2.3000000E-01;248;  0.0000000E+00;  0.0000000E+00;  0.0000000E+00;  1.0000000E+03;  1.0000000E-01;  0.0000000E+00;0;  0.0000000E+00;  0.0000000E+00;  0.0000000E+00;0;  0.0000000E+00;  4.0000000E+04;  0.0000000E+00;  0.0000000E+00;  4.0000000E+04;  0.0000000E+00;  4.0000000E+04;  0.0000000E+00;  0.0000000E+00;  0.0000000E+00;  0.0000000E+00;
 -1.7000000E-01;  9.9999998E-03;  7.0000000E-02;323;  0.0000000E+00;  0.0000000E+00;  0.0000000E+00;  1.0000000E+03;  1.0000000E-01;  0.0000000E+00;0;  0.0000000E+00;  0.0000000E+00;  0.0000000E+00;0;  0.0000000E+00;  4.0000000E+04;  0.0000000E+00;  0.0000000E+00;  4.0000000E+04;  0.0000000E+00;  4.0000000E+04;  0.0000000E+00;  0.0000000E+00;  0.0000000E+00;  2.0677076E-09;
 -1.7000000E-01;  9.9999998E-03;  7.9999998E-02;324;  0.0000000E+00;  0.0000000E+00;  0.0000000E+00;  1.0000000E+03;  1.0000000E-01;  0.0000000E+00;0;  0.0000000E+00;  0.0000000E+00;  0.0000000E+00;0;  0.0000000E+00;  4.0000000E+04;  0.0000000E+00;  0.0000000E+00;  4.0000000E+04;  0.0000000E+00;  4.0000000E+04;  0.0000000E+00;  0.0000000E+00;  0.0000000E+00;  2.0276110E-09;
 -1.7000000E-01;  9.9999998E-03;  9.0000004E-02;325;  0.0000000E+00;  0.0000000E+00;  0.0000000E+00;  1.0000000E+03;  1.0000000E-01;  0.0000000E+00;0;  0.0000000E+00;  0.0000000E+00;  0.0000000E+00;0;  0.0000000E+00;  4.0000000E+04;  0.0000000E+00;  0.0000000E+00;  4.0000000E+04;  0.0000000E+00;  4.0000000E+04;  0.0000000E+00;  0.0000000E+00;  0.0000000E+00;  1.9964661E-09;
 -1.7000000E-01;  9.9999998E-03;  1.0000000E-01;326;  0.0000000E+00;  0.0000000E+00;  0.0000000E+00;  1.0000000E+03;  1.0000000E-01;  0.0000000E+00;0;  0.0000000E+00;  0.0000000E+00;  0.0000000E+00;0;  0.0000000E+00;  4.0000000E+04;  0.0000000E+00;  0.0000000E+00;  4.0000000E+04;  0.0000000E+00;  4.0000000E+04;  0.0000000E+00;  0.0000000E+00;  0.0000000E+00;  1.9806543E-09;
 -1.7000000E-01;  9.9999998E-03;  1.1000000E-01;327;  0.0000000E+00;  0.0000000E+00;  0.0000000E+00;  1.0000000E+03;  1.0000000E-01;  0.0000000E+00;0;  0.0000000E+00;  0.0000000E+00;  0.0000000E+00;0;  0.0000000E+00;  4.0000000E+04;  0.0000000E+00;  0.0000000E+00;  4.0000000E+04;  0.0000000E+00;  4.0000000E+04;  0.0000000E+00;  0.0000000E+00;  0.0000000E+00;  1.9613826E-09;
 -1.7000000E-01;  9.9999998E-03;  1.2000000E-01;328;  0.0000000E+00;  0.0000000E+00;  0.0000000E+00;  1.0000000E+03;  1.0000000E-01;  0.0000000E+00;0;  0.0000000E+00;  0.0000000E+00;  0.0000000E+00;0;  0.0000000E+00;  4.0000000E+04;  0.0000000E+00;  0.0000000E+00;  4.0000000E+04;  0.0000000E+00;  4.0000000E+04;  0.0000000E+00;  0.0000000E+00;  0.0000000E+00;  1.9547131E-09;
 -1.7000000E-01;  9.9999998E-03;  1.3000000E-01;329;  0.0000000E+00;  0.0000000E+00;  0.0000000E+00;  1.0000000E+03;  1.0000000E-01;  0.0000000E+00;0;  0.0000000E+00;  0.0000000E+00;  0.0000000E+00;0;  0.0000000E+00;  4.0000000E+04;  0.0000000E+00;  0.0000000E+00;  4.0000000E+04;  0.0000000E+00;  4.0000000E+04;  0.0000000E+00;  0.0000000E+00;  0.0000000E+00;  1.9304123E-09;
 -1.7000000E-01;  9.9999998E-03;  1.4000000E-01;330;  0.0000000E+00;  0.0000000E+00;  0.0000000E+00;  1.0000000E+03;  1.0000000E-01;  0.0000000E+00;0;  0.0000000E+00;  0.0000000E+00;  0.0000000E+00;0;  0.0000000E+00;  4.0000000E+04;  0.0000000E+00;  0.0000000E+00;  4.0000000E+04;  0.0000000E+00;  4.0000000E+04;  0.0000000E+00;  0.0000000E+00;  0.0000000E+00;  1.9071280E-09;
 -1.7000000E-01;  9.9999998E-03;  1.5000001E-01;331;  0.0000000E+00;  0.0000000E+00;  0.0000000E+00;  1.0000000E+03;  1.0000000E-01;  0.0000000E+00;0;  0.0000000E+00;  0.0000000E+00;  0.0000000E+00;0;  0.0000000E+00;  4.0000000E+04;  0.0000000E+00;  0.0000000E+00;  4.0000000E+04;  0.0000000E+00;  4.0000000E+04;  0.0000000E+00;  0.0000000E+00;  0.0000000E+00;  1.8279691E-09;
 -1.7000000E-01;  9.9999998E-03;  1.6000000E-01;332;  0.0000000E+00;  0.0000000E+00;  0.0000000E+00;  1.0000000E+03;  1.0000000E-01;  0.0000000E+00;0;  0.0000000E+00;  0.0000000E+00;  0.0000000E+00;0;  0.0000000E+00;  4.0000000E+04;  0.0000000E+00;  0.0000000E+00;  4.0000000E+04;  0.0000000E+00;  4.0000000E+04;  0.0000000E+00;  0.0000000E+00;  0.0000000E+00;  1.7068014E-09;
 -1.7000000E-01;  9.9999998E-03;  1.7000000E-01;333;  0.0000000E+00;  0.0000000E+00;  0.0000000E+00;  1.0000000E+03;  1.0000000E-01;  0.0000000E+00;0;  0.0000000E+00;  0.0000000E+00;  0.0000000E+00;0;  0.0000000E+00;  4.0000000E+04;  0.0000000E+00;  0.0000000E+00;  4.0000000E+04;  0.0000000E+00;  4.0000000E+04;  0.0000000E+00;  0.0000000E+00;  0.0000000E+00;  1.5737418E-09;
 -1.7000000E-01;  9.9999998E-03;  1.8000001E-01;334;  0.0000000E+00;  0.0000000E+00;  0.0000000E+00;  1.0000000E+03;  1.0000000E-01;  0.0000000E+00;0;  0.0000000E+00;  0.0000000E+00;  0.0000000E+00;0;  0.0000000E+00;  4.0000000E+04;  0.0000000E+00;  0.0000000E+00;  4.0000000E+04;  0.0000000E+00;  4.0000000E+04;  0.0000000E+00;  0.0000000E+00;  0.0000000E+00;  1.4536757E-09;
 -1.7000000E-01;  9.9999998E-03;  1.9000000E-01;335;  0.0000000E+00;  0.0000000E+00;  0.0000000E+00;  1.0000000E+03;  1.0000000E-01;  0.0000000E+00;0;  0.0000000E+00;  0.0000000E+00;  0.0000000E+00;0;  0.0000000E+00;  4.0000000E+04;  0.0000000E+00;  0.0000000E+00;  4.0000000E+04;  0.0000000E+00;  4.0000000E+04;  0.0000000E+00;  0.0000000E+00;  0.0000000E+00;  1.3804979E-09;
 -1.7000000E-01;  9.9999998E-03;  2.0000000E-01;336;  0.0000000E+00;  0.0000000E+00;  0.0000000E+00;  1.0000000E+03;  1.0000000E-01;  0.0000000E+00;0;  0.0000000E+00;  0.0000000E+00;  0.0000000E+00;0;  0.0000000E+00;  4.0000000E+04;  0.0000000E+00;  0.0000000E+00;  4.0000000E+04;  0.0000000E+00;  4.0000000E+04;  0.0000000E+00;  0.0000000E+00;  0.0000000E+00;  1.3572699E-09;
 -1.7000000E-01;  9.9999998E-03;  2.0999999E-01;337;  0.0000000E+00;  0.0000000E+00;  0.0000000E+00;  1.0000000E+03;  1.0000000E-01;  0.0000000E+00;0;  0.0000000E+00;  0.0000000E+00;  0.0000000E+00;0;  0.0000000E+00;  4.0000000E+04;  0.0000000E+00;  0.0000000E+00;  4.0000000E+04;  0.0000000E+00;  4.0000000E+04;  0.0000000E+00;  0.0000000E+00;  0.0000000E+00;  1.3090043E-09;
 -1.7000000E-01;  9.9999998E-03;  2.2000000E-01;338;  0.0000000E+00;  0.0000000E+00;  0.0000000E+00;  1.0000000E+03;  1.0000000E-01;  0.0000000E+00;0;  0.0000000E+00;  0.0000000E+00;  0.0000000E+00;0;  0.0000000E+00;  4.0000000E+04;  0.0000000E+00;  0.0000000E+00;  4.0000000E+04;  0.0000000E+00;  4.0000000E+04;  0.0000000E+00;  0.0000000E+00;  0.0000000E+00;  1.1702984E-09;
 -1.7000000E-01;  9.9999998E-03;  2.3000000E-01;339;  0.0000000E+00;  0.0000000E+00;  0.0000000E+00;  1.0000000E+03;  1.0000000E-01;  0.0000000E+00;0;  0.0000000E+00;  0.0000000E+00;  0.0000000E+00;0;  0.0000000E+00;  4.0000000E+04;  0.0000000E+00;  0.0000000E+00;  4.0000000E+04;  0.0000000E+00;  4.0000000E+04;  0.0000000E+00;  0.0000000E+00;  0.0000000E+00;  9.6134622E-10;
 -1.6000000E-01;  9.9999998E-03;  7.0000000E-02;414;  0.0000000E+00;  0.0000000E+00;  0.0000000E+00;  1.0000000E+03;  1.0000000E-01;  0.0000000E+00;0;  0.0000000E+00;  0.0000000E+00;  0.0000000E+00;0;  1.3599295E-07;  4.0000000E+04;  0.0000000E+00;  0.0000000E+00;  4.0000000E+04;  0.0000000E+00;  4.0000000E+04;  1.3591507E-07;  0.0000000E+00;  7.7876892E-11;  2.7282780E-01;
 -1.6000000E-01;  9.9999998E-03;  7.9999998E-02;415;  0.0000000E+00;  0.0000000E+00;  0.0000000E+00;  1.0000000E+03;  1.0000000E-01;  0.0000000E+00;0;  0.0000000E+00;  0.0000000E+00;  0.0000000E+00;0;  1.3832768E-07;  4.0000000E+04;  0.0000000E+00;  0.0000000E+00;  4.0000000E+04;  0.0000000E+00;  4.0000000E+04;  1.3824362E-07;  0.0000000E+00;  8.4060849E-11;  2.7314451E-01;
 -1.6000000E-01;  9.9999998E-03;  9.0000004E-02;416;  0.0000000E+00;  0.0000000E+00;  0.0000000E+00;  1.0000000E+03;  1.0000000E-01;  0.0000000E+00;0;  0.0000000E+00;  0.0000000E+00;  0.0000000E+00;0;  1.3944650E-07;  4.0000000E+04;  0.0000000E+00;  0.0000000E+00;  4.0000000E+04;  0.0000000E+00;  4.0000000E+04;  1.3933517E-07;  0.0000000E+00;  1.1133122E-10;  2.7424353E-01;
 -1.6000000E-01;  9.9999998E-03;  1.0000000E-01;417;  0.0000000E+00;  0.0000000E+00;  0.0000000E+00;  1.0000000E+03;  1.0000000E-01;  0.0000000E+00;0;  0.0000000E+00;  0.0000000E+00;  0.0000000E+00;0;  1.3899013E-07;  4.0000000E+04;  0.0000000E+00;  0.0000000E+00;  4.0000000E+04;  0.0000000E+00;  4.0000000E+04;  1.3883420E-07;  0.0000000E+00;  1.5594075E-10;  2.7644548E-01;
 -1.6000000E-01;  9.9999998E-03;  1.1000000E-01;418;  0.0000000E+00;  0.0000000E+00;  0.0000000E+00;  1.0000000E+03;  1.0000000E-01;  0.0000000E+00;0;  0.0000000E+00;  0.0000000E+00;  0.0000000E+00;0;  1.3683781E-07;  4.0000000E+04;  0.0000000E+00;  0.0000000E+00;  4.0000000E+04;  0.0000000E+00;  4.0000000E+04;  1.3662049E-07;  0.0000000E+00;  2.1732613E-10;  2.7982223E-01;
 -1.6000000E-01;  9.9999998E-03;  1.2000000E-01;419;  0.0000000E+00;  0.0000000E+00;  0.0000000E+00;  1.0000000E+03;  1.0000000E-01;  0.0000000E+00;0;  0.0000000E+00;  0.0000000E+00;  0.0000000E+00;0;  1.3323262E-07;  4.0000000E+04;  0.0000000E+00;  0.0000000E+00;  4.0000000E+04;  0.0000000E+00;  4.0000000E+04;  1.3293138E-07;  0.0000000E+00;  3.0123787E-10;  2.8406605E-01;
 -1.6000000E-01;  9.9999998E-03;  1.3000000E-01;420;  0.0000000E+00;  0.0000000E+00;  0.0000000E+00;  1.0000000E+03;  1.0000000E-01;  0.0000000E+00;0;  0.0000000E+00;  0.0000000E+00;  0.0000000E+00;0;  1.2887105E-07;  4.0000000E+04;  0.0000000E+00;  0.0000000E+00;  4.0000000E+04;  0.0000000E+00;  4.0000000E+04;  1.2845187E-07;  0.0000000E+00;  4.1917292E-10;  2.8853589E-01;
 -1.6000000E-01;  9.9999998E-03;  1.4000000E-01;421;  0.0000000E+00;  0.0000000E+00;  0.0000000E+00;  1.0000000E+03;  1.0000000E-01;  0.0000000E+00;0;  0.0000000E+00;  0.0000000E+00;  0.0000000E+00;0;  1.2494053E-07;  4.0000000E+04;  0.0000000E+00;  0.0000000E+00;  4.0000000E+04;  0.0000000E+00;  4.0000000E+04;  1.2435737E-07;  0.0000000E+00;  5.8315874E-10;  2.9242772E-01;
 -1.6000000E-01;  9.9999998E-03;  1.5000001E-01;422;  0.0000000E+00;  0.0000000E+00;  0.0000000E+00;  1.0000000E+03;  1.0000000E-01;  0.0000000E+00;0;  0.0000000E+00;  0.0000000E+00;  0.0000000E+00;0;  1.2306920E-07;  4.0000000E+04;  0.0000000E+00;  0.0000000E+00;  4.0000000E+04;  0.0000000E+00;  4.0000000E+04;  1.2226869E-07;  0.0000000E+00;  8.0051055E-10;  2.9496661E-01;
 -1.6000000E-01;  9.9999998E-03;  1.6000000E-01;423;  0.0000000E+00;  0.0000000E+00;  0.0000000E+00;  1.0000000E+03;  1.0000000E-01;  0.0000000E+00;0;  0.0000000E+00;  0.0000000E+00;  0.0000000E+00;0;  1.2520293E-07;  4.0000000E+04;  0.0000000E+00;  0.0000000E+00;  4.0000000E+04;  0.0000000E+00;  4.0000000E+04;  1.2412728E-07;  0.0000000E+00;  1.0756444E-09;  2.9546615E-01;
 -1.6000000E-01;  9.9999998E-03;  1.7000000E-01;424;  0.0000000E+00;  0.0000000E+00;  0.0000000E+00;  1.0000000E+03;  1.0000000E-01;  0.0000000E+00;0;  0.0000000E+00;  0.0000000E+00;  0.0000000E+00;0;  1.3343244E-07;  4.0000000E+04;  0.0000000E+00;  0.0000000E+00;  4.0000000E+04;  0.0000000E+00;  4.0000000E+04;  1.3201144E-07;  0.0000000E+00;  1.4210039E-09;  2.9333654E-01;
 -1.6000000E-01;  9.9999998E-03;  1.8000001E-01;425;  0.0000000E+00;  0.0000000E+00;  0.0000000E+00;  1.0000000E+03;  1.0000000E-01;  0.0000000E+00;0;  0.0000000E+00;  0.0000000E+00;  0.0000000E+00;0;  1.4979756E-07;  4.0000000E+04;  0.0000000E+00;  0.0000000E+00;  4.0000000E+04;  0.0000000E+00;  4.0000000E+04;  1.4792961E-07;  0.0000000E+00;  1.8679427E-09;  2.8813943E-01;
 -1.6000000E-01;  9.9999998E-03;  1.9000000E-01;426;  0.0000000E+00;  0.0000000E+00;  0.0000000E+00;  1.0000000E+03;  1.0000000E-01;  0.0000000E+00;0;  0.0000000E+00;  0.0000000E+00;  0.0000000E+00;0;  1.7603685E-07;  4.0000000E+04;  0.0000000E+00;  0.0000000E+00;  4.0000000E+04;  0.0000000E+00;  4.0000000E+04;  1.7356994E-07;  0.0000000E+00;  2.4669056E-09;  2.7977362E-01;
 -1.6000000E-01;  9.9999998E-03;  2.0000000E-01;427;  0.0000000E+00;  0.0000000E+00;  0.0000000E+00;  1.0000000E+03;  1.0000000E-01;  0.0000000E+00;0;  0.0000000E+00;  0.0000000E+00;  0.0000000E+00;0;  2.1308938E-07;  4.0000000E+04;  0.0000000E+00;  0.0000000E+00;  4.0000000E+04;  0.0000000E+00;  4.0000000E+04;  2.0981673E-07;  0.0000000E+00;  3.2726435E-09;  2.6864171E-01;
 -1.6000000E-01;  9.9999998E-03;  2.0999999E-01;428;  0.0000000E+00;  0.0000000E+00;  0.0000000E+00;  1.0000000E+03;  1.0000000E-01;  0.0000000E+00;0;  0.0000000E+00;  0.0000000E+00;  0.0000000E+00;0;  2.6010008E-07;  4.0000000E+04;  0.0000000E+00;  0.0000000E+00;  4.0000000E+04;  0.0000000E+00;  4.0000000E+04;  2.5577765E-07;  0.0000000E+00;  4.3224415E-09;  2.5565428E-01;
 -1.6000000E-01;  9.9999998E-03;  2.2000000E-01;429;  0.0000000E+00;  0.0000000E+00;  0.0000000E+00;  1.0000000E+03;  1.0000000E-01;  0.0000000E+00;0;  0.0000000E+00;  0.0000000E+00;  0.0000000E+00;0;  3.1286507E-07;  4.0000000E+04;  0.0000000E+00;  0.0000000E+00;  4.0000000E+04;  0.0000000E+00;  4.0000000E+04;  3.0723371E-07;  0.0000000E+00;  5.6313567E-09;  2.4171630E-01;
 -1.6000000E-01;  9.9999998E-03;  2.3000000E-01;430;  0.0000000E+00;  0.0000000E+00;  0.0000000E+00;  1.0000000E+03;  1.0000000E-01;  0.0000000E+00;0;  0.0000000E+00;  0.0000000E+00;  0.0000000E+00;0;  3.6172543E-07;  4.0000000E+04;  0.0000000E+00;  0.0000000E+00;  4.0000000E+04;  0.0000000E+00;  4.0000000E+04;  3.5457342E-07;  0.0000000E+00;  7.1520212E-09;  2.2642130E-01;
 -1.5000001E-01;  9.9999998E-03;  7.0000000E-02;505;  0.0000000E+00;  0.0000000E+00;  0.0000000E+00;  1.0000000E+03;  1.0000000E-01;  0.0000000E+00;0;  0.0000000E+00;  0.0000000E+00;  0.0000000E+00;0;  4.1846038E-06;  4.0000000E+04;  0.0000000E+00;  0.0000000E+00;  4.0000000E+04;  0.0000000E+00;  4.0000000E+04;  4.1736766E-06;  0.0000000E+00;  1.0927063E-08;  4.2739635E+00;
 -1.5000001E-01;  9.9999998E-03;  7.9999998E-02;506;  0.0000000E+00;  0.0000000E+00;  0.0000000E+00;  1.0000000E+03;  1.0000000E-01;  0.0000000E+00;0;  0.0000000E+00;  0.0000000E+00;  0.0000000E+00;0;  4.2557267E-06;  4.0000000E+04;  0.0000000E+00;  0.0000000E+00;  4.0000000E+04;  0.0000000E+00;  4.0000000E+04;  4.2446618E-06;  0.0000000E+00;  1.1064874E-08;  4.2636757E+00;
 -1.5000001E-01;  9.9999998E-03;  9.0000004E-02;507;  0.0000000E+00;  0.0000000E+00;  0.0000000E+00;  1.0000000E+03;  1.0000000E-01;  0.0000000E+00;0;  0.0000000E+00;  0.0000000E+00;  0.0000000E+00;0;  4.2884908E-06;  4.0000000E+04;  0.0000000E+00;  0.0000000E+00;  4.0000000E+04;  0.0000000E+00;  4.0000000E+04;  4.2756078E-06;  0.0000000E+00;  1.2882883E-08;  4.2603302E+00;
 -1.5000001E-01;  9.9999998E-03;  1.0000000E-01;508;  0.0000000E+00;  0.0000000E+00;  0.0000000E+00;  1.0000000E+03;  1.0000000E-01;  0.0000000E+00;0;  0.0000000E+00;  0.0000000E+00;  0.0000000E+00;0;  4.2752035E-06;  4.0000000E+04;  0.0000000E+00;  0.0000000E+00;  4.0000000E+04;  0.0000000E+00;  4.0000000E+04;  4.2588008E-06;  0.0000000E+00;  1.6402623E-08;  4.2693310E+00;
 -1.5000001E-01;  9.9999998E-03;  1.1000000E-01;509;  0.0000000E+00;  0.0000000E+00;  0.0000000E+00;  1.0000000E+03;  1.0000000E-01;  0.0000000E+00;0;  0.0000000E+00;  0.0000000E+00;  0.0000000E+00;0;  4.2163629E-06;  4.0000000E+04;  0.0000000E+00;  0.0000000E+00;  4.0000000E+04;  0.0000000E+00;  4.0000000E+04;  4.1946196E-06;  0.0000000E+00;  2.1743380E-08;  4.2914062E+00;
 -1.5000001E-01;  9.9999998E-03;  1.2000000E-01;510;  0.0000000E+00;  0.0000000E+00;  0.0000000E+00;  1.0000000E+03;  1.0000000E-01;  0.0000000E+00;0;  0.0000000E+00;  0.0000000E+00;  0.0000000E+00;0;  4.1229814E-06;  4.0000000E+04;  0.0000000E+00;  0.0000000E+00;  4.0000000E+04;  0.0000000E+00;  4.0000000E+04;  4.0938462E-06;  0.0000000E+00;  2.9135256E-08;  4.3220763E+00;
 -1.5000001E-01;  9.9999998E-03;  1.3000000E-01;511;  0.0000000E+00;  0.0000000E+00;  0.0000000E+00;  1.0000000E+03;  1.0000000E-01;  0.0000000E+00;0;  0.0000000E+00;  0.0000000E+00;  0.0000000E+00;0;  4.0173691E-06;  4.0000000E+04;  0.0000000E+00;  0.0000000E+00;  4.0000000E+04;  0.0000000E+00;  4.0000000E+04;  3.9785518E-06;  0.0000000E+00;  3.8817134E-08;  4.3530698E+00;
 -1.5000001E-01;  9.9999998E-03;  1.4000000E-01;512;  0.0000000E+00;  0.0000000E+00;  0.0000000E+00;  1.0000000E+03;  1.0000000E-01;  0.0000000E+00;0;  0.0000000E+00;  0.0000000E+00;  0.0000000E+00;0;  3.9316874E-06;  4.0000000E+04;  0.0000000E+00;  0.0000000E+00;  4.0000000E+04;  0.0000000E+00;  4.0000000E+04;  3.8807993E-06;  0.0000000E+00;  5.0888136E-08;  4.3746738E+00;
 -1.5000001E-01;  9.9999998E-03;  1.5000001E-01;513;  0.0000000E+00;  0.0000000E+00;  0.0000000E+00;  1.0000000E+03;  1.0000000E-01;  0.0000000E+00;0;  0.0000000E+00;  0.0000000E+00;  0.0000000E+00;0;  3.9040870E-06;  4.0000000E+04;  0.0000000E+00;  0.0000000E+00;  4.0000000E+04;  0.0000000E+00;  4.0000000E+04;  3.8388894E-06;  0.0000000E+00;  6.5197632E-08;  4.3781486E+00;
 -1.5000001E-01;  9.9999998E-03;  1.6000000E-01;514;  0.0000000E+00;  0.0000000E+00;  0.0000000E+00;  1.0000000E+03;  1.0000000E-01;  0.0000000E+00;0;  0.0000000E+00;  0.0000000E+00;  0.0000000E+00;0;  3.9727247E-06;  4.0000000E+04;  0.0000000E+00;  0.0000000E+00;  4.0000000E+04;  0.0000000E+00;  4.0000000E+04;  3.8914141E-06;  0.0000000E+00;  8.1310517E-08;  4.3576398E+00;
 -1.5000001E-01;  9.9999998E-03;  1.7000000E-01;515;  0.0000000E+00;  0.0000000E+00;  0.0000000E+00;  1.0000000E+03;  1.0000000E-01;  0.0000000E+00;0;  0.0000000E+00;  0.0000000E+00;  0.0000000E+00;0;  4.1678240E-06;  4.0000000E+04;  0.0000000E+00;  0.0000000E+00;  4.0000000E+04;  0.0000000E+00;  4.0000000E+04;  4.0693049E-06;  0.0000000E+00;  9.8519017E-08;  4.3109002E+00;
 -1.5000001E-01;  9.9999998E-03;  1.8000001E-01;516;  0.0000000E+00;  0.0000000E+00;  0.0000000E+00;  1.0000000E+03;  1.0000000E-01;  0.0000000E+00;0;  0.0000000E+00;  0.0000000E+00;  0.0000000E+00;0;  4.5024763E-06;  4.0000000E+04;  0.0000000E+00;  0.0000000E+00;  4.0000000E+04;  0.0000000E+00;  4.0000000E+04;  4.3866125E-06;  0.0000000E+00;  1.1586376E-07;  4.2391291E+00;
 -1.5000001E-01;  9.9999998E-03;  1.9000000E-01;517;  0.0000000E+00;  0.0000000E+00;  0.0000000E+00;  1.0000000E+03;  1.0000000E-01;  0.0000000E+00;0;  0.0000000E+00;  0.0000000E+00;  0.0000000E+00;0;  4.9630007E-06;  4.0000000E+04;  0.0000000E+00;  0.0000000E+00;  4.0000000E+04;  0.0000000E+00;  4.0000000E+04;  4.8308498E-06;  0.0000000E+00;  1.3215080E-07;  4.1463184E+00;
 -1.5000001E-01;  9.9999998E-03;  2.0000000E-01;518;  0.0000000E+00;  0.0000000E+00;  0.0000000E+00;  1.0000000E+03;  1.0000000E-01;  0.0000000E+00;0;  0.0000000E+00;  0.0000000E+00;  0.0000000E+00;0;  5.5004552E-06;  4.0000000E+04;  0.0000000E+00;  0.0000000E+00;  4.0000000E+04;  0.0000000E+00;  4.0000000E+04;  5.3544795E-06;  0.0000000E+00;  1.4597582E-07;  4.0359454E+00;
 -1.5000001E-01;  9.9999998E-03;  2.0999999E-01;519;  0.0000000E+00;  0.0000000E+00;  0.0000000E+00;  1.0000000E+03;  1.0000000E-01;  0.0000000E+00;0;  0.0000000E+00;  0.0000000E+00;  0.0000000E+00;0;  6.0257089E-06;  4.0000000E+04;  0.0000000E+00;  0.0000000E+00;  4.0000000E+04;  0.0000000E+00;  4.0000000E+04;  5.8700025E-06;  0.0000000E+00;  1.5570649E-07;  3.9036593E+00;
 -1.5000001E-01;  9.9999998E-03;  2.2000000E-01;520;  0.0000000E+00;  0.0000000E+00;  0.0000000E+00;  1.0000000E+03;  1.0000000E-01;  0.0000000E+00;0;  0.0000000E+00;  0.0000000E+00;  0.0000000E+00;0;  6.4133351E-06;  4.0000000E+04;  0.0000000E+00;  0.0000000E+00;  4.0000000E+04;  0.0000000E+00;  4.0000000E+04;  6.2536624E-06;  0.0000000E+00;  1.5967278E-07;  3.7247851E+00;
 -1.5000001E-01;  9.9999998E-03;  2.3000000E-01;521;  0.0000000E+00;  0.0000000E+00;  0.0000000E+00;  1.0000000E+03;  1.0000000E-01;  0.0000000E+00;0;  0.0000000E+00;  0.0000000E+00;  0.0000000E+00;0;  6.5238605E-06;  4.0000000E+04;  0.0000000E+00;  0.0000000E+00;  4.0000000E+04;  0.0000000E+00;  4.0000000E+04;  6.3699731E-06;  0.0000000E+00;  1.5388738E-07;  3.4423635E+00;
 -1.4000000E-01;  9.9999998E-03;  7.0000000E-02;596;  0.0000000E+00;  0.0000000E+00;  0.0000000E+00;  1.0000000E+03;  1.0000000E-01;  0.0000000E+00;0;  0.0000000E+00;  0.0000000E+00;  0.0000000E+00;0;  1.8194753E-05;  4.0000000E+04;  0.0000000E+00;  0.0000000E+00;  4.0000000E+04;  0.0000000E+00;  4.0000000E+04;  1.8080578E-05;  0.0000000E+00;  1.1417468E-07;  1.9743752E+01;
 -1.4000000E-01;  9.9999998E-03;  7.9999998E-02;597;  0.0000000E+00;  0.0000000E+00;  0.0000000E+00;  1.0000000E+03;  1.0000000E-01;  0.0000000E+00;0;  0.0000000E+00;  0.0000000E+00;  0.0000000E+00;0;  1.8504001E-05;  4.0000000E+04;  0.0000000E+00;  0.0000000E+00;  4.0000000E+04;  0.0000000E+00;  4.0000000E+04;  1.8388791E-05;  0.0000000E+00;  1.1520974E-07;  1.9646505E+01;
 -1.4000000E-01;  9.9999998E-03;  9.0000004E-02;598;  0.0000000E+00;  0.0000000E+00;  0.0000000E+00;  1.0000000E+03;  1.0000000E-01;  0.0000000E+00;0;  0.0000000E+00;  0.0000000E+00;  0.0000000E+00;0;  1.8641787E-05;  4.0000000E+04;  0.0000000E+00;  0.0000000E+00;  4.0000000E+04;  0.0000000E+00;  4.0000000E+04;  1.8511555E-05;  0.0000000E+00;  1.3023318E-07;  1.9551657E+01;
 -1.4000000E-01;  9.9999998E-03;  1.0000000E-01;599;  0.0000000E+00;  0.0000000E+00;  0.0000000E+00;  1.0000000E+03;  1.0000000E-01;  0.0000000E+00;0;  0.0000000E+00;  0.0000000E+00;  0.0000000E+00;0;  1.8587381E-05;  4.0000000E+04;  0.0000000E+00;  0.0000000E+00;  4.0000000E+04;  0.0000000E+00;  4.0000000E+04;  1.8427056E-05;  0.0000000E+00;  1.6032649E-07;  1.9481169E+01;
 -1.4000000E-01;  9.9999998E-03;  1.1000000E-01;600;  0.0000000E+00;  0.0000000E+00;  0.0000000E+00;  1.0000000E+03;  1.0000000E-01;  0.0000000E+00;0;  0.0000000E+00;  0.0000000E+00;  0.0000000E+00;0;  1.8357629E-05;  4.0000000E+04;  0.0000000E+00;  0.0000000E+00;  4.0000000E+04;  0.0000000E+00;  4.0000000E+04;  1.8151306E-05;  0.0000000E+00;  2.0632193E-07;  1.9444187E+01;
 -1.4000000E-01;  9.9999998E-03;  1.2000000E-01;601;  0.0000000E+00;  0.0000000E+00;  0.0000000E+00;  1.0000000E+03;  1.0000000E-01;  0.0000000E+00;0;  0.0000000E+00;  0.0000000E+00;  0.0000000E+00;0;  1.8013308E-05;  4.0000000E+04;  0.0000000E+00;  0.0000000E+00;  4.0000000E+04;  0.0000000E+00;  4.0000000E+04;  1.7744575E-05;  0.0000000E+00;  2.6873298E-07;  1.9434788E+01;
 -1.4000000E-01;  9.9999998E-03;  1.3000000E-01;602;  0.0000000E+00;  0.0000000E+00;  0.0000000E+00;  1.0000000E+03;  1.0000000E-01;  0.0000000E+00;0;  0.0000000E+00;  0.0000000E+00;  0.0000000E+00;0;  1.7658065E-05;  4.0000000E+04;  0.0000000E+00;  0.0000000E+00;  4.0000000E+04;  0.0000000E+00;  4.0000000E+04;  1.7310671E-05;  0.0000000E+00;  3.4739332E-07;  1.9434948E+01;
 -1.4000000E-01;  9.9999998E-03;  1.4000000E-01;603;  0.0000000E+00;  0.0000000E+00;  0.0000000E+00;  1.0000000E+03;  1.0000000E-01;  0.0000000E+00;0;  0.0000000E+00;  0.0000000E+00;  0.0000000E+00;0;  1.7427836E-05;  4.0000000E+04;  0.0000000E+00;  0.0000000E+00;  4.0000000E+04;  0.0000000E+00;  4.0000000E+04;  1.6986924E-05;  0.0000000E+00;  4.4091212E-07;  1.9422119E+01;
 -1.4000000E-01;  9.9999998E-03;  1.5000001E-01;604;  0.0000000E+00;  0.0000000E+00;  0.0000000E+00;  1.0000000E+03;  1.0000000E-01;  0.0000000E+00;0;  0.0000000E+00;  0.0000000E+00;  0.0000000E+00;0;  1.7470491E-05;  4.0000000E+04;  0.0000000E+00;  0.0000000E+00;  4.0000000E+04;  0.0000000E+00;  4.0000000E+04;  1.6924383E-05;  0.0000000E+00;  5.4610842E-07;  1.9378098E+01;
 -1.4000000E-01;  9.9999998E-03;  1.6000000E-01;605;  0.0000000E+00;  0.0000000E+00;  0.0000000E+00;  1.0000000E+03;  1.0000000E-01;  0.0000000E+00;0;  0.0000000E+00;  0.0000000E+00;  0.0000000E+00;0;  1.7916689E-05;  4.0000000E+04;  0.0000000E+00;  0.0000000E+00;  4.0000000E+04;  0.0000000E+00;  4.0000000E+04;  1.7259110E-05;  0.0000000E+00;  6.5757990E-07;  1.9295889E+01;
 -1.4000000E-01;  9.9999998E-03;  1.7000000E-01;606;  0.0000000E+00;  0.0000000E+00;  0.0000000E+00;  1.0000000E+03;  1.0000000E-01;  0.0000000E+00;0;  0.0000000E+00;  0.0000000E+00;  0.0000000E+00;0;  1.8844716E-05;  4.0000000E+04;  0.0000000E+00;  0.0000000E+00;  4.0000000E+04;  0.0000000E+00;  4.0000000E+04;  1.8077219E-05;  0.0000000E+00;  7.6749762E-07;  1.9183002E+01;
 -1.4000000E-01;  9.9999998E-03;  1.8000001E-01;607;  0.0000000E+00;  0.0000000E+00;  0.0000000E+00;  1.0000000E+03;  1.0000000E-01;  0.0000000E+00;0;  0.0000000E+00;  0.0000000E+00;  0.0000000E+00;0;  2.0243389E-05;  4.0000000E+04;  0.0000000E+00;  0.0000000E+00;  4.0000000E+04;  0.0000000E+00;  4.0000000E+04;  1.9377609E-05;  0.0000000E+00;  8.6578103E-07;  1.9056047E+01;
 -1.4000000E-01;  9.9999998E-03;  1.9000000E-01;608;  0.0000000E+00;  0.0000000E+00;  0.0000000E+00;  1.0000000E+03;  1.0000000E-01;  0.0000000E+00;0;  0.0000000E+00;  0.0000000E+00;  0.0000000E+00;0;  2.1980155E-05;  4.0000000E+04;  0.0000000E+00;  0.0000000E+00;  4.0000000E+04;  0.0000000E+00;  4.0000000E+04;  2.1039392E-05;  0.0000000E+00;  9.4076336E-07;  1.8922487E+01;
 -1.4000000E-01;  9.9999998E-03;  2.0000000E-01;609;  0.0000000E+00;  0.0000000E+00;  0.0000000E+00;  1.0000000E+03;  1.0000000E-01;  0.0000000E+00;0;  0.0000000E+00;  0.0000000E+00;  0.0000000E+00;0;  2.3785771E-05;  4.0000000E+04;  0.0000000E+00;  0.0000000E+00;  4.0000000E+04;  0.0000000E+00;  4.0000000E+04;  2.2805280E-05;  0.0000000E+00;  9.8049213E-07;  1.8745083E+01;
 -1.4000000E-01;  9.9999998E-03;  2.0999999E-01;610;  0.0000000E+00;  0.0000000E+00;  0.0000000E+00;  1.0000000E+03;  1.0000000E-01;  0.0000000E+00;0;  0.0000000E+00;  0.0000000E+00;  0.0000000E+00;0;  2.5272493E-05;  4.0000000E+04;  0.0000000E+00;  0.0000000E+00;  4.0000000E+04;  0.0000000E+00;  4.0000000E+04;  2.4298621E-05;  0.0000000E+00;  9.7387181E-07;  1.8392284E+01;
 -1.4000000E-01;  9.9999998E-03;  2.2000000E-01;611;  0.0000000E+00;  0.0000000E+00;  0.0000000E+00;  1.0000000E+03;  1.0000000E-01;  0.0000000E+00;0;  0.0000000E+00;  0.0000000E+00;  0.0000000E+00;0;  2.6006461E-05;  4.0000000E+04;  0.0000000E+00;  0.0000000E+00;  4.0000000E+04;  0.0000000E+00;  4.0000000E+04;  2.5112324E-05;  0.0000000E+00;  8.9413635E-07;  1.7631208E+01;
 -1.4000000E-01;  9.9999998E-03;  2.3000000E-01;612;  0.0000000E+00;  0.0000000E+00;  0.0000000E+00;  1.0000000E+03;  1.0000000E-01;  0.0000000E+00;0;  0.0000000E+00;  0.0000000E+00;  0.0000000E+00;0;  2.5618527E-05;  4.0000000E+04;  0.0000000E+00;  0.0000000E+00;  4.0000000E+04;  0.0000000E+00;  4.0000000E+04;  2.4909015E-05;  0.0000000E+00;  7.0951103E-07;  1.6220081E+01;
 -1.3000000E-01;  9.9999998E-03;  7.0000000E-02;687;  0.0000000E+00;  0.0000000E+00;  0.0000000E+00;  1.0000000E+03;  1.0000000E-01;  0.0000000E+00;0;  0.0000000E+00;  0.0000000E+00;  0.0000000E+00;0;  3.8674516E-05;  4.0000000E+04;  0.0000000E+00;  0.0000000E+00;  4.0000000E+04;  0.0000000E+00;  4.0000000E+04;  3.8127491E-05;  0.0000000E+00;  5.4702514E-07;  5.5788589E+01;
 -1.3000000E-01;  9.9999998E-03;  7.9999998E-02;688;  0.0000000E+00;  0.0000000E+00;  0.0000000E+00;  1.0000000E+03;  1.0000000E-01;  0.0000000E+00;0;  0.0000000E+00;  0.0000000E+00;  0.0000000E+00;0;  3.9451344E-05;  4.0000000E+04;  0.0000000E+00;  0.0000000E+00;  4.0000000E+04;  0.0000000E+00;  4.0000000E+04;  3.8896895E-05;  0.0000000E+00;  5.5445111E-07;  5.5367348E+01;
 -1.3000000E-01;  9.9999998E-03;  9.0000004E-02;689;  0.0000000E+00;  0.0000000E+00;  0.0000000E+00;  1.0000000E+03;  1.0000000E-01;  0.0000000E+00;0;  0.0000000E+00;  0.0000000E+00;  0.0000000E+00;0;  3.9810060E-05;  4.0000000E+04;  0.0000000E+00;  0.0000000E+00;  4.0000000E+04;  0.0000000E+00;  4.0000000E+04;  3.9191957E-05;  0.0000000E+00;  6.1810499E-07;  5.4879398E+01;
 -1.3000000E-01;  9.9999998E-03;  1.0000000E-01;690;  0.0000000E+00;  0.0000000E+00;  0.0000000E+00;  1.0000000E+03;  1.0000000E-01;  0.0000000E+00;0;  0.0000000E+00;  0.0000000E+00;  0.0000000E+00;0;  3.9727067E-05;  4.0000000E+04;  0.0000000E+00;  0.0000000E+00;  4.0000000E+04;  0.0000000E+00;  4.0000000E+04;  3.8984072E-05;  0.0000000E+00;  7.4299629E-07;  5.4386459E+01;
 -1.3000000E-01;  9.9999998E-03;  1.1000000E-01;691;  0.0000000E+00;  0.0000000E+00;  0.0000000E+00;  1.0000000E+03;  1.0000000E-01;  0.0000000E+00;0;  0.0000000E+00;  0.0000000E+00;  0.0000000E+00;0;  3.9273546E-05;  4.0000000E+04;  0.0000000E+00;  0.0000000E+00;  4.0000000E+04;  0.0000000E+00;  4.0000000E+04;  3.8342318E-05;  0.0000000E+00;  9.3122867E-07;  5.3935776E+01;
 -1.3000000E-01;  9.9999998E-03;  1.2000000E-01;692;  0.0000000E+00;  0.0000000E+00;  0.0000000E+00;  1.0000000E+03;  1.0000000E-01;  0.0000000E+00;0;  0.0000000E+00;  0.0000000E+00;  0.0000000E+00;0;  3.8624126E-05;  4.0000000E+04;  0.0000000E+00;  0.0000000E+00;  4.0000000E+04;  0.0000000E+00;  4.0000000E+04;  3.7442369E-05;  0.0000000E+00;  1.1817583E-06;  5.3553452E+01;
 -1.3000000E-01;  9.9999998E-03;  1.3000000E-01;693;  0.0000000E+00;  0.0000000E+00;  0.0000000E+00;  1.0000000E+03;  1.0000000E-01;  0.0000000E+00;0;  0.0000000E+00;  0.0000000E+00;  0.0000000E+00;0;  3.8046197E-05;  4.0000000E+04;  0.0000000E+00;  0.0000000E+00;  4.0000000E+04;  0.0000000E+00;  4.0000000E+04;  3.6556543E-05;  0.0000000E+00;  1.4896541E-06;  5.3246952E+01;
 -1.3000000E-01;  9.9999998E-03;  1.4000000E-01;694;  0.0000000E+00;  0.0000000E+00;  0.0000000E+00;  1.0000000E+03;  1.0000000E-01;  0.0000000E+00;0;  0.0000000E+00;  0.0000000E+00;  0.0000000E+00;0;  3.7866786E-05;  4.0000000E+04;  0.0000000E+00;  0.0000000E+00;  4.0000000E+04;  0.0000000E+00;  4.0000000E+04;  3.6021924E-05;  0.0000000E+00;  1.8448633E-06;  5.3017887E+01;
 -1.3000000E-01;  9.9999998E-03;  1.5000001E-01;695;  0.0000000E+00;  0.0000000E+00;  0.0000000E+00;  1.0000000E+03;  1.0000000E-01;  0.0000000E+00;0;  0.0000000E+00;  0.0000000E+00;  0.0000000E+00;0;  3.8416052E-05;  4.0000000E+04;  0.0000000E+00;  0.0000000E+00;  4.0000000E+04;  0.0000000E+00;  4.0000000E+04;  3.6185433E-05;  0.0000000E+00;  2.2306201E-06;  5.2877827E+01;
 -1.3000000E-01;  9.9999998E-03;  1.6000000E-01;696;  0.0000000E+00;  0.0000000E+00;  0.0000000E+00;  1.0000000E+03;  1.0000000E-01;  0.0000000E+00;0;  0.0000000E+00;  0.0000000E+00;  0.0000000E+00;0;  3.9951359E-05;  4.0000000E+04;  0.0000000E+00;  0.0000000E+00;  4.0000000E+04;  0.0000000E+00;  4.0000000E+04;  3.7329424E-05;  0.0000000E+00;  2.6219354E-06;  5.2860245E+01;
 -1.3000000E-01;  9.9999998E-03;  1.7000000E-01;697;  0.0000000E+00;  0.0000000E+00;  0.0000000E+00;  1.0000000E+03;  1.0000000E-01;  0.0000000E+00;0;  0.0000000E+00;  0.0000000E+00;  0.0000000E+00;0;  4.2570231E-05;  4.0000000E+04;  0.0000000E+00;  0.0000000E+00;  4.0000000E+04;  0.0000000E+00;  4.0000000E+04;  3.9585018E-05;  0.0000000E+00;  2.9852129E-06;  5.3015488E+01;
 -1.3000000E-01;  9.9999998E-03;  1.8000001E-01;698;  0.0000000E+00;  0.0000000E+00;  0.0000000E+00;  1.0000000E+03;  1.0000000E-01;  0.0000000E+00;0;  0.0000000E+00;  0.0000000E+00;  0.0000000E+00;0;  4.6129851E-05;  4.0000000E+04;  0.0000000E+00;  0.0000000E+00;  4.0000000E+04;  0.0000000E+00;  4.0000000E+04;  4.2850061E-05;  0.0000000E+00;  3.2797909E-06;  5.3369816E+01;
 -1.3000000E-01;  9.9999998E-03;  1.9000000E-01;699;  0.0000000E+00;  0.0000000E+00;  0.0000000E+00;  1.0000000E+03;  1.0000000E-01;  0.0000000E+00;0;  0.0000000E+00;  0.0000000E+00;  0.0000000E+00;0;  5.0199371E-05;  4.0000000E+04;  0.0000000E+00;  0.0000000E+00;  4.0000000E+04;  0.0000000E+00;  4.0000000E+04;  4.6736775E-05;  0.0000000E+00;  3.4625941E-06;  5.3840015E+01;
 -1.3000000E-01;  9.9999998E-03;  2.0000000E-01;700;  0.0000000E+00;  0.0000000E+00;  0.0000000E+00;  1.0000000E+03;  1.0000000E-01;  0.0000000E+00;0;  0.0000000E+00;  0.0000000E+00;  0.0000000E+00;0;  5.4075066E-05;  4.0000000E+04;  0.0000000E+00;  0.0000000E+00;  4.0000000E+04;  0.0000000E+00;  4.0000000E+04;  5.0587685E-05;  0.0000000E+00;  3.4873817E-06;  5.4111454E+01;
 -1.3000000E-01;  9.9999998E-03;  2.0999999E-01;701;  0.0000000E+00;  0.0000000E+00;  0.0000000E+00;  1.0000000E+03;  1.0000000E-01;  0.0000000E+00;0;  0.0000000E+00;  0.0000000E+00;  0.0000000E+00;0;  5.6884670E-05;  4.0000000E+04;  0.0000000E+00;  0.0000000E+00;  4.0000000E+04;  0.0000000E+00;  4.0000000E+04;  5.3604486E-05;  0.0000000E+00;  3.2801825E-06;  5.3622231E+01;
 -1.3000000E-01;  9.9999998E-03;  2.2000000E-01;702;  0.0000000E+00;  0.0000000E+00;  0.0000000E+00;  1.0000000E+03;  1.0000000E-01;  0.0000000E+00;0;  0.0000000E+00;  0.0000000E+00;  0.0000000E+00;0;  5.7765385E-05;  4.0000000E+04;  0.0000000E+00;  0.0000000E+00;  4.0000000E+04;  0.0000000E+00;  4.0000000E+04;  5.4990662E-05;  0.0000000E+00;  2.7747244E-06;  5.1695648E+01;
 -1.3000000E-01;  9.9999998E-03;  2.3000000E-01;703;  0.0000000E+00;  0.0000000E+00;  0.0000000E+00;  1.0000000E+03;  1.0000000E-01;  0.0000000E+00;0;  0.0000000E+00;  0.0000000E+00;  0.0000000E+00;0;  5.6081652E-05;  4.0000000E+04;  0.0000000E+00;  0.0000000E+00;  4.0000000E+04;  0.0000000E+00;  4.0000000E+04;  5.4144588E-05;  0.0000000E+00;  1.9370623E-06;  4.7700478E+01;
 -1.2000000E-01;  9.9999998E-03;  7.0000000E-02;778;  0.0000000E+00;  0.0000000E+00;  0.0000000E+00;  1.0000000E+03;  1.0000000E-01;  0.0000000E+00;0;  0.0000000E+00;  0.0000000E+00;  0.0000000E+00;0;  4.6304027E-05;  4.0000000E+04;  0.0000000E+00;  0.0000000E+00;  4.0000000E+04;  0.0000000E+00;  4.0000000E+04;  4.4529148E-05;  0.0000000E+00;  1.7748794E-06;  1.2052773E+02;
 -1.2000000E-01;  9.9999998E-03;  7.9999998E-02;779;  0.0000000E+00;  0.0000000E+00;  0.0000000E+00;  1.0000000E+03;  1.0000000E-01;  0.0000000E+00;0;  0.0000000E+00;  0.0000000E+00;  0.0000000E+00;0;  4.7830370E-05;  4.0000000E+04;  0.0000000E+00;  0.0000000E+00;  4.0000000E+04;  0.0000000E+00;  4.0000000E+04;  4.6022786E-05;  0.0000000E+00;  1.8075833E-06;  1.1926592E+02;
 -1.2000000E-01;  9.9999998E-03;  9.0000004E-02;780;  0.0000000E+00;  0.0000000E+00;  0.0000000E+00;  1.0000000E+03;  1.0000000E-01;  0.0000000E+00;0;  0.0000000E+00;  0.0000000E+00;  0.0000000E+00;0;  4.8603772E-05;  4.0000000E+04;  0.0000000E+00;  0.0000000E+00;  4.0000000E+04;  0.0000000E+00;  4.0000000E+04;  4.6608078E-05;  0.0000000E+00;  1.9956917E-06;  1.1773415E+02;
 -1.2000000E-01;  9.9999998E-03;  1.0000000E-01;781;  0.0000000E+00;  0.0000000E+00;  0.0000000E+00;  1.0000000E+03;  1.0000000E-01;  0.0000000E+00;0;  0.0000000E+00;  0.0000000E+00;  0.0000000E+00;0;  4.8624843E-05;  4.0000000E+04;  0.0000000E+00;  0.0000000E+00;  4.0000000E+04;  0.0000000E+00;  4.0000000E+04;  4.6272427E-05;  0.0000000E+00;  2.3524155E-06;  1.1607343E+02;
 -1.2000000E-01;  9.9999998E-03;  1.1000000E-01;782;  0.0000000E+00;  0.0000000E+00;  0.0000000E+00;  1.0000000E+03;  1.0000000E-01;  0.0000000E+00;0;  0.0000000E+00;  0.0000000E+00;  0.0000000E+00;0;  4.8074573E-05;  4.0000000E+04;  0.0000000E+00;  0.0000000E+00;  4.0000000E+04;  0.0000000E+00;  4.0000000E+04;  4.5194312E-05;  0.0000000E+00;  2.8802619E-06;  1.1443641E+02;
 -1.2000000E-01;  9.9999998E-03;  1.2000000E-01;783;  0.0000000E+00;  0.0000000E+00;  0.0000000E+00;  1.0000000E+03;  1.0000000E-01;  0.0000000E+00;0;  0.0000000E+00;  0.0000000E+00;  0.0000000E+00;0;  4.7319787E-05;  4.0000000E+04;  0.0000000E+00;  0.0000000E+00;  4.0000000E+04;  0.0000000E+00;  4.0000000E+04;  4.3749173E-05;  0.0000000E+00;  3.5706139E-06;  1.1296921E+02;
 -1.2000000E-01;  9.9999998E-03;  1.3000000E-01;784;  0.0000000E+00;  0.0000000E+00;  0.0000000E+00;  1.0000000E+03;  1.0000000E-01;  0.0000000E+00;0;  0.0000000E+00;  0.0000000E+00;  0.0000000E+00;0;  4.6882058E-05;  4.0000000E+04;  0.0000000E+00;  0.0000000E+00;  4.0000000E+04;  0.0000000E+00;  4.0000000E+04;  4.2479645E-05;  0.0000000E+00;  4.4024127E-06;  1.1180598E+02;
 -1.2000000E-01;  9.9999998E-03;  1.4000000E-01;785;  0.0000000E+00;  0.0000000E+00;  0.0000000E+00;  1.0000000E+03;  1.0000000E-01;  0.0000000E+00;0;  0.0000000E+00;  0.0000000E+00;  0.0000000E+00;0;  4.7363046E-05;  4.0000000E+04;  0.0000000E+00;  0.0000000E+00;  4.0000000E+04;  0.0000000E+00;  4.0000000E+04;  4.2023516E-05;  0.0000000E+00;  5.3395306E-06;  1.1108807E+02;
 -1.2000000E-01;  9.9999998E-03;  1.5000001E-01;786;  0.0000000E+00;  0.0000000E+00;  0.0000000E+00;  1.0000000E+03;  1.0000000E-01;  0.0000000E+00;0;  0.0000000E+00;  0.0000000E+00;  0.0000000E+00;0;  4.9326452E-05;  4.0000000E+04;  0.0000000E+00;  0.0000000E+00;  4.0000000E+04;  0.0000000E+00;  4.0000000E+04;  4.2999025E-05;  0.0000000E+00;  6.3274279E-06;  1.1097349E+02;
 -1.2000000E-01;  9.9999998E-03;  1.6000000E-01;787;  0.0000000E+00;  0.0000000E+00;  0.0000000E+00;  1.0000000E+03;  1.0000000E-01;  0.0000000E+00;0;  0.0000000E+00;  0.0000000E+00;  0.0000000E+00;0;  5.3150499E-05;  4.0000000E+04;  0.0000000E+00;  0.0000000E+00;  4.0000000E+04;  0.0000000E+00;  4.0000000E+04;  4.5859284E-05;  0.0000000E+00;  7.2912158E-06;  1.1163258E+02;
 -1.2000000E-01;  9.9999998E-03;  1.7000000E-01;788;  0.0000000E+00;  0.0000000E+00;  0.0000000E+00;  1.0000000E+03;  1.0000000E-01;  0.0000000E+00;0;  0.0000000E+00;  0.0000000E+00;  0.0000000E+00;0;  5.8874895E-05;  4.0000000E+04;  0.0000000E+00;  0.0000000E+00;  4.0000000E+04;  0.0000000E+00;  4.0000000E+04;  5.0737686E-05;  0.0000000E+00;  8.1372109E-06;  1.1319038E+02;
 -1.2000000E-01;  9.9999998E-03;  1.8000001E-01;789;  0.0000000E+00;  0.0000000E+00;  0.0000000E+00;  1.0000000E+03;  1.0000000E-01;  0.0000000E+00;0;  0.0000000E+00;  0.0000000E+00;  0.0000000E+00;0;  6.6085151E-05;  4.0000000E+04;  0.0000000E+00;  0.0000000E+00;  4.0000000E+04;  0.0000000E+00;  4.0000000E+04;  5.7324272E-05;  0.0000000E+00;  8.7608769E-06;  1.1557612E+02;
 -1.2000000E-01;  9.9999998E-03;  1.9000000E-01;790;  0.0000000E+00;  0.0000000E+00;  0.0000000E+00;  1.0000000E+03;  1.0000000E-01;  0.0000000E+00;0;  0.0000000E+00;  0.0000000E+00;  0.0000000E+00;0;  7.3879361E-05;  4.0000000E+04;  0.0000000E+00;  0.0000000E+00;  4.0000000E+04;  0.0000000E+00;  4.0000000E+04;  6.4833905E-05;  0.0000000E+00;  9.0454569E-06;  1.1829935E+02;
 -1.2000000E-01;  9.9999998E-03;  2.0000000E-01;791;  0.0000000E+00;  0.0000000E+00;  0.0000000E+00;  1.0000000E+03;  1.0000000E-01;  0.0000000E+00;0;  0.0000000E+00;  0.0000000E+00;  0.0000000E+00;0;  8.0950886E-05;  4.0000000E+04;  0.0000000E+00;  0.0000000E+00;  4.0000000E+04;  0.0000000E+00;  4.0000000E+04;  7.2118135E-05;  0.0000000E+00;  8.8327515E-06;  1.2036129E+02;
 -1.2000000E-01;  9.9999998E-03;  2.0999999E-01;792;  0.0000000E+00;  0.0000000E+00;  0.0000000E+00;  1.0000000E+03;  1.0000000E-01;  0.0000000E+00;0;  0.0000000E+00;  0.0000000E+00;  0.0000000E+00;0;  8.5815380E-05;  4.0000000E+04;  0.0000000E+00;  0.0000000E+00;  4.0000000E+04;  0.0000000E+00;  4.0000000E+04;  7.7838806E-05;  0.0000000E+00;  7.9765705E-06;  1.2036973E+02;
 -1.2000000E-01;  9.9999998E-03;  2.2000000E-01;793;  0.0000000E+00;  0.0000000E+00;  0.0000000E+00;  1.0000000E+03;  1.0000000E-01;  0.0000000E+00;0;  0.0000000E+00;  0.0000000E+00;  0.0000000E+00;0;  8.7131040E-05;  4.0000000E+04;  0.0000000E+00;  0.0000000E+00;  4.0000000E+04;  0.0000000E+00;  4.0000000E+04;  8.0753147E-05;  0.0000000E+00;  6.3778925E-06;  1.1675161E+02;
 -1.2000000E-01;  9.9999998E-03;  2.3000000E-01;794;  0.0000000E+00;  0.0000000E+00;  0.0000000E+00;  1.0000000E+03;  1.0000000E-01;  0.0000000E+00;0;  0.0000000E+00;  0.0000000E+00;  0.0000000E+00;0;  8.4016843E-05;  4.0000000E+04;  0.0000000E+00;  0.0000000E+00;  4.0000000E+04;  0.0000000E+00;  4.0000000E+04;  7.9989324E-05;  0.0000000E+00;  4.0275218E-06;  1.0814445E+02;
 -1.1000000E-01;  9.9999998E-03;  7.0000000E-02;869;  0.0000000E+00;  0.0000000E+00;  0.0000000E+00;  1.0000000E+03;  1.0000000E-01;  0.0000000E+00;0;  0.0000000E+00;  0.0000000E+00;  0.0000000E+00;0;  5.3544049E-06;  4.0000000E+04;  0.0000000E+00;  0.0000000E+00;  4.0000000E+04;  0.0000000E+00;  4.0000000E+04;  8.1345098E-07;  0.0000000E+00;  4.5409538E-06;  2.2023364E+02;
 -1.1000000E-01;  9.9999998E-03;  7.9999998E-02;870;  0.0000000E+00;  0.0000000E+00;  0.0000000E+00;  1.0000000E+03;  1.0000000E-01;  0.0000000E+00;0;  0.0000000E+00;  0.0000000E+00;  0.0000000E+00;0;  7.9870806E-06;  4.0000000E+04;  0.0000000E+00;  0.0000000E+00;  4.0000000E+04;  0.0000000E+00;  4.0000000E+04;  3.3482361E-06;  0.0000000E+00;  4.6388441E-06;  2.1723595E+02;
 -1.1000000E-01;  9.9999998E-03;  9.0000004E-02;871;  0.0000000E+00;  0.0000000E+00;  0.0000000E+00;  1.0000000E+03;  1.0000000E-01;  0.0000000E+00;0;  0.0000000E+00;  0.0000000E+00;  0.0000000E+00;0;  9.4891038E-06;  4.0000000E+04;  0.0000000E+00;  0.0000000E+00;  4.0000000E+04;  0.0000000E+00;  4.0000000E+04;  4.4110034E-06;  0.0000000E+00;  5.0781009E-06;  2.1356885E+02;
 -1.1000000E-01;  9.9999998E-03;  1.0000000E-01;872;  0.0000000E+00;  0.0000000E+00;  0.0000000E+00;  1.0000000E+03;  1.0000000E-01;  0.0000000E+00;0;  0.0000000E+00;  0.0000000E+00;  0.0000000E+00;0;  9.9253330E-06;  4.0000000E+04;  0.0000000E+00;  0.0000000E+00;  4.0000000E+04;  0.0000000E+00;  4.0000000E+04;  4.0409745E-06;  0.0000000E+00;  5.8843584E-06;  2.0952095E+02;
 -1.1000000E-01;  9.9999998E-03;  1.1000000E-01;873;  0.0000000E+00;  0.0000000E+00;  0.0000000E+00;  1.0000000E+03;  1.0000000E-01;  0.0000000E+00;0;  0.0000000E+00;  0.0000000E+00;  0.0000000E+00;0;  9.6540443E-06;  4.0000000E+04;  0.0000000E+00;  0.0000000E+00;  4.0000000E+04;  0.0000000E+00;  4.0000000E+04;  2.5976460E-06;  0.0000000E+00;  7.0563983E-06;  2.0546188E+02;
 -1.1000000E-01;  9.9999998E-03;  1.2000000E-01;874;  0.0000000E+00;  0.0000000E+00;  0.0000000E+00;  1.0000000E+03;  1.0000000E-01;  0.0000000E+00;0;  0.0000000E+00;  0.0000000E+00;  0.0000000E+00;0;  9.3220015E-06;  4.0000000E+04;  0.0000000E+00;  0.0000000E+00;  4.0000000E+04;  0.0000000E+00;  4.0000000E+04;  7.5672489E-07;  0.0000000E+00;  8.5652764E-06;  2.0181116E+02;
 -1.1000000E-01;  9.9999998E-03;  1.3000000E-01;875;  0.0000000E+00;  0.0000000E+00;  0.0000000E+00;  1.0000000E+03;  1.0000000E-01;  0.0000000E+00;0;  0.0000000E+00;  0.0000000E+00;  0.0000000E+00;0;  9.7968032E-06;  4.0000000E+04;  0.0000000E+00;  0.0000000E+00;  4.0000000E+04;  0.0000000E+00;  4.0000000E+04; -5.5482457E-07;  0.0000000E+00;  1.0351628E-05;  1.9902141E+02;
 -1.1000000E-01;  9.9999998E-03;  1.4000000E-01;876;  0.0000000E+00;  0.0000000E+00;  0.0000000E+00;  1.0000000E+03;  1.0000000E-01;  0.0000000E+00;0;  0.0000000E+00;  0.0000000E+00;  0.0000000E+00;0;  1.2027354E-05;  4.0000000E+04;  0.0000000E+00;  0.0000000E+00;  4.0000000E+04;  0.0000000E+00;  4.0000000E+04; -2.9396682E-07;  0.0000000E+00;  1.2321321E-05;  1.9758722E+02;
 -1.1000000E-01;  9.9999998E-03;  1.5000001E-01;877;  0.0000000E+00;  0.0000000E+00;  0.0000000E+00;  1.0000000E+03;  1.0000000E-01;  0.0000000E+00;0;  0.0000000E+00;  0.0000000E+00;  0.0000000E+00;0;  1.6842774E-05;  4.0000000E+04;  0.0000000E+00;  0.0000000E+00;  4.0000000E+04;  0.0000000E+00;  4.0000000E+04;  2.5008128E-06;  0.0000000E+00;  1.4341962E-05;  1.9801871E+02;
 -1.1000000E-01;  9.9999998E-03;  1.6000000E-01;878;  0.0000000E+00;  0.0000000E+00;  0.0000000E+00;  1.0000000E+03;  1.0000000E-01;  0.0000000E+00;0;  0.0000000E+00;  0.0000000E+00;  0.0000000E+00;0;  2.4718369E-05;  4.0000000E+04;  0.0000000E+00;  0.0000000E+00;  4.0000000E+04;  0.0000000E+00;  4.0000000E+04;  8.4750536E-06;  0.0000000E+00;  1.6243315E-05;  2.0076520E+02;
 -1.1000000E-01;  9.9999998E-03;  1.7000000E-01;879;  0.0000000E+00;  0.0000000E+00;  0.0000000E+00;  1.0000000E+03;  1.0000000E-01;  0.0000000E+00;0;  0.0000000E+00;  0.0000000E+00;  0.0000000E+00;0;  3.5561137E-05;  4.0000000E+04;  0.0000000E+00;  0.0000000E+00;  4.0000000E+04;  0.0000000E+00;  4.0000000E+04;  1.7734459E-05;  0.0000000E+00;  1.7826678E-05;  2.0599475E+02;
 -1.1000000E-01;  9.9999998E-03;  1.8000001E-01;880;  0.0000000E+00;  0.0000000E+00;  0.0000000E+00;  1.0000000E+03;  1.0000000E-01;  0.0000000E+00;0;  0.0000000E+00;  0.0000000E+00;  0.0000000E+00;0;  4.8574286E-05;  4.0000000E+04;  0.0000000E+00;  0.0000000E+00;  4.0000000E+04;  0.0000000E+00;  4.0000000E+04;  2.9705285E-05;  0.0000000E+00;  1.8868999E-05;  2.1324600E+02;
 -1.1000000E-01;  9.9999998E-03;  1.9000000E-01;881;  0.0000000E+00;  0.0000000E+00;  0.0000000E+00;  1.0000000E+03;  1.0000000E-01;  0.0000000E+00;0;  0.0000000E+00;  0.0000000E+00;  0.0000000E+00;0;  6.2243664E-05;  4.0000000E+04;  0.0000000E+00;  0.0000000E+00;  4.0000000E+04;  0.0000000E+00;  4.0000000E+04;  4.3161413E-05;  0.0000000E+00;  1.9082250E-05;  2.2116606E+02;
 -1.1000000E-01;  9.9999998E-03;  2.0000000E-01;882;  0.0000000E+00;  0.0000000E+00;  0.0000000E+00;  1.0000000E+03;  1.0000000E-01;  0.0000000E+00;0;  0.0000000E+00;  0.0000000E+00;  0.0000000E+00;0;  7.4541465E-05;  4.0000000E+04;  0.0000000E+00;  0.0000000E+00;  4.0000000E+04;  0.0000000E+00;  4.0000000E+04;  5.6365843E-05;  0.0000000E+00;  1.8175620E-05;  2.2751945E+02;
 -1.1000000E-01;  9.9999998E-03;  2.0999999E-01;883;  0.0000000E+00;  0.0000000E+00;  0.0000000E+00;  1.0000000E+03;  1.0000000E-01;  0.0000000E+00;0;  0.0000000E+00;  0.0000000E+00;  0.0000000E+00;0;  8.3307692E-05;  4.0000000E+04;  0.0000000E+00;  0.0000000E+00;  4.0000000E+04;  0.0000000E+00;  4.0000000E+04;  6.7399531E-05;  0.0000000E+00;  1.5908159E-05;  2.2937965E+02;
 -1.1000000E-01;  9.9999998E-03;  2.2000000E-01;884;  0.0000000E+00;  0.0000000E+00;  0.0000000E+00;  1.0000000E+03;  1.0000000E-01;  0.0000000E+00;0;  0.0000000E+00;  0.0000000E+00;  0.0000000E+00;0;  8.6705193E-05;  4.0000000E+04;  0.0000000E+00;  0.0000000E+00;  4.0000000E+04;  0.0000000E+00;  4.0000000E+04;  7.4542848E-05;  0.0000000E+00;  1.2162348E-05;  2.2366084E+02;
 -1.1000000E-01;  9.9999998E-03;  2.3000000E-01;885;  0.0000000E+00;  0.0000000E+00;  0.0000000E+00;  1.0000000E+03;  1.0000000E-01;  0.0000000E+00;0;  0.0000000E+00;  0.0000000E+00;  0.0000000E+00;0;  8.3622319E-05;  4.0000000E+04;  0.0000000E+00;  0.0000000E+00;  4.0000000E+04;  0.0000000E+00;  4.0000000E+04;  7.6611461E-05;  0.0000000E+00;  7.0108563E-06;  2.0788739E+02;
 -1.0000000E-01;  9.9999998E-03;  7.0000000E-02;960;  0.0000000E+00;  0.0000000E+00;  0.0000000E+00;  1.0000035E+03;  1.0000000E-01;  2.8641164E+00;0;  0.0000000E+00;  0.0000000E+00;  0.0000000E+00;0; -1.3429130E-04;  4.0000000E+04;  0.0000000E+00;  0.0000000E+00;  4.0000000E+04;  0.0000000E+00;  4.0000000E+04; -1.4417304E-04;  0.0000000E+00;  9.8817327E-06;  3.5905539E+02;
 -1.0000000E-01;  9.9999998E-03;  7.9999998E-02;961;  0.0000000E+00;  0.0000000E+00;  0.0000000E+00;  1.0000124E+03;  1.0000000E-01;  1.0271315E+01;0;  0.0000000E+00;  0.0000000E+00;  0.0000000E+00;0; -1.3009163E-04;  4.0000000E+04;  0.0000000E+00;  0.0000000E+00;  4.0000000E+04;  0.0000000E+00;  4.0000000E+04; -1.4019774E-04;  0.0000000E+00;  1.0106103E-05;  3.5300681E+02;
 -1.0000000E-01;  9.9999998E-03;  9.0000004E-02;962;  0.0000000E+00;  0.0000000E+00;  0.0000000E+00;  1.0000247E+03;  1.0000000E-01;  2.0443867E+01;0;  0.0000000E+00;  0.0000000E+00;  0.0000000E+00;0; -1.2739855E-04;  4.0000000E+04;  0.0000000E+00;  0.0000000E+00;  4.0000000E+04;  0.0000000E+00;  4.0000000E+04; -1.3836980E-04;  0.0000000E+00;  1.0971235E-05;  3.4565933E+02;
 -1.0000000E-01;  9.9999998E-03;  1.0000000E-01;963;  0.0000000E+00;  0.0000000E+00;  0.0000000E+00;  1.0000361E+03;  1.0000000E-01;  2.9925079E+01;0;  0.0000000E+00;  0.0000000E+00;  0.0000000E+00;0; -1.2603468E-04;  4.0000000E+04;  0.0000000E+00;  0.0000000E+00;  4.0000000E+04;  0.0000000E+00;  4.0000000E+04; -1.3855197E-04;  0.0000000E+00;  1.2517301E-05;  3.3755222E+02;
 -1.0000000E-01;  9.9999998E-03;  1.1000000E-01;964;  0.0000000E+00;  0.0000000E+00;  0.0000000E+00;  1.0000413E+03;  1.0000000E-01;  3.4171871E+01;0;  0.0000000E+00;  0.0000000E+00;  0.0000000E+00;0; -1.2538856E-04;  4.0000000E+04;  0.0000000E+00;  0.0000000E+00;  4.0000000E+04;  0.0000000E+00;  4.0000000E+04; -1.4011811E-04;  0.0000000E+00;  1.4729550E-05;  3.2943378E+02;
 -1.0000000E-01;  9.9999998E-03;  1.2000000E-01;965;  0.0000000E+00;  0.0000000E+00;  0.0000000E+00;  1.0000421E+03;  1.0000000E-01;  3.4863213E+01;0;  0.0000000E+00;  0.0000000E+00;  0.0000000E+00;0; -1.2444075E-04;  4.0000000E+04;  0.0000000E+00;  0.0000000E+00;  4.0000000E+04;  0.0000000E+00;  4.0000000E+04; -1.4197687E-04;  0.0000000E+00;  1.7536117E-05;  3.2221939E+02;
 -1.0000000E-01;  9.9999998E-03;  1.3000000E-01;966;  0.0000000E+00;  0.0000000E+00;  0.0000000E+00;  1.0000441E+03;  1.0000000E-01;  3.6542175E+01;0;  0.0000000E+00;  0.0000000E+00;  0.0000000E+00;0; -1.2188514E-04;  4.0000000E+04;  0.0000000E+00;  0.0000000E+00;  4.0000000E+04;  0.0000000E+00;  4.0000000E+04; -1.4268945E-04;  0.0000000E+00;  2.0804306E-05;  3.1696500E+02;
 -1.0000000E-01;  9.9999998E-03;  1.4000000E-01;967;  0.0000000E+00;  0.0000000E+00;  0.0000000E+00;  1.0000411E+03;  1.0000000E-01;  3.4073109E+01;0;  0.0000000E+00;  0.0000000E+00;  0.0000000E+00;0; -1.1635179E-04;  4.0000000E+04;  0.0000000E+00;  0.0000000E+00;  4.0000000E+04;  0.0000000E+00;  4.0000000E+04; -1.4068867E-04;  0.0000000E+00;  2.4336889E-05;  3.1482416E+02;
 -1.0000000E-01;  9.9999998E-03;  1.5000001E-01;968;  0.0000000E+00;  0.0000000E+00;  0.0000000E+00;  1.0000334E+03;  1.0000000E-01;  2.7653540E+01;0;  0.0000000E+00;  0.0000000E+00;  0.0000000E+00;0; -1.0670460E-04;  4.0000000E+04;  0.0000000E+00;  0.0000000E+00;  4.0000000E+04;  0.0000000E+00;  4.0000000E+04; -1.3457630E-04;  0.0000000E+00;  2.7871709E-05;  3.1694312E+02;
 -1.0000000E-01;  9.9999998E-03;  1.6000000E-01;969;  0.0000000E+00;  0.0000000E+00;  0.0000000E+00;  1.0000119E+03;  1.0000000E-01;  9.8762636E+00;0;  0.0000000E+00;  0.0000000E+00;  0.0000000E+00;0; -9.2366405E-05;  4.0000000E+04;  0.0000000E+00;  0.0000000E+00;  4.0000000E+04;  0.0000000E+00;  4.0000000E+04; -1.2345595E-04;  0.0000000E+00;  3.1089541E-05;  3.2417831E+02;
 -1.0000000E-01;  9.9999998E-03;  1.7000000E-01;970;  0.0000000E+00;  0.0000000E+00;  0.0000000E+00;  1.0000000E+03;  1.0000000E-01;  0.0000000E+00;0;  0.0000000E+00;  0.0000000E+00;  0.0000000E+00;0; -7.3592004E-05;  4.0000000E+04;  0.0000000E+00;  0.0000000E+00;  4.0000000E+04;  0.0000000E+00;  4.0000000E+04; -1.0722153E-04;  0.0000000E+00;  3.3629523E-05;  3.3659555E+02;
 -1.0000000E-01;  9.9999998E-03;  1.8000001E-01;971;  0.0000000E+00;  0.0000000E+00;  0.0000000E+00;  1.0000000E+03;  1.0000000E-01;  0.0000000E+00;0;  0.0000000E+00;  0.0000000E+00;  0.0000000E+00;0; -5.1649971E-05;  4.0000000E+04;  0.0000000E+00;  0.0000000E+00;  4.0000000E+04;  0.0000000E+00;  4.0000000E+04; -8.6686654E-05;  0.0000000E+00;  3.5036683E-05;  3.5294995E+02;
 -1.0000000E-01;  9.9999998E-03;  1.9000000E-01;972;  0.0000000E+00;  0.0000000E+00;  0.0000000E+00;  1.0000000E+03;  1.0000000E-01;  0.0000000E+00;0;  0.0000000E+00;  0.0000000E+00;  0.0000000E+00;0; -2.8753733E-05;  4.0000000E+04;  0.0000000E+00;  0.0000000E+00;  4.0000000E+04;  0.0000000E+00;  4.0000000E+04; -6.3565392E-05;  0.0000000E+00;  3.4811659E-05;  3.7043759E+02;
 -1.0000000E-01;  9.9999998E-03;  2.0000000E-01;973;  0.0000000E+00;  0.0000000E+00;  0.0000000E+00;  1.0000000E+03;  1.0000000E-01;  0.0000000E+00;0;  0.0000000E+00;  0.0000000E+00;  0.0000000E+00;0; -7.7153345E-06;  4.0000000E+04;  0.0000000E+00;  0.0000000E+00;  4.0000000E+04;  0.0000000E+00;  4.0000000E+04; -4.0194860E-05;  0.0000000E+00;  3.2479526E-05;  3.8472604E+02;
 -1.0000000E-01;  9.9999998E-03;  2.0999999E-01;974;  0.0000000E+00;  0.0000000E+00;  0.0000000E+00;  1.0000000E+03;  1.0000000E-01;  0.0000000E+00;0;  0.0000000E+00;  0.0000000E+00;  0.0000000E+00;0;  8.5922202E-06;  4.0000000E+04;  0.0000000E+00;  0.0000000E+00;  4.0000000E+04;  0.0000000E+00;  4.0000000E+04; -1.9102779E-05;  0.0000000E+00;  2.7695000E-05;  3.9047314E+02;
 -1.0000000E-01;  9.9999998E-03;  2.2000000E-01;975;  0.0000000E+00;  0.0000000E+00;  0.0000000E+00;  1.0000000E+03;  1.0000000E-01;  0.0000000E+00;0;  0.0000000E+00;  0.0000000E+00;  0.0000000E+00;0;  1.7811948E-05;  4.0000000E+04;  0.0000000E+00;  0.0000000E+00;  4.0000000E+04;  0.0000000E+00;  4.0000000E+04; -2.5490547E-06;  0.0000000E+00;  2.0361003E-05;  3.8240604E+02;
 -1.0000000E-01;  9.9999998E-03;  2.3000000E-01;976;  0.0000000E+00;  0.0000000E+00;  0.0000000E+00;  1.0000000E+03;  1.0000000E-01;  0.0000000E+00;0;  0.0000000E+00;  0.0000000E+00;  0.0000000E+00;0;  1.8584067E-05;  4.0000000E+04;  0.0000000E+00;  0.0000000E+00;  4.0000000E+04;  0.0000000E+00;  4.0000000E+04;  7.8768562E-06;  0.0000000E+00;  1.0707211E-05;  3.5655441E+02;
 -9.0000004E-02;  9.9999998E-03;  7.0000000E-02;1051;  0.0000000E+00;  0.0000000E+00;  0.0000000E+00;  1.0002184E+03;  1.0000000E-01;  1.8093315E+02;0;  0.0000000E+00;  0.0000000E+00;  0.0000000E+00;0; -4.3413683E-04;  4.0000000E+04;  0.0000000E+00;  0.0000000E+00;  4.0000000E+04;  0.0000000E+00;  4.0000000E+04; -4.5323142E-04;  0.0000000E+00;  1.9094599E-05;  5.3846545E+02;
 -9.0000004E-02;  9.9999998E-03;  7.9999998E-02;1052;  0.0000000E+00;  0.0000000E+00;  0.0000000E+00;  1.0002294E+03;  1.0000000E-01;  1.9011807E+02;0;  0.0000000E+00;  0.0000000E+00;  0.0000000E+00;0; -4.2778903E-04;  4.0000000E+04;  0.0000000E+00;  0.0000000E+00;  4.0000000E+04;  0.0000000E+00;  4.0000000E+04; -4.4730812E-04;  0.0000000E+00;  1.9519097E-05;  5.2767548E+02;
 -9.0000004E-02;  9.9999998E-03;  9.0000004E-02;1053;  0.0000000E+00;  0.0000000E+00;  0.0000000E+00;  1.0002413E+03;  1.0000000E-01;  1.9989558E+02;0;  0.0000000E+00;  0.0000000E+00;  0.0000000E+00;0; -4.2329339E-04;  4.0000000E+04;  0.0000000E+00;  0.0000000E+00;  4.0000000E+04;  0.0000000E+00;  4.0000000E+04; -4.4430772E-04;  0.0000000E+00;  2.1014341E-05;  5.1473761E+02;
 -9.0000004E-02;  9.9999998E-03;  1.0000000E-01;1054;  0.0000000E+00;  0.0000000E+00;  0.0000000E+00;  1.0002501E+03;  1.0000000E-01;  2.0720401E+02;0;  0.0000000E+00;  0.0000000E+00;  0.0000000E+00;0; -4.2031138E-04;  4.0000000E+04;  0.0000000E+00;  0.0000000E+00;  4.0000000E+04;  0.0000000E+00;  4.0000000E+04; -4.4394241E-04;  0.0000000E+00;  2.3631019E-05;  5.0058026E+02;
 -9.0000004E-02;  9.9999998E-03;  1.1000000E-01;1055;  0.0000000E+00;  0.0000000E+00;  0.0000000E+00;  1.0002577E+03;  1.0000000E-01;  2.1352483E+02;0;  0.0000000E+00;  0.0000000E+00;  0.0000000E+00;0; -4.1790042E-04;  4.0000000E+04;  0.0000000E+00;  0.0000000E+00;  4.0000000E+04;  0.0000000E+00;  4.0000000E+04; -4.4522205E-04;  0.0000000E+00;  2.7321639E-05;  4.8653677E+02;
 -9.0000004E-02;  9.9999998E-03;  1.2000000E-01;1056;  0.0000000E+00;  0.0000000E+00;  0.0000000E+00;  1.0002649E+03;  1.0000000E-01;  2.1945058E+02;0;  0.0000000E+00;  0.0000000E+00;  0.0000000E+00;0; -4.1457103E-04;  4.0000000E+04;  0.0000000E+00;  0.0000000E+00;  4.0000000E+04;  0.0000000E+00;  4.0000000E+04; -4.4650937E-04;  0.0000000E+00;  3.1938354E-05;  4.7430701E+02;
 -9.0000004E-02;  9.9999998E-03;  1.3000000E-01;1057;  0.0000000E+00;  0.0000000E+00;  0.0000000E+00;  1.0002647E+03;  1.0000000E-01;  2.1935182E+02;0;  0.0000000E+00;  0.0000000E+00;  0.0000000E+00;0; -4.0847217E-04;  4.0000000E+04;  0.0000000E+00;  0.0000000E+00;  4.0000000E+04;  0.0000000E+00;  4.0000000E+04; -4.4570363E-04;  0.0000000E+00;  3.7231461E-05;  4.6590308E+02;
 -9.0000004E-02;  9.9999998E-03;  1.4000000E-01;1058;  0.0000000E+00;  0.0000000E+00;  0.0000000E+00;  1.0002527E+03;  1.0000000E-01;  2.0937680E+02;0;  0.0000000E+00;  0.0000000E+00;  0.0000000E+00;0; -3.9771010E-04;  4.0000000E+04;  0.0000000E+00;  0.0000000E+00;  4.0000000E+04;  0.0000000E+00;  4.0000000E+04; -4.4055961E-04;  0.0000000E+00;  4.2849508E-05;  4.6351685E+02;
 -9.0000004E-02;  9.9999998E-03;  1.5000001E-01;1059;  0.0000000E+00;  0.0000000E+00;  0.0000000E+00;  1.0002346E+03;  1.0000000E-01;  1.9436487E+02;0;  0.0000000E+00;  0.0000000E+00;  0.0000000E+00;0; -3.8075249E-04;  4.0000000E+04;  0.0000000E+00;  0.0000000E+00;  4.0000000E+04;  0.0000000E+00;  4.0000000E+04; -4.2909812E-04;  0.0000000E+00;  4.8345613E-05;  4.6923297E+02;
 -9.0000004E-02;  9.9999998E-03;  1.6000000E-01;1060;  0.0000000E+00;  0.0000000E+00;  0.0000000E+00;  1.0002073E+03;  1.0000000E-01;  1.7174823E+02;0;  0.0000000E+00;  0.0000000E+00;  0.0000000E+00;0; -3.5685109E-04;  4.0000000E+04;  0.0000000E+00;  0.0000000E+00;  4.0000000E+04;  0.0000000E+00;  4.0000000E+04; -4.1005004E-04;  0.0000000E+00;  5.3198935E-05;  4.8438098E+02;
 -9.0000004E-02;  9.9999998E-03;  1.7000000E-01;1061;  0.0000000E+00;  0.0000000E+00;  0.0000000E+00;  1.0001764E+03;  1.0000000E-01;  1.4616870E+02;0;  0.0000000E+00;  0.0000000E+00;  0.0000000E+00;0; -3.2641942E-04;  4.0000000E+04;  0.0000000E+00;  0.0000000E+00;  4.0000000E+04;  0.0000000E+00;  4.0000000E+04; -3.8319558E-04;  0.0000000E+00;  5.6776167E-05;  5.0871017E+02;
 -9.0000004E-02;  9.9999998E-03;  1.8000001E-01;1062;  0.0000000E+00;  0.0000000E+00;  0.0000000E+00;  1.0001403E+03;  1.0000000E-01;  1.1624363E+02;0;  0.0000000E+00;  0.0000000E+00;  0.0000000E+00;0; -2.9122134E-04;  4.0000000E+04;  0.0000000E+00;  0.0000000E+00;  4.0000000E+04;  0.0000000E+00;  4.0000000E+04; -3.4954952E-04;  0.0000000E+00;  5.8328180E-05;  5.3972339E+02;
 -9.0000004E-02;  9.9999998E-03;  1.9000000E-01;1063;  0.0000000E+00;  0.0000000E+00;  0.0000000E+00;  1.0001041E+03;  1.0000000E-01;  8.6219780E+01;0;  0.0000000E+00;  0.0000000E+00;  0.0000000E+00;0; -2.5420164E-04;  4.0000000E+04;  0.0000000E+00;  0.0000000E+00;  4.0000000E+04;  0.0000000E+00;  4.0000000E+04; -3.1127324E-04;  0.0000000E+00;  5.7071582E-05;  5.7233478E+02;
 -9.0000004E-02;  9.9999998E-03;  2.0000000E-01;1064;  0.0000000E+00;  0.0000000E+00;  0.0000000E+00;  1.0000603E+03;  1.0000000E-01;  4.9973896E+01;0;  0.0000000E+00;  0.0000000E+00;  0.0000000E+00;0; -2.1898477E-04;  4.0000000E+04;  0.0000000E+00;  0.0000000E+00;  4.0000000E+04;  0.0000000E+00;  4.0000000E+04; -2.7129173E-04;  0.0000000E+00;  5.2306965E-05;  5.9909918E+02;
 -9.0000004E-02;  9.9999998E-03;  2.0999999E-01;1065;  0.0000000E+00;  0.0000000E+00;  0.0000000E+00;  1.0000243E+03;  1.0000000E-01;  2.0147579E+01;0;  0.0000000E+00;  0.0000000E+00;  0.0000000E+00;0; -1.8919341E-04;  4.0000000E+04;  0.0000000E+00;  0.0000000E+00;  4.0000000E+04;  0.0000000E+00;  4.0000000E+04; -2.3278914E-04;  0.0000000E+00;  4.3595730E-05;  6.1137366E+02;
 -9.0000004E-02;  9.9999998E-03;  2.2000000E-01;1066;  0.0000000E+00;  0.0000000E+00;  0.0000000E+00;  1.0000064E+03;  1.0000000E-01;  5.3331823E+00;0;  0.0000000E+00;  0.0000000E+00;  0.0000000E+00;0; -1.6776354E-04;  4.0000000E+04;  0.0000000E+00;  0.0000000E+00;  4.0000000E+04;  0.0000000E+00;  4.0000000E+04; -1.9867350E-04;  0.0000000E+00;  3.0909952E-05;  6.0103528E+02;
 -9.0000004E-02;  9.9999998E-03;  2.3000000E-01;1067;  0.0000000E+00;  0.0000000E+00;  0.0000000E+00;  1.0000000E+03;  1.0000000E-01;  0.0000000E+00;0;  0.0000000E+00;  0.0000000E+00;  0.0000000E+00;0; -1.5637500E-04;  4.0000000E+04;  0.0000000E+00;  0.0000000E+00;  4.0000000E+04;  0.0000000E+00;  4.0000000E+04; -1.7109061E-04;  0.0000000E+00;  1.4715607E-05;  5.6218158E+02;
 -7.9999998E-02;  9.9999998E-03;  7.0000000E-02;1142;  0.0000000E+00;  0.0000000E+00;  0.0000000E+00;  1.0006253E+03;  1.0000000E-01;  5.1801007E+02;0;  0.0000000E+00;  0.0000000E+00;  0.0000000E+00;0; -9.6277753E-04;  4.0000000E+04;  0.0000000E+00;  0.0000000E+00;  4.0000000E+04;  0.0000000E+00;  4.0000000E+04; -9.9642831E-04;  0.0000000E+00;  3.3650802E-05;  7.5607922E+02;
 -7.9999998E-02;  9.9999998E-03;  7.9999998E-02;1143;  0.0000000E+00;  0.0000000E+00;  0.0000000E+00;  1.0006401E+03;  1.0000000E-01;  5.3025659E+02;0;  0.0000000E+00;  0.0000000E+00;  0.0000000E+00;0; -9.5359102E-04;  4.0000000E+04;  0.0000000E+00;  0.0000000E+00;  4.0000000E+04;  0.0000000E+00;  4.0000000E+04; -9.8793383E-04;  0.0000000E+00;  3.4342833E-05;  7.3863110E+02;
 -7.9999998E-02;  9.9999998E-03;  9.0000004E-02;1144;  0.0000000E+00;  0.0000000E+00;  0.0000000E+00;  1.0006555E+03;  1.0000000E-01;  5.4309576E+02;0;  0.0000000E+00;  0.0000000E+00;  0.0000000E+00;0; -9.4657612E-04;  4.0000000E+04;  0.0000000E+00;  0.0000000E+00;  4.0000000E+04;  0.0000000E+00;  4.0000000E+04; -9.8324229E-04;  0.0000000E+00;  3.6666144E-05;  7.1802960E+02;
 -7.9999998E-02;  9.9999998E-03;  1.0000000E-01;1145;  0.0000000E+00;  0.0000000E+00;  0.0000000E+00;  1.0006706E+03;  1.0000000E-01;  5.5553986E+02;0;  0.0000000E+00;  0.0000000E+00;  0.0000000E+00;0; -9.4119087E-04;  4.0000000E+04;  0.0000000E+00;  0.0000000E+00;  4.0000000E+04;  0.0000000E+00;  4.0000000E+04; -9.8185753E-04;  0.0000000E+00;  4.0666670E-05;  6.9576196E+02;
 -7.9999998E-02;  9.9999998E-03;  1.1000000E-01;1146;  0.0000000E+00;  0.0000000E+00;  0.0000000E+00;  1.0006833E+03;  1.0000000E-01;  5.6610742E+02;0;  0.0000000E+00;  0.0000000E+00;  0.0000000E+00;0; -9.3608396E-04;  4.0000000E+04;  0.0000000E+00;  0.0000000E+00;  4.0000000E+04;  0.0000000E+00;  4.0000000E+04; -9.8231842E-04;  0.0000000E+00;  4.6234454E-05;  6.7399567E+02;
 -7.9999998E-02;  9.9999998E-03;  1.2000000E-01;1147;  0.0000000E+00;  0.0000000E+00;  0.0000000E+00;  1.0006884E+03;  1.0000000E-01;  5.7025549E+02;0;  0.0000000E+00;  0.0000000E+00;  0.0000000E+00;0; -9.2918816E-04;  4.0000000E+04;  0.0000000E+00;  0.0000000E+00;  4.0000000E+04;  0.0000000E+00;  4.0000000E+04; -9.8229432E-04;  0.0000000E+00;  5.3106152E-05;  6.5553058E+02;
 -7.9999998E-02;  9.9999998E-03;  1.3000000E-01;1148;  0.0000000E+00;  0.0000000E+00;  0.0000000E+00;  1.0006836E+03;  1.0000000E-01;  5.6630499E+02;0;  0.0000000E+00;  0.0000000E+00;  0.0000000E+00;0; -9.1796560E-04;  4.0000000E+04;  0.0000000E+00;  0.0000000E+00;  4.0000000E+04;  0.0000000E+00;  4.0000000E+04; -9.7883586E-04;  0.0000000E+00;  6.0870258E-05;  6.4371381E+02;
 -7.9999998E-02;  9.9999998E-03;  1.4000000E-01;1149;  0.0000000E+00;  0.0000000E+00;  0.0000000E+00;  1.0006653E+03;  1.0000000E-01;  5.5119427E+02;0;  0.0000000E+00;  0.0000000E+00;  0.0000000E+00;0; -8.9984050E-04;  4.0000000E+04;  0.0000000E+00;  0.0000000E+00;  4.0000000E+04;  0.0000000E+00;  4.0000000E+04; -9.6881413E-04;  0.0000000E+00;  6.8973619E-05;  6.4216443E+02;
 -7.9999998E-02;  9.9999998E-03;  1.5000001E-01;1150;  0.0000000E+00;  0.0000000E+00;  0.0000000E+00;  1.0006411E+03;  1.0000000E-01;  5.3114545E+02;0;  0.0000000E+00;  0.0000000E+00;  0.0000000E+00;0; -8.7272190E-04;  4.0000000E+04;  0.0000000E+00;  0.0000000E+00;  4.0000000E+04;  0.0000000E+00;  4.0000000E+04; -9.4946206E-04;  0.0000000E+00;  7.6740165E-05;  6.5417157E+02;
 -7.9999998E-02;  9.9999998E-03;  1.6000000E-01;1151;  0.0000000E+00;  0.0000000E+00;  0.0000000E+00;  1.0005965E+03;  1.0000000E-01;  4.9420825E+02;0;  0.0000000E+00;  0.0000000E+00;  0.0000000E+00;0; -8.3555462E-04;  4.0000000E+04;  0.0000000E+00;  0.0000000E+00;  4.0000000E+04;  0.0000000E+00;  4.0000000E+04; -9.1892900E-04;  0.0000000E+00;  8.3374405E-05;  6.8154120E+02;
 -7.9999998E-02;  9.9999998E-03;  1.7000000E-01;1152;  0.0000000E+00;  0.0000000E+00;  0.0000000E+00;  1.0005425E+03;  1.0000000E-01;  4.4946878E+02;0;  0.0000000E+00;  0.0000000E+00;  0.0000000E+00;0; -7.8884087E-04;  4.0000000E+04;  0.0000000E+00;  0.0000000E+00;  4.0000000E+04;  0.0000000E+00;  4.0000000E+04; -8.7672751E-04;  0.0000000E+00;  8.7886641E-05;  7.2347284E+02;
 -7.9999998E-02;  9.9999998E-03;  1.8000001E-01;1153;  0.0000000E+00;  0.0000000E+00;  0.0000000E+00;  1.0004821E+03;  1.0000000E-01;  3.9939612E+02;0;  0.0000000E+00;  0.0000000E+00;  0.0000000E+00;0; -7.3478807E-04;  4.0000000E+04;  0.0000000E+00;  0.0000000E+00;  4.0000000E+04;  0.0000000E+00;  4.0000000E+04; -8.2395179E-04;  0.0000000E+00;  8.9163696E-05;  7.7561615E+02;
 -7.9999998E-02;  9.9999998E-03;  1.9000000E-01;1154;  0.0000000E+00;  0.0000000E+00;  0.0000000E+00;  1.0004180E+03;  1.0000000E-01;  3.4626181E+02;0;  0.0000000E+00;  0.0000000E+00;  0.0000000E+00;0; -6.7704101E-04;  4.0000000E+04;  0.0000000E+00;  0.0000000E+00;  4.0000000E+04;  0.0000000E+00;  4.0000000E+04; -7.6310948E-04;  0.0000000E+00;  8.6068474E-05;  8.2962067E+02;
 -7.9999998E-02;  9.9999998E-03;  2.0000000E-01;1155;  0.0000000E+00;  0.0000000E+00;  0.0000000E+00;  1.0003539E+03;  1.0000000E-01;  2.9322629E+02;0;  0.0000000E+00;  0.0000000E+00;  0.0000000E+00;0; -6.2004046E-04;  4.0000000E+04;  0.0000000E+00;  0.0000000E+00;  4.0000000E+04;  0.0000000E+00;  4.0000000E+04; -6.9769821E-04;  0.0000000E+00;  7.7657780E-05;  8.7401331E+02;
 -7.9999998E-02;  9.9999998E-03;  2.0999999E-01;1156;  0.0000000E+00;  0.0000000E+00;  0.0000000E+00;  1.0002958E+03;  1.0000000E-01;  2.4503011E+02;0;  0.0000000E+00;  0.0000000E+00;  0.0000000E+00;0; -5.6821824E-04;  4.0000000E+04;  0.0000000E+00;  0.0000000E+00;  4.0000000E+04;  0.0000000E+00;  4.0000000E+04; -6.3163223E-04;  0.0000000E+00;  6.3413987E-05;  8.9610175E+02;
 -7.9999998E-02;  9.9999998E-03;  2.2000000E-01;1157;  0.0000000E+00;  0.0000000E+00;  0.0000000E+00;  1.0002522E+03;  1.0000000E-01;  2.0898175E+02;0;  0.0000000E+00;  0.0000000E+00;  0.0000000E+00;0; -5.2520022E-04;  4.0000000E+04;  0.0000000E+00;  0.0000000E+00;  4.0000000E+04;  0.0000000E+00;  4.0000000E+04; -5.6861975E-04;  0.0000000E+00;  4.3419561E-05;  8.8421143E+02;
 -7.9999998E-02;  9.9999998E-03;  2.3000000E-01;1158;  0.0000000E+00;  0.0000000E+00;  0.0000000E+00;  1.0002205E+03;  1.0000000E-01;  1.8261212E+02;0;  0.0000000E+00;  0.0000000E+00;  0.0000000E+00;0; -4.9313251E-04;  4.0000000E+04;  0.0000000E+00;  0.0000000E+00;  4.0000000E+04;  0.0000000E+00;  4.0000000E+04; -5.1157636E-04;  0.0000000E+00;  1.8443863E-05;  8.2994763E+02;
 -7.0000000E-02;  9.9999998E-03;  7.0000000E-02;1233;  0.0000000E+00;  0.0000000E+00;  0.0000000E+00;  1.0013028E+03;  1.0000000E-01;  1.0793768E+03;0;  0.0000000E+00;  0.0000000E+00;  0.0000000E+00;0; -1.7888943E-03;  4.0000000E+04;  0.0000000E+00;  0.0000000E+00;  4.0000000E+04;  0.0000000E+00;  4.0000000E+04; -1.8439570E-03;  0.0000000E+00;  5.5062657E-05;  1.0039291E+03;
 -7.0000000E-02;  9.9999998E-03;  7.9999998E-02;1234;  0.0000000E+00;  0.0000000E+00;  0.0000000E+00;  1.0013254E+03;  1.0000000E-01;  1.0981417E+03;0;  0.0000000E+00;  0.0000000E+00;  0.0000000E+00;0; -1.7761297E-03;  4.0000000E+04;  0.0000000E+00;  0.0000000E+00;  4.0000000E+04;  0.0000000E+00;  4.0000000E+04; -1.8321790E-03;  0.0000000E+00;  5.6049324E-05;  9.7795148E+02;
 -7.0000000E-02;  9.9999998E-03;  9.0000004E-02;1235;  0.0000000E+00;  0.0000000E+00;  0.0000000E+00;  1.0013493E+03;  1.0000000E-01;  1.1178943E+03;0;  0.0000000E+00;  0.0000000E+00;  0.0000000E+00;0; -1.7658655E-03;  4.0000000E+04;  0.0000000E+00;  0.0000000E+00;  4.0000000E+04;  0.0000000E+00;  4.0000000E+04; -1.8252002E-03;  0.0000000E+00;  5.9334729E-05;  9.4777905E+02;
 -7.0000000E-02;  9.9999998E-03;  1.0000000E-01;1236;  0.0000000E+00;  0.0000000E+00;  0.0000000E+00;  1.0013672E+03;  1.0000000E-01;  1.1327087E+03;0;  0.0000000E+00;  0.0000000E+00;  0.0000000E+00;0; -1.7573287E-03;  4.0000000E+04;  0.0000000E+00;  0.0000000E+00;  4.0000000E+04;  0.0000000E+00;  4.0000000E+04; -1.8222614E-03;  0.0000000E+00;  6.4932625E-05;  9.1564221E+02;
 -7.0000000E-02;  9.9999998E-03;  1.1000000E-01;1237;  0.0000000E+00;  0.0000000E+00;  0.0000000E+00;  1.0013818E+03;  1.0000000E-01;  1.1448566E+03;0;  0.0000000E+00;  0.0000000E+00;  0.0000000E+00;0; -1.7486883E-03;  4.0000000E+04;  0.0000000E+00;  0.0000000E+00;  4.0000000E+04;  0.0000000E+00;  4.0000000E+04; -1.8213212E-03;  0.0000000E+00;  7.2632953E-05;  8.8478363E+02;
 -7.0000000E-02;  9.9999998E-03;  1.2000000E-01;1238;  0.0000000E+00;  0.0000000E+00;  0.0000000E+00;  1.0013818E+03;  1.0000000E-01;  1.1448566E+03;0;  0.0000000E+00;  0.0000000E+00;  0.0000000E+00;0; -1.7371613E-03;  4.0000000E+04;  0.0000000E+00;  0.0000000E+00;  4.0000000E+04;  0.0000000E+00;  4.0000000E+04; -1.8191783E-03;  0.0000000E+00;  8.2017090E-05;  8.5941431E+02;
 -7.0000000E-02;  9.9999998E-03;  1.3000000E-01;1239;  0.0000000E+00;  0.0000000E+00;  0.0000000E+00;  1.0013745E+03;  1.0000000E-01;  1.1387333E+03;0;  0.0000000E+00;  0.0000000E+00;  0.0000000E+00;0; -1.7193494E-03;  4.0000000E+04;  0.0000000E+00;  0.0000000E+00;  4.0000000E+04;  0.0000000E+00;  4.0000000E+04; -1.8118232E-03;  0.0000000E+00;  9.2473783E-05;  8.4456573E+02;
 -7.0000000E-02;  9.9999998E-03;  1.4000000E-01;1240;  0.0000000E+00;  0.0000000E+00;  0.0000000E+00;  1.0013444E+03;  1.0000000E-01;  1.1138451E+03;0;  0.0000000E+00;  0.0000000E+00;  0.0000000E+00;0; -1.6917648E-03;  4.0000000E+04;  0.0000000E+00;  0.0000000E+00;  4.0000000E+04;  0.0000000E+00;  4.0000000E+04; -1.7949814E-03;  0.0000000E+00;  1.0321660E-04;  8.4562994E+02;
 -7.0000000E-02;  9.9999998E-03;  1.5000001E-01;1241;  0.0000000E+00;  0.0000000E+00;  0.0000000E+00;  1.0012969E+03;  1.0000000E-01;  1.0744387E+03;0;  0.0000000E+00;  0.0000000E+00;  0.0000000E+00;0; -1.6515036E-03;  4.0000000E+04;  0.0000000E+00;  0.0000000E+00;  4.0000000E+04;  0.0000000E+00;  4.0000000E+04; -1.7648163E-03;  0.0000000E+00;  1.1331279E-04;  8.6725055E+02;
 -7.0000000E-02;  9.9999998E-03;  1.6000000E-01;1242;  0.0000000E+00;  0.0000000E+00;  0.0000000E+00;  1.0012372E+03;  1.0000000E-01;  1.0250574E+03;0;  0.0000000E+00;  0.0000000E+00;  0.0000000E+00;0; -1.5970122E-03;  4.0000000E+04;  0.0000000E+00;  0.0000000E+00;  4.0000000E+04;  0.0000000E+00;  4.0000000E+04; -1.7186251E-03;  0.0000000E+00;  1.2161293E-04;  9.1170343E+02;
 -7.0000000E-02;  9.9999998E-03;  1.7000000E-01;1243;  0.0000000E+00;  0.0000000E+00;  0.0000000E+00;  1.0011518E+03;  1.0000000E-01;  9.5424463E+02;0;  0.0000000E+00;  0.0000000E+00;  0.0000000E+00;0; -1.5286953E-03;  4.0000000E+04;  0.0000000E+00;  0.0000000E+00;  4.0000000E+04;  0.0000000E+00;  4.0000000E+04; -1.6554282E-03;  0.0000000E+00;  1.2673286E-04;  9.7736108E+02;
 -7.0000000E-02;  9.9999998E-03;  1.8000001E-01;1244;  0.0000000E+00;  0.0000000E+00;  0.0000000E+00;  1.0010610E+03;  1.0000000E-01;  8.7908624E+02;0;  0.0000000E+00;  0.0000000E+00;  0.0000000E+00;0; -1.4490684E-03;  4.0000000E+04;  0.0000000E+00;  0.0000000E+00;  4.0000000E+04;  0.0000000E+00;  4.0000000E+04; -1.5761849E-03;  0.0000000E+00;  1.2711648E-04;  1.0572867E+03;
 -7.0000000E-02;  9.9999998E-03;  1.9000000E-01;1245;  0.0000000E+00;  0.0000000E+00;  0.0000000E+00;  1.0009635E+03;  1.0000000E-01;  7.9819965E+02;0;  0.0000000E+00;  0.0000000E+00;  0.0000000E+00;0; -1.3623813E-03;  4.0000000E+04;  0.0000000E+00;  0.0000000E+00;  4.0000000E+04;  0.0000000E+00;  4.0000000E+04; -1.4836164E-03;  0.0000000E+00;  1.2123514E-04;  1.1391318E+03;
 -7.0000000E-02;  9.9999998E-03;  2.0000000E-01;1246;  0.0000000E+00;  0.0000000E+00;  0.0000000E+00;  1.0008652E+03;  1.0000000E-01;  7.1681921E+02;0;  0.0000000E+00;  0.0000000E+00;  0.0000000E+00;0; -1.2738714E-03;  4.0000000E+04;  0.0000000E+00;  0.0000000E+00;  4.0000000E+04;  0.0000000E+00;  4.0000000E+04; -1.3817583E-03;  0.0000000E+00;  1.0788681E-04;  1.2067930E+03;
 -7.0000000E-02;  9.9999998E-03;  2.0999999E-01;1247;  0.0000000E+00;  0.0000000E+00;  0.0000000E+00;  1.0007709E+03;  1.0000000E-01;  6.3869800E+02;0;  0.0000000E+00;  0.0000000E+00;  0.0000000E+00;0; -1.1888699E-03;  4.0000000E+04;  0.0000000E+00;  0.0000000E+00;  4.0000000E+04;  0.0000000E+00;  4.0000000E+04; -1.2753435E-03;  0.0000000E+00;  8.6473519E-05;  1.2428004E+03;
 -7.0000000E-02;  9.9999998E-03;  2.2000000E-01;1248;  0.0000000E+00;  0.0000000E+00;  0.0000000E+00;  1.0006856E+03;  1.0000000E-01;  5.6798395E+02;0;  0.0000000E+00;  0.0000000E+00;  0.0000000E+00;0; -1.1118739E-03;  4.0000000E+04;  0.0000000E+00;  0.0000000E+00;  4.0000000E+04;  0.0000000E+00;  4.0000000E+04; -1.1690756E-03;  0.0000000E+00;  5.7201727E-05;  1.2312400E+03;
 -7.0000000E-02;  9.9999998E-03;  2.3000000E-01;1249;  0.0000000E+00;  0.0000000E+00;  0.0000000E+00;  1.0006273E+03;  1.0000000E-01;  5.1968903E+02;0;  0.0000000E+00;  0.0000000E+00;  0.0000000E+00;0; -1.0457275E-03;  4.0000000E+04;  0.0000000E+00;  0.0000000E+00;  4.0000000E+04;  0.0000000E+00;  4.0000000E+04; -1.0669107E-03;  0.0000000E+00;  2.1183221E-05;  1.1604753E+03;
 -5.9999999E-02;  9.9999998E-03;  7.0000000E-02;1324;  0.0000000E+00;  0.0000000E+00;  0.0000000E+00;  1.0023409E+03;  1.0000000E-01;  1.9394020E+03;0;  0.0000000E+00;  0.0000000E+00;  0.0000000E+00;0; -2.9704298E-03;  4.0000000E+04;  0.0000000E+00;  0.0000000E+00;  4.0000000E+04;  0.0000000E+00;  4.0000000E+04; -3.0551238E-03;  0.0000000E+00;  8.4693937E-05;  1.2667483E+03;
 -5.9999999E-02;  9.9999998E-03;  7.9999998E-02;1325;  0.0000000E+00;  0.0000000E+00;  0.0000000E+00;  1.0023719E+03;  1.0000000E-01;  1.9650802E+03;0;  0.0000000E+00;  0.0000000E+00;  0.0000000E+00;0; -2.9533976E-03;  4.0000000E+04;  0.0000000E+00;  0.0000000E+00;  4.0000000E+04;  0.0000000E+00;  4.0000000E+04; -3.0393128E-03;  0.0000000E+00;  8.5915170E-05;  1.2307729E+03;
 -5.9999999E-02;  9.9999998E-03;  9.0000004E-02;1326;  0.0000000E+00;  0.0000000E+00;  0.0000000E+00;  1.0023987E+03;  1.0000000E-01;  1.9873019E+03;0;  0.0000000E+00;  0.0000000E+00;  0.0000000E+00;0; -2.9392650E-03;  4.0000000E+04;  0.0000000E+00;  0.0000000E+00;  4.0000000E+04;  0.0000000E+00;  4.0000000E+04; -3.0294277E-03;  0.0000000E+00;  9.0162655E-05;  1.1896866E+03;
 -5.9999999E-02;  9.9999998E-03;  1.0000000E-01;1327;  0.0000000E+00;  0.0000000E+00;  0.0000000E+00;  1.0024209E+03;  1.0000000E-01;  2.0056716E+03;0;  0.0000000E+00;  0.0000000E+00;  0.0000000E+00;0; -2.9270197E-03;  4.0000000E+04;  0.0000000E+00;  0.0000000E+00;  4.0000000E+04;  0.0000000E+00;  4.0000000E+04; -3.0243997E-03;  0.0000000E+00;  9.7380012E-05;  1.1466433E+03;
 -5.9999999E-02;  9.9999998E-03;  1.1000000E-01;1328;  0.0000000E+00;  0.0000000E+00;  0.0000000E+00;  1.0024338E+03;  1.0000000E-01;  2.0164368E+03;0;  0.0000000E+00;  0.0000000E+00;  0.0000000E+00;0; -2.9142839E-03;  4.0000000E+04;  0.0000000E+00;  0.0000000E+00;  4.0000000E+04;  0.0000000E+00;  4.0000000E+04; -3.0215005E-03;  0.0000000E+00;  1.0721671E-04;  1.1061439E+03;
 -5.9999999E-02;  9.9999998E-03;  1.2000000E-01;1329;  0.0000000E+00;  0.0000000E+00;  0.0000000E+00;  1.0024307E+03;  1.0000000E-01;  2.0137703E+03;0;  0.0000000E+00;  0.0000000E+00;  0.0000000E+00;0; -2.8974195E-03;  4.0000000E+04;  0.0000000E+00;  0.0000000E+00;  4.0000000E+04;  0.0000000E+00;  4.0000000E+04; -3.0164842E-03;  0.0000000E+00;  1.1906480E-04;  1.0740262E+03;
 -5.9999999E-02;  9.9999998E-03;  1.3000000E-01;1330;  0.0000000E+00;  0.0000000E+00;  0.0000000E+00;  1.0024108E+03;  1.0000000E-01;  1.9972769E+03;0;  0.0000000E+00;  0.0000000E+00;  0.0000000E+00;0; -2.8719434E-03;  4.0000000E+04;  0.0000000E+00;  0.0000000E+00;  4.0000000E+04;  0.0000000E+00;  4.0000000E+04; -3.0040359E-03;  0.0000000E+00;  1.3209249E-04;  1.0572705E+03;
 -5.9999999E-02;  9.9999998E-03;  1.4000000E-01;1331;  0.0000000E+00;  0.0000000E+00;  0.0000000E+00;  1.0023738E+03;  1.0000000E-01;  1.9666604E+03;0;  0.0000000E+00;  0.0000000E+00;  0.0000000E+00;0; -2.8331573E-03;  4.0000000E+04;  0.0000000E+00;  0.0000000E+00;  4.0000000E+04;  0.0000000E+00;  4.0000000E+04; -2.9784325E-03;  0.0000000E+00;  1.4527512E-04;  1.0632238E+03;
 -5.9999999E-02;  9.9999998E-03;  1.5000001E-01;1332;  0.0000000E+00;  0.0000000E+00;  0.0000000E+00;  1.0023057E+03;  1.0000000E-01;  1.9102670E+03;0;  0.0000000E+00;  0.0000000E+00;  0.0000000E+00;0; -2.7770342E-03;  4.0000000E+04;  0.0000000E+00;  0.0000000E+00;  4.0000000E+04;  0.0000000E+00;  4.0000000E+04; -2.9344382E-03;  0.0000000E+00;  1.5740398E-04;  1.0979866E+03;
 -5.9999999E-02;  9.9999998E-03;  1.6000000E-01;1333;  0.0000000E+00;  0.0000000E+00;  0.0000000E+00;  1.0022128E+03;  1.0000000E-01;  1.8332321E+03;0;  0.0000000E+00;  0.0000000E+00;  0.0000000E+00;0; -2.7012073E-03;  4.0000000E+04;  0.0000000E+00;  0.0000000E+00;  4.0000000E+04;  0.0000000E+00;  4.0000000E+04; -2.8681669E-03;  0.0000000E+00;  1.6695970E-04;  1.1642977E+03;
 -5.9999999E-02;  9.9999998E-03;  1.7000000E-01;1334;  0.0000000E+00;  0.0000000E+00;  0.0000000E+00;  1.0020938E+03;  1.0000000E-01;  1.7346670E+03;0;  0.0000000E+00;  0.0000000E+00;  0.0000000E+00;0; -2.6057127E-03;  4.0000000E+04;  0.0000000E+00;  0.0000000E+00;  4.0000000E+04;  0.0000000E+00;  4.0000000E+04; -2.7778349E-03;  0.0000000E+00;  1.7212215E-04;  1.2593146E+03;
 -5.9999999E-02;  9.9999998E-03;  1.8000001E-01;1335;  0.0000000E+00;  0.0000000E+00;  0.0000000E+00;  1.0019601E+03;  1.0000000E-01;  1.6238553E+03;0;  0.0000000E+00;  0.0000000E+00;  0.0000000E+00;0; -2.4931182E-03;  4.0000000E+04;  0.0000000E+00;  0.0000000E+00;  4.0000000E+04;  0.0000000E+00;  4.0000000E+04; -2.6639753E-03;  0.0000000E+00;  1.7085721E-04;  1.3730977E+03;
 -5.9999999E-02;  9.9999998E-03;  1.9000000E-01;1336;  0.0000000E+00;  0.0000000E+00;  0.0000000E+00;  1.0018131E+03;  1.0000000E-01;  1.5020809E+03;0;  0.0000000E+00;  0.0000000E+00;  0.0000000E+00;0; -2.3681112E-03;  4.0000000E+04;  0.0000000E+00;  0.0000000E+00;  4.0000000E+04;  0.0000000E+00;  4.0000000E+04; -2.5293359E-03;  0.0000000E+00;  1.6122480E-04;  1.4890417E+03;
 -5.9999999E-02;  9.9999998E-03;  2.0000000E-01;1337;  0.0000000E+00;  0.0000000E+00;  0.0000000E+00;  1.0016642E+03;  1.0000000E-01;  1.3788252E+03;0;  0.0000000E+00;  0.0000000E+00;  0.0000000E+00;0; -2.2366953E-03;  4.0000000E+04;  0.0000000E+00;  0.0000000E+00;  4.0000000E+04;  0.0000000E+00;  4.0000000E+04; -2.3784337E-03;  0.0000000E+00;  1.4173855E-04;  1.5860371E+03;
 -5.9999999E-02;  9.9999998E-03;  2.0999999E-01;1338;  0.0000000E+00;  0.0000000E+00;  0.0000000E+00;  1.0015188E+03;  1.0000000E-01;  1.2583348E+03;0;  0.0000000E+00;  0.0000000E+00;  0.0000000E+00;0; -2.1052207E-03;  4.0000000E+04;  0.0000000E+00;  0.0000000E+00;  4.0000000E+04;  0.0000000E+00;  4.0000000E+04; -2.2169054E-03;  0.0000000E+00;  1.1168459E-04;  1.6413524E+03;
 -5.9999999E-02;  9.9999998E-03;  2.2000000E-01;1339;  0.0000000E+00;  0.0000000E+00;  0.0000000E+00;  1.0013892E+03;  1.0000000E-01;  1.1508810E+03;0;  0.0000000E+00;  0.0000000E+00;  0.0000000E+00;0; -1.9793096E-03;  4.0000000E+04;  0.0000000E+00;  0.0000000E+00;  4.0000000E+04;  0.0000000E+00;  4.0000000E+04; -2.0506727E-03;  0.0000000E+00;  7.1363145E-05;  1.6339011E+03;
 -5.9999999E-02;  9.9999998E-03;  2.3000000E-01;1340;  0.0000000E+00;  0.0000000E+00;  0.0000000E+00;  1.0012678E+03;  1.0000000E-01;  1.0503407E+03;0;  0.0000000E+00;  0.0000000E+00;  0.0000000E+00;0; -1.8628213E-03;  4.0000000E+04;  0.0000000E+00;  0.0000000E+00;  4.0000000E+04;  0.0000000E+00;  4.0000000E+04; -1.8850438E-03;  0.0000000E+00;  2.2222524E-05;  1.5477778E+03;
 -5.0000001E-02;  9.9999998E-03;  7.0000000E-02;1415;  0.0000000E+00;  0.0000000E+00;  0.0000000E+00;  1.0037910E+03;  1.0000000E-01;  3.1407507E+03;0;  0.0000000E+00;  0.0000000E+00;  0.0000000E+00;0; -4.5405743E-03;  4.0000000E+04;  0.0000000E+00;  0.0000000E+00;  4.0000000E+04;  0.0000000E+00;  4.0000000E+04; -4.6641072E-03;  0.0000000E+00;  1.2353285E-04;  1.5209755E+03;
 -5.0000001E-02;  9.9999998E-03;  7.9999998E-02;1416;  0.0000000E+00;  0.0000000E+00;  0.0000000E+00;  1.0038295E+03;  1.0000000E-01;  3.1726511E+03;0;  0.0000000E+00;  0.0000000E+00;  0.0000000E+00;0; -4.5187846E-03;  4.0000000E+04;  0.0000000E+00;  0.0000000E+00;  4.0000000E+04;  0.0000000E+00;  4.0000000E+04; -4.6435772E-03;  0.0000000E+00;  1.2479235E-04;  1.4743163E+03;
 -5.0000001E-02;  9.9999998E-03;  9.0000004E-02;1417;  0.0000000E+00;  0.0000000E+00;  0.0000000E+00;  1.0038654E+03;  1.0000000E-01;  3.2023787E+03;0;  0.0000000E+00;  0.0000000E+00;  0.0000000E+00;0; -4.5004287E-03;  4.0000000E+04;  0.0000000E+00;  0.0000000E+00;  4.0000000E+04;  0.0000000E+00;  4.0000000E+04; -4.6302271E-03;  0.0000000E+00;  1.2979840E-04;  1.4219484E+03;
 -5.0000001E-02;  9.9999998E-03;  1.0000000E-01;1418;  0.0000000E+00;  0.0000000E+00;  0.0000000E+00;  1.0038943E+03;  1.0000000E-01;  3.2263779E+03;0;  0.0000000E+00;  0.0000000E+00;  0.0000000E+00;0; -4.4842754E-03;  4.0000000E+04;  0.0000000E+00;  0.0000000E+00;  4.0000000E+04;  0.0000000E+00;  4.0000000E+04; -4.6226555E-03;  0.0000000E+00;  1.3838000E-04;  1.3680444E+03;
 -5.0000001E-02;  9.9999998E-03;  1.1000000E-01;1419;  0.0000000E+00;  0.0000000E+00;  0.0000000E+00;  1.0039093E+03;  1.0000000E-01;  3.2388220E+03;0;  0.0000000E+00;  0.0000000E+00;  0.0000000E+00;0; -4.4673476E-03;  4.0000000E+04;  0.0000000E+00;  0.0000000E+00;  4.0000000E+04;  0.0000000E+00;  4.0000000E+04; -4.6173553E-03;  0.0000000E+00;  1.5000778E-04;  1.3184386E+03;
 -5.0000001E-02;  9.9999998E-03;  1.2000000E-01;1420;  0.0000000E+00;  0.0000000E+00;  0.0000000E+00;  1.0038981E+03;  1.0000000E-01;  3.2294395E+03;0;  0.0000000E+00;  0.0000000E+00;  0.0000000E+00;0; -4.4450215E-03;  4.0000000E+04;  0.0000000E+00;  0.0000000E+00;  4.0000000E+04;  0.0000000E+00;  4.0000000E+04; -4.6088868E-03;  0.0000000E+00;  1.6386519E-04;  1.2806754E+03;
 -5.0000001E-02;  9.9999998E-03;  1.3000000E-01;1421;  0.0000000E+00;  0.0000000E+00;  0.0000000E+00;  1.0038666E+03;  1.0000000E-01;  3.2034648E+03;0;  0.0000000E+00;  0.0000000E+00;  0.0000000E+00;0; -4.4114627E-03;  4.0000000E+04;  0.0000000E+00;  0.0000000E+00;  4.0000000E+04;  0.0000000E+00;  4.0000000E+04; -4.5903684E-03;  0.0000000E+00;  1.7890555E-04;  1.2637343E+03;
 -5.0000001E-02;  9.9999998E-03;  1.4000000E-01;1422;  0.0000000E+00;  0.0000000E+00;  0.0000000E+00;  1.0038036E+03;  1.0000000E-01;  3.1512195E+03;0;  0.0000000E+00;  0.0000000E+00;  0.0000000E+00;0; -4.3604416E-03;  4.0000000E+04;  0.0000000E+00;  0.0000000E+00;  4.0000000E+04;  0.0000000E+00;  4.0000000E+04; -4.5543402E-03;  0.0000000E+00;  1.9389848E-04;  1.2769255E+03;
 -5.0000001E-02;  9.9999998E-03;  1.5000001E-01;1423;  0.0000000E+00;  0.0000000E+00;  0.0000000E+00;  1.0037103E+03;  1.0000000E-01;  3.0738884E+03;0;  0.0000000E+00;  0.0000000E+00;  0.0000000E+00;0; -4.2864275E-03;  4.0000000E+04;  0.0000000E+00;  0.0000000E+00;  4.0000000E+04;  0.0000000E+00;  4.0000000E+04; -4.4937981E-03;  0.0000000E+00;  2.0737083E-04;  1.3278502E+03;
 -5.0000001E-02;  9.9999998E-03;  1.6000000E-01;1424;  0.0000000E+00;  0.0000000E+00;  0.0000000E+00;  1.0035825E+03;  1.0000000E-01;  2.9680149E+03;0;  0.0000000E+00;  0.0000000E+00;  0.0000000E+00;0; -4.1858535E-03;  4.0000000E+04;  0.0000000E+00;  0.0000000E+00;  4.0000000E+04;  0.0000000E+00;  4.0000000E+04; -4.4033225E-03;  0.0000000E+00;  2.1746918E-04;  1.4196810E+03;
 -5.0000001E-02;  9.9999998E-03;  1.7000000E-01;1425;  0.0000000E+00;  0.0000000E+00;  0.0000000E+00;  1.0034226E+03;  1.0000000E-01;  2.8355742E+03;0;  0.0000000E+00;  0.0000000E+00;  0.0000000E+00;0; -4.0579909E-03;  4.0000000E+04;  0.0000000E+00;  0.0000000E+00;  4.0000000E+04;  0.0000000E+00;  4.0000000E+04; -4.2799162E-03;  0.0000000E+00;  2.2192550E-04;  1.5482634E+03;
 -5.0000001E-02;  9.9999998E-03;  1.8000001E-01;1426;  0.0000000E+00;  0.0000000E+00;  0.0000000E+00;  1.0032341E+03;  1.0000000E-01;  2.6794304E+03;0;  0.0000000E+00;  0.0000000E+00;  0.0000000E+00;0; -3.9051033E-03;  4.0000000E+04;  0.0000000E+00;  0.0000000E+00;  4.0000000E+04;  0.0000000E+00;  4.0000000E+04; -4.1233357E-03;  0.0000000E+00;  2.1823229E-04;  1.7007554E+03;
 -5.0000001E-02;  9.9999998E-03;  1.9000000E-01;1427;  0.0000000E+00;  0.0000000E+00;  0.0000000E+00;  1.0030305E+03;  1.0000000E-01;  2.5106450E+03;0;  0.0000000E+00;  0.0000000E+00;  0.0000000E+00;0; -3.7320908E-03;  4.0000000E+04;  0.0000000E+00;  0.0000000E+00;  4.0000000E+04;  0.0000000E+00;  4.0000000E+04; -3.9361138E-03;  0.0000000E+00;  2.0402296E-04;  1.8565685E+03;
 -5.0000001E-02;  9.9999998E-03;  2.0000000E-01;1428;  0.0000000E+00;  0.0000000E+00;  0.0000000E+00;  1.0028128E+03;  1.0000000E-01;  2.3304033E+03;0;  0.0000000E+00;  0.0000000E+00;  0.0000000E+00;0; -3.5456638E-03;  4.0000000E+04;  0.0000000E+00;  0.0000000E+00;  4.0000000E+04;  0.0000000E+00;  4.0000000E+04; -3.7231368E-03;  0.0000000E+00;  1.7747314E-04;  1.9896216E+03;
 -5.0000001E-02;  9.9999998E-03;  2.0999999E-01;1429;  0.0000000E+00;  0.0000000E+00;  0.0000000E+00;  1.0025947E+03;  1.0000000E-01;  2.1496675E+03;0;  0.0000000E+00;  0.0000000E+00;  0.0000000E+00;0; -3.3533280E-03;  4.0000000E+04;  0.0000000E+00;  0.0000000E+00;  4.0000000E+04;  0.0000000E+00;  4.0000000E+04; -3.4910003E-03;  0.0000000E+00;  1.3767228E-04;  2.0713884E+03;
 -5.0000001E-02;  9.9999998E-03;  2.2000000E-01;1430;  0.0000000E+00;  0.0000000E+00;  0.0000000E+00;  1.0023904E+03;  1.0000000E-01;  1.9803884E+03;0;  0.0000000E+00;  0.0000000E+00;  0.0000000E+00;0; -3.1621077E-03;  4.0000000E+04;  0.0000000E+00;  0.0000000E+00;  4.0000000E+04;  0.0000000E+00;  4.0000000E+04; -3.2470368E-03;  0.0000000E+00;  8.4929139E-05;  2.0746277E+03;
 -5.0000001E-02;  9.9999998E-03;  2.3000000E-01;1431;  0.0000000E+00;  0.0000000E+00;  0.0000000E+00;  1.0022007E+03;  1.0000000E-01;  1.8232571E+03;0;  0.0000000E+00;  0.0000000E+00;  0.0000000E+00;0; -2.9772695E-03;  4.0000000E+04;  0.0000000E+00;  0.0000000E+00;  4.0000000E+04;  0.0000000E+00;  4.0000000E+04; -2.9982415E-03;  0.0000000E+00;  2.0972102E-05;  1.9776885E+03;
 -3.9999999E-02;  9.9999998E-03;  7.0000000E-02;1506;  0.0000000E+00;  0.0000000E+00;  0.0000000E+00;  1.0056716E+03;  1.0000000E-01;  4.6988301E+03;0;  0.0000000E+00;  0.0000000E+00;  0.0000000E+00;0; -6.4946702E-03;  4.0000000E+04;  0.0000000E+00;  0.0000000E+00;  4.0000000E+04;  0.0000000E+00;  4.0000000E+04; -6.6666366E-03;  0.0000000E+00;  1.7196646E-04;  1.7356031E+03;
 -3.9999999E-02;  9.9999998E-03;  7.9999998E-02;1507;  0.0000000E+00;  0.0000000E+00;  0.0000000E+00;  1.0057198E+03;  1.0000000E-01;  4.7388291E+03;0;  0.0000000E+00;  0.0000000E+00;  0.0000000E+00;0; -6.4679487E-03;  4.0000000E+04;  0.0000000E+00;  0.0000000E+00;  4.0000000E+04;  0.0000000E+00;  4.0000000E+04; -6.6408492E-03;  0.0000000E+00;  1.7290066E-04;  1.6786525E+03;
 -3.9999999E-02;  9.9999998E-03;  9.0000004E-02;1508;  0.0000000E+00;  0.0000000E+00;  0.0000000E+00;  1.0057656E+03;  1.0000000E-01;  4.7767539E+03;0;  0.0000000E+00;  0.0000000E+00;  0.0000000E+00;0; -6.4453497E-03;  4.0000000E+04;  0.0000000E+00;  0.0000000E+00;  4.0000000E+04;  0.0000000E+00;  4.0000000E+04; -6.6235615E-03;  0.0000000E+00;  1.7821181E-04;  1.6158549E+03;
 -3.9999999E-02;  9.9999998E-03;  1.0000000E-01;1509;  0.0000000E+00;  0.0000000E+00;  0.0000000E+00;  1.0058047E+03;  1.0000000E-01;  4.8090493E+03;0;  0.0000000E+00;  0.0000000E+00;  0.0000000E+00;0; -6.4255092E-03;  4.0000000E+04;  0.0000000E+00;  0.0000000E+00;  4.0000000E+04;  0.0000000E+00;  4.0000000E+04; -6.6130739E-03;  0.0000000E+00;  1.8756458E-04;  1.5524332E+03;
 -3.9999999E-02;  9.9999998E-03;  1.1000000E-01;1510;  0.0000000E+00;  0.0000000E+00;  0.0000000E+00;  1.0058223E+03;  1.0000000E-01;  4.8236660E+03;0;  0.0000000E+00;  0.0000000E+00;  0.0000000E+00;0; -6.4048315E-03;  4.0000000E+04;  0.0000000E+00;  0.0000000E+00;  4.0000000E+04;  0.0000000E+00;  4.0000000E+04; -6.6050529E-03;  0.0000000E+00;  2.0022114E-04;  1.4954670E+03;
 -3.9999999E-02;  9.9999998E-03;  1.2000000E-01;1511;  0.0000000E+00;  0.0000000E+00;  0.0000000E+00;  1.0058115E+03;  1.0000000E-01;  4.8146787E+03;0;  0.0000000E+00;  0.0000000E+00;  0.0000000E+00;0; -6.3775787E-03;  4.0000000E+04;  0.0000000E+00;  0.0000000E+00;  4.0000000E+04;  0.0000000E+00;  4.0000000E+04; -6.5927375E-03;  0.0000000E+00;  2.1515867E-04;  1.4539943E+03;
 -3.9999999E-02;  9.9999998E-03;  1.3000000E-01;1512;  0.0000000E+00;  0.0000000E+00;  0.0000000E+00;  1.0057666E+03;  1.0000000E-01;  4.7775439E+03;0;  0.0000000E+00;  0.0000000E+00;  0.0000000E+00;0; -6.3363696E-03;  4.0000000E+04;  0.0000000E+00;  0.0000000E+00;  4.0000000E+04;  0.0000000E+00;  4.0000000E+04; -6.5675308E-03;  0.0000000E+00;  2.3116104E-04;  1.4387932E+03;
 -3.9999999E-02;  9.9999998E-03;  1.4000000E-01;1513;  0.0000000E+00;  0.0000000E+00;  0.0000000E+00;  1.0056787E+03;  1.0000000E-01;  4.7046572E+03;0;  0.0000000E+00;  0.0000000E+00;  0.0000000E+00;0; -6.2730769E-03;  4.0000000E+04;  0.0000000E+00;  0.0000000E+00;  4.0000000E+04;  0.0000000E+00;  4.0000000E+04; -6.5199411E-03;  0.0000000E+00;  2.4686422E-04;  1.4610157E+03;
 -3.9999999E-02;  9.9999998E-03;  1.5000001E-01;1514;  0.0000000E+00;  0.0000000E+00;  0.0000000E+00;  1.0055469E+03;  1.0000000E-01;  4.5955244E+03;0;  0.0000000E+00;  0.0000000E+00;  0.0000000E+00;0; -6.1802655E-03;  4.0000000E+04;  0.0000000E+00;  0.0000000E+00;  4.0000000E+04;  0.0000000E+00;  4.0000000E+04; -6.4408747E-03;  0.0000000E+00;  2.6060935E-04;  1.5297258E+03;
 -3.9999999E-02;  9.9999998E-03;  1.6000000E-01;1515;  0.0000000E+00;  0.0000000E+00;  0.0000000E+00;  1.0053740E+03;  1.0000000E-01;  4.4522197E+03;0;  0.0000000E+00;  0.0000000E+00;  0.0000000E+00;0; -6.0526985E-03;  4.0000000E+04;  0.0000000E+00;  0.0000000E+00;  4.0000000E+04;  0.0000000E+00;  4.0000000E+04; -6.3229697E-03;  0.0000000E+00;  2.7027138E-04;  1.6486582E+03;
 -3.9999999E-02;  9.9999998E-03;  1.7000000E-01;1516;  0.0000000E+00;  0.0000000E+00;  0.0000000E+00;  1.0051630E+03;  1.0000000E-01;  4.2774097E+03;0;  0.0000000E+00;  0.0000000E+00;  0.0000000E+00;0; -5.8884174E-03;  4.0000000E+04;  0.0000000E+00;  0.0000000E+00;  4.0000000E+04;  0.0000000E+00;  4.0000000E+04; -6.1615990E-03;  0.0000000E+00;  2.7318165E-04;  1.8126953E+03;
 -3.9999999E-02;  9.9999998E-03;  1.8000001E-01;1517;  0.0000000E+00;  0.0000000E+00;  0.0000000E+00;  1.0049125E+03;  1.0000000E-01;  4.0699097E+03;0;  0.0000000E+00;  0.0000000E+00;  0.0000000E+00;0; -5.6889802E-03;  4.0000000E+04;  0.0000000E+00;  0.0000000E+00;  4.0000000E+04;  0.0000000E+00;  4.0000000E+04; -5.9553711E-03;  0.0000000E+00;  2.6639062E-04;  2.0069844E+03;
 -3.9999999E-02;  9.9999998E-03;  1.9000000E-01;1518;  0.0000000E+00;  0.0000000E+00;  0.0000000E+00;  1.0046224E+03;  1.0000000E-01;  3.8295212E+03;0;  0.0000000E+00;  0.0000000E+00;  0.0000000E+00;0; -5.4591787E-03;  4.0000000E+04;  0.0000000E+00;  0.0000000E+00;  4.0000000E+04;  0.0000000E+00;  4.0000000E+04; -5.7062563E-03;  0.0000000E+00;  2.4707775E-04;  2.2077273E+03;
 -3.9999999E-02;  9.9999998E-03;  2.0000000E-01;1519;  0.0000000E+00;  0.0000000E+00;  0.0000000E+00;  1.0043288E+03;  1.0000000E-01;  3.5863677E+03;0;  0.0000000E+00;  0.0000000E+00;  0.0000000E+00;0; -5.2063493E-03;  4.0000000E+04;  0.0000000E+00;  0.0000000E+00;  4.0000000E+04;  0.0000000E+00;  4.0000000E+04; -5.4193391E-03;  0.0000000E+00;  2.1298976E-04;  2.3842522E+03;
 -3.9999999E-02;  9.9999998E-03;  2.0999999E-01;1520;  0.0000000E+00;  0.0000000E+00;  0.0000000E+00;  1.0040286E+03;  1.0000000E-01;  3.3376833E+03;0;  0.0000000E+00;  0.0000000E+00;  0.0000000E+00;0; -4.9392222E-03;  4.0000000E+04;  0.0000000E+00;  0.0000000E+00;  4.0000000E+04;  0.0000000E+00;  4.0000000E+04; -5.1021050E-03;  0.0000000E+00;  1.6288282E-04;  2.5018811E+03;
 -3.9999999E-02;  9.9999998E-03;  2.2000000E-01;1521;  0.0000000E+00;  0.0000000E+00;  0.0000000E+00;  1.0037290E+03;  1.0000000E-01;  3.0893940E+03;0;  0.0000000E+00;  0.0000000E+00;  0.0000000E+00;0; -4.6665291E-03;  4.0000000E+04;  0.0000000E+00;  0.0000000E+00;  4.0000000E+04;  0.0000000E+00;  4.0000000E+04; -4.7634654E-03;  0.0000000E+00;  9.6936055E-05;  2.5260349E+03;
 -3.9999999E-02;  9.9999998E-03;  2.3000000E-01;1522;  0.0000000E+00;  0.0000000E+00;  0.0000000E+00;  1.0034496E+03;  1.0000000E-01;  2.8579932E+03;0;  0.0000000E+00;  0.0000000E+00;  0.0000000E+00;0; -4.3953098E-03;  4.0000000E+04;  0.0000000E+00;  0.0000000E+00;  4.0000000E+04;  0.0000000E+00;  4.0000000E+04; -4.4123614E-03;  0.0000000E+00;  1.7051512E-05;  2.4273987E+03;
 -2.9999999E-02;  9.9999998E-03;  7.0000000E-02;1597;  0.0000000E+00;  0.0000000E+00;  0.0000000E+00;  1.0079624E+03;  1.0000000E-01;  6.5966528E+03;0;  0.0000000E+00;  0.0000000E+00;  0.0000000E+00;0; -8.7840892E-03;  4.0000000E+04;  0.0000000E+00;  0.0000000E+00;  4.0000000E+04;  0.0000000E+00;  4.0000000E+04; -9.0136863E-03;  0.0000000E+00;  2.2959728E-04;  1.8753110E+03;
 -2.9999999E-02;  9.9999998E-03;  7.9999998E-02;1598;  0.0000000E+00;  0.0000000E+00;  0.0000000E+00;  1.0080264E+03;  1.0000000E-01;  6.6497871E+03;0;  0.0000000E+00;  0.0000000E+00;  0.0000000E+00;0; -8.7525500E-03;  4.0000000E+04;  0.0000000E+00;  0.0000000E+00;  4.0000000E+04;  0.0000000E+00;  4.0000000E+04; -8.9822281E-03;  0.0000000E+00;  2.2967844E-04;  1.8098439E+03;
 -2.9999999E-02;  9.9999998E-03;  9.0000004E-02;1599;  0.0000000E+00;  0.0000000E+00;  0.0000000E+00;  1.0080858E+03;  1.0000000E-01;  6.6988721E+03;0;  0.0000000E+00;  0.0000000E+00;  0.0000000E+00;0; -8.7260334E-03;  4.0000000E+04;  0.0000000E+00;  0.0000000E+00;  4.0000000E+04;  0.0000000E+00;  4.0000000E+04; -8.9606158E-03;  0.0000000E+00;  2.3458265E-04;  1.7390074E+03;
 -2.9999999E-02;  9.9999998E-03;  1.0000000E-01;1600;  0.0000000E+00;  0.0000000E+00;  0.0000000E+00;  1.0081296E+03;  1.0000000E-01;  6.7352168E+03;0;  0.0000000E+00;  0.0000000E+00;  0.0000000E+00;0; -8.7030651E-03;  4.0000000E+04;  0.0000000E+00;  0.0000000E+00;  4.0000000E+04;  0.0000000E+00;  4.0000000E+04; -8.9468202E-03;  0.0000000E+00;  2.4375517E-04;  1.6688474E+03;
 -2.9999999E-02;  9.9999998E-03;  1.1000000E-01;1601;  0.0000000E+00;  0.0000000E+00;  0.0000000E+00;  1.0081541E+03;  1.0000000E-01;  6.7555620E+03;0;  0.0000000E+00;  0.0000000E+00;  0.0000000E+00;0; -8.6795101E-03;  4.0000000E+04;  0.0000000E+00;  0.0000000E+00;  4.0000000E+04;  0.0000000E+00;  4.0000000E+04; -8.9357411E-03;  0.0000000E+00;  2.5623073E-04;  1.6073485E+03;
 -2.9999999E-02;  9.9999998E-03;  1.2000000E-01;1602;  0.0000000E+00;  0.0000000E+00;  0.0000000E+00;  1.0081443E+03;  1.0000000E-01;  6.7474634E+03;0;  0.0000000E+00;  0.0000000E+00;  0.0000000E+00;0; -8.6484626E-03;  4.0000000E+04;  0.0000000E+00;  0.0000000E+00;  4.0000000E+04;  0.0000000E+00;  4.0000000E+04; -8.9192791E-03;  0.0000000E+00;  2.7081653E-04;  1.5646135E+03;
 -2.9999999E-02;  9.9999998E-03;  1.3000000E-01;1603;  0.0000000E+00;  0.0000000E+00;  0.0000000E+00;  1.0080866E+03;  1.0000000E-01;  6.6995635E+03;0;  0.0000000E+00;  0.0000000E+00;  0.0000000E+00;0; -8.6008040E-03;  4.0000000E+04;  0.0000000E+00;  0.0000000E+00;  4.0000000E+04;  0.0000000E+00;  4.0000000E+04; -8.8870209E-03;  0.0000000E+00;  2.8621693E-04;  1.5527994E+03;
 -2.9999999E-02;  9.9999998E-03;  1.4000000E-01;1604;  0.0000000E+00;  0.0000000E+00;  0.0000000E+00;  1.0079778E+03;  1.0000000E-01;  6.6093936E+03;0;  0.0000000E+00;  0.0000000E+00;  0.0000000E+00;0; -8.5262256E-03;  4.0000000E+04;  0.0000000E+00;  0.0000000E+00;  4.0000000E+04;  0.0000000E+00;  4.0000000E+04; -8.8272830E-03;  0.0000000E+00;  3.0105756E-04;  1.5846405E+03;
 -2.9999999E-02;  9.9999998E-03;  1.5000001E-01;1605;  0.0000000E+00;  0.0000000E+00;  0.0000000E+00;  1.0078083E+03;  1.0000000E-01;  6.4690518E+03;0;  0.0000000E+00;  0.0000000E+00;  0.0000000E+00;0; -8.4150033E-03;  4.0000000E+04;  0.0000000E+00;  0.0000000E+00;  4.0000000E+04;  0.0000000E+00;  4.0000000E+04; -8.7286392E-03;  0.0000000E+00;  3.1363632E-04;  1.6706549E+03;
 -2.9999999E-02;  9.9999998E-03;  1.6000000E-01;1606;  0.0000000E+00;  0.0000000E+00;  0.0000000E+00;  1.0075828E+03;  1.0000000E-01;  6.2821929E+03;0;  0.0000000E+00;  0.0000000E+00;  0.0000000E+00;0; -8.2598208E-03;  4.0000000E+04;  0.0000000E+00;  0.0000000E+00;  4.0000000E+04;  0.0000000E+00;  4.0000000E+04; -8.5814856E-03;  0.0000000E+00;  3.2166505E-04;  1.8154451E+03;
 -2.9999999E-02;  9.9999998E-03;  1.7000000E-01;1607;  0.0000000E+00;  0.0000000E+00;  0.0000000E+00;  1.0073082E+03;  1.0000000E-01;  6.0546436E+03;0;  0.0000000E+00;  0.0000000E+00;  0.0000000E+00;0; -8.0569787E-03;  4.0000000E+04;  0.0000000E+00;  0.0000000E+00;  4.0000000E+04;  0.0000000E+00;  4.0000000E+04; -8.3791595E-03;  0.0000000E+00;  3.2218118E-04;  2.0139266E+03;
 -2.9999999E-02;  9.9999998E-03;  1.8000001E-01;1608;  0.0000000E+00;  0.0000000E+00;  0.0000000E+00;  1.0069760E+03;  1.0000000E-01;  5.7794907E+03;0;  0.0000000E+00;  0.0000000E+00;  0.0000000E+00;0; -7.8068217E-03;  4.0000000E+04;  0.0000000E+00;  0.0000000E+00;  4.0000000E+04;  0.0000000E+00;  4.0000000E+04; -8.1186630E-03;  0.0000000E+00;  3.1184123E-04;  2.2506519E+03;
 -2.9999999E-02;  9.9999998E-03;  1.9000000E-01;1609;  0.0000000E+00;  0.0000000E+00;  0.0000000E+00;  1.0066125E+03;  1.0000000E-01;  5.4783638E+03;0;  0.0000000E+00;  0.0000000E+00;  0.0000000E+00;0; -7.5136926E-03;  4.0000000E+04;  0.0000000E+00;  0.0000000E+00;  4.0000000E+04;  0.0000000E+00;  4.0000000E+04; -7.8010205E-03;  0.0000000E+00;  2.8732789E-04;  2.5000613E+03;
 -2.9999999E-02;  9.9999998E-03;  2.0000000E-01;1610;  0.0000000E+00;  0.0000000E+00;  0.0000000E+00;  1.0062187E+03;  1.0000000E-01;  5.1520518E+03;0;  0.0000000E+00;  0.0000000E+00;  0.0000000E+00;0; -7.1853497E-03;  4.0000000E+04;  0.0000000E+00;  0.0000000E+00;  4.0000000E+04;  0.0000000E+00;  4.0000000E+04; -7.4311728E-03;  0.0000000E+00;  2.4582297E-04;  2.7276682E+03;
 -2.9999999E-02;  9.9999998E-03;  2.0999999E-01;1611;  0.0000000E+00;  0.0000000E+00;  0.0000000E+00;  1.0058135E+03;  1.0000000E-01;  4.8163574E+03;0;  0.0000000E+00;  0.0000000E+00;  0.0000000E+00;0; -6.8318034E-03;  4.0000000E+04;  0.0000000E+00;  0.0000000E+00;  4.0000000E+04;  0.0000000E+00;  4.0000000E+04; -7.0173680E-03;  0.0000000E+00;  1.8556455E-04;  2.8926899E+03;
 -2.9999999E-02;  9.9999998E-03;  2.2000000E-01;1612;  0.0000000E+00;  0.0000000E+00;  0.0000000E+00;  1.0054081E+03;  1.0000000E-01;  4.4804658E+03;0;  0.0000000E+00;  0.0000000E+00;  0.0000000E+00;0; -6.4636110E-03;  4.0000000E+04;  0.0000000E+00;  0.0000000E+00;  4.0000000E+04;  0.0000000E+00;  4.0000000E+04; -6.5700188E-03;  0.0000000E+00;  1.0640797E-04;  2.9520054E+03;
 -2.9999999E-02;  9.9999998E-03;  2.3000000E-01;1613;  0.0000000E+00;  0.0000000E+00;  0.0000000E+00;  1.0050172E+03;  1.0000000E-01;  4.1566230E+03;0;  0.0000000E+00;  0.0000000E+00;  0.0000000E+00;0; -6.0898988E-03;  4.0000000E+04;  0.0000000E+00;  0.0000000E+00;  4.0000000E+04;  0.0000000E+00;  4.0000000E+04; -6.1001801E-03;  0.0000000E+00;  1.0281165E-05;  2.8664146E+03;
 -2.0000000E-02;  9.9999998E-03;  7.0000000E-02;1688;  0.0000000E+00;  0.0000000E+00;  0.0000000E+00;  1.0105698E+03;  1.0000000E-01;  8.7568877E+03;0;  0.0000000E+00;  0.0000000E+00;  0.0000000E+00;0; -1.1319949E-02;  4.0000000E+04;  0.0000000E+00;  0.0000000E+00;  4.0000000E+04;  0.0000000E+00;  4.0000000E+04; -1.1615058E-02;  0.0000000E+00;  2.9510949E-04;  1.9057831E+03;
 -2.0000000E-02;  9.9999998E-03;  7.9999998E-02;1689;  0.0000000E+00;  0.0000000E+00;  0.0000000E+00;  1.0106487E+03;  1.0000000E-01;  8.8222686E+03;0;  0.0000000E+00;  0.0000000E+00;  0.0000000E+00;0; -1.1284129E-02;  4.0000000E+04;  0.0000000E+00;  0.0000000E+00;  4.0000000E+04;  0.0000000E+00;  4.0000000E+04; -1.1577829E-02;  0.0000000E+00;  2.9370017E-04;  1.8351873E+03;
 -2.0000000E-02;  9.9999998E-03;  9.0000004E-02;1690;  0.0000000E+00;  0.0000000E+00;  0.0000000E+00;  1.0107260E+03;  1.0000000E-01;  8.8862676E+03;0;  0.0000000E+00;  0.0000000E+00;  0.0000000E+00;0; -1.1254276E-02;  4.0000000E+04;  0.0000000E+00;  0.0000000E+00;  4.0000000E+04;  0.0000000E+00;  4.0000000E+04; -1.1551545E-02;  0.0000000E+00;  2.9726888E-04;  1.7604137E+03;
 -2.0000000E-02;  9.9999998E-03;  1.0000000E-01;1691;  0.0000000E+00;  0.0000000E+00;  0.0000000E+00;  1.0107866E+03;  1.0000000E-01;  8.9365371E+03;0;  0.0000000E+00;  0.0000000E+00;  0.0000000E+00;0; -1.1228998E-02;  4.0000000E+04;  0.0000000E+00;  0.0000000E+00;  4.0000000E+04;  0.0000000E+00;  4.0000000E+04; -1.1533978E-02;  0.0000000E+00;  3.0498058E-04;  1.6878914E+03;
 -2.0000000E-02;  9.9999998E-03;  1.1000000E-01;1692;  0.0000000E+00;  0.0000000E+00;  0.0000000E+00;  1.0108244E+03;  1.0000000E-01;  8.9678447E+03;0;  0.0000000E+00;  0.0000000E+00;  0.0000000E+00;0; -1.1203651E-02;  4.0000000E+04;  0.0000000E+00;  0.0000000E+00;  4.0000000E+04;  0.0000000E+00;  4.0000000E+04; -1.1519290E-02;  0.0000000E+00;  3.1563838E-04;  1.6258091E+03;
 -2.0000000E-02;  9.9999998E-03;  1.2000000E-01;1693;  0.0000000E+00;  0.0000000E+00;  0.0000000E+00;  1.0108157E+03;  1.0000000E-01;  8.9606357E+03;0;  0.0000000E+00;  0.0000000E+00;  0.0000000E+00;0; -1.1170267E-02;  4.0000000E+04;  0.0000000E+00;  0.0000000E+00;  4.0000000E+04;  0.0000000E+00;  4.0000000E+04; -1.1498215E-02;  0.0000000E+00;  3.2794764E-04;  1.5846539E+03;
 -2.0000000E-02;  9.9999998E-03;  1.3000000E-01;1694;  0.0000000E+00;  0.0000000E+00;  0.0000000E+00;  1.0107540E+03;  1.0000000E-01;  8.9094766E+03;0;  0.0000000E+00;  0.0000000E+00;  0.0000000E+00;0; -1.1117854E-02;  4.0000000E+04;  0.0000000E+00;  0.0000000E+00;  4.0000000E+04;  0.0000000E+00;  4.0000000E+04; -1.1458526E-02;  0.0000000E+00;  3.4067204E-04;  1.5773282E+03;
 -2.0000000E-02;  9.9999998E-03;  1.4000000E-01;1695;  0.0000000E+00;  0.0000000E+00;  0.0000000E+00;  1.0106281E+03;  1.0000000E-01;  8.8051826E+03;0;  0.0000000E+00;  0.0000000E+00;  0.0000000E+00;0; -1.1033778E-02;  4.0000000E+04;  0.0000000E+00;  0.0000000E+00;  4.0000000E+04;  0.0000000E+00;  4.0000000E+04; -1.1386381E-02;  0.0000000E+00;  3.5260318E-04;  1.6177351E+03;
 -2.0000000E-02;  9.9999998E-03;  1.5000001E-01;1696;  0.0000000E+00;  0.0000000E+00;  0.0000000E+00;  1.0104269E+03;  1.0000000E-01;  8.6384717E+03;0;  0.0000000E+00;  0.0000000E+00;  0.0000000E+00;0; -1.0905797E-02;  4.0000000E+04;  0.0000000E+00;  0.0000000E+00;  4.0000000E+04;  0.0000000E+00;  4.0000000E+04; -1.1267998E-02;  0.0000000E+00;  3.6220119E-04;  1.7180120E+03;
 -2.0000000E-02;  9.9999998E-03;  1.6000000E-01;1697;  0.0000000E+00;  0.0000000E+00;  0.0000000E+00;  1.0101482E+03;  1.0000000E-01;  8.4075645E+03;0;  0.0000000E+00;  0.0000000E+00;  0.0000000E+00;0; -1.0724110E-02;  4.0000000E+04;  0.0000000E+00;  0.0000000E+00;  4.0000000E+04;  0.0000000E+00;  4.0000000E+04; -1.1091304E-02;  0.0000000E+00;  3.6719424E-04;  1.8842410E+03;
 -2.0000000E-02;  9.9999998E-03;  1.7000000E-01;1698;  0.0000000E+00;  0.0000000E+00;  0.0000000E+00;  1.0097971E+03;  1.0000000E-01;  8.1167085E+03;0;  0.0000000E+00;  0.0000000E+00;  0.0000000E+00;0; -1.0482845E-02;  4.0000000E+04;  0.0000000E+00;  0.0000000E+00;  4.0000000E+04;  0.0000000E+00;  4.0000000E+04; -1.0847330E-02;  0.0000000E+00;  3.6448549E-04;  2.1128696E+03;
 -2.0000000E-02;  9.9999998E-03;  1.8000001E-01;1699;  0.0000000E+00;  0.0000000E+00;  0.0000000E+00;  1.0093885E+03;  1.0000000E-01;  7.7782490E+03;0;  0.0000000E+00;  0.0000000E+00;  0.0000000E+00;0; -1.0180673E-02;  4.0000000E+04;  0.0000000E+00;  0.0000000E+00;  4.0000000E+04;  0.0000000E+00;  4.0000000E+04; -1.0531080E-02;  0.0000000E+00;  3.5040759E-04;  2.3896299E+03;
 -2.0000000E-02;  9.9999998E-03;  1.9000000E-01;1700;  0.0000000E+00;  0.0000000E+00;  0.0000000E+00;  1.0089323E+03;  1.0000000E-01;  7.4001855E+03;0;  0.0000000E+00;  0.0000000E+00;  0.0000000E+00;0; -9.8210759E-03;  4.0000000E+04;  0.0000000E+00;  0.0000000E+00;  4.0000000E+04;  0.0000000E+00;  4.0000000E+04; -1.0142165E-02;  0.0000000E+00;  3.2108973E-04;  2.6890276E+03;
 -2.0000000E-02;  9.9999998E-03;  2.0000000E-01;1701;  0.0000000E+00;  0.0000000E+00;  0.0000000E+00;  1.0084317E+03;  1.0000000E-01;  6.9854814E+03;0;  0.0000000E+00;  0.0000000E+00;  0.0000000E+00;0; -9.4119227E-03;  4.0000000E+04;  0.0000000E+00;  0.0000000E+00;  4.0000000E+04;  0.0000000E+00;  4.0000000E+04; -9.6849091E-03;  0.0000000E+00;  2.7298692E-04;  2.9742568E+03;
 -2.0000000E-02;  9.9999998E-03;  2.0999999E-01;1702;  0.0000000E+00;  0.0000000E+00;  0.0000000E+00;  1.0079162E+03;  1.0000000E-01;  6.5584316E+03;0;  0.0000000E+00;  0.0000000E+00;  0.0000000E+00;0; -8.9642769E-03;  4.0000000E+04;  0.0000000E+00;  0.0000000E+00;  4.0000000E+04;  0.0000000E+00;  4.0000000E+04; -9.1678612E-03;  0.0000000E+00;  2.0358441E-04;  3.1988301E+03;
 -2.0000000E-02;  9.9999998E-03;  2.2000000E-01;1703;  0.0000000E+00;  0.0000000E+00;  0.0000000E+00;  1.0073857E+03;  1.0000000E-01;  6.1189380E+03;0;  0.0000000E+00;  0.0000000E+00;  0.0000000E+00;0; -8.4905103E-03;  4.0000000E+04;  0.0000000E+00;  0.0000000E+00;  4.0000000E+04;  0.0000000E+00;  4.0000000E+04; -8.6026853E-03;  0.0000000E+00;  1.1217542E-04;  3.3105327E+03;
 -2.0000000E-02;  9.9999998E-03;  2.3000000E-01;1704;  0.0000000E+00;  0.0000000E+00;  0.0000000E+00;  1.0068694E+03;  1.0000000E-01;  5.6911973E+03;0;  0.0000000E+00;  0.0000000E+00;  0.0000000E+00;0; -8.0018993E-03;  4.0000000E+04;  0.0000000E+00;  0.0000000E+00;  4.0000000E+04;  0.0000000E+00;  4.0000000E+04; -8.0024283E-03;  0.0000000E+00;  5.2913532E-07;  3.2583188E+03;
 -9.9999998E-03;  9.9999998E-03;  7.0000000E-02;1779;  0.0000000E+00;  0.0000000E+00;  0.0000000E+00;  1.0133663E+03;  1.0000000E-01;  1.1073761E+04;0;  0.0000000E+00;  0.0000000E+00;  0.0000000E+00;0; -1.3978128E-02;  4.0000000E+04;  0.0000000E+00;  0.0000000E+00;  4.0000000E+04;  0.0000000E+00;  4.0000000E+04; -1.4344363E-02;  0.0000000E+00;  3.6623495E-04;  1.7992822E+03;
 -9.9999998E-03;  9.9999998E-03;  7.9999998E-02;1780;  0.0000000E+00;  0.0000000E+00;  0.0000000E+00;  1.0134677E+03;  1.0000000E-01;  1.1157709E+04;0;  0.0000000E+00;  0.0000000E+00;  0.0000000E+00;0; -1.3938979E-02;  4.0000000E+04;  0.0000000E+00;  0.0000000E+00;  4.0000000E+04;  0.0000000E+00;  4.0000000E+04; -1.4301673E-02;  0.0000000E+00;  3.6269290E-04;  1.7286224E+03;
 -9.9999998E-03;  9.9999998E-03;  9.0000004E-02;1781;  0.0000000E+00;  0.0000000E+00;  0.0000000E+00;  1.0135643E+03;  1.0000000E-01;  1.1237806E+04;0;  0.0000000E+00;  0.0000000E+00;  0.0000000E+00;0; -1.3906639E-02;  4.0000000E+04;  0.0000000E+00;  0.0000000E+00;  4.0000000E+04;  0.0000000E+00;  4.0000000E+04; -1.4270519E-02;  0.0000000E+00;  3.6387949E-04;  1.6559437E+03;
 -9.9999998E-03;  9.9999998E-03;  1.0000000E-01;1782;  0.0000000E+00;  0.0000000E+00;  0.0000000E+00;  1.0136481E+03;  1.0000000E-01;  1.1307137E+04;0;  0.0000000E+00;  0.0000000E+00;  0.0000000E+00;0; -1.3879941E-02;  4.0000000E+04;  0.0000000E+00;  0.0000000E+00;  4.0000000E+04;  0.0000000E+00;  4.0000000E+04; -1.4248553E-02;  0.0000000E+00;  3.6861148E-04;  1.5871791E+03;
 -9.9999998E-03;  9.9999998E-03;  1.1000000E-01;1783;  0.0000000E+00;  0.0000000E+00;  0.0000000E+00;  1.0137012E+03;  1.0000000E-01;  1.1351186E+04;0;  0.0000000E+00;  0.0000000E+00;  0.0000000E+00;0; -1.3853936E-02;  4.0000000E+04;  0.0000000E+00;  0.0000000E+00;  4.0000000E+04;  0.0000000E+00;  4.0000000E+04; -1.4229397E-02;  0.0000000E+00;  3.7546112E-04;  1.5298594E+03;
 -9.9999998E-03;  9.9999998E-03;  1.2000000E-01;1784;  0.0000000E+00;  0.0000000E+00;  0.0000000E+00;  1.0137093E+03;  1.0000000E-01;  1.1357901E+04;0;  0.0000000E+00;  0.0000000E+00;  0.0000000E+00;0; -1.3819581E-02;  4.0000000E+04;  0.0000000E+00;  0.0000000E+00;  4.0000000E+04;  0.0000000E+00;  4.0000000E+04; -1.4202706E-02;  0.0000000E+00;  3.8312469E-04;  1.4937915E+03;
 -9.9999998E-03;  9.9999998E-03;  1.3000000E-01;1785;  0.0000000E+00;  0.0000000E+00;  0.0000000E+00;  1.0136483E+03;  1.0000000E-01;  1.1307335E+04;0;  0.0000000E+00;  0.0000000E+00;  0.0000000E+00;0; -1.3764213E-02;  4.0000000E+04;  0.0000000E+00;  0.0000000E+00;  4.0000000E+04;  0.0000000E+00;  4.0000000E+04; -1.4154814E-02;  0.0000000E+00;  3.9060132E-04;  1.4917150E+03;
 -9.9999998E-03;  9.9999998E-03;  1.4000000E-01;1786;  0.0000000E+00;  0.0000000E+00;  0.0000000E+00;  1.0135057E+03;  1.0000000E-01;  1.1189215E+04;0;  0.0000000E+00;  0.0000000E+00;  0.0000000E+00;0; -1.3672898E-02;  4.0000000E+04;  0.0000000E+00;  0.0000000E+00;  4.0000000E+04;  0.0000000E+00;  4.0000000E+04; -1.4069986E-02;  0.0000000E+00;  3.9708774E-04;  1.5383553E+03;
 -9.9999998E-03;  9.9999998E-03;  1.5000001E-01;1787;  0.0000000E+00;  0.0000000E+00;  0.0000000E+00;  1.0132831E+03;  1.0000000E-01;  1.1004824E+04;0;  0.0000000E+00;  0.0000000E+00;  0.0000000E+00;0; -1.3530784E-02;  4.0000000E+04;  0.0000000E+00;  0.0000000E+00;  4.0000000E+04;  0.0000000E+00;  4.0000000E+04; -1.3932253E-02;  0.0000000E+00;  4.0146886E-04;  1.6476847E+03;
 -9.9999998E-03;  9.9999998E-03;  1.6000000E-01;1788;  0.0000000E+00;  0.0000000E+00;  0.0000000E+00;  1.0129627E+03;  1.0000000E-01;  1.0739351E+04;0;  0.0000000E+00;  0.0000000E+00;  0.0000000E+00;0; -1.3325449E-02;  4.0000000E+04;  0.0000000E+00;  0.0000000E+00;  4.0000000E+04;  0.0000000E+00;  4.0000000E+04; -1.3727210E-02;  0.0000000E+00;  4.0176004E-04;  1.8281698E+03;
 -9.9999998E-03;  9.9999998E-03;  1.7000000E-01;1789;  0.0000000E+00;  0.0000000E+00;  0.0000000E+00;  1.0125475E+03;  1.0000000E-01;  1.0395360E+04;0;  0.0000000E+00;  0.0000000E+00;  0.0000000E+00;0; -1.3048491E-02;  4.0000000E+04;  0.0000000E+00;  0.0000000E+00;  4.0000000E+04;  0.0000000E+00;  4.0000000E+04; -1.3443444E-02;  0.0000000E+00;  3.9495356E-04;  2.0793677E+03;
 -9.9999998E-03;  9.9999998E-03;  1.8000001E-01;1790;  0.0000000E+00;  0.0000000E+00;  0.0000000E+00;  1.0120576E+03;  1.0000000E-01;  9.9895449E+03;0;  0.0000000E+00;  0.0000000E+00;  0.0000000E+00;0; -1.2696519E-02;  4.0000000E+04;  0.0000000E+00;  0.0000000E+00;  4.0000000E+04;  0.0000000E+00;  4.0000000E+04; -1.3073677E-02;  0.0000000E+00;  3.7715776E-04;  2.3901836E+03;
 -9.9999998E-03;  9.9999998E-03;  1.9000000E-01;1791;  0.0000000E+00;  0.0000000E+00;  0.0000000E+00;  1.0114979E+03;  1.0000000E-01;  9.5258545E+03;0;  0.0000000E+00;  0.0000000E+00;  0.0000000E+00;0; -1.2271701E-02;  4.0000000E+04;  0.0000000E+00;  0.0000000E+00;  4.0000000E+04;  0.0000000E+00;  4.0000000E+04; -1.2615607E-02;  0.0000000E+00;  3.4390617E-04;  2.7370920E+03;
 -9.9999998E-03;  9.9999998E-03;  2.0000000E-01;1792;  0.0000000E+00;  0.0000000E+00;  0.0000000E+00;  1.0108912E+03;  1.0000000E-01;  9.0231523E+03;0;  0.0000000E+00;  0.0000000E+00;  0.0000000E+00;0; -1.1781593E-02;  4.0000000E+04;  0.0000000E+00;  0.0000000E+00;  4.0000000E+04;  0.0000000E+00;  4.0000000E+04; -1.2072346E-02;  0.0000000E+00;  2.9075373E-04;  3.0828867E+03;
 -9.9999998E-03;  9.9999998E-03;  2.0999999E-01;1793;  0.0000000E+00;  0.0000000E+00;  0.0000000E+00;  1.0102539E+03;  1.0000000E-01;  8.4951670E+03;0;  0.0000000E+00;  0.0000000E+00;  0.0000000E+00;0; -1.1237837E-02;  4.0000000E+04;  0.0000000E+00;  0.0000000E+00;  4.0000000E+04;  0.0000000E+00;  4.0000000E+04; -1.1452011E-02;  0.0000000E+00;  2.1417387E-04;  3.3768281E+03;
 -9.9999998E-03;  9.9999998E-03;  2.2000000E-01;1794;  0.0000000E+00;  0.0000000E+00;  0.0000000E+00;  1.0095970E+03;  1.0000000E-01;  7.9509849E+03;0;  0.0000000E+00;  0.0000000E+00;  0.0000000E+00;0; -1.0654202E-02;  4.0000000E+04;  0.0000000E+00;  0.0000000E+00;  4.0000000E+04;  0.0000000E+00;  4.0000000E+04; -1.0766827E-02;  0.0000000E+00;  1.1262490E-04;  3.5578535E+03;
 -9.9999998E-03;  9.9999998E-03;  2.3000000E-01;1795;  0.0000000E+00;  0.0000000E+00;  0.0000000E+00;  1.0089446E+03;  1.0000000E-01;  7.4104570E+03;0;  0.0000000E+00;  0.0000000E+00;  0.0000000E+00;0; -1.0043739E-02;  4.0000000E+04;  0.0000000E+00;  0.0000000E+00;  4.0000000E+04;  0.0000000E+00;  4.0000000E+04; -1.0031231E-02;  0.0000000E+00; -1.2508551E-05;  3.5623726E+03;
 -1.9000000E-01;  9.9999998E-03;  2.3999999E-01;158;  0.0000000E+00;  0.0000000E+00;  0.0000000E+00;  1.0000000E+03;  1.0000000E-01;  0.0000000E+00;0;  0.0000000E+00;  0.0000000E+00;  0.0000000E+00;0;  0.0000000E+00;  4.0000000E+04;  0.0000000E+00;  0.0000000E+00;  4.0000000E+04;  0.0000000E+00;  4.0000000E+04;  0.0000000E+00;  0.0000000E+00;  0.0000000E+00;  0.0000000E+00;
 -1.9000000E-01;  9.9999998E-03;  2.5000000E-01;159;  0.0000000E+00;  0.0000000E+00;  0.0000000E+00;  1.0000000E+03;  1.0000000E-01;  0.0000000E+00;0;  0.0000000E+00;  0.0000000E+00;  0.0000000E+00;0;  0.0000000E+00;  4.0000000E+04;  0.0000000E+00;  0.0000000E+00;  4.0000000E+04;  0.0000000E+00;  4.0000000E+04;  0.0000000E+00;  0.0000000E+00;  0.0000000E+00;  0.0000000E+00;
 -1.9000000E-01;  9.9999998E-03;  2.5999999E-01;160;  0.0000000E+00;  0.0000000E+00;  0.0000000E+00;  1.0000000E+03;  1.0000000E-01;  0.0000000E+00;0;  0.0000000E+00;  0.0000000E+00;  0.0000000E+00;0;  0.0000000E+00;  4.0000000E+04;  0.0000000E+00;  0.0000000E+00;  4.0000000E+04;  0.0000000E+00;  4.0000000E+04;  0.0000000E+00;  0.0000000E+00;  0.0000000E+00;  0.0000000E+00;
 -1.9000000E-01;  9.9999998E-03;  2.7000001E-01;161;  0.0000000E+00;  0.0000000E+00;  0.0000000E+00;  1.0000000E+03;  1.0000000E-01;  0.0000000E+00;0;  0.0000000E+00;  0.0000000E+00;  0.0000000E+00;0;  0.0000000E+00;  4.0000000E+04;  0.0000000E+00;  0.0000000E+00;  4.0000000E+04;  0.0000000E+00;  4.0000000E+04;  0.0000000E+00;  0.0000000E+00;  0.0000000E+00;  0.0000000E+00;
 -1.9000000E-01;  9.9999998E-03;  2.8000000E-01;162;  0.0000000E+00;  0.0000000E+00;  0.0000000E+00;  1.0000000E+03;  1.0000000E-01;  0.0000000E+00;0;  0.0000000E+00;  0.0000000E+00;  0.0000000E+00;0;  0.0000000E+00;  4.0000000E+04;  0.0000000E+00;  0.0000000E+00;  4.0000000E+04;  0.0000000E+00;  4.0000000E+04;  0.0000000E+00;  0.0000000E+00;  0.0000000E+00;  0.0000000E+00;
 -1.9000000E-01;  9.9999998E-03;  2.8999999E-01;163;  0.0000000E+00;  0.0000000E+00;  0.0000000E+00;  1.0000000E+03;  1.0000000E-01;  0.0000000E+00;0;  0.0000000E+00;  0.0000000E+00;  0.0000000E+00;0;  0.0000000E+00;  4.0000000E+04;  0.0000000E+00;  0.0000000E+00;  4.0000000E+04;  0.0000000E+00;  4.0000000E+04;  0.0000000E+00;  0.0000000E+00;  0.0000000E+00;  0.0000000E+00;
 -1.9000000E-01;  9.9999998E-03;  3.0000001E-01;164;  0.0000000E+00;  0.0000000E+00;  0.0000000E+00;  1.0000000E+03;  1.0000000E-01;  0.0000000E+00;0;  0.0000000E+00;  0.0000000E+00;  0.0000000E+00;0;  0.0000000E+00;  4.0000000E+04;  0.0000000E+00;  0.0000000E+00;  4.0000000E+04;  0.0000000E+00;  4.0000000E+04;  0.0000000E+00;  0.0000000E+00;  0.0000000E+00;  0.0000000E+00;
 -1.9000000E-01;  9.9999998E-03;  3.1000000E-01;165;  0.0000000E+00;  0.0000000E+00;  0.0000000E+00;  1.0000000E+03;  1.0000000E-01;  0.0000000E+00;0;  0.0000000E+00;  0.0000000E+00;  0.0000000E+00;0;  0.0000000E+00;  4.0000000E+04;  0.0000000E+00;  0.0000000E+00;  4.0000000E+04;  0.0000000E+00;  4.0000000E+04;  0.0000000E+00;  0.0000000E+00;  0.0000000E+00;  0.0000000E+00;
 -1.9000000E-01;  9.9999998E-03;  3.1999999E-01;166;  0.0000000E+00;  0.0000000E+00;  0.0000000E+00;  1.0000000E+03;  1.0000000E-01;  0.0000000E+00;0;  0.0000000E+00;  0.0000000E+00;  0.0000000E+00;0;  0.0000000E+00;  4.0000000E+04;  0.0000000E+00;  0.0000000E+00;  4.0000000E+04;  0.0000000E+00;  4.0000000E+04;  0.0000000E+00;  0.0000000E+00;  0.0000000E+00;  0.0000000E+00;
 -1.9000000E-01;  9.9999998E-03;  3.3000001E-01;167;  0.0000000E+00;  0.0000000E+00;  0.0000000E+00;  1.0000000E+03;  1.0000000E-01;  0.0000000E+00;0;  0.0000000E+00;  0.0000000E+00;  0.0000000E+00;0;  0.0000000E+00;  4.0000000E+04;  0.0000000E+00;  0.0000000E+00;  4.0000000E+04;  0.0000000E+00;  4.0000000E+04;  0.0000000E+00;  0.0000000E+00;  0.0000000E+00;  0.0000000E+00;
 -1.9000000E-01;  9.9999998E-03;  3.4000000E-01;168;  0.0000000E+00;  0.0000000E+00;  0.0000000E+00;  1.0000000E+03;  1.0000000E-01;  0.0000000E+00;0;  0.0000000E+00;  0.0000000E+00;  0.0000000E+00;0;  0.0000000E+00;  4.0000000E+04;  0.0000000E+00;  0.0000000E+00;  4.0000000E+04;  0.0000000E+00;  4.0000000E+04;  0.0000000E+00;  0.0000000E+00;  0.0000000E+00;  0.0000000E+00;
 -1.9000000E-01;  9.9999998E-03;  3.4999999E-01;169;  0.0000000E+00;  0.0000000E+00;  0.0000000E+00;  1.0000000E+03;  1.0000000E-01;  0.0000000E+00;0;  0.0000000E+00;  0.0000000E+00;  0.0000000E+00;0;  0.0000000E+00;  4.0000000E+04;  0.0000000E+00;  0.0000000E+00;  4.0000000E+04;  0.0000000E+00;  4.0000000E+04;  0.0000000E+00;  0.0000000E+00;  0.0000000E+00;  0.0000000E+00;
 -1.9000000E-01;  9.9999998E-03;  3.6000001E-01;170;  0.0000000E+00;  0.0000000E+00;  0.0000000E+00;  1.0000000E+03;  1.0000000E-01;  0.0000000E+00;0;  0.0000000E+00;  0.0000000E+00;  0.0000000E+00;0;  0.0000000E+00;  4.0000000E+04;  0.0000000E+00;  0.0000000E+00;  4.0000000E+04;  0.0000000E+00;  4.0000000E+04;  0.0000000E+00;  0.0000000E+00;  0.0000000E+00;  0.0000000E+00;
 -1.9000000E-01;  9.9999998E-03;  3.7000000E-01;171;  0.0000000E+00;  0.0000000E+00;  0.0000000E+00;  1.0000000E+03;  1.0000000E-01;  0.0000000E+00;0;  0.0000000E+00;  0.0000000E+00;  0.0000000E+00;0;  0.0000000E+00;  4.0000000E+04;  0.0000000E+00;  0.0000000E+00;  4.0000000E+04;  0.0000000E+00;  4.0000000E+04;  0.0000000E+00;  0.0000000E+00;  0.0000000E+00;  0.0000000E+00;
 -1.9000000E-01;  9.9999998E-03;  3.8000000E-01;172;  0.0000000E+00;  0.0000000E+00;  0.0000000E+00;  1.0000000E+03;  1.0000000E-01;  0.0000000E+00;0;  0.0000000E+00;  0.0000000E+00;  0.0000000E+00;0;  0.0000000E+00;  4.0000000E+04;  0.0000000E+00;  0.0000000E+00;  4.0000000E+04;  0.0000000E+00;  4.0000000E+04;  0.0000000E+00;  0.0000000E+00;  0.0000000E+00;  0.0000000E+00;
 -1.9000000E-01;  9.9999998E-03;  3.8999999E-01;173;  0.0000000E+00;  0.0000000E+00;  0.0000000E+00;  1.0000000E+03;  1.0000000E-01;  0.0000000E+00;0;  0.0000000E+00;  0.0000000E+00;  0.0000000E+00;0;  0.0000000E+00;  4.0000000E+04;  0.0000000E+00;  0.0000000E+00;  4.0000000E+04;  0.0000000E+00;  4.0000000E+04;  0.0000000E+00;  0.0000000E+00;  0.0000000E+00;  0.0000000E+00;
 -1.9000000E-01;  9.9999998E-03;  4.0000001E-01;174;  0.0000000E+00;  0.0000000E+00;  0.0000000E+00;  1.0000000E+03;  1.0000000E-01;  0.0000000E+00;0;  0.0000000E+00;  0.0000000E+00;  0.0000000E+00;0;  0.0000000E+00;  4.0000000E+04;  0.0000000E+00;  0.0000000E+00;  4.0000000E+04;  0.0000000E+00;  4.0000000E+04;  0.0000000E+00;  0.0000000E+00;  0.0000000E+00;  0.0000000E+00;
 -1.8000001E-01;  9.9999998E-03;  2.3999999E-01;249;  0.0000000E+00;  0.0000000E+00;  0.0000000E+00;  1.0000000E+03;  1.0000000E-01;  0.0000000E+00;0;  0.0000000E+00;  0.0000000E+00;  0.0000000E+00;0;  0.0000000E+00;  4.0000000E+04;  0.0000000E+00;  0.0000000E+00;  4.0000000E+04;  0.0000000E+00;  4.0000000E+04;  0.0000000E+00;  0.0000000E+00;  0.0000000E+00;  0.0000000E+00;
 -1.8000001E-01;  9.9999998E-03;  2.5000000E-01;250;  0.0000000E+00;  0.0000000E+00;  0.0000000E+00;  1.0000000E+03;  1.0000000E-01;  0.0000000E+00;0;  0.0000000E+00;  0.0000000E+00;  0.0000000E+00;0;  0.0000000E+00;  4.0000000E+04;  0.0000000E+00;  0.0000000E+00;  4.0000000E+04;  0.0000000E+00;  4.0000000E+04;  0.0000000E+00;  0.0000000E+00;  0.0000000E+00;  0.0000000E+00;
 -1.8000001E-01;  9.9999998E-03;  2.5999999E-01;251;  0.0000000E+00;  0.0000000E+00;  0.0000000E+00;  1.0000000E+03;  1.0000000E-01;  0.0000000E+00;0;  0.0000000E+00;  0.0000000E+00;  0.0000000E+00;0;  0.0000000E+00;  4.0000000E+04;  0.0000000E+00;  0.0000000E+00;  4.0000000E+04;  0.0000000E+00;  4.0000000E+04;  0.0000000E+00;  0.0000000E+00;  0.0000000E+00;  0.0000000E+00;
 -1.8000001E-01;  9.9999998E-03;  2.7000001E-01;252;  0.0000000E+00;  0.0000000E+00;  0.0000000E+00;  1.0000000E+03;  1.0000000E-01;  0.0000000E+00;0;  0.0000000E+00;  0.0000000E+00;  0.0000000E+00;0;  0.0000000E+00;  4.0000000E+04;  0.0000000E+00;  0.0000000E+00;  4.0000000E+04;  0.0000000E+00;  4.0000000E+04;  0.0000000E+00;  0.0000000E+00;  0.0000000E+00;  0.0000000E+00;
 -1.8000001E-01;  9.9999998E-03;  2.8000000E-01;253;  0.0000000E+00;  0.0000000E+00;  0.0000000E+00;  1.0000000E+03;  1.0000000E-01;  0.0000000E+00;0;  0.0000000E+00;  0.0000000E+00;  0.0000000E+00;0;  0.0000000E+00;  4.0000000E+04;  0.0000000E+00;  0.0000000E+00;  4.0000000E+04;  0.0000000E+00;  4.0000000E+04;  0.0000000E+00;  0.0000000E+00;  0.0000000E+00;  0.0000000E+00;
 -1.8000001E-01;  9.9999998E-03;  2.8999999E-01;254;  0.0000000E+00;  0.0000000E+00;  0.0000000E+00;  1.0000000E+03;  1.0000000E-01;  0.0000000E+00;0;  0.0000000E+00;  0.0000000E+00;  0.0000000E+00;0;  0.0000000E+00;  4.0000000E+04;  0.0000000E+00;  0.0000000E+00;  4.0000000E+04;  0.0000000E+00;  4.0000000E+04;  0.0000000E+00;  0.0000000E+00;  0.0000000E+00;  0.0000000E+00;
 -1.8000001E-01;  9.9999998E-03;  3.0000001E-01;255;  0.0000000E+00;  0.0000000E+00;  0.0000000E+00;  1.0000000E+03;  1.0000000E-01;  0.0000000E+00;0;  0.0000000E+00;  0.0000000E+00;  0.0000000E+00;0;  0.0000000E+00;  4.0000000E+04;  0.0000000E+00;  0.0000000E+00;  4.0000000E+04;  0.0000000E+00;  4.0000000E+04;  0.0000000E+00;  0.0000000E+00;  0.0000000E+00;  0.0000000E+00;
 -1.8000001E-01;  9.9999998E-03;  3.1000000E-01;256;  0.0000000E+00;  0.0000000E+00;  0.0000000E+00;  1.0000000E+03;  1.0000000E-01;  0.0000000E+00;0;  0.0000000E+00;  0.0000000E+00;  0.0000000E+00;0;  0.0000000E+00;  4.0000000E+04;  0.0000000E+00;  0.0000000E+00;  4.0000000E+04;  0.0000000E+00;  4.0000000E+04;  0.0000000E+00;  0.0000000E+00;  0.0000000E+00;  0.0000000E+00;
 -1.8000001E-01;  9.9999998E-03;  3.1999999E-01;257;  0.0000000E+00;  0.0000000E+00;  0.0000000E+00;  1.0000000E+03;  1.0000000E-01;  0.0000000E+00;0;  0.0000000E+00;  0.0000000E+00;  0.0000000E+00;0;  0.0000000E+00;  4.0000000E+04;  0.0000000E+00;  0.0000000E+00;  4.0000000E+04;  0.0000000E+00;  4.0000000E+04;  0.0000000E+00;  0.0000000E+00;  0.0000000E+00;  0.0000000E+00;
 -1.8000001E-01;  9.9999998E-03;  3.3000001E-01;258;  0.0000000E+00;  0.0000000E+00;  0.0000000E+00;  1.0000000E+03;  1.0000000E-01;  0.0000000E+00;0;  0.0000000E+00;  0.0000000E+00;  0.0000000E+00;0;  0.0000000E+00;  4.0000000E+04;  0.0000000E+00;  0.0000000E+00;  4.0000000E+04;  0.0000000E+00;  4.0000000E+04;  0.0000000E+00;  0.0000000E+00;  0.0000000E+00;  0.0000000E+00;
 -1.8000001E-01;  9.9999998E-03;  3.4000000E-01;259;  0.0000000E+00;  0.0000000E+00;  0.0000000E+00;  1.0000000E+03;  1.0000000E-01;  0.0000000E+00;0;  0.0000000E+00;  0.0000000E+00;  0.0000000E+00;0;  0.0000000E+00;  4.0000000E+04;  0.0000000E+00;  0.0000000E+00;  4.0000000E+04;  0.0000000E+00;  4.0000000E+04;  0.0000000E+00;  0.0000000E+00;  0.0000000E+00;  0.0000000E+00;
 -1.8000001E-01;  9.9999998E-03;  3.4999999E-01;260;  0.0000000E+00;  0.0000000E+00;  0.0000000E+00;  1.0000000E+03;  1.0000000E-01;  0.0000000E+00;0;  0.0000000E+00;  0.0000000E+00;  0.0000000E+00;0;  0.0000000E+00;  4.0000000E+04;  0.0000000E+00;  0.0000000E+00;  4.0000000E+04;  0.0000000E+00;  4.0000000E+04;  0.0000000E+00;  0.0000000E+00;  0.0000000E+00;  0.0000000E+00;
 -1.8000001E-01;  9.9999998E-03;  3.6000001E-01;261;  0.0000000E+00;  0.0000000E+00;  0.0000000E+00;  1.0000000E+03;  1.0000000E-01;  0.0000000E+00;0;  0.0000000E+00;  0.0000000E+00;  0.0000000E+00;0;  0.0000000E+00;  4.0000000E+04;  0.0000000E+00;  0.0000000E+00;  4.0000000E+04;  0.0000000E+00;  4.0000000E+04;  0.0000000E+00;  0.0000000E+00;  0.0000000E+00;  0.0000000E+00;
 -1.8000001E-01;  9.9999998E-03;  3.7000000E-01;262;  0.0000000E+00;  0.0000000E+00;  0.0000000E+00;  1.0000000E+03;  1.0000000E-01;  0.0000000E+00;0;  0.0000000E+00;  0.0000000E+00;  0.0000000E+00;0;  0.0000000E+00;  4.0000000E+04;  0.0000000E+00;  0.0000000E+00;  4.0000000E+04;  0.0000000E+00;  4.0000000E+04;  0.0000000E+00;  0.0000000E+00;  0.0000000E+00;  0.0000000E+00;
 -1.8000001E-01;  9.9999998E-03;  3.8000000E-01;263;  0.0000000E+00;  0.0000000E+00;  0.0000000E+00;  1.0000000E+03;  1.0000000E-01;  0.0000000E+00;0;  0.0000000E+00;  0.0000000E+00;  0.0000000E+00;0;  0.0000000E+00;  4.0000000E+04;  0.0000000E+00;  0.0000000E+00;  4.0000000E+04;  0.0000000E+00;  4.0000000E+04;  0.0000000E+00;  0.0000000E+00;  0.0000000E+00;  0.0000000E+00;
 -1.8000001E-01;  9.9999998E-03;  3.8999999E-01;264;  0.0000000E+00;  0.0000000E+00;  0.0000000E+00;  1.0000000E+03;  1.0000000E-01;  0.0000000E+00;0;  0.0000000E+00;  0.0000000E+00;  0.0000000E+00;0;  0.0000000E+00;  4.0000000E+04;  0.0000000E+00;  0.0000000E+00;  4.0000000E+04;  0.0000000E+00;  4.0000000E+04;  0.0000000E+00;  0.0000000E+00;  0.0000000E+00;  0.0000000E+00;
 -1.8000001E-01;  9.9999998E-03;  4.0000001E-01;265;  0.0000000E+00;  0.0000000E+00;  0.0000000E+00;  1.0000000E+03;  1.0000000E-01;  0.0000000E+00;0;  0.0000000E+00;  0.0000000E+00;  0.0000000E+00;0;  0.0000000E+00;  4.0000000E+04;  0.0000000E+00;  0.0000000E+00;  4.0000000E+04;  0.0000000E+00;  4.0000000E+04;  0.0000000E+00;  0.0000000E+00;  0.0000000E+00;  0.0000000E+00;
 -1.7000000E-01;  9.9999998E-03;  2.3999999E-01;340;  0.0000000E+00;  0.0000000E+00;  0.0000000E+00;  1.0000000E+03;  1.0000000E-01;  0.0000000E+00;0;  0.0000000E+00;  0.0000000E+00;  0.0000000E+00;0;  0.0000000E+00;  4.0000000E+04;  0.0000000E+00;  0.0000000E+00;  4.0000000E+04;  0.0000000E+00;  4.0000000E+04;  0.0000000E+00;  0.0000000E+00;  0.0000000E+00;  7.1569556E-10;
 -1.7000000E-01;  9.9999998E-03;  2.5000000E-01;341;  0.0000000E+00;  0.0000000E+00;  0.0000000E+00;  1.0000000E+03;  1.0000000E-01;  0.0000000E+00;0;  0.0000000E+00;  0.0000000E+00;  0.0000000E+00;0;  0.0000000E+00;  4.0000000E+04;  0.0000000E+00;  0.0000000E+00;  4.0000000E+04;  0.0000000E+00;  4.0000000E+04;  0.0000000E+00;  0.0000000E+00;  0.0000000E+00;  4.6691867E-10;
 -1.7000000E-01;  9.9999998E-03;  2.5999999E-01;342;  0.0000000E+00;  0.0000000E+00;  0.0000000E+00;  1.0000000E+03;  1.0000000E-01;  0.0000000E+00;0;  0.0000000E+00;  0.0000000E+00;  0.0000000E+00;0;  0.0000000E+00;  4.0000000E+04;  0.0000000E+00;  0.0000000E+00;  4.0000000E+04;  0.0000000E+00;  4.0000000E+04;  0.0000000E+00;  0.0000000E+00;  0.0000000E+00;  2.4656574E-10;
 -1.7000000E-01;  9.9999998E-03;  2.7000001E-01;343;  0.0000000E+00;  0.0000000E+00;  0.0000000E+00;  1.0000000E+03;  1.0000000E-01;  0.0000000E+00;0;  0.0000000E+00;  0.0000000E+00;  0.0000000E+00;0;  0.0000000E+00;  4.0000000E+04;  0.0000000E+00;  0.0000000E+00;  4.0000000E+04;  0.0000000E+00;  4.0000000E+04;  0.0000000E+00;  0.0000000E+00;  0.0000000E+00;  9.0626097E-11;
 -1.7000000E-01;  9.9999998E-03;  2.8000000E-01;344;  0.0000000E+00;  0.0000000E+00;  0.0000000E+00;  1.0000000E+03;  1.0000000E-01;  0.0000000E+00;0;  0.0000000E+00;  0.0000000E+00;  0.0000000E+00;0;  0.0000000E+00;  4.0000000E+04;  0.0000000E+00;  0.0000000E+00;  4.0000000E+04;  0.0000000E+00;  4.0000000E+04;  0.0000000E+00;  0.0000000E+00;  0.0000000E+00;  1.4966250E-11;
 -1.7000000E-01;  9.9999998E-03;  2.8999999E-01;345;  0.0000000E+00;  0.0000000E+00;  0.0000000E+00;  1.0000000E+03;  1.0000000E-01;  0.0000000E+00;0;  0.0000000E+00;  0.0000000E+00;  0.0000000E+00;0;  0.0000000E+00;  4.0000000E+04;  0.0000000E+00;  0.0000000E+00;  4.0000000E+04;  0.0000000E+00;  4.0000000E+04;  0.0000000E+00;  0.0000000E+00;  0.0000000E+00;  6.8908875E-14;
 -1.7000000E-01;  9.9999998E-03;  3.0000001E-01;346;  0.0000000E+00;  0.0000000E+00;  0.0000000E+00;  1.0000000E+03;  1.0000000E-01;  0.0000000E+00;0;  0.0000000E+00;  0.0000000E+00;  0.0000000E+00;0;  0.0000000E+00;  4.0000000E+04;  0.0000000E+00;  0.0000000E+00;  4.0000000E+04;  0.0000000E+00;  4.0000000E+04;  0.0000000E+00;  0.0000000E+00;  0.0000000E+00;  0.0000000E+00;
 -1.7000000E-01;  9.9999998E-03;  3.1000000E-01;347;  0.0000000E+00;  0.0000000E+00;  0.0000000E+00;  1.0000000E+03;  1.0000000E-01;  0.0000000E+00;0;  0.0000000E+00;  0.0000000E+00;  0.0000000E+00;0;  0.0000000E+00;  4.0000000E+04;  0.0000000E+00;  0.0000000E+00;  4.0000000E+04;  0.0000000E+00;  4.0000000E+04;  0.0000000E+00;  0.0000000E+00;  0.0000000E+00;  0.0000000E+00;
 -1.7000000E-01;  9.9999998E-03;  3.1999999E-01;348;  0.0000000E+00;  0.0000000E+00;  0.0000000E+00;  1.0000000E+03;  1.0000000E-01;  0.0000000E+00;0;  0.0000000E+00;  0.0000000E+00;  0.0000000E+00;0;  0.0000000E+00;  4.0000000E+04;  0.0000000E+00;  0.0000000E+00;  4.0000000E+04;  0.0000000E+00;  4.0000000E+04;  0.0000000E+00;  0.0000000E+00;  0.0000000E+00;  0.0000000E+00;
 -1.7000000E-01;  9.9999998E-03;  3.3000001E-01;349;  0.0000000E+00;  0.0000000E+00;  0.0000000E+00;  1.0000000E+03;  1.0000000E-01;  0.0000000E+00;0;  0.0000000E+00;  0.0000000E+00;  0.0000000E+00;0;  0.0000000E+00;  4.0000000E+04;  0.0000000E+00;  0.0000000E+00;  4.0000000E+04;  0.0000000E+00;  4.0000000E+04;  0.0000000E+00;  0.0000000E+00;  0.0000000E+00;  0.0000000E+00;
 -1.7000000E-01;  9.9999998E-03;  3.4000000E-01;350;  0.0000000E+00;  0.0000000E+00;  0.0000000E+00;  1.0000000E+03;  1.0000000E-01;  0.0000000E+00;0;  0.0000000E+00;  0.0000000E+00;  0.0000000E+00;0;  0.0000000E+00;  4.0000000E+04;  0.0000000E+00;  0.0000000E+00;  4.0000000E+04;  0.0000000E+00;  4.0000000E+04;  0.0000000E+00;  0.0000000E+00;  0.0000000E+00;  0.0000000E+00;
 -1.7000000E-01;  9.9999998E-03;  3.4999999E-01;351;  0.0000000E+00;  0.0000000E+00;  0.0000000E+00;  1.0000000E+03;  1.0000000E-01;  0.0000000E+00;0;  0.0000000E+00;  0.0000000E+00;  0.0000000E+00;0;  0.0000000E+00;  4.0000000E+04;  0.0000000E+00;  0.0000000E+00;  4.0000000E+04;  0.0000000E+00;  4.0000000E+04;  0.0000000E+00;  0.0000000E+00;  0.0000000E+00;  0.0000000E+00;
 -1.7000000E-01;  9.9999998E-03;  3.6000001E-01;352;  0.0000000E+00;  0.0000000E+00;  0.0000000E+00;  1.0000000E+03;  1.0000000E-01;  0.0000000E+00;0;  0.0000000E+00;  0.0000000E+00;  0.0000000E+00;0;  0.0000000E+00;  4.0000000E+04;  0.0000000E+00;  0.0000000E+00;  4.0000000E+04;  0.0000000E+00;  4.0000000E+04;  0.0000000E+00;  0.0000000E+00;  0.0000000E+00;  0.0000000E+00;
 -1.7000000E-01;  9.9999998E-03;  3.7000000E-01;353;  0.0000000E+00;  0.0000000E+00;  0.0000000E+00;  1.0000000E+03;  1.0000000E-01;  0.0000000E+00;0;  0.0000000E+00;  0.0000000E+00;  0.0000000E+00;0;  0.0000000E+00;  4.0000000E+04;  0.0000000E+00;  0.0000000E+00;  4.0000000E+04;  0.0000000E+00;  4.0000000E+04;  0.0000000E+00;  0.0000000E+00;  0.0000000E+00;  0.0000000E+00;
 -1.7000000E-01;  9.9999998E-03;  3.8000000E-01;354;  0.0000000E+00;  0.0000000E+00;  0.0000000E+00;  1.0000000E+03;  1.0000000E-01;  0.0000000E+00;0;  0.0000000E+00;  0.0000000E+00;  0.0000000E+00;0;  0.0000000E+00;  4.0000000E+04;  0.0000000E+00;  0.0000000E+00;  4.0000000E+04;  0.0000000E+00;  4.0000000E+04;  0.0000000E+00;  0.0000000E+00;  0.0000000E+00;  0.0000000E+00;
 -1.7000000E-01;  9.9999998E-03;  3.8999999E-01;355;  0.0000000E+00;  0.0000000E+00;  0.0000000E+00;  1.0000000E+03;  1.0000000E-01;  0.0000000E+00;0;  0.0000000E+00;  0.0000000E+00;  0.0000000E+00;0;  0.0000000E+00;  4.0000000E+04;  0.0000000E+00;  0.0000000E+00;  4.0000000E+04;  0.0000000E+00;  4.0000000E+04;  0.0000000E+00;  0.0000000E+00;  0.0000000E+00;  0.0000000E+00;
 -1.7000000E-01;  9.9999998E-03;  4.0000001E-01;356;  0.0000000E+00;  0.0000000E+00;  0.0000000E+00;  1.0000000E+03;  1.0000000E-01;  0.0000000E+00;0;  0.0000000E+00;  0.0000000E+00;  0.0000000E+00;0;  0.0000000E+00;  4.0000000E+04;  0.0000000E+00;  0.0000000E+00;  4.0000000E+04;  0.0000000E+00;  4.0000000E+04;  0.0000000E+00;  0.0000000E+00;  0.0000000E+00;  0.0000000E+00;
 -1.6000000E-01;  9.9999998E-03;  2.3999999E-01;431;  0.0000000E+00;  0.0000000E+00;  0.0000000E+00;  1.0000000E+03;  1.0000000E-01;  0.0000000E+00;0;  0.0000000E+00;  0.0000000E+00;  0.0000000E+00;0;  3.9056343E-07;  4.0000000E+04;  0.0000000E+00;  0.0000000E+00;  4.0000000E+04;  0.0000000E+00;  4.0000000E+04;  3.8184604E-07;  0.0000000E+00;  8.7173797E-09;  2.0632504E-01;
 -1.6000000E-01;  9.9999998E-03;  2.5000000E-01;432;  0.0000000E+00;  0.0000000E+00;  0.0000000E+00;  1.0000000E+03;  1.0000000E-01;  0.0000000E+00;0;  0.0000000E+00;  0.0000000E+00;  0.0000000E+00;0;  3.8042879E-07;  4.0000000E+04;  0.0000000E+00;  0.0000000E+00;  4.0000000E+04;  0.0000000E+00;  4.0000000E+04;  3.7061608E-07;  0.0000000E+00;  9.8127044E-09;  1.7354171E-01;
 -1.6000000E-01;  9.9999998E-03;  2.5999999E-01;433;  0.0000000E+00;  0.0000000E+00;  0.0000000E+00;  1.0000000E+03;  1.0000000E-01;  0.0000000E+00;0;  0.0000000E+00;  0.0000000E+00;  0.0000000E+00;0;  3.2320821E-07;  4.0000000E+04;  0.0000000E+00;  0.0000000E+00;  4.0000000E+04;  0.0000000E+00;  4.0000000E+04;  3.1528211E-07;  0.0000000E+00;  7.9261104E-09;  1.2133481E-01;
 -1.6000000E-01;  9.9999998E-03;  2.7000001E-01;434;  0.0000000E+00;  0.0000000E+00;  0.0000000E+00;  1.0000000E+03;  1.0000000E-01;  0.0000000E+00;0;  0.0000000E+00;  0.0000000E+00;  0.0000000E+00;0;  2.3053350E-07;  4.0000000E+04;  0.0000000E+00;  0.0000000E+00;  4.0000000E+04;  0.0000000E+00;  4.0000000E+04;  2.2882972E-07;  0.0000000E+00;  1.7037882E-09;  5.5862520E-02;
 -1.6000000E-01;  9.9999998E-03;  2.8000000E-01;435;  0.0000000E+00;  0.0000000E+00;  0.0000000E+00;  1.0000000E+03;  1.0000000E-01;  0.0000000E+00;0;  0.0000000E+00;  0.0000000E+00;  0.0000000E+00;0;  1.2813261E-07;  4.0000000E+04;  0.0000000E+00;  0.0000000E+00;  4.0000000E+04;  0.0000000E+00;  4.0000000E+04;  1.3496185E-07;  0.0000000E+00; -6.8292376E-09;  5.7375985E-03;
 -1.6000000E-01;  9.9999998E-03;  2.8999999E-01;436;  0.0000000E+00;  0.0000000E+00;  0.0000000E+00;  1.0000000E+03;  1.0000000E-01;  0.0000000E+00;0;  0.0000000E+00;  0.0000000E+00;  0.0000000E+00;0;  4.3163077E-08;  4.0000000E+04;  0.0000000E+00;  0.0000000E+00;  4.0000000E+04;  0.0000000E+00;  4.0000000E+04;  5.6930180E-08;  0.0000000E+00; -1.3767101E-08;  4.5424882E-02;
 -1.6000000E-01;  9.9999998E-03;  3.0000001E-01;437;  0.0000000E+00;  0.0000000E+00;  0.0000000E+00;  1.0000000E+03;  1.0000000E-01;  0.0000000E+00;0;  0.0000000E+00;  0.0000000E+00;  0.0000000E+00;0; -7.6669959E-09;  4.0000000E+04;  0.0000000E+00;  0.0000000E+00;  4.0000000E+04;  0.0000000E+00;  4.0000000E+04;  8.3351530E-09;  0.0000000E+00; -1.6002149E-08;  5.6221757E-02;
 -1.6000000E-01;  9.9999998E-03;  3.1000000E-01;438;  0.0000000E+00;  0.0000000E+00;  0.0000000E+00;  1.0000000E+03;  1.0000000E-01;  0.0000000E+00;0;  0.0000000E+00;  0.0000000E+00;  0.0000000E+00;0; -2.3697309E-08;  4.0000000E+04;  0.0000000E+00;  0.0000000E+00;  4.0000000E+04;  0.0000000E+00;  4.0000000E+04; -1.0574201E-08;  0.0000000E+00; -1.3123108E-08;  4.4145219E-02;
 -1.6000000E-01;  9.9999998E-03;  3.1999999E-01;439;  0.0000000E+00;  0.0000000E+00;  0.0000000E+00;  1.0000000E+03;  1.0000000E-01;  0.0000000E+00;0;  0.0000000E+00;  0.0000000E+00;  0.0000000E+00;0; -1.7570059E-08;  4.0000000E+04;  0.0000000E+00;  0.0000000E+00;  4.0000000E+04;  0.0000000E+00;  4.0000000E+04; -1.0094796E-08;  0.0000000E+00; -7.4752640E-09;  2.3641564E-02;
 -1.6000000E-01;  9.9999998E-03;  3.3000001E-01;440;  0.0000000E+00;  0.0000000E+00;  0.0000000E+00;  1.0000000E+03;  1.0000000E-01;  0.0000000E+00;0;  0.0000000E+00;  0.0000000E+00;  0.0000000E+00;0; -6.1915477E-09;  4.0000000E+04;  0.0000000E+00;  0.0000000E+00;  4.0000000E+04;  0.0000000E+00;  4.0000000E+04; -3.7288004E-09;  0.0000000E+00; -2.4627476E-09;  7.7600274E-03;
 -1.6000000E-01;  9.9999998E-03;  3.4000000E-01;441;  0.0000000E+00;  0.0000000E+00;  0.0000000E+00;  1.0000000E+03;  1.0000000E-01;  0.0000000E+00;0;  0.0000000E+00;  0.0000000E+00;  0.0000000E+00;0; -4.2832252E-10;  4.0000000E+04;  0.0000000E+00;  0.0000000E+00;  4.0000000E+04;  0.0000000E+00;  4.0000000E+04; -2.3788385E-10;  0.0000000E+00; -1.9043866E-10;  1.0047134E-03;
 -1.6000000E-01;  9.9999998E-03;  3.4999999E-01;442;  0.0000000E+00;  0.0000000E+00;  0.0000000E+00;  1.0000000E+03;  1.0000000E-01;  0.0000000E+00;0;  0.0000000E+00;  0.0000000E+00;  0.0000000E+00;0;  0.0000000E+00;  4.0000000E+04;  0.0000000E+00;  0.0000000E+00;  4.0000000E+04;  0.0000000E+00;  4.0000000E+04;  0.0000000E+00;  0.0000000E+00;  0.0000000E+00;  0.0000000E+00;
 -1.6000000E-01;  9.9999998E-03;  3.6000001E-01;443;  0.0000000E+00;  0.0000000E+00;  0.0000000E+00;  1.0000000E+03;  1.0000000E-01;  0.0000000E+00;0;  0.0000000E+00;  0.0000000E+00;  0.0000000E+00;0;  0.0000000E+00;  4.0000000E+04;  0.0000000E+00;  0.0000000E+00;  4.0000000E+04;  0.0000000E+00;  4.0000000E+04;  0.0000000E+00;  0.0000000E+00;  0.0000000E+00;  0.0000000E+00;
 -1.6000000E-01;  9.9999998E-03;  3.7000000E-01;444;  0.0000000E+00;  0.0000000E+00;  0.0000000E+00;  1.0000000E+03;  1.0000000E-01;  0.0000000E+00;0;  0.0000000E+00;  0.0000000E+00;  0.0000000E+00;0;  0.0000000E+00;  4.0000000E+04;  0.0000000E+00;  0.0000000E+00;  4.0000000E+04;  0.0000000E+00;  4.0000000E+04;  0.0000000E+00;  0.0000000E+00;  0.0000000E+00;  0.0000000E+00;
 -1.6000000E-01;  9.9999998E-03;  3.8000000E-01;445;  0.0000000E+00;  0.0000000E+00;  0.0000000E+00;  1.0000000E+03;  1.0000000E-01;  0.0000000E+00;0;  0.0000000E+00;  0.0000000E+00;  0.0000000E+00;0;  0.0000000E+00;  4.0000000E+04;  0.0000000E+00;  0.0000000E+00;  4.0000000E+04;  0.0000000E+00;  4.0000000E+04;  0.0000000E+00;  0.0000000E+00;  0.0000000E+00;  0.0000000E+00;
 -1.6000000E-01;  9.9999998E-03;  3.8999999E-01;446;  0.0000000E+00;  0.0000000E+00;  0.0000000E+00;  1.0000000E+03;  1.0000000E-01;  0.0000000E+00;0;  0.0000000E+00;  0.0000000E+00;  0.0000000E+00;0;  0.0000000E+00;  4.0000000E+04;  0.0000000E+00;  0.0000000E+00;  4.0000000E+04;  0.0000000E+00;  4.0000000E+04;  0.0000000E+00;  0.0000000E+00;  0.0000000E+00;  0.0000000E+00;
 -1.6000000E-01;  9.9999998E-03;  4.0000001E-01;447;  0.0000000E+00;  0.0000000E+00;  0.0000000E+00;  1.0000000E+03;  1.0000000E-01;  0.0000000E+00;0;  0.0000000E+00;  0.0000000E+00;  0.0000000E+00;0;  0.0000000E+00;  4.0000000E+04;  0.0000000E+00;  0.0000000E+00;  4.0000000E+04;  0.0000000E+00;  4.0000000E+04;  0.0000000E+00;  0.0000000E+00;  0.0000000E+00;  0.0000000E+00;
 -1.5000001E-01;  9.9999998E-03;  2.3999999E-01;522;  0.0000000E+00;  0.0000000E+00;  0.0000000E+00;  1.0000000E+03;  1.0000000E-01;  0.0000000E+00;0;  0.0000000E+00;  0.0000000E+00;  0.0000000E+00;0;  6.2531803E-06;  4.0000000E+04;  0.0000000E+00;  0.0000000E+00;  4.0000000E+04;  0.0000000E+00;  4.0000000E+04;  6.1278188E-06;  0.0000000E+00;  1.2536167E-07;  2.9914155E+00;
 -1.5000001E-01;  9.9999998E-03;  2.5000000E-01;523;  0.0000000E+00;  0.0000000E+00;  0.0000000E+00;  1.0000000E+03;  1.0000000E-01;  0.0000000E+00;0;  0.0000000E+00;  0.0000000E+00;  0.0000000E+00;0;  5.5744408E-06;  4.0000000E+04;  0.0000000E+00;  0.0000000E+00;  4.0000000E+04;  0.0000000E+00;  4.0000000E+04;  5.5093842E-06;  0.0000000E+00;  6.5056433E-08;  2.3506713E+00;
 -1.5000001E-01;  9.9999998E-03;  2.5999999E-01;524;  0.0000000E+00;  0.0000000E+00;  0.0000000E+00;  1.0000000E+03;  1.0000000E-01;  0.0000000E+00;0;  0.0000000E+00;  0.0000000E+00;  0.0000000E+00;0;  4.5503975E-06;  4.0000000E+04;  0.0000000E+00;  0.0000000E+00;  4.0000000E+04;  0.0000000E+00;  4.0000000E+04;  4.5737238E-06;  0.0000000E+00; -2.3326255E-08;  1.5632727E+00;
 -1.5000001E-01;  9.9999998E-03;  2.7000001E-01;525;  0.0000000E+00;  0.0000000E+00;  0.0000000E+00;  1.0000000E+03;  1.0000000E-01;  0.0000000E+00;0;  0.0000000E+00;  0.0000000E+00;  0.0000000E+00;0;  3.3298929E-06;  4.0000000E+04;  0.0000000E+00;  0.0000000E+00;  4.0000000E+04;  0.0000000E+00;  4.0000000E+04;  3.4549817E-06;  0.0000000E+00; -1.2508865E-07;  7.2834468E-01;
 -1.5000001E-01;  9.9999998E-03;  2.8000000E-01;526;  0.0000000E+00;  0.0000000E+00;  0.0000000E+00;  1.0000000E+03;  1.0000000E-01;  0.0000000E+00;0;  0.0000000E+00;  0.0000000E+00;  0.0000000E+00;0;  2.1064570E-06;  4.0000000E+04;  0.0000000E+00;  0.0000000E+00;  4.0000000E+04;  0.0000000E+00;  4.0000000E+04;  2.3248365E-06;  0.0000000E+00; -2.1837945E-07;  2.6785053E-02;
 -1.5000001E-01;  9.9999998E-03;  2.8999999E-01;527;  0.0000000E+00;  0.0000000E+00;  0.0000000E+00;  1.0000000E+03;  1.0000000E-01;  0.0000000E+00;0;  0.0000000E+00;  0.0000000E+00;  0.0000000E+00;0;  1.0601429E-06;  4.0000000E+04;  0.0000000E+00;  0.0000000E+00;  4.0000000E+04;  0.0000000E+00;  4.0000000E+04;  1.3411448E-06;  0.0000000E+00; -2.8100180E-07;  5.6312656E-01;
 -1.5000001E-01;  9.9999998E-03;  3.0000001E-01;528;  0.0000000E+00;  0.0000000E+00;  0.0000000E+00;  1.0000000E+03;  1.0000000E-01;  0.0000000E+00;0;  0.0000000E+00;  0.0000000E+00;  0.0000000E+00;0;  3.0990526E-07;  4.0000000E+04;  0.0000000E+00;  0.0000000E+00;  4.0000000E+04;  0.0000000E+00;  4.0000000E+04;  6.0836197E-07;  0.0000000E+00; -2.9845671E-07;  8.2609344E-01;
 -1.5000001E-01;  9.9999998E-03;  3.1000000E-01;529;  0.0000000E+00;  0.0000000E+00;  0.0000000E+00;  1.0000000E+03;  1.0000000E-01;  0.0000000E+00;0;  0.0000000E+00;  0.0000000E+00;  0.0000000E+00;0; -1.1135867E-07;  4.0000000E+04;  0.0000000E+00;  0.0000000E+00;  4.0000000E+04;  0.0000000E+00;  4.0000000E+04;  1.5823747E-07;  0.0000000E+00; -2.6959614E-07;  8.2313544E-01;
 -1.5000001E-01;  9.9999998E-03;  3.1999999E-01;530;  0.0000000E+00;  0.0000000E+00;  0.0000000E+00;  1.0000000E+03;  1.0000000E-01;  0.0000000E+00;0;  0.0000000E+00;  0.0000000E+00;  0.0000000E+00;0; -2.5311553E-07;  4.0000000E+04;  0.0000000E+00;  0.0000000E+00;  4.0000000E+04;  0.0000000E+00;  4.0000000E+04; -4.6216499E-08;  0.0000000E+00; -2.0689903E-07;  6.3871419E-01;
 -1.5000001E-01;  9.9999998E-03;  3.3000001E-01;531;  0.0000000E+00;  0.0000000E+00;  0.0000000E+00;  1.0000000E+03;  1.0000000E-01;  0.0000000E+00;0;  0.0000000E+00;  0.0000000E+00;  0.0000000E+00;0; -2.1810150E-07;  4.0000000E+04;  0.0000000E+00;  0.0000000E+00;  4.0000000E+04;  0.0000000E+00;  4.0000000E+04; -8.6755406E-08;  0.0000000E+00; -1.3134610E-07;  3.9055002E-01;
 -1.5000001E-01;  9.9999998E-03;  3.4000000E-01;532;  0.0000000E+00;  0.0000000E+00;  0.0000000E+00;  1.0000000E+03;  1.0000000E-01;  0.0000000E+00;0;  0.0000000E+00;  0.0000000E+00;  0.0000000E+00;0; -1.1937371E-07;  4.0000000E+04;  0.0000000E+00;  0.0000000E+00;  4.0000000E+04;  0.0000000E+00;  4.0000000E+04; -5.4821616E-08;  0.0000000E+00; -6.4552097E-08;  1.8018799E-01;
 -1.5000001E-01;  9.9999998E-03;  3.4999999E-01;533;  0.0000000E+00;  0.0000000E+00;  0.0000000E+00;  1.0000000E+03;  1.0000000E-01;  0.0000000E+00;0;  0.0000000E+00;  0.0000000E+00;  0.0000000E+00;0; -3.9073619E-08;  4.0000000E+04;  0.0000000E+00;  0.0000000E+00;  4.0000000E+04;  0.0000000E+00;  4.0000000E+04; -1.8071059E-08;  0.0000000E+00; -2.1002561E-08;  5.6113068E-02;
 -1.5000001E-01;  9.9999998E-03;  3.6000001E-01;534;  0.0000000E+00;  0.0000000E+00;  0.0000000E+00;  1.0000000E+03;  1.0000000E-01;  0.0000000E+00;0;  0.0000000E+00;  0.0000000E+00;  0.0000000E+00;0; -4.9671853E-09;  4.0000000E+04;  0.0000000E+00;  0.0000000E+00;  4.0000000E+04;  0.0000000E+00;  4.0000000E+04; -2.1757769E-09;  0.0000000E+00; -2.7914084E-09;  8.7944549E-03;
 -1.5000001E-01;  9.9999998E-03;  3.7000000E-01;535;  0.0000000E+00;  0.0000000E+00;  0.0000000E+00;  1.0000000E+03;  1.0000000E-01;  0.0000000E+00;0;  0.0000000E+00;  0.0000000E+00;  0.0000000E+00;0;  0.0000000E+00;  4.0000000E+04;  0.0000000E+00;  0.0000000E+00;  4.0000000E+04;  0.0000000E+00;  4.0000000E+04;  0.0000000E+00;  0.0000000E+00;  0.0000000E+00;  3.0836869E-09;
 -1.5000001E-01;  9.9999998E-03;  3.8000000E-01;536;  0.0000000E+00;  0.0000000E+00;  0.0000000E+00;  1.0000000E+03;  1.0000000E-01;  0.0000000E+00;0;  0.0000000E+00;  0.0000000E+00;  0.0000000E+00;0;  0.0000000E+00;  4.0000000E+04;  0.0000000E+00;  0.0000000E+00;  4.0000000E+04;  0.0000000E+00;  4.0000000E+04;  0.0000000E+00;  0.0000000E+00;  0.0000000E+00;  0.0000000E+00;
 -1.5000001E-01;  9.9999998E-03;  3.8999999E-01;537;  0.0000000E+00;  0.0000000E+00;  0.0000000E+00;  1.0000000E+03;  1.0000000E-01;  0.0000000E+00;0;  0.0000000E+00;  0.0000000E+00;  0.0000000E+00;0;  0.0000000E+00;  4.0000000E+04;  0.0000000E+00;  0.0000000E+00;  4.0000000E+04;  0.0000000E+00;  4.0000000E+04;  0.0000000E+00;  0.0000000E+00;  0.0000000E+00;  0.0000000E+00;
 -1.5000001E-01;  9.9999998E-03;  4.0000001E-01;538;  0.0000000E+00;  0.0000000E+00;  0.0000000E+00;  1.0000000E+03;  1.0000000E-01;  0.0000000E+00;0;  0.0000000E+00;  0.0000000E+00;  0.0000000E+00;0;  0.0000000E+00;  4.0000000E+04;  0.0000000E+00;  0.0000000E+00;  4.0000000E+04;  0.0000000E+00;  4.0000000E+04;  0.0000000E+00;  0.0000000E+00;  0.0000000E+00;  0.0000000E+00;
 -1.4000000E-01;  9.9999998E-03;  2.3999999E-01;613;  0.0000000E+00;  0.0000000E+00;  0.0000000E+00;  1.0000000E+03;  1.0000000E-01;  0.0000000E+00;0;  0.0000000E+00;  0.0000000E+00;  0.0000000E+00;0;  2.3906581E-05;  4.0000000E+04;  0.0000000E+00;  0.0000000E+00;  4.0000000E+04;  0.0000000E+00;  4.0000000E+04;  2.3499051E-05;  0.0000000E+00;  4.0753059E-07;  1.4005022E+01;
 -1.4000000E-01;  9.9999998E-03;  2.5000000E-01;614;  0.0000000E+00;  0.0000000E+00;  0.0000000E+00;  1.0000000E+03;  1.0000000E-01;  0.0000000E+00;0;  0.0000000E+00;  0.0000000E+00;  0.0000000E+00;0;  2.0918902E-05;  4.0000000E+04;  0.0000000E+00;  0.0000000E+00;  4.0000000E+04;  0.0000000E+00;  4.0000000E+04;  2.0918464E-05;  0.0000000E+00;  4.3864312E-10;  1.0986559E+01;
 -1.4000000E-01;  9.9999998E-03;  2.5999999E-01;615;  0.0000000E+00;  0.0000000E+00;  0.0000000E+00;  1.0000000E+03;  1.0000000E-01;  0.0000000E+00;0;  0.0000000E+00;  0.0000000E+00;  0.0000000E+00;0;  1.6948361E-05;  4.0000000E+04;  0.0000000E+00;  0.0000000E+00;  4.0000000E+04;  0.0000000E+00;  4.0000000E+04;  1.7417726E-05;  0.0000000E+00; -4.6936387E-07;  7.3769741E+00;
 -1.4000000E-01;  9.9999998E-03;  2.7000001E-01;616;  0.0000000E+00;  0.0000000E+00;  0.0000000E+00;  1.0000000E+03;  1.0000000E-01;  0.0000000E+00;0;  0.0000000E+00;  0.0000000E+00;  0.0000000E+00;0;  1.2478840E-05;  4.0000000E+04;  0.0000000E+00;  0.0000000E+00;  4.0000000E+04;  0.0000000E+00;  4.0000000E+04;  1.3415152E-05;  0.0000000E+00; -9.3631189E-07;  3.5756352E+00;
 -1.4000000E-01;  9.9999998E-03;  2.8000000E-01;617;  0.0000000E+00;  0.0000000E+00;  0.0000000E+00;  1.0000000E+03;  1.0000000E-01;  0.0000000E+00;0;  0.0000000E+00;  0.0000000E+00;  0.0000000E+00;0;  8.0727004E-06;  4.0000000E+04;  0.0000000E+00;  0.0000000E+00;  4.0000000E+04;  0.0000000E+00;  4.0000000E+04;  9.3990520E-06;  0.0000000E+00; -1.3263515E-06;  9.4206780E-02;
 -1.4000000E-01;  9.9999998E-03;  2.8999999E-01;618;  0.0000000E+00;  0.0000000E+00;  0.0000000E+00;  1.0000000E+03;  1.0000000E-01;  0.0000000E+00;0;  0.0000000E+00;  0.0000000E+00;  0.0000000E+00;0;  4.2417091E-06;  4.0000000E+04;  0.0000000E+00;  0.0000000E+00;  4.0000000E+04;  0.0000000E+00;  4.0000000E+04;  5.8169571E-06;  0.0000000E+00; -1.5752479E-06;  2.6276767E+00;
 -1.4000000E-01;  9.9999998E-03;  3.0000001E-01;619;  0.0000000E+00;  0.0000000E+00;  0.0000000E+00;  1.0000000E+03;  1.0000000E-01;  0.0000000E+00;0;  0.0000000E+00;  0.0000000E+00;  0.0000000E+00;0;  1.3415139E-06;  4.0000000E+04;  0.0000000E+00;  0.0000000E+00;  4.0000000E+04;  0.0000000E+00;  4.0000000E+04;  2.9870287E-06;  0.0000000E+00; -1.6455148E-06;  4.2469397E+00;
 -1.4000000E-01;  9.9999998E-03;  3.1000000E-01;620;  0.0000000E+00;  0.0000000E+00;  0.0000000E+00;  1.0000000E+03;  1.0000000E-01;  0.0000000E+00;0;  0.0000000E+00;  0.0000000E+00;  0.0000000E+00;0; -4.8891957E-07;  4.0000000E+04;  0.0000000E+00;  0.0000000E+00;  4.0000000E+04;  0.0000000E+00;  4.0000000E+04;  1.0487756E-06;  0.0000000E+00; -1.5376952E-06;  4.7214103E+00;
 -1.4000000E-01;  9.9999998E-03;  3.1999999E-01;621;  0.0000000E+00;  0.0000000E+00;  0.0000000E+00;  1.0000000E+03;  1.0000000E-01;  0.0000000E+00;0;  0.0000000E+00;  0.0000000E+00;  0.0000000E+00;0; -1.3290942E-06;  4.0000000E+04;  0.0000000E+00;  0.0000000E+00;  4.0000000E+04;  0.0000000E+00;  4.0000000E+04; -3.9708915E-08;  0.0000000E+00; -1.2893853E-06;  4.2550464E+00;
 -1.4000000E-01;  9.9999998E-03;  3.3000001E-01;622;  0.0000000E+00;  0.0000000E+00;  0.0000000E+00;  1.0000000E+03;  1.0000000E-01;  0.0000000E+00;0;  0.0000000E+00;  0.0000000E+00;  0.0000000E+00;0; -1.4231226E-06;  4.0000000E+04;  0.0000000E+00;  0.0000000E+00;  4.0000000E+04;  0.0000000E+00;  4.0000000E+04; -4.6067757E-07;  0.0000000E+00; -9.6244503E-07;  3.2235687E+00;
 -1.4000000E-01;  9.9999998E-03;  3.4000000E-01;623;  0.0000000E+00;  0.0000000E+00;  0.0000000E+00;  1.0000000E+03;  1.0000000E-01;  0.0000000E+00;0;  0.0000000E+00;  0.0000000E+00;  0.0000000E+00;0; -1.0912311E-06;  4.0000000E+04;  0.0000000E+00;  0.0000000E+00;  4.0000000E+04;  0.0000000E+00;  4.0000000E+04; -4.6560962E-07;  0.0000000E+00; -6.2562145E-07;  2.0442786E+00;
 -1.4000000E-01;  9.9999998E-03;  3.4999999E-01;624;  0.0000000E+00;  0.0000000E+00;  0.0000000E+00;  1.0000000E+03;  1.0000000E-01;  0.0000000E+00;0;  0.0000000E+00;  0.0000000E+00;  0.0000000E+00;0; -6.3473414E-07;  4.0000000E+04;  0.0000000E+00;  0.0000000E+00;  4.0000000E+04;  0.0000000E+00;  4.0000000E+04; -2.9640557E-07;  0.0000000E+00; -3.3832856E-07;  1.0486559E+00;
 -1.4000000E-01;  9.9999998E-03;  3.6000001E-01;625;  0.0000000E+00;  0.0000000E+00;  0.0000000E+00;  1.0000000E+03;  1.0000000E-01;  0.0000000E+00;0;  0.0000000E+00;  0.0000000E+00;  0.0000000E+00;0; -2.6218041E-07;  4.0000000E+04;  0.0000000E+00;  0.0000000E+00;  4.0000000E+04;  0.0000000E+00;  4.0000000E+04; -1.2399792E-07;  0.0000000E+00; -1.3818249E-07;  4.0056205E-01;
 -1.4000000E-01;  9.9999998E-03;  3.7000000E-01;626;  0.0000000E+00;  0.0000000E+00;  0.0000000E+00;  1.0000000E+03;  1.0000000E-01;  0.0000000E+00;0;  0.0000000E+00;  0.0000000E+00;  0.0000000E+00;0; -5.9453740E-08;  4.0000000E+04;  0.0000000E+00;  0.0000000E+00;  4.0000000E+04;  0.0000000E+00;  4.0000000E+04; -2.6028266E-08;  0.0000000E+00; -3.3425476E-08;  9.2904299E-02;
 -1.4000000E-01;  9.9999998E-03;  3.8000000E-01;627;  0.0000000E+00;  0.0000000E+00;  0.0000000E+00;  1.0000000E+03;  1.0000000E-01;  0.0000000E+00;0;  0.0000000E+00;  0.0000000E+00;  0.0000000E+00;0; -2.6538109E-09;  4.0000000E+04;  0.0000000E+00;  0.0000000E+00;  4.0000000E+04;  0.0000000E+00;  4.0000000E+04; -8.7813506E-10;  0.0000000E+00; -1.7756759E-09;  6.8888157E-03;
 -1.4000000E-01;  9.9999998E-03;  3.8999999E-01;628;  0.0000000E+00;  0.0000000E+00;  0.0000000E+00;  1.0000000E+03;  1.0000000E-01;  0.0000000E+00;0;  0.0000000E+00;  0.0000000E+00;  0.0000000E+00;0;  0.0000000E+00;  4.0000000E+04;  0.0000000E+00;  0.0000000E+00;  4.0000000E+04;  0.0000000E+00;  4.0000000E+04;  0.0000000E+00;  0.0000000E+00;  0.0000000E+00;  0.0000000E+00;
 -1.4000000E-01;  9.9999998E-03;  4.0000001E-01;629;  0.0000000E+00;  0.0000000E+00;  0.0000000E+00;  1.0000000E+03;  1.0000000E-01;  0.0000000E+00;0;  0.0000000E+00;  0.0000000E+00;  0.0000000E+00;0;  0.0000000E+00;  4.0000000E+04;  0.0000000E+00;  0.0000000E+00;  4.0000000E+04;  0.0000000E+00;  4.0000000E+04;  0.0000000E+00;  0.0000000E+00;  0.0000000E+00;  0.0000000E+00;
 -1.3000000E-01;  9.9999998E-03;  2.3999999E-01;704;  0.0000000E+00;  0.0000000E+00;  0.0000000E+00;  1.0000000E+03;  1.0000000E-01;  0.0000000E+00;0;  0.0000000E+00;  0.0000000E+00;  0.0000000E+00;0;  5.1592935E-05;  4.0000000E+04;  0.0000000E+00;  0.0000000E+00;  4.0000000E+04;  0.0000000E+00;  4.0000000E+04;  5.0806506E-05;  0.0000000E+00;  7.8643046E-07;  4.1273129E+01;
 -1.3000000E-01;  9.9999998E-03;  2.5000000E-01;705;  0.0000000E+00;  0.0000000E+00;  0.0000000E+00;  1.0000000E+03;  1.0000000E-01;  0.0000000E+00;0;  0.0000000E+00;  0.0000000E+00;  0.0000000E+00;0;  4.4543016E-05;  4.0000000E+04;  0.0000000E+00;  0.0000000E+00;  4.0000000E+04;  0.0000000E+00;  4.0000000E+04;  4.5137003E-05;  0.0000000E+00; -5.9398599E-07;  3.2500919E+01;
 -1.3000000E-01;  9.9999998E-03;  2.5999999E-01;706;  0.0000000E+00;  0.0000000E+00;  0.0000000E+00;  1.0000000E+03;  1.0000000E-01;  0.0000000E+00;0;  0.0000000E+00;  0.0000000E+00;  0.0000000E+00;0;  3.5610537E-05;  4.0000000E+04;  0.0000000E+00;  0.0000000E+00;  4.0000000E+04;  0.0000000E+00;  4.0000000E+04;  3.7672427E-05;  0.0000000E+00; -2.0618916E-06;  2.2010822E+01;
 -1.3000000E-01;  9.9999998E-03;  2.7000001E-01;707;  0.0000000E+00;  0.0000000E+00;  0.0000000E+00;  1.0000000E+03;  1.0000000E-01;  0.0000000E+00;0;  0.0000000E+00;  0.0000000E+00;  0.0000000E+00;0;  2.5786949E-05;  4.0000000E+04;  0.0000000E+00;  0.0000000E+00;  4.0000000E+04;  0.0000000E+00;  4.0000000E+04;  2.9226632E-05;  0.0000000E+00; -3.4396835E-06;  1.0886884E+01;
 -1.3000000E-01;  9.9999998E-03;  2.8000000E-01;708;  0.0000000E+00;  0.0000000E+00;  0.0000000E+00;  1.0000000E+03;  1.0000000E-01;  0.0000000E+00;0;  0.0000000E+00;  0.0000000E+00;  0.0000000E+00;0;  1.6175405E-05;  4.0000000E+04;  0.0000000E+00;  0.0000000E+00;  4.0000000E+04;  0.0000000E+00;  4.0000000E+04;  2.0724496E-05;  0.0000000E+00; -4.5490910E-06;  4.5976064E-01;
 -1.3000000E-01;  9.9999998E-03;  2.8999999E-01;709;  0.0000000E+00;  0.0000000E+00;  0.0000000E+00;  1.0000025E+03;  1.0000000E-01;  2.0740154E+00;0;  0.0000000E+00;  0.0000000E+00;  0.0000000E+00;0;  7.7736095E-06;  4.0000000E+04;  0.0000000E+00;  0.0000000E+00;  4.0000000E+04;  0.0000000E+00;  4.0000000E+04;  1.3021490E-05;  0.0000000E+00; -5.2478804E-06;  8.0388432E+00;
 -1.3000000E-01;  9.9999998E-03;  3.0000001E-01;710;  0.0000000E+00;  0.0000000E+00;  0.0000000E+00;  1.0000000E+03;  1.0000000E-01;  0.0000000E+00;0;  0.0000000E+00;  0.0000000E+00;  0.0000000E+00;0;  1.2961223E-06;  4.0000000E+04;  0.0000000E+00;  0.0000000E+00;  4.0000000E+04;  0.0000000E+00;  4.0000000E+04;  6.7562332E-06;  0.0000000E+00; -5.4601110E-06;  1.3677382E+01;
 -1.3000000E-01;  9.9999998E-03;  3.1000000E-01;711;  0.0000000E+00;  0.0000000E+00;  0.0000000E+00;  1.0000000E+03;  1.0000000E-01;  0.0000000E+00;0;  0.0000000E+00;  0.0000000E+00;  0.0000000E+00;0; -2.9351479E-06;  4.0000000E+04;  0.0000000E+00;  0.0000000E+00;  4.0000000E+04;  0.0000000E+00;  4.0000000E+04;  2.2605739E-06;  0.0000000E+00; -5.1957218E-06;  1.6148699E+01;
 -1.3000000E-01;  9.9999998E-03;  3.1999999E-01;712;  0.0000000E+00;  0.0000000E+00;  0.0000000E+00;  1.0000000E+03;  1.0000000E-01;  0.0000000E+00;0;  0.0000000E+00;  0.0000000E+00;  0.0000000E+00;0; -5.0055123E-06;  4.0000000E+04;  0.0000000E+00;  0.0000000E+00;  4.0000000E+04;  0.0000000E+00;  4.0000000E+04; -4.6065975E-07;  0.0000000E+00; -4.5448523E-06;  1.5765918E+01;
 -1.3000000E-01;  9.9999998E-03;  3.3000001E-01;713;  0.0000000E+00;  0.0000000E+00;  0.0000000E+00;  1.0000000E+03;  1.0000000E-01;  0.0000000E+00;0;  0.0000000E+00;  0.0000000E+00;  0.0000000E+00;0; -5.3280164E-06;  4.0000000E+04;  0.0000000E+00;  0.0000000E+00;  4.0000000E+04;  0.0000000E+00;  4.0000000E+04; -1.6794911E-06;  0.0000000E+00; -3.6485251E-06;  1.3321255E+01;
 -1.3000000E-01;  9.9999998E-03;  3.4000000E-01;714;  0.0000000E+00;  0.0000000E+00;  0.0000000E+00;  1.0000000E+03;  1.0000000E-01;  0.0000000E+00;0;  0.0000000E+00;  0.0000000E+00;  0.0000000E+00;0; -4.5027941E-06;  4.0000000E+04;  0.0000000E+00;  0.0000000E+00;  4.0000000E+04;  0.0000000E+00;  4.0000000E+04; -1.8393574E-06;  0.0000000E+00; -2.6634368E-06;  9.8295879E+00;
 -1.3000000E-01;  9.9999998E-03;  3.4999999E-01;715;  0.0000000E+00;  0.0000000E+00;  0.0000000E+00;  1.0000000E+03;  1.0000000E-01;  0.0000000E+00;0;  0.0000000E+00;  0.0000000E+00;  0.0000000E+00;0; -3.1579934E-06;  4.0000000E+04;  0.0000000E+00;  0.0000000E+00;  4.0000000E+04;  0.0000000E+00;  4.0000000E+04; -1.4252581E-06;  0.0000000E+00; -1.7327354E-06;  6.2618017E+00;
 -1.3000000E-01;  9.9999998E-03;  3.6000001E-01;716;  0.0000000E+00;  0.0000000E+00;  0.0000000E+00;  1.0000000E+03;  1.0000000E-01;  0.0000000E+00;0;  0.0000000E+00;  0.0000000E+00;  0.0000000E+00;0; -1.8131061E-06;  4.0000000E+04;  0.0000000E+00;  0.0000000E+00;  4.0000000E+04;  0.0000000E+00;  4.0000000E+04; -8.4694676E-07;  0.0000000E+00; -9.6615940E-07;  3.3299072E+00;
 -1.3000000E-01;  9.9999998E-03;  3.7000000E-01;717;  0.0000000E+00;  0.0000000E+00;  0.0000000E+00;  1.0000000E+03;  1.0000000E-01;  0.0000000E+00;0;  0.0000000E+00;  0.0000000E+00;  0.0000000E+00;0; -7.9764686E-07;  4.0000000E+04;  0.0000000E+00;  0.0000000E+00;  4.0000000E+04;  0.0000000E+00;  4.0000000E+04; -3.7016812E-07;  0.0000000E+00; -4.2747877E-07;  1.3759487E+00;
 -1.3000000E-01;  9.9999998E-03;  3.8000000E-01;718;  0.0000000E+00;  0.0000000E+00;  0.0000000E+00;  1.0000000E+03;  1.0000000E-01;  0.0000000E+00;0;  0.0000000E+00;  0.0000000E+00;  0.0000000E+00;0; -2.2781006E-07;  4.0000000E+04;  0.0000000E+00;  0.0000000E+00;  4.0000000E+04;  0.0000000E+00;  4.0000000E+04; -1.0164961E-07;  0.0000000E+00; -1.2616044E-07;  3.7780783E-01;
 -1.3000000E-01;  9.9999998E-03;  3.8999999E-01;719;  0.0000000E+00;  0.0000000E+00;  0.0000000E+00;  1.0000000E+03;  1.0000000E-01;  0.0000000E+00;0;  0.0000000E+00;  0.0000000E+00;  0.0000000E+00;0; -2.2350003E-08;  4.0000000E+04;  0.0000000E+00;  0.0000000E+00;  4.0000000E+04;  0.0000000E+00;  4.0000000E+04; -8.3610487E-09;  0.0000000E+00; -1.3988954E-08;  4.3630514E-02;
 -1.3000000E-01;  9.9999998E-03;  4.0000001E-01;720;  0.0000000E+00;  0.0000000E+00;  0.0000000E+00;  1.0000000E+03;  1.0000000E-01;  0.0000000E+00;0;  0.0000000E+00;  0.0000000E+00;  0.0000000E+00;0;  0.0000000E+00;  4.0000000E+04;  0.0000000E+00;  0.0000000E+00;  4.0000000E+04;  0.0000000E+00;  4.0000000E+04;  0.0000000E+00;  0.0000000E+00;  0.0000000E+00;  0.0000000E+00;
 -1.2000000E-01;  9.9999998E-03;  2.3999999E-01;795;  0.0000000E+00;  0.0000000E+00;  0.0000000E+00;  1.0000000E+03;  1.0000000E-01;  0.0000000E+00;0;  0.0000000E+00;  0.0000000E+00;  0.0000000E+00;0;  7.6259937E-05;  4.0000000E+04;  0.0000000E+00;  0.0000000E+00;  4.0000000E+04;  0.0000000E+00;  4.0000000E+04;  7.5222517E-05;  0.0000000E+00;  1.0374205E-06;  9.3855141E+01;
 -1.2000000E-01;  9.9999998E-03;  2.5000000E-01;796;  0.0000000E+00;  0.0000000E+00;  0.0000000E+00;  1.0000000E+03;  1.0000000E-01;  0.0000000E+00;0;  0.0000000E+00;  0.0000000E+00;  0.0000000E+00;0;  6.4398177E-05;  4.0000000E+04;  0.0000000E+00;  0.0000000E+00;  4.0000000E+04;  0.0000000E+00;  4.0000000E+04;  6.6755485E-05;  0.0000000E+00; -2.3573077E-06;  7.4194641E+01;
 -1.2000000E-01;  9.9999998E-03;  2.5999999E-01;797;  0.0000000E+00;  0.0000000E+00;  0.0000000E+00;  1.0000000E+03;  1.0000000E-01;  0.0000000E+00;0;  0.0000000E+00;  0.0000000E+00;  0.0000000E+00;0;  4.9615810E-05;  4.0000000E+04;  0.0000000E+00;  0.0000000E+00;  4.0000000E+04;  0.0000000E+00;  4.0000000E+04;  5.5441906E-05;  0.0000000E+00; -5.8260939E-06;  5.0574780E+01;
 -1.2000000E-01;  9.9999998E-03;  2.7000001E-01;798;  0.0000000E+00;  0.0000000E+00;  0.0000000E+00;  1.0000000E+03;  1.0000000E-01;  0.0000000E+00;0;  0.0000000E+00;  0.0000000E+00;  0.0000000E+00;0;  3.3539978E-05;  4.0000000E+04;  0.0000000E+00;  0.0000000E+00;  4.0000000E+04;  0.0000000E+00;  4.0000000E+04;  4.2534797E-05;  0.0000000E+00; -8.9948198E-06;  2.5319481E+01;
 -1.2000000E-01;  9.9999998E-03;  2.8000000E-01;799;  0.0000000E+00;  0.0000000E+00;  0.0000000E+00;  1.0000000E+03;  1.0000000E-01;  0.0000000E+00;0;  0.0000000E+00;  0.0000000E+00;  0.0000000E+00;0;  1.7937236E-05;  4.0000000E+04;  0.0000000E+00;  0.0000000E+00;  4.0000000E+04;  0.0000000E+00;  4.0000000E+04;  2.9447265E-05;  0.0000000E+00; -1.1510028E-05;  1.6655062E+00;
 -1.2000000E-01;  9.9999998E-03;  2.8999999E-01;800;  0.0000000E+00;  0.0000000E+00;  0.0000000E+00;  1.0000000E+03;  1.0000000E-01;  0.0000000E+00;0;  0.0000000E+00;  0.0000000E+00;  0.0000000E+00;0;  4.3957834E-06;  4.0000000E+04;  0.0000000E+00;  0.0000000E+00;  4.0000000E+04;  0.0000000E+00;  4.0000000E+04;  1.7497205E-05;  0.0000000E+00; -1.3101421E-05;  1.9149372E+01;
 -1.2000000E-01;  9.9999998E-03;  3.0000001E-01;801;  0.0000000E+00;  0.0000000E+00;  0.0000000E+00;  1.0000049E+03;  1.0000000E-01;  4.0492682E+00;0;  0.0000000E+00;  0.0000000E+00;  0.0000000E+00;0; -5.9368431E-06;  4.0000000E+04;  0.0000000E+00;  0.0000000E+00;  4.0000000E+04;  0.0000000E+00;  4.0000000E+04;  7.6947445E-06;  0.0000000E+00; -1.3631588E-05;  3.3527786E+01;
 -1.2000000E-01;  9.9999998E-03;  3.1000000E-01;802;  0.0000000E+00;  0.0000000E+00;  0.0000000E+00;  1.0000146E+03;  1.0000000E-01;  1.2049042E+01;0;  0.0000000E+00;  0.0000000E+00;  0.0000000E+00;0; -1.2522359E-05;  4.0000000E+04;  0.0000000E+00;  0.0000000E+00;  4.0000000E+04;  0.0000000E+00;  4.0000000E+04;  6.0705378E-07;  0.0000000E+00; -1.3129413E-05;  4.1093227E+01;
 -1.2000000E-01;  9.9999998E-03;  3.1999999E-01;803;  0.0000000E+00;  0.0000000E+00;  0.0000000E+00;  1.0000133E+03;  1.0000000E-01;  1.1061416E+01;0;  0.0000000E+00;  0.0000000E+00;  0.0000000E+00;0; -1.5458711E-05;  4.0000000E+04;  0.0000000E+00;  0.0000000E+00;  4.0000000E+04;  0.0000000E+00;  4.0000000E+04; -3.6815416E-06;  0.0000000E+00; -1.1777170E-05;  4.2151150E+01;
 -1.2000000E-01;  9.9999998E-03;  3.3000001E-01;804;  0.0000000E+00;  0.0000000E+00;  0.0000000E+00;  1.0000000E+03;  1.0000000E-01;  0.0000000E+00;0;  0.0000000E+00;  0.0000000E+00;  0.0000000E+00;0; -1.5365433E-05;  4.0000000E+04;  0.0000000E+00;  0.0000000E+00;  4.0000000E+04;  0.0000000E+00;  4.0000000E+04; -5.5137334E-06;  0.0000000E+00; -9.8517003E-06;  3.8034470E+01;
 -1.2000000E-01;  9.9999998E-03;  3.4000000E-01;805;  0.0000000E+00;  0.0000000E+00;  0.0000000E+00;  1.0000000E+03;  1.0000000E-01;  0.0000000E+00;0;  0.0000000E+00;  0.0000000E+00;  0.0000000E+00;0; -1.3180052E-05;  4.0000000E+04;  0.0000000E+00;  0.0000000E+00;  4.0000000E+04;  0.0000000E+00;  4.0000000E+04; -5.5233368E-06;  0.0000000E+00; -7.6567148E-06;  3.0650602E+01;
 -1.2000000E-01;  9.9999998E-03;  3.4999999E-01;806;  0.0000000E+00;  0.0000000E+00;  0.0000000E+00;  1.0000000E+03;  1.0000000E-01;  0.0000000E+00;0;  0.0000000E+00;  0.0000000E+00;  0.0000000E+00;0; -9.9283916E-06;  4.0000000E+04;  0.0000000E+00;  0.0000000E+00;  4.0000000E+04;  0.0000000E+00;  4.0000000E+04; -4.4567651E-06;  0.0000000E+00; -5.4716261E-06;  2.2014839E+01;
 -1.2000000E-01;  9.9999998E-03;  3.6000001E-01;807;  0.0000000E+00;  0.0000000E+00;  0.0000000E+00;  1.0000000E+03;  1.0000000E-01;  0.0000000E+00;0;  0.0000000E+00;  0.0000000E+00;  0.0000000E+00;0; -6.5225695E-06;  4.0000000E+04;  0.0000000E+00;  0.0000000E+00;  4.0000000E+04;  0.0000000E+00;  4.0000000E+04; -3.0004257E-06;  0.0000000E+00; -3.5221440E-06;  1.3860995E+01;
 -1.2000000E-01;  9.9999998E-03;  3.7000000E-01;808;  0.0000000E+00;  0.0000000E+00;  0.0000000E+00;  1.0000000E+03;  1.0000000E-01;  0.0000000E+00;0;  0.0000000E+00;  0.0000000E+00;  0.0000000E+00;0; -3.6274341E-06;  4.0000000E+04;  0.0000000E+00;  0.0000000E+00;  4.0000000E+04;  0.0000000E+00;  4.0000000E+04; -1.6612313E-06;  0.0000000E+00; -1.9662029E-06;  7.3778081E+00;
 -1.2000000E-01;  9.9999998E-03;  3.8000000E-01;809;  0.0000000E+00;  0.0000000E+00;  0.0000000E+00;  1.0000000E+03;  1.0000000E-01;  0.0000000E+00;0;  0.0000000E+00;  0.0000000E+00;  0.0000000E+00;0; -1.6002951E-06;  4.0000000E+04;  0.0000000E+00;  0.0000000E+00;  4.0000000E+04;  0.0000000E+00;  4.0000000E+04; -7.1498596E-07;  0.0000000E+00; -8.8530919E-07;  3.0908659E+00;
 -1.2000000E-01;  9.9999998E-03;  3.8999999E-01;810;  0.0000000E+00;  0.0000000E+00;  0.0000000E+00;  1.0000000E+03;  1.0000000E-01;  0.0000000E+00;0;  0.0000000E+00;  0.0000000E+00;  0.0000000E+00;0; -4.7962658E-07;  4.0000000E+04;  0.0000000E+00;  0.0000000E+00;  4.0000000E+04;  0.0000000E+00;  4.0000000E+04; -2.0492831E-07;  0.0000000E+00; -2.7469827E-07;  8.7770253E-01;
 -1.2000000E-01;  9.9999998E-03;  4.0000001E-01;811;  0.0000000E+00;  0.0000000E+00;  0.0000000E+00;  1.0000000E+03;  1.0000000E-01;  0.0000000E+00;0;  0.0000000E+00;  0.0000000E+00;  0.0000000E+00;0; -6.1812401E-08;  4.0000000E+04;  0.0000000E+00;  0.0000000E+00;  4.0000000E+04;  0.0000000E+00;  4.0000000E+04; -2.4802885E-08;  0.0000000E+00; -3.7009514E-08;  1.1613128E-01;
 -1.1000000E-01;  9.9999998E-03;  2.3999999E-01;886;  0.0000000E+00;  0.0000000E+00;  0.0000000E+00;  1.0000000E+03;  1.0000000E-01;  0.0000000E+00;0;  0.0000000E+00;  0.0000000E+00;  0.0000000E+00;0;  7.3913128E-05;  4.0000000E+04;  0.0000000E+00;  0.0000000E+00;  4.0000000E+04;  0.0000000E+00;  4.0000000E+04;  7.3167881E-05;  0.0000000E+00;  7.4524365E-07;  1.8095091E+02;
 -1.1000000E-01;  9.9999998E-03;  2.5000000E-01;887;  0.0000000E+00;  0.0000000E+00;  0.0000000E+00;  1.0000000E+03;  1.0000000E-01;  0.0000000E+00;0;  0.0000000E+00;  0.0000000E+00;  0.0000000E+00;0;  5.8467802E-05;  4.0000000E+04;  0.0000000E+00;  0.0000000E+00;  4.0000000E+04;  0.0000000E+00;  4.0000000E+04;  6.4610605E-05;  0.0000000E+00; -6.1428050E-06;  1.4358475E+02;
 -1.1000000E-01;  9.9999998E-03;  2.5999999E-01;888;  0.0000000E+00;  0.0000000E+00;  0.0000000E+00;  1.0000000E+03;  1.0000000E-01;  0.0000000E+00;0;  0.0000000E+00;  0.0000000E+00;  0.0000000E+00;0;  3.9049555E-05;  4.0000000E+04;  0.0000000E+00;  0.0000000E+00;  4.0000000E+04;  0.0000000E+00;  4.0000000E+04;  5.2072479E-05;  0.0000000E+00; -1.3022925E-05;  9.8458237E+01;
 -1.1000000E-01;  9.9999998E-03;  2.7000001E-01;889;  0.0000000E+00;  0.0000000E+00;  0.0000000E+00;  1.0000000E+03;  1.0000000E-01;  0.0000000E+00;0;  0.0000000E+00;  0.0000000E+00;  0.0000000E+00;0;  1.8000759E-05;  4.0000000E+04;  0.0000000E+00;  0.0000000E+00;  4.0000000E+04;  0.0000000E+00;  4.0000000E+04;  3.7218651E-05;  0.0000000E+00; -1.9217892E-05;  4.9866695E+01;
 -1.1000000E-01;  9.9999998E-03;  2.8000000E-01;890;  0.0000000E+00;  0.0000000E+00;  0.0000000E+00;  1.0000000E+03;  1.0000000E-01;  0.0000000E+00;0;  0.0000000E+00;  0.0000000E+00;  0.0000000E+00;0; -2.1737033E-06;  4.0000000E+04;  0.0000000E+00;  0.0000000E+00;  4.0000000E+04;  0.0000000E+00;  4.0000000E+04;  2.1934920E-05;  0.0000000E+00; -2.4108624E-05;  5.6932311E+00;
 -1.1000000E-01;  9.9999998E-03;  2.8999999E-01;891;  0.0000000E+00;  0.0000000E+00;  0.0000000E+00;  1.0000000E+03;  1.0000000E-01;  0.0000000E+00;0;  0.0000000E+00;  0.0000000E+00;  0.0000000E+00;0; -1.9240464E-05;  4.0000000E+04;  0.0000000E+00;  0.0000000E+00;  4.0000000E+04;  0.0000000E+00;  4.0000000E+04;  7.9920264E-06;  0.0000000E+00; -2.7232491E-05;  3.8639961E+01;
 -1.1000000E-01;  9.9999998E-03;  3.0000001E-01;892;  0.0000000E+00;  0.0000000E+00;  0.0000000E+00;  1.0000000E+03;  1.0000000E-01;  0.0000000E+00;0;  0.0000000E+00;  0.0000000E+00;  0.0000000E+00;0; -3.1597039E-05;  4.0000000E+04;  0.0000000E+00;  0.0000000E+00;  4.0000000E+04;  0.0000000E+00;  4.0000000E+04; -3.2372532E-06;  0.0000000E+00; -2.8359786E-05;  6.8724174E+01;
 -1.1000000E-01;  9.9999998E-03;  3.1000000E-01;893;  0.0000000E+00;  0.0000000E+00;  0.0000000E+00;  1.0000000E+03;  1.0000000E-01;  0.0000000E+00;0;  0.0000000E+00;  0.0000000E+00;  0.0000000E+00;0; -3.8511931E-05;  4.0000000E+04;  0.0000000E+00;  0.0000000E+00;  4.0000000E+04;  0.0000000E+00;  4.0000000E+04; -1.0962689E-05;  0.0000000E+00; -2.7549242E-05;  8.6373032E+01;
 -1.1000000E-01;  9.9999998E-03;  3.1999999E-01;894;  0.0000000E+00;  0.0000000E+00;  0.0000000E+00;  1.0000166E+03;  1.0000000E-01;  1.3728006E+01;0;  0.0000000E+00;  0.0000000E+00;  0.0000000E+00;0; -4.0160841E-05;  4.0000000E+04;  0.0000000E+00;  0.0000000E+00;  4.0000000E+04;  0.0000000E+00;  4.0000000E+04; -1.5035471E-05;  0.0000000E+00; -2.5125371E-05;  9.1595779E+01;
 -1.1000000E-01;  9.9999998E-03;  3.3000001E-01;895;  0.0000000E+00;  0.0000000E+00;  0.0000000E+00;  1.0000227E+03;  1.0000000E-01;  1.8764902E+01;0;  0.0000000E+00;  0.0000000E+00;  0.0000000E+00;0; -3.7456241E-05;  4.0000000E+04;  0.0000000E+00;  0.0000000E+00;  4.0000000E+04;  0.0000000E+00;  4.0000000E+04; -1.5880898E-05;  0.0000000E+00; -2.1575343E-05;  8.6327919E+01;
 -1.1000000E-01;  9.9999998E-03;  3.4000000E-01;896;  0.0000000E+00;  0.0000000E+00;  0.0000000E+00;  1.0000266E+03;  1.0000000E-01;  2.2024069E+01;0;  0.0000000E+00;  0.0000000E+00;  0.0000000E+00;0; -3.1756288E-05;  4.0000000E+04;  0.0000000E+00;  0.0000000E+00;  4.0000000E+04;  0.0000000E+00;  4.0000000E+04; -1.4326926E-05;  0.0000000E+00; -1.7429360E-05;  7.3663177E+01;
 -1.1000000E-01;  9.9999998E-03;  3.4999999E-01;897;  0.0000000E+00;  0.0000000E+00;  0.0000000E+00;  1.0000000E+03;  1.0000000E-01;  0.0000000E+00;0;  0.0000000E+00;  0.0000000E+00;  0.0000000E+00;0; -2.4548784E-05;  4.0000000E+04;  0.0000000E+00;  0.0000000E+00;  4.0000000E+04;  0.0000000E+00;  4.0000000E+04; -1.1376314E-05;  0.0000000E+00; -1.3172471E-05;  5.7081165E+01;
 -1.1000000E-01;  9.9999998E-03;  3.6000001E-01;898;  0.0000000E+00;  0.0000000E+00;  0.0000000E+00;  1.0000000E+03;  1.0000000E-01;  0.0000000E+00;0;  0.0000000E+00;  0.0000000E+00;  0.0000000E+00;0; -1.7182492E-05;  4.0000000E+04;  0.0000000E+00;  0.0000000E+00;  4.0000000E+04;  0.0000000E+00;  4.0000000E+04; -7.9824067E-06;  0.0000000E+00; -9.2000855E-06;  3.9829426E+01;
 -1.1000000E-01;  9.9999998E-03;  3.7000000E-01;899;  0.0000000E+00;  0.0000000E+00;  0.0000000E+00;  1.0000000E+03;  1.0000000E-01;  0.0000000E+00;0;  0.0000000E+00;  0.0000000E+00;  0.0000000E+00;0; -1.0690004E-05;  4.0000000E+04;  0.0000000E+00;  0.0000000E+00;  4.0000000E+04;  0.0000000E+00;  4.0000000E+04; -4.8848688E-06;  0.0000000E+00; -5.8051360E-06;  2.4494949E+01;
 -1.1000000E-01;  9.9999998E-03;  3.8000000E-01;900;  0.0000000E+00;  0.0000000E+00;  0.0000000E+00;  1.0000000E+03;  1.0000000E-01;  0.0000000E+00;0;  0.0000000E+00;  0.0000000E+00;  0.0000000E+00;0; -5.7032212E-06;  4.0000000E+04;  0.0000000E+00;  0.0000000E+00;  4.0000000E+04;  0.0000000E+00;  4.0000000E+04; -2.5260131E-06;  0.0000000E+00; -3.1772081E-06;  1.2741929E+01;
 -1.1000000E-01;  9.9999998E-03;  3.8999999E-01;901;  0.0000000E+00;  0.0000000E+00;  0.0000000E+00;  1.0000000E+03;  1.0000000E-01;  0.0000000E+00;0;  0.0000000E+00;  0.0000000E+00;  0.0000000E+00;0; -2.4272595E-06;  4.0000000E+04;  0.0000000E+00;  0.0000000E+00;  4.0000000E+04;  0.0000000E+00;  4.0000000E+04; -1.0301937E-06;  0.0000000E+00; -1.3970656E-06;  5.1894684E+00;
 -1.1000000E-01;  9.9999998E-03;  4.0000001E-01;902;  0.0000000E+00;  0.0000000E+00;  0.0000000E+00;  1.0000000E+03;  1.0000000E-01;  0.0000000E+00;0;  0.0000000E+00;  0.0000000E+00;  0.0000000E+00;0; -7.0475687E-07;  4.0000000E+04;  0.0000000E+00;  0.0000000E+00;  4.0000000E+04;  0.0000000E+00;  4.0000000E+04; -2.8593360E-07;  0.0000000E+00; -4.1882330E-07;  1.4168751E+00;
 -1.0000000E-01;  9.9999998E-03;  2.3999999E-01;977;  0.0000000E+00;  0.0000000E+00;  0.0000000E+00;  1.0000000E+03;  1.0000000E-01;  0.0000000E+00;0;  0.0000000E+00;  0.0000000E+00;  0.0000000E+00;0;  1.0821243E-05;  4.0000000E+04;  0.0000000E+00;  0.0000000E+00;  4.0000000E+04;  0.0000000E+00;  4.0000000E+04;  1.1514473E-05;  0.0000000E+00; -6.9322988E-07;  3.1130112E+02;
 -1.0000000E-01;  9.9999998E-03;  2.5000000E-01;978;  0.0000000E+00;  0.0000000E+00;  0.0000000E+00;  1.0000000E+03;  1.0000000E-01;  0.0000000E+00;0;  0.0000000E+00;  0.0000000E+00;  0.0000000E+00;0; -4.2273023E-06;  4.0000000E+04;  0.0000000E+00;  0.0000000E+00;  4.0000000E+04;  0.0000000E+00;  4.0000000E+04;  8.7440740E-06;  0.0000000E+00; -1.2971376E-05;  2.4802441E+02;
 -1.0000000E-01;  9.9999998E-03;  2.5999999E-01;979;  0.0000000E+00;  0.0000000E+00;  0.0000000E+00;  1.0000000E+03;  1.0000000E-01;  0.0000000E+00;0;  0.0000000E+00;  0.0000000E+00;  0.0000000E+00;0; -2.4194635E-05;  4.0000000E+04;  0.0000000E+00;  0.0000000E+00;  4.0000000E+04;  0.0000000E+00;  4.0000000E+04;  8.7207849E-07;  0.0000000E+00; -2.5066713E-05;  1.7120680E+02;
 -1.0000000E-01;  9.9999998E-03;  2.7000001E-01;980;  0.0000000E+00;  0.0000000E+00;  0.0000000E+00;  1.0000000E+03;  1.0000000E-01;  0.0000000E+00;0;  0.0000000E+00;  0.0000000E+00;  0.0000000E+00;0; -4.5987843E-05;  4.0000000E+04;  0.0000000E+00;  0.0000000E+00;  4.0000000E+04;  0.0000000E+00;  4.0000000E+04; -1.0117390E-05;  0.0000000E+00; -3.5870453E-05;  8.8090279E+01;
 -1.0000000E-01;  9.9999998E-03;  2.8000000E-01;981;  0.0000000E+00;  0.0000000E+00;  0.0000000E+00;  1.0000000E+03;  1.0000000E-01;  0.0000000E+00;0;  0.0000000E+00;  0.0000000E+00;  0.0000000E+00;0; -6.6332424E-05;  4.0000000E+04;  0.0000000E+00;  0.0000000E+00;  4.0000000E+04;  0.0000000E+00;  4.0000000E+04; -2.1947120E-05;  0.0000000E+00; -4.4385302E-05;  1.6033001E+01;
 -1.0000000E-01;  9.9999998E-03;  2.8999999E-01;982;  0.0000000E+00;  0.0000000E+00;  0.0000000E+00;  1.0000000E+03;  1.0000000E-01;  0.0000000E+00;0;  0.0000000E+00;  0.0000000E+00;  0.0000000E+00;0; -8.2341052E-05;  4.0000000E+04;  0.0000000E+00;  0.0000000E+00;  4.0000000E+04;  0.0000000E+00;  4.0000000E+04; -3.2467313E-05;  0.0000000E+00; -4.9873735E-05;  6.9438828E+01;
 -1.0000000E-01;  9.9999998E-03;  3.0000001E-01;983;  0.0000000E+00;  0.0000000E+00;  0.0000000E+00;  1.0000256E+03;  1.0000000E-01;  2.1233967E+01;0;  0.0000000E+00;  0.0000000E+00;  0.0000000E+00;0; -9.1989270E-05;  4.0000000E+04;  0.0000000E+00;  0.0000000E+00;  4.0000000E+04;  0.0000000E+00;  4.0000000E+04; -4.0015850E-05;  0.0000000E+00; -5.1973420E-05;  1.2421474E+02;
 -1.0000000E-01;  9.9999998E-03;  3.1000000E-01;984;  0.0000000E+00;  0.0000000E+00;  0.0000000E+00;  1.0000143E+03;  1.0000000E-01;  1.1851517E+01;0;  0.0000000E+00;  0.0000000E+00;  0.0000000E+00;0; -9.4440751E-05;  4.0000000E+04;  0.0000000E+00;  0.0000000E+00;  4.0000000E+04;  0.0000000E+00;  4.0000000E+04; -4.3653636E-05;  0.0000000E+00; -5.0787115E-05;  1.5886105E+02;
 -1.0000000E-01;  9.9999998E-03;  3.1999999E-01;985;  0.0000000E+00;  0.0000000E+00;  0.0000000E+00;  1.0000187E+03;  1.0000000E-01;  1.5505734E+01;0;  0.0000000E+00;  0.0000000E+00;  0.0000000E+00;0; -9.0086025E-05;  4.0000000E+04;  0.0000000E+00;  0.0000000E+00;  4.0000000E+04;  0.0000000E+00;  4.0000000E+04; -4.3240394E-05;  0.0000000E+00; -4.6845631E-05;  1.7248738E+02;
 -1.0000000E-01;  9.9999998E-03;  3.3000001E-01;986;  0.0000000E+00;  0.0000000E+00;  0.0000000E+00;  1.0000089E+03;  1.0000000E-01;  7.4071980E+00;0;  0.0000000E+00;  0.0000000E+00;  0.0000000E+00;0; -8.0286918E-05;  4.0000000E+04;  0.0000000E+00;  0.0000000E+00;  4.0000000E+04;  0.0000000E+00;  4.0000000E+04; -3.9346101E-05;  0.0000000E+00; -4.0940820E-05;  1.6761040E+02;
 -1.0000000E-01;  9.9999998E-03;  3.4000000E-01;987;  0.0000000E+00;  0.0000000E+00;  0.0000000E+00;  1.0000366E+03;  1.0000000E-01;  3.0320129E+01;0;  0.0000000E+00;  0.0000000E+00;  0.0000000E+00;0; -6.6959648E-05;  4.0000000E+04;  0.0000000E+00;  0.0000000E+00;  4.0000000E+04;  0.0000000E+00;  4.0000000E+04; -3.3029530E-05;  0.0000000E+00; -3.3930122E-05;  1.4878539E+02;
 -1.0000000E-01;  9.9999998E-03;  3.4999999E-01;988;  0.0000000E+00;  0.0000000E+00;  0.0000000E+00;  1.0000374E+03;  1.0000000E-01;  3.0912706E+01;0;  0.0000000E+00;  0.0000000E+00;  0.0000000E+00;0; -5.2143390E-05;  4.0000000E+04;  0.0000000E+00;  0.0000000E+00;  4.0000000E+04;  0.0000000E+00;  4.0000000E+04; -2.5551584E-05;  0.0000000E+00; -2.6591804E-05;  1.2139815E+02;
 -1.0000000E-01;  9.9999998E-03;  3.6000001E-01;989;  0.0000000E+00;  0.0000000E+00;  0.0000000E+00;  1.0000137E+03;  1.0000000E-01;  1.1357703E+01;0;  0.0000000E+00;  0.0000000E+00;  0.0000000E+00;0; -3.7655715E-05;  4.0000000E+04;  0.0000000E+00;  0.0000000E+00;  4.0000000E+04;  0.0000000E+00;  4.0000000E+04; -1.8099459E-05;  0.0000000E+00; -1.9556253E-05;  9.0708649E+01;
 -1.0000000E-01;  9.9999998E-03;  3.7000000E-01;990;  0.0000000E+00;  0.0000000E+00;  0.0000000E+00;  1.0000000E+03;  1.0000000E-01;  0.0000000E+00;0;  0.0000000E+00;  0.0000000E+00;  0.0000000E+00;0; -2.4882422E-05;  4.0000000E+04;  0.0000000E+00;  0.0000000E+00;  4.0000000E+04;  0.0000000E+00;  4.0000000E+04; -1.1587647E-05;  0.0000000E+00; -1.3294775E-05;  6.1229034E+01;
 -1.0000000E-01;  9.9999998E-03;  3.8000000E-01;991;  0.0000000E+00;  0.0000000E+00;  0.0000000E+00;  1.0000000E+03;  1.0000000E-01;  0.0000000E+00;0;  0.0000000E+00;  0.0000000E+00;  0.0000000E+00;0; -1.4691968E-05;  4.0000000E+04;  0.0000000E+00;  0.0000000E+00;  4.0000000E+04;  0.0000000E+00;  4.0000000E+04; -6.5564850E-06;  0.0000000E+00; -8.1354838E-06;  3.6347424E+01;
 -1.0000000E-01;  9.9999998E-03;  3.8999999E-01;992;  0.0000000E+00;  0.0000000E+00;  0.0000000E+00;  1.0000000E+03;  1.0000000E-01;  0.0000000E+00;0;  0.0000000E+00;  0.0000000E+00;  0.0000000E+00;0; -7.4218315E-06;  4.0000000E+04;  0.0000000E+00;  0.0000000E+00;  4.0000000E+04;  0.0000000E+00;  4.0000000E+04; -3.1464763E-06;  0.0000000E+00; -4.2753554E-06;  1.8079050E+01;
 -1.0000000E-01;  9.9999998E-03;  4.0000001E-01;993;  0.0000000E+00;  0.0000000E+00;  0.0000000E+00;  1.0000000E+03;  1.0000000E-01;  0.0000000E+00;0;  0.0000000E+00;  0.0000000E+00;  0.0000000E+00;0; -2.9535511E-06;  4.0000000E+04;  0.0000000E+00;  0.0000000E+00;  4.0000000E+04;  0.0000000E+00;  4.0000000E+04; -1.1872032E-06;  0.0000000E+00; -1.7663479E-06;  6.8965111E+00;
 -9.0000004E-02;  9.9999998E-03;  2.3999999E-01;1068;  0.0000000E+00;  0.0000000E+00;  0.0000000E+00;  1.0000000E+03;  1.0000000E-01;  0.0000000E+00;0;  0.0000000E+00;  0.0000000E+00;  0.0000000E+00;0; -1.5512586E-04;  4.0000000E+04;  0.0000000E+00;  0.0000000E+00;  4.0000000E+04;  0.0000000E+00;  4.0000000E+04; -1.5109910E-04;  0.0000000E+00; -4.0267632E-06;  4.9251782E+02;
 -9.0000004E-02;  9.9999998E-03;  2.5000000E-01;1069;  0.0000000E+00;  0.0000000E+00;  0.0000000E+00;  1.0000000E+03;  1.0000000E-01;  0.0000000E+00;0;  0.0000000E+00;  0.0000000E+00;  0.0000000E+00;0; -1.6245861E-04;  4.0000000E+04;  0.0000000E+00;  0.0000000E+00;  4.0000000E+04;  0.0000000E+00;  4.0000000E+04; -1.3851604E-04;  0.0000000E+00; -2.3942577E-05;  3.9426602E+02;
 -9.0000004E-02;  9.9999998E-03;  2.5999999E-01;1070;  0.0000000E+00;  0.0000000E+00;  0.0000000E+00;  1.0000056E+03;  1.0000000E-01;  4.6418438E+00;0;  0.0000000E+00;  0.0000000E+00;  0.0000000E+00;0; -1.7542444E-04;  4.0000000E+04;  0.0000000E+00;  0.0000000E+00;  4.0000000E+04;  0.0000000E+00;  4.0000000E+04; -1.3202766E-04;  0.0000000E+00; -4.3396780E-05;  2.7432413E+02;
 -9.0000004E-02;  9.9999998E-03;  2.7000001E-01;1071;  0.0000000E+00;  0.0000000E+00;  0.0000000E+00;  1.0000208E+03;  1.0000000E-01;  1.7184700E+01;0;  0.0000000E+00;  0.0000000E+00;  0.0000000E+00;0; -1.9018077E-04;  4.0000000E+04;  0.0000000E+00;  0.0000000E+00;  4.0000000E+04;  0.0000000E+00;  4.0000000E+04; -1.2948050E-04;  0.0000000E+00; -6.0700269E-05;  1.4422926E+02;
 -9.0000004E-02;  9.9999998E-03;  2.8000000E-01;1072;  0.0000000E+00;  0.0000000E+00;  0.0000000E+00;  1.0000410E+03;  1.0000000E-01;  3.3974346E+01;0;  0.0000000E+00;  0.0000000E+00;  0.0000000E+00;0; -2.0268394E-04;  4.0000000E+04;  0.0000000E+00;  0.0000000E+00;  4.0000000E+04;  0.0000000E+00;  4.0000000E+04; -1.2834366E-04;  0.0000000E+00; -7.4340271E-05;  3.7138046E+01;
 -9.0000004E-02;  9.9999998E-03;  2.8999999E-01;1073;  0.0000000E+00;  0.0000000E+00;  0.0000000E+00;  1.0000502E+03;  1.0000000E-01;  4.1579071E+01;0;  0.0000000E+00;  0.0000000E+00;  0.0000000E+00;0; -2.0942421E-04;  4.0000000E+04;  0.0000000E+00;  0.0000000E+00;  4.0000000E+04;  0.0000000E+00;  4.0000000E+04; -1.2622635E-04;  0.0000000E+00; -8.3197854E-05;  1.1474981E+02;
 -9.0000004E-02;  9.9999998E-03;  3.0000001E-01;1074;  0.0000000E+00;  0.0000000E+00;  0.0000000E+00;  1.0000848E+03;  1.0000000E-01;  7.0319000E+01;0;  0.0000000E+00;  0.0000000E+00;  0.0000000E+00;0; -2.0804544E-04;  4.0000000E+04;  0.0000000E+00;  0.0000000E+00;  4.0000000E+04;  0.0000000E+00;  4.0000000E+04; -1.2132260E-04;  0.0000000E+00; -8.6722845E-05;  2.0458258E+02;
 -9.0000004E-02;  9.9999998E-03;  3.1000000E-01;1075;  0.0000000E+00;  0.0000000E+00;  0.0000000E+00;  1.0000652E+03;  1.0000000E-01;  5.4023163E+01;0;  0.0000000E+00;  0.0000000E+00;  0.0000000E+00;0; -1.9777517E-04;  4.0000000E+04;  0.0000000E+00;  0.0000000E+00;  4.0000000E+04;  0.0000000E+00;  4.0000000E+04; -1.1269930E-04;  0.0000000E+00; -8.5075866E-05;  2.6476669E+02;
 -9.0000004E-02;  9.9999998E-03;  3.1999999E-01;1076;  0.0000000E+00;  0.0000000E+00;  0.0000000E+00;  1.0000800E+03;  1.0000000E-01;  6.6269730E+01;0;  0.0000000E+00;  0.0000000E+00;  0.0000000E+00;0; -1.7945247E-04;  4.0000000E+04;  0.0000000E+00;  0.0000000E+00;  4.0000000E+04;  0.0000000E+00;  4.0000000E+04; -1.0037688E-04;  0.0000000E+00; -7.9075580E-05;  2.9241891E+02;
 -9.0000004E-02;  9.9999998E-03;  3.3000001E-01;1077;  0.0000000E+00;  0.0000000E+00;  0.0000000E+00;  1.0000583E+03;  1.0000000E-01;  4.8294930E+01;0;  0.0000000E+00;  0.0000000E+00;  0.0000000E+00;0; -1.5513695E-04;  4.0000000E+04;  0.0000000E+00;  0.0000000E+00;  4.0000000E+04;  0.0000000E+00;  4.0000000E+04; -8.5198189E-05;  0.0000000E+00; -6.9938760E-05;  2.9049356E+02;
 -9.0000004E-02;  9.9999998E-03;  3.4000000E-01;1078;  0.0000000E+00;  0.0000000E+00;  0.0000000E+00;  1.0000413E+03;  1.0000000E-01;  3.4171871E+01;0;  0.0000000E+00;  0.0000000E+00;  0.0000000E+00;0; -1.2751446E-04;  4.0000000E+04;  0.0000000E+00;  0.0000000E+00;  4.0000000E+04;  0.0000000E+00;  4.0000000E+04; -6.8537673E-05;  0.0000000E+00; -5.8976788E-05;  2.6528217E+02;
 -9.0000004E-02;  9.9999998E-03;  3.4999999E-01;1079;  0.0000000E+00;  0.0000000E+00;  0.0000000E+00;  1.0000502E+03;  1.0000000E-01;  4.1579071E+01;0;  0.0000000E+00;  0.0000000E+00;  0.0000000E+00;0; -9.9307923E-05;  4.0000000E+04;  0.0000000E+00;  0.0000000E+00;  4.0000000E+04;  0.0000000E+00;  4.0000000E+04; -5.1938256E-05;  0.0000000E+00; -4.7369667E-05;  2.2452524E+02;
 -9.0000004E-02;  9.9999998E-03;  3.6000001E-01;1080;  0.0000000E+00;  0.0000000E+00;  0.0000000E+00;  1.0000438E+03;  1.0000000E-01;  3.6245888E+01;0;  0.0000000E+00;  0.0000000E+00;  0.0000000E+00;0; -7.2841329E-05;  4.0000000E+04;  0.0000000E+00;  0.0000000E+00;  4.0000000E+04;  0.0000000E+00;  4.0000000E+04; -3.6781181E-05;  0.0000000E+00; -3.6060144E-05;  1.7600102E+02;
 -9.0000004E-02;  9.9999998E-03;  3.7000000E-01;1081;  0.0000000E+00;  0.0000000E+00;  0.0000000E+00;  1.0000407E+03;  1.0000000E-01;  3.3776821E+01;0;  0.0000000E+00;  0.0000000E+00;  0.0000000E+00;0; -4.9806164E-05;  4.0000000E+04;  0.0000000E+00;  0.0000000E+00;  4.0000000E+04;  0.0000000E+00;  4.0000000E+04; -2.4061641E-05;  0.0000000E+00; -2.5744524E-05;  1.2665286E+02;
 -9.0000004E-02;  9.9999998E-03;  3.8000000E-01;1082;  0.0000000E+00;  0.0000000E+00;  0.0000000E+00;  1.0000000E+03;  1.0000000E-01;  0.0000000E+00;0;  0.0000000E+00;  0.0000000E+00;  0.0000000E+00;0; -3.1204094E-05;  4.0000000E+04;  0.0000000E+00;  0.0000000E+00;  4.0000000E+04;  0.0000000E+00;  4.0000000E+04; -1.4290829E-05;  0.0000000E+00; -1.6913265E-05;  8.2101845E+01;
 -9.0000004E-02;  9.9999998E-03;  3.8999999E-01;1083;  0.0000000E+00;  0.0000000E+00;  0.0000000E+00;  1.0000000E+03;  1.0000000E-01;  0.0000000E+00;0;  0.0000000E+00;  0.0000000E+00;  0.0000000E+00;0; -1.7384309E-05;  4.0000000E+04;  0.0000000E+00;  0.0000000E+00;  4.0000000E+04;  0.0000000E+00;  4.0000000E+04; -7.4890527E-06;  0.0000000E+00; -9.8952560E-06;  4.6351547E+01;
 -9.0000004E-02;  9.9999998E-03;  4.0000001E-01;1084;  0.0000000E+00;  0.0000000E+00;  0.0000000E+00;  1.0000000E+03;  1.0000000E-01;  0.0000000E+00;0;  0.0000000E+00;  0.0000000E+00;  0.0000000E+00;0; -8.1673697E-06;  4.0000000E+04;  0.0000000E+00;  0.0000000E+00;  4.0000000E+04;  0.0000000E+00;  4.0000000E+04; -3.3001622E-06;  0.0000000E+00; -4.8672073E-06;  2.1484983E+01;
 -7.9999998E-02;  9.9999998E-03;  2.3999999E-01;1159;  0.0000000E+00;  0.0000000E+00;  0.0000000E+00;  1.0001956E+03;  1.0000000E-01;  1.6197073E+02;0;  0.0000000E+00;  0.0000000E+00;  0.0000000E+00;0; -4.7227027E-04;  4.0000000E+04;  0.0000000E+00;  0.0000000E+00;  4.0000000E+04;  0.0000000E+00;  4.0000000E+04; -4.6220209E-04;  0.0000000E+00; -1.0068180E-05;  7.3006000E+02;
 -7.9999998E-02;  9.9999998E-03;  2.5000000E-01;1160;  0.0000000E+00;  0.0000000E+00;  0.0000000E+00;  1.0001849E+03;  1.0000000E-01;  1.5318085E+02;0;  0.0000000E+00;  0.0000000E+00;  0.0000000E+00;0; -4.6085840E-04;  4.0000000E+04;  0.0000000E+00;  0.0000000E+00;  4.0000000E+04;  0.0000000E+00;  4.0000000E+04; -4.2074881E-04;  0.0000000E+00; -4.0109586E-05;  5.8763354E+02;
 -7.9999998E-02;  9.9999998E-03;  2.5999999E-01;1161;  0.0000000E+00;  0.0000000E+00;  0.0000000E+00;  1.0001749E+03;  1.0000000E-01;  1.4488480E+02;0;  0.0000000E+00;  0.0000000E+00;  0.0000000E+00;0; -4.5543170E-04;  4.0000000E+04;  0.0000000E+00;  0.0000000E+00;  4.0000000E+04;  0.0000000E+00;  4.0000000E+04; -3.8611444E-04;  0.0000000E+00; -6.9317262E-05;  4.1262866E+02;
 -7.9999998E-02;  9.9999998E-03;  2.7000001E-01;1162;  0.0000000E+00;  0.0000000E+00;  0.0000000E+00;  1.0001885E+03;  1.0000000E-01;  1.5624249E+02;0;  0.0000000E+00;  0.0000000E+00;  0.0000000E+00;0; -4.5142119E-04;  4.0000000E+04;  0.0000000E+00;  0.0000000E+00;  4.0000000E+04;  0.0000000E+00;  4.0000000E+04; -3.5616904E-04;  0.0000000E+00; -9.5252159E-05;  2.2258922E+02;
 -7.9999998E-02;  9.9999998E-03;  2.8000000E-01;1163;  0.0000000E+00;  0.0000000E+00;  0.0000000E+00;  1.0001998E+03;  1.0000000E-01;  1.6552618E+02;0;  0.0000000E+00;  0.0000000E+00;  0.0000000E+00;0; -4.4403103E-04;  4.0000000E+04;  0.0000000E+00;  0.0000000E+00;  4.0000000E+04;  0.0000000E+00;  4.0000000E+04; -3.2831018E-04;  0.0000000E+00; -1.1572085E-04;  7.3107903E+01;
 -7.9999998E-02;  9.9999998E-03;  2.8999999E-01;1164;  0.0000000E+00;  0.0000000E+00;  0.0000000E+00;  1.0001967E+03;  1.0000000E-01;  1.6295836E+02;0;  0.0000000E+00;  0.0000000E+00;  0.0000000E+00;0; -4.2918790E-04;  4.0000000E+04;  0.0000000E+00;  0.0000000E+00;  4.0000000E+04;  0.0000000E+00;  4.0000000E+04; -3.0010010E-04;  0.0000000E+00; -1.2908778E-04;  1.7771835E+02;
 -7.9999998E-02;  9.9999998E-03;  3.0000001E-01;1165;  0.0000000E+00;  0.0000000E+00;  0.0000000E+00;  1.0001970E+03;  1.0000000E-01;  1.6325464E+02;0;  0.0000000E+00;  0.0000000E+00;  0.0000000E+00;0; -4.0434976E-04;  4.0000000E+04;  0.0000000E+00;  0.0000000E+00;  4.0000000E+04;  0.0000000E+00;  4.0000000E+04; -2.6981192E-04;  0.0000000E+00; -1.3453786E-04;  3.1355679E+02;
 -7.9999998E-02;  9.9999998E-03;  3.1000000E-01;1166;  0.0000000E+00;  0.0000000E+00;  0.0000000E+00;  1.0001769E+03;  1.0000000E-01;  1.4656375E+02;0;  0.0000000E+00;  0.0000000E+00;  0.0000000E+00;0; -3.6907228E-04;  4.0000000E+04;  0.0000000E+00;  0.0000000E+00;  4.0000000E+04;  0.0000000E+00;  4.0000000E+04; -2.3677114E-04;  0.0000000E+00; -1.3230114E-04;  4.0888324E+02;
 -7.9999998E-02;  9.9999998E-03;  3.1999999E-01;1167;  0.0000000E+00;  0.0000000E+00;  0.0000000E+00;  1.0001580E+03;  1.0000000E-01;  1.3086049E+02;0;  0.0000000E+00;  0.0000000E+00;  0.0000000E+00;0; -3.2500061E-04;  4.0000000E+04;  0.0000000E+00;  0.0000000E+00;  4.0000000E+04;  0.0000000E+00;  4.0000000E+04; -2.0141866E-04;  0.0000000E+00; -1.2358195E-04;  4.5714713E+02;
 -7.9999998E-02;  9.9999998E-03;  3.3000001E-01;1168;  0.0000000E+00;  0.0000000E+00;  0.0000000E+00;  1.0001454E+03;  1.0000000E-01;  1.2049042E+02;0;  0.0000000E+00;  0.0000000E+00;  0.0000000E+00;0; -2.7526880E-04;  4.0000000E+04;  0.0000000E+00;  0.0000000E+00;  4.0000000E+04;  0.0000000E+00;  4.0000000E+04; -1.6509726E-04;  0.0000000E+00; -1.1017156E-04;  4.6150793E+02;
 -7.9999998E-02;  9.9999998E-03;  3.4000000E-01;1169;  0.0000000E+00;  0.0000000E+00;  0.0000000E+00;  1.0001165E+03;  1.0000000E-01;  9.6491096E+01;0;  0.0000000E+00;  0.0000000E+00;  0.0000000E+00;0; -2.2364217E-04;  4.0000000E+04;  0.0000000E+00;  0.0000000E+00;  4.0000000E+04;  0.0000000E+00;  4.0000000E+04; -1.2964867E-04;  0.0000000E+00; -9.3993498E-05;  4.3025900E+02;
 -7.9999998E-02;  9.9999998E-03;  3.4999999E-01;1170;  0.0000000E+00;  0.0000000E+00;  0.0000000E+00;  1.0000714E+03;  1.0000000E-01;  5.9158821E+01;0;  0.0000000E+00;  0.0000000E+00;  0.0000000E+00;0; -1.7371748E-04;  4.0000000E+04;  0.0000000E+00;  0.0000000E+00;  4.0000000E+04;  0.0000000E+00;  4.0000000E+04; -9.6954245E-05;  0.0000000E+00; -7.6763230E-05;  3.7398193E+02;
 -7.9999998E-02;  9.9999998E-03;  3.6000001E-01;1171;  0.0000000E+00;  0.0000000E+00;  0.0000000E+00;  1.0000682E+03;  1.0000000E-01;  5.6492229E+01;0;  0.0000000E+00;  0.0000000E+00;  0.0000000E+00;0; -1.2837350E-04;  4.0000000E+04;  0.0000000E+00;  0.0000000E+00;  4.0000000E+04;  0.0000000E+00;  4.0000000E+04; -6.8544767E-05;  0.0000000E+00; -5.9828733E-05;  3.0348700E+02;
 -7.9999998E-02;  9.9999998E-03;  3.7000000E-01;1172;  0.0000000E+00;  0.0000000E+00;  0.0000000E+00;  1.0000494E+03;  1.0000000E-01;  4.0986496E+01;0;  0.0000000E+00;  0.0000000E+00;  0.0000000E+00;0; -8.9530731E-05;  4.0000000E+04;  0.0000000E+00;  0.0000000E+00;  4.0000000E+04;  0.0000000E+00;  4.0000000E+04; -4.5369357E-05;  0.0000000E+00; -4.4161377E-05;  2.2860849E+02;
 -7.9999998E-02;  9.9999998E-03;  3.8000000E-01;1173;  0.0000000E+00;  0.0000000E+00;  0.0000000E+00;  1.0000444E+03;  1.0000000E-01;  3.6739700E+01;0;  0.0000000E+00;  0.0000000E+00;  0.0000000E+00;0; -5.8158737E-05;  4.0000000E+04;  0.0000000E+00;  0.0000000E+00;  4.0000000E+04;  0.0000000E+00;  4.0000000E+04; -2.7727128E-05;  0.0000000E+00; -3.0431607E-05;  1.5762477E+02;
 -7.9999998E-02;  9.9999998E-03;  3.8999999E-01;1174;  0.0000000E+00;  0.0000000E+00;  0.0000000E+00;  1.0000000E+03;  1.0000000E-01;  0.0000000E+00;0;  0.0000000E+00;  0.0000000E+00;  0.0000000E+00;0; -3.4412318E-05;  4.0000000E+04;  0.0000000E+00;  0.0000000E+00;  4.0000000E+04;  0.0000000E+00;  4.0000000E+04; -1.5312655E-05;  0.0000000E+00; -1.9099663E-05;  9.6995384E+01;
 -7.9999998E-02;  9.9999998E-03;  4.0000001E-01;1175;  0.0000000E+00;  0.0000000E+00;  0.0000000E+00;  1.0000000E+03;  1.0000000E-01;  0.0000000E+00;0;  0.0000000E+00;  0.0000000E+00;  0.0000000E+00;0; -1.7852850E-05;  4.0000000E+04;  0.0000000E+00;  0.0000000E+00;  4.0000000E+04;  0.0000000E+00;  4.0000000E+04; -7.3833971E-06;  0.0000000E+00; -1.0469453E-05;  5.1016975E+01;
 -7.0000000E-02;  9.9999998E-03;  2.3999999E-01;1250;  0.0000000E+00;  0.0000000E+00;  0.0000000E+00;  1.0005715E+03;  1.0000000E-01;  4.7346808E+02;0;  0.0000000E+00;  0.0000000E+00;  0.0000000E+00;0; -9.9107448E-04;  4.0000000E+04;  0.0000000E+00;  0.0000000E+00;  4.0000000E+04;  0.0000000E+00;  4.0000000E+04; -9.7149477E-04;  0.0000000E+00; -1.9579767E-05;  1.0256730E+03;
 -7.0000000E-02;  9.9999998E-03;  2.5000000E-01;1251;  0.0000000E+00;  0.0000000E+00;  0.0000000E+00;  1.0005299E+03;  1.0000000E-01;  4.3899994E+02;0;  0.0000000E+00;  0.0000000E+00;  0.0000000E+00;0; -9.4614411E-04;  4.0000000E+04;  0.0000000E+00;  0.0000000E+00;  4.0000000E+04;  0.0000000E+00;  4.0000000E+04; -8.8381208E-04;  0.0000000E+00; -6.2331994E-05;  8.3064099E+02;
 -7.0000000E-02;  9.9999998E-03;  2.5999999E-01;1252;  0.0000000E+00;  0.0000000E+00;  0.0000000E+00;  1.0005008E+03;  1.0000000E-01;  4.1490186E+02;0;  0.0000000E+00;  0.0000000E+00;  0.0000000E+00;0; -9.0705673E-04;  4.0000000E+04;  0.0000000E+00;  0.0000000E+00;  4.0000000E+04;  0.0000000E+00;  4.0000000E+04; -8.0323237E-04;  0.0000000E+00; -1.0382436E-04;  5.8888293E+02;
 -7.0000000E-02;  9.9999998E-03;  2.7000001E-01;1253;  0.0000000E+00;  0.0000000E+00;  0.0000000E+00;  1.0004768E+03;  1.0000000E-01;  3.9505057E+02;0;  0.0000000E+00;  0.0000000E+00;  0.0000000E+00;0; -8.6854951E-04;  4.0000000E+04;  0.0000000E+00;  0.0000000E+00;  4.0000000E+04;  0.0000000E+00;  4.0000000E+04; -7.2787155E-04;  0.0000000E+00; -1.4067795E-04;  3.2582828E+02;
 -7.0000000E-02;  9.9999998E-03;  2.8000000E-01;1254;  0.0000000E+00;  0.0000000E+00;  0.0000000E+00;  1.0004544E+03;  1.0000000E-01;  3.7648318E+02;0;  0.0000000E+00;  0.0000000E+00;  0.0000000E+00;0; -8.2508486E-04;  4.0000000E+04;  0.0000000E+00;  0.0000000E+00;  4.0000000E+04;  0.0000000E+00;  4.0000000E+04; -6.5526599E-04;  0.0000000E+00; -1.6981889E-04;  1.2533185E+02;
 -7.0000000E-02;  9.9999998E-03;  2.8999999E-01;1255;  0.0000000E+00;  0.0000000E+00;  0.0000000E+00;  1.0004376E+03;  1.0000000E-01;  3.6255765E+02;0;  0.0000000E+00;  0.0000000E+00;  0.0000000E+00;0; -7.7208946E-04;  4.0000000E+04;  0.0000000E+00;  0.0000000E+00;  4.0000000E+04;  0.0000000E+00;  4.0000000E+04; -5.8316783E-04;  0.0000000E+00; -1.8892167E-04;  2.6014651E+02;
 -7.0000000E-02;  9.9999998E-03;  3.0000001E-01;1256;  0.0000000E+00;  0.0000000E+00;  0.0000000E+00;  1.0004042E+03;  1.0000000E-01;  3.3490411E+02;0;  0.0000000E+00;  0.0000000E+00;  0.0000000E+00;0; -7.0703245E-04;  4.0000000E+04;  0.0000000E+00;  0.0000000E+00;  4.0000000E+04;  0.0000000E+00;  4.0000000E+04; -5.1023002E-04;  0.0000000E+00; -1.9680242E-04;  4.5314304E+02;
 -7.0000000E-02;  9.9999998E-03;  3.1000000E-01;1257;  0.0000000E+00;  0.0000000E+00;  0.0000000E+00;  1.0003715E+03;  1.0000000E-01;  3.0774438E+02;0;  0.0000000E+00;  0.0000000E+00;  0.0000000E+00;0; -6.3016836E-04;  4.0000000E+04;  0.0000000E+00;  0.0000000E+00;  4.0000000E+04;  0.0000000E+00;  4.0000000E+04; -4.3640277E-04;  0.0000000E+00; -1.9376558E-04;  5.9361261E+02;
 -7.0000000E-02;  9.9999998E-03;  3.1999999E-01;1258;  0.0000000E+00;  0.0000000E+00;  0.0000000E+00;  1.0003339E+03;  1.0000000E-01;  2.7663416E+02;0;  0.0000000E+00;  0.0000000E+00;  0.0000000E+00;0; -5.4445898E-04;  4.0000000E+04;  0.0000000E+00;  0.0000000E+00;  4.0000000E+04;  0.0000000E+00;  4.0000000E+04; -3.6294048E-04;  0.0000000E+00; -1.8151847E-04;  6.6939874E+02;
 -7.0000000E-02;  9.9999998E-03;  3.3000001E-01;1259;  0.0000000E+00;  0.0000000E+00;  0.0000000E+00;  1.0002649E+03;  1.0000000E-01;  2.1945058E+02;0;  0.0000000E+00;  0.0000000E+00;  0.0000000E+00;0; -4.5465044E-04;  4.0000000E+04;  0.0000000E+00;  0.0000000E+00;  4.0000000E+04;  0.0000000E+00;  4.0000000E+04; -2.9203889E-04;  0.0000000E+00; -1.6261153E-04;  6.8366174E+02;
 -7.0000000E-02;  9.9999998E-03;  3.4000000E-01;1260;  0.0000000E+00;  0.0000000E+00;  0.0000000E+00;  1.0002136E+03;  1.0000000E-01;  1.7688388E+02;0;  0.0000000E+00;  0.0000000E+00;  0.0000000E+00;0; -3.6602502E-04;  4.0000000E+04;  0.0000000E+00;  0.0000000E+00;  4.0000000E+04;  0.0000000E+00;  4.0000000E+04; -2.2625129E-04;  0.0000000E+00; -1.3977375E-04;  6.4705090E+02;
 -7.0000000E-02;  9.9999998E-03;  3.4999999E-01;1261;  0.0000000E+00;  0.0000000E+00;  0.0000000E+00;  1.0001500E+03;  1.0000000E-01;  1.2424340E+02;0;  0.0000000E+00;  0.0000000E+00;  0.0000000E+00;0; -2.8330789E-04;  4.0000000E+04;  0.0000000E+00;  0.0000000E+00;  4.0000000E+04;  0.0000000E+00;  4.0000000E+04; -1.6789272E-04;  0.0000000E+00; -1.1541517E-04;  5.7352417E+02;
 -7.0000000E-02;  9.9999998E-03;  3.6000001E-01;1262;  0.0000000E+00;  0.0000000E+00;  0.0000000E+00;  1.0000938E+03;  1.0000000E-01;  7.7726196E+01;0;  0.0000000E+00;  0.0000000E+00;  0.0000000E+00;0; -2.0999322E-04;  4.0000000E+04;  0.0000000E+00;  0.0000000E+00;  4.0000000E+04;  0.0000000E+00;  4.0000000E+04; -1.1859599E-04;  0.0000000E+00; -9.1397218E-05;  4.7741199E+02;
 -7.0000000E-02;  9.9999998E-03;  3.7000000E-01;1263;  0.0000000E+00;  0.0000000E+00;  0.0000000E+00;  1.0000927E+03;  1.0000000E-01;  7.6837334E+01;0;  0.0000000E+00;  0.0000000E+00;  0.0000000E+00;0; -1.4812037E-04;  4.0000000E+04;  0.0000000E+00;  0.0000000E+00;  4.0000000E+04;  0.0000000E+00;  4.0000000E+04; -7.9098412E-05;  0.0000000E+00; -6.9021953E-05;  3.7185315E+02;
 -7.0000000E-02;  9.9999998E-03;  3.8000000E-01;1264;  0.0000000E+00;  0.0000000E+00;  0.0000000E+00;  1.0000561E+03;  1.0000000E-01;  4.6517204E+01;0;  0.0000000E+00;  0.0000000E+00;  0.0000000E+00;0; -9.8397810E-05;  4.0000000E+04;  0.0000000E+00;  0.0000000E+00;  4.0000000E+04;  0.0000000E+00;  4.0000000E+04; -4.9245878E-05;  0.0000000E+00; -4.9151928E-05;  2.6810272E+02;
 -7.0000000E-02;  9.9999998E-03;  3.8999999E-01;1265;  0.0000000E+00;  0.0000000E+00;  0.0000000E+00;  1.0000443E+03;  1.0000000E-01;  3.6739700E+01;0;  0.0000000E+00;  0.0000000E+00;  0.0000000E+00;0; -6.0497645E-05;  4.0000000E+04;  0.0000000E+00;  0.0000000E+00;  4.0000000E+04;  0.0000000E+00;  4.0000000E+04; -2.8133793E-05;  0.0000000E+00; -3.2363852E-05;  1.7538417E+02;
 -7.0000000E-02;  9.9999998E-03;  4.0000001E-01;1266;  0.0000000E+00;  0.0000000E+00;  0.0000000E+00;  1.0000000E+03;  1.0000000E-01;  0.0000000E+00;0;  0.0000000E+00;  0.0000000E+00;  0.0000000E+00;0; -3.3428274E-05;  4.0000000E+04;  0.0000000E+00;  0.0000000E+00;  4.0000000E+04;  0.0000000E+00;  4.0000000E+04; -1.4361788E-05;  0.0000000E+00; -1.9066485E-05;  1.0063958E+02;
 -5.9999999E-02;  9.9999998E-03;  2.3999999E-01;1341;  0.0000000E+00;  0.0000000E+00;  0.0000000E+00;  1.0011649E+03;  1.0000000E-01;  9.6510852E+02;0;  0.0000000E+00;  0.0000000E+00;  0.0000000E+00;0; -1.7571020E-03;  4.0000000E+04;  0.0000000E+00;  0.0000000E+00;  4.0000000E+04;  0.0000000E+00;  4.0000000E+04; -1.7239634E-03;  0.0000000E+00; -3.3138593E-05;  1.3755718E+03;
 -5.9999999E-02;  9.9999998E-03;  2.5000000E-01;1342;  0.0000000E+00;  0.0000000E+00;  0.0000000E+00;  1.0010746E+03;  1.0000000E-01;  8.9034521E+02;0;  0.0000000E+00;  0.0000000E+00;  0.0000000E+00;0; -1.6606211E-03;  4.0000000E+04;  0.0000000E+00;  0.0000000E+00;  4.0000000E+04;  0.0000000E+00;  4.0000000E+04; -1.5694993E-03;  0.0000000E+00; -9.1121881E-05;  1.1212073E+03;
 -5.9999999E-02;  9.9999998E-03;  2.5999999E-01;1343;  0.0000000E+00;  0.0000000E+00;  0.0000000E+00;  1.0010037E+03;  1.0000000E-01;  8.3148267E+02;0;  0.0000000E+00;  0.0000000E+00;  0.0000000E+00;0; -1.5692217E-03;  4.0000000E+04;  0.0000000E+00;  0.0000000E+00;  4.0000000E+04;  0.0000000E+00;  4.0000000E+04; -1.4217851E-03;  0.0000000E+00; -1.4743666E-04;  8.0194275E+02;
 -5.9999999E-02;  9.9999998E-03;  2.7000001E-01;1344;  0.0000000E+00;  0.0000000E+00;  0.0000000E+00;  1.0009334E+03;  1.0000000E-01;  7.7331146E+02;0;  0.0000000E+00;  0.0000000E+00;  0.0000000E+00;0; -1.4769742E-03;  4.0000000E+04;  0.0000000E+00;  0.0000000E+00;  4.0000000E+04;  0.0000000E+00;  4.0000000E+04; -1.2794181E-03;  0.0000000E+00; -1.9755606E-04;  4.5262775E+02;
 -5.9999999E-02;  9.9999998E-03;  2.8000000E-01;1345;  0.0000000E+00;  0.0000000E+00;  0.0000000E+00;  1.0008734E+03;  1.0000000E-01;  7.2363385E+02;0;  0.0000000E+00;  0.0000000E+00;  0.0000000E+00;0; -1.3775773E-03;  4.0000000E+04;  0.0000000E+00;  0.0000000E+00;  4.0000000E+04;  0.0000000E+00;  4.0000000E+04; -1.1402896E-03;  0.0000000E+00; -2.3728775E-04;  1.8993385E+02;
 -5.9999999E-02;  9.9999998E-03;  2.8999999E-01;1346;  0.0000000E+00;  0.0000000E+00;  0.0000000E+00;  1.0008030E+03;  1.0000000E-01;  6.6526514E+02;0;  0.0000000E+00;  0.0000000E+00;  0.0000000E+00;0; -1.2660008E-03;  4.0000000E+04;  0.0000000E+00;  0.0000000E+00;  4.0000000E+04;  0.0000000E+00;  4.0000000E+04; -1.0026082E-03;  0.0000000E+00; -2.6339255E-04;  3.6054688E+02;
 -5.9999999E-02;  9.9999998E-03;  3.0000001E-01;1347;  0.0000000E+00;  0.0000000E+00;  0.0000000E+00;  1.0007267E+03;  1.0000000E-01;  6.0205707E+02;0;  0.0000000E+00;  0.0000000E+00;  0.0000000E+00;0; -1.1399549E-03;  4.0000000E+04;  0.0000000E+00;  0.0000000E+00;  4.0000000E+04;  0.0000000E+00;  4.0000000E+04; -8.6578267E-04;  0.0000000E+00; -2.7417223E-04;  6.2236011E+02;
 -5.9999999E-02;  9.9999998E-03;  3.1000000E-01;1348;  0.0000000E+00;  0.0000000E+00;  0.0000000E+00;  1.0006411E+03;  1.0000000E-01;  5.3114545E+02;0;  0.0000000E+00;  0.0000000E+00;  0.0000000E+00;0; -1.0008834E-03;  4.0000000E+04;  0.0000000E+00;  0.0000000E+00;  4.0000000E+04;  0.0000000E+00;  4.0000000E+04; -7.3088112E-04;  0.0000000E+00; -2.7000232E-04;  8.1777313E+02;
 -5.9999999E-02;  9.9999998E-03;  3.1999999E-01;1349;  0.0000000E+00;  0.0000000E+00;  0.0000000E+00;  1.0005532E+03;  1.0000000E-01;  4.5825864E+02;0;  0.0000000E+00;  0.0000000E+00;  0.0000000E+00;0; -8.5376203E-04;  4.0000000E+04;  0.0000000E+00;  0.0000000E+00;  4.0000000E+04;  0.0000000E+00;  4.0000000E+04; -6.0052512E-04;  0.0000000E+00; -2.5323694E-04;  9.2756390E+02;
 -5.9999999E-02;  9.9999998E-03;  3.3000001E-01;1350;  0.0000000E+00;  0.0000000E+00;  0.0000000E+00;  1.0004695E+03;  1.0000000E-01;  3.8902603E+02;0;  0.0000000E+00;  0.0000000E+00;  0.0000000E+00;0; -7.0567429E-04;  4.0000000E+04;  0.0000000E+00;  0.0000000E+00;  4.0000000E+04;  0.0000000E+00;  4.0000000E+04; -4.7826039E-04;  0.0000000E+00; -2.2741393E-04;  9.5497565E+02;
 -5.9999999E-02;  9.9999998E-03;  3.4000000E-01;1351;  0.0000000E+00;  0.0000000E+00;  0.0000000E+00;  1.0003732E+03;  1.0000000E-01;  3.0922583E+02;0;  0.0000000E+00;  0.0000000E+00;  0.0000000E+00;0; -5.6399172E-04;  4.0000000E+04;  0.0000000E+00;  0.0000000E+00;  4.0000000E+04;  0.0000000E+00;  4.0000000E+04; -3.6769148E-04;  0.0000000E+00; -1.9630024E-04;  9.1362805E+02;
 -5.9999999E-02;  9.9999998E-03;  3.4999999E-01;1352;  0.0000000E+00;  0.0000000E+00;  0.0000000E+00;  1.0002872E+03;  1.0000000E-01;  2.3791919E+02;0;  0.0000000E+00;  0.0000000E+00;  0.0000000E+00;0; -4.3488544E-04;  4.0000000E+04;  0.0000000E+00;  0.0000000E+00;  4.0000000E+04;  0.0000000E+00;  4.0000000E+04; -2.7169994E-04;  0.0000000E+00; -1.6318548E-04;  8.2144086E+02;
 -5.9999999E-02;  9.9999998E-03;  3.6000001E-01;1353;  0.0000000E+00;  0.0000000E+00;  0.0000000E+00;  1.0001920E+03;  1.0000000E-01;  1.5910661E+02;0;  0.0000000E+00;  0.0000000E+00;  0.0000000E+00;0; -3.2251695E-04;  4.0000000E+04;  0.0000000E+00;  0.0000000E+00;  4.0000000E+04;  0.0000000E+00;  4.0000000E+04; -1.9195492E-04;  0.0000000E+00; -1.3056202E-04;  6.9678308E+02;
 -5.9999999E-02;  9.9999998E-03;  3.7000000E-01;1354;  0.0000000E+00;  0.0000000E+00;  0.0000000E+00;  1.0001255E+03;  1.0000000E-01;  1.0399706E+02;0;  0.0000000E+00;  0.0000000E+00;  0.0000000E+00;0; -2.2888943E-04;  4.0000000E+04;  0.0000000E+00;  0.0000000E+00;  4.0000000E+04;  0.0000000E+00;  4.0000000E+04; -1.2876949E-04;  0.0000000E+00; -1.0011994E-04;  5.5637238E+02;
 -5.9999999E-02;  9.9999998E-03;  3.8000000E-01;1355;  0.0000000E+00;  0.0000000E+00;  0.0000000E+00;  1.0000936E+03;  1.0000000E-01;  7.7528671E+01;0;  0.0000000E+00;  0.0000000E+00;  0.0000000E+00;0; -1.5415635E-04;  4.0000000E+04;  0.0000000E+00;  0.0000000E+00;  4.0000000E+04;  0.0000000E+00;  4.0000000E+04; -8.1234539E-05;  0.0000000E+00; -7.2921823E-05;  4.1461981E+02;
 -5.9999999E-02;  9.9999998E-03;  3.8999999E-01;1356;  0.0000000E+00;  0.0000000E+00;  0.0000000E+00;  1.0000620E+03;  1.0000000E-01;  5.1356571E+01;0;  0.0000000E+00;  0.0000000E+00;  0.0000000E+00;0; -9.7144977E-05;  4.0000000E+04;  0.0000000E+00;  0.0000000E+00;  4.0000000E+04;  0.0000000E+00;  4.0000000E+04; -4.7510090E-05;  0.0000000E+00; -4.9634884E-05;  2.8364636E+02;
 -5.9999999E-02;  9.9999998E-03;  4.0000001E-01;1357;  0.0000000E+00;  0.0000000E+00;  0.0000000E+00;  1.0000315E+03;  1.0000000E-01;  2.6073338E+01;0;  0.0000000E+00;  0.0000000E+00;  0.0000000E+00;0; -5.5938119E-05;  4.0000000E+04;  0.0000000E+00;  0.0000000E+00;  4.0000000E+04;  0.0000000E+00;  4.0000000E+04; -2.5207377E-05;  0.0000000E+00; -3.0730742E-05;  1.7324757E+02;
 -5.0000001E-02;  9.9999998E-03;  2.3999999E-01;1432;  0.0000000E+00;  0.0000000E+00;  0.0000000E+00;  1.0020286E+03;  1.0000000E-01;  1.6806438E+03;0;  0.0000000E+00;  0.0000000E+00;  0.0000000E+00;0; -2.8012539E-03;  4.0000000E+04;  0.0000000E+00;  0.0000000E+00;  4.0000000E+04;  0.0000000E+00;  4.0000000E+04; -2.7502479E-03;  0.0000000E+00; -5.1005911E-05;  1.7689913E+03;
 -5.0000001E-02;  9.9999998E-03;  2.5000000E-01;1433;  0.0000000E+00;  0.0000000E+00;  0.0000000E+00;  1.0018770E+03;  1.0000000E-01;  1.5551165E+03;0;  0.0000000E+00;  0.0000000E+00;  0.0000000E+00;0; -2.6330752E-03;  4.0000000E+04;  0.0000000E+00;  0.0000000E+00;  4.0000000E+04;  0.0000000E+00;  4.0000000E+04; -2.5065786E-03;  0.0000000E+00; -1.2649666E-04;  1.4513846E+03;
 -5.0000001E-02;  9.9999998E-03;  2.5999999E-01;1434;  0.0000000E+00;  0.0000000E+00;  0.0000000E+00;  1.0017281E+03;  1.0000000E-01;  1.4317620E+03;0;  0.0000000E+00;  0.0000000E+00;  0.0000000E+00;0; -2.4684772E-03;  4.0000000E+04;  0.0000000E+00;  0.0000000E+00;  4.0000000E+04;  0.0000000E+00;  4.0000000E+04; -2.2684499E-03;  0.0000000E+00; -2.0002743E-04;  1.0455569E+03;
 -5.0000001E-02;  9.9999998E-03;  2.7000001E-01;1435;  0.0000000E+00;  0.0000000E+00;  0.0000000E+00;  1.0015997E+03;  1.0000000E-01;  1.3253947E+03;0;  0.0000000E+00;  0.0000000E+00;  0.0000000E+00;0; -2.3008923E-03;  4.0000000E+04;  0.0000000E+00;  0.0000000E+00;  4.0000000E+04;  0.0000000E+00;  4.0000000E+04; -2.0351829E-03;  0.0000000E+00; -2.6570930E-04;  5.9650409E+02;
 -5.0000001E-02;  9.9999998E-03;  2.8000000E-01;1436;  0.0000000E+00;  0.0000000E+00;  0.0000000E+00;  1.0014654E+03;  1.0000000E-01;  1.2140891E+03;0;  0.0000000E+00;  0.0000000E+00;  0.0000000E+00;0; -2.1231843E-03;  4.0000000E+04;  0.0000000E+00;  0.0000000E+00;  4.0000000E+04;  0.0000000E+00;  4.0000000E+04; -1.8052272E-03;  0.0000000E+00; -3.1795693E-04;  2.5657849E+02;
 -5.0000001E-02;  9.9999998E-03;  2.8999999E-01;1437;  0.0000000E+00;  0.0000000E+00;  0.0000000E+00;  1.0013339E+03;  1.0000000E-01;  1.1051539E+03;0;  0.0000000E+00;  0.0000000E+00;  0.0000000E+00;0; -1.9298496E-03;  4.0000000E+04;  0.0000000E+00;  0.0000000E+00;  4.0000000E+04;  0.0000000E+00;  4.0000000E+04; -1.5775175E-03;  0.0000000E+00; -3.5233214E-04;  4.7292261E+02;
 -5.0000001E-02;  9.9999998E-03;  3.0000001E-01;1438;  0.0000000E+00;  0.0000000E+00;  0.0000000E+00;  1.0011940E+03;  1.0000000E-01;  9.8920660E+02;0;  0.0000000E+00;  0.0000000E+00;  0.0000000E+00;0; -1.7190760E-03;  4.0000000E+04;  0.0000000E+00;  0.0000000E+00;  4.0000000E+04;  0.0000000E+00;  4.0000000E+04; -1.3526620E-03;  0.0000000E+00; -3.6641399E-04;  8.1619189E+02;
 -5.0000001E-02;  9.9999998E-03;  3.1000000E-01;1439;  0.0000000E+00;  0.0000000E+00;  0.0000000E+00;  1.0010370E+03;  1.0000000E-01;  8.5913617E+02;0;  0.0000000E+00;  0.0000000E+00;  0.0000000E+00;0; -1.4941263E-03;  4.0000000E+04;  0.0000000E+00;  0.0000000E+00;  4.0000000E+04;  0.0000000E+00;  4.0000000E+04; -1.1334957E-03;  0.0000000E+00; -3.6063057E-04;  1.0754175E+03;
 -5.0000001E-02;  9.9999998E-03;  3.1999999E-01;1440;  0.0000000E+00;  0.0000000E+00;  0.0000000E+00;  1.0008658E+03;  1.0000000E-01;  7.1731305E+02;0;  0.0000000E+00;  0.0000000E+00;  0.0000000E+00;0; -1.2629008E-03;  4.0000000E+04;  0.0000000E+00;  0.0000000E+00;  4.0000000E+04;  0.0000000E+00;  4.0000000E+04; -9.2474103E-04;  0.0000000E+00; -3.3815973E-04;  1.2243363E+03;
 -5.0000001E-02;  9.9999998E-03;  3.3000001E-01;1441;  0.0000000E+00;  0.0000000E+00;  0.0000000E+00;  1.0007175E+03;  1.0000000E-01;  5.9445233E+02;0;  0.0000000E+00;  0.0000000E+00;  0.0000000E+00;0; -1.0357546E-03;  4.0000000E+04;  0.0000000E+00;  0.0000000E+00;  4.0000000E+04;  0.0000000E+00;  4.0000000E+04; -7.3194195E-04;  0.0000000E+00; -3.0381262E-04;  1.2670570E+03;
 -5.0000001E-02;  9.9999998E-03;  3.4000000E-01;1442;  0.0000000E+00;  0.0000000E+00;  0.0000000E+00;  1.0005794E+03;  1.0000000E-01;  4.7998642E+02;0;  0.0000000E+00;  0.0000000E+00;  0.0000000E+00;0; -8.2283886E-04;  4.0000000E+04;  0.0000000E+00;  0.0000000E+00;  4.0000000E+04;  0.0000000E+00;  4.0000000E+04; -5.6016946E-04;  0.0000000E+00; -2.6266937E-04;  1.2210656E+03;
 -5.0000001E-02;  9.9999998E-03;  3.4999999E-01;1443;  0.0000000E+00;  0.0000000E+00;  0.0000000E+00;  1.0004499E+03;  1.0000000E-01;  3.7273019E+02;0;  0.0000000E+00;  0.0000000E+00;  0.0000000E+00;0; -6.3210080E-04;  4.0000000E+04;  0.0000000E+00;  0.0000000E+00;  4.0000000E+04;  0.0000000E+00;  4.0000000E+04; -4.1300058E-04;  0.0000000E+00; -2.1910021E-04;  1.1090835E+03;
 -5.0000001E-02;  9.9999998E-03;  3.6000001E-01;1444;  0.0000000E+00;  0.0000000E+00;  0.0000000E+00;  1.0003278E+03;  1.0000000E-01;  2.7149850E+02;0;  0.0000000E+00;  0.0000000E+00;  0.0000000E+00;0; -4.6837021E-04;  4.0000000E+04;  0.0000000E+00;  0.0000000E+00;  4.0000000E+04;  0.0000000E+00;  4.0000000E+04; -2.9202426E-04;  0.0000000E+00; -1.7634596E-04;  9.5389813E+02;
 -5.0000001E-02;  9.9999998E-03;  3.7000000E-01;1445;  0.0000000E+00;  0.0000000E+00;  0.0000000E+00;  1.0002075E+03;  1.0000000E-01;  1.7184698E+02;0;  0.0000000E+00;  0.0000000E+00;  0.0000000E+00;0; -3.3338048E-04;  4.0000000E+04;  0.0000000E+00;  0.0000000E+00;  4.0000000E+04;  0.0000000E+00;  4.0000000E+04; -1.9684462E-04;  0.0000000E+00; -1.3653586E-04;  7.7596252E+02;
 -5.0000001E-02;  9.9999998E-03;  3.8000000E-01;1446;  0.0000000E+00;  0.0000000E+00;  0.0000000E+00;  1.0001434E+03;  1.0000000E-01;  1.1881145E+02;0;  0.0000000E+00;  0.0000000E+00;  0.0000000E+00;0; -2.2637093E-04;  4.0000000E+04;  0.0000000E+00;  0.0000000E+00;  4.0000000E+04;  0.0000000E+00;  4.0000000E+04; -1.2543464E-04;  0.0000000E+00; -1.0093630E-04;  5.9279993E+02;
 -5.0000001E-02;  9.9999998E-03;  3.8999999E-01;1447;  0.0000000E+00;  0.0000000E+00;  0.0000000E+00;  1.0000916E+03;  1.0000000E-01;  7.5849709E+01;0;  0.0000000E+00;  0.0000000E+00;  0.0000000E+00;0; -1.4491059E-04;  4.0000000E+04;  0.0000000E+00;  0.0000000E+00;  4.0000000E+04;  0.0000000E+00;  4.0000000E+04; -7.4636344E-05;  0.0000000E+00; -7.0274247E-05;  4.1932178E+02;
 -5.0000001E-02;  9.9999998E-03;  4.0000001E-01;1448;  0.0000000E+00;  0.0000000E+00;  0.0000000E+00;  1.0000590E+03;  1.0000000E-01;  4.8887505E+01;0;  0.0000000E+00;  0.0000000E+00;  0.0000000E+00;0; -8.5737294E-05;  4.0000000E+04;  0.0000000E+00;  0.0000000E+00;  4.0000000E+04;  0.0000000E+00;  4.0000000E+04; -4.0707586E-05;  0.0000000E+00; -4.5029708E-05;  2.6817587E+02;
 -3.9999999E-02;  9.9999998E-03;  2.3999999E-01;1523;  0.0000000E+00;  0.0000000E+00;  0.0000000E+00;  1.0031845E+03;  1.0000000E-01;  2.6383452E+03;0;  0.0000000E+00;  0.0000000E+00;  0.0000000E+00;0; -4.1295141E-03;  4.0000000E+04;  0.0000000E+00;  0.0000000E+00;  4.0000000E+04;  0.0000000E+00;  4.0000000E+04; -4.0564882E-03;  0.0000000E+00; -7.3025767E-05;  2.1880330E+03;
 -3.9999999E-02;  9.9999998E-03;  2.5000000E-01;1524;  0.0000000E+00;  0.0000000E+00;  0.0000000E+00;  1.0029375E+03;  1.0000000E-01;  2.4337090E+03;0;  0.0000000E+00;  0.0000000E+00;  0.0000000E+00;0; -3.8690777E-03;  4.0000000E+04;  0.0000000E+00;  0.0000000E+00;  4.0000000E+04;  0.0000000E+00;  4.0000000E+04; -3.7012312E-03;  0.0000000E+00; -1.6784640E-04;  1.8077019E+03;
 -3.9999999E-02;  9.9999998E-03;  2.5999999E-01;1525;  0.0000000E+00;  0.0000000E+00;  0.0000000E+00;  1.0027071E+03;  1.0000000E-01;  2.2428008E+03;0;  0.0000000E+00;  0.0000000E+00;  0.0000000E+00;0; -3.6098710E-03;  4.0000000E+04;  0.0000000E+00;  0.0000000E+00;  4.0000000E+04;  0.0000000E+00;  4.0000000E+04; -3.3492267E-03;  0.0000000E+00; -2.6064424E-04;  1.3094366E+03;
 -3.9999999E-02;  9.9999998E-03;  2.7000001E-01;1526;  0.0000000E+00;  0.0000000E+00;  0.0000000E+00;  1.0024821E+03;  1.0000000E-01;  2.0564355E+03;0;  0.0000000E+00;  0.0000000E+00;  0.0000000E+00;0; -3.3447358E-03;  4.0000000E+04;  0.0000000E+00;  0.0000000E+00;  4.0000000E+04;  0.0000000E+00;  4.0000000E+04; -3.0007602E-03;  0.0000000E+00; -3.4397558E-04;  7.4791278E+02;
 -3.9999999E-02;  9.9999998E-03;  2.8000000E-01;1527;  0.0000000E+00;  0.0000000E+00;  0.0000000E+00;  1.0022695E+03;  1.0000000E-01;  1.8802432E+03;0;  0.0000000E+00;  0.0000000E+00;  0.0000000E+00;0; -3.0656061E-03;  4.0000000E+04;  0.0000000E+00;  0.0000000E+00;  4.0000000E+04;  0.0000000E+00;  4.0000000E+04; -2.6550272E-03;  0.0000000E+00; -4.1057888E-04;  3.1101498E+02;
 -3.9999999E-02;  9.9999998E-03;  2.8999999E-01;1528;  0.0000000E+00;  0.0000000E+00;  0.0000000E+00;  1.0020372E+03;  1.0000000E-01;  1.6877548E+03;0;  0.0000000E+00;  0.0000000E+00;  0.0000000E+00;0; -2.7663985E-03;  4.0000000E+04;  0.0000000E+00;  0.0000000E+00;  4.0000000E+04;  0.0000000E+00;  4.0000000E+04; -2.3119384E-03;  0.0000000E+00; -4.5445998E-04;  5.8789136E+02;
 -3.9999999E-02;  9.9999998E-03;  3.0000001E-01;1529;  0.0000000E+00;  0.0000000E+00;  0.0000000E+00;  1.0018035E+03;  1.0000000E-01;  1.4941799E+03;0;  0.0000000E+00;  0.0000000E+00;  0.0000000E+00;0; -2.4459935E-03;  4.0000000E+04;  0.0000000E+00;  0.0000000E+00;  4.0000000E+04;  0.0000000E+00;  4.0000000E+04; -1.9738150E-03;  0.0000000E+00; -4.7217857E-04;  1.0256436E+03;
 -3.9999999E-02;  9.9999998E-03;  3.1000000E-01;1530;  0.0000000E+00;  0.0000000E+00;  0.0000000E+00;  1.0015530E+03;  1.0000000E-01;  1.2866797E+03;0;  0.0000000E+00;  0.0000000E+00;  0.0000000E+00;0; -2.1102205E-03;  4.0000000E+04;  0.0000000E+00;  0.0000000E+00;  4.0000000E+04;  0.0000000E+00;  4.0000000E+04; -1.6460620E-03;  0.0000000E+00; -4.6415837E-04;  1.3554692E+03;
 -3.9999999E-02;  9.9999998E-03;  3.1999999E-01;1531;  0.0000000E+00;  0.0000000E+00;  0.0000000E+00;  1.0013073E+03;  1.0000000E-01;  1.0830311E+03;0;  0.0000000E+00;  0.0000000E+00;  0.0000000E+00;0; -1.7710915E-03;  4.0000000E+04;  0.0000000E+00;  0.0000000E+00;  4.0000000E+04;  0.0000000E+00;  4.0000000E+04; -1.3364557E-03;  0.0000000E+00; -4.3463576E-04;  1.5461022E+03;
 -3.9999999E-02;  9.9999998E-03;  3.3000001E-01;1532;  0.0000000E+00;  0.0000000E+00;  0.0000000E+00;  1.0010822E+03;  1.0000000E-01;  8.9656726E+02;0;  0.0000000E+00;  0.0000000E+00;  0.0000000E+00;0; -1.4433740E-03;  4.0000000E+04;  0.0000000E+00;  0.0000000E+00;  4.0000000E+04;  0.0000000E+00;  4.0000000E+04; -1.0533265E-03;  0.0000000E+00; -3.9004747E-04;  1.6042457E+03;
 -3.9999999E-02;  9.9999998E-03;  3.4000000E-01;1533;  0.0000000E+00;  0.0000000E+00;  0.0000000E+00;  1.0008381E+03;  1.0000000E-01;  6.9440009E+02;0;  0.0000000E+00;  0.0000000E+00;  0.0000000E+00;0; -1.1407275E-03;  4.0000000E+04;  0.0000000E+00;  0.0000000E+00;  4.0000000E+04;  0.0000000E+00;  4.0000000E+04; -8.0363476E-04;  0.0000000E+00; -3.3709282E-04;  1.5527916E+03;
 -3.9999999E-02;  9.9999998E-03;  3.4999999E-01;1534;  0.0000000E+00;  0.0000000E+00;  0.0000000E+00;  1.0006448E+03;  1.0000000E-01;  5.3420709E+02;0;  0.0000000E+00;  0.0000000E+00;  0.0000000E+00;0; -8.7311876E-04;  4.0000000E+04;  0.0000000E+00;  0.0000000E+00;  4.0000000E+04;  0.0000000E+00;  4.0000000E+04; -5.9170317E-04;  0.0000000E+00; -2.8141559E-04;  1.4200767E+03;
 -3.9999999E-02;  9.9999998E-03;  3.6000001E-01;1535;  0.0000000E+00;  0.0000000E+00;  0.0000000E+00;  1.0004939E+03;  1.0000000E-01;  4.0917361E+02;0;  0.0000000E+00;  0.0000000E+00;  0.0000000E+00;0; -6.4591068E-04;  4.0000000E+04;  0.0000000E+00;  0.0000000E+00;  4.0000000E+04;  0.0000000E+00;  4.0000000E+04; -4.1880776E-04;  0.0000000E+00; -2.2710291E-04;  1.2336184E+03;
 -3.9999999E-02;  9.9999998E-03;  3.7000000E-01;1536;  0.0000000E+00;  0.0000000E+00;  0.0000000E+00;  1.0003372E+03;  1.0000000E-01;  2.7930075E+02;0;  0.0000000E+00;  0.0000000E+00;  0.0000000E+00;0; -4.6021963E-04;  4.0000000E+04;  0.0000000E+00;  0.0000000E+00;  4.0000000E+04;  0.0000000E+00;  4.0000000E+04; -2.8346191E-04;  0.0000000E+00; -1.7675772E-04;  1.0175192E+03;
 -3.9999999E-02;  9.9999998E-03;  3.8000000E-01;1537;  0.0000000E+00;  0.0000000E+00;  0.0000000E+00;  1.0002114E+03;  1.0000000E-01;  1.7520493E+02;0;  0.0000000E+00;  0.0000000E+00;  0.0000000E+00;0; -3.1393662E-04;  4.0000000E+04;  0.0000000E+00;  0.0000000E+00;  4.0000000E+04;  0.0000000E+00;  4.0000000E+04; -1.8208592E-04;  0.0000000E+00; -1.3185071E-04;  7.9207031E+02;
 -3.9999999E-02;  9.9999998E-03;  3.8999999E-01;1538;  0.0000000E+00;  0.0000000E+00;  0.0000000E+00;  1.0001362E+03;  1.0000000E-01;  1.1278693E+02;0;  0.0000000E+00;  0.0000000E+00;  0.0000000E+00;0; -2.0293768E-04;  4.0000000E+04;  0.0000000E+00;  0.0000000E+00;  4.0000000E+04;  0.0000000E+00;  4.0000000E+04; -1.0979410E-04;  0.0000000E+00; -9.3143579E-05;  5.7463635E+02;
 -3.9999999E-02;  9.9999998E-03;  4.0000001E-01;1539;  0.0000000E+00;  0.0000000E+00;  0.0000000E+00;  1.0000756E+03;  1.0000000E-01;  6.2615513E+01;0;  0.0000000E+00;  0.0000000E+00;  0.0000000E+00;0; -1.2220501E-04;  4.0000000E+04;  0.0000000E+00;  0.0000000E+00;  4.0000000E+04;  0.0000000E+00;  4.0000000E+04; -6.1130733E-05;  0.0000000E+00; -6.1074265E-05;  3.8041550E+02;
 -2.9999999E-02;  9.9999998E-03;  2.3999999E-01;1614;  0.0000000E+00;  0.0000000E+00;  0.0000000E+00;  1.0046389E+03;  1.0000000E-01;  3.8432493E+03;0;  0.0000000E+00;  0.0000000E+00;  0.0000000E+00;0; -5.7165055E-03;  4.0000000E+04;  0.0000000E+00;  0.0000000E+00;  4.0000000E+04;  0.0000000E+00;  4.0000000E+04; -5.6179082E-03;  0.0000000E+00; -9.8597484E-05;  2.6088367E+03;
 -2.9999999E-02;  9.9999998E-03;  2.5000000E-01;1615;  0.0000000E+00;  0.0000000E+00;  0.0000000E+00;  1.0042778E+03;  1.0000000E-01;  3.5440974E+03;0;  0.0000000E+00;  0.0000000E+00;  0.0000000E+00;0; -5.3446498E-03;  4.0000000E+04;  0.0000000E+00;  0.0000000E+00;  4.0000000E+04;  0.0000000E+00;  4.0000000E+04; -5.1308144E-03;  0.0000000E+00; -2.1383543E-04;  2.1731418E+03;
 -2.9999999E-02;  9.9999998E-03;  2.5999999E-01;1616;  0.0000000E+00;  0.0000000E+00;  0.0000000E+00;  1.0039427E+03;  1.0000000E-01;  3.2664756E+03;0;  0.0000000E+00;  0.0000000E+00;  0.0000000E+00;0; -4.9706628E-03;  4.0000000E+04;  0.0000000E+00;  0.0000000E+00;  4.0000000E+04;  0.0000000E+00;  4.0000000E+04; -4.6433518E-03;  0.0000000E+00; -3.2731119E-04;  1.5825713E+03;
 -2.9999999E-02;  9.9999998E-03;  2.7000001E-01;1617;  0.0000000E+00;  0.0000000E+00;  0.0000000E+00;  1.0036089E+03;  1.0000000E-01;  2.9899402E+03;0;  0.0000000E+00;  0.0000000E+00;  0.0000000E+00;0; -4.5869788E-03;  4.0000000E+04;  0.0000000E+00;  0.0000000E+00;  4.0000000E+04;  0.0000000E+00;  4.0000000E+04; -4.1570775E-03;  0.0000000E+00; -4.2990147E-04;  8.9982941E+02;
 -2.9999999E-02;  9.9999998E-03;  2.8000000E-01;1618;  0.0000000E+00;  0.0000000E+00;  0.0000000E+00;  1.0032698E+03;  1.0000000E-01;  2.7089604E+03;0;  0.0000000E+00;  0.0000000E+00;  0.0000000E+00;0; -4.1845632E-03;  4.0000000E+04;  0.0000000E+00;  0.0000000E+00;  4.0000000E+04;  0.0000000E+00;  4.0000000E+04; -3.6721248E-03;  0.0000000E+00; -5.1243836E-04;  3.4219821E+02;
 -2.9999999E-02;  9.9999998E-03;  2.8999999E-01;1619;  0.0000000E+00;  0.0000000E+00;  0.0000000E+00;  1.0029302E+03;  1.0000000E-01;  2.4275857E+03;0;  0.0000000E+00;  0.0000000E+00;  0.0000000E+00;0; -3.7566149E-03;  4.0000000E+04;  0.0000000E+00;  0.0000000E+00;  4.0000000E+04;  0.0000000E+00;  4.0000000E+04; -3.1896362E-03;  0.0000000E+00; -5.6697876E-04;  6.9577155E+02;
 -2.9999999E-02;  9.9999998E-03;  3.0000001E-01;1620;  0.0000000E+00;  0.0000000E+00;  0.0000000E+00;  1.0025790E+03;  1.0000000E-01;  2.1366309E+03;0;  0.0000000E+00;  0.0000000E+00;  0.0000000E+00;0; -3.3027849E-03;  4.0000000E+04;  0.0000000E+00;  0.0000000E+00;  4.0000000E+04;  0.0000000E+00;  4.0000000E+04; -2.7141715E-03;  0.0000000E+00; -5.8861333E-04;  1.2386245E+03;
 -2.9999999E-02;  9.9999998E-03;  3.1000000E-01;1621;  0.0000000E+00;  0.0000000E+00;  0.0000000E+00;  1.0022153E+03;  1.0000000E-01;  1.8354049E+03;0;  0.0000000E+00;  0.0000000E+00;  0.0000000E+00;0; -2.8323699E-03;  4.0000000E+04;  0.0000000E+00;  0.0000000E+00;  4.0000000E+04;  0.0000000E+00;  4.0000000E+04; -2.2547222E-03;  0.0000000E+00; -5.7764770E-04;  1.6418484E+03;
 -2.9999999E-02;  9.9999998E-03;  3.1999999E-01;1622;  0.0000000E+00;  0.0000000E+00;  0.0000000E+00;  1.0018517E+03;  1.0000000E-01;  1.5341788E+03;0;  0.0000000E+00;  0.0000000E+00;  0.0000000E+00;0; -2.3629663E-03;  4.0000000E+04;  0.0000000E+00;  0.0000000E+00;  4.0000000E+04;  0.0000000E+00;  4.0000000E+04; -1.8232701E-03;  0.0000000E+00; -5.3969625E-04;  1.8730245E+03;
 -2.9999999E-02;  9.9999998E-03;  3.3000001E-01;1623;  0.0000000E+00;  0.0000000E+00;  0.0000000E+00;  1.0015048E+03;  1.0000000E-01;  1.2466808E+03;0;  0.0000000E+00;  0.0000000E+00;  0.0000000E+00;0; -1.9150297E-03;  4.0000000E+04;  0.0000000E+00;  0.0000000E+00;  4.0000000E+04;  0.0000000E+00;  4.0000000E+04; -1.4317803E-03;  0.0000000E+00; -4.8324946E-04;  1.9441034E+03;
 -2.9999999E-02;  9.9999998E-03;  3.4000000E-01;1624;  0.0000000E+00;  0.0000000E+00;  0.0000000E+00;  1.0011884E+03;  1.0000000E-01;  9.8456476E+02;0;  0.0000000E+00;  0.0000000E+00;  0.0000000E+00;0; -1.5063456E-03;  4.0000000E+04;  0.0000000E+00;  0.0000000E+00;  4.0000000E+04;  0.0000000E+00;  4.0000000E+04; -1.0894274E-03;  0.0000000E+00; -4.1691819E-04;  1.8851830E+03;
 -2.9999999E-02;  9.9999998E-03;  3.4999999E-01;1625;  0.0000000E+00;  0.0000000E+00;  0.0000000E+00;  1.0009138E+03;  1.0000000E-01;  7.5711438E+02;0;  0.0000000E+00;  0.0000000E+00;  0.0000000E+00;0; -1.1488969E-03;  4.0000000E+04;  0.0000000E+00;  0.0000000E+00;  4.0000000E+04;  0.0000000E+00;  4.0000000E+04; -8.0114161E-04;  0.0000000E+00; -3.4775527E-04;  1.7310399E+03;
 -2.9999999E-02;  9.9999998E-03;  3.6000001E-01;1626;  0.0000000E+00;  0.0000000E+00;  0.0000000E+00;  1.0006864E+03;  1.0000000E-01;  5.6867529E+02;0;  0.0000000E+00;  0.0000000E+00;  0.0000000E+00;0; -8.4821373E-04;  4.0000000E+04;  0.0000000E+00;  0.0000000E+00;  4.0000000E+04;  0.0000000E+00;  4.0000000E+04; -5.6748028E-04;  0.0000000E+00; -2.8073345E-04;  1.5140292E+03;
 -2.9999999E-02;  9.9999998E-03;  3.7000000E-01;1627;  0.0000000E+00;  0.0000000E+00;  0.0000000E+00;  1.0004906E+03;  1.0000000E-01;  4.0640826E+02;0;  0.0000000E+00;  0.0000000E+00;  0.0000000E+00;0; -6.0429343E-04;  4.0000000E+04;  0.0000000E+00;  0.0000000E+00;  4.0000000E+04;  0.0000000E+00;  4.0000000E+04; -3.8535628E-04;  0.0000000E+00; -2.1893713E-04;  1.2614886E+03;
 -2.9999999E-02;  9.9999998E-03;  3.8000000E-01;1628;  0.0000000E+00;  0.0000000E+00;  0.0000000E+00;  1.0003153E+03;  1.0000000E-01;  2.6122717E+02;0;  0.0000000E+00;  0.0000000E+00;  0.0000000E+00;0; -4.1318891E-04;  4.0000000E+04;  0.0000000E+00;  0.0000000E+00;  4.0000000E+04;  0.0000000E+00;  4.0000000E+04; -2.4914759E-04;  0.0000000E+00; -1.6404132E-04;  9.9594928E+02;
 -2.9999999E-02;  9.9999998E-03;  3.8999999E-01;1629;  0.0000000E+00;  0.0000000E+00;  0.0000000E+00;  1.0002195E+03;  1.0000000E-01;  1.8192078E+02;0;  0.0000000E+00;  0.0000000E+00;  0.0000000E+00;0; -2.6866174E-04;  4.0000000E+04;  0.0000000E+00;  0.0000000E+00;  4.0000000E+04;  0.0000000E+00;  4.0000000E+04; -1.5182253E-04;  0.0000000E+00; -1.1683920E-04;  7.3656769E+02;
 -2.9999999E-02;  9.9999998E-03;  4.0000001E-01;1630;  0.0000000E+00;  0.0000000E+00;  0.0000000E+00;  1.0001212E+03;  1.0000000E-01;  1.0034284E+02;0;  0.0000000E+00;  0.0000000E+00;  0.0000000E+00;0; -1.6359382E-04;  4.0000000E+04;  0.0000000E+00;  0.0000000E+00;  4.0000000E+04;  0.0000000E+00;  4.0000000E+04; -8.5890359E-05;  0.0000000E+00; -7.7703458E-05;  5.0054675E+02;
 -2.0000000E-02;  9.9999998E-03;  2.3999999E-01;1705;  0.0000000E+00;  0.0000000E+00;  0.0000000E+00;  1.0063633E+03;  1.0000000E-01;  5.2718511E+03;0;  0.0000000E+00;  0.0000000E+00;  0.0000000E+00;0; -7.5063668E-03;  4.0000000E+04;  0.0000000E+00;  0.0000000E+00;  4.0000000E+04;  0.0000000E+00;  4.0000000E+04; -7.3796012E-03;  0.0000000E+00; -1.2676575E-04;  3.0028625E+03;
 -2.0000000E-02;  9.9999998E-03;  2.5000000E-01;1706;  0.0000000E+00;  0.0000000E+00;  0.0000000E+00;  1.0058740E+03;  1.0000000E-01;  4.8664302E+03;0;  0.0000000E+00;  0.0000000E+00;  0.0000000E+00;0; -7.0067146E-03;  4.0000000E+04;  0.0000000E+00;  0.0000000E+00;  4.0000000E+04;  0.0000000E+00;  4.0000000E+04; -6.7443182E-03;  0.0000000E+00; -2.6239658E-04;  2.5286689E+03;
 -2.0000000E-02;  9.9999998E-03;  2.5999999E-01;1707;  0.0000000E+00;  0.0000000E+00;  0.0000000E+00;  1.0054009E+03;  1.0000000E-01;  4.4745400E+03;0;  0.0000000E+00;  0.0000000E+00;  0.0000000E+00;0; -6.5001659E-03;  4.0000000E+04;  0.0000000E+00;  0.0000000E+00;  4.0000000E+04;  0.0000000E+00;  4.0000000E+04; -6.1032940E-03;  0.0000000E+00; -3.9687174E-04;  1.8560479E+03;
 -2.0000000E-02;  9.9999998E-03;  2.7000001E-01;1708;  0.0000000E+00;  0.0000000E+00;  0.0000000E+00;  1.0049310E+03;  1.0000000E-01;  4.0852178E+03;0;  0.0000000E+00;  0.0000000E+00;  0.0000000E+00;0; -5.9792167E-03;  4.0000000E+04;  0.0000000E+00;  0.0000000E+00;  4.0000000E+04;  0.0000000E+00;  4.0000000E+04; -5.4598376E-03;  0.0000000E+00; -5.1937927E-04;  1.0530764E+03;
 -2.0000000E-02;  9.9999998E-03;  2.8000000E-01;1709;  0.0000000E+00;  0.0000000E+00;  0.0000000E+00;  1.0044631E+03;  1.0000000E-01;  3.6975745E+03;0;  0.0000000E+00;  0.0000000E+00;  0.0000000E+00;0; -5.4342956E-03;  4.0000000E+04;  0.0000000E+00;  0.0000000E+00;  4.0000000E+04;  0.0000000E+00;  4.0000000E+04; -4.8154923E-03;  0.0000000E+00; -6.1880337E-04;  3.5252737E+02;
 -2.0000000E-02;  9.9999998E-03;  2.8999999E-01;1710;  0.0000000E+00;  0.0000000E+00;  0.0000000E+00;  1.0039827E+03;  1.0000000E-01;  3.2996597E+03;0;  0.0000000E+00;  0.0000000E+00;  0.0000000E+00;0; -4.8578950E-03;  4.0000000E+04;  0.0000000E+00;  0.0000000E+00;  4.0000000E+04;  0.0000000E+00;  4.0000000E+04; -4.1729463E-03;  0.0000000E+00; -6.8494852E-04;  7.8848230E+02;
 -2.0000000E-02;  9.9999998E-03;  3.0000001E-01;1711;  0.0000000E+00;  0.0000000E+00;  0.0000000E+00;  1.0034838E+03;  1.0000000E-01;  2.8862393E+03;0;  0.0000000E+00;  0.0000000E+00;  0.0000000E+00;0; -4.2503197E-03;  4.0000000E+04;  0.0000000E+00;  0.0000000E+00;  4.0000000E+04;  0.0000000E+00;  4.0000000E+04; -3.5395604E-03;  0.0000000E+00; -7.1075908E-04;  1.4399236E+03;
 -2.0000000E-02;  9.9999998E-03;  3.1000000E-01;1712;  0.0000000E+00;  0.0000000E+00;  0.0000000E+00;  1.0029830E+03;  1.0000000E-01;  2.4713374E+03;0;  0.0000000E+00;  0.0000000E+00;  0.0000000E+00;0; -3.6252406E-03;  4.0000000E+04;  0.0000000E+00;  0.0000000E+00;  4.0000000E+04;  0.0000000E+00;  4.0000000E+04; -2.9290540E-03;  0.0000000E+00; -6.9618656E-04;  1.9134518E+03;
 -2.0000000E-02;  9.9999998E-03;  3.1999999E-01;1713;  0.0000000E+00;  0.0000000E+00;  0.0000000E+00;  1.0024990E+03;  1.0000000E-01;  2.0703611E+03;0;  0.0000000E+00;  0.0000000E+00;  0.0000000E+00;0; -3.0076082E-03;  4.0000000E+04;  0.0000000E+00;  0.0000000E+00;  4.0000000E+04;  0.0000000E+00;  4.0000000E+04; -2.3589113E-03;  0.0000000E+00; -6.4869697E-04;  2.1796016E+03;
 -2.0000000E-02;  9.9999998E-03;  3.3000001E-01;1714;  0.0000000E+00;  0.0000000E+00;  0.0000000E+00;  1.0020269E+03;  1.0000000E-01;  1.6791624E+03;0;  0.0000000E+00;  0.0000000E+00;  0.0000000E+00;0; -2.4247479E-03;  4.0000000E+04;  0.0000000E+00;  0.0000000E+00;  4.0000000E+04;  0.0000000E+00;  4.0000000E+04; -1.8454691E-03;  0.0000000E+00; -5.7927874E-04;  2.2586831E+03;
 -2.0000000E-02;  9.9999998E-03;  3.4000000E-01;1715;  0.0000000E+00;  0.0000000E+00;  0.0000000E+00;  1.0015949E+03;  1.0000000E-01;  1.3213453E+03;0;  0.0000000E+00;  0.0000000E+00;  0.0000000E+00;0; -1.8987542E-03;  4.0000000E+04;  0.0000000E+00;  0.0000000E+00;  4.0000000E+04;  0.0000000E+00;  4.0000000E+04; -1.4001176E-03;  0.0000000E+00; -4.9863657E-04;  2.1896887E+03;
 -2.0000000E-02;  9.9999998E-03;  3.4999999E-01;1716;  0.0000000E+00;  0.0000000E+00;  0.0000000E+00;  1.0012287E+03;  1.0000000E-01;  1.0179465E+03;0;  0.0000000E+00;  0.0000000E+00;  0.0000000E+00;0; -1.4431966E-03;  4.0000000E+04;  0.0000000E+00;  0.0000000E+00;  4.0000000E+04;  0.0000000E+00;  4.0000000E+04; -1.0279566E-03;  0.0000000E+00; -4.1523992E-04;  2.0142905E+03;
 -2.0000000E-02;  9.9999998E-03;  3.6000001E-01;1717;  0.0000000E+00;  0.0000000E+00;  0.0000000E+00;  1.0009046E+03;  1.0000000E-01;  7.4941089E+02;0;  0.0000000E+00;  0.0000000E+00;  0.0000000E+00;0; -1.0631317E-03;  4.0000000E+04;  0.0000000E+00;  0.0000000E+00;  4.0000000E+04;  0.0000000E+00;  4.0000000E+04; -7.2822574E-04;  0.0000000E+00; -3.3490596E-04;  1.7692437E+03;
 -2.0000000E-02;  9.9999998E-03;  3.7000000E-01;1718;  0.0000000E+00;  0.0000000E+00;  0.0000000E+00;  1.0006614E+03;  1.0000000E-01;  5.4803387E+02;0;  0.0000000E+00;  0.0000000E+00;  0.0000000E+00;0; -7.5682043E-04;  4.0000000E+04;  0.0000000E+00;  0.0000000E+00;  4.0000000E+04;  0.0000000E+00;  4.0000000E+04; -4.9565156E-04;  0.0000000E+00; -2.6116887E-04;  1.4844325E+03;
 -2.0000000E-02;  9.9999998E-03;  3.8000000E-01;1719;  0.0000000E+00;  0.0000000E+00;  0.0000000E+00;  1.0004326E+03;  1.0000000E-01;  3.5840961E+02;0;  0.0000000E+00;  0.0000000E+00;  0.0000000E+00;0; -5.1797798E-04;  4.0000000E+04;  0.0000000E+00;  0.0000000E+00;  4.0000000E+04;  0.0000000E+00;  4.0000000E+04; -3.2206406E-04;  0.0000000E+00; -1.9591389E-04;  1.1839883E+03;
 -2.0000000E-02;  9.9999998E-03;  3.8999999E-01;1720;  0.0000000E+00;  0.0000000E+00;  0.0000000E+00;  1.0002778E+03;  1.0000000E-01;  2.3011694E+02;0;  0.0000000E+00;  0.0000000E+00;  0.0000000E+00;0; -3.3789521E-04;  4.0000000E+04;  0.0000000E+00;  0.0000000E+00;  4.0000000E+04;  0.0000000E+00;  4.0000000E+04; -1.9789988E-04;  0.0000000E+00; -1.3999533E-04;  8.8817719E+02;
 -2.0000000E-02;  9.9999998E-03;  4.0000001E-01;1721;  0.0000000E+00;  0.0000000E+00;  0.0000000E+00;  1.0001624E+03;  1.0000000E-01;  1.3451471E+02;0;  0.0000000E+00;  0.0000000E+00;  0.0000000E+00;0; -2.0712364E-04;  4.0000000E+04;  0.0000000E+00;  0.0000000E+00;  4.0000000E+04;  0.0000000E+00;  4.0000000E+04; -1.1337424E-04;  0.0000000E+00; -9.3749390E-05;  6.1551703E+02;
 -9.9999998E-03;  9.9999998E-03;  2.3999999E-01;1796;  0.0000000E+00;  0.0000000E+00;  0.0000000E+00;  1.0082991E+03;  1.0000000E-01;  6.8756572E+03;0;  0.0000000E+00;  0.0000000E+00;  0.0000000E+00;0; -9.4162840E-03;  4.0000000E+04;  0.0000000E+00;  0.0000000E+00;  4.0000000E+04;  0.0000000E+00;  4.0000000E+04; -9.2598908E-03;  0.0000000E+00; -1.5639293E-04;  3.3363958E+03;
 -9.9999998E-03;  9.9999998E-03;  2.5000000E-01;1797;  0.0000000E+00;  0.0000000E+00;  0.0000000E+00;  1.0076657E+03;  1.0000000E-01;  6.3509316E+03;0;  0.0000000E+00;  0.0000000E+00;  0.0000000E+00;0; -8.7762820E-03;  4.0000000E+04;  0.0000000E+00;  0.0000000E+00;  4.0000000E+04;  0.0000000E+00;  4.0000000E+04; -8.4654391E-03;  0.0000000E+00; -3.1084247E-04;  2.8515312E+03;
 -9.9999998E-03;  9.9999998E-03;  2.5999999E-01;1798;  0.0000000E+00;  0.0000000E+00;  0.0000000E+00;  1.0070425E+03;  1.0000000E-01;  5.8346006E+03;0;  0.0000000E+00;  0.0000000E+00;  0.0000000E+00;0; -8.1222821E-03;  4.0000000E+04;  0.0000000E+00;  0.0000000E+00;  4.0000000E+04;  0.0000000E+00;  4.0000000E+04; -7.6572765E-03;  0.0000000E+00; -4.6500590E-04;  2.1211138E+03;
 -9.9999998E-03;  9.9999998E-03;  2.7000001E-01;1799;  0.0000000E+00;  0.0000000E+00;  0.0000000E+00;  1.0064236E+03;  1.0000000E-01;  5.3218247E+03;0;  0.0000000E+00;  0.0000000E+00;  0.0000000E+00;0; -7.4478406E-03;  4.0000000E+04;  0.0000000E+00;  0.0000000E+00;  4.0000000E+04;  0.0000000E+00;  4.0000000E+04; -6.8413806E-03;  0.0000000E+00; -6.0646003E-04;  1.2152432E+03;
 -9.9999998E-03;  9.9999998E-03;  2.8000000E-01;1800;  0.0000000E+00;  0.0000000E+00;  0.0000000E+00;  1.0057984E+03;  1.0000000E-01;  4.8039136E+03;0;  0.0000000E+00;  0.0000000E+00;  0.0000000E+00;0; -6.7441575E-03;  4.0000000E+04;  0.0000000E+00;  0.0000000E+00;  4.0000000E+04;  0.0000000E+00;  4.0000000E+04; -6.0217776E-03;  0.0000000E+00; -7.2237989E-04;  3.6602719E+02;
 -9.9999998E-03;  9.9999998E-03;  2.8999999E-01;1801;  0.0000000E+00;  0.0000000E+00;  0.0000000E+00;  1.0051600E+03;  1.0000000E-01;  4.2749409E+03;0;  0.0000000E+00;  0.0000000E+00;  0.0000000E+00;0; -6.0041994E-03;  4.0000000E+04;  0.0000000E+00;  0.0000000E+00;  4.0000000E+04;  0.0000000E+00;  4.0000000E+04; -5.2036853E-03;  0.0000000E+00; -8.0051401E-04;  8.5661267E+02;
 -9.9999998E-03;  9.9999998E-03;  3.0000001E-01;1802;  0.0000000E+00;  0.0000000E+00;  0.0000000E+00;  1.0045096E+03;  1.0000000E-01;  3.7361907E+03;0;  0.0000000E+00;  0.0000000E+00;  0.0000000E+00;0; -5.2285814E-03;  4.0000000E+04;  0.0000000E+00;  0.0000000E+00;  4.0000000E+04;  0.0000000E+00;  4.0000000E+04; -4.3977881E-03;  0.0000000E+00; -8.3079317E-04;  1.6091383E+03;
 -9.9999998E-03;  9.9999998E-03;  3.1000000E-01;1803;  0.0000000E+00;  0.0000000E+00;  0.0000000E+00;  1.0038539E+03;  1.0000000E-01;  3.1928975E+03;0;  0.0000000E+00;  0.0000000E+00;  0.0000000E+00;0; -4.4359136E-03;  4.0000000E+04;  0.0000000E+00;  0.0000000E+00;  4.0000000E+04;  0.0000000E+00;  4.0000000E+04; -3.6235745E-03;  0.0000000E+00; -8.1233919E-04;  2.1437649E+03;
 -9.9999998E-03;  9.9999998E-03;  3.1999999E-01;1804;  0.0000000E+00;  0.0000000E+00;  0.0000000E+00;  1.0032010E+03;  1.0000000E-01;  2.6519744E+03;0;  0.0000000E+00;  0.0000000E+00;  0.0000000E+00;0; -3.6602011E-03;  4.0000000E+04;  0.0000000E+00;  0.0000000E+00;  4.0000000E+04;  0.0000000E+00;  4.0000000E+04; -2.9051204E-03;  0.0000000E+00; -7.5508078E-04;  2.4359602E+03;
 -9.9999998E-03;  9.9999998E-03;  3.3000001E-01;1805;  0.0000000E+00;  0.0000000E+00;  0.0000000E+00;  1.0025935E+03;  1.0000000E-01;  2.1486799E+03;0;  0.0000000E+00;  0.0000000E+00;  0.0000000E+00;0; -2.9360869E-03;  4.0000000E+04;  0.0000000E+00;  0.0000000E+00;  4.0000000E+04;  0.0000000E+00;  4.0000000E+04; -2.2633651E-03;  0.0000000E+00; -6.7272177E-04;  2.5172151E+03;
 -9.9999998E-03;  9.9999998E-03;  3.4000000E-01;1806;  0.0000000E+00;  0.0000000E+00;  0.0000000E+00;  1.0020507E+03;  1.0000000E-01;  1.6989149E+03;0;  0.0000000E+00;  0.0000000E+00;  0.0000000E+00;0; -2.2893734E-03;  4.0000000E+04;  0.0000000E+00;  0.0000000E+00;  4.0000000E+04;  0.0000000E+00;  4.0000000E+04; -1.7113716E-03;  0.0000000E+00; -5.7800196E-04;  2.4366182E+03;
 -9.9999998E-03;  9.9999998E-03;  3.4999999E-01;1807;  0.0000000E+00;  0.0000000E+00;  0.0000000E+00;  1.0015683E+03;  1.0000000E-01;  1.2993213E+03;0;  0.0000000E+00;  0.0000000E+00;  0.0000000E+00;0; -1.7343042E-03;  4.0000000E+04;  0.0000000E+00;  0.0000000E+00;  4.0000000E+04;  0.0000000E+00;  4.0000000E+04; -1.2536404E-03;  0.0000000E+00; -4.8066382E-04;  2.2421479E+03;
 -9.9999998E-03;  9.9999998E-03;  3.6000001E-01;1808;  0.0000000E+00;  0.0000000E+00;  0.0000000E+00;  1.0011556E+03;  1.0000000E-01;  9.5740503E+02;0;  0.0000000E+00;  0.0000000E+00;  0.0000000E+00;0; -1.2746488E-03;  4.0000000E+04;  0.0000000E+00;  0.0000000E+00;  4.0000000E+04;  0.0000000E+00;  4.0000000E+04; -8.8739523E-04;  0.0000000E+00; -3.8725362E-04;  1.9739019E+03;
 -9.9999998E-03;  9.9999998E-03;  3.7000000E-01;1809;  0.0000000E+00;  0.0000000E+00;  0.0000000E+00;  1.0008369E+03;  1.0000000E-01;  6.9331372E+02;0;  0.0000000E+00;  0.0000000E+00;  0.0000000E+00;0; -9.0633554E-04;  4.0000000E+04;  0.0000000E+00;  0.0000000E+00;  4.0000000E+04;  0.0000000E+00;  4.0000000E+04; -6.0462143E-04;  0.0000000E+00; -3.0171411E-04;  1.6634452E+03;
 -9.9999998E-03;  9.9999998E-03;  3.8000000E-01;1810;  0.0000000E+00;  0.0000000E+00;  0.0000000E+00;  1.0005729E+03;  1.0000000E-01;  4.7465323E+02;0;  0.0000000E+00;  0.0000000E+00;  0.0000000E+00;0; -6.2035088E-04;  4.0000000E+04;  0.0000000E+00;  0.0000000E+00;  4.0000000E+04;  0.0000000E+00;  4.0000000E+04; -3.9419322E-04;  0.0000000E+00; -2.2615767E-04;  1.3357006E+03;
 -9.9999998E-03;  9.9999998E-03;  3.8999999E-01;1811;  0.0000000E+00;  0.0000000E+00;  0.0000000E+00;  1.0003712E+03;  1.0000000E-01;  3.0754684E+02;0;  0.0000000E+00;  0.0000000E+00;  0.0000000E+00;0; -4.0529930E-04;  4.0000000E+04;  0.0000000E+00;  0.0000000E+00;  4.0000000E+04;  0.0000000E+00;  4.0000000E+04; -2.4373383E-04;  0.0000000E+00; -1.6156549E-04;  1.0116772E+03;
 -9.9999998E-03;  9.9999998E-03;  4.0000001E-01;1812;  0.0000000E+00;  0.0000000E+00;  0.0000000E+00;  1.0002291E+03;  1.0000000E-01;  1.8982179E+02;0;  0.0000000E+00;  0.0000000E+00;  0.0000000E+00;0; -2.4932373E-04;  4.0000000E+04;  0.0000000E+00;  0.0000000E+00;  4.0000000E+04;  0.0000000E+00;  4.0000000E+04; -1.4100196E-04;  0.0000000E+00; -1.0832176E-04;  7.1072424E+02;
  0.0000000E+00;  9.9999998E-03;  3.0000001E-01;1834;  0.0000000E+00;  0.0000000E+00;  0.0000000E+00;  1.0055903E+03;  1.0000000E-01;  4.6314741E+03;0;  0.0000000E+00;  0.0000000E+00;  0.0000000E+00;0; -6.1561433E-03;  4.0000000E+04;  0.0000000E+00;  0.0000000E+00;  4.0000000E+04;  0.0000000E+00;  4.0000000E+04; -5.2187298E-03;  0.0000000E+00; -9.3741354E-04;  1.7175549E+03;
  0.0000000E+00;  9.9999998E-03;  3.1000000E-01;1835;  0.0000000E+00;  0.0000000E+00;  0.0000000E+00;  1.0047529E+03;  1.0000000E-01;  3.9376665E+03;0;  0.0000000E+00;  0.0000000E+00;  0.0000000E+00;0; -5.1957914E-03;  4.0000000E+04;  0.0000000E+00;  0.0000000E+00;  4.0000000E+04;  0.0000000E+00;  4.0000000E+04; -4.2794361E-03;  0.0000000E+00; -9.1635511E-04;  2.3012720E+03;
  0.0000000E+00;  9.9999998E-03;  3.1999999E-01;1836;  0.0000000E+00;  0.0000000E+00;  0.0000000E+00;  1.0039325E+03;  1.0000000E-01;  3.2579819E+03;0;  0.0000000E+00;  0.0000000E+00;  0.0000000E+00;0; -4.2652222E-03;  4.0000000E+04;  0.0000000E+00;  0.0000000E+00;  4.0000000E+04;  0.0000000E+00;  4.0000000E+04; -3.4142844E-03;  0.0000000E+00; -8.5093785E-04;  2.6105427E+03;
  0.0000000E+00;  9.9999998E-03;  3.3000001E-01;1837;  0.0000000E+00;  0.0000000E+00;  0.0000000E+00;  1.0031740E+03;  1.0000000E-01;  2.6296541E+03;0;  0.0000000E+00;  0.0000000E+00;  0.0000000E+00;0; -3.4056352E-03;  4.0000000E+04;  0.0000000E+00;  0.0000000E+00;  4.0000000E+04;  0.0000000E+00;  4.0000000E+04; -2.6481349E-03;  0.0000000E+00; -7.5750024E-04;  2.6908621E+03;
  0.0000000E+00;  9.9999998E-03;  3.4000000E-01;1838;  0.0000000E+00;  0.0000000E+00;  0.0000000E+00;  1.0025000E+03;  1.0000000E-01;  2.0712500E+03;0;  0.0000000E+00;  0.0000000E+00;  0.0000000E+00;0; -2.6451389E-03;  4.0000000E+04;  0.0000000E+00;  0.0000000E+00;  4.0000000E+04;  0.0000000E+00;  4.0000000E+04; -1.9945952E-03;  0.0000000E+00; -6.5054378E-04;  2.6008372E+03;
  0.0000000E+00;  9.9999998E-03;  3.4999999E-01;1839;  0.0000000E+00;  0.0000000E+00;  0.0000000E+00;  1.0019120E+03;  1.0000000E-01;  1.5840540E+03;0;  0.0000000E+00;  0.0000000E+00;  0.0000000E+00;0; -1.9975819E-03;  4.0000000E+04;  0.0000000E+00;  0.0000000E+00;  4.0000000E+04;  0.0000000E+00;  4.0000000E+04; -1.4567334E-03;  0.0000000E+00; -5.4084841E-04;  2.3930442E+03;
  0.0000000E+00;  9.9999998E-03;  3.6000001E-01;1840;  0.0000000E+00;  0.0000000E+00;  0.0000000E+00;  1.0014300E+03;  1.0000000E-01;  1.1847566E+03;0;  0.0000000E+00;  0.0000000E+00;  0.0000000E+00;0; -1.4648075E-03;  4.0000000E+04;  0.0000000E+00;  0.0000000E+00;  4.0000000E+04;  0.0000000E+00;  4.0000000E+04; -1.0292104E-03;  0.0000000E+00; -4.3559712E-04;  2.1092437E+03;
  0.0000000E+00;  9.9999998E-03;  3.7000000E-01;1841;  0.0000000E+00;  0.0000000E+00;  0.0000000E+00;  1.0010248E+03;  1.0000000E-01;  8.4896362E+02;0;  0.0000000E+00;  0.0000000E+00;  0.0000000E+00;0; -1.0400745E-03;  4.0000000E+04;  0.0000000E+00;  0.0000000E+00;  4.0000000E+04;  0.0000000E+00;  4.0000000E+04; -7.0093566E-04;  0.0000000E+00; -3.3913890E-04;  1.7816954E+03;
  0.0000000E+00;  9.9999998E-03;  3.8000000E-01;1842;  0.0000000E+00;  0.0000000E+00;  0.0000000E+00;  1.0007152E+03;  1.0000000E-01;  5.9257581E+02;0;  0.0000000E+00;  0.0000000E+00;  0.0000000E+00;0; -7.1150786E-04;  4.0000000E+04;  0.0000000E+00;  0.0000000E+00;  4.0000000E+04;  0.0000000E+00;  4.0000000E+04; -4.5764248E-04;  0.0000000E+00; -2.5386541E-04;  1.4357114E+03;
  0.0000000E+00;  9.9999998E-03;  3.8999999E-01;1843;  0.0000000E+00;  0.0000000E+00;  0.0000000E+00;  1.0004694E+03;  1.0000000E-01;  3.8892728E+02;0;  0.0000000E+00;  0.0000000E+00;  0.0000000E+00;0; -4.6502400E-04;  4.0000000E+04;  0.0000000E+00;  0.0000000E+00;  4.0000000E+04;  0.0000000E+00;  4.0000000E+04; -2.8405630E-04;  0.0000000E+00; -1.8096771E-04;  1.0929117E+03;
  0.0000000E+00;  9.9999998E-03;  4.0000001E-01;1844;  0.0000000E+00;  0.0000000E+00;  0.0000000E+00;  1.0002874E+03;  1.0000000E-01;  2.3811673E+02;0;  0.0000000E+00;  0.0000000E+00;  0.0000000E+00;0; -2.8646120E-04;  4.0000000E+04;  0.0000000E+00;  0.0000000E+00;  4.0000000E+04;  0.0000000E+00;  4.0000000E+04; -1.6546695E-04;  0.0000000E+00; -1.2099426E-04;  7.7348962E+02;
  9.9999998E-03;  9.9999998E-03;  3.1000000E-01;1865;  0.0000000E+00;  0.0000000E+00;  0.0000000E+00;  1.0056309E+03;  1.0000000E-01;  4.6651519E+03;0;  0.0000000E+00;  0.0000000E+00;  0.0000000E+00;0; -5.8298139E-03;  4.0000000E+04;  0.0000000E+00;  0.0000000E+00;  4.0000000E+04;  0.0000000E+00;  4.0000000E+04; -4.8310119E-03;  0.0000000E+00; -9.9880178E-04;  2.3539368E+03;
  9.9999998E-03;  9.9999998E-03;  3.1999999E-01;1866;  0.0000000E+00;  0.0000000E+00;  0.0000000E+00;  1.0046457E+03;  1.0000000E-01;  3.8488789E+03;0;  0.0000000E+00;  0.0000000E+00;  0.0000000E+00;0; -4.7651422E-03;  4.0000000E+04;  0.0000000E+00;  0.0000000E+00;  4.0000000E+04;  0.0000000E+00;  4.0000000E+04; -3.8360348E-03;  0.0000000E+00; -9.2910737E-04;  2.6765845E+03;
  9.9999998E-03;  9.9999998E-03;  3.3000001E-01;1867;  0.0000000E+00;  0.0000000E+00;  0.0000000E+00;  1.0037455E+03;  1.0000000E-01;  3.1031221E+03;0;  0.0000000E+00;  0.0000000E+00;  0.0000000E+00;0; -3.7901483E-03;  4.0000000E+04;  0.0000000E+00;  0.0000000E+00;  4.0000000E+04;  0.0000000E+00;  4.0000000E+04; -2.9616773E-03;  0.0000000E+00; -8.2847098E-04;  2.7602117E+03;
  9.9999998E-03;  9.9999998E-03;  3.4000000E-01;1868;  0.0000000E+00;  0.0000000E+00;  0.0000000E+00;  1.0029363E+03;  1.0000000E-01;  2.4327214E+03;0;  0.0000000E+00;  0.0000000E+00;  0.0000000E+00;0; -2.9339832E-03;  4.0000000E+04;  0.0000000E+00;  0.0000000E+00;  4.0000000E+04;  0.0000000E+00;  4.0000000E+04; -2.2213331E-03;  0.0000000E+00; -7.1265007E-04;  2.6694211E+03;
  9.9999998E-03;  9.9999998E-03;  3.4999999E-01;1869;  0.0000000E+00;  0.0000000E+00;  0.0000000E+00;  1.0022439E+03;  1.0000000E-01;  1.8590092E+03;0;  0.0000000E+00;  0.0000000E+00;  0.0000000E+00;0; -2.2095407E-03;  4.0000000E+04;  0.0000000E+00;  0.0000000E+00;  4.0000000E+04;  0.0000000E+00;  4.0000000E+04; -1.6162418E-03;  0.0000000E+00; -5.9329887E-04;  2.4584734E+03;
  9.9999998E-03;  9.9999998E-03;  3.6000001E-01;1870;  0.0000000E+00;  0.0000000E+00;  0.0000000E+00;  1.0016791E+03;  1.0000000E-01;  1.3910718E+03;0;  0.0000000E+00;  0.0000000E+00;  0.0000000E+00;0; -1.6166455E-03;  4.0000000E+04;  0.0000000E+00;  0.0000000E+00;  4.0000000E+04;  0.0000000E+00;  4.0000000E+04; -1.1383753E-03;  0.0000000E+00; -4.7827026E-04;  2.1693774E+03;
  9.9999998E-03;  9.9999998E-03;  3.7000000E-01;1871;  0.0000000E+00;  0.0000000E+00;  0.0000000E+00;  1.0012023E+03;  1.0000000E-01;  9.9602124E+02;0;  0.0000000E+00;  0.0000000E+00;  0.0000000E+00;0; -1.1460166E-03;  4.0000000E+04;  0.0000000E+00;  0.0000000E+00;  4.0000000E+04;  0.0000000E+00;  4.0000000E+04; -7.7359832E-04;  0.0000000E+00; -3.7241829E-04;  1.8343047E+03;
  9.9999998E-03;  9.9999998E-03;  3.8000000E-01;1872;  0.0000000E+00;  0.0000000E+00;  0.0000000E+00;  1.0008411E+03;  1.0000000E-01;  6.9677045E+02;0;  0.0000000E+00;  0.0000000E+00;  0.0000000E+00;0; -7.8316056E-04;  4.0000000E+04;  0.0000000E+00;  0.0000000E+00;  4.0000000E+04;  0.0000000E+00;  4.0000000E+04; -5.0465029E-04;  0.0000000E+00; -2.7851030E-04;  1.4790020E+03;
  9.9999998E-03;  9.9999998E-03;  3.8999999E-01;1873;  0.0000000E+00;  0.0000000E+00;  0.0000000E+00;  1.0005603E+03;  1.0000000E-01;  4.6418442E+02;0;  0.0000000E+00;  0.0000000E+00;  0.0000000E+00;0; -5.1158306E-04;  4.0000000E+04;  0.0000000E+00;  0.0000000E+00;  4.0000000E+04;  0.0000000E+00;  4.0000000E+04; -3.1354724E-04;  0.0000000E+00; -1.9803585E-04;  1.1261050E+03;
  9.9999998E-03;  9.9999998E-03;  4.0000001E-01;1874;  0.0000000E+00;  0.0000000E+00;  0.0000000E+00;  1.0003432E+03;  1.0000000E-01;  2.8433765E+02;0;  0.0000000E+00;  0.0000000E+00;  0.0000000E+00;0; -3.1509629E-04;  4.0000000E+04;  0.0000000E+00;  0.0000000E+00;  4.0000000E+04;  0.0000000E+00;  4.0000000E+04; -1.8329427E-04;  0.0000000E+00; -1.3180202E-04;  7.9722736E+02;
  2.0000000E-02;  9.9999998E-03;  3.1000000E-01;1895;  0.0000000E+00;  0.0000000E+00;  0.0000000E+00;  1.0063930E+03;  1.0000000E-01;  5.2964429E+03;0;  0.0000000E+00;  0.0000000E+00;  0.0000000E+00;0; -6.2774322E-03;  4.0000000E+04;  0.0000000E+00;  0.0000000E+00;  4.0000000E+04;  0.0000000E+00;  4.0000000E+04; -5.2218731E-03;  0.0000000E+00; -1.0555591E-03;  2.2846433E+03;
  2.0000000E-02;  9.9999998E-03;  3.1999999E-01;1896;  0.0000000E+00;  0.0000000E+00;  0.0000000E+00;  1.0052770E+03;  1.0000000E-01;  4.3718271E+03;0;  0.0000000E+00;  0.0000000E+00;  0.0000000E+00;0; -5.1144948E-03;  4.0000000E+04;  0.0000000E+00;  0.0000000E+00;  4.0000000E+04;  0.0000000E+00;  4.0000000E+04; -4.1279718E-03;  0.0000000E+00; -9.8652276E-04;  2.6254824E+03;
  2.0000000E-02;  9.9999998E-03;  3.3000001E-01;1897;  0.0000000E+00;  0.0000000E+00;  0.0000000E+00;  1.0042377E+03;  1.0000000E-01;  3.5109131E+03;0;  0.0000000E+00;  0.0000000E+00;  0.0000000E+00;0; -4.0560775E-03;  4.0000000E+04;  0.0000000E+00;  0.0000000E+00;  4.0000000E+04;  0.0000000E+00;  4.0000000E+04; -3.1725788E-03;  0.0000000E+00; -8.8349858E-04;  2.7254399E+03;
  2.0000000E-02;  9.9999998E-03;  3.4000000E-01;1898;  0.0000000E+00;  0.0000000E+00;  0.0000000E+00;  1.0033237E+03;  1.0000000E-01;  2.7536011E+03;0;  0.0000000E+00;  0.0000000E+00;  0.0000000E+00;0; -3.1313864E-03;  4.0000000E+04;  0.0000000E+00;  0.0000000E+00;  4.0000000E+04;  0.0000000E+00;  4.0000000E+04; -2.3685570E-03;  0.0000000E+00; -7.6282932E-04;  2.6488418E+03;
  2.0000000E-02;  9.9999998E-03;  3.4999999E-01;1899;  0.0000000E+00;  0.0000000E+00;  0.0000000E+00;  1.0025400E+03;  1.0000000E-01;  2.1043354E+03;0;  0.0000000E+00;  0.0000000E+00;  0.0000000E+00;0; -2.3524284E-03;  4.0000000E+04;  0.0000000E+00;  0.0000000E+00;  4.0000000E+04;  0.0000000E+00;  4.0000000E+04; -1.7154567E-03;  0.0000000E+00; -6.3697161E-04;  2.4487158E+03;
  2.0000000E-02;  9.9999998E-03;  3.6000001E-01;1900;  0.0000000E+00;  0.0000000E+00;  0.0000000E+00;  1.0018912E+03;  1.0000000E-01;  1.5668693E+03;0;  0.0000000E+00;  0.0000000E+00;  0.0000000E+00;0; -1.7174174E-03;  4.0000000E+04;  0.0000000E+00;  0.0000000E+00;  4.0000000E+04;  0.0000000E+00;  4.0000000E+04; -1.2028604E-03;  0.0000000E+00; -5.1455700E-04;  2.1659805E+03;
  2.0000000E-02;  9.9999998E-03;  3.7000000E-01;1901;  0.0000000E+00;  0.0000000E+00;  0.0000000E+00;  1.0013685E+03;  1.0000000E-01;  1.1337950E+03;0;  0.0000000E+00;  0.0000000E+00;  0.0000000E+00;0; -1.2151297E-03;  4.0000000E+04;  0.0000000E+00;  0.0000000E+00;  4.0000000E+04;  0.0000000E+00;  4.0000000E+04; -8.1402640E-04;  0.0000000E+00; -4.0110332E-04;  1.8324865E+03;
  2.0000000E-02;  9.9999998E-03;  3.8000000E-01;1902;  0.0000000E+00;  0.0000000E+00;  0.0000000E+00;  1.0009561E+03;  1.0000000E-01;  7.9207635E+02;0;  0.0000000E+00;  0.0000000E+00;  0.0000000E+00;0; -8.2904677E-04;  4.0000000E+04;  0.0000000E+00;  0.0000000E+00;  4.0000000E+04;  0.0000000E+00;  4.0000000E+04; -5.2914413E-04;  0.0000000E+00; -2.9990263E-04;  1.4748470E+03;
  2.0000000E-02;  9.9999998E-03;  3.8999999E-01;1903;  0.0000000E+00;  0.0000000E+00;  0.0000000E+00;  1.0006484E+03;  1.0000000E-01;  5.3716998E+02;0;  0.0000000E+00;  0.0000000E+00;  0.0000000E+00;0; -5.4080575E-04;  4.0000000E+04;  0.0000000E+00;  0.0000000E+00;  4.0000000E+04;  0.0000000E+00;  4.0000000E+04; -3.2795858E-04;  0.0000000E+00; -2.1284717E-04;  1.1176199E+03;
  2.0000000E-02;  9.9999998E-03;  4.0000001E-01;1904;  0.0000000E+00;  0.0000000E+00;  0.0000000E+00;  1.0004037E+03;  1.0000000E-01;  3.3450906E+02;0;  0.0000000E+00;  0.0000000E+00;  0.0000000E+00;0; -3.3263784E-04;  4.0000000E+04;  0.0000000E+00;  0.0000000E+00;  4.0000000E+04;  0.0000000E+00;  4.0000000E+04; -1.9159200E-04;  0.0000000E+00; -1.4104584E-04;  7.8495703E+02;
  2.9999999E-02;  9.9999998E-03;  3.1000000E-01;1925;  0.0000000E+00;  0.0000000E+00;  0.0000000E+00;  1.0070006E+03;  1.0000000E-01;  5.7998359E+03;0;  0.0000000E+00;  0.0000000E+00;  0.0000000E+00;0; -6.5103630E-03;  4.0000000E+04;  0.0000000E+00;  0.0000000E+00;  4.0000000E+04;  0.0000000E+00;  4.0000000E+04; -5.4192976E-03;  0.0000000E+00; -1.0910656E-03;  2.1193743E+03;
  2.9999999E-02;  9.9999998E-03;  3.1999999E-01;1926;  0.0000000E+00;  0.0000000E+00;  0.0000000E+00;  1.0057736E+03;  1.0000000E-01;  4.7832720E+03;0;  0.0000000E+00;  0.0000000E+00;  0.0000000E+00;0; -5.2919551E-03;  4.0000000E+04;  0.0000000E+00;  0.0000000E+00;  4.0000000E+04;  0.0000000E+00;  4.0000000E+04; -4.2659245E-03;  0.0000000E+00; -1.0260305E-03;  2.4832856E+03;
  2.9999999E-02;  9.9999998E-03;  3.3000001E-01;1927;  0.0000000E+00;  0.0000000E+00;  0.0000000E+00;  1.0046327E+03;  1.0000000E-01;  3.8381138E+03;0;  0.0000000E+00;  0.0000000E+00;  0.0000000E+00;0; -4.1877301E-03;  4.0000000E+04;  0.0000000E+00;  0.0000000E+00;  4.0000000E+04;  0.0000000E+00;  4.0000000E+04; -3.2633494E-03;  0.0000000E+00; -9.2438067E-04;  2.6155623E+03;
  2.9999999E-02;  9.9999998E-03;  3.4000000E-01;1928;  0.0000000E+00;  0.0000000E+00;  0.0000000E+00;  1.0036257E+03;  1.0000000E-01;  3.0038657E+03;0;  0.0000000E+00;  0.0000000E+00;  0.0000000E+00;0; -3.2259854E-03;  4.0000000E+04;  0.0000000E+00;  0.0000000E+00;  4.0000000E+04;  0.0000000E+00;  4.0000000E+04; -2.4237933E-03;  0.0000000E+00; -8.0219225E-04;  2.5703040E+03;
  2.9999999E-02;  9.9999998E-03;  3.4999999E-01;1929;  0.0000000E+00;  0.0000000E+00;  0.0000000E+00;  1.0027694E+03;  1.0000000E-01;  2.2943550E+03;0;  0.0000000E+00;  0.0000000E+00;  0.0000000E+00;0; -2.4180454E-03;  4.0000000E+04;  0.0000000E+00;  0.0000000E+00;  4.0000000E+04;  0.0000000E+00;  4.0000000E+04; -1.7455169E-03;  0.0000000E+00; -6.7252840E-04;  2.3954543E+03;
  2.9999999E-02;  9.9999998E-03;  3.6000001E-01;1930;  0.0000000E+00;  0.0000000E+00;  0.0000000E+00;  1.0020579E+03;  1.0000000E-01;  1.7049395E+03;0;  0.0000000E+00;  0.0000000E+00;  0.0000000E+00;0; -1.7612411E-03;  4.0000000E+04;  0.0000000E+00;  0.0000000E+00;  4.0000000E+04;  0.0000000E+00;  4.0000000E+04; -1.2163974E-03;  0.0000000E+00; -5.4484367E-04;  2.1295420E+03;
  2.9999999E-02;  9.9999998E-03;  3.7000000E-01;1931;  0.0000000E+00;  0.0000000E+00;  0.0000000E+00;  1.0014992E+03;  1.0000000E-01;  1.2420389E+03;0;  0.0000000E+00;  0.0000000E+00;  0.0000000E+00;0; -1.2432170E-03;  4.0000000E+04;  0.0000000E+00;  0.0000000E+00;  4.0000000E+04;  0.0000000E+00;  4.0000000E+04; -8.1778481E-04;  0.0000000E+00; -4.2543220E-04;  1.8042120E+03;
  2.9999999E-02;  9.9999998E-03;  3.8000000E-01;1932;  0.0000000E+00;  0.0000000E+00;  0.0000000E+00;  1.0010479E+03;  1.0000000E-01;  8.6822235E+02;0;  0.0000000E+00;  0.0000000E+00;  0.0000000E+00;0; -8.4621576E-04;  4.0000000E+04;  0.0000000E+00;  0.0000000E+00;  4.0000000E+04;  0.0000000E+00;  4.0000000E+04; -5.2798574E-04;  0.0000000E+00; -3.1823004E-04;  1.4476117E+03;
  2.9999999E-02;  9.9999998E-03;  3.8999999E-01;1933;  0.0000000E+00;  0.0000000E+00;  0.0000000E+00;  1.0007143E+03;  1.0000000E-01;  5.9178571E+02;0;  0.0000000E+00;  0.0000000E+00;  0.0000000E+00;0; -5.5067783E-04;  4.0000000E+04;  0.0000000E+00;  0.0000000E+00;  4.0000000E+04;  0.0000000E+00;  4.0000000E+04; -3.2506263E-04;  0.0000000E+00; -2.2561519E-04;  1.0871870E+03;
  2.9999999E-02;  9.9999998E-03;  4.0000001E-01;1934;  0.0000000E+00;  0.0000000E+00;  0.0000000E+00;  1.0004472E+03;  1.0000000E-01;  3.7045865E+02;0;  0.0000000E+00;  0.0000000E+00;  0.0000000E+00;0; -3.3782248E-04;  4.0000000E+04;  0.0000000E+00;  0.0000000E+00;  4.0000000E+04;  0.0000000E+00;  4.0000000E+04; -1.8877008E-04;  0.0000000E+00; -1.4905240E-04;  7.5106512E+02;
  3.9999999E-02;  9.9999998E-03;  3.1000000E-01;1955;  0.0000000E+00;  0.0000000E+00;  0.0000000E+00;  1.0074296E+03;  1.0000000E-01;  6.1552827E+03;0;  0.0000000E+00;  0.0000000E+00;  0.0000000E+00;0; -6.5347604E-03;  4.0000000E+04;  0.0000000E+00;  0.0000000E+00;  4.0000000E+04;  0.0000000E+00;  4.0000000E+04; -5.4210513E-03;  0.0000000E+00; -1.1137092E-03;  1.9253151E+03;
  3.9999999E-02;  9.9999998E-03;  3.1999999E-01;1956;  0.0000000E+00;  0.0000000E+00;  0.0000000E+00;  1.0061186E+03;  1.0000000E-01;  5.0690913E+03;0;  0.0000000E+00;  0.0000000E+00;  0.0000000E+00;0; -5.3040544E-03;  4.0000000E+04;  0.0000000E+00;  0.0000000E+00;  4.0000000E+04;  0.0000000E+00;  4.0000000E+04; -4.2500258E-03;  0.0000000E+00; -1.0540284E-03;  2.3121355E+03;
  3.9999999E-02;  9.9999998E-03;  3.3000001E-01;1957;  0.0000000E+00;  0.0000000E+00;  0.0000000E+00;  1.0049122E+03;  1.0000000E-01;  4.0697122E+03;0;  0.0000000E+00;  0.0000000E+00;  0.0000000E+00;0; -4.1907998E-03;  4.0000000E+04;  0.0000000E+00;  0.0000000E+00;  4.0000000E+04;  0.0000000E+00;  4.0000000E+04; -3.2353238E-03;  0.0000000E+00; -9.5547590E-04;  2.4888538E+03;
  3.9999999E-02;  9.9999998E-03;  3.4000000E-01;1958;  0.0000000E+00;  0.0000000E+00;  0.0000000E+00;  1.0038486E+03;  1.0000000E-01;  3.1885518E+03;0;  0.0000000E+00;  0.0000000E+00;  0.0000000E+00;0; -3.2223735E-03;  4.0000000E+04;  0.0000000E+00;  0.0000000E+00;  4.0000000E+04;  0.0000000E+00;  4.0000000E+04; -2.3888147E-03;  0.0000000E+00; -8.3355879E-04;  2.4886453E+03;
  3.9999999E-02;  9.9999998E-03;  3.4999999E-01;1959;  0.0000000E+00;  0.0000000E+00;  0.0000000E+00;  1.0029375E+03;  1.0000000E-01;  2.4337090E+03;0;  0.0000000E+00;  0.0000000E+00;  0.0000000E+00;0; -2.4099103E-03;  4.0000000E+04;  0.0000000E+00;  0.0000000E+00;  4.0000000E+04;  0.0000000E+00;  4.0000000E+04; -1.7081624E-03;  0.0000000E+00; -7.0174789E-04;  2.3496714E+03;
  3.9999999E-02;  9.9999998E-03;  3.6000001E-01;1960;  0.0000000E+00;  0.0000000E+00;  0.0000000E+00;  1.0021912E+03;  1.0000000E-01;  1.8153561E+03;0;  0.0000000E+00;  0.0000000E+00;  0.0000000E+00;0; -1.7506507E-03;  4.0000000E+04;  0.0000000E+00;  0.0000000E+00;  4.0000000E+04;  0.0000000E+00;  4.0000000E+04; -1.1804044E-03;  0.0000000E+00; -5.7024625E-04;  2.1066748E+03;
  3.9999999E-02;  9.9999998E-03;  3.7000000E-01;1961;  0.0000000E+00;  0.0000000E+00;  0.0000000E+00;  1.0015800E+03;  1.0000000E-01;  1.3090000E+03;0;  0.0000000E+00;  0.0000000E+00;  0.0000000E+00;0; -1.2319912E-03;  4.0000000E+04;  0.0000000E+00;  0.0000000E+00;  4.0000000E+04;  0.0000000E+00;  4.0000000E+04; -7.8587781E-04;  0.0000000E+00; -4.4611338E-04;  1.7912072E+03;
  3.9999999E-02;  9.9999998E-03;  3.8000000E-01;1962;  0.0000000E+00;  0.0000000E+00;  0.0000000E+00;  1.0011100E+03;  1.0000000E-01;  9.1957892E+02;0;  0.0000000E+00;  0.0000000E+00;  0.0000000E+00;0; -8.3574897E-04;  4.0000000E+04;  0.0000000E+00;  0.0000000E+00;  4.0000000E+04;  0.0000000E+00;  4.0000000E+04; -5.0180039E-04;  0.0000000E+00; -3.3394856E-04;  1.4337030E+03;
  3.9999999E-02;  9.9999998E-03;  3.8999999E-01;1963;  0.0000000E+00;  0.0000000E+00;  0.0000000E+00;  1.0007555E+03;  1.0000000E-01;  6.2595758E+02;0;  0.0000000E+00;  0.0000000E+00;  0.0000000E+00;0; -5.4186105E-04;  4.0000000E+04;  0.0000000E+00;  0.0000000E+00;  4.0000000E+04;  0.0000000E+00;  4.0000000E+04; -3.0520020E-04;  0.0000000E+00; -2.3666084E-04;  1.0656071E+03;
  3.9999999E-02;  9.9999998E-03;  4.0000001E-01;1964;  0.0000000E+00;  0.0000000E+00;  0.0000000E+00;  1.0004854E+03;  1.0000000E-01;  4.0216147E+02;0;  0.0000000E+00;  0.0000000E+00;  0.0000000E+00;0; -3.3105025E-04;  4.0000000E+04;  0.0000000E+00;  0.0000000E+00;  4.0000000E+04;  0.0000000E+00;  4.0000000E+04; -1.7495638E-04;  0.0000000E+00; -1.5609387E-04;  7.2005786E+02;
  5.0000001E-02;  9.9999998E-03;  3.1000000E-01;1985;  0.0000000E+00;  0.0000000E+00;  0.0000000E+00;  1.0076627E+03;  1.0000000E-01;  6.3484624E+03;0;  0.0000000E+00;  0.0000000E+00;  0.0000000E+00;0; -6.3891085E-03;  4.0000000E+04;  0.0000000E+00;  0.0000000E+00;  4.0000000E+04;  0.0000000E+00;  4.0000000E+04; -5.2582771E-03;  0.0000000E+00; -1.1308313E-03;  1.7826986E+03;
  5.0000001E-02;  9.9999998E-03;  3.1999999E-01;1986;  0.0000000E+00;  0.0000000E+00;  0.0000000E+00;  1.0063188E+03;  1.0000000E-01;  5.2350122E+03;0;  0.0000000E+00;  0.0000000E+00;  0.0000000E+00;0; -5.1829759E-03;  4.0000000E+04;  0.0000000E+00;  0.0000000E+00;  4.0000000E+04;  0.0000000E+00;  4.0000000E+04; -4.1065128E-03;  0.0000000E+00; -1.0764629E-03;  2.1929106E+03;
  5.0000001E-02;  9.9999998E-03;  3.3000001E-01;1987;  0.0000000E+00;  0.0000000E+00;  0.0000000E+00;  1.0050700E+03;  1.0000000E-01;  4.2003750E+03;0;  0.0000000E+00;  0.0000000E+00;  0.0000000E+00;0; -4.0910603E-03;  4.0000000E+04;  0.0000000E+00;  0.0000000E+00;  4.0000000E+04;  0.0000000E+00;  4.0000000E+04; -3.1100844E-03;  0.0000000E+00; -9.8097569E-04;  2.4214954E+03;
  5.0000001E-02;  9.9999998E-03;  3.4000000E-01;1988;  0.0000000E+00;  0.0000000E+00;  0.0000000E+00;  1.0039683E+03;  1.0000000E-01;  3.2876108E+03;0;  0.0000000E+00;  0.0000000E+00;  0.0000000E+00;0; -3.1405319E-03;  4.0000000E+04;  0.0000000E+00;  0.0000000E+00;  4.0000000E+04;  0.0000000E+00;  4.0000000E+04; -2.2808821E-03;  0.0000000E+00; -8.5964991E-04;  2.4733892E+03;
  5.0000001E-02;  9.9999998E-03;  3.4999999E-01;1989;  0.0000000E+00;  0.0000000E+00;  0.0000000E+00;  1.0030311E+03;  1.0000000E-01;  2.5112375E+03;0;  0.0000000E+00;  0.0000000E+00;  0.0000000E+00;0; -2.3430849E-03;  4.0000000E+04;  0.0000000E+00;  0.0000000E+00;  4.0000000E+04;  0.0000000E+00;  4.0000000E+04; -1.6167547E-03;  0.0000000E+00; -7.2633021E-04;  2.3737427E+03;
  5.0000001E-02;  9.9999998E-03;  3.6000001E-01;1990;  0.0000000E+00;  0.0000000E+00;  0.0000000E+00;  1.0022536E+03;  1.0000000E-01;  1.8671077E+03;0;  0.0000000E+00;  0.0000000E+00;  0.0000000E+00;0; -1.6966793E-03;  4.0000000E+04;  0.0000000E+00;  0.0000000E+00;  4.0000000E+04;  0.0000000E+00;  4.0000000E+04; -1.1048608E-03;  0.0000000E+00; -5.9181853E-04;  2.1527800E+03;
  5.0000001E-02;  9.9999998E-03;  3.7000000E-01;1991;  0.0000000E+00;  0.0000000E+00;  0.0000000E+00;  1.0016263E+03;  1.0000000E-01;  1.3474187E+03;0;  0.0000000E+00;  0.0000000E+00;  0.0000000E+00;0; -1.1892613E-03;  4.0000000E+04;  0.0000000E+00;  0.0000000E+00;  4.0000000E+04;  0.0000000E+00;  4.0000000E+04; -7.2545500E-04;  0.0000000E+00; -4.6380635E-04;  1.8423075E+03;
  5.0000001E-02;  9.9999998E-03;  3.8000000E-01;1992;  0.0000000E+00;  0.0000000E+00;  0.0000000E+00;  1.0011513E+03;  1.0000000E-01;  9.5384955E+02;0;  0.0000000E+00;  0.0000000E+00;  0.0000000E+00;0; -8.0295710E-04;  4.0000000E+04;  0.0000000E+00;  0.0000000E+00;  4.0000000E+04;  0.0000000E+00;  4.0000000E+04; -4.5547559E-04;  0.0000000E+00; -3.4748149E-04;  1.4757764E+03;
  5.0000001E-02;  9.9999998E-03;  3.8999999E-01;1993;  0.0000000E+00;  0.0000000E+00;  0.0000000E+00;  1.0007655E+03;  1.0000000E-01;  6.3425366E+02;0;  0.0000000E+00;  0.0000000E+00;  0.0000000E+00;0; -5.1779905E-04;  4.0000000E+04;  0.0000000E+00;  0.0000000E+00;  4.0000000E+04;  0.0000000E+00;  4.0000000E+04; -2.7154337E-04;  0.0000000E+00; -2.4625566E-04;  1.0893804E+03;
  5.0000001E-02;  9.9999998E-03;  4.0000001E-01;1994;  0.0000000E+00;  0.0000000E+00;  0.0000000E+00;  1.0005006E+03;  1.0000000E-01;  4.1470432E+02;0;  0.0000000E+00;  0.0000000E+00;  0.0000000E+00;0; -3.1445886E-04;  4.0000000E+04;  0.0000000E+00;  0.0000000E+00;  4.0000000E+04;  0.0000000E+00;  4.0000000E+04; -1.5211612E-04;  0.0000000E+00; -1.6234275E-04;  7.2217987E+02;
  5.9999999E-02;  9.9999998E-03;  3.1000000E-01;2015;  0.0000000E+00;  0.0000000E+00;  0.0000000E+00;  1.0077471E+03;  1.0000000E-01;  6.4182876E+03;0;  0.0000000E+00;  0.0000000E+00;  0.0000000E+00;0; -6.1383732E-03;  4.0000000E+04;  0.0000000E+00;  0.0000000E+00;  4.0000000E+04;  0.0000000E+00;  4.0000000E+04; -4.9927006E-03;  0.0000000E+00; -1.1456728E-03;  1.7319349E+03;
  5.9999999E-02;  9.9999998E-03;  3.1999999E-01;2016;  0.0000000E+00;  0.0000000E+00;  0.0000000E+00;  1.0063937E+03;  1.0000000E-01;  5.2971343E+03;0;  0.0000000E+00;  0.0000000E+00;  0.0000000E+00;0; -4.9816733E-03;  4.0000000E+04;  0.0000000E+00;  0.0000000E+00;  4.0000000E+04;  0.0000000E+00;  4.0000000E+04; -3.8858366E-03;  0.0000000E+00; -1.0958366E-03;  2.1920759E+03;
  5.9999999E-02;  9.9999998E-03;  3.3000001E-01;2017;  0.0000000E+00;  0.0000000E+00;  0.0000000E+00;  1.0051347E+03;  1.0000000E-01;  4.2540029E+03;0;  0.0000000E+00;  0.0000000E+00;  0.0000000E+00;0; -3.9305594E-03;  4.0000000E+04;  0.0000000E+00;  0.0000000E+00;  4.0000000E+04;  0.0000000E+00;  4.0000000E+04; -2.9280849E-03;  0.0000000E+00; -1.0024746E-03;  2.4861069E+03;
  5.9999999E-02;  9.9999998E-03;  3.4000000E-01;2018;  0.0000000E+00;  0.0000000E+00;  0.0000000E+00;  1.0040188E+03;  1.0000000E-01;  3.3294861E+03;0;  0.0000000E+00;  0.0000000E+00;  0.0000000E+00;0; -3.0130669E-03;  4.0000000E+04;  0.0000000E+00;  0.0000000E+00;  4.0000000E+04;  0.0000000E+00;  4.0000000E+04; -2.1317524E-03;  0.0000000E+00; -8.8131463E-04;  2.5934058E+03;
  5.9999999E-02;  9.9999998E-03;  3.4999999E-01;2019;  0.0000000E+00;  0.0000000E+00;  0.0000000E+00;  1.0030632E+03;  1.0000000E-01;  2.5378047E+03;0;  0.0000000E+00;  0.0000000E+00;  0.0000000E+00;0; -2.2422979E-03;  4.0000000E+04;  0.0000000E+00;  0.0000000E+00;  4.0000000E+04;  0.0000000E+00;  4.0000000E+04; -1.4956574E-03;  0.0000000E+00; -7.4664038E-04;  2.5290457E+03;
  5.9999999E-02;  9.9999998E-03;  3.6000001E-01;2020;  0.0000000E+00;  0.0000000E+00;  0.0000000E+00;  1.0022765E+03;  1.0000000E-01;  1.8860701E+03;0;  0.0000000E+00;  0.0000000E+00;  0.0000000E+00;0; -1.6176407E-03;  4.0000000E+04;  0.0000000E+00;  0.0000000E+00;  4.0000000E+04;  0.0000000E+00;  4.0000000E+04; -1.0079590E-03;  0.0000000E+00; -6.0968165E-04;  2.3212222E+03;
  5.9999999E-02;  9.9999998E-03;  3.7000000E-01;2021;  0.0000000E+00;  0.0000000E+00;  0.0000000E+00;  1.0016413E+03;  1.0000000E-01;  1.3597640E+03;0;  0.0000000E+00;  0.0000000E+00;  0.0000000E+00;0; -1.1282325E-03;  4.0000000E+04;  0.0000000E+00;  0.0000000E+00;  4.0000000E+04;  0.0000000E+00;  4.0000000E+04; -6.4968126E-04;  0.0000000E+00; -4.7855123E-04;  2.0038660E+03;
  5.9999999E-02;  9.9999998E-03;  3.8000000E-01;2022;  0.0000000E+00;  0.0000000E+00;  0.0000000E+00;  1.0011638E+03;  1.0000000E-01;  9.6412091E+02;0;  0.0000000E+00;  0.0000000E+00;  0.0000000E+00;0; -7.5702672E-04;  4.0000000E+04;  0.0000000E+00;  0.0000000E+00;  4.0000000E+04;  0.0000000E+00;  4.0000000E+04; -3.9817326E-04;  0.0000000E+00; -3.5885343E-04;  1.6143311E+03;
  5.9999999E-02;  9.9999998E-03;  3.8999999E-01;2023;  0.0000000E+00;  0.0000000E+00;  0.0000000E+00;  1.0007772E+03;  1.0000000E-01;  6.4383362E+02;0;  0.0000000E+00;  0.0000000E+00;  0.0000000E+00;0; -4.8456583E-04;  4.0000000E+04;  0.0000000E+00;  0.0000000E+00;  4.0000000E+04;  0.0000000E+00;  4.0000000E+04; -2.3015958E-04;  0.0000000E+00; -2.5440624E-04;  1.1937546E+03;
  5.9999999E-02;  9.9999998E-03;  4.0000001E-01;2024;  0.0000000E+00;  0.0000000E+00;  0.0000000E+00;  1.0004890E+03;  1.0000000E-01;  4.0512436E+02;0;  0.0000000E+00;  0.0000000E+00;  0.0000000E+00;0; -2.9180362E-04;  4.0000000E+04;  0.0000000E+00;  0.0000000E+00;  4.0000000E+04;  0.0000000E+00;  4.0000000E+04; -1.2402925E-04;  0.0000000E+00; -1.6777436E-04;  7.8744049E+02;
  7.0000000E-02;  9.9999998E-03;  3.1000000E-01;2045;  0.0000000E+00;  0.0000000E+00;  0.0000000E+00;  1.0077290E+03;  1.0000000E-01;  6.4033745E+03;0;  0.0000000E+00;  0.0000000E+00;  0.0000000E+00;0; -5.8615939E-03;  4.0000000E+04;  0.0000000E+00;  0.0000000E+00;  4.0000000E+04;  0.0000000E+00;  4.0000000E+04; -4.7055888E-03;  0.0000000E+00; -1.1560051E-03;  1.7327031E+03;
  7.0000000E-02;  9.9999998E-03;  3.1999999E-01;2046;  0.0000000E+00;  0.0000000E+00;  0.0000000E+00;  1.0063943E+03;  1.0000000E-01;  5.2976279E+03;0;  0.0000000E+00;  0.0000000E+00;  0.0000000E+00;0; -4.7636377E-03;  4.0000000E+04;  0.0000000E+00;  0.0000000E+00;  4.0000000E+04;  0.0000000E+00;  4.0000000E+04; -3.6537682E-03;  0.0000000E+00; -1.1098696E-03;  2.3300664E+03;
  7.0000000E-02;  9.9999998E-03;  3.3000001E-01;2047;  0.0000000E+00;  0.0000000E+00;  0.0000000E+00;  1.0051425E+03;  1.0000000E-01;  4.2604229E+03;0;  0.0000000E+00;  0.0000000E+00;  0.0000000E+00;0; -3.7593953E-03;  4.0000000E+04;  0.0000000E+00;  0.0000000E+00;  4.0000000E+04;  0.0000000E+00;  4.0000000E+04; -2.7415759E-03;  0.0000000E+00; -1.0178194E-03;  2.7271819E+03;
  7.0000000E-02;  9.9999998E-03;  3.4000000E-01;2048;  0.0000000E+00;  0.0000000E+00;  0.0000000E+00;  1.0040210E+03;  1.0000000E-01;  3.3313625E+03;0;  0.0000000E+00;  0.0000000E+00;  0.0000000E+00;0; -2.8787754E-03;  4.0000000E+04;  0.0000000E+00;  0.0000000E+00;  4.0000000E+04;  0.0000000E+00;  4.0000000E+04; -1.9821574E-03;  0.0000000E+00; -8.9661794E-04;  2.8980320E+03;
  7.0000000E-02;  9.9999998E-03;  3.4999999E-01;2049;  0.0000000E+00;  0.0000000E+00;  0.0000000E+00;  1.0030640E+03;  1.0000000E-01;  2.5383975E+03;0;  0.0000000E+00;  0.0000000E+00;  0.0000000E+00;0; -2.1370277E-03;  4.0000000E+04;  0.0000000E+00;  0.0000000E+00;  4.0000000E+04;  0.0000000E+00;  4.0000000E+04; -1.3759943E-03;  0.0000000E+00; -7.6103344E-04;  2.8609849E+03;
  7.0000000E-02;  9.9999998E-03;  3.6000001E-01;2050;  0.0000000E+00;  0.0000000E+00;  0.0000000E+00;  1.0022617E+03;  1.0000000E-01;  1.8738235E+03;0;  0.0000000E+00;  0.0000000E+00;  0.0000000E+00;0; -1.5355165E-03;  4.0000000E+04;  0.0000000E+00;  0.0000000E+00;  4.0000000E+04;  0.0000000E+00;  4.0000000E+04; -9.1298879E-04;  0.0000000E+00; -6.2252762E-04;  2.6511699E+03;
  7.0000000E-02;  9.9999998E-03;  3.7000000E-01;2051;  0.0000000E+00;  0.0000000E+00;  0.0000000E+00;  1.0016237E+03;  1.0000000E-01;  1.3451471E+03;0;  0.0000000E+00;  0.0000000E+00;  0.0000000E+00;0; -1.0649045E-03;  4.0000000E+04;  0.0000000E+00;  0.0000000E+00;  4.0000000E+04;  0.0000000E+00;  4.0000000E+04; -5.7552248E-04;  0.0000000E+00; -4.8938207E-04;  2.3093467E+03;
  7.0000000E-02;  9.9999998E-03;  3.8000000E-01;2052;  0.0000000E+00;  0.0000000E+00;  0.0000000E+00;  1.0011447E+03;  1.0000000E-01;  9.4841760E+02;0;  0.0000000E+00;  0.0000000E+00;  0.0000000E+00;0; -7.0922374E-04;  4.0000000E+04;  0.0000000E+00;  0.0000000E+00;  4.0000000E+04;  0.0000000E+00;  4.0000000E+04; -3.4181945E-04;  0.0000000E+00; -3.6740428E-04;  1.8784521E+03;
  7.0000000E-02;  9.9999998E-03;  3.8999999E-01;2053;  0.0000000E+00;  0.0000000E+00;  0.0000000E+00;  1.0007692E+03;  1.0000000E-01;  6.3731531E+02;0;  0.0000000E+00;  0.0000000E+00;  0.0000000E+00;0; -4.4973620E-04;  4.0000000E+04;  0.0000000E+00;  0.0000000E+00;  4.0000000E+04;  0.0000000E+00;  4.0000000E+04; -1.8905307E-04;  0.0000000E+00; -2.6068313E-04;  1.4046238E+03;
  7.0000000E-02;  9.9999998E-03;  4.0000001E-01;2054;  0.0000000E+00;  0.0000000E+00;  0.0000000E+00;  1.0004633E+03;  1.0000000E-01;  3.8379163E+02;0;  0.0000000E+00;  0.0000000E+00;  0.0000000E+00;0; -2.6782288E-04;  4.0000000E+04;  0.0000000E+00;  0.0000000E+00;  4.0000000E+04;  0.0000000E+00;  4.0000000E+04; -9.5744166E-05;  0.0000000E+00; -1.7207870E-04;  9.3888947E+02;
  7.9999998E-02;  9.9999998E-03;  3.1000000E-01;2075;  0.0000000E+00;  0.0000000E+00;  0.0000000E+00;  1.0076812E+03;  1.0000000E-01;  6.3636719E+03;0;  0.0000000E+00;  0.0000000E+00;  0.0000000E+00;0; -5.6366706E-03;  4.0000000E+04;  0.0000000E+00;  0.0000000E+00;  4.0000000E+04;  0.0000000E+00;  4.0000000E+04; -4.4821375E-03;  0.0000000E+00; -1.1545334E-03;  1.7829679E+03;
  7.9999998E-02;  9.9999998E-03;  3.1999999E-01;2076;  0.0000000E+00;  0.0000000E+00;  0.0000000E+00;  1.0063692E+03;  1.0000000E-01;  5.2767891E+03;0;  0.0000000E+00;  0.0000000E+00;  0.0000000E+00;0; -4.5909733E-03;  4.0000000E+04;  0.0000000E+00;  0.0000000E+00;  4.0000000E+04;  0.0000000E+00;  4.0000000E+04; -3.4790603E-03;  0.0000000E+00; -1.1119130E-03;  2.6215994E+03;
  7.9999998E-02;  9.9999998E-03;  3.3000001E-01;2077;  0.0000000E+00;  0.0000000E+00;  0.0000000E+00;  1.0051311E+03;  1.0000000E-01;  4.2510400E+03;0;  0.0000000E+00;  0.0000000E+00;  0.0000000E+00;0; -3.6263634E-03;  4.0000000E+04;  0.0000000E+00;  0.0000000E+00;  4.0000000E+04;  0.0000000E+00;  4.0000000E+04; -2.6049218E-03;  0.0000000E+00; -1.0214414E-03;  3.1637041E+03;
  7.9999998E-02;  9.9999998E-03;  3.4000000E-01;2078;  0.0000000E+00;  0.0000000E+00;  0.0000000E+00;  1.0040110E+03;  1.0000000E-01;  3.3230664E+03;0;  0.0000000E+00;  0.0000000E+00;  0.0000000E+00;0; -2.7754190E-03;  4.0000000E+04;  0.0000000E+00;  0.0000000E+00;  4.0000000E+04;  0.0000000E+00;  4.0000000E+04; -1.8743002E-03;  0.0000000E+00; -9.0111874E-04;  3.4065266E+03;
  7.9999998E-02;  9.9999998E-03;  3.4999999E-01;2079;  0.0000000E+00;  0.0000000E+00;  0.0000000E+00;  1.0030463E+03;  1.0000000E-01;  2.5237805E+03;0;  0.0000000E+00;  0.0000000E+00;  0.0000000E+00;0; -2.0560303E-03;  4.0000000E+04;  0.0000000E+00;  0.0000000E+00;  4.0000000E+04;  0.0000000E+00;  4.0000000E+04; -1.2899559E-03;  0.0000000E+00; -7.6607446E-04;  3.3870852E+03;
  7.9999998E-02;  9.9999998E-03;  3.6000001E-01;2080;  0.0000000E+00;  0.0000000E+00;  0.0000000E+00;  1.0022464E+03;  1.0000000E-01;  1.8610831E+03;0;  0.0000000E+00;  0.0000000E+00;  0.0000000E+00;0; -1.4717442E-03;  4.0000000E+04;  0.0000000E+00;  0.0000000E+00;  4.0000000E+04;  0.0000000E+00;  4.0000000E+04; -8.4399409E-04;  0.0000000E+00; -6.2775012E-04;  3.1575474E+03;
  7.9999998E-02;  9.9999998E-03;  3.7000000E-01;2081;  0.0000000E+00;  0.0000000E+00;  0.0000000E+00;  1.0016093E+03;  1.0000000E-01;  1.3332957E+03;0;  0.0000000E+00;  0.0000000E+00;  0.0000000E+00;0; -1.0148706E-03;  4.0000000E+04;  0.0000000E+00;  0.0000000E+00;  4.0000000E+04;  0.0000000E+00;  4.0000000E+04; -5.2051066E-04;  0.0000000E+00; -4.9435993E-04;  2.7711628E+03;
  7.9999998E-02;  9.9999998E-03;  3.8000000E-01;2082;  0.0000000E+00;  0.0000000E+00;  0.0000000E+00;  1.0011170E+03;  1.0000000E-01;  9.2540594E+02;0;  0.0000000E+00;  0.0000000E+00;  0.0000000E+00;0; -6.7057041E-04;  4.0000000E+04;  0.0000000E+00;  0.0000000E+00;  4.0000000E+04;  0.0000000E+00;  4.0000000E+04; -2.9882888E-04;  0.0000000E+00; -3.7174157E-04;  2.2787600E+03;
  7.9999998E-02;  9.9999998E-03;  3.8999999E-01;2083;  0.0000000E+00;  0.0000000E+00;  0.0000000E+00;  1.0007490E+03;  1.0000000E-01;  6.2052563E+02;0;  0.0000000E+00;  0.0000000E+00;  0.0000000E+00;0; -4.2080545E-04;  4.0000000E+04;  0.0000000E+00;  0.0000000E+00;  4.0000000E+04;  0.0000000E+00;  4.0000000E+04; -1.5667189E-04;  0.0000000E+00; -2.6413356E-04;  1.7318337E+03;
  7.9999998E-02;  9.9999998E-03;  4.0000001E-01;2084;  0.0000000E+00;  0.0000000E+00;  0.0000000E+00;  1.0004531E+03;  1.0000000E-01;  3.7539679E+02;0;  0.0000000E+00;  0.0000000E+00;  0.0000000E+00;0; -2.4731667E-04;  4.0000000E+04;  0.0000000E+00;  0.0000000E+00;  4.0000000E+04;  0.0000000E+00;  4.0000000E+04; -7.2695817E-05;  0.0000000E+00; -1.7462084E-04;  1.1864958E+03;
  9.0000004E-02;  9.9999998E-03;  3.1000000E-01;2105;  0.0000000E+00;  0.0000000E+00;  0.0000000E+00;  1.0076880E+03;  1.0000000E-01;  6.3693999E+03;0;  0.0000000E+00;  0.0000000E+00;  0.0000000E+00;0; -5.5283708E-03;  4.0000000E+04;  0.0000000E+00;  0.0000000E+00;  4.0000000E+04;  0.0000000E+00;  4.0000000E+04; -4.3973462E-03;  0.0000000E+00; -1.1310246E-03;  2.3685615E+03;
  9.0000004E-02;  9.9999998E-03;  3.1999999E-01;2106;  0.0000000E+00;  0.0000000E+00;  0.0000000E+00;  1.0063974E+03;  1.0000000E-01;  5.3000972E+03;0;  0.0000000E+00;  0.0000000E+00;  0.0000000E+00;0; -4.5154742E-03;  4.0000000E+04;  0.0000000E+00;  0.0000000E+00;  4.0000000E+04;  0.0000000E+00;  4.0000000E+04; -3.4225357E-03;  0.0000000E+00; -1.0929385E-03;  3.2532151E+03;
  9.0000004E-02;  9.9999998E-03;  3.3000001E-01;2107;  0.0000000E+00;  0.0000000E+00;  0.0000000E+00;  1.0051591E+03;  1.0000000E-01;  4.2742495E+03;0;  0.0000000E+00;  0.0000000E+00;  0.0000000E+00;0; -3.5724486E-03;  4.0000000E+04;  0.0000000E+00;  0.0000000E+00;  4.0000000E+04;  0.0000000E+00;  4.0000000E+04; -2.5664056E-03;  0.0000000E+00; -1.0060431E-03;  3.8579089E+03;
  9.0000004E-02;  9.9999998E-03;  3.4000000E-01;2108;  0.0000000E+00;  0.0000000E+00;  0.0000000E+00;  1.0040323E+03;  1.0000000E-01;  3.3407451E+03;0;  0.0000000E+00;  0.0000000E+00;  0.0000000E+00;0; -2.7349954E-03;  4.0000000E+04;  0.0000000E+00;  0.0000000E+00;  4.0000000E+04;  0.0000000E+00;  4.0000000E+04; -1.8458023E-03;  0.0000000E+00; -8.8919303E-04;  4.1294541E+03;
  9.0000004E-02;  9.9999998E-03;  3.4999999E-01;2109;  0.0000000E+00;  0.0000000E+00;  0.0000000E+00;  1.0030602E+03;  1.0000000E-01;  2.5353357E+03;0;  0.0000000E+00;  0.0000000E+00;  0.0000000E+00;0; -2.0237621E-03;  4.0000000E+04;  0.0000000E+00;  0.0000000E+00;  4.0000000E+04;  0.0000000E+00;  4.0000000E+04; -1.2662668E-03;  0.0000000E+00; -7.5749535E-04;  4.0995635E+03;
  9.0000004E-02;  9.9999998E-03;  3.6000001E-01;2110;  0.0000000E+00;  0.0000000E+00;  0.0000000E+00;  1.0022444E+03;  1.0000000E-01;  1.8594042E+03;0;  0.0000000E+00;  0.0000000E+00;  0.0000000E+00;0; -1.4445635E-03;  4.0000000E+04;  0.0000000E+00;  0.0000000E+00;  4.0000000E+04;  0.0000000E+00;  4.0000000E+04; -8.2245184E-04;  0.0000000E+00; -6.2211161E-04;  3.8276692E+03;
  9.0000004E-02;  9.9999998E-03;  3.7000000E-01;2111;  0.0000000E+00;  0.0000000E+00;  0.0000000E+00;  1.0015964E+03;  1.0000000E-01;  1.3225305E+03;0;  0.0000000E+00;  0.0000000E+00;  0.0000000E+00;0; -9.9137239E-04;  4.0000000E+04;  0.0000000E+00;  0.0000000E+00;  4.0000000E+04;  0.0000000E+00;  4.0000000E+04; -5.0034351E-04;  0.0000000E+00; -4.9102894E-04;  3.3762000E+03;
  9.0000004E-02;  9.9999998E-03;  3.8000000E-01;2112;  0.0000000E+00;  0.0000000E+00;  0.0000000E+00;  1.0011007E+03;  1.0000000E-01;  9.1187543E+02;0;  0.0000000E+00;  0.0000000E+00;  0.0000000E+00;0; -6.5039570E-04;  4.0000000E+04;  0.0000000E+00;  0.0000000E+00;  4.0000000E+04;  0.0000000E+00;  4.0000000E+04; -2.8037946E-04;  0.0000000E+00; -3.7001623E-04;  2.8034353E+03;
  9.0000004E-02;  9.9999998E-03;  3.8999999E-01;2113;  0.0000000E+00;  0.0000000E+00;  0.0000000E+00;  1.0007220E+03;  1.0000000E-01;  5.9820532E+02;0;  0.0000000E+00;  0.0000000E+00;  0.0000000E+00;0; -4.0410660E-04;  4.0000000E+04;  0.0000000E+00;  0.0000000E+00;  4.0000000E+04;  0.0000000E+00;  4.0000000E+04; -1.4070843E-04;  0.0000000E+00; -2.6339816E-04;  2.1659463E+03;
  9.0000004E-02;  9.9999998E-03;  4.0000001E-01;2114;  0.0000000E+00;  0.0000000E+00;  0.0000000E+00;  1.0004385E+03;  1.0000000E-01;  3.6324899E+02;0;  0.0000000E+00;  0.0000000E+00;  0.0000000E+00;0; -2.3436203E-04;  4.0000000E+04;  0.0000000E+00;  0.0000000E+00;  4.0000000E+04;  0.0000000E+00;  4.0000000E+04; -5.9917598E-05;  0.0000000E+00; -1.7444443E-04;  1.5238828E+03;
  1.0000000E-01;  9.9999998E-03;  3.1000000E-01;2135;  0.0000000E+00;  0.0000000E+00;  0.0000000E+00;  1.0078062E+03;  1.0000000E-01;  6.4672739E+03;0;  0.0000000E+00;  0.0000000E+00;  0.0000000E+00;0; -5.5814618E-03;  4.0000000E+04;  0.0000000E+00;  0.0000000E+00;  4.0000000E+04;  0.0000000E+00;  4.0000000E+04; -4.5056627E-03;  0.0000000E+00; -1.0757993E-03;  4.4715972E+03;
  1.0000000E-01;  9.9999998E-03;  3.1999999E-01;2136;  0.0000000E+00;  0.0000000E+00;  0.0000000E+00;  1.0065232E+03;  1.0000000E-01;  5.4043901E+03;0;  0.0000000E+00;  0.0000000E+00;  0.0000000E+00;0; -4.5741666E-03;  4.0000000E+04;  0.0000000E+00;  0.0000000E+00;  4.0000000E+04;  0.0000000E+00;  4.0000000E+04; -3.5294853E-03;  0.0000000E+00; -1.0446812E-03;  4.7890347E+03;
  1.0000000E-01;  9.9999998E-03;  3.3000001E-01;2137;  0.0000000E+00;  0.0000000E+00;  0.0000000E+00;  1.0052700E+03;  1.0000000E-01;  4.3660986E+03;0;  0.0000000E+00;  0.0000000E+00;  0.0000000E+00;0; -3.6280116E-03;  4.0000000E+04;  0.0000000E+00;  0.0000000E+00;  4.0000000E+04;  0.0000000E+00;  4.0000000E+04; -2.6628424E-03;  0.0000000E+00; -9.6516911E-04;  5.0646387E+03;
  1.0000000E-01;  9.9999998E-03;  3.4000000E-01;2138;  0.0000000E+00;  0.0000000E+00;  0.0000000E+00;  1.0041252E+03;  1.0000000E-01;  3.4176812E+03;0;  0.0000000E+00;  0.0000000E+00;  0.0000000E+00;0; -2.7818449E-03;  4.0000000E+04;  0.0000000E+00;  0.0000000E+00;  4.0000000E+04;  0.0000000E+00;  4.0000000E+04; -1.9258939E-03;  0.0000000E+00; -8.5595093E-04;  5.1498149E+03;
  1.0000000E-01;  9.9999998E-03;  3.4999999E-01;2139;  0.0000000E+00;  0.0000000E+00;  0.0000000E+00;  1.0031223E+03;  1.0000000E-01;  2.5867910E+03;0;  0.0000000E+00;  0.0000000E+00;  0.0000000E+00;0; -2.0591891E-03;  4.0000000E+04;  0.0000000E+00;  0.0000000E+00;  4.0000000E+04;  0.0000000E+00;  4.0000000E+04; -1.3276021E-03;  0.0000000E+00; -7.3158718E-04;  4.9999878E+03;
  1.0000000E-01;  9.9999998E-03;  3.6000001E-01;2140;  0.0000000E+00;  0.0000000E+00;  0.0000000E+00;  1.0022791E+03;  1.0000000E-01;  1.8881442E+03;0;  0.0000000E+00;  0.0000000E+00;  0.0000000E+00;0; -1.4682816E-03;  4.0000000E+04;  0.0000000E+00;  0.0000000E+00;  4.0000000E+04;  0.0000000E+00;  4.0000000E+04; -8.6553273E-04;  0.0000000E+00; -6.0274889E-04;  4.6315371E+03;
  1.0000000E-01;  9.9999998E-03;  3.7000000E-01;2141;  0.0000000E+00;  0.0000000E+00;  0.0000000E+00;  1.0016086E+03;  1.0000000E-01;  1.3327030E+03;0;  0.0000000E+00;  0.0000000E+00;  0.0000000E+00;0; -1.0048280E-03;  4.0000000E+04;  0.0000000E+00;  0.0000000E+00;  4.0000000E+04;  0.0000000E+00;  4.0000000E+04; -5.2769465E-04;  0.0000000E+00; -4.7713338E-04;  4.0871917E+03;
  1.0000000E-01;  9.9999998E-03;  3.8000000E-01;2142;  0.0000000E+00;  0.0000000E+00;  0.0000000E+00;  1.0011026E+03;  1.0000000E-01;  9.1345563E+02;0;  0.0000000E+00;  0.0000000E+00;  0.0000000E+00;0; -6.5599731E-04;  4.0000000E+04;  0.0000000E+00;  0.0000000E+00;  4.0000000E+04;  0.0000000E+00;  4.0000000E+04; -2.9556107E-04;  0.0000000E+00; -3.6043624E-04;  3.4180784E+03;
  1.0000000E-01;  9.9999998E-03;  3.8999999E-01;2143;  0.0000000E+00;  0.0000000E+00;  0.0000000E+00;  1.0007076E+03;  1.0000000E-01;  5.8625500E+02;0;  0.0000000E+00;  0.0000000E+00;  0.0000000E+00;0; -4.0452951E-04;  4.0000000E+04;  0.0000000E+00;  0.0000000E+00;  4.0000000E+04;  0.0000000E+00;  4.0000000E+04; -1.4746287E-04;  0.0000000E+00; -2.5706665E-04;  2.6788391E+03;
  1.0000000E-01;  9.9999998E-03;  4.0000001E-01;2144;  0.0000000E+00;  0.0000000E+00;  0.0000000E+00;  1.0004287E+03;  1.0000000E-01;  3.5515045E+02;0;  0.0000000E+00;  0.0000000E+00;  0.0000000E+00;0; -2.3205747E-04;  4.0000000E+04;  0.0000000E+00;  0.0000000E+00;  4.0000000E+04;  0.0000000E+00;  4.0000000E+04; -6.1582949E-05;  0.0000000E+00; -1.7047452E-04;  1.9298820E+03;
  1.1000000E-01;  9.9999998E-03;  3.1000000E-01;2165;  0.0000000E+00;  0.0000000E+00;  0.0000000E+00;  1.0081026E+03;  1.0000000E-01;  6.7128965E+03;0;  0.0000000E+00;  0.0000000E+00;  0.0000000E+00;0; -5.8181640E-03;  4.0000000E+04;  0.0000000E+00;  0.0000000E+00;  4.0000000E+04;  0.0000000E+00;  4.0000000E+04; -4.8343977E-03;  0.0000000E+00; -9.8376605E-04;  8.6670566E+03;
  1.1000000E-01;  9.9999998E-03;  3.1999999E-01;2166;  0.0000000E+00;  0.0000000E+00;  0.0000000E+00;  1.0067969E+03;  1.0000000E-01;  5.6310508E+03;0;  0.0000000E+00;  0.0000000E+00;  0.0000000E+00;0; -4.7882060E-03;  4.0000000E+04;  0.0000000E+00;  0.0000000E+00;  4.0000000E+04;  0.0000000E+00;  4.0000000E+04; -3.8251372E-03;  0.0000000E+00; -9.6306892E-04;  7.9954351E+03;
  1.1000000E-01;  9.9999998E-03;  3.3000001E-01;2167;  0.0000000E+00;  0.0000000E+00;  0.0000000E+00;  1.0055107E+03;  1.0000000E-01;  4.5655005E+03;0;  0.0000000E+00;  0.0000000E+00;  0.0000000E+00;0; -3.8123375E-03;  4.0000000E+04;  0.0000000E+00;  0.0000000E+00;  4.0000000E+04;  0.0000000E+00;  4.0000000E+04; -2.9165437E-03;  0.0000000E+00; -8.9579378E-04;  7.3482437E+03;
  1.1000000E-01;  9.9999998E-03;  3.4000000E-01;2168;  0.0000000E+00;  0.0000000E+00;  0.0000000E+00;  1.0043145E+03;  1.0000000E-01;  3.5744175E+03;0;  0.0000000E+00;  0.0000000E+00;  0.0000000E+00;0; -2.9326431E-03;  4.0000000E+04;  0.0000000E+00;  0.0000000E+00;  4.0000000E+04;  0.0000000E+00;  4.0000000E+04; -2.1335380E-03;  0.0000000E+00; -7.9910498E-04;  6.7565742E+03;
  1.1000000E-01;  9.9999998E-03;  3.4999999E-01;2169;  0.0000000E+00;  0.0000000E+00;  0.0000000E+00;  1.0032650E+03;  1.0000000E-01;  2.7049111E+03;0;  0.0000000E+00;  0.0000000E+00;  0.0000000E+00;0; -2.1759740E-03;  4.0000000E+04;  0.0000000E+00;  0.0000000E+00;  4.0000000E+04;  0.0000000E+00;  4.0000000E+04; -1.4894535E-03;  0.0000000E+00; -6.8652048E-04;  6.1783105E+03;
  1.1000000E-01;  9.9999998E-03;  3.6000001E-01;2170;  0.0000000E+00;  0.0000000E+00;  0.0000000E+00;  1.0023798E+03;  1.0000000E-01;  1.9715985E+03;0;  0.0000000E+00;  0.0000000E+00;  0.0000000E+00;0; -1.5535147E-03;  4.0000000E+04;  0.0000000E+00;  0.0000000E+00;  4.0000000E+04;  0.0000000E+00;  4.0000000E+04; -9.8540424E-04;  0.0000000E+00; -5.6811044E-04;  5.5550806E+03;
  1.1000000E-01;  9.9999998E-03;  3.7000000E-01;2171;  0.0000000E+00;  0.0000000E+00;  0.0000000E+00;  1.0016723E+03;  1.0000000E-01;  1.3854423E+03;0;  0.0000000E+00;  0.0000000E+00;  0.0000000E+00;0; -1.0630641E-03;  4.0000000E+04;  0.0000000E+00;  0.0000000E+00;  4.0000000E+04;  0.0000000E+00;  4.0000000E+04; -6.1175507E-04;  0.0000000E+00; -4.5130905E-04;  4.8527578E+03;
  1.1000000E-01;  9.9999998E-03;  3.8000000E-01;2172;  0.0000000E+00;  0.0000000E+00;  0.0000000E+00;  1.0011279E+03;  1.0000000E-01;  9.3449207E+02;0;  0.0000000E+00;  0.0000000E+00;  0.0000000E+00;0; -6.9283141E-04;  4.0000000E+04;  0.0000000E+00;  0.0000000E+00;  4.0000000E+04;  0.0000000E+00;  4.0000000E+04; -3.5105227E-04;  0.0000000E+00; -3.4177914E-04;  4.0694089E+03;
  1.1000000E-01;  9.9999998E-03;  3.8999999E-01;2173;  0.0000000E+00;  0.0000000E+00;  0.0000000E+00;  1.0007209E+03;  1.0000000E-01;  5.9721765E+02;0;  0.0000000E+00;  0.0000000E+00;  0.0000000E+00;0; -4.2565609E-04;  4.0000000E+04;  0.0000000E+00;  0.0000000E+00;  4.0000000E+04;  0.0000000E+00;  4.0000000E+04; -1.8159722E-04;  0.0000000E+00; -2.4405889E-04;  3.2290447E+03;
  1.1000000E-01;  9.9999998E-03;  4.0000001E-01;2174;  0.0000000E+00;  0.0000000E+00;  0.0000000E+00;  1.0004332E+03;  1.0000000E-01;  3.5890344E+02;0;  0.0000000E+00;  0.0000000E+00;  0.0000000E+00;0; -2.4259914E-04;  4.0000000E+04;  0.0000000E+00;  0.0000000E+00;  4.0000000E+04;  0.0000000E+00;  4.0000000E+04; -8.0804042E-05;  0.0000000E+00; -1.6179511E-04;  2.3770188E+03;
  1.2000000E-01;  9.9999998E-03;  3.1000000E-01;2195;  0.0000000E+00;  0.0000000E+00;  0.0000000E+00;  1.0086015E+03;  1.0000000E-01;  7.1262183E+03;0;  0.0000000E+00;  0.0000000E+00;  0.0000000E+00;0; -6.2383208E-03;  4.0000000E+04;  0.0000000E+00;  0.0000000E+00;  4.0000000E+04;  0.0000000E+00;  4.0000000E+04; -5.3807730E-03;  0.0000000E+00; -8.5754762E-04;  1.5370316E+04;
  1.2000000E-01;  9.9999998E-03;  3.1999999E-01;2196;  0.0000000E+00;  0.0000000E+00;  0.0000000E+00;  1.0072538E+03;  1.0000000E-01;  6.0096079E+03;0;  0.0000000E+00;  0.0000000E+00;  0.0000000E+00;0; -5.1630461E-03;  4.0000000E+04;  0.0000000E+00;  0.0000000E+00;  4.0000000E+04;  0.0000000E+00;  4.0000000E+04; -4.3124189E-03;  0.0000000E+00; -8.5062720E-04;  1.3517107E+04;
  1.2000000E-01;  9.9999998E-03;  3.3000001E-01;2197;  0.0000000E+00;  0.0000000E+00;  0.0000000E+00;  1.0059077E+03;  1.0000000E-01;  4.8943799E+03;0;  0.0000000E+00;  0.0000000E+00;  0.0000000E+00;0; -4.1337810E-03;  4.0000000E+04;  0.0000000E+00;  0.0000000E+00;  4.0000000E+04;  0.0000000E+00;  4.0000000E+04; -3.3338098E-03;  0.0000000E+00; -7.9997117E-04;  1.1442758E+04;
  1.2000000E-01;  9.9999998E-03;  3.4000000E-01;2198;  0.0000000E+00;  0.0000000E+00;  0.0000000E+00;  1.0046442E+03;  1.0000000E-01;  3.8475950E+03;0;  0.0000000E+00;  0.0000000E+00;  0.0000000E+00;0; -3.1964774E-03;  4.0000000E+04;  0.0000000E+00;  0.0000000E+00;  4.0000000E+04;  0.0000000E+00;  4.0000000E+04; -2.4763974E-03;  0.0000000E+00; -7.2007987E-04;  9.5153486E+03;
  1.2000000E-01;  9.9999998E-03;  3.4999999E-01;2199;  0.0000000E+00;  0.0000000E+00;  0.0000000E+00;  1.0035197E+03;  1.0000000E-01;  2.9160657E+03;0;  0.0000000E+00;  0.0000000E+00;  0.0000000E+00;0; -2.3825276E-03;  4.0000000E+04;  0.0000000E+00;  0.0000000E+00;  4.0000000E+04;  0.0000000E+00;  4.0000000E+04; -1.7594127E-03;  0.0000000E+00; -6.2311493E-04;  7.9222969E+03;
  1.2000000E-01;  9.9999998E-03;  3.6000001E-01;2200;  0.0000000E+00;  0.0000000E+00;  0.0000000E+00;  1.0025653E+03;  1.0000000E-01;  2.1252732E+03;0;  0.0000000E+00;  0.0000000E+00;  0.0000000E+00;0; -1.7072589E-03;  4.0000000E+04;  0.0000000E+00;  0.0000000E+00;  4.0000000E+04;  0.0000000E+00;  4.0000000E+04; -1.1887338E-03;  0.0000000E+00; -5.1852502E-04;  6.6639414E+03;
  1.2000000E-01;  9.9999998E-03;  3.7000000E-01;2201;  0.0000000E+00;  0.0000000E+00;  0.0000000E+00;  1.0018031E+03;  1.0000000E-01;  1.4938837E+03;0;  0.0000000E+00;  0.0000000E+00;  0.0000000E+00;0; -1.1714128E-03;  4.0000000E+04;  0.0000000E+00;  0.0000000E+00;  4.0000000E+04;  0.0000000E+00;  4.0000000E+04; -7.5789553E-04;  0.0000000E+00; -4.1351721E-04;  5.6291499E+03;
  1.2000000E-01;  9.9999998E-03;  3.8000000E-01;2202;  0.0000000E+00;  0.0000000E+00;  0.0000000E+00;  1.0012003E+03;  1.0000000E-01;  9.9434222E+02;0;  0.0000000E+00;  0.0000000E+00;  0.0000000E+00;0; -7.6465344E-04;  4.0000000E+04;  0.0000000E+00;  0.0000000E+00;  4.0000000E+04;  0.0000000E+00;  4.0000000E+04; -4.5089331E-04;  0.0000000E+00; -3.1376016E-04;  4.6922866E+03;
  1.2000000E-01;  9.9999998E-03;  3.8999999E-01;2203;  0.0000000E+00;  0.0000000E+00;  0.0000000E+00;  1.0007534E+03;  1.0000000E-01;  6.2417987E+02;0;  0.0000000E+00;  0.0000000E+00;  0.0000000E+00;0; -4.6993187E-04;  4.0000000E+04;  0.0000000E+00;  0.0000000E+00;  4.0000000E+04;  0.0000000E+00;  4.0000000E+04; -2.4599239E-04;  0.0000000E+00; -2.2393950E-04;  3.7731487E+03;
  1.2000000E-01;  9.9999998E-03;  4.0000001E-01;2204;  0.0000000E+00;  0.0000000E+00;  0.0000000E+00;  1.0004474E+03;  1.0000000E-01;  3.7065619E+02;0;  0.0000000E+00;  0.0000000E+00;  0.0000000E+00;0; -2.6746542E-04;  4.0000000E+04;  0.0000000E+00;  0.0000000E+00;  4.0000000E+04;  0.0000000E+00;  4.0000000E+04; -1.1954886E-04;  0.0000000E+00; -1.4791657E-04;  2.8524077E+03;
  1.3000000E-01;  9.9999998E-03;  3.1000000E-01;2225;  0.0000000E+00;  0.0000000E+00;  0.0000000E+00;  1.0093140E+03;  1.0000000E-01;  7.7164238E+03;0;  0.0000000E+00;  0.0000000E+00;  0.0000000E+00;0; -6.8207751E-03;  4.0000000E+04;  0.0000000E+00;  0.0000000E+00;  4.0000000E+04;  0.0000000E+00;  4.0000000E+04; -6.1128275E-03;  0.0000000E+00; -7.0794759E-04;  2.4969014E+04;
  1.3000000E-01;  9.9999998E-03;  3.1999999E-01;2226;  0.0000000E+00;  0.0000000E+00;  0.0000000E+00;  1.0079066E+03;  1.0000000E-01;  6.5504321E+03;0;  0.0000000E+00;  0.0000000E+00;  0.0000000E+00;0; -5.6881020E-03;  4.0000000E+04;  0.0000000E+00;  0.0000000E+00;  4.0000000E+04;  0.0000000E+00;  4.0000000E+04; -4.9716043E-03;  0.0000000E+00; -7.1649766E-04;  2.1873619E+04;
  1.3000000E-01;  9.9999998E-03;  3.3000001E-01;2227;  0.0000000E+00;  0.0000000E+00;  0.0000000E+00;  1.0064810E+03;  1.0000000E-01;  5.3694282E+03;0;  0.0000000E+00;  0.0000000E+00;  0.0000000E+00;0; -4.5884624E-03;  4.0000000E+04;  0.0000000E+00;  0.0000000E+00;  4.0000000E+04;  0.0000000E+00;  4.0000000E+04; -3.9038276E-03;  0.0000000E+00; -6.8463496E-04;  1.8017271E+04;
  1.3000000E-01;  9.9999998E-03;  3.4000000E-01;2228;  0.0000000E+00;  0.0000000E+00;  0.0000000E+00;  1.0051178E+03;  1.0000000E-01;  4.2399790E+03;0;  0.0000000E+00;  0.0000000E+00;  0.0000000E+00;0; -3.5732724E-03;  4.0000000E+04;  0.0000000E+00;  0.0000000E+00;  4.0000000E+04;  0.0000000E+00;  4.0000000E+04; -2.9494637E-03;  0.0000000E+00; -6.2380859E-04;  1.4129541E+04;
  1.3000000E-01;  9.9999998E-03;  3.4999999E-01;2229;  0.0000000E+00;  0.0000000E+00;  0.0000000E+00;  1.0038950E+03;  1.0000000E-01;  3.2268716E+03;0;  0.0000000E+00;  0.0000000E+00;  0.0000000E+00;0; -2.6805613E-03;  4.0000000E+04;  0.0000000E+00;  0.0000000E+00;  4.0000000E+04;  0.0000000E+00;  4.0000000E+04; -2.1358298E-03;  0.0000000E+00; -5.4473156E-04;  1.0757525E+04;
  1.3000000E-01;  9.9999998E-03;  3.6000001E-01;2230;  0.0000000E+00;  0.0000000E+00;  0.0000000E+00;  1.0028523E+03;  1.0000000E-01;  2.3630938E+03;0;  0.0000000E+00;  0.0000000E+00;  0.0000000E+00;0; -1.9317289E-03;  4.0000000E+04;  0.0000000E+00;  0.0000000E+00;  4.0000000E+04;  0.0000000E+00;  4.0000000E+04; -1.4755417E-03;  0.0000000E+00; -4.5618720E-04;  8.1847334E+03;
  1.3000000E-01;  9.9999998E-03;  3.7000000E-01;2231;  0.0000000E+00;  0.0000000E+00;  0.0000000E+00;  1.0019970E+03;  1.0000000E-01;  1.6544717E+03;0;  0.0000000E+00;  0.0000000E+00;  0.0000000E+00;0; -1.3319030E-03;  4.0000000E+04;  0.0000000E+00;  0.0000000E+00;  4.0000000E+04;  0.0000000E+00;  4.0000000E+04; -9.6678489E-04;  0.0000000E+00; -3.6511815E-04;  6.4146689E+03;
  1.3000000E-01;  9.9999998E-03;  3.8000000E-01;2232;  0.0000000E+00;  0.0000000E+00;  0.0000000E+00;  1.0013308E+03;  1.0000000E-01;  1.1025861E+03;0;  0.0000000E+00;  0.0000000E+00;  0.0000000E+00;0; -8.7303936E-04;  4.0000000E+04;  0.0000000E+00;  0.0000000E+00;  4.0000000E+04;  0.0000000E+00;  4.0000000E+04; -5.9588614E-04;  0.0000000E+00; -2.7715322E-04;  5.2187861E+03;
  1.3000000E-01;  9.9999998E-03;  3.8999999E-01;2233;  0.0000000E+00;  0.0000000E+00;  0.0000000E+00;  1.0008323E+03;  1.0000000E-01;  6.8956073E+02;0;  0.0000000E+00;  0.0000000E+00;  0.0000000E+00;0; -5.3846498E-04;  4.0000000E+04;  0.0000000E+00;  0.0000000E+00;  4.0000000E+04;  0.0000000E+00;  4.0000000E+04; -3.4138377E-04;  0.0000000E+00; -1.9708122E-04;  4.2877676E+03;
  1.3000000E-01;  9.9999998E-03;  4.0000001E-01;2234;  0.0000000E+00;  0.0000000E+00;  0.0000000E+00;  1.0004830E+03;  1.0000000E-01;  4.0018622E+02;0;  0.0000000E+00;  0.0000000E+00;  0.0000000E+00;0; -3.0740257E-04;  4.0000000E+04;  0.0000000E+00;  0.0000000E+00;  4.0000000E+04;  0.0000000E+00;  4.0000000E+04; -1.7844600E-04;  0.0000000E+00; -1.2895656E-04;  3.4005833E+03;
  1.4000000E-01;  9.9999998E-03;  3.1000000E-01;2255;  0.0000000E+00;  0.0000000E+00;  0.0000000E+00;  1.0102035E+03;  1.0000000E-01;  8.4533906E+03;0;  0.0000000E+00;  0.0000000E+00;  0.0000000E+00;0; -7.5244298E-03;  4.0000000E+04;  0.0000000E+00;  0.0000000E+00;  4.0000000E+04;  0.0000000E+00;  4.0000000E+04; -6.9737779E-03;  0.0000000E+00; -5.5065175E-04;  3.7717668E+04;
  1.4000000E-01;  9.9999998E-03;  3.1999999E-01;2256;  0.0000000E+00;  0.0000000E+00;  0.0000000E+00;  1.0087332E+03;  1.0000000E-01;  7.2353511E+03;0;  0.0000000E+00;  0.0000000E+00;  0.0000000E+00;0; -6.3345800E-03;  4.0000000E+04;  0.0000000E+00;  0.0000000E+00;  4.0000000E+04;  0.0000000E+00;  4.0000000E+04; -5.7611456E-03;  0.0000000E+00; -5.7343428E-04;  3.3483254E+04;
  1.4000000E-01;  9.9999998E-03;  3.3000001E-01;2257;  0.0000000E+00;  0.0000000E+00;  0.0000000E+00;  1.0072106E+03;  1.0000000E-01;  5.9738560E+03;0;  0.0000000E+00;  0.0000000E+00;  0.0000000E+00;0; -5.1565170E-03;  4.0000000E+04;  0.0000000E+00;  0.0000000E+00;  4.0000000E+04;  0.0000000E+00;  4.0000000E+04; -4.5972010E-03;  0.0000000E+00; -5.5931613E-04;  2.7609930E+04;
  1.4000000E-01;  9.9999998E-03;  3.4000000E-01;2258;  0.0000000E+00;  0.0000000E+00;  0.0000000E+00;  1.0057377E+03;  1.0000000E-01;  4.7536436E+03;0;  0.0000000E+00;  0.0000000E+00;  0.0000000E+00;0; -4.0496872E-03;  4.0000000E+04;  0.0000000E+00;  0.0000000E+00;  4.0000000E+04;  0.0000000E+00;  4.0000000E+04; -3.5324735E-03;  0.0000000E+00; -5.1721372E-04;  2.1226230E+04;
  1.4000000E-01;  9.9999998E-03;  3.4999999E-01;2259;  0.0000000E+00;  0.0000000E+00;  0.0000000E+00;  1.0043891E+03;  1.0000000E-01;  3.6362429E+03;0;  0.0000000E+00;  0.0000000E+00;  0.0000000E+00;0; -3.0613672E-03;  4.0000000E+04;  0.0000000E+00;  0.0000000E+00;  4.0000000E+04;  0.0000000E+00;  4.0000000E+04; -2.6050180E-03;  0.0000000E+00; -4.5634928E-04;  1.5301534E+04;
  1.4000000E-01;  9.9999998E-03;  3.6000001E-01;2260;  0.0000000E+00;  0.0000000E+00;  0.0000000E+00;  1.0032211E+03;  1.0000000E-01;  2.6686653E+03;0;  0.0000000E+00;  0.0000000E+00;  0.0000000E+00;0; -2.2213764E-03;  4.0000000E+04;  0.0000000E+00;  0.0000000E+00;  4.0000000E+04;  0.0000000E+00;  4.0000000E+04; -1.8367213E-03;  0.0000000E+00; -3.8465502E-04;  1.0525151E+04;
  1.4000000E-01;  9.9999998E-03;  3.7000000E-01;2261;  0.0000000E+00;  0.0000000E+00;  0.0000000E+00;  1.0022634E+03;  1.0000000E-01;  1.8752062E+03;0;  0.0000000E+00;  0.0000000E+00;  0.0000000E+00;0; -1.5410944E-03;  4.0000000E+04;  0.0000000E+00;  0.0000000E+00;  4.0000000E+04;  0.0000000E+00;  4.0000000E+04; -1.2324682E-03;  0.0000000E+00; -3.0862621E-04;  7.2919512E+03;
  1.4000000E-01;  9.9999998E-03;  3.8000000E-01;2262;  0.0000000E+00;  0.0000000E+00;  0.0000000E+00;  1.0015151E+03;  1.0000000E-01;  1.2551743E+03;0;  0.0000000E+00;  0.0000000E+00;  0.0000000E+00;0; -1.0159534E-03;  4.0000000E+04;  0.0000000E+00;  0.0000000E+00;  4.0000000E+04;  0.0000000E+00;  4.0000000E+04; -7.8224501E-04;  0.0000000E+00; -2.3370834E-04;  5.5876187E+03;
  1.4000000E-01;  9.9999998E-03;  3.8999999E-01;2263;  0.0000000E+00;  0.0000000E+00;  0.0000000E+00;  1.0009589E+03;  1.0000000E-01;  7.9444666E+02;0;  0.0000000E+00;  0.0000000E+00;  0.0000000E+00;0; -6.3017418E-04;  4.0000000E+04;  0.0000000E+00;  0.0000000E+00;  4.0000000E+04;  0.0000000E+00;  4.0000000E+04; -4.6549379E-04;  0.0000000E+00; -1.6468039E-04;  4.8088525E+03;
  1.4000000E-01;  9.9999998E-03;  4.0000001E-01;2264;  0.0000000E+00;  0.0000000E+00;  0.0000000E+00;  1.0005340E+03;  1.0000000E-01;  4.4235785E+02;0;  0.0000000E+00;  0.0000000E+00;  0.0000000E+00;0; -3.6198134E-04;  4.0000000E+04;  0.0000000E+00;  0.0000000E+00;  4.0000000E+04;  0.0000000E+00;  4.0000000E+04; -2.5625562E-04;  0.0000000E+00; -1.0572573E-04;  4.1885356E+03;
  1.5000001E-01;  9.9999998E-03;  3.1000000E-01;2285;  0.0000000E+00;  0.0000000E+00;  0.0000000E+00;  1.0111978E+03;  1.0000000E-01;  9.2771699E+03;0;  0.0000000E+00;  0.0000000E+00;  0.0000000E+00;0; -8.2874252E-03;  4.0000000E+04;  0.0000000E+00;  0.0000000E+00;  4.0000000E+04;  0.0000000E+00;  4.0000000E+04; -7.8877220E-03;  0.0000000E+00; -3.9970284E-04;  5.3700473E+04;
  1.5000001E-01;  9.9999998E-03;  3.1999999E-01;2286;  0.0000000E+00;  0.0000000E+00;  0.0000000E+00;  1.0096738E+03;  1.0000000E-01;  8.0145884E+03;0;  0.0000000E+00;  0.0000000E+00;  0.0000000E+00;0; -7.0510032E-03;  4.0000000E+04;  0.0000000E+00;  0.0000000E+00;  4.0000000E+04;  0.0000000E+00;  4.0000000E+04; -6.6183340E-03;  0.0000000E+00; -4.3266924E-04;  4.8611598E+04;
  1.5000001E-01;  9.9999998E-03;  3.3000001E-01;2287;  0.0000000E+00;  0.0000000E+00;  0.0000000E+00;  1.0080630E+03;  1.0000000E-01;  6.6800088E+03;0;  0.0000000E+00;  0.0000000E+00;  0.0000000E+00;0; -5.7962611E-03;  4.0000000E+04;  0.0000000E+00;  0.0000000E+00;  4.0000000E+04;  0.0000000E+00;  4.0000000E+04; -5.3634788E-03;  0.0000000E+00; -4.3278234E-04;  4.0595266E+04;
  1.5000001E-01;  9.9999998E-03;  3.4000000E-01;2288;  0.0000000E+00;  0.0000000E+00;  0.0000000E+00;  1.0064667E+03;  1.0000000E-01;  5.3575767E+03;0;  0.0000000E+00;  0.0000000E+00;  0.0000000E+00;0; -4.5931735E-03;  4.0000000E+04;  0.0000000E+00;  0.0000000E+00;  4.0000000E+04;  0.0000000E+00;  4.0000000E+04; -4.1860063E-03;  0.0000000E+00; -4.0716745E-04;  3.1239943E+04;
  1.5000001E-01;  9.9999998E-03;  3.4999999E-01;2289;  0.0000000E+00;  0.0000000E+00;  0.0000000E+00;  1.0049910E+03;  1.0000000E-01;  4.1349941E+03;0;  0.0000000E+00;  0.0000000E+00;  0.0000000E+00;0; -3.5004527E-03;  4.0000000E+04;  0.0000000E+00;  0.0000000E+00;  4.0000000E+04;  0.0000000E+00;  4.0000000E+04; -3.1370772E-03;  0.0000000E+00; -3.6337564E-04;  2.2032355E+04;
  1.5000001E-01;  9.9999998E-03;  3.6000001E-01;2290;  0.0000000E+00;  0.0000000E+00;  0.0000000E+00;  1.0036830E+03;  1.0000000E-01;  3.0512717E+03;0;  0.0000000E+00;  0.0000000E+00;  0.0000000E+00;0; -2.5584535E-03;  4.0000000E+04;  0.0000000E+00;  0.0000000E+00;  4.0000000E+04;  0.0000000E+00;  4.0000000E+04; -2.2502800E-03;  0.0000000E+00; -3.0817359E-04;  1.4132062E+04;
  1.5000001E-01;  9.9999998E-03;  3.7000000E-01;2291;  0.0000000E+00;  0.0000000E+00;  0.0000000E+00;  1.0025963E+03;  1.0000000E-01;  2.1509514E+03;0;  0.0000000E+00;  0.0000000E+00;  0.0000000E+00;0; -1.7866667E-03;  4.0000000E+04;  0.0000000E+00;  0.0000000E+00;  4.0000000E+04;  0.0000000E+00;  4.0000000E+04; -1.5393125E-03;  0.0000000E+00; -2.4735410E-04;  8.4444766E+03;
  1.5000001E-01;  9.9999998E-03;  3.8000000E-01;2292;  0.0000000E+00;  0.0000000E+00;  0.0000000E+00;  1.0017416E+03;  1.0000000E-01;  1.4428234E+03;0;  0.0000000E+00;  0.0000000E+00;  0.0000000E+00;0; -1.1853084E-03;  4.0000000E+04;  0.0000000E+00;  0.0000000E+00;  4.0000000E+04;  0.0000000E+00;  4.0000000E+04; -9.9931913E-04;  0.0000000E+00; -1.8598932E-04;  5.7521304E+03;
  1.5000001E-01;  9.9999998E-03;  3.8999999E-01;2293;  0.0000000E+00;  0.0000000E+00;  0.0000000E+00;  1.0011104E+03;  1.0000000E-01;  9.1997400E+02;0;  0.0000000E+00;  0.0000000E+00;  0.0000000E+00;0; -7.4014848E-04;  4.0000000E+04;  0.0000000E+00;  0.0000000E+00;  4.0000000E+04;  0.0000000E+00;  4.0000000E+04; -6.1144156E-04;  0.0000000E+00; -1.2870693E-04;  5.4877661E+03;
  1.5000001E-01;  9.9999998E-03;  4.0000001E-01;2294;  0.0000000E+00;  0.0000000E+00;  0.0000000E+00;  1.0006345E+03;  1.0000000E-01;  5.2571350E+02;0;  0.0000000E+00;  0.0000000E+00;  0.0000000E+00;0; -4.2853699E-04;  4.0000000E+04;  0.0000000E+00;  0.0000000E+00;  4.0000000E+04;  0.0000000E+00;  4.0000000E+04; -3.4885283E-04;  0.0000000E+00; -7.9684170E-05;  5.5332275E+03;
  1.6000000E-01;  9.9999998E-03;  3.1000000E-01;2315;  0.0000000E+00;  0.0000000E+00;  0.0000000E+00;  1.0121901E+03;  1.0000000E-01;  1.0099270E+04;0;  0.0000000E+00;  0.0000000E+00;  0.0000000E+00;0; -9.0253884E-03;  4.0000000E+04;  0.0000000E+00;  0.0000000E+00;  4.0000000E+04;  0.0000000E+00;  4.0000000E+04; -8.7644067E-03;  0.0000000E+00; -2.6098199E-04;  7.2812445E+04;
  1.6000000E-01;  9.9999998E-03;  3.1999999E-01;2316;  0.0000000E+00;  0.0000000E+00;  0.0000000E+00;  1.0106423E+03;  1.0000000E-01;  8.8169355E+03;0;  0.0000000E+00;  0.0000000E+00;  0.0000000E+00;0; -7.7594742E-03;  4.0000000E+04;  0.0000000E+00;  0.0000000E+00;  4.0000000E+04;  0.0000000E+00;  4.0000000E+04; -7.4596144E-03;  0.0000000E+00; -2.9985973E-04;  6.7260688E+04;
  1.6000000E-01;  9.9999998E-03;  3.3000001E-01;2317;  0.0000000E+00;  0.0000000E+00;  0.0000000E+00;  1.0089470E+03;  1.0000000E-01;  7.4124321E+03;0;  0.0000000E+00;  0.0000000E+00;  0.0000000E+00;0; -6.4397738E-03;  4.0000000E+04;  0.0000000E+00;  0.0000000E+00;  4.0000000E+04;  0.0000000E+00;  4.0000000E+04; -6.1289952E-03;  0.0000000E+00; -3.1077850E-04;  5.7045539E+04;
  1.6000000E-01;  9.9999998E-03;  3.4000000E-01;2318;  0.0000000E+00;  0.0000000E+00;  0.0000000E+00;  1.0072405E+03;  1.0000000E-01;  5.9986450E+03;0;  0.0000000E+00;  0.0000000E+00;  0.0000000E+00;0; -5.1473742E-03;  4.0000000E+04;  0.0000000E+00;  0.0000000E+00;  4.0000000E+04;  0.0000000E+00;  4.0000000E+04; -4.8481389E-03;  0.0000000E+00; -2.9923534E-04;  4.4288344E+04;
  1.6000000E-01;  9.9999998E-03;  3.4999999E-01;2319;  0.0000000E+00;  0.0000000E+00;  0.0000000E+00;  1.0056218E+03;  1.0000000E-01;  4.6575474E+03;0;  0.0000000E+00;  0.0000000E+00;  0.0000000E+00;0; -3.9531221E-03;  4.0000000E+04;  0.0000000E+00;  0.0000000E+00;  4.0000000E+04;  0.0000000E+00;  4.0000000E+04; -3.6821964E-03;  0.0000000E+00; -2.7092555E-04;  3.1113363E+04;
  1.6000000E-01;  9.9999998E-03;  3.6000001E-01;2320;  0.0000000E+00;  0.0000000E+00;  0.0000000E+00;  1.0041841E+03;  1.0000000E-01;  3.4664700E+03;0;  0.0000000E+00;  0.0000000E+00;  0.0000000E+00;0; -2.9091048E-03;  4.0000000E+04;  0.0000000E+00;  0.0000000E+00;  4.0000000E+04;  0.0000000E+00;  4.0000000E+04; -2.6778420E-03;  0.0000000E+00; -2.3126281E-04;  1.9244529E+04;
  1.6000000E-01;  9.9999998E-03;  3.7000000E-01;2321;  0.0000000E+00;  0.0000000E+00;  0.0000000E+00;  1.0029662E+03;  1.0000000E-01;  2.4575107E+03;0;  0.0000000E+00;  0.0000000E+00;  0.0000000E+00;0; -2.0441599E-03;  4.0000000E+04;  0.0000000E+00;  0.0000000E+00;  4.0000000E+04;  0.0000000E+00;  4.0000000E+04; -1.8589757E-03;  0.0000000E+00; -1.8518420E-04;  1.0081832E+04;
  1.6000000E-01;  9.9999998E-03;  3.8000000E-01;2322;  0.0000000E+00;  0.0000000E+00;  0.0000000E+00;  1.0020020E+03;  1.0000000E-01;  1.6586198E+03;0;  0.0000000E+00;  0.0000000E+00;  0.0000000E+00;0; -1.3643453E-03;  4.0000000E+04;  0.0000000E+00;  0.0000000E+00;  4.0000000E+04;  0.0000000E+00;  4.0000000E+04; -1.2271099E-03;  0.0000000E+00; -1.3723536E-04;  5.6869521E+03;
  1.6000000E-01;  9.9999998E-03;  3.8999999E-01;2323;  0.0000000E+00;  0.0000000E+00;  0.0000000E+00;  1.0012836E+03;  1.0000000E-01;  1.0633773E+03;0;  0.0000000E+00;  0.0000000E+00;  0.0000000E+00;0; -8.5762824E-04;  4.0000000E+04;  0.0000000E+00;  0.0000000E+00;  4.0000000E+04;  0.0000000E+00;  4.0000000E+04; -7.6589419E-04;  0.0000000E+00; -9.1734066E-05;  6.6088843E+03;
  1.6000000E-01;  9.9999998E-03;  4.0000001E-01;2324;  0.0000000E+00;  0.0000000E+00;  0.0000000E+00;  1.0007556E+03;  1.0000000E-01;  6.2595758E+02;0;  0.0000000E+00;  0.0000000E+00;  0.0000000E+00;0; -5.0070201E-04;  4.0000000E+04;  0.0000000E+00;  0.0000000E+00;  4.0000000E+04;  0.0000000E+00;  4.0000000E+04; -4.4795492E-04;  0.0000000E+00; -5.2747077E-05;  7.7876704E+03;
  1.7000000E-01;  9.9999998E-03;  3.1000000E-01;2345;  0.0000000E+00;  0.0000000E+00;  0.0000000E+00;  1.0130527E+03;  1.0000000E-01;  1.0813916E+04;0;  0.0000000E+00;  0.0000000E+00;  0.0000000E+00;0; -9.6338149E-03;  4.0000000E+04;  0.0000000E+00;  0.0000000E+00;  4.0000000E+04;  0.0000000E+00;  4.0000000E+04; -9.5008854E-03;  0.0000000E+00; -1.3292987E-04;  9.4597828E+04;
  1.7000000E-01;  9.9999998E-03;  3.1999999E-01;2346;  0.0000000E+00;  0.0000000E+00;  0.0000000E+00;  1.0115012E+03;  1.0000000E-01;  9.5285205E+03;0;  0.0000000E+00;  0.0000000E+00;  0.0000000E+00;0; -8.3605256E-03;  4.0000000E+04;  0.0000000E+00;  0.0000000E+00;  4.0000000E+04;  0.0000000E+00;  4.0000000E+04; -8.1840707E-03;  0.0000000E+00; -1.7645485E-04;  8.8928789E+04;
  1.7000000E-01;  9.9999998E-03;  3.3000001E-01;2347;  0.0000000E+00;  0.0000000E+00;  0.0000000E+00;  1.0097548E+03;  1.0000000E-01;  8.0816479E+03;0;  0.0000000E+00;  0.0000000E+00;  0.0000000E+00;0; -6.9976607E-03;  4.0000000E+04;  0.0000000E+00;  0.0000000E+00;  4.0000000E+04;  0.0000000E+00;  4.0000000E+04; -6.8006986E-03;  0.0000000E+00; -1.9696217E-04;  7.6464789E+04;
  1.7000000E-01;  9.9999998E-03;  3.4000000E-01;2348;  0.0000000E+00;  0.0000000E+00;  0.0000000E+00;  1.0079490E+03;  1.0000000E-01;  6.5855913E+03;0;  0.0000000E+00;  0.0000000E+00;  0.0000000E+00;0; -5.6355651E-03;  4.0000000E+04;  0.0000000E+00;  0.0000000E+00;  4.0000000E+04;  0.0000000E+00;  4.0000000E+04; -5.4374007E-03;  0.0000000E+00; -1.9816456E-04;  5.9940379E+04;
  1.7000000E-01;  9.9999998E-03;  3.4999999E-01;2349;  0.0000000E+00;  0.0000000E+00;  0.0000000E+00;  1.0062155E+03;  1.0000000E-01;  5.1493853E+03;0;  0.0000000E+00;  0.0000000E+00;  0.0000000E+00;0; -4.3565175E-03;  4.0000000E+04;  0.0000000E+00;  0.0000000E+00;  4.0000000E+04;  0.0000000E+00;  4.0000000E+04; -4.1724737E-03;  0.0000000E+00; -1.8404365E-04;  4.2227398E+04;
  1.7000000E-01;  9.9999998E-03;  3.6000001E-01;2350;  0.0000000E+00;  0.0000000E+00;  0.0000000E+00;  1.0046417E+03;  1.0000000E-01;  3.8456196E+03;0;  0.0000000E+00;  0.0000000E+00;  0.0000000E+00;0; -3.2242113E-03;  4.0000000E+04;  0.0000000E+00;  0.0000000E+00;  4.0000000E+04;  0.0000000E+00;  4.0000000E+04; -3.0654371E-03;  0.0000000E+00; -1.5877424E-04;  2.5711146E+04;
  1.7000000E-01;  9.9999998E-03;  3.7000000E-01;2351;  0.0000000E+00;  0.0000000E+00;  0.0000000E+00;  1.0033251E+03;  1.0000000E-01;  2.7547864E+03;0;  0.0000000E+00;  0.0000000E+00;  0.0000000E+00;0; -2.2770804E-03;  4.0000000E+04;  0.0000000E+00;  0.0000000E+00;  4.0000000E+04;  0.0000000E+00;  4.0000000E+04; -2.1506005E-03;  0.0000000E+00; -1.2647978E-04;  1.2269355E+04;
  1.7000000E-01;  9.9999998E-03;  3.8000000E-01;2352;  0.0000000E+00;  0.0000000E+00;  0.0000000E+00;  1.0022508E+03;  1.0000000E-01;  1.8647374E+03;0;  0.0000000E+00;  0.0000000E+00;  0.0000000E+00;0; -1.5273575E-03;  4.0000000E+04;  0.0000000E+00;  0.0000000E+00;  4.0000000E+04;  0.0000000E+00;  4.0000000E+04; -1.4361981E-03;  0.0000000E+00; -9.1159352E-05;  5.3982749E+03;
  1.7000000E-01;  9.9999998E-03;  3.8999999E-01;2353;  0.0000000E+00;  0.0000000E+00;  0.0000000E+00;  1.0014472E+03;  1.0000000E-01;  1.1989784E+03;0;  0.0000000E+00;  0.0000000E+00;  0.0000000E+00;0; -9.6550857E-04;  4.0000000E+04;  0.0000000E+00;  0.0000000E+00;  4.0000000E+04;  0.0000000E+00;  4.0000000E+04; -9.0874551E-04;  0.0000000E+00; -5.6763070E-05;  8.4581143E+03;
  1.7000000E-01;  9.9999998E-03;  4.0000001E-01;2354;  0.0000000E+00;  0.0000000E+00;  0.0000000E+00;  1.0008726E+03;  1.0000000E-01;  7.2294250E+02;0;  0.0000000E+00;  0.0000000E+00;  0.0000000E+00;0; -5.6782929E-04;  4.0000000E+04;  0.0000000E+00;  0.0000000E+00;  4.0000000E+04;  0.0000000E+00;  4.0000000E+04; -5.4065109E-04;  0.0000000E+00; -2.7178186E-05;  1.1147095E+04;
  1.8000001E-01;  9.9999998E-03;  3.1000000E-01;2375;  0.0000000E+00;  0.0000000E+00;  0.0000000E+00;  1.0136592E+03;  1.0000000E-01;  1.1316421E+04;0;  0.0000000E+00;  0.0000000E+00;  0.0000000E+00;0; -1.0012074E-02;  4.0000000E+04;  0.0000000E+00;  0.0000000E+00;  4.0000000E+04;  0.0000000E+00;  4.0000000E+04; -9.9946670E-03;  0.0000000E+00; -1.7407525E-05;  1.1792200E+05;
  1.8000001E-01;  9.9999998E-03;  3.1999999E-01;2376;  0.0000000E+00;  0.0000000E+00;  0.0000000E+00;  1.0121264E+03;  1.0000000E-01;  1.0046530E+04;0;  0.0000000E+00;  0.0000000E+00;  0.0000000E+00;0; -8.7570949E-03;  4.0000000E+04;  0.0000000E+00;  0.0000000E+00;  4.0000000E+04;  0.0000000E+00;  4.0000000E+04; -8.6910753E-03;  0.0000000E+00; -6.6019260E-05;  1.1228705E+05;
  1.8000001E-01;  9.9999998E-03;  3.3000001E-01;2377;  0.0000000E+00;  0.0000000E+00;  0.0000000E+00;  1.0103533E+03;  1.0000000E-01;  8.5775352E+03;0;  0.0000000E+00;  0.0000000E+00;  0.0000000E+00;0; -7.3803570E-03;  4.0000000E+04;  0.0000000E+00;  0.0000000E+00;  4.0000000E+04;  0.0000000E+00;  4.0000000E+04; -7.2840760E-03;  0.0000000E+00; -9.6281008E-05;  9.7501555E+04;
  1.8000001E-01;  9.9999998E-03;  3.4000000E-01;2378;  0.0000000E+00;  0.0000000E+00;  0.0000000E+00;  1.0084855E+03;  1.0000000E-01;  7.0301221E+03;0;  0.0000000E+00;  0.0000000E+00;  0.0000000E+00;0; -5.9787286E-03;  4.0000000E+04;  0.0000000E+00;  0.0000000E+00;  4.0000000E+04;  0.0000000E+00;  4.0000000E+04; -5.8691264E-03;  0.0000000E+00; -1.0960228E-04;  7.6993555E+04;
  1.8000001E-01;  9.9999998E-03;  3.4999999E-01;2379;  0.0000000E+00;  0.0000000E+00;  0.0000000E+00;  1.0066675E+03;  1.0000000E-01;  5.5238931E+03;0;  0.0000000E+00;  0.0000000E+00;  0.0000000E+00;0; -4.6443092E-03;  4.0000000E+04;  0.0000000E+00;  0.0000000E+00;  4.0000000E+04;  0.0000000E+00;  4.0000000E+04; -4.5358324E-03;  0.0000000E+00; -1.0847651E-04;  5.4441191E+04;
  1.8000001E-01;  9.9999998E-03;  3.6000001E-01;2380;  0.0000000E+00;  0.0000000E+00;  0.0000000E+00;  1.0050142E+03;  1.0000000E-01;  4.1541543E+03;0;  0.0000000E+00;  0.0000000E+00;  0.0000000E+00;0; -3.4509765E-03;  4.0000000E+04;  0.0000000E+00;  0.0000000E+00;  4.0000000E+04;  0.0000000E+00;  4.0000000E+04; -3.3548418E-03;  0.0000000E+00; -9.6134660E-05;  3.2930508E+04;
  1.8000001E-01;  9.9999998E-03;  3.7000000E-01;2381;  0.0000000E+00;  0.0000000E+00;  0.0000000E+00;  1.0035996E+03;  1.0000000E-01;  2.9822366E+03;0;  0.0000000E+00;  0.0000000E+00;  0.0000000E+00;0; -2.4455856E-03;  4.0000000E+04;  0.0000000E+00;  0.0000000E+00;  4.0000000E+04;  0.0000000E+00;  4.0000000E+04; -2.3694939E-03;  0.0000000E+00; -7.6091630E-05;  1.4804089E+04;
  1.8000001E-01;  9.9999998E-03;  3.8000000E-01;2382;  0.0000000E+00;  0.0000000E+00;  0.0000000E+00;  1.0024564E+03;  1.0000000E-01;  2.0351029E+03;0;  0.0000000E+00;  0.0000000E+00;  0.0000000E+00;0; -1.6458106E-03;  4.0000000E+04;  0.0000000E+00;  0.0000000E+00;  4.0000000E+04;  0.0000000E+00;  4.0000000E+04; -1.5939141E-03;  0.0000000E+00; -5.1896492E-05;  4.9454326E+03;
  1.8000001E-01;  9.9999998E-03;  3.8999999E-01;2383;  0.0000000E+00;  0.0000000E+00;  0.0000000E+00;  1.0015899E+03;  1.0000000E-01;  1.3171973E+03;0;  0.0000000E+00;  0.0000000E+00;  0.0000000E+00;0; -1.0443937E-03;  4.0000000E+04;  0.0000000E+00;  0.0000000E+00;  4.0000000E+04;  0.0000000E+00;  4.0000000E+04; -1.0172592E-03;  0.0000000E+00; -2.7134573E-05;  1.1098910E+04;
  1.8000001E-01;  9.9999998E-03;  4.0000001E-01;2384;  0.0000000E+00;  0.0000000E+00;  0.0000000E+00;  1.0009740E+03;  1.0000000E-01;  8.0689075E+02;0;  0.0000000E+00;  0.0000000E+00;  0.0000000E+00;0; -6.1742967E-04;  4.0000000E+04;  0.0000000E+00;  0.0000000E+00;  4.0000000E+04;  0.0000000E+00;  4.0000000E+04; -6.1194453E-04;  0.0000000E+00; -5.4851225E-06;  1.5538251E+04;
  1.9000000E-01;  9.9999998E-03;  3.1000000E-01;2405;  0.0000000E+00;  0.0000000E+00;  0.0000000E+00;  1.0139126E+03;  1.0000000E-01;  1.1526291E+04;0;  0.0000000E+00;  0.0000000E+00;  0.0000000E+00;0; -1.0107849E-02;  4.0000000E+04;  0.0000000E+00;  0.0000000E+00;  4.0000000E+04;  0.0000000E+00;  4.0000000E+04; -1.0183364E-02;  0.0000000E+00;  7.5515243E-05;  1.4078153E+05;
  1.9000000E-01;  9.9999998E-03;  3.1999999E-01;2406;  0.0000000E+00;  0.0000000E+00;  0.0000000E+00;  1.0124276E+03;  1.0000000E-01;  1.0296005E+04;0;  0.0000000E+00;  0.0000000E+00;  0.0000000E+00;0; -8.8942274E-03;  4.0000000E+04;  0.0000000E+00;  0.0000000E+00;  4.0000000E+04;  0.0000000E+00;  4.0000000E+04; -8.9163091E-03;  0.0000000E+00;  2.2082080E-05;  1.3507078E+05;
  1.9000000E-01;  9.9999998E-03;  3.3000001E-01;2407;  0.0000000E+00;  0.0000000E+00;  0.0000000E+00;  1.0106624E+03;  1.0000000E-01;  8.8336270E+03;0;  0.0000000E+00;  0.0000000E+00;  0.0000000E+00;0; -7.5340304E-03;  4.0000000E+04;  0.0000000E+00;  0.0000000E+00;  4.0000000E+04;  0.0000000E+00;  4.0000000E+04; -7.5167031E-03;  0.0000000E+00; -1.7327238E-05;  1.1792667E+05;
  1.9000000E-01;  9.9999998E-03;  3.4000000E-01;2408;  0.0000000E+00;  0.0000000E+00;  0.0000000E+00;  1.0087789E+03;  1.0000000E-01;  7.2730781E+03;0;  0.0000000E+00;  0.0000000E+00;  0.0000000E+00;0; -6.1279275E-03;  4.0000000E+04;  0.0000000E+00;  0.0000000E+00;  4.0000000E+04;  0.0000000E+00;  4.0000000E+04; -6.0865236E-03;  0.0000000E+00; -4.1403811E-05;  9.3516961E+04;
  1.9000000E-01;  9.9999998E-03;  3.4999999E-01;2409;  0.0000000E+00;  0.0000000E+00;  0.0000000E+00;  1.0069282E+03;  1.0000000E-01;  5.7398872E+03;0;  0.0000000E+00;  0.0000000E+00;  0.0000000E+00;0; -4.7749649E-03;  4.0000000E+04;  0.0000000E+00;  0.0000000E+00;  4.0000000E+04;  0.0000000E+00;  4.0000000E+04; -4.7236518E-03;  0.0000000E+00; -5.1313182E-05;  6.6293766E+04;
  1.9000000E-01;  9.9999998E-03;  3.6000001E-01;2410;  0.0000000E+00;  0.0000000E+00;  0.0000000E+00;  1.0052286E+03;  1.0000000E-01;  4.3318281E+03;0;  0.0000000E+00;  0.0000000E+00;  0.0000000E+00;0; -3.5563349E-03;  4.0000000E+04;  0.0000000E+00;  0.0000000E+00;  4.0000000E+04;  0.0000000E+00;  4.0000000E+04; -3.5067149E-03;  0.0000000E+00; -4.9619852E-05;  3.9966844E+04;
  1.9000000E-01;  9.9999998E-03;  3.7000000E-01;2411;  0.0000000E+00;  0.0000000E+00;  0.0000000E+00;  1.0037837E+03;  1.0000000E-01;  3.1347261E+03;0;  0.0000000E+00;  0.0000000E+00;  0.0000000E+00;0; -2.5248397E-03;  4.0000000E+04;  0.0000000E+00;  0.0000000E+00;  4.0000000E+04;  0.0000000E+00;  4.0000000E+04; -2.4854024E-03;  0.0000000E+00; -3.9437411E-05;  1.7278646E+04;
  1.9000000E-01;  9.9999998E-03;  3.8000000E-01;2412;  0.0000000E+00;  0.0000000E+00;  0.0000000E+00;  1.0025959E+03;  1.0000000E-01;  2.1506553E+03;0;  0.0000000E+00;  0.0000000E+00;  0.0000000E+00;0; -1.7019536E-03;  4.0000000E+04;  0.0000000E+00;  0.0000000E+00;  4.0000000E+04;  0.0000000E+00;  4.0000000E+04; -1.6779745E-03;  0.0000000E+00; -2.3979106E-05;  4.4754155E+03;
  1.9000000E-01;  9.9999998E-03;  3.8999999E-01;2413;  0.0000000E+00;  0.0000000E+00;  0.0000000E+00;  1.0016948E+03;  1.0000000E-01;  1.4041084E+03;0;  0.0000000E+00;  0.0000000E+00;  0.0000000E+00;0; -1.0820895E-03;  4.0000000E+04;  0.0000000E+00;  0.0000000E+00;  4.0000000E+04;  0.0000000E+00;  4.0000000E+04; -1.0755933E-03;  0.0000000E+00; -6.4962514E-06;  1.4311881E+04;
  1.9000000E-01;  9.9999998E-03;  4.0000001E-01;2414;  0.0000000E+00;  0.0000000E+00;  0.0000000E+00;  1.0010549E+03;  1.0000000E-01;  8.7395056E+02;0;  0.0000000E+00;  0.0000000E+00;  0.0000000E+00;0; -6.4136274E-04;  4.0000000E+04;  0.0000000E+00;  0.0000000E+00;  4.0000000E+04;  0.0000000E+00;  4.0000000E+04; -6.5091683E-04;  0.0000000E+00;  9.5541000E-06;  2.0622787E+04;
  2.0000000E-01;  9.9999998E-03;  3.1000000E-01;2434;  0.0000000E+00;  0.0000000E+00;  0.0000000E+00;  1.0138127E+03;  1.0000000E-01;  1.1443528E+04;0;  0.0000000E+00;  0.0000000E+00;  0.0000000E+00;0; -9.9520152E-03;  4.0000000E+04;  0.0000000E+00;  0.0000000E+00;  4.0000000E+04;  0.0000000E+00;  4.0000000E+04; -1.0082650E-02;  0.0000000E+00;  1.3063506E-04;  1.6051856E+05;
  2.0000000E-01;  9.9999998E-03;  3.1999999E-01;2435;  0.0000000E+00;  0.0000000E+00;  0.0000000E+00;  1.0123949E+03;  1.0000000E-01;  1.0268944E+04;0;  0.0000000E+00;  0.0000000E+00;  0.0000000E+00;0; -8.7927645E-03;  4.0000000E+04;  0.0000000E+00;  0.0000000E+00;  4.0000000E+04;  0.0000000E+00;  4.0000000E+04; -8.8666333E-03;  0.0000000E+00;  7.3868723E-05;  1.5444445E+05;
  2.0000000E-01;  9.9999998E-03;  3.3000001E-01;2436;  0.0000000E+00;  0.0000000E+00;  0.0000000E+00;  1.0106836E+03;  1.0000000E-01;  8.8511074E+03;0;  0.0000000E+00;  0.0000000E+00;  0.0000000E+00;0; -7.4736620E-03;  4.0000000E+04;  0.0000000E+00;  0.0000000E+00;  4.0000000E+04;  0.0000000E+00;  4.0000000E+04; -7.5016511E-03;  0.0000000E+00;  2.7989265E-05;  1.3513500E+05;
  2.0000000E-01;  9.9999998E-03;  3.4000000E-01;2437;  0.0000000E+00;  0.0000000E+00;  0.0000000E+00;  1.0088332E+03;  1.0000000E-01;  7.3181143E+03;0;  0.0000000E+00;  0.0000000E+00;  0.0000000E+00;0; -6.0951333E-03;  4.0000000E+04;  0.0000000E+00;  0.0000000E+00;  4.0000000E+04;  0.0000000E+00;  4.0000000E+04; -6.0916138E-03;  0.0000000E+00; -3.5196899E-06;  1.0739560E+05;
  2.0000000E-01;  9.9999998E-03;  3.4999999E-01;2438;  0.0000000E+00;  0.0000000E+00;  0.0000000E+00;  1.0070052E+03;  1.0000000E-01;  5.8036875E+03;0;  0.0000000E+00;  0.0000000E+00;  0.0000000E+00;0; -4.7589028E-03;  4.0000000E+04;  0.0000000E+00;  0.0000000E+00;  4.0000000E+04;  0.0000000E+00;  4.0000000E+04; -4.7380216E-03;  0.0000000E+00; -2.0881143E-05;  7.6262352E+04;
  2.0000000E-01;  9.9999998E-03;  3.6000001E-01;2439;  0.0000000E+00;  0.0000000E+00;  0.0000000E+00;  1.0053120E+03;  1.0000000E-01;  4.4008633E+03;0;  0.0000000E+00;  0.0000000E+00;  0.0000000E+00;0; -3.5494785E-03;  4.0000000E+04;  0.0000000E+00;  0.0000000E+00;  4.0000000E+04;  0.0000000E+00;  4.0000000E+04; -3.5232499E-03;  0.0000000E+00; -2.6228507E-05;  4.5891711E+04;
  2.0000000E-01;  9.9999998E-03;  3.7000000E-01;2440;  0.0000000E+00;  0.0000000E+00;  0.0000000E+00;  1.0038550E+03;  1.0000000E-01;  3.1937861E+03;0;  0.0000000E+00;  0.0000000E+00;  0.0000000E+00;0; -2.5226057E-03;  4.0000000E+04;  0.0000000E+00;  0.0000000E+00;  4.0000000E+04;  0.0000000E+00;  4.0000000E+04; -2.5002155E-03;  0.0000000E+00; -2.2390166E-05;  1.9292334E+04;
  2.0000000E-01;  9.9999998E-03;  3.8000000E-01;2441;  0.0000000E+00;  0.0000000E+00;  0.0000000E+00;  1.0026646E+03;  1.0000000E-01;  2.2075425E+03;0;  0.0000000E+00;  0.0000000E+00;  0.0000000E+00;0; -1.7018901E-03;  4.0000000E+04;  0.0000000E+00;  0.0000000E+00;  4.0000000E+04;  0.0000000E+00;  4.0000000E+04; -1.6896005E-03;  0.0000000E+00; -1.2289634E-05;  4.2294292E+03;
  2.0000000E-01;  9.9999998E-03;  3.8999999E-01;2442;  0.0000000E+00;  0.0000000E+00;  0.0000000E+00;  1.0017701E+03;  1.0000000E-01;  1.4665264E+03;0;  0.0000000E+00;  0.0000000E+00;  0.0000000E+00;0; -1.0829323E-03;  4.0000000E+04;  0.0000000E+00;  0.0000000E+00;  4.0000000E+04;  0.0000000E+00;  4.0000000E+04; -1.0840922E-03;  0.0000000E+00;  1.1598536E-06;  1.7740074E+04;
  2.0000000E-01;  9.9999998E-03;  4.0000001E-01;2443;  0.0000000E+00;  0.0000000E+00;  0.0000000E+00;  1.0011112E+03;  1.0000000E-01;  9.2056653E+02;0;  0.0000000E+00;  0.0000000E+00;  0.0000000E+00;0; -6.4228690E-04;  4.0000000E+04;  0.0000000E+00;  0.0000000E+00;  4.0000000E+04;  0.0000000E+00;  4.0000000E+04; -6.5705634E-04;  0.0000000E+00;  1.4769458E-05;  2.5935793E+04;
 -1.9000000E-01;  9.9999998E-03;  4.1000000E-01;175;  0.0000000E+00;  0.0000000E+00;  0.0000000E+00;  1.0000000E+03;  1.0000000E-01;  0.0000000E+00;0;  0.0000000E+00;  0.0000000E+00;  0.0000000E+00;0;  0.0000000E+00;  4.0000000E+04;  0.0000000E+00;  0.0000000E+00;  4.0000000E+04;  0.0000000E+00;  4.0000000E+04;  0.0000000E+00;  0.0000000E+00;  0.0000000E+00;  0.0000000E+00;
 -1.9000000E-01;  9.9999998E-03;  4.1999999E-01;176;  0.0000000E+00;  0.0000000E+00;  0.0000000E+00;  1.0000000E+03;  1.0000000E-01;  0.0000000E+00;0;  0.0000000E+00;  0.0000000E+00;  0.0000000E+00;0;  0.0000000E+00;  4.0000000E+04;  0.0000000E+00;  0.0000000E+00;  4.0000000E+04;  0.0000000E+00;  4.0000000E+04;  0.0000000E+00;  0.0000000E+00;  0.0000000E+00;  0.0000000E+00;
 -1.9000000E-01;  9.9999998E-03;  4.3000001E-01;177;  0.0000000E+00;  0.0000000E+00;  0.0000000E+00;  1.0000000E+03;  1.0000000E-01;  0.0000000E+00;0;  0.0000000E+00;  0.0000000E+00;  0.0000000E+00;0;  0.0000000E+00;  4.0000000E+04;  0.0000000E+00;  0.0000000E+00;  4.0000000E+04;  0.0000000E+00;  4.0000000E+04;  0.0000000E+00;  0.0000000E+00;  0.0000000E+00;  0.0000000E+00;
 -1.9000000E-01;  9.9999998E-03;  4.4000000E-01;178;  0.0000000E+00;  0.0000000E+00;  0.0000000E+00;  1.0000000E+03;  1.0000000E-01;  0.0000000E+00;0;  0.0000000E+00;  0.0000000E+00;  0.0000000E+00;0;  0.0000000E+00;  4.0000000E+04;  0.0000000E+00;  0.0000000E+00;  4.0000000E+04;  0.0000000E+00;  4.0000000E+04;  0.0000000E+00;  0.0000000E+00;  0.0000000E+00;  0.0000000E+00;
 -1.9000000E-01;  9.9999998E-03;  4.4999999E-01;179;  0.0000000E+00;  0.0000000E+00;  0.0000000E+00;  1.0000000E+03;  1.0000000E-01;  0.0000000E+00;0;  0.0000000E+00;  0.0000000E+00;  0.0000000E+00;0;  0.0000000E+00;  4.0000000E+04;  0.0000000E+00;  0.0000000E+00;  4.0000000E+04;  0.0000000E+00;  4.0000000E+04;  0.0000000E+00;  0.0000000E+00;  0.0000000E+00;  0.0000000E+00;
 -1.8000001E-01;  9.9999998E-03;  4.1000000E-01;266;  0.0000000E+00;  0.0000000E+00;  0.0000000E+00;  1.0000000E+03;  1.0000000E-01;  0.0000000E+00;0;  0.0000000E+00;  0.0000000E+00;  0.0000000E+00;0;  0.0000000E+00;  4.0000000E+04;  0.0000000E+00;  0.0000000E+00;  4.0000000E+04;  0.0000000E+00;  4.0000000E+04;  0.0000000E+00;  0.0000000E+00;  0.0000000E+00;  0.0000000E+00;
 -1.8000001E-01;  9.9999998E-03;  4.1999999E-01;267;  0.0000000E+00;  0.0000000E+00;  0.0000000E+00;  1.0000000E+03;  1.0000000E-01;  0.0000000E+00;0;  0.0000000E+00;  0.0000000E+00;  0.0000000E+00;0;  0.0000000E+00;  4.0000000E+04;  0.0000000E+00;  0.0000000E+00;  4.0000000E+04;  0.0000000E+00;  4.0000000E+04;  0.0000000E+00;  0.0000000E+00;  0.0000000E+00;  0.0000000E+00;
 -1.8000001E-01;  9.9999998E-03;  4.3000001E-01;268;  0.0000000E+00;  0.0000000E+00;  0.0000000E+00;  1.0000000E+03;  1.0000000E-01;  0.0000000E+00;0;  0.0000000E+00;  0.0000000E+00;  0.0000000E+00;0;  0.0000000E+00;  4.0000000E+04;  0.0000000E+00;  0.0000000E+00;  4.0000000E+04;  0.0000000E+00;  4.0000000E+04;  0.0000000E+00;  0.0000000E+00;  0.0000000E+00;  0.0000000E+00;
 -1.8000001E-01;  9.9999998E-03;  4.4000000E-01;269;  0.0000000E+00;  0.0000000E+00;  0.0000000E+00;  1.0000000E+03;  1.0000000E-01;  0.0000000E+00;0;  0.0000000E+00;  0.0000000E+00;  0.0000000E+00;0;  0.0000000E+00;  4.0000000E+04;  0.0000000E+00;  0.0000000E+00;  4.0000000E+04;  0.0000000E+00;  4.0000000E+04;  0.0000000E+00;  0.0000000E+00;  0.0000000E+00;  0.0000000E+00;
 -1.8000001E-01;  9.9999998E-03;  4.4999999E-01;270;  0.0000000E+00;  0.0000000E+00;  0.0000000E+00;  1.0000000E+03;  1.0000000E-01;  0.0000000E+00;0;  0.0000000E+00;  0.0000000E+00;  0.0000000E+00;0;  0.0000000E+00;  4.0000000E+04;  0.0000000E+00;  0.0000000E+00;  4.0000000E+04;  0.0000000E+00;  4.0000000E+04;  0.0000000E+00;  0.0000000E+00;  0.0000000E+00;  0.0000000E+00;
 -1.7000000E-01;  9.9999998E-03;  4.1000000E-01;357;  0.0000000E+00;  0.0000000E+00;  0.0000000E+00;  1.0000000E+03;  1.0000000E-01;  0.0000000E+00;0;  0.0000000E+00;  0.0000000E+00;  0.0000000E+00;0;  0.0000000E+00;  4.0000000E+04;  0.0000000E+00;  0.0000000E+00;  4.0000000E+04;  0.0000000E+00;  4.0000000E+04;  0.0000000E+00;  0.0000000E+00;  0.0000000E+00;  0.0000000E+00;
 -1.7000000E-01;  9.9999998E-03;  4.1999999E-01;358;  0.0000000E+00;  0.0000000E+00;  0.0000000E+00;  1.0000000E+03;  1.0000000E-01;  0.0000000E+00;0;  0.0000000E+00;  0.0000000E+00;  0.0000000E+00;0;  0.0000000E+00;  4.0000000E+04;  0.0000000E+00;  0.0000000E+00;  4.0000000E+04;  0.0000000E+00;  4.0000000E+04;  0.0000000E+00;  0.0000000E+00;  0.0000000E+00;  0.0000000E+00;
 -1.7000000E-01;  9.9999998E-03;  4.3000001E-01;359;  0.0000000E+00;  0.0000000E+00;  0.0000000E+00;  1.0000000E+03;  1.0000000E-01;  0.0000000E+00;0;  0.0000000E+00;  0.0000000E+00;  0.0000000E+00;0;  0.0000000E+00;  4.0000000E+04;  0.0000000E+00;  0.0000000E+00;  4.0000000E+04;  0.0000000E+00;  4.0000000E+04;  0.0000000E+00;  0.0000000E+00;  0.0000000E+00;  0.0000000E+00;
 -1.7000000E-01;  9.9999998E-03;  4.4000000E-01;360;  0.0000000E+00;  0.0000000E+00;  0.0000000E+00;  1.0000000E+03;  1.0000000E-01;  0.0000000E+00;0;  0.0000000E+00;  0.0000000E+00;  0.0000000E+00;0;  0.0000000E+00;  4.0000000E+04;  0.0000000E+00;  0.0000000E+00;  4.0000000E+04;  0.0000000E+00;  4.0000000E+04;  0.0000000E+00;  0.0000000E+00;  0.0000000E+00;  0.0000000E+00;
 -1.7000000E-01;  9.9999998E-03;  4.4999999E-01;361;  0.0000000E+00;  0.0000000E+00;  0.0000000E+00;  1.0000000E+03;  1.0000000E-01;  0.0000000E+00;0;  0.0000000E+00;  0.0000000E+00;  0.0000000E+00;0;  0.0000000E+00;  4.0000000E+04;  0.0000000E+00;  0.0000000E+00;  4.0000000E+04;  0.0000000E+00;  4.0000000E+04;  0.0000000E+00;  0.0000000E+00;  0.0000000E+00;  0.0000000E+00;
 -1.6000000E-01;  9.9999998E-03;  4.1000000E-01;448;  0.0000000E+00;  0.0000000E+00;  0.0000000E+00;  1.0000000E+03;  1.0000000E-01;  0.0000000E+00;0;  0.0000000E+00;  0.0000000E+00;  0.0000000E+00;0;  0.0000000E+00;  4.0000000E+04;  0.0000000E+00;  0.0000000E+00;  4.0000000E+04;  0.0000000E+00;  4.0000000E+04;  0.0000000E+00;  0.0000000E+00;  0.0000000E+00;  0.0000000E+00;
 -1.6000000E-01;  9.9999998E-03;  4.1999999E-01;449;  0.0000000E+00;  0.0000000E+00;  0.0000000E+00;  1.0000000E+03;  1.0000000E-01;  0.0000000E+00;0;  0.0000000E+00;  0.0000000E+00;  0.0000000E+00;0;  0.0000000E+00;  4.0000000E+04;  0.0000000E+00;  0.0000000E+00;  4.0000000E+04;  0.0000000E+00;  4.0000000E+04;  0.0000000E+00;  0.0000000E+00;  0.0000000E+00;  0.0000000E+00;
 -1.6000000E-01;  9.9999998E-03;  4.3000001E-01;450;  0.0000000E+00;  0.0000000E+00;  0.0000000E+00;  1.0000000E+03;  1.0000000E-01;  0.0000000E+00;0;  0.0000000E+00;  0.0000000E+00;  0.0000000E+00;0;  0.0000000E+00;  4.0000000E+04;  0.0000000E+00;  0.0000000E+00;  4.0000000E+04;  0.0000000E+00;  4.0000000E+04;  0.0000000E+00;  0.0000000E+00;  0.0000000E+00;  0.0000000E+00;
 -1.6000000E-01;  9.9999998E-03;  4.4000000E-01;451;  0.0000000E+00;  0.0000000E+00;  0.0000000E+00;  1.0000000E+03;  1.0000000E-01;  0.0000000E+00;0;  0.0000000E+00;  0.0000000E+00;  0.0000000E+00;0;  0.0000000E+00;  4.0000000E+04;  0.0000000E+00;  0.0000000E+00;  4.0000000E+04;  0.0000000E+00;  4.0000000E+04;  0.0000000E+00;  0.0000000E+00;  0.0000000E+00;  0.0000000E+00;
 -1.6000000E-01;  9.9999998E-03;  4.4999999E-01;452;  0.0000000E+00;  0.0000000E+00;  0.0000000E+00;  1.0000000E+03;  1.0000000E-01;  0.0000000E+00;0;  0.0000000E+00;  0.0000000E+00;  0.0000000E+00;0;  0.0000000E+00;  4.0000000E+04;  0.0000000E+00;  0.0000000E+00;  4.0000000E+04;  0.0000000E+00;  4.0000000E+04;  0.0000000E+00;  0.0000000E+00;  0.0000000E+00;  0.0000000E+00;
 -1.5000001E-01;  9.9999998E-03;  4.1000000E-01;539;  0.0000000E+00;  0.0000000E+00;  0.0000000E+00;  1.0000000E+03;  1.0000000E-01;  0.0000000E+00;0;  0.0000000E+00;  0.0000000E+00;  0.0000000E+00;0;  0.0000000E+00;  4.0000000E+04;  0.0000000E+00;  0.0000000E+00;  4.0000000E+04;  0.0000000E+00;  4.0000000E+04;  0.0000000E+00;  0.0000000E+00;  0.0000000E+00;  0.0000000E+00;
 -1.5000001E-01;  9.9999998E-03;  4.1999999E-01;540;  0.0000000E+00;  0.0000000E+00;  0.0000000E+00;  1.0000000E+03;  1.0000000E-01;  0.0000000E+00;0;  0.0000000E+00;  0.0000000E+00;  0.0000000E+00;0;  0.0000000E+00;  4.0000000E+04;  0.0000000E+00;  0.0000000E+00;  4.0000000E+04;  0.0000000E+00;  4.0000000E+04;  0.0000000E+00;  0.0000000E+00;  0.0000000E+00;  0.0000000E+00;
 -1.5000001E-01;  9.9999998E-03;  4.3000001E-01;541;  0.0000000E+00;  0.0000000E+00;  0.0000000E+00;  1.0000000E+03;  1.0000000E-01;  0.0000000E+00;0;  0.0000000E+00;  0.0000000E+00;  0.0000000E+00;0;  0.0000000E+00;  4.0000000E+04;  0.0000000E+00;  0.0000000E+00;  4.0000000E+04;  0.0000000E+00;  4.0000000E+04;  0.0000000E+00;  0.0000000E+00;  0.0000000E+00;  0.0000000E+00;
 -1.5000001E-01;  9.9999998E-03;  4.4000000E-01;542;  0.0000000E+00;  0.0000000E+00;  0.0000000E+00;  1.0000000E+03;  1.0000000E-01;  0.0000000E+00;0;  0.0000000E+00;  0.0000000E+00;  0.0000000E+00;0;  0.0000000E+00;  4.0000000E+04;  0.0000000E+00;  0.0000000E+00;  4.0000000E+04;  0.0000000E+00;  4.0000000E+04;  0.0000000E+00;  0.0000000E+00;  0.0000000E+00;  0.0000000E+00;
 -1.5000001E-01;  9.9999998E-03;  4.4999999E-01;543;  0.0000000E+00;  0.0000000E+00;  0.0000000E+00;  1.0000000E+03;  1.0000000E-01;  0.0000000E+00;0;  0.0000000E+00;  0.0000000E+00;  0.0000000E+00;0;  0.0000000E+00;  4.0000000E+04;  0.0000000E+00;  0.0000000E+00;  4.0000000E+04;  0.0000000E+00;  4.0000000E+04;  0.0000000E+00;  0.0000000E+00;  0.0000000E+00;  0.0000000E+00;
 -1.4000000E-01;  9.9999998E-03;  4.1000000E-01;630;  0.0000000E+00;  0.0000000E+00;  0.0000000E+00;  1.0000000E+03;  1.0000000E-01;  0.0000000E+00;0;  0.0000000E+00;  0.0000000E+00;  0.0000000E+00;0;  0.0000000E+00;  4.0000000E+04;  0.0000000E+00;  0.0000000E+00;  4.0000000E+04;  0.0000000E+00;  4.0000000E+04;  0.0000000E+00;  0.0000000E+00;  0.0000000E+00;  0.0000000E+00;
 -1.4000000E-01;  9.9999998E-03;  4.1999999E-01;631;  0.0000000E+00;  0.0000000E+00;  0.0000000E+00;  1.0000000E+03;  1.0000000E-01;  0.0000000E+00;0;  0.0000000E+00;  0.0000000E+00;  0.0000000E+00;0;  0.0000000E+00;  4.0000000E+04;  0.0000000E+00;  0.0000000E+00;  4.0000000E+04;  0.0000000E+00;  4.0000000E+04;  0.0000000E+00;  0.0000000E+00;  0.0000000E+00;  0.0000000E+00;
 -1.4000000E-01;  9.9999998E-03;  4.3000001E-01;632;  0.0000000E+00;  0.0000000E+00;  0.0000000E+00;  1.0000000E+03;  1.0000000E-01;  0.0000000E+00;0;  0.0000000E+00;  0.0000000E+00;  0.0000000E+00;0;  0.0000000E+00;  4.0000000E+04;  0.0000000E+00;  0.0000000E+00;  4.0000000E+04;  0.0000000E+00;  4.0000000E+04;  0.0000000E+00;  0.0000000E+00;  0.0000000E+00;  0.0000000E+00;
 -1.4000000E-01;  9.9999998E-03;  4.4000000E-01;633;  0.0000000E+00;  0.0000000E+00;  0.0000000E+00;  1.0000000E+03;  1.0000000E-01;  0.0000000E+00;0;  0.0000000E+00;  0.0000000E+00;  0.0000000E+00;0;  0.0000000E+00;  4.0000000E+04;  0.0000000E+00;  0.0000000E+00;  4.0000000E+04;  0.0000000E+00;  4.0000000E+04;  0.0000000E+00;  0.0000000E+00;  0.0000000E+00;  0.0000000E+00;
 -1.4000000E-01;  9.9999998E-03;  4.4999999E-01;634;  0.0000000E+00;  0.0000000E+00;  0.0000000E+00;  1.0000000E+03;  1.0000000E-01;  0.0000000E+00;0;  0.0000000E+00;  0.0000000E+00;  0.0000000E+00;0;  0.0000000E+00;  4.0000000E+04;  0.0000000E+00;  0.0000000E+00;  4.0000000E+04;  0.0000000E+00;  4.0000000E+04;  0.0000000E+00;  0.0000000E+00;  0.0000000E+00;  0.0000000E+00;
 -1.3000000E-01;  9.9999998E-03;  4.1000000E-01;721;  0.0000000E+00;  0.0000000E+00;  0.0000000E+00;  1.0000000E+03;  1.0000000E-01;  0.0000000E+00;0;  0.0000000E+00;  0.0000000E+00;  0.0000000E+00;0;  0.0000000E+00;  4.0000000E+04;  0.0000000E+00;  0.0000000E+00;  4.0000000E+04;  0.0000000E+00;  4.0000000E+04;  0.0000000E+00;  0.0000000E+00;  0.0000000E+00;  0.0000000E+00;
 -1.3000000E-01;  9.9999998E-03;  4.1999999E-01;722;  0.0000000E+00;  0.0000000E+00;  0.0000000E+00;  1.0000000E+03;  1.0000000E-01;  0.0000000E+00;0;  0.0000000E+00;  0.0000000E+00;  0.0000000E+00;0;  0.0000000E+00;  4.0000000E+04;  0.0000000E+00;  0.0000000E+00;  4.0000000E+04;  0.0000000E+00;  4.0000000E+04;  0.0000000E+00;  0.0000000E+00;  0.0000000E+00;  0.0000000E+00;
 -1.3000000E-01;  9.9999998E-03;  4.3000001E-01;723;  0.0000000E+00;  0.0000000E+00;  0.0000000E+00;  1.0000000E+03;  1.0000000E-01;  0.0000000E+00;0;  0.0000000E+00;  0.0000000E+00;  0.0000000E+00;0;  0.0000000E+00;  4.0000000E+04;  0.0000000E+00;  0.0000000E+00;  4.0000000E+04;  0.0000000E+00;  4.0000000E+04;  0.0000000E+00;  0.0000000E+00;  0.0000000E+00;  0.0000000E+00;
 -1.3000000E-01;  9.9999998E-03;  4.4000000E-01;724;  0.0000000E+00;  0.0000000E+00;  0.0000000E+00;  1.0000000E+03;  1.0000000E-01;  0.0000000E+00;0;  0.0000000E+00;  0.0000000E+00;  0.0000000E+00;0;  0.0000000E+00;  4.0000000E+04;  0.0000000E+00;  0.0000000E+00;  4.0000000E+04;  0.0000000E+00;  4.0000000E+04;  0.0000000E+00;  0.0000000E+00;  0.0000000E+00;  0.0000000E+00;
 -1.3000000E-01;  9.9999998E-03;  4.4999999E-01;725;  0.0000000E+00;  0.0000000E+00;  0.0000000E+00;  1.0000000E+03;  1.0000000E-01;  0.0000000E+00;0;  0.0000000E+00;  0.0000000E+00;  0.0000000E+00;0;  0.0000000E+00;  4.0000000E+04;  0.0000000E+00;  0.0000000E+00;  4.0000000E+04;  0.0000000E+00;  4.0000000E+04;  0.0000000E+00;  0.0000000E+00;  0.0000000E+00;  0.0000000E+00;
 -1.2000000E-01;  9.9999998E-03;  4.1000000E-01;812;  0.0000000E+00;  0.0000000E+00;  0.0000000E+00;  1.0000000E+03;  1.0000000E-01;  0.0000000E+00;0;  0.0000000E+00;  0.0000000E+00;  0.0000000E+00;0;  0.0000000E+00;  4.0000000E+04;  0.0000000E+00;  0.0000000E+00;  4.0000000E+04;  0.0000000E+00;  4.0000000E+04;  0.0000000E+00;  0.0000000E+00;  0.0000000E+00;  3.0553776E-06;
 -1.2000000E-01;  9.9999998E-03;  4.1999999E-01;813;  0.0000000E+00;  0.0000000E+00;  0.0000000E+00;  1.0000000E+03;  1.0000000E-01;  0.0000000E+00;0;  0.0000000E+00;  0.0000000E+00;  0.0000000E+00;0;  0.0000000E+00;  4.0000000E+04;  0.0000000E+00;  0.0000000E+00;  4.0000000E+04;  0.0000000E+00;  4.0000000E+04;  0.0000000E+00;  0.0000000E+00;  0.0000000E+00;  0.0000000E+00;
 -1.2000000E-01;  9.9999998E-03;  4.3000001E-01;814;  0.0000000E+00;  0.0000000E+00;  0.0000000E+00;  1.0000000E+03;  1.0000000E-01;  0.0000000E+00;0;  0.0000000E+00;  0.0000000E+00;  0.0000000E+00;0;  0.0000000E+00;  4.0000000E+04;  0.0000000E+00;  0.0000000E+00;  4.0000000E+04;  0.0000000E+00;  4.0000000E+04;  0.0000000E+00;  0.0000000E+00;  0.0000000E+00;  0.0000000E+00;
 -1.2000000E-01;  9.9999998E-03;  4.4000000E-01;815;  0.0000000E+00;  0.0000000E+00;  0.0000000E+00;  1.0000000E+03;  1.0000000E-01;  0.0000000E+00;0;  0.0000000E+00;  0.0000000E+00;  0.0000000E+00;0;  0.0000000E+00;  4.0000000E+04;  0.0000000E+00;  0.0000000E+00;  4.0000000E+04;  0.0000000E+00;  4.0000000E+04;  0.0000000E+00;  0.0000000E+00;  0.0000000E+00;  0.0000000E+00;
 -1.2000000E-01;  9.9999998E-03;  4.4999999E-01;816;  0.0000000E+00;  0.0000000E+00;  0.0000000E+00;  1.0000000E+03;  1.0000000E-01;  0.0000000E+00;0;  0.0000000E+00;  0.0000000E+00;  0.0000000E+00;0;  0.0000000E+00;  4.0000000E+04;  0.0000000E+00;  0.0000000E+00;  4.0000000E+04;  0.0000000E+00;  4.0000000E+04;  0.0000000E+00;  0.0000000E+00;  0.0000000E+00;  0.0000000E+00;
 -1.1000000E-01;  9.9999998E-03;  4.1000000E-01;903;  0.0000000E+00;  0.0000000E+00;  0.0000000E+00;  1.0000000E+03;  1.0000000E-01;  0.0000000E+00;0;  0.0000000E+00;  0.0000000E+00;  0.0000000E+00;0; -8.7726185E-08;  4.0000000E+04;  0.0000000E+00;  0.0000000E+00;  4.0000000E+04;  0.0000000E+00;  4.0000000E+04; -3.4654057E-08;  0.0000000E+00; -5.3072128E-08;  1.7640112E-01;
 -1.1000000E-01;  9.9999998E-03;  4.1999999E-01;904;  0.0000000E+00;  0.0000000E+00;  0.0000000E+00;  1.0000000E+03;  1.0000000E-01;  0.0000000E+00;0;  0.0000000E+00;  0.0000000E+00;  0.0000000E+00;0;  0.0000000E+00;  4.0000000E+04;  0.0000000E+00;  0.0000000E+00;  4.0000000E+04;  0.0000000E+00;  4.0000000E+04;  0.0000000E+00;  0.0000000E+00;  0.0000000E+00;  2.4097315E-06;
 -1.1000000E-01;  9.9999998E-03;  4.3000001E-01;905;  0.0000000E+00;  0.0000000E+00;  0.0000000E+00;  1.0000000E+03;  1.0000000E-01;  0.0000000E+00;0;  0.0000000E+00;  0.0000000E+00;  0.0000000E+00;0;  0.0000000E+00;  4.0000000E+04;  0.0000000E+00;  0.0000000E+00;  4.0000000E+04;  0.0000000E+00;  4.0000000E+04;  0.0000000E+00;  0.0000000E+00;  0.0000000E+00;  0.0000000E+00;
 -1.1000000E-01;  9.9999998E-03;  4.4000000E-01;906;  0.0000000E+00;  0.0000000E+00;  0.0000000E+00;  1.0000000E+03;  1.0000000E-01;  0.0000000E+00;0;  0.0000000E+00;  0.0000000E+00;  0.0000000E+00;0;  0.0000000E+00;  4.0000000E+04;  0.0000000E+00;  0.0000000E+00;  4.0000000E+04;  0.0000000E+00;  4.0000000E+04;  0.0000000E+00;  0.0000000E+00;  0.0000000E+00;  0.0000000E+00;
 -1.1000000E-01;  9.9999998E-03;  4.4999999E-01;907;  0.0000000E+00;  0.0000000E+00;  0.0000000E+00;  1.0000000E+03;  1.0000000E-01;  0.0000000E+00;0;  0.0000000E+00;  0.0000000E+00;  0.0000000E+00;0;  0.0000000E+00;  4.0000000E+04;  0.0000000E+00;  0.0000000E+00;  4.0000000E+04;  0.0000000E+00;  4.0000000E+04;  0.0000000E+00;  0.0000000E+00;  0.0000000E+00;  0.0000000E+00;
 -1.0000000E-01;  9.9999998E-03;  4.1000000E-01;994;  0.0000000E+00;  0.0000000E+00;  0.0000000E+00;  1.0000000E+03;  1.0000000E-01;  0.0000000E+00;0;  0.0000000E+00;  0.0000000E+00;  0.0000000E+00;0; -7.7015318E-07;  4.0000000E+04;  0.0000000E+00;  0.0000000E+00;  4.0000000E+04;  0.0000000E+00;  4.0000000E+04; -2.9683025E-07;  0.0000000E+00; -4.7332293E-07;  1.6884520E+00;
 -1.0000000E-01;  9.9999998E-03;  4.1999999E-01;995;  0.0000000E+00;  0.0000000E+00;  0.0000000E+00;  1.0000000E+03;  1.0000000E-01;  0.0000000E+00;0;  0.0000000E+00;  0.0000000E+00;  0.0000000E+00;0; -7.4095553E-08;  4.0000000E+04;  0.0000000E+00;  0.0000000E+00;  4.0000000E+04;  0.0000000E+00;  4.0000000E+04; -2.9099530E-08;  0.0000000E+00; -4.4996025E-08;  1.6635561E-01;
 -1.0000000E-01;  9.9999998E-03;  4.3000001E-01;996;  0.0000000E+00;  0.0000000E+00;  0.0000000E+00;  1.0000000E+03;  1.0000000E-01;  0.0000000E+00;0;  0.0000000E+00;  0.0000000E+00;  0.0000000E+00;0;  0.0000000E+00;  4.0000000E+04;  0.0000000E+00;  0.0000000E+00;  4.0000000E+04;  0.0000000E+00;  4.0000000E+04;  0.0000000E+00;  0.0000000E+00;  0.0000000E+00;  0.0000000E+00;
 -1.0000000E-01;  9.9999998E-03;  4.4000000E-01;997;  0.0000000E+00;  0.0000000E+00;  0.0000000E+00;  1.0000000E+03;  1.0000000E-01;  0.0000000E+00;0;  0.0000000E+00;  0.0000000E+00;  0.0000000E+00;0;  0.0000000E+00;  4.0000000E+04;  0.0000000E+00;  0.0000000E+00;  4.0000000E+04;  0.0000000E+00;  4.0000000E+04;  0.0000000E+00;  0.0000000E+00;  0.0000000E+00;  0.0000000E+00;
 -1.0000000E-01;  9.9999998E-03;  4.4999999E-01;998;  0.0000000E+00;  0.0000000E+00;  0.0000000E+00;  1.0000000E+03;  1.0000000E-01;  0.0000000E+00;0;  0.0000000E+00;  0.0000000E+00;  0.0000000E+00;0;  0.0000000E+00;  4.0000000E+04;  0.0000000E+00;  0.0000000E+00;  4.0000000E+04;  0.0000000E+00;  4.0000000E+04;  0.0000000E+00;  0.0000000E+00;  0.0000000E+00;  0.0000000E+00;
 -9.0000004E-02;  9.9999998E-03;  4.1000000E-01;1085;  0.0000000E+00;  0.0000000E+00;  0.0000000E+00;  1.0000000E+03;  1.0000000E-01;  0.0000000E+00;0;  0.0000000E+00;  0.0000000E+00;  0.0000000E+00;0; -2.9176658E-06;  4.0000000E+04;  0.0000000E+00;  0.0000000E+00;  4.0000000E+04;  0.0000000E+00;  4.0000000E+04; -1.1133833E-06;  0.0000000E+00; -1.8042824E-06;  7.3418412E+00;
 -9.0000004E-02;  9.9999998E-03;  4.1999999E-01;1086;  0.0000000E+00;  0.0000000E+00;  0.0000000E+00;  1.0000000E+03;  1.0000000E-01;  0.0000000E+00;0;  0.0000000E+00;  0.0000000E+00;  0.0000000E+00;0; -6.2433321E-07;  4.0000000E+04;  0.0000000E+00;  0.0000000E+00;  4.0000000E+04;  0.0000000E+00;  4.0000000E+04; -2.3158637E-07;  0.0000000E+00; -3.9274687E-07;  1.4776319E+00;
 -9.0000004E-02;  9.9999998E-03;  4.3000001E-01;1087;  0.0000000E+00;  0.0000000E+00;  0.0000000E+00;  1.0000000E+03;  1.0000000E-01;  0.0000000E+00;0;  0.0000000E+00;  0.0000000E+00;  0.0000000E+00;0; -3.3809432E-08;  4.0000000E+04;  0.0000000E+00;  0.0000000E+00;  4.0000000E+04;  0.0000000E+00;  4.0000000E+04; -1.4072222E-08;  0.0000000E+00; -1.9737209E-08;  8.7173745E-02;
 -9.0000004E-02;  9.9999998E-03;  4.4000000E-01;1088;  0.0000000E+00;  0.0000000E+00;  0.0000000E+00;  1.0000000E+03;  1.0000000E-01;  0.0000000E+00;0;  0.0000000E+00;  0.0000000E+00;  0.0000000E+00;0;  0.0000000E+00;  4.0000000E+04;  0.0000000E+00;  0.0000000E+00;  4.0000000E+04;  0.0000000E+00;  4.0000000E+04;  0.0000000E+00;  0.0000000E+00;  0.0000000E+00;  0.0000000E+00;
 -9.0000004E-02;  9.9999998E-03;  4.4999999E-01;1089;  0.0000000E+00;  0.0000000E+00;  0.0000000E+00;  1.0000000E+03;  1.0000000E-01;  0.0000000E+00;0;  0.0000000E+00;  0.0000000E+00;  0.0000000E+00;0;  0.0000000E+00;  4.0000000E+04;  0.0000000E+00;  0.0000000E+00;  4.0000000E+04;  0.0000000E+00;  4.0000000E+04;  0.0000000E+00;  0.0000000E+00;  0.0000000E+00;  0.0000000E+00;
 -7.9999998E-02;  9.9999998E-03;  4.1000000E-01;1176;  0.0000000E+00;  0.0000000E+00;  0.0000000E+00;  1.0000000E+03;  1.0000000E-01;  0.0000000E+00;0;  0.0000000E+00;  0.0000000E+00;  0.0000000E+00;0; -7.5781318E-06;  4.0000000E+04;  0.0000000E+00;  0.0000000E+00;  4.0000000E+04;  0.0000000E+00;  4.0000000E+04; -2.9229643E-06;  0.0000000E+00; -4.6551677E-06;  2.1288725E+01;
 -7.9999998E-02;  9.9999998E-03;  4.1999999E-01;1177;  0.0000000E+00;  0.0000000E+00;  0.0000000E+00;  1.0000000E+03;  1.0000000E-01;  0.0000000E+00;0;  0.0000000E+00;  0.0000000E+00;  0.0000000E+00;0; -2.2929185E-06;  4.0000000E+04;  0.0000000E+00;  0.0000000E+00;  4.0000000E+04;  0.0000000E+00;  4.0000000E+04; -8.3969542E-07;  0.0000000E+00; -1.4532229E-06;  6.1352959E+00;
 -7.9999998E-02;  9.9999998E-03;  4.3000001E-01;1178;  0.0000000E+00;  0.0000000E+00;  0.0000000E+00;  1.0000000E+03;  1.0000000E-01;  0.0000000E+00;0;  0.0000000E+00;  0.0000000E+00;  0.0000000E+00;0; -3.5026738E-07;  4.0000000E+04;  0.0000000E+00;  0.0000000E+00;  4.0000000E+04;  0.0000000E+00;  4.0000000E+04; -1.2807301E-07;  0.0000000E+00; -2.2219436E-07;  8.9409655E-01;
 -7.9999998E-02;  9.9999998E-03;  4.4000000E-01;1179;  0.0000000E+00;  0.0000000E+00;  0.0000000E+00;  1.0000000E+03;  1.0000000E-01;  0.0000000E+00;0;  0.0000000E+00;  0.0000000E+00;  0.0000000E+00;0; -5.6804836E-09;  4.0000000E+04;  0.0000000E+00;  0.0000000E+00;  4.0000000E+04;  0.0000000E+00;  4.0000000E+04; -2.4466222E-09;  0.0000000E+00; -3.2338616E-09;  1.6247999E-02;
 -7.9999998E-02;  9.9999998E-03;  4.4999999E-01;1180;  0.0000000E+00;  0.0000000E+00;  0.0000000E+00;  1.0000000E+03;  1.0000000E-01;  0.0000000E+00;0;  0.0000000E+00;  0.0000000E+00;  0.0000000E+00;0;  0.0000000E+00;  4.0000000E+04;  0.0000000E+00;  0.0000000E+00;  4.0000000E+04;  0.0000000E+00;  4.0000000E+04;  0.0000000E+00;  0.0000000E+00;  0.0000000E+00;  0.0000000E+00;
 -7.0000000E-02;  9.9999998E-03;  4.1000000E-01;1267;  0.0000000E+00;  0.0000000E+00;  0.0000000E+00;  1.0000000E+03;  1.0000000E-01;  0.0000000E+00;0;  0.0000000E+00;  0.0000000E+00;  0.0000000E+00;0; -1.5771839E-05;  4.0000000E+04;  0.0000000E+00;  0.0000000E+00;  4.0000000E+04;  0.0000000E+00;  4.0000000E+04; -6.2636805E-06;  0.0000000E+00; -9.5081587E-06;  4.7881641E+01;
 -7.0000000E-02;  9.9999998E-03;  4.1999999E-01;1268;  0.0000000E+00;  0.0000000E+00;  0.0000000E+00;  1.0000000E+03;  1.0000000E-01;  0.0000000E+00;0;  0.0000000E+00;  0.0000000E+00;  0.0000000E+00;0; -5.7827015E-06;  4.0000000E+04;  0.0000000E+00;  0.0000000E+00;  4.0000000E+04;  0.0000000E+00;  4.0000000E+04; -2.1485639E-06;  0.0000000E+00; -3.6341376E-06;  1.7125446E+01;
 -7.0000000E-02;  9.9999998E-03;  4.3000001E-01;1269;  0.0000000E+00;  0.0000000E+00;  0.0000000E+00;  1.0000000E+03;  1.0000000E-01;  0.0000000E+00;0;  0.0000000E+00;  0.0000000E+00;  0.0000000E+00;0; -1.3489559E-06;  4.0000000E+04;  0.0000000E+00;  0.0000000E+00;  4.0000000E+04;  0.0000000E+00;  4.0000000E+04; -4.8433913E-07;  0.0000000E+00; -8.6461682E-07;  3.7981634E+00;
 -7.0000000E-02;  9.9999998E-03;  4.4000000E-01;1270;  0.0000000E+00;  0.0000000E+00;  0.0000000E+00;  1.0000000E+03;  1.0000000E-01;  0.0000000E+00;0;  0.0000000E+00;  0.0000000E+00;  0.0000000E+00;0; -1.1042778E-07;  4.0000000E+04;  0.0000000E+00;  0.0000000E+00;  4.0000000E+04;  0.0000000E+00;  4.0000000E+04; -4.1914554E-08;  0.0000000E+00; -6.8513224E-08;  3.1179804E-01;
 -7.0000000E-02;  9.9999998E-03;  4.4999999E-01;1271;  0.0000000E+00;  0.0000000E+00;  0.0000000E+00;  1.0000000E+03;  1.0000000E-01;  0.0000000E+00;0;  0.0000000E+00;  0.0000000E+00;  0.0000000E+00;0;  0.0000000E+00;  4.0000000E+04;  0.0000000E+00;  0.0000000E+00;  4.0000000E+04;  0.0000000E+00;  4.0000000E+04;  0.0000000E+00;  0.0000000E+00;  0.0000000E+00;  8.6631813E-12;
 -5.9999999E-02;  9.9999998E-03;  4.1000000E-01;1358;  0.0000000E+00;  0.0000000E+00;  0.0000000E+00;  1.0000000E+03;  1.0000000E-01;  0.0000000E+00;0;  0.0000000E+00;  0.0000000E+00;  0.0000000E+00;0; -2.8266464E-05;  4.0000000E+04;  0.0000000E+00;  0.0000000E+00;  4.0000000E+04;  0.0000000E+00;  4.0000000E+04; -1.1711785E-05;  0.0000000E+00; -1.6554679E-05;  9.0299934E+01;
 -5.9999999E-02;  9.9999998E-03;  4.1999999E-01;1359;  0.0000000E+00;  0.0000000E+00;  0.0000000E+00;  1.0000000E+03;  1.0000000E-01;  0.0000000E+00;0;  0.0000000E+00;  0.0000000E+00;  0.0000000E+00;0; -1.1676490E-05;  4.0000000E+04;  0.0000000E+00;  0.0000000E+00;  4.0000000E+04;  0.0000000E+00;  4.0000000E+04; -4.4796766E-06;  0.0000000E+00; -7.1968138E-06;  3.7259285E+01;
 -5.9999999E-02;  9.9999998E-03;  4.3000001E-01;1360;  0.0000000E+00;  0.0000000E+00;  0.0000000E+00;  1.0000000E+03;  1.0000000E-01;  0.0000000E+00;0;  0.0000000E+00;  0.0000000E+00;  0.0000000E+00;0; -3.4397453E-06;  4.0000000E+04;  0.0000000E+00;  0.0000000E+00;  4.0000000E+04;  0.0000000E+00;  4.0000000E+04; -1.2482078E-06;  0.0000000E+00; -2.1915375E-06;  1.0625064E+01;
 -5.9999999E-02;  9.9999998E-03;  4.4000000E-01;1361;  0.0000000E+00;  0.0000000E+00;  0.0000000E+00;  1.0000000E+03;  1.0000000E-01;  0.0000000E+00;0;  0.0000000E+00;  0.0000000E+00;  0.0000000E+00;0; -5.2045618E-07;  4.0000000E+04;  0.0000000E+00;  0.0000000E+00;  4.0000000E+04;  0.0000000E+00;  4.0000000E+04; -1.8709889E-07;  0.0000000E+00; -3.3335726E-07;  1.5489235E+00;
 -5.9999999E-02;  9.9999998E-03;  4.4999999E-01;1362;  0.0000000E+00;  0.0000000E+00;  0.0000000E+00;  1.0000000E+03;  1.0000000E-01;  0.0000000E+00;0;  0.0000000E+00;  0.0000000E+00;  0.0000000E+00;0; -1.1551808E-08;  4.0000000E+04;  0.0000000E+00;  0.0000000E+00;  4.0000000E+04;  0.0000000E+00;  4.0000000E+04; -4.3808575E-09;  0.0000000E+00; -7.1709509E-09;  3.5257049E-02;
 -5.0000001E-02;  9.9999998E-03;  4.1000000E-01;1449;  0.0000000E+00;  0.0000000E+00;  0.0000000E+00;  1.0000088E+03;  1.0000000E-01;  7.3084354E+00;0;  0.0000000E+00;  0.0000000E+00;  0.0000000E+00;0; -4.5344976E-05;  4.0000000E+04;  0.0000000E+00;  0.0000000E+00;  4.0000000E+04;  0.0000000E+00;  4.0000000E+04; -1.9760881E-05;  0.0000000E+00; -2.5584093E-05;  1.4928125E+02;
 -5.0000001E-02;  9.9999998E-03;  4.1999999E-01;1450;  0.0000000E+00;  0.0000000E+00;  0.0000000E+00;  1.0000000E+03;  1.0000000E-01;  0.0000000E+00;0;  0.0000000E+00;  0.0000000E+00;  0.0000000E+00;0; -2.0251613E-05;  4.0000000E+04;  0.0000000E+00;  0.0000000E+00;  4.0000000E+04;  0.0000000E+00;  4.0000000E+04; -8.1240669E-06;  0.0000000E+00; -1.2127547E-05;  6.8051491E+01;
 -5.0000001E-02;  9.9999998E-03;  4.3000001E-01;1451;  0.0000000E+00;  0.0000000E+00;  0.0000000E+00;  1.0000000E+03;  1.0000000E-01;  0.0000000E+00;0;  0.0000000E+00;  0.0000000E+00;  0.0000000E+00;0; -6.8888266E-06;  4.0000000E+04;  0.0000000E+00;  0.0000000E+00;  4.0000000E+04;  0.0000000E+00;  4.0000000E+04; -2.5785482E-06;  0.0000000E+00; -4.3102787E-06;  2.2893560E+01;
 -5.0000001E-02;  9.9999998E-03;  4.4000000E-01;1452;  0.0000000E+00;  0.0000000E+00;  0.0000000E+00;  1.0000000E+03;  1.0000000E-01;  0.0000000E+00;0;  0.0000000E+00;  0.0000000E+00;  0.0000000E+00;0; -1.4321729E-06;  4.0000000E+04;  0.0000000E+00;  0.0000000E+00;  4.0000000E+04;  0.0000000E+00;  4.0000000E+04; -5.1463428E-07;  0.0000000E+00; -9.1753867E-07;  4.6144929E+00;
 -5.0000001E-02;  9.9999998E-03;  4.4999999E-01;1453;  0.0000000E+00;  0.0000000E+00;  0.0000000E+00;  1.0000000E+03;  1.0000000E-01;  0.0000000E+00;0;  0.0000000E+00;  0.0000000E+00;  0.0000000E+00;0; -9.4249870E-08;  4.0000000E+04;  0.0000000E+00;  0.0000000E+00;  4.0000000E+04;  0.0000000E+00;  4.0000000E+04; -3.4328405E-08;  0.0000000E+00; -5.9921462E-08;  3.0374700E-01;
 -3.9999999E-02;  9.9999998E-03;  4.1000000E-01;1540;  0.0000000E+00;  0.0000000E+00;  0.0000000E+00;  1.0000480E+03;  1.0000000E-01;  3.9801342E+01;0;  0.0000000E+00;  0.0000000E+00;  0.0000000E+00;0; -6.6620538E-05;  4.0000000E+04;  0.0000000E+00;  0.0000000E+00;  4.0000000E+04;  0.0000000E+00;  4.0000000E+04; -3.0631840E-05;  0.0000000E+00; -3.5988698E-05;  2.2230591E+02;
 -3.9999999E-02;  9.9999998E-03;  4.1999999E-01;1541;  0.0000000E+00;  0.0000000E+00;  0.0000000E+00;  1.0000000E+03;  1.0000000E-01;  0.0000000E+00;0;  0.0000000E+00;  0.0000000E+00;  0.0000000E+00;0; -3.1344141E-05;  4.0000000E+04;  0.0000000E+00;  0.0000000E+00;  4.0000000E+04;  0.0000000E+00;  4.0000000E+04; -1.3242411E-05;  0.0000000E+00; -1.8101729E-05;  1.0889661E+02;
 -3.9999999E-02;  9.9999998E-03;  4.3000001E-01;1542;  0.0000000E+00;  0.0000000E+00;  0.0000000E+00;  1.0000000E+03;  1.0000000E-01;  0.0000000E+00;0;  0.0000000E+00;  0.0000000E+00;  0.0000000E+00;0; -1.1708989E-05;  4.0000000E+04;  0.0000000E+00;  0.0000000E+00;  4.0000000E+04;  0.0000000E+00;  4.0000000E+04; -4.5789757E-06;  0.0000000E+00; -7.1300137E-06;  4.1091961E+01;
 -3.9999999E-02;  9.9999998E-03;  4.4000000E-01;1543;  0.0000000E+00;  0.0000000E+00;  0.0000000E+00;  1.0000000E+03;  1.0000000E-01;  0.0000000E+00;0;  0.0000000E+00;  0.0000000E+00;  0.0000000E+00;0; -2.9441931E-06;  4.0000000E+04;  0.0000000E+00;  0.0000000E+00;  4.0000000E+04;  0.0000000E+00;  4.0000000E+04; -1.0832033E-06;  0.0000000E+00; -1.8609899E-06;  1.0197371E+01;
 -3.9999999E-02;  9.9999998E-03;  4.4999999E-01;1544;  0.0000000E+00;  0.0000000E+00;  0.0000000E+00;  1.0000000E+03;  1.0000000E-01;  0.0000000E+00;0;  0.0000000E+00;  0.0000000E+00;  0.0000000E+00;0; -3.2456040E-07;  4.0000000E+04;  0.0000000E+00;  0.0000000E+00;  4.0000000E+04;  0.0000000E+00;  4.0000000E+04; -1.1553666E-07;  0.0000000E+00; -2.0902374E-07;  1.1189601E+00;
 -2.9999999E-02;  9.9999998E-03;  4.1000000E-01;1631;  0.0000000E+00;  0.0000000E+00;  0.0000000E+00;  1.0000668E+03;  1.0000000E-01;  5.5307079E+01;0;  0.0000000E+00;  0.0000000E+00;  0.0000000E+00;0; -9.0962152E-05;  4.0000000E+04;  0.0000000E+00;  0.0000000E+00;  4.0000000E+04;  0.0000000E+00;  4.0000000E+04; -4.4074051E-05;  0.0000000E+00; -4.6888101E-05;  3.0335736E+02;
 -2.9999999E-02;  9.9999998E-03;  4.1999999E-01;1632;  0.0000000E+00;  0.0000000E+00;  0.0000000E+00;  1.0000106E+03;  1.0000000E-01;  8.7898750E+00;0;  0.0000000E+00;  0.0000000E+00;  0.0000000E+00;0; -4.4301203E-05;  4.0000000E+04;  0.0000000E+00;  0.0000000E+00;  4.0000000E+04;  0.0000000E+00;  4.0000000E+04; -1.9756822E-05;  0.0000000E+00; -2.4544383E-05;  1.5668486E+02;
 -2.9999999E-02;  9.9999998E-03;  4.3000001E-01;1633;  0.0000000E+00;  0.0000000E+00;  0.0000000E+00;  1.0000000E+03;  1.0000000E-01;  0.0000000E+00;0;  0.0000000E+00;  0.0000000E+00;  0.0000000E+00;0; -1.7609931E-05;  4.0000000E+04;  0.0000000E+00;  0.0000000E+00;  4.0000000E+04;  0.0000000E+00;  4.0000000E+04; -7.2454486E-06;  0.0000000E+00; -1.0364482E-05;  6.4205406E+01;
 -2.9999999E-02;  9.9999998E-03;  4.4000000E-01;1634;  0.0000000E+00;  0.0000000E+00;  0.0000000E+00;  1.0000000E+03;  1.0000000E-01;  0.0000000E+00;0;  0.0000000E+00;  0.0000000E+00;  0.0000000E+00;0; -5.0008380E-06;  4.0000000E+04;  0.0000000E+00;  0.0000000E+00;  4.0000000E+04;  0.0000000E+00;  4.0000000E+04; -1.9100694E-06;  0.0000000E+00; -3.0907686E-06;  1.8373783E+01;
 -2.9999999E-02;  9.9999998E-03;  4.4999999E-01;1635;  0.0000000E+00;  0.0000000E+00;  0.0000000E+00;  1.0000000E+03;  1.0000000E-01;  0.0000000E+00;0;  0.0000000E+00;  0.0000000E+00;  0.0000000E+00;0; -7.4046773E-07;  4.0000000E+04;  0.0000000E+00;  0.0000000E+00;  4.0000000E+04;  0.0000000E+00;  4.0000000E+04; -2.6388091E-07;  0.0000000E+00; -4.7658685E-07;  2.7384870E+00;
 -2.0000000E-02;  9.9999998E-03;  4.1000000E-01;1722;  0.0000000E+00;  0.0000000E+00;  0.0000000E+00;  1.0000828E+03;  1.0000000E-01;  6.8541275E+01;0;  0.0000000E+00;  0.0000000E+00;  0.0000000E+00;0; -1.1658207E-04;  4.0000000E+04;  0.0000000E+00;  0.0000000E+00;  4.0000000E+04;  0.0000000E+00;  4.0000000E+04; -5.9250986E-05;  0.0000000E+00; -5.7331090E-05;  3.8334686E+02;
 -2.0000000E-02;  9.9999998E-03;  4.1999999E-01;1723;  0.0000000E+00;  0.0000000E+00;  0.0000000E+00;  1.0000462E+03;  1.0000000E-01;  3.8319904E+01;0;  0.0000000E+00;  0.0000000E+00;  0.0000000E+00;0; -5.8043166E-05;  4.0000000E+04;  0.0000000E+00;  0.0000000E+00;  4.0000000E+04;  0.0000000E+00;  4.0000000E+04; -2.7283144E-05;  0.0000000E+00; -3.0760024E-05;  2.0593753E+02;
 -2.0000000E-02;  9.9999998E-03;  4.3000001E-01;1724;  0.0000000E+00;  0.0000000E+00;  0.0000000E+00;  1.0000000E+03;  1.0000000E-01;  0.0000000E+00;0;  0.0000000E+00;  0.0000000E+00;  0.0000000E+00;0; -2.4022174E-05;  4.0000000E+04;  0.0000000E+00;  0.0000000E+00;  4.0000000E+04;  0.0000000E+00;  4.0000000E+04; -1.0430064E-05;  0.0000000E+00; -1.3592110E-05;  8.9623550E+01;
 -2.0000000E-02;  9.9999998E-03;  4.4000000E-01;1725;  0.0000000E+00;  0.0000000E+00;  0.0000000E+00;  1.0000000E+03;  1.0000000E-01;  0.0000000E+00;0;  0.0000000E+00;  0.0000000E+00;  0.0000000E+00;0; -7.3797464E-06;  4.0000000E+04;  0.0000000E+00;  0.0000000E+00;  4.0000000E+04;  0.0000000E+00;  4.0000000E+04; -2.9541159E-06;  0.0000000E+00; -4.4256303E-06;  2.8377085E+01;
 -2.0000000E-02;  9.9999998E-03;  4.4999999E-01;1726;  0.0000000E+00;  0.0000000E+00;  0.0000000E+00;  1.0000000E+03;  1.0000000E-01;  0.0000000E+00;0;  0.0000000E+00;  0.0000000E+00;  0.0000000E+00;0; -1.3081062E-06;  4.0000000E+04;  0.0000000E+00;  0.0000000E+00;  4.0000000E+04;  0.0000000E+00;  4.0000000E+04; -4.7625664E-07;  0.0000000E+00; -8.3184955E-07;  5.1717772E+00;
 -9.9999998E-03;  9.9999998E-03;  4.1000000E-01;1813;  0.0000000E+00;  0.0000000E+00;  0.0000000E+00;  1.0001279E+03;  1.0000000E-01;  1.0597231E+02;0;  0.0000000E+00;  0.0000000E+00;  0.0000000E+00;0; -1.4129211E-04;  4.0000000E+04;  0.0000000E+00;  0.0000000E+00;  4.0000000E+04;  0.0000000E+00;  4.0000000E+04; -7.4745592E-05;  0.0000000E+00; -6.6546527E-05;  4.5136099E+02;
 -9.9999998E-03;  9.9999998E-03;  4.1999999E-01;1814;  0.0000000E+00;  0.0000000E+00;  0.0000000E+00;  1.0000550E+03;  1.0000000E-01;  4.5529575E+01;0;  0.0000000E+00;  0.0000000E+00;  0.0000000E+00;0; -7.1246497E-05;  4.0000000E+04;  0.0000000E+00;  0.0000000E+00;  4.0000000E+04;  0.0000000E+00;  4.0000000E+04; -3.5124332E-05;  0.0000000E+00; -3.6122165E-05;  2.4949637E+02;
 -9.9999998E-03;  9.9999998E-03;  4.3000001E-01;1815;  0.0000000E+00;  0.0000000E+00;  0.0000000E+00;  1.0000000E+03;  1.0000000E-01;  0.0000000E+00;0;  0.0000000E+00;  0.0000000E+00;  0.0000000E+00;0; -3.0210153E-05;  4.0000000E+04;  0.0000000E+00;  0.0000000E+00;  4.0000000E+04;  0.0000000E+00;  4.0000000E+04; -1.3834893E-05;  0.0000000E+00; -1.6375259E-05;  1.1344614E+02;
 -9.9999998E-03;  9.9999998E-03;  4.4000000E-01;1816;  0.0000000E+00;  0.0000000E+00;  0.0000000E+00;  1.0000000E+03;  1.0000000E-01;  0.0000000E+00;0;  0.0000000E+00;  0.0000000E+00;  0.0000000E+00;0; -9.7422417E-06;  4.0000000E+04;  0.0000000E+00;  0.0000000E+00;  4.0000000E+04;  0.0000000E+00;  4.0000000E+04; -4.1119647E-06;  0.0000000E+00; -5.6302770E-06;  3.8625996E+01;
 -9.9999998E-03;  9.9999998E-03;  4.4999999E-01;1817;  0.0000000E+00;  0.0000000E+00;  0.0000000E+00;  1.0000000E+03;  1.0000000E-01;  0.0000000E+00;0;  0.0000000E+00;  0.0000000E+00;  0.0000000E+00;0; -1.9273873E-06;  4.0000000E+04;  0.0000000E+00;  0.0000000E+00;  4.0000000E+04;  0.0000000E+00;  4.0000000E+04; -7.2842266E-07;  0.0000000E+00; -1.1989647E-06;  8.0813503E+00;
  0.0000000E+00;  9.9999998E-03;  4.1000000E-01;1845;  0.0000000E+00;  0.0000000E+00;  0.0000000E+00;  1.0001492E+03;  1.0000000E-01;  1.2355206E+02;0;  0.0000000E+00;  0.0000000E+00;  0.0000000E+00;0; -1.6280817E-04;  4.0000000E+04;  0.0000000E+00;  0.0000000E+00;  4.0000000E+04;  0.0000000E+00;  4.0000000E+04; -8.8656845E-05;  0.0000000E+00; -7.4151329E-05;  4.9688599E+02;
  0.0000000E+00;  9.9999998E-03;  4.1999999E-01;1846;  0.0000000E+00;  0.0000000E+00;  0.0000000E+00;  1.0000707E+03;  1.0000000E-01;  5.8566246E+01;0;  0.0000000E+00;  0.0000000E+00;  0.0000000E+00;0; -8.2569502E-05;  4.0000000E+04;  0.0000000E+00;  0.0000000E+00;  4.0000000E+04;  0.0000000E+00;  4.0000000E+04; -4.2307605E-05;  0.0000000E+00; -4.0261893E-05;  2.7979620E+02;
  0.0000000E+00;  9.9999998E-03;  4.3000001E-01;1847;  0.0000000E+00;  0.0000000E+00;  0.0000000E+00;  1.0000084E+03;  1.0000000E-01;  6.9133849E+00;0;  0.0000000E+00;  0.0000000E+00;  0.0000000E+00;0; -3.5428853E-05;  4.0000000E+04;  0.0000000E+00;  0.0000000E+00;  4.0000000E+04;  0.0000000E+00;  4.0000000E+04; -1.7030581E-05;  0.0000000E+00; -1.8398272E-05;  1.3114136E+02;
  0.0000000E+00;  9.9999998E-03;  4.4000000E-01;1848;  0.0000000E+00;  0.0000000E+00;  0.0000000E+00;  1.0000000E+03;  1.0000000E-01;  0.0000000E+00;0;  0.0000000E+00;  0.0000000E+00;  0.0000000E+00;0; -1.1722646E-05;  4.0000000E+04;  0.0000000E+00;  0.0000000E+00;  4.0000000E+04;  0.0000000E+00;  4.0000000E+04; -5.2280875E-06;  0.0000000E+00; -6.4945584E-06;  4.7012150E+01;
  0.0000000E+00;  9.9999998E-03;  4.4999999E-01;1849;  0.0000000E+00;  0.0000000E+00;  0.0000000E+00;  1.0000000E+03;  1.0000000E-01;  0.0000000E+00;0;  0.0000000E+00;  0.0000000E+00;  0.0000000E+00;0; -2.4659034E-06;  4.0000000E+04;  0.0000000E+00;  0.0000000E+00;  4.0000000E+04;  0.0000000E+00;  4.0000000E+04; -9.7968541E-07;  0.0000000E+00; -1.4862179E-06;  1.0829704E+01;
  9.9999998E-03;  9.9999998E-03;  4.1000000E-01;1875;  0.0000000E+00;  0.0000000E+00;  0.0000000E+00;  1.0001854E+03;  1.0000000E-01;  1.5357590E+02;0;  0.0000000E+00;  0.0000000E+00;  0.0000000E+00;0; -1.7910363E-04;  4.0000000E+04;  0.0000000E+00;  0.0000000E+00;  4.0000000E+04;  0.0000000E+00;  4.0000000E+04; -9.8884491E-05;  0.0000000E+00; -8.0219143E-05;  5.1310663E+02;
  9.9999998E-03;  9.9999998E-03;  4.1999999E-01;1876;  0.0000000E+00;  0.0000000E+00;  0.0000000E+00;  1.0000889E+03;  1.0000000E-01;  7.3676926E+01;0;  0.0000000E+00;  0.0000000E+00;  0.0000000E+00;0; -9.0887872E-05;  4.0000000E+04;  0.0000000E+00;  0.0000000E+00;  4.0000000E+04;  0.0000000E+00;  4.0000000E+04; -4.7706289E-05;  0.0000000E+00; -4.3181586E-05;  2.9080460E+02;
  9.9999998E-03;  9.9999998E-03;  4.3000001E-01;1877;  0.0000000E+00;  0.0000000E+00;  0.0000000E+00;  1.0000317E+03;  1.0000000E-01;  2.6270863E+01;0;  0.0000000E+00;  0.0000000E+00;  0.0000000E+00;0; -3.9085942E-05;  4.0000000E+04;  0.0000000E+00;  0.0000000E+00;  4.0000000E+04;  0.0000000E+00;  4.0000000E+04; -1.9506828E-05;  0.0000000E+00; -1.9579116E-05;  1.3853459E+02;
  9.9999998E-03;  9.9999998E-03;  4.4000000E-01;1878;  0.0000000E+00;  0.0000000E+00;  0.0000000E+00;  1.0000000E+03;  1.0000000E-01;  0.0000000E+00;0;  0.0000000E+00;  0.0000000E+00;  0.0000000E+00;0; -1.3029581E-05;  4.0000000E+04;  0.0000000E+00;  0.0000000E+00;  4.0000000E+04;  0.0000000E+00;  4.0000000E+04; -6.1183409E-06;  0.0000000E+00; -6.9112407E-06;  5.1362431E+01;
  9.9999998E-03;  9.9999998E-03;  4.4999999E-01;1879;  0.0000000E+00;  0.0000000E+00;  0.0000000E+00;  1.0000000E+03;  1.0000000E-01;  0.0000000E+00;0;  0.0000000E+00;  0.0000000E+00;  0.0000000E+00;0; -2.8064010E-06;  4.0000000E+04;  0.0000000E+00;  0.0000000E+00;  4.0000000E+04;  0.0000000E+00;  4.0000000E+04; -1.1827696E-06;  0.0000000E+00; -1.6236313E-06;  1.2640254E+01;
  2.0000000E-02;  9.9999998E-03;  4.1000000E-01;1905;  0.0000000E+00;  0.0000000E+00;  0.0000000E+00;  1.0002181E+03;  1.0000000E-01;  1.8063687E+02;0;  0.0000000E+00;  0.0000000E+00;  0.0000000E+00;0; -1.8873048E-04;  4.0000000E+04;  0.0000000E+00;  0.0000000E+00;  4.0000000E+04;  0.0000000E+00;  4.0000000E+04; -1.0357573E-04;  0.0000000E+00; -8.5154745E-05;  4.9995523E+02;
  2.0000000E-02;  9.9999998E-03;  4.1999999E-01;1906;  0.0000000E+00;  0.0000000E+00;  0.0000000E+00;  1.0001116E+03;  1.0000000E-01;  9.2441833E+01;0;  0.0000000E+00;  0.0000000E+00;  0.0000000E+00;0; -9.5487034E-05;  4.0000000E+04;  0.0000000E+00;  0.0000000E+00;  4.0000000E+04;  0.0000000E+00;  4.0000000E+04; -5.0258364E-05;  0.0000000E+00; -4.5228666E-05;  2.8047049E+02;
  2.0000000E-02;  9.9999998E-03;  4.3000001E-01;1907;  0.0000000E+00;  0.0000000E+00;  0.0000000E+00;  1.0000461E+03;  1.0000000E-01;  3.8221142E+01;0;  0.0000000E+00;  0.0000000E+00;  0.0000000E+00;0; -4.0864717E-05;  4.0000000E+04;  0.0000000E+00;  0.0000000E+00;  4.0000000E+04;  0.0000000E+00;  4.0000000E+04; -2.0757549E-05;  0.0000000E+00; -2.0107171E-05;  1.3311780E+02;
  2.0000000E-02;  9.9999998E-03;  4.4000000E-01;1908;  0.0000000E+00;  0.0000000E+00;  0.0000000E+00;  1.0000000E+03;  1.0000000E-01;  0.0000000E+00;0;  0.0000000E+00;  0.0000000E+00;  0.0000000E+00;0; -1.3527223E-05;  4.0000000E+04;  0.0000000E+00;  0.0000000E+00;  4.0000000E+04;  0.0000000E+00;  4.0000000E+04; -6.6014459E-06;  0.0000000E+00; -6.9257771E-06;  4.9994621E+01;
  2.0000000E-02;  9.9999998E-03;  4.4999999E-01;1909;  0.0000000E+00;  0.0000000E+00;  0.0000000E+00;  1.0000000E+03;  1.0000000E-01;  0.0000000E+00;0;  0.0000000E+00;  0.0000000E+00;  0.0000000E+00;0; -2.8903009E-06;  4.0000000E+04;  0.0000000E+00;  0.0000000E+00;  4.0000000E+04;  0.0000000E+00;  4.0000000E+04; -1.2955693E-06;  0.0000000E+00; -1.5947318E-06;  1.2818783E+01;
  2.9999999E-02;  9.9999998E-03;  4.1000000E-01;1935;  0.0000000E+00;  0.0000000E+00;  0.0000000E+00;  1.0002547E+03;  1.0000000E-01;  2.1105576E+02;0;  0.0000000E+00;  0.0000000E+00;  0.0000000E+00;0; -1.9103781E-04;  4.0000000E+04;  0.0000000E+00;  0.0000000E+00;  4.0000000E+04;  0.0000000E+00;  4.0000000E+04; -1.0161079E-04;  0.0000000E+00; -8.9427012E-05;  4.6622659E+02;
  2.9999999E-02;  9.9999998E-03;  4.1999999E-01;1936;  0.0000000E+00;  0.0000000E+00;  0.0000000E+00;  1.0001301E+03;  1.0000000E-01;  1.0775004E+02;0;  0.0000000E+00;  0.0000000E+00;  0.0000000E+00;0; -9.6156888E-05;  4.0000000E+04;  0.0000000E+00;  0.0000000E+00;  4.0000000E+04;  0.0000000E+00;  4.0000000E+04; -4.9243008E-05;  0.0000000E+00; -4.6913879E-05;  2.5267662E+02;
  2.9999999E-02;  9.9999998E-03;  4.3000001E-01;1937;  0.0000000E+00;  0.0000000E+00;  0.0000000E+00;  1.0000506E+03;  1.0000000E-01;  4.1875359E+01;0;  0.0000000E+00;  0.0000000E+00;  0.0000000E+00;0; -4.0773230E-05;  4.0000000E+04;  0.0000000E+00;  0.0000000E+00;  4.0000000E+04;  0.0000000E+00;  4.0000000E+04; -2.0399950E-05;  0.0000000E+00; -2.0373280E-05;  1.1552732E+02;
  2.9999999E-02;  9.9999998E-03;  4.4000000E-01;1938;  0.0000000E+00;  0.0000000E+00;  0.0000000E+00;  1.0000000E+03;  1.0000000E-01;  0.0000000E+00;0;  0.0000000E+00;  0.0000000E+00;  0.0000000E+00;0; -1.3268165E-05;  4.0000000E+04;  0.0000000E+00;  0.0000000E+00;  4.0000000E+04;  0.0000000E+00;  4.0000000E+04; -6.5341860E-06;  0.0000000E+00; -6.7339788E-06;  4.2356274E+01;
  2.9999999E-02;  9.9999998E-03;  4.4999999E-01;1939;  0.0000000E+00;  0.0000000E+00;  0.0000000E+00;  1.0000000E+03;  1.0000000E-01;  0.0000000E+00;0;  0.0000000E+00;  0.0000000E+00;  0.0000000E+00;0; -2.7411043E-06;  4.0000000E+04;  0.0000000E+00;  0.0000000E+00;  4.0000000E+04;  0.0000000E+00;  4.0000000E+04; -1.2903008E-06;  0.0000000E+00; -1.4508034E-06;  1.0969716E+01;
  3.9999999E-02;  9.9999998E-03;  4.1000000E-01;1965;  0.0000000E+00;  0.0000000E+00;  0.0000000E+00;  1.0002783E+03;  1.0000000E-01;  2.3061076E+02;0;  0.0000000E+00;  0.0000000E+00;  0.0000000E+00;0; -1.8630695E-04;  4.0000000E+04;  0.0000000E+00;  0.0000000E+00;  4.0000000E+04;  0.0000000E+00;  4.0000000E+04; -9.2960981E-05;  0.0000000E+00; -9.3345967E-05;  4.2947656E+02;
  3.9999999E-02;  9.9999998E-03;  4.1999999E-01;1966;  0.0000000E+00;  0.0000000E+00;  0.0000000E+00;  1.0001376E+03;  1.0000000E-01;  1.1407085E+02;0;  0.0000000E+00;  0.0000000E+00;  0.0000000E+00;0; -9.3181312E-05;  4.0000000E+04;  0.0000000E+00;  0.0000000E+00;  4.0000000E+04;  0.0000000E+00;  4.0000000E+04; -4.4530232E-05;  0.0000000E+00; -4.8651083E-05;  2.1792133E+02;
  3.9999999E-02;  9.9999998E-03;  4.3000001E-01;1967;  0.0000000E+00;  0.0000000E+00;  0.0000000E+00;  1.0000569E+03;  1.0000000E-01;  4.7109779E+01;0;  0.0000000E+00;  0.0000000E+00;  0.0000000E+00;0; -3.9103252E-05;  4.0000000E+04;  0.0000000E+00;  0.0000000E+00;  4.0000000E+04;  0.0000000E+00;  4.0000000E+04; -1.8303779E-05;  0.0000000E+00; -2.0799473E-05;  9.0468811E+01;
  3.9999999E-02;  9.9999998E-03;  4.4000000E-01;1968;  0.0000000E+00;  0.0000000E+00;  0.0000000E+00;  1.0000000E+03;  1.0000000E-01;  0.0000000E+00;0;  0.0000000E+00;  0.0000000E+00;  0.0000000E+00;0; -1.2466038E-05;  4.0000000E+04;  0.0000000E+00;  0.0000000E+00;  4.0000000E+04;  0.0000000E+00;  4.0000000E+04; -5.8507794E-06;  0.0000000E+00; -6.6152588E-06;  2.9683397E+01;
  3.9999999E-02;  9.9999998E-03;  4.4999999E-01;1969;  0.0000000E+00;  0.0000000E+00;  0.0000000E+00;  1.0000000E+03;  1.0000000E-01;  0.0000000E+00;0;  0.0000000E+00;  0.0000000E+00;  0.0000000E+00;0; -2.4564661E-06;  4.0000000E+04;  0.0000000E+00;  0.0000000E+00;  4.0000000E+04;  0.0000000E+00;  4.0000000E+04; -1.1572504E-06;  0.0000000E+00; -1.2992158E-06;  7.1786375E+00;
  5.0000001E-02;  9.9999998E-03;  4.1000000E-01;1995;  0.0000000E+00;  0.0000000E+00;  0.0000000E+00;  1.0002839E+03;  1.0000000E-01;  2.3525261E+02;0;  0.0000000E+00;  0.0000000E+00;  0.0000000E+00;0; -1.7581135E-04;  4.0000000E+04;  0.0000000E+00;  0.0000000E+00;  4.0000000E+04;  0.0000000E+00;  4.0000000E+04; -7.8767887E-05;  0.0000000E+00; -9.7043463E-05;  4.1316983E+02;
  5.0000001E-02;  9.9999998E-03;  4.1999999E-01;1996;  0.0000000E+00;  0.0000000E+00;  0.0000000E+00;  1.0001482E+03;  1.0000000E-01;  1.2276196E+02;0;  0.0000000E+00;  0.0000000E+00;  0.0000000E+00;0; -8.7294422E-05;  4.0000000E+04;  0.0000000E+00;  0.0000000E+00;  4.0000000E+04;  0.0000000E+00;  4.0000000E+04; -3.6701596E-05;  0.0000000E+00; -5.0592822E-05;  1.9219951E+02;
  5.0000001E-02;  9.9999998E-03;  4.3000001E-01;1997;  0.0000000E+00;  0.0000000E+00;  0.0000000E+00;  1.0000646E+03;  1.0000000E-01;  5.3529350E+01;0;  0.0000000E+00;  0.0000000E+00;  0.0000000E+00;0; -3.6317357E-05;  4.0000000E+04;  0.0000000E+00;  0.0000000E+00;  4.0000000E+04;  0.0000000E+00;  4.0000000E+04; -1.4683602E-05;  0.0000000E+00; -2.1633754E-05;  6.6644051E+01;
  5.0000001E-02;  9.9999998E-03;  4.4000000E-01;1998;  0.0000000E+00;  0.0000000E+00;  0.0000000E+00;  1.0000000E+03;  1.0000000E-01;  0.0000000E+00;0;  0.0000000E+00;  0.0000000E+00;  0.0000000E+00;0; -1.1413522E-05;  4.0000000E+04;  0.0000000E+00;  0.0000000E+00;  4.0000000E+04;  0.0000000E+00;  4.0000000E+04; -4.6000055E-06;  0.0000000E+00; -6.8135168E-06;  1.5315069E+01;
  5.0000001E-02;  9.9999998E-03;  4.4999999E-01;1999;  0.0000000E+00;  0.0000000E+00;  0.0000000E+00;  1.0000000E+03;  1.0000000E-01;  0.0000000E+00;0;  0.0000000E+00;  0.0000000E+00;  0.0000000E+00;0; -2.1686317E-06;  4.0000000E+04;  0.0000000E+00;  0.0000000E+00;  4.0000000E+04;  0.0000000E+00;  4.0000000E+04; -9.0525958E-07;  0.0000000E+00; -1.2633722E-06;  2.1623333E+00;
  5.9999999E-02;  9.9999998E-03;  4.1000000E-01;2025;  0.0000000E+00;  0.0000000E+00;  0.0000000E+00;  1.0002894E+03;  1.0000000E-01;  2.3979568E+02;0;  0.0000000E+00;  0.0000000E+00;  0.0000000E+00;0; -1.6169238E-04;  4.0000000E+04;  0.0000000E+00;  0.0000000E+00;  4.0000000E+04;  0.0000000E+00;  4.0000000E+04; -6.1236504E-05;  0.0000000E+00; -1.0045587E-04;  4.4169455E+02;
  5.9999999E-02;  9.9999998E-03;  4.1999999E-01;2026;  0.0000000E+00;  0.0000000E+00;  0.0000000E+00;  1.0001510E+03;  1.0000000E-01;  1.2513226E+02;0;  0.0000000E+00;  0.0000000E+00;  0.0000000E+00;0; -7.9615282E-05;  4.0000000E+04;  0.0000000E+00;  0.0000000E+00;  4.0000000E+04;  0.0000000E+00;  4.0000000E+04; -2.6949490E-05;  0.0000000E+00; -5.2665793E-05;  1.9364276E+02;
  5.9999999E-02;  9.9999998E-03;  4.3000001E-01;2027;  0.0000000E+00;  0.0000000E+00;  0.0000000E+00;  1.0000660E+03;  1.0000000E-01;  5.4615738E+01;0;  0.0000000E+00;  0.0000000E+00;  0.0000000E+00;0; -3.2935121E-05;  4.0000000E+04;  0.0000000E+00;  0.0000000E+00;  4.0000000E+04;  0.0000000E+00;  4.0000000E+04; -1.0093282E-05;  0.0000000E+00; -2.2841838E-05;  5.5311592E+01;
  5.9999999E-02;  9.9999998E-03;  4.4000000E-01;2028;  0.0000000E+00;  0.0000000E+00;  0.0000000E+00;  1.0000000E+03;  1.0000000E-01;  0.0000000E+00;0;  0.0000000E+00;  0.0000000E+00;  0.0000000E+00;0; -1.0361263E-05;  4.0000000E+04;  0.0000000E+00;  0.0000000E+00;  4.0000000E+04;  0.0000000E+00;  4.0000000E+04; -2.9572809E-06;  0.0000000E+00; -7.4039822E-06;  4.4217963E+00;
  5.9999999E-02;  9.9999998E-03;  4.4999999E-01;2029;  0.0000000E+00;  0.0000000E+00;  0.0000000E+00;  1.0000000E+03;  1.0000000E-01;  0.0000000E+00;0;  0.0000000E+00;  0.0000000E+00;  0.0000000E+00;0; -1.9835813E-06;  4.0000000E+04;  0.0000000E+00;  0.0000000E+00;  4.0000000E+04;  0.0000000E+00;  4.0000000E+04; -5.6259756E-07;  0.0000000E+00; -1.4209837E-06;  2.7204401E+00;
  7.0000000E-02;  9.9999998E-03;  4.1000000E-01;2055;  0.0000000E+00;  0.0000000E+00;  0.0000000E+00;  1.0002913E+03;  1.0000000E-01;  2.4137589E+02;0;  0.0000000E+00;  0.0000000E+00;  0.0000000E+00;0; -1.4661117E-04;  4.0000000E+04;  0.0000000E+00;  0.0000000E+00;  4.0000000E+04;  0.0000000E+00;  4.0000000E+04; -4.3303753E-05;  0.0000000E+00; -1.0330742E-04;  5.3484491E+02;
  7.0000000E-02;  9.9999998E-03;  4.1999999E-01;2056;  0.0000000E+00;  0.0000000E+00;  0.0000000E+00;  1.0001518E+03;  1.0000000E-01;  1.2572484E+02;0;  0.0000000E+00;  0.0000000E+00;  0.0000000E+00;0; -7.1425180E-05;  4.0000000E+04;  0.0000000E+00;  0.0000000E+00;  4.0000000E+04;  0.0000000E+00;  4.0000000E+04; -1.6823959E-05;  0.0000000E+00; -5.4601220E-05;  2.3804614E+02;
  7.0000000E-02;  9.9999998E-03;  4.3000001E-01;2057;  0.0000000E+00;  0.0000000E+00;  0.0000000E+00;  1.0000672E+03;  1.0000000E-01;  5.5702129E+01;0;  0.0000000E+00;  0.0000000E+00;  0.0000000E+00;0; -2.9453686E-05;  4.0000000E+04;  0.0000000E+00;  0.0000000E+00;  4.0000000E+04;  0.0000000E+00;  4.0000000E+04; -5.2658256E-06;  0.0000000E+00; -2.4187861E-05;  6.7493889E+01;
  7.0000000E-02;  9.9999998E-03;  4.4000000E-01;2058;  0.0000000E+00;  0.0000000E+00;  0.0000000E+00;  1.0000000E+03;  1.0000000E-01;  0.0000000E+00;0;  0.0000000E+00;  0.0000000E+00;  0.0000000E+00;0; -9.4306033E-06;  4.0000000E+04;  0.0000000E+00;  0.0000000E+00;  4.0000000E+04;  0.0000000E+00;  4.0000000E+04; -1.1915138E-06;  0.0000000E+00; -8.2390898E-06;  3.1027761E+00;
  7.0000000E-02;  9.9999998E-03;  4.4999999E-01;2059;  0.0000000E+00;  0.0000000E+00;  0.0000000E+00;  1.0000000E+03;  1.0000000E-01;  0.0000000E+00;0;  0.0000000E+00;  0.0000000E+00;  0.0000000E+00;0; -1.9306881E-06;  4.0000000E+04;  0.0000000E+00;  0.0000000E+00;  4.0000000E+04;  0.0000000E+00;  4.0000000E+04; -1.7497987E-07;  0.0000000E+00; -1.7557082E-06;  5.6169086E+00;
  7.9999998E-02;  9.9999998E-03;  4.1000000E-01;2085;  0.0000000E+00;  0.0000000E+00;  0.0000000E+00;  1.0002736E+03;  1.0000000E-01;  2.2666026E+02;0;  0.0000000E+00;  0.0000000E+00;  0.0000000E+00;0; -1.3332361E-04;  4.0000000E+04;  0.0000000E+00;  0.0000000E+00;  4.0000000E+04;  0.0000000E+00;  4.0000000E+04; -2.8188233E-05;  0.0000000E+00; -1.0513538E-04;  7.0277112E+02;
  7.9999998E-02;  9.9999998E-03;  4.1999999E-01;2086;  0.0000000E+00;  0.0000000E+00;  0.0000000E+00;  1.0001441E+03;  1.0000000E-01;  1.1940403E+02;0;  0.0000000E+00;  0.0000000E+00;  0.0000000E+00;0; -6.4008789E-05;  4.0000000E+04;  0.0000000E+00;  0.0000000E+00;  4.0000000E+04;  0.0000000E+00;  4.0000000E+04; -8.0121954E-06;  0.0000000E+00; -5.5996592E-05;  3.3481146E+02;
  7.9999998E-02;  9.9999998E-03;  4.3000001E-01;2087;  0.0000000E+00;  0.0000000E+00;  0.0000000E+00;  1.0000687E+03;  1.0000000E-01;  5.6887280E+01;0;  0.0000000E+00;  0.0000000E+00;  0.0000000E+00;0; -2.6270525E-05;  4.0000000E+04;  0.0000000E+00;  0.0000000E+00;  4.0000000E+04;  0.0000000E+00;  4.0000000E+04; -9.5323492E-07;  0.0000000E+00; -2.5317291E-05;  1.1071432E+02;
  7.9999998E-02;  9.9999998E-03;  4.4000000E-01;2088;  0.0000000E+00;  0.0000000E+00;  0.0000000E+00;  1.0000000E+03;  1.0000000E-01;  0.0000000E+00;0;  0.0000000E+00;  0.0000000E+00;  0.0000000E+00;0; -8.6309183E-06;  4.0000000E+04;  0.0000000E+00;  0.0000000E+00;  4.0000000E+04;  0.0000000E+00;  4.0000000E+04;  4.1492086E-07;  0.0000000E+00; -9.0458389E-06;  1.5057809E+01;
  7.9999998E-02;  9.9999998E-03;  4.4999999E-01;2089;  0.0000000E+00;  0.0000000E+00;  0.0000000E+00;  1.0000000E+03;  1.0000000E-01;  0.0000000E+00;0;  0.0000000E+00;  0.0000000E+00;  0.0000000E+00;0; -1.9547838E-06;  4.0000000E+04;  0.0000000E+00;  0.0000000E+00;  4.0000000E+04;  0.0000000E+00;  4.0000000E+04;  2.0142843E-07;  0.0000000E+00; -2.1562123E-06;  4.7758689E+00;
  9.0000004E-02;  9.9999998E-03;  4.1000000E-01;2115;  0.0000000E+00;  0.0000000E+00;  0.0000000E+00;  1.0002465E+03;  1.0000000E-01;  2.0414238E+02;0;  0.0000000E+00;  0.0000000E+00;  0.0000000E+00;0; -1.2421847E-04;  4.0000000E+04;  0.0000000E+00;  0.0000000E+00;  4.0000000E+04;  0.0000000E+00;  4.0000000E+04; -1.8935727E-05;  0.0000000E+00; -1.0528274E-04;  9.4251691E+02;
  9.0000004E-02;  9.9999998E-03;  4.1999999E-01;2116;  0.0000000E+00;  0.0000000E+00;  0.0000000E+00;  1.0001380E+03;  1.0000000E-01;  1.1436713E+02;0;  0.0000000E+00;  0.0000000E+00;  0.0000000E+00;0; -5.8511036E-05;  4.0000000E+04;  0.0000000E+00;  0.0000000E+00;  4.0000000E+04;  0.0000000E+00;  4.0000000E+04; -2.1454855E-06;  0.0000000E+00; -5.6365549E-05;  4.8403735E+02;
  9.0000004E-02;  9.9999998E-03;  4.3000001E-01;2117;  0.0000000E+00;  0.0000000E+00;  0.0000000E+00;  1.0000709E+03;  1.0000000E-01;  5.8763771E+01;0;  0.0000000E+00;  0.0000000E+00;  0.0000000E+00;0; -2.3688706E-05;  4.0000000E+04;  0.0000000E+00;  0.0000000E+00;  4.0000000E+04;  0.0000000E+00;  4.0000000E+04;  2.1325682E-06;  0.0000000E+00; -2.5821275E-05;  1.8676877E+02;
  9.0000004E-02;  9.9999998E-03;  4.4000000E-01;2118;  0.0000000E+00;  0.0000000E+00;  0.0000000E+00;  1.0000000E+03;  1.0000000E-01;  0.0000000E+00;0;  0.0000000E+00;  0.0000000E+00;  0.0000000E+00;0; -7.8939629E-06;  4.0000000E+04;  0.0000000E+00;  0.0000000E+00;  4.0000000E+04;  0.0000000E+00;  4.0000000E+04;  1.6298292E-06;  0.0000000E+00; -9.5237920E-06;  4.3283878E+01;
  9.0000004E-02;  9.9999998E-03;  4.4999999E-01;2119;  0.0000000E+00;  0.0000000E+00;  0.0000000E+00;  1.0000000E+03;  1.0000000E-01;  0.0000000E+00;0;  0.0000000E+00;  0.0000000E+00;  0.0000000E+00;0; -1.9457952E-06;  4.0000000E+04;  0.0000000E+00;  0.0000000E+00;  4.0000000E+04;  0.0000000E+00;  4.0000000E+04;  5.0608458E-07;  0.0000000E+00; -2.4518797E-06;  2.1193318E+00;
  1.0000000E-01;  9.9999998E-03;  4.1000000E-01;2145;  0.0000000E+00;  0.0000000E+00;  0.0000000E+00;  1.0002173E+03;  1.0000000E-01;  1.8004430E+02;0;  0.0000000E+00;  0.0000000E+00;  0.0000000E+00;0; -1.2110826E-04;  4.0000000E+04;  0.0000000E+00;  0.0000000E+00;  4.0000000E+04;  0.0000000E+00;  4.0000000E+04; -1.8127306E-05;  0.0000000E+00; -1.0298095E-04;  1.2395131E+03;
  1.0000000E-01;  9.9999998E-03;  4.1999999E-01;2146;  0.0000000E+00;  0.0000000E+00;  0.0000000E+00;  1.0001205E+03;  1.0000000E-01;  9.9849030E+01;0;  0.0000000E+00;  0.0000000E+00;  0.0000000E+00;0; -5.5839402E-05;  4.0000000E+04;  0.0000000E+00;  0.0000000E+00;  4.0000000E+04;  0.0000000E+00;  4.0000000E+04; -6.4841583E-07;  0.0000000E+00; -5.5190987E-05;  6.7709888E+02;
  1.0000000E-01;  9.9999998E-03;  4.3000001E-01;2147;  0.0000000E+00;  0.0000000E+00;  0.0000000E+00;  1.0000734E+03;  1.0000000E-01;  6.0837784E+01;0;  0.0000000E+00;  0.0000000E+00;  0.0000000E+00;0; -2.2010759E-05;  4.0000000E+04;  0.0000000E+00;  0.0000000E+00;  4.0000000E+04;  0.0000000E+00;  4.0000000E+04;  3.3390238E-06;  0.0000000E+00; -2.5349784E-05;  2.9189783E+02;
  1.0000000E-01;  9.9999998E-03;  4.4000000E-01;2148;  0.0000000E+00;  0.0000000E+00;  0.0000000E+00;  1.0000000E+03;  1.0000000E-01;  0.0000000E+00;0;  0.0000000E+00;  0.0000000E+00;  0.0000000E+00;0; -7.1897730E-06;  4.0000000E+04;  0.0000000E+00;  0.0000000E+00;  4.0000000E+04;  0.0000000E+00;  4.0000000E+04;  2.2539164E-06;  0.0000000E+00; -9.4436891E-06;  8.6752785E+01;
  1.0000000E-01;  9.9999998E-03;  4.4999999E-01;2149;  0.0000000E+00;  0.0000000E+00;  0.0000000E+00;  1.0000000E+03;  1.0000000E-01;  0.0000000E+00;0;  0.0000000E+00;  0.0000000E+00;  0.0000000E+00;0; -1.8193314E-06;  4.0000000E+04;  0.0000000E+00;  0.0000000E+00;  4.0000000E+04;  0.0000000E+00;  4.0000000E+04;  6.8539885E-07;  0.0000000E+00; -2.5047302E-06;  1.2802348E+01;
  1.1000000E-01;  9.9999998E-03;  4.1000000E-01;2175;  0.0000000E+00;  0.0000000E+00;  0.0000000E+00;  1.0002118E+03;  1.0000000E-01;  1.7550121E+02;0;  0.0000000E+00;  0.0000000E+00;  0.0000000E+00;0; -1.2524039E-04;  4.0000000E+04;  0.0000000E+00;  0.0000000E+00;  4.0000000E+04;  0.0000000E+00;  4.0000000E+04; -2.7727199E-05;  0.0000000E+00; -9.7513192E-05;  1.5776433E+03;
  1.1000000E-01;  9.9999998E-03;  4.1999999E-01;2176;  0.0000000E+00;  0.0000000E+00;  0.0000000E+00;  1.0001102E+03;  1.0000000E-01;  9.1256676E+01;0;  0.0000000E+00;  0.0000000E+00;  0.0000000E+00;0; -5.6649958E-05;  4.0000000E+04;  0.0000000E+00;  0.0000000E+00;  4.0000000E+04;  0.0000000E+00;  4.0000000E+04; -4.6574269E-06;  0.0000000E+00; -5.1992531E-05;  9.0557886E+02;
  1.1000000E-01;  9.9999998E-03;  4.3000001E-01;2177;  0.0000000E+00;  0.0000000E+00;  0.0000000E+00;  1.0000651E+03;  1.0000000E-01;  5.3924400E+01;0;  0.0000000E+00;  0.0000000E+00;  0.0000000E+00;0; -2.1549125E-05;  4.0000000E+04;  0.0000000E+00;  0.0000000E+00;  4.0000000E+04;  0.0000000E+00;  4.0000000E+04;  2.1078715E-06;  0.0000000E+00; -2.3656998E-05;  4.2243304E+02;
  1.1000000E-01;  9.9999998E-03;  4.4000000E-01;2178;  0.0000000E+00;  0.0000000E+00;  0.0000000E+00;  1.0000000E+03;  1.0000000E-01;  0.0000000E+00;0;  0.0000000E+00;  0.0000000E+00;  0.0000000E+00;0; -6.6219154E-06;  4.0000000E+04;  0.0000000E+00;  0.0000000E+00;  4.0000000E+04;  0.0000000E+00;  4.0000000E+04;  2.0743057E-06;  0.0000000E+00; -8.6962209E-06;  1.4443437E+02;
  1.1000000E-01;  9.9999998E-03;  4.4999999E-01;2179;  0.0000000E+00;  0.0000000E+00;  0.0000000E+00;  1.0000000E+03;  1.0000000E-01;  0.0000000E+00;0;  0.0000000E+00;  0.0000000E+00;  0.0000000E+00;0; -1.5650534E-06;  4.0000000E+04;  0.0000000E+00;  0.0000000E+00;  4.0000000E+04;  0.0000000E+00;  4.0000000E+04;  7.0255726E-07;  0.0000000E+00; -2.2676106E-06;  2.9256372E+01;
  1.2000000E-01;  9.9999998E-03;  4.1000000E-01;2205;  0.0000000E+00;  0.0000000E+00;  0.0000000E+00;  1.0002251E+03;  1.0000000E-01;  1.8646387E+02;0;  0.0000000E+00;  0.0000000E+00;  0.0000000E+00;0; -1.3746240E-04;  4.0000000E+04;  0.0000000E+00;  0.0000000E+00;  4.0000000E+04;  0.0000000E+00;  4.0000000E+04; -4.9028775E-05;  0.0000000E+00; -8.8433619E-05;  1.9654912E+03;
  1.2000000E-01;  9.9999998E-03;  4.1999999E-01;2206;  0.0000000E+00;  0.0000000E+00;  0.0000000E+00;  1.0001042E+03;  1.0000000E-01;  8.6318550E+01;0;  0.0000000E+00;  0.0000000E+00;  0.0000000E+00;0; -6.1447819E-05;  4.0000000E+04;  0.0000000E+00;  0.0000000E+00;  4.0000000E+04;  0.0000000E+00;  4.0000000E+04; -1.4976657E-05;  0.0000000E+00; -4.6471167E-05;  1.1857242E+03;
  1.2000000E-01;  9.9999998E-03;  4.3000001E-01;2207;  0.0000000E+00;  0.0000000E+00;  0.0000000E+00;  1.0000621E+03;  1.0000000E-01;  5.1455334E+01;0;  0.0000000E+00;  0.0000000E+00;  0.0000000E+00;0; -2.2654811E-05;  4.0000000E+04;  0.0000000E+00;  0.0000000E+00;  4.0000000E+04;  0.0000000E+00;  4.0000000E+04; -2.0099096E-06;  0.0000000E+00; -2.0644900E-05;  5.9179980E+02;
  1.2000000E-01;  9.9999998E-03;  4.4000000E-01;2208;  0.0000000E+00;  0.0000000E+00;  0.0000000E+00;  1.0000000E+03;  1.0000000E-01;  0.0000000E+00;0;  0.0000000E+00;  0.0000000E+00;  0.0000000E+00;0; -6.4111173E-06;  4.0000000E+04;  0.0000000E+00;  0.0000000E+00;  4.0000000E+04;  0.0000000E+00;  4.0000000E+04;  8.7506282E-07;  0.0000000E+00; -7.2861799E-06;  2.2330931E+02;
  1.2000000E-01;  9.9999998E-03;  4.4999999E-01;2209;  0.0000000E+00;  0.0000000E+00;  0.0000000E+00;  1.0000000E+03;  1.0000000E-01;  0.0000000E+00;0;  0.0000000E+00;  0.0000000E+00;  0.0000000E+00;0; -1.2626274E-06;  4.0000000E+04;  0.0000000E+00;  0.0000000E+00;  4.0000000E+04;  0.0000000E+00;  4.0000000E+04;  5.1063768E-07;  0.0000000E+00; -1.7732650E-06;  5.3203613E+01;
  1.3000000E-01;  9.9999998E-03;  4.1000000E-01;2235;  0.0000000E+00;  0.0000000E+00;  0.0000000E+00;  1.0002534E+03;  1.0000000E-01;  2.0987061E+02;0;  0.0000000E+00;  0.0000000E+00;  0.0000000E+00;0; -1.5830167E-04;  4.0000000E+04;  0.0000000E+00;  0.0000000E+00;  4.0000000E+04;  0.0000000E+00;  4.0000000E+04; -8.2552535E-05;  0.0000000E+00; -7.5749143E-05;  2.4875830E+03;
  1.3000000E-01;  9.9999998E-03;  4.1999999E-01;2236;  0.0000000E+00;  0.0000000E+00;  0.0000000E+00;  1.0001001E+03;  1.0000000E-01;  8.2960617E+01;0;  0.0000000E+00;  0.0000000E+00;  0.0000000E+00;0; -7.0659691E-05;  4.0000000E+04;  0.0000000E+00;  0.0000000E+00;  4.0000000E+04;  0.0000000E+00;  4.0000000E+04; -3.2013886E-05;  0.0000000E+00; -3.8645801E-05;  1.6026691E+03;
  1.3000000E-01;  9.9999998E-03;  4.3000001E-01;2237;  0.0000000E+00;  0.0000000E+00;  0.0000000E+00;  1.0000629E+03;  1.0000000E-01;  5.2146675E+01;0;  0.0000000E+00;  0.0000000E+00;  0.0000000E+00;0; -2.5678986E-05;  4.0000000E+04;  0.0000000E+00;  0.0000000E+00;  4.0000000E+04;  0.0000000E+00;  4.0000000E+04; -9.3275339E-06;  0.0000000E+00; -1.6351452E-05;  8.5932599E+02;
  1.3000000E-01;  9.9999998E-03;  4.4000000E-01;2238;  0.0000000E+00;  0.0000000E+00;  0.0000000E+00;  1.0000000E+03;  1.0000000E-01;  0.0000000E+00;0;  0.0000000E+00;  0.0000000E+00;  0.0000000E+00;0; -6.8326653E-06;  4.0000000E+04;  0.0000000E+00;  0.0000000E+00;  4.0000000E+04;  0.0000000E+00;  4.0000000E+04; -1.5097883E-06;  0.0000000E+00; -5.3228773E-06;  3.5174643E+02;
  1.3000000E-01;  9.9999998E-03;  4.4999999E-01;2239;  0.0000000E+00;  0.0000000E+00;  0.0000000E+00;  1.0000000E+03;  1.0000000E-01;  0.0000000E+00;0;  0.0000000E+00;  0.0000000E+00;  0.0000000E+00;0; -1.0720885E-06;  4.0000000E+04;  0.0000000E+00;  0.0000000E+00;  4.0000000E+04;  0.0000000E+00;  4.0000000E+04;  5.0949243E-08;  0.0000000E+00; -1.1230377E-06;  9.2488441E+01;
  1.4000000E-01;  9.9999998E-03;  4.1000000E-01;2265;  0.0000000E+00;  0.0000000E+00;  0.0000000E+00;  1.0002935E+03;  1.0000000E-01;  2.4315361E+02;0;  0.0000000E+00;  0.0000000E+00;  0.0000000E+00;0; -1.8774997E-04;  4.0000000E+04;  0.0000000E+00;  0.0000000E+00;  4.0000000E+04;  0.0000000E+00;  4.0000000E+04; -1.2774279E-04;  0.0000000E+00; -6.0007173E-05;  3.3606248E+03;
  1.4000000E-01;  9.9999998E-03;  4.1999999E-01;2266;  0.0000000E+00;  0.0000000E+00;  0.0000000E+00;  1.0001072E+03;  1.0000000E-01;  8.8886375E+01;0;  0.0000000E+00;  0.0000000E+00;  0.0000000E+00;0; -8.4485073E-05;  4.0000000E+04;  0.0000000E+00;  0.0000000E+00;  4.0000000E+04;  0.0000000E+00;  4.0000000E+04; -5.5648354E-05;  0.0000000E+00; -2.8836723E-05;  2.3446587E+03;
  1.4000000E-01;  9.9999998E-03;  4.3000001E-01;2267;  0.0000000E+00;  0.0000000E+00;  0.0000000E+00;  1.0000658E+03;  1.0000000E-01;  5.4516975E+01;0;  0.0000000E+00;  0.0000000E+00;  0.0000000E+00;0; -3.0886418E-05;  4.0000000E+04;  0.0000000E+00;  0.0000000E+00;  4.0000000E+04;  0.0000000E+00;  4.0000000E+04; -1.9889960E-05;  0.0000000E+00; -1.0996457E-05;  1.3465378E+03;
  1.4000000E-01;  9.9999998E-03;  4.4000000E-01;2268;  0.0000000E+00;  0.0000000E+00;  0.0000000E+00;  1.0000000E+03;  1.0000000E-01;  0.0000000E+00;0;  0.0000000E+00;  0.0000000E+00;  0.0000000E+00;0; -8.1176695E-06;  4.0000000E+04;  0.0000000E+00;  0.0000000E+00;  4.0000000E+04;  0.0000000E+00;  4.0000000E+04; -5.1520710E-06;  0.0000000E+00; -2.9655985E-06;  5.8581958E+02;
  1.4000000E-01;  9.9999998E-03;  4.4999999E-01;2269;  0.0000000E+00;  0.0000000E+00;  0.0000000E+00;  1.0000000E+03;  1.0000000E-01;  0.0000000E+00;0;  0.0000000E+00;  0.0000000E+00;  0.0000000E+00;0; -1.1345801E-06;  4.0000000E+04;  0.0000000E+00;  0.0000000E+00;  4.0000000E+04;  0.0000000E+00;  4.0000000E+04; -7.1583287E-07;  0.0000000E+00; -4.1874716E-07;  1.6255763E+02;
  1.5000001E-01;  9.9999998E-03;  4.1000000E-01;2295;  0.0000000E+00;  0.0000000E+00;  0.0000000E+00;  1.0003325E+03;  1.0000000E-01;  2.7544901E+02;0;  0.0000000E+00;  0.0000000E+00;  0.0000000E+00;0; -2.2458148E-04;  4.0000000E+04;  0.0000000E+00;  0.0000000E+00;  4.0000000E+04;  0.0000000E+00;  4.0000000E+04; -1.8239643E-04;  0.0000000E+00; -4.2185060E-05;  4.9098975E+03;
  1.5000001E-01;  9.9999998E-03;  4.1999999E-01;2296;  0.0000000E+00;  0.0000000E+00;  0.0000000E+00;  1.0001195E+03;  1.0000000E-01;  9.8960167E+01;0;  0.0000000E+00;  0.0000000E+00;  0.0000000E+00;0; -1.0250743E-04;  4.0000000E+04;  0.0000000E+00;  0.0000000E+00;  4.0000000E+04;  0.0000000E+00;  4.0000000E+04; -8.4850290E-05;  0.0000000E+00; -1.7657141E-05;  3.6662324E+03;
  1.5000001E-01;  9.9999998E-03;  4.3000001E-01;2297;  0.0000000E+00;  0.0000000E+00;  0.0000000E+00;  1.0000737E+03;  1.0000000E-01;  6.1035313E+01;0;  0.0000000E+00;  0.0000000E+00;  0.0000000E+00;0; -3.8224243E-05;  4.0000000E+04;  0.0000000E+00;  0.0000000E+00;  4.0000000E+04;  0.0000000E+00;  4.0000000E+04; -3.3312168E-05;  0.0000000E+00; -4.9120740E-06;  2.2131714E+03;
  1.5000001E-01;  9.9999998E-03;  4.4000000E-01;2298;  0.0000000E+00;  0.0000000E+00;  0.0000000E+00;  1.0000000E+03;  1.0000000E-01;  0.0000000E+00;0;  0.0000000E+00;  0.0000000E+00;  0.0000000E+00;0; -1.0320456E-05;  4.0000000E+04;  0.0000000E+00;  0.0000000E+00;  4.0000000E+04;  0.0000000E+00;  4.0000000E+04; -9.9593408E-06;  0.0000000E+00; -3.6111464E-07;  1.0011313E+03;
  1.5000001E-01;  9.9999998E-03;  4.4999999E-01;2299;  0.0000000E+00;  0.0000000E+00;  0.0000000E+00;  1.0000000E+03;  1.0000000E-01;  0.0000000E+00;0;  0.0000000E+00;  0.0000000E+00;  0.0000000E+00;0; -1.4994075E-06;  4.0000000E+04;  0.0000000E+00;  0.0000000E+00;  4.0000000E+04;  0.0000000E+00;  4.0000000E+04; -1.7881249E-06;  0.0000000E+00;  2.8871744E-07;  2.8603799E+02;
  1.6000000E-01;  9.9999998E-03;  4.1000000E-01;2325;  0.0000000E+00;  0.0000000E+00;  0.0000000E+00;  1.0003960E+03;  1.0000000E-01;  3.2808948E+02;0;  0.0000000E+00;  0.0000000E+00;  0.0000000E+00;0; -2.6539541E-04;  4.0000000E+04;  0.0000000E+00;  0.0000000E+00;  4.0000000E+04;  0.0000000E+00;  4.0000000E+04; -2.4179151E-04;  0.0000000E+00; -2.3603910E-05;  7.4439316E+03;
  1.6000000E-01;  9.9999998E-03;  4.1999999E-01;2326;  0.0000000E+00;  0.0000000E+00;  0.0000000E+00;  1.0001569E+03;  1.0000000E-01;  1.2997163E+02;0;  0.0000000E+00;  0.0000000E+00;  0.0000000E+00;0; -1.2311674E-04;  4.0000000E+04;  0.0000000E+00;  0.0000000E+00;  4.0000000E+04;  0.0000000E+00;  4.0000000E+04; -1.1722919E-04;  0.0000000E+00; -5.8875489E-06;  5.8131313E+03;
  1.6000000E-01;  9.9999998E-03;  4.3000001E-01;2327;  0.0000000E+00;  0.0000000E+00;  0.0000000E+00;  1.0000867E+03;  1.0000000E-01;  7.1800438E+01;0;  0.0000000E+00;  0.0000000E+00;  0.0000000E+00;0; -4.7024532E-05;  4.0000000E+04;  0.0000000E+00;  0.0000000E+00;  4.0000000E+04;  0.0000000E+00;  4.0000000E+04; -4.8574580E-05;  0.0000000E+00;  1.5500492E-06;  3.6272729E+03;
  1.6000000E-01;  9.9999998E-03;  4.4000000E-01;2328;  0.0000000E+00;  0.0000000E+00;  0.0000000E+00;  1.0000000E+03;  1.0000000E-01;  0.0000000E+00;0;  0.0000000E+00;  0.0000000E+00;  0.0000000E+00;0; -1.3196984E-05;  4.0000000E+04;  0.0000000E+00;  0.0000000E+00;  4.0000000E+04;  0.0000000E+00;  4.0000000E+04; -1.5596526E-05;  0.0000000E+00;  2.3995424E-06;  1.6857670E+03;
  1.6000000E-01;  9.9999998E-03;  4.4999999E-01;2329;  0.0000000E+00;  0.0000000E+00;  0.0000000E+00;  1.0000000E+03;  1.0000000E-01;  0.0000000E+00;0;  0.0000000E+00;  0.0000000E+00;  0.0000000E+00;0; -2.0956322E-06;  4.0000000E+04;  0.0000000E+00;  0.0000000E+00;  4.0000000E+04;  0.0000000E+00;  4.0000000E+04; -3.1029806E-06;  0.0000000E+00;  1.0073483E-06;  4.9249139E+02;
  1.7000000E-01;  9.9999998E-03;  4.1000000E-01;2355;  0.0000000E+00;  0.0000000E+00;  0.0000000E+00;  1.0004537E+03;  1.0000000E-01;  3.7589059E+02;0;  0.0000000E+00;  0.0000000E+00;  0.0000000E+00;0; -3.0408907E-04;  4.0000000E+04;  0.0000000E+00;  0.0000000E+00;  4.0000000E+04;  0.0000000E+00;  4.0000000E+04; -2.9830632E-04;  0.0000000E+00; -5.7827506E-06;  1.1141854E+04;
  1.7000000E-01;  9.9999998E-03;  4.1999999E-01;2356;  0.0000000E+00;  0.0000000E+00;  0.0000000E+00;  1.0002234E+03;  1.0000000E-01;  1.8508119E+02;0;  0.0000000E+00;  0.0000000E+00;  0.0000000E+00;0; -1.4313930E-04;  4.0000000E+04;  0.0000000E+00;  0.0000000E+00;  4.0000000E+04;  0.0000000E+00;  4.0000000E+04; -1.4877286E-04;  0.0000000E+00;  5.6335539E-06;  8.9675293E+03;
  1.7000000E-01;  9.9999998E-03;  4.3000001E-01;2357;  0.0000000E+00;  0.0000000E+00;  0.0000000E+00;  1.0000942E+03;  1.0000000E-01;  7.8022484E+01;0;  0.0000000E+00;  0.0000000E+00;  0.0000000E+00;0; -5.5797958E-05;  4.0000000E+04;  0.0000000E+00;  0.0000000E+00;  4.0000000E+04;  0.0000000E+00;  4.0000000E+04; -6.3869476E-05;  0.0000000E+00;  8.0715199E-06;  5.7432393E+03;
  1.7000000E-01;  9.9999998E-03;  4.4000000E-01;2358;  0.0000000E+00;  0.0000000E+00;  0.0000000E+00;  1.0000000E+03;  1.0000000E-01;  0.0000000E+00;0;  0.0000000E+00;  0.0000000E+00;  0.0000000E+00;0; -1.6128157E-05;  4.0000000E+04;  0.0000000E+00;  0.0000000E+00;  4.0000000E+04;  0.0000000E+00;  4.0000000E+04; -2.1420545E-05;  0.0000000E+00;  5.2923879E-06;  2.7344377E+03;
  1.7000000E-01;  9.9999998E-03;  4.4999999E-01;2359;  0.0000000E+00;  0.0000000E+00;  0.0000000E+00;  1.0000000E+03;  1.0000000E-01;  0.0000000E+00;0;  0.0000000E+00;  0.0000000E+00;  0.0000000E+00;0; -2.7138840E-06;  4.0000000E+04;  0.0000000E+00;  0.0000000E+00;  4.0000000E+04;  0.0000000E+00;  4.0000000E+04; -4.5109341E-06;  0.0000000E+00;  1.7970500E-06;  8.1761139E+02;
  1.8000001E-01;  9.9999998E-03;  4.1000000E-01;2385;  0.0000000E+00;  0.0000000E+00;  0.0000000E+00;  1.0005216E+03;  1.0000000E-01;  4.3218530E+02;0;  0.0000000E+00;  0.0000000E+00;  0.0000000E+00;0; -3.3310134E-04;  4.0000000E+04;  0.0000000E+00;  0.0000000E+00;  4.0000000E+04;  0.0000000E+00;  4.0000000E+04; -3.4270604E-04;  0.0000000E+00;  9.6047015E-06;  1.5970816E+04;
  1.8000001E-01;  9.9999998E-03;  4.1999999E-01;2386;  0.0000000E+00;  0.0000000E+00;  0.0000000E+00;  1.0002701E+03;  1.0000000E-01;  2.2379614E+02;0;  0.0000000E+00;  0.0000000E+00;  0.0000000E+00;0; -1.5835380E-04;  4.0000000E+04;  0.0000000E+00;  0.0000000E+00;  4.0000000E+04;  0.0000000E+00;  4.0000000E+04; -1.7435080E-04;  0.0000000E+00;  1.5997011E-05;  1.3175913E+04;
  1.8000001E-01;  9.9999998E-03;  4.3000001E-01;2387;  0.0000000E+00;  0.0000000E+00;  0.0000000E+00;  1.0000949E+03;  1.0000000E-01;  7.8615059E+01;0;  0.0000000E+00;  0.0000000E+00;  0.0000000E+00;0; -6.2420848E-05;  4.0000000E+04;  0.0000000E+00;  0.0000000E+00;  4.0000000E+04;  0.0000000E+00;  4.0000000E+04; -7.6750133E-05;  0.0000000E+00;  1.4329286E-05;  8.6533643E+03;
  1.8000001E-01;  9.9999998E-03;  4.4000000E-01;2388;  0.0000000E+00;  0.0000000E+00;  0.0000000E+00;  1.0000000E+03;  1.0000000E-01;  0.0000000E+00;0;  0.0000000E+00;  0.0000000E+00;  0.0000000E+00;0; -1.8178989E-05;  4.0000000E+04;  0.0000000E+00;  0.0000000E+00;  4.0000000E+04;  0.0000000E+00;  4.0000000E+04; -2.6501277E-05;  0.0000000E+00;  8.3222876E-06;  4.2261978E+03;
  1.8000001E-01;  9.9999998E-03;  4.4999999E-01;2389;  0.0000000E+00;  0.0000000E+00;  0.0000000E+00;  1.0000000E+03;  1.0000000E-01;  0.0000000E+00;0;  0.0000000E+00;  0.0000000E+00;  0.0000000E+00;0; -3.0237902E-06;  4.0000000E+04;  0.0000000E+00;  0.0000000E+00;  4.0000000E+04;  0.0000000E+00;  4.0000000E+04; -5.7701750E-06;  0.0000000E+00;  2.7463848E-06;  1.2967365E+03;
  1.9000000E-01;  9.9999998E-03;  4.1000000E-01;2415;  0.0000000E+00;  0.0000000E+00;  0.0000000E+00;  1.0005784E+03;  1.0000000E-01;  4.7919632E+02;0;  0.0000000E+00;  0.0000000E+00;  0.0000000E+00;0; -3.4713538E-04;  4.0000000E+04;  0.0000000E+00;  0.0000000E+00;  4.0000000E+04;  0.0000000E+00;  4.0000000E+04; -3.6775967E-04;  0.0000000E+00;  2.0624295E-05;  2.1644535E+04;
  1.9000000E-01;  9.9999998E-03;  4.1999999E-01;2416;  0.0000000E+00;  0.0000000E+00;  0.0000000E+00;  1.0003128E+03;  1.0000000E-01;  2.5915317E+02;0;  0.0000000E+00;  0.0000000E+00;  0.0000000E+00;0; -1.6545574E-04;  4.0000000E+04;  0.0000000E+00;  0.0000000E+00;  4.0000000E+04;  0.0000000E+00;  4.0000000E+04; -1.8951655E-04;  0.0000000E+00;  2.4060804E-05;  1.8279607E+04;
  1.9000000E-01;  9.9999998E-03;  4.3000001E-01;2417;  0.0000000E+00;  0.0000000E+00;  0.0000000E+00;  1.0001091E+03;  1.0000000E-01;  9.0367813E+01;0;  0.0000000E+00;  0.0000000E+00;  0.0000000E+00;0; -6.5015462E-05;  4.0000000E+04;  0.0000000E+00;  0.0000000E+00;  4.0000000E+04;  0.0000000E+00;  4.0000000E+04; -8.4849999E-05;  0.0000000E+00;  1.9834539E-05;  1.2323842E+04;
  1.9000000E-01;  9.9999998E-03;  4.4000000E-01;2418;  0.0000000E+00;  0.0000000E+00;  0.0000000E+00;  1.0000082E+03;  1.0000000E-01;  6.8146219E+00;0;  0.0000000E+00;  0.0000000E+00;  0.0000000E+00;0; -1.8433384E-05;  4.0000000E+04;  0.0000000E+00;  0.0000000E+00;  4.0000000E+04;  0.0000000E+00;  4.0000000E+04; -2.9842562E-05;  0.0000000E+00;  1.1409177E-05;  6.1858096E+03;
  1.9000000E-01;  9.9999998E-03;  4.4999999E-01;2419;  0.0000000E+00;  0.0000000E+00;  0.0000000E+00;  1.0000000E+03;  1.0000000E-01;  0.0000000E+00;0;  0.0000000E+00;  0.0000000E+00;  0.0000000E+00;0; -2.6751786E-06;  4.0000000E+04;  0.0000000E+00;  0.0000000E+00;  4.0000000E+04;  0.0000000E+00;  4.0000000E+04; -6.5916902E-06;  0.0000000E+00;  3.9165116E-06;  1.9502616E+03;
  2.0000000E-01;  9.9999998E-03;  4.1000000E-01;2444;  0.0000000E+00;  0.0000000E+00;  0.0000000E+00;  1.0006284E+03;  1.0000000E-01;  5.2067664E+02;0;  0.0000000E+00;  0.0000000E+00;  0.0000000E+00;0; -3.4744485E-04;  4.0000000E+04;  0.0000000E+00;  0.0000000E+00;  4.0000000E+04;  0.0000000E+00;  4.0000000E+04; -3.7233741E-04;  0.0000000E+00;  2.4892557E-05;  2.7720402E+04;
  2.0000000E-01;  9.9999998E-03;  4.1999999E-01;2445;  0.0000000E+00;  0.0000000E+00;  0.0000000E+00;  1.0003312E+03;  1.0000000E-01;  2.7436261E+02;0;  0.0000000E+00;  0.0000000E+00;  0.0000000E+00;0; -1.6471972E-04;  4.0000000E+04;  0.0000000E+00;  0.0000000E+00;  4.0000000E+04;  0.0000000E+00;  4.0000000E+04; -1.9292570E-04;  0.0000000E+00;  2.8205979E-05;  2.3954166E+04;
  2.0000000E-01;  9.9999998E-03;  4.3000001E-01;2446;  0.0000000E+00;  0.0000000E+00;  0.0000000E+00;  1.0001221E+03;  1.0000000E-01;  1.0123170E+02;0;  0.0000000E+00;  0.0000000E+00;  0.0000000E+00;0; -6.3379397E-05;  4.0000000E+04;  0.0000000E+00;  0.0000000E+00;  4.0000000E+04;  0.0000000E+00;  4.0000000E+04; -8.7057299E-05;  0.0000000E+00;  2.3677898E-05;  1.6585732E+04;
  2.0000000E-01;  9.9999998E-03;  4.4000000E-01;2447;  0.0000000E+00;  0.0000000E+00;  0.0000000E+00;  1.0000304E+03;  1.0000000E-01;  2.5184473E+01;0;  0.0000000E+00;  0.0000000E+00;  0.0000000E+00;0; -1.6628859E-05;  4.0000000E+04;  0.0000000E+00;  0.0000000E+00;  4.0000000E+04;  0.0000000E+00;  4.0000000E+04; -3.0819028E-05;  0.0000000E+00;  1.4190168E-05;  8.5608340E+03;
 -2.0000000E-01;  9.9999998E-03; -4.4000000E-01;0;  0.0000000E+00;  0.0000000E+00;  0.0000000E+00;  1.0000000E+03;  1.0000000E-01;  0.0000000E+00;0;  0.0000000E+00;  0.0000000E+00;  0.0000000E+00;0;  0.0000000E+00;  4.0000000E+04;  0.0000000E+00;  0.0000000E+00;  4.0000000E+04;  0.0000000E+00;  4.0000000E+04;  0.0000000E+00;  0.0000000E+00;  0.0000000E+00;  0.0000000E+00;
 -2.0000000E-01;  9.9999998E-03; -4.3000001E-01;1;  0.0000000E+00;  0.0000000E+00;  0.0000000E+00;  1.0000000E+03;  1.0000000E-01;  0.0000000E+00;0;  0.0000000E+00;  0.0000000E+00;  0.0000000E+00;0;  0.0000000E+00;  4.0000000E+04;  0.0000000E+00;  0.0000000E+00;  4.0000000E+04;  0.0000000E+00;  4.0000000E+04;  0.0000000E+00;  0.0000000E+00;  0.0000000E+00;  0.0000000E+00;
 -2.0000000E-01;  9.9999998E-03; -4.1999999E-01;2;  0.0000000E+00;  0.0000000E+00;  0.0000000E+00;  1.0000000E+03;  1.0000000E-01;  0.0000000E+00;0;  0.0000000E+00;  0.0000000E+00;  0.0000000E+00;0;  0.0000000E+00;  4.0000000E+04;  0.0000000E+00;  0.0000000E+00;  4.0000000E+04;  0.0000000E+00;  4.0000000E+04;  0.0000000E+00;  0.0000000E+00;  0.0000000E+00;  0.0000000E+00;
 -2.0000000E-01;  9.9999998E-03; -4.1000000E-01;3;  0.0000000E+00;  0.0000000E+00;  0.0000000E+00;  1.0000000E+03;  1.0000000E-01;  0.0000000E+00;0;  0.0000000E+00;  0.0000000E+00;  0.0000000E+00;0;  0.0000000E+00;  4.0000000E+04;  0.0000000E+00;  0.0000000E+00;  4.0000000E+04;  0.0000000E+00;  4.0000000E+04;  0.0000000E+00;  0.0000000E+00;  0.0000000E+00;  0.0000000E+00;
 -2.0000000E-01;  9.9999998E-03; -4.0000001E-01;4;  0.0000000E+00;  0.0000000E+00;  0.0000000E+00;  1.0000000E+03;  1.0000000E-01;  0.0000000E+00;0;  0.0000000E+00;  0.0000000E+00;  0.0000000E+00;0;  0.0000000E+00;  4.0000000E+04;  0.0000000E+00;  0.0000000E+00;  4.0000000E+04;  0.0000000E+00;  4.0000000E+04;  0.0000000E+00;  0.0000000E+00;  0.0000000E+00;  0.0000000E+00;
 -2.0000000E-01;  9.9999998E-03; -3.8999999E-01;5;  0.0000000E+00;  0.0000000E+00;  0.0000000E+00;  1.0000000E+03;  1.0000000E-01;  0.0000000E+00;0;  0.0000000E+00;  0.0000000E+00;  0.0000000E+00;0;  0.0000000E+00;  4.0000000E+04;  0.0000000E+00;  0.0000000E+00;  4.0000000E+04;  0.0000000E+00;  4.0000000E+04;  0.0000000E+00;  0.0000000E+00;  0.0000000E+00;  0.0000000E+00;
 -2.0000000E-01;  9.9999998E-03; -3.8000000E-01;6;  0.0000000E+00;  0.0000000E+00;  0.0000000E+00;  1.0000000E+03;  1.0000000E-01;  0.0000000E+00;0;  0.0000000E+00;  0.0000000E+00;  0.0000000E+00;0;  0.0000000E+00;  4.0000000E+04;  0.0000000E+00;  0.0000000E+00;  4.0000000E+04;  0.0000000E+00;  4.0000000E+04;  0.0000000E+00;  0.0000000E+00;  0.0000000E+00;  0.0000000E+00;
 -2.0000000E-01;  9.9999998E-03; -3.7000000E-01;7;  0.0000000E+00;  0.0000000E+00;  0.0000000E+00;  1.0000000E+03;  1.0000000E-01;  0.0000000E+00;0;  0.0000000E+00;  0.0000000E+00;  0.0000000E+00;0;  0.0000000E+00;  4.0000000E+04;  0.0000000E+00;  0.0000000E+00;  4.0000000E+04;  0.0000000E+00;  4.0000000E+04;  0.0000000E+00;  0.0000000E+00;  0.0000000E+00;  0.0000000E+00;
 -2.0000000E-01;  9.9999998E-03; -3.6000001E-01;8;  0.0000000E+00;  0.0000000E+00;  0.0000000E+00;  1.0000000E+03;  1.0000000E-01;  0.0000000E+00;0;  0.0000000E+00;  0.0000000E+00;  0.0000000E+00;0;  0.0000000E+00;  4.0000000E+04;  0.0000000E+00;  0.0000000E+00;  4.0000000E+04;  0.0000000E+00;  4.0000000E+04;  0.0000000E+00;  0.0000000E+00;  0.0000000E+00;  0.0000000E+00;
 -2.0000000E-01;  9.9999998E-03; -3.4999999E-01;9;  0.0000000E+00;  0.0000000E+00;  0.0000000E+00;  1.0000000E+03;  1.0000000E-01;  0.0000000E+00;0;  0.0000000E+00;  0.0000000E+00;  0.0000000E+00;0;  0.0000000E+00;  4.0000000E+04;  0.0000000E+00;  0.0000000E+00;  4.0000000E+04;  0.0000000E+00;  4.0000000E+04;  0.0000000E+00;  0.0000000E+00;  0.0000000E+00;  0.0000000E+00;
 -2.0000000E-01;  9.9999998E-03; -3.4000000E-01;10;  0.0000000E+00;  0.0000000E+00;  0.0000000E+00;  1.0000000E+03;  1.0000000E-01;  0.0000000E+00;0;  0.0000000E+00;  0.0000000E+00;  0.0000000E+00;0;  0.0000000E+00;  4.0000000E+04;  0.0000000E+00;  0.0000000E+00;  4.0000000E+04;  0.0000000E+00;  4.0000000E+04;  0.0000000E+00;  0.0000000E+00;  0.0000000E+00;  0.0000000E+00;
 -2.0000000E-01;  9.9999998E-03; -3.3000001E-01;11;  0.0000000E+00;  0.0000000E+00;  0.0000000E+00;  1.0000000E+03;  1.0000000E-01;  0.0000000E+00;0;  0.0000000E+00;  0.0000000E+00;  0.0000000E+00;0;  0.0000000E+00;  4.0000000E+04;  0.0000000E+00;  0.0000000E+00;  4.0000000E+04;  0.0000000E+00;  4.0000000E+04;  0.0000000E+00;  0.0000000E+00;  0.0000000E+00;  0.0000000E+00;
 -2.0000000E-01;  9.9999998E-03; -3.1999999E-01;12;  0.0000000E+00;  0.0000000E+00;  0.0000000E+00;  1.0000000E+03;  1.0000000E-01;  0.0000000E+00;0;  0.0000000E+00;  0.0000000E+00;  0.0000000E+00;0;  0.0000000E+00;  4.0000000E+04;  0.0000000E+00;  0.0000000E+00;  4.0000000E+04;  0.0000000E+00;  4.0000000E+04;  0.0000000E+00;  0.0000000E+00;  0.0000000E+00;  0.0000000E+00;
 -2.0000000E-01;  9.9999998E-03; -3.1000000E-01;13;  0.0000000E+00;  0.0000000E+00;  0.0000000E+00;  1.0000000E+03;  1.0000000E-01;  0.0000000E+00;0;  0.0000000E+00;  0.0000000E+00;  0.0000000E+00;0;  0.0000000E+00;  4.0000000E+04;  0.0000000E+00;  0.0000000E+00;  4.0000000E+04;  0.0000000E+00;  4.0000000E+04;  0.0000000E+00;  0.0000000E+00;  0.0000000E+00;  0.0000000E+00;
 -2.0000000E-01;  9.9999998E-03; -3.0000001E-01;14;  0.0000000E+00;  0.0000000E+00;  0.0000000E+00;  1.0000000E+03;  1.0000000E-01;  0.0000000E+00;0;  0.0000000E+00;  0.0000000E+00;  0.0000000E+00;0;  0.0000000E+00;  4.0000000E+04;  0.0000000E+00;  0.0000000E+00;  4.0000000E+04;  0.0000000E+00;  4.0000000E+04;  0.0000000E+00;  0.0000000E+00;  0.0000000E+00;  0.0000000E+00;
 -2.0000000E-01;  9.9999998E-03; -2.8999999E-01;15;  0.0000000E+00;  0.0000000E+00;  0.0000000E+00;  1.0000000E+03;  1.0000000E-01;  0.0000000E+00;0;  0.0000000E+00;  0.0000000E+00;  0.0000000E+00;0;  0.0000000E+00;  4.0000000E+04;  0.0000000E+00;  0.0000000E+00;  4.0000000E+04;  0.0000000E+00;  4.0000000E+04;  0.0000000E+00;  0.0000000E+00;  0.0000000E+00;  0.0000000E+00;
 -2.0000000E-01;  9.9999998E-03; -2.8000000E-01;16;  0.0000000E+00;  0.0000000E+00;  0.0000000E+00;  1.0000000E+03;  1.0000000E-01;  0.0000000E+00;0;  0.0000000E+00;  0.0000000E+00;  0.0000000E+00;0;  0.0000000E+00;  4.0000000E+04;  0.0000000E+00;  0.0000000E+00;  4.0000000E+04;  0.0000000E+00;  4.0000000E+04;  0.0000000E+00;  0.0000000E+00;  0.0000000E+00;  0.0000000E+00;
 -2.0000000E-01;  9.9999998E-03; -2.7000001E-01;17;  0.0000000E+00;  0.0000000E+00;  0.0000000E+00;  1.0000000E+03;  1.0000000E-01;  0.0000000E+00;0;  0.0000000E+00;  0.0000000E+00;  0.0000000E+00;0;  0.0000000E+00;  4.0000000E+04;  0.0000000E+00;  0.0000000E+00;  4.0000000E+04;  0.0000000E+00;  4.0000000E+04;  0.0000000E+00;  0.0000000E+00;  0.0000000E+00;  0.0000000E+00;
 -2.0000000E-01;  9.9999998E-03; -2.5999999E-01;18;  0.0000000E+00;  0.0000000E+00;  0.0000000E+00;  1.0000000E+03;  1.0000000E-01;  0.0000000E+00;0;  0.0000000E+00;  0.0000000E+00;  0.0000000E+00;0;  0.0000000E+00;  4.0000000E+04;  0.0000000E+00;  0.0000000E+00;  4.0000000E+04;  0.0000000E+00;  4.0000000E+04;  0.0000000E+00;  0.0000000E+00;  0.0000000E+00;  0.0000000E+00;
 -2.0000000E-01;  9.9999998E-03; -2.5000000E-01;19;  0.0000000E+00;  0.0000000E+00;  0.0000000E+00;  1.0000000E+03;  1.0000000E-01;  0.0000000E+00;0;  0.0000000E+00;  0.0000000E+00;  0.0000000E+00;0;  0.0000000E+00;  4.0000000E+04;  0.0000000E+00;  0.0000000E+00;  4.0000000E+04;  0.0000000E+00;  4.0000000E+04;  0.0000000E+00;  0.0000000E+00;  0.0000000E+00;  0.0000000E+00;
 -2.0000000E-01;  9.9999998E-03; -2.3999999E-01;20;  0.0000000E+00;  0.0000000E+00;  0.0000000E+00;  1.0000000E+03;  1.0000000E-01;  0.0000000E+00;0;  0.0000000E+00;  0.0000000E+00;  0.0000000E+00;0;  0.0000000E+00;  4.0000000E+04;  0.0000000E+00;  0.0000000E+00;  4.0000000E+04;  0.0000000E+00;  4.0000000E+04;  0.0000000E+00;  0.0000000E+00;  0.0000000E+00;  0.0000000E+00;
 -2.0000000E-01;  9.9999998E-03; -2.3000000E-01;21;  0.0000000E+00;  0.0000000E+00;  0.0000000E+00;  1.0000000E+03;  1.0000000E-01;  0.0000000E+00;0;  0.0000000E+00;  0.0000000E+00;  0.0000000E+00;0;  0.0000000E+00;  4.0000000E+04;  0.0000000E+00;  0.0000000E+00;  4.0000000E+04;  0.0000000E+00;  4.0000000E+04;  0.0000000E+00;  0.0000000E+00;  0.0000000E+00;  0.0000000E+00;
 -2.0000000E-01;  9.9999998E-03; -2.2000000E-01;22;  0.0000000E+00;  0.0000000E+00;  0.0000000E+00;  1.0000000E+03;  1.0000000E-01;  0.0000000E+00;0;  0.0000000E+00;  0.0000000E+00;  0.0000000E+00;0;  0.0000000E+00;  4.0000000E+04;  0.0000000E+00;  0.0000000E+00;  4.0000000E+04;  0.0000000E+00;  4.0000000E+04;  0.0000000E+00;  0.0000000E+00;  0.0000000E+00;  0.0000000E+00;
 -2.0000000E-01;  9.9999998E-03; -2.0999999E-01;23;  0.0000000E+00;  0.0000000E+00;  0.0000000E+00;  1.0000000E+03;  1.0000000E-01;  0.0000000E+00;0;  0.0000000E+00;  0.0000000E+00;  0.0000000E+00;0;  0.0000000E+00;  4.0000000E+04;  0.0000000E+00;  0.0000000E+00;  4.0000000E+04;  0.0000000E+00;  4.0000000E+04;  0.0000000E+00;  0.0000000E+00;  0.0000000E+00;  0.0000000E+00;
 -2.0000000E-01;  9.9999998E-03; -2.0000000E-01;24;  0.0000000E+00;  0.0000000E+00;  0.0000000E+00;  1.0000000E+03;  1.0000000E-01;  0.0000000E+00;0;  0.0000000E+00;  0.0000000E+00;  0.0000000E+00;0;  0.0000000E+00;  4.0000000E+04;  0.0000000E+00;  0.0000000E+00;  4.0000000E+04;  0.0000000E+00;  4.0000000E+04;  0.0000000E+00;  0.0000000E+00;  0.0000000E+00;  0.0000000E+00;
 -2.0000000E-01;  9.9999998E-03; -1.9000000E-01;25;  0.0000000E+00;  0.0000000E+00;  0.0000000E+00;  1.0000000E+03;  1.0000000E-01;  0.0000000E+00;0;  0.0000000E+00;  0.0000000E+00;  0.0000000E+00;0;  0.0000000E+00;  4.0000000E+04;  0.0000000E+00;  0.0000000E+00;  4.0000000E+04;  0.0000000E+00;  4.0000000E+04;  0.0000000E+00;  0.0000000E+00;  0.0000000E+00;  0.0000000E+00;
 -2.0000000E-01;  9.9999998E-03; -1.8000001E-01;26;  0.0000000E+00;  0.0000000E+00;  0.0000000E+00;  1.0000000E+03;  1.0000000E-01;  0.0000000E+00;0;  0.0000000E+00;  0.0000000E+00;  0.0000000E+00;0;  0.0000000E+00;  4.0000000E+04;  0.0000000E+00;  0.0000000E+00;  4.0000000E+04;  0.0000000E+00;  4.0000000E+04;  0.0000000E+00;  0.0000000E+00;  0.0000000E+00;  0.0000000E+00;
 -2.0000000E-01;  9.9999998E-03; -1.7000000E-01;27;  0.0000000E+00;  0.0000000E+00;  0.0000000E+00;  1.0000000E+03;  1.0000000E-01;  0.0000000E+00;0;  0.0000000E+00;  0.0000000E+00;  0.0000000E+00;0;  0.0000000E+00;  4.0000000E+04;  0.0000000E+00;  0.0000000E+00;  4.0000000E+04;  0.0000000E+00;  4.0000000E+04;  0.0000000E+00;  0.0000000E+00;  0.0000000E+00;  0.0000000E+00;
 -2.0000000E-01;  9.9999998E-03; -1.6000000E-01;28;  0.0000000E+00;  0.0000000E+00;  0.0000000E+00;  1.0000000E+03;  1.0000000E-01;  0.0000000E+00;0;  0.0000000E+00;  0.0000000E+00;  0.0000000E+00;0;  0.0000000E+00;  4.0000000E+04;  0.0000000E+00;  0.0000000E+00;  4.0000000E+04;  0.0000000E+00;  4.0000000E+04;  0.0000000E+00;  0.0000000E+00;  0.0000000E+00;  0.0000000E+00;
 -2.0000000E-01;  9.9999998E-03; -1.5000001E-01;29;  0.0000000E+00;  0.0000000E+00;  0.0000000E+00;  1.0000000E+03;  1.0000000E-01;  0.0000000E+00;0;  0.0000000E+00;  0.0000000E+00;  0.0000000E+00;0;  0.0000000E+00;  4.0000000E+04;  0.0000000E+00;  0.0000000E+00;  4.0000000E+04;  0.0000000E+00;  4.0000000E+04;  0.0000000E+00;  0.0000000E+00;  0.0000000E+00;  0.0000000E+00;
 -2.0000000E-01;  9.9999998E-03; -1.4000000E-01;30;  0.0000000E+00;  0.0000000E+00;  0.0000000E+00;  1.0000000E+03;  1.0000000E-01;  0.0000000E+00;0;  0.0000000E+00;  0.0000000E+00;  0.0000000E+00;0;  0.0000000E+00;  4.0000000E+04;  0.0000000E+00;  0.0000000E+00;  4.0000000E+04;  0.0000000E+00;  4.0000000E+04;  0.0000000E+00;  0.0000000E+00;  0.0000000E+00;  0.0000000E+00;
 -2.0000000E-01;  9.9999998E-03; -1.3000000E-01;31;  0.0000000E+00;  0.0000000E+00;  0.0000000E+00;  1.0000000E+03;  1.0000000E-01;  0.0000000E+00;0;  0.0000000E+00;  0.0000000E+00;  0.0000000E+00;0;  0.0000000E+00;  4.0000000E+04;  0.0000000E+00;  0.0000000E+00;  4.0000000E+04;  0.0000000E+00;  4.0000000E+04;  0.0000000E+00;  0.0000000E+00;  0.0000000E+00;  0.0000000E+00;
 -2.0000000E-01;  9.9999998E-03; -1.2000000E-01;32;  0.0000000E+00;  0.0000000E+00;  0.0000000E+00;  1.0000000E+03;  1.0000000E-01;  0.0000000E+00;0;  0.0000000E+00;  0.0000000E+00;  0.0000000E+00;0;  0.0000000E+00;  4.0000000E+04;  0.0000000E+00;  0.0000000E+00;  4.0000000E+04;  0.0000000E+00;  4.0000000E+04;  0.0000000E+00;  0.0000000E+00;  0.0000000E+00;  0.0000000E+00;
 -2.0000000E-01;  9.9999998E-03; -1.1000000E-01;33;  0.0000000E+00;  0.0000000E+00;  0.0000000E+00;  1.0000000E+03;  1.0000000E-01;  0.0000000E+00;0;  0.0000000E+00;  0.0000000E+00;  0.0000000E+00;0;  0.0000000E+00;  4.0000000E+04;  0.0000000E+00;  0.0000000E+00;  4.0000000E+04;  0.0000000E+00;  4.0000000E+04;  0.0000000E+00;  0.0000000E+00;  0.0000000E+00;  0.0000000E+00;
 -2.0000000E-01;  9.9999998E-03; -1.0000000E-01;34;  0.0000000E+00;  0.0000000E+00;  0.0000000E+00;  1.0000000E+03;  1.0000000E-01;  0.0000000E+00;0;  0.0000000E+00;  0.0000000E+00;  0.0000000E+00;0;  0.0000000E+00;  4.0000000E+04;  0.0000000E+00;  0.0000000E+00;  4.0000000E+04;  0.0000000E+00;  4.0000000E+04;  0.0000000E+00;  0.0000000E+00;  0.0000000E+00;  0.0000000E+00;
 -2.0000000E-01;  9.9999998E-03; -9.0000004E-02;35;  0.0000000E+00;  0.0000000E+00;  0.0000000E+00;  1.0000000E+03;  1.0000000E-01;  0.0000000E+00;0;  0.0000000E+00;  0.0000000E+00;  0.0000000E+00;0;  0.0000000E+00;  4.0000000E+04;  0.0000000E+00;  0.0000000E+00;  4.0000000E+04;  0.0000000E+00;  4.0000000E+04;  0.0000000E+00;  0.0000000E+00;  0.0000000E+00;  0.0000000E+00;
 -2.0000000E-01;  9.9999998E-03; -7.9999998E-02;36;  0.0000000E+00;  0.0000000E+00;  0.0000000E+00;  1.0000000E+03;  1.0000000E-01;  0.0000000E+00;0;  0.0000000E+00;  0.0000000E+00;  0.0000000E+00;0;  0.0000000E+00;  4.0000000E+04;  0.0000000E+00;  0.0000000E+00;  4.0000000E+04;  0.0000000E+00;  4.0000000E+04;  0.0000000E+00;  0.0000000E+00;  0.0000000E+00;  0.0000000E+00;
 -2.0000000E-01;  9.9999998E-03; -7.0000000E-02;37;  0.0000000E+00;  0.0000000E+00;  0.0000000E+00;  1.0000000E+03;  1.0000000E-01;  0.0000000E+00;0;  0.0000000E+00;  0.0000000E+00;  0.0000000E+00;0;  0.0000000E+00;  4.0000000E+04;  0.0000000E+00;  0.0000000E+00;  4.0000000E+04;  0.0000000E+00;  4.0000000E+04;  0.0000000E+00;  0.0000000E+00;  0.0000000E+00;  0.0000000E+00;
 -2.0000000E-01;  9.9999998E-03; -5.9999999E-02;38;  0.0000000E+00;  0.0000000E+00;  0.0000000E+00;  1.0000000E+03;  1.0000000E-01;  0.0000000E+00;0;  0.0000000E+00;  0.0000000E+00;  0.0000000E+00;0;  0.0000000E+00;  4.0000000E+04;  0.0000000E+00;  0.0000000E+00;  4.0000000E+04;  0.0000000E+00;  4.0000000E+04;  0.0000000E+00;  0.0000000E+00;  0.0000000E+00;  0.0000000E+00;
 -2.0000000E-01;  9.9999998E-03; -5.0000001E-02;39;  0.0000000E+00;  0.0000000E+00;  0.0000000E+00;  1.0000000E+03;  1.0000000E-01;  0.0000000E+00;0;  0.0000000E+00;  0.0000000E+00;  0.0000000E+00;0;  0.0000000E+00;  4.0000000E+04;  0.0000000E+00;  0.0000000E+00;  4.0000000E+04;  0.0000000E+00;  4.0000000E+04;  0.0000000E+00;  0.0000000E+00;  0.0000000E+00;  0.0000000E+00;
 -2.0000000E-01;  9.9999998E-03; -3.9999999E-02;40;  0.0000000E+00;  0.0000000E+00;  0.0000000E+00;  1.0000000E+03;  1.0000000E-01;  0.0000000E+00;0;  0.0000000E+00;  0.0000000E+00;  0.0000000E+00;0;  0.0000000E+00;  4.0000000E+04;  0.0000000E+00;  0.0000000E+00;  4.0000000E+04;  0.0000000E+00;  4.0000000E+04;  0.0000000E+00;  0.0000000E+00;  0.0000000E+00;  0.0000000E+00;
 -2.0000000E-01;  9.9999998E-03; -2.9999999E-02;41;  0.0000000E+00;  0.0000000E+00;  0.0000000E+00;  1.0000000E+03;  1.0000000E-01;  0.0000000E+00;0;  0.0000000E+00;  0.0000000E+00;  0.0000000E+00;0;  0.0000000E+00;  4.0000000E+04;  0.0000000E+00;  0.0000000E+00;  4.0000000E+04;  0.0000000E+00;  4.0000000E+04;  0.0000000E+00;  0.0000000E+00;  0.0000000E+00;  0.0000000E+00;
 -2.0000000E-01;  9.9999998E-03; -2.0000000E-02;42;  0.0000000E+00;  0.0000000E+00;  0.0000000E+00;  1.0000000E+03;  1.0000000E-01;  0.0000000E+00;0;  0.0000000E+00;  0.0000000E+00;  0.0000000E+00;0;  0.0000000E+00;  4.0000000E+04;  0.0000000E+00;  0.0000000E+00;  4.0000000E+04;  0.0000000E+00;  4.0000000E+04;  0.0000000E+00;  0.0000000E+00;  0.0000000E+00;  0.0000000E+00;
 -2.0000000E-01;  9.9999998E-03; -9.9999998E-03;43;  0.0000000E+00;  0.0000000E+00;  0.0000000E+00;  1.0000000E+03;  1.0000000E-01;  0.0000000E+00;0;  0.0000000E+00;  0.0000000E+00;  0.0000000E+00;0;  0.0000000E+00;  4.0000000E+04;  0.0000000E+00;  0.0000000E+00;  4.0000000E+04;  0.0000000E+00;  4.0000000E+04;  0.0000000E+00;  0.0000000E+00;  0.0000000E+00;  0.0000000E+00;
 -2.0000000E-01;  9.9999998E-03;  0.0000000E+00;44;  0.0000000E+00;  0.0000000E+00;  0.0000000E+00;  1.0000000E+03;  1.0000000E-01;  0.0000000E+00;0;  0.0000000E+00;  0.0000000E+00;  0.0000000E+00;0;  0.0000000E+00;  4.0000000E+04;  0.0000000E+00;  0.0000000E+00;  4.0000000E+04;  0.0000000E+00;  4.0000000E+04;  0.0000000E+00;  0.0000000E+00;  0.0000000E+00;  0.0000000E+00;
 -2.0000000E-01;  9.9999998E-03;  9.9999998E-03;45;  0.0000000E+00;  0.0000000E+00;  0.0000000E+00;  1.0000000E+03;  1.0000000E-01;  0.0000000E+00;0;  0.0000000E+00;  0.0000000E+00;  0.0000000E+00;0;  0.0000000E+00;  4.0000000E+04;  0.0000000E+00;  0.0000000E+00;  4.0000000E+04;  0.0000000E+00;  4.0000000E+04;  0.0000000E+00;  0.0000000E+00;  0.0000000E+00;  0.0000000E+00;
 -2.0000000E-01;  9.9999998E-03;  2.0000000E-02;46;  0.0000000E+00;  0.0000000E+00;  0.0000000E+00;  1.0000000E+03;  1.0000000E-01;  0.0000000E+00;0;  0.0000000E+00;  0.0000000E+00;  0.0000000E+00;0;  0.0000000E+00;  4.0000000E+04;  0.0000000E+00;  0.0000000E+00;  4.0000000E+04;  0.0000000E+00;  4.0000000E+04;  0.0000000E+00;  0.0000000E+00;  0.0000000E+00;  0.0000000E+00;
 -2.0000000E-01;  9.9999998E-03;  2.9999999E-02;47;  0.0000000E+00;  0.0000000E+00;  0.0000000E+00;  1.0000000E+03;  1.0000000E-01;  0.0000000E+00;0;  0.0000000E+00;  0.0000000E+00;  0.0000000E+00;0;  0.0000000E+00;  4.0000000E+04;  0.0000000E+00;  0.0000000E+00;  4.0000000E+04;  0.0000000E+00;  4.0000000E+04;  0.0000000E+00;  0.0000000E+00;  0.0000000E+00;  0.0000000E+00;
 -2.0000000E-01;  9.9999998E-03;  3.9999999E-02;48;  0.0000000E+00;  0.0000000E+00;  0.0000000E+00;  1.0000000E+03;  1.0000000E-01;  0.0000000E+00;0;  0.0000000E+00;  0.0000000E+00;  0.0000000E+00;0;  0.0000000E+00;  4.0000000E+04;  0.0000000E+00;  0.0000000E+00;  4.0000000E+04;  0.0000000E+00;  4.0000000E+04;  0.0000000E+00;  0.0000000E+00;  0.0000000E+00;  0.0000000E+00;
 -2.0000000E-01;  9.9999998E-03;  5.0000001E-02;49;  0.0000000E+00;  0.0000000E+00;  0.0000000E+00;  1.0000000E+03;  1.0000000E-01;  0.0000000E+00;0;  0.0000000E+00;  0.0000000E+00;  0.0000000E+00;0;  0.0000000E+00;  4.0000000E+04;  0.0000000E+00;  0.0000000E+00;  4.0000000E+04;  0.0000000E+00;  4.0000000E+04;  0.0000000E+00;  0.0000000E+00;  0.0000000E+00;  0.0000000E+00;
 -2.0000000E-01;  9.9999998E-03;  5.9999999E-02;50;  0.0000000E+00;  0.0000000E+00;  0.0000000E+00;  1.0000000E+03;  1.0000000E-01;  0.0000000E+00;0;  0.0000000E+00;  0.0000000E+00;  0.0000000E+00;0;  0.0000000E+00;  4.0000000E+04;  0.0000000E+00;  0.0000000E+00;  4.0000000E+04;  0.0000000E+00;  4.0000000E+04;  0.0000000E+00;  0.0000000E+00;  0.0000000E+00;  0.0000000E+00;
 -2.0000000E-01;  9.9999998E-03;  7.0000000E-02;51;  0.0000000E+00;  0.0000000E+00;  0.0000000E+00;  1.0000000E+03;  1.0000000E-01;  0.0000000E+00;0;  0.0000000E+00;  0.0000000E+00;  0.0000000E+00;0;  0.0000000E+00;  4.0000000E+04;  0.0000000E+00;  0.0000000E+00;  4.0000000E+04;  0.0000000E+00;  4.0000000E+04;  0.0000000E+00;  0.0000000E+00;  0.0000000E+00;  0.0000000E+00;
 -2.0000000E-01;  9.9999998E-03;  7.9999998E-02;52;  0.0000000E+00;  0.0000000E+00;  0.0000000E+00;  1.0000000E+03;  1.0000000E-01;  0.0000000E+00;0;  0.0000000E+00;  0.0000000E+00;  0.0000000E+00;0;  0.0000000E+00;  4.0000000E+04;  0.0000000E+00;  0.0000000E+00;  4.0000000E+04;  0.0000000E+00;  4.0000000E+04;  0.0000000E+00;  0.0000000E+00;  0.0000000E+00;  0.0000000E+00;
 -2.0000000E-01;  9.9999998E-03;  9.0000004E-02;53;  0.0000000E+00;  0.0000000E+00;  0.0000000E+00;  1.0000000E+03;  1.0000000E-01;  0.0000000E+00;0;  0.0000000E+00;  0.0000000E+00;  0.0000000E+00;0;  0.0000000E+00;  4.0000000E+04;  0.0000000E+00;  0.0000000E+00;  4.0000000E+04;  0.0000000E+00;  4.0000000E+04;  0.0000000E+00;  0.0000000E+00;  0.0000000E+00;  0.0000000E+00;
 -2.0000000E-01;  9.9999998E-03;  1.0000000E-01;54;  0.0000000E+00;  0.0000000E+00;  0.0000000E+00;  1.0000000E+03;  1.0000000E-01;  0.0000000E+00;0;  0.0000000E+00;  0.0000000E+00;  0.0000000E+00;0;  0.0000000E+00;  4.0000000E+04;  0.0000000E+00;  0.0000000E+00;  4.0000000E+04;  0.0000000E+00;  4.0000000E+04;  0.0000000E+00;  0.0000000E+00;  0.0000000E+00;  0.0000000E+00;
 -2.0000000E-01;  9.9999998E-03;  1.1000000E-01;55;  0.0000000E+00;  0.0000000E+00;  0.0000000E+00;  1.0000000E+03;  1.0000000E-01;  0.0000000E+00;0;  0.0000000E+00;  0.0000000E+00;  0.0000000E+00;0;  0.0000000E+00;  4.0000000E+04;  0.0000000E+00;  0.0000000E+00;  4.0000000E+04;  0.0000000E+00;  4.0000000E+04;  0.0000000E+00;  0.0000000E+00;  0.0000000E+00;  0.0000000E+00;
 -2.0000000E-01;  9.9999998E-03;  1.2000000E-01;56;  0.0000000E+00;  0.0000000E+00;  0.0000000E+00;  1.0000000E+03;  1.0000000E-01;  0.0000000E+00;0;  0.0000000E+00;  0.0000000E+00;  0.0000000E+00;0;  0.0000000E+00;  4.0000000E+04;  0.0000000E+00;  0.0000000E+00;  4.0000000E+04;  0.0000000E+00;  4.0000000E+04;  0.0000000E+00;  0.0000000E+00;  0.0000000E+00;  0.0000000E+00;
 -2.0000000E-01;  9.9999998E-03;  1.3000000E-01;57;  0.0000000E+00;  0.0000000E+00;  0.0000000E+00;  1.0000000E+03;  1.0000000E-01;  0.0000000E+00;0;  0.0000000E+00;  0.0000000E+00;  0.0000000E+00;0;  0.0000000E+00;  4.0000000E+04;  0.0000000E+00;  0.0000000E+00;  4.0000000E+04;  0.0000000E+00;  4.0000000E+04;  0.0000000E+00;  0.0000000E+00;  0.0000000E+00;  0.0000000E+00;
 -2.0000000E-01;  9.9999998E-03;  1.4000000E-01;58;  0.0000000E+00;  0.0000000E+00;  0.0000000E+00;  1.0000000E+03;  1.0000000E-01;  0.0000000E+00;0;  0.0000000E+00;  0.0000000E+00;  0.0000000E+00;0;  0.0000000E+00;  4.0000000E+04;  0.0000000E+00;  0.0000000E+00;  4.0000000E+04;  0.0000000E+00;  4.0000000E+04;  0.0000000E+00;  0.0000000E+00;  0.0000000E+00;  0.0000000E+00;
 -2.0000000E-01;  9.9999998E-03;  1.5000001E-01;59;  0.0000000E+00;  0.0000000E+00;  0.0000000E+00;  1.0000000E+03;  1.0000000E-01;  0.0000000E+00;0;  0.0000000E+00;  0.0000000E+00;  0.0000000E+00;0;  0.0000000E+00;  4.0000000E+04;  0.0000000E+00;  0.0000000E+00;  4.0000000E+04;  0.0000000E+00;  4.0000000E+04;  0.0000000E+00;  0.0000000E+00;  0.0000000E+00;  0.0000000E+00;
 -2.0000000E-01;  9.9999998E-03;  1.6000000E-01;60;  0.0000000E+00;  0.0000000E+00;  0.0000000E+00;  1.0000000E+03;  1.0000000E-01;  0.0000000E+00;0;  0.0000000E+00;  0.0000000E+00;  0.0000000E+00;0;  0.0000000E+00;  4.0000000E+04;  0.0000000E+00;  0.0000000E+00;  4.0000000E+04;  0.0000000E+00;  4.0000000E+04;  0.0000000E+00;  0.0000000E+00;  0.0000000E+00;  0.0000000E+00;
 -2.0000000E-01;  9.9999998E-03;  1.7000000E-01;61;  0.0000000E+00;  0.0000000E+00;  0.0000000E+00;  1.0000000E+03;  1.0000000E-01;  0.0000000E+00;0;  0.0000000E+00;  0.0000000E+00;  0.0000000E+00;0;  0.0000000E+00;  4.0000000E+04;  0.0000000E+00;  0.0000000E+00;  4.0000000E+04;  0.0000000E+00;  4.0000000E+04;  0.0000000E+00;  0.0000000E+00;  0.0000000E+00;  0.0000000E+00;
 -2.0000000E-01;  9.9999998E-03;  1.8000001E-01;62;  0.0000000E+00;  0.0000000E+00;  0.0000000E+00;  1.0000000E+03;  1.0000000E-01;  0.0000000E+00;0;  0.0000000E+00;  0.0000000E+00;  0.0000000E+00;0;  0.0000000E+00;  4.0000000E+04;  0.0000000E+00;  0.0000000E+00;  4.0000000E+04;  0.0000000E+00;  4.0000000E+04;  0.0000000E+00;  0.0000000E+00;  0.0000000E+00;  0.0000000E+00;
 -2.0000000E-01;  9.9999998E-03;  1.9000000E-01;63;  0.0000000E+00;  0.0000000E+00;  0.0000000E+00;  1.0000000E+03;  1.0000000E-01;  0.0000000E+00;0;  0.0000000E+00;  0.0000000E+00;  0.0000000E+00;0;  0.0000000E+00;  4.0000000E+04;  0.0000000E+00;  0.0000000E+00;  4.0000000E+04;  0.0000000E+00;  4.0000000E+04;  0.0000000E+00;  0.0000000E+00;  0.0000000E+00;  0.0000000E+00;
 -2.0000000E-01;  9.9999998E-03;  2.0000000E-01;64;  0.0000000E+00;  0.0000000E+00;  0.0000000E+00;  1.0000000E+03;  1.0000000E-01;  0.0000000E+00;0;  0.0000000E+00;  0.0000000E+00;  0.0000000E+00;0;  0.0000000E+00;  4.0000000E+04;  0.0000000E+00;  0.0000000E+00;  4.0000000E+04;  0.0000000E+00;  4.0000000E+04;  0.0000000E+00;  0.0000000E+00;  0.0000000E+00;  0.0000000E+00;
 -2.0000000E-01;  9.9999998E-03;  2.0999999E-01;65;  0.0000000E+00;  0.0000000E+00;  0.0000000E+00;  1.0000000E+03;  1.0000000E-01;  0.0000000E+00;0;  0.0000000E+00;  0.0000000E+00;  0.0000000E+00;0;  0.0000000E+00;  4.0000000E+04;  0.0000000E+00;  0.0000000E+00;  4.0000000E+04;  0.0000000E+00;  4.0000000E+04;  0.0000000E+00;  0.0000000E+00;  0.0000000E+00;  0.0000000E+00;
 -2.0000000E-01;  9.9999998E-03;  2.2000000E-01;66;  0.0000000E+00;  0.0000000E+00;  0.0000000E+00;  1.0000000E+03;  1.0000000E-01;  0.0000000E+00;0;  0.0000000E+00;  0.0000000E+00;  0.0000000E+00;0;  0.0000000E+00;  4.0000000E+04;  0.0000000E+00;  0.0000000E+00;  4.0000000E+04;  0.0000000E+00;  4.0000000E+04;  0.0000000E+00;  0.0000000E+00;  0.0000000E+00;  0.0000000E+00;
 -2.0000000E-01;  9.9999998E-03;  2.3000000E-01;67;  0.0000000E+00;  0.0000000E+00;  0.0000000E+00;  1.0000000E+03;  1.0000000E-01;  0.0000000E+00;0;  0.0000000E+00;  0.0000000E+00;  0.0000000E+00;0;  0.0000000E+00;  4.0000000E+04;  0.0000000E+00;  0.0000000E+00;  4.0000000E+04;  0.0000000E+00;  4.0000000E+04;  0.0000000E+00;  0.0000000E+00;  0.0000000E+00;  0.0000000E+00;
 -2.0000000E-01;  9.9999998E-03;  2.3999999E-01;68;  0.0000000E+00;  0.0000000E+00;  0.0000000E+00;  1.0000000E+03;  1.0000000E-01;  0.0000000E+00;0;  0.0000000E+00;  0.0000000E+00;  0.0000000E+00;0;  0.0000000E+00;  4.0000000E+04;  0.0000000E+00;  0.0000000E+00;  4.0000000E+04;  0.0000000E+00;  4.0000000E+04;  0.0000000E+00;  0.0000000E+00;  0.0000000E+00;  0.0000000E+00;
 -2.0000000E-01;  9.9999998E-03;  2.5000000E-01;69;  0.0000000E+00;  0.0000000E+00;  0.0000000E+00;  1.0000000E+03;  1.0000000E-01;  0.0000000E+00;0;  0.0000000E+00;  0.0000000E+00;  0.0000000E+00;0;  0.0000000E+00;  4.0000000E+04;  0.0000000E+00;  0.0000000E+00;  4.0000000E+04;  0.0000000E+00;  4.0000000E+04;  0.0000000E+00;  0.0000000E+00;  0.0000000E+00;  0.0000000E+00;
 -2.0000000E-01;  9.9999998E-03;  2.5999999E-01;70;  0.0000000E+00;  0.0000000E+00;  0.0000000E+00;  1.0000000E+03;  1.0000000E-01;  0.0000000E+00;0;  0.0000000E+00;  0.0000000E+00;  0.0000000E+00;0;  0.0000000E+00;  4.0000000E+04;  0.0000000E+00;  0.0000000E+00;  4.0000000E+04;  0.0000000E+00;  4.0000000E+04;  0.0000000E+00;  0.0000000E+00;  0.0000000E+00;  0.0000000E+00;
 -2.0000000E-01;  9.9999998E-03;  2.7000001E-01;71;  0.0000000E+00;  0.0000000E+00;  0.0000000E+00;  1.0000000E+03;  1.0000000E-01;  0.0000000E+00;0;  0.0000000E+00;  0.0000000E+00;  0.0000000E+00;0;  0.0000000E+00;  4.0000000E+04;  0.0000000E+00;  0.0000000E+00;  4.0000000E+04;  0.0000000E+00;  4.0000000E+04;  0.0000000E+00;  0.0000000E+00;  0.0000000E+00;  0.0000000E+00;
 -2.0000000E-01;  9.9999998E-03;  2.8000000E-01;72;  0.0000000E+00;  0.0000000E+00;  0.0000000E+00;  1.0000000E+03;  1.0000000E-01;  0.0000000E+00;0;  0.0000000E+00;  0.0000000E+00;  0.0000000E+00;0;  0.0000000E+00;  4.0000000E+04;  0.0000000E+00;  0.0000000E+00;  4.0000000E+04;  0.0000000E+00;  4.0000000E+04;  0.0000000E+00;  0.0000000E+00;  0.0000000E+00;  0.0000000E+00;
 -2.0000000E-01;  9.9999998E-03;  2.8999999E-01;73;  0.0000000E+00;  0.0000000E+00;  0.0000000E+00;  1.0000000E+03;  1.0000000E-01;  0.0000000E+00;0;  0.0000000E+00;  0.0000000E+00;  0.0000000E+00;0;  0.0000000E+00;  4.0000000E+04;  0.0000000E+00;  0.0000000E+00;  4.0000000E+04;  0.0000000E+00;  4.0000000E+04;  0.0000000E+00;  0.0000000E+00;  0.0000000E+00;  0.0000000E+00;
 -2.0000000E-01;  9.9999998E-03;  3.0000001E-01;74;  0.0000000E+00;  0.0000000E+00;  0.0000000E+00;  1.0000000E+03;  1.0000000E-01;  0.0000000E+00;0;  0.0000000E+00;  0.0000000E+00;  0.0000000E+00;0;  0.0000000E+00;  4.0000000E+04;  0.0000000E+00;  0.0000000E+00;  4.0000000E+04;  0.0000000E+00;  4.0000000E+04;  0.0000000E+00;  0.0000000E+00;  0.0000000E+00;  0.0000000E+00;
 -2.0000000E-01;  9.9999998E-03;  3.1000000E-01;75;  0.0000000E+00;  0.0000000E+00;  0.0000000E+00;  1.0000000E+03;  1.0000000E-01;  0.0000000E+00;0;  0.0000000E+00;  0.0000000E+00;  0.0000000E+00;0;  0.0000000E+00;  4.0000000E+04;  0.0000000E+00;  0.0000000E+00;  4.0000000E+04;  0.0000000E+00;  4.0000000E+04;  0.0000000E+00;  0.0000000E+00;  0.0000000E+00;  0.0000000E+00;
 -2.0000000E-01;  9.9999998E-03;  3.1999999E-01;76;  0.0000000E+00;  0.0000000E+00;  0.0000000E+00;  1.0000000E+03;  1.0000000E-01;  0.0000000E+00;0;  0.0000000E+00;  0.0000000E+00;  0.0000000E+00;0;  0.0000000E+00;  4.0000000E+04;  0.0000000E+00;  0.0000000E+00;  4.0000000E+04;  0.0000000E+00;  4.0000000E+04;  0.0000000E+00;  0.0000000E+00;  0.0000000E+00;  0.0000000E+00;
 -2.0000000E-01;  9.9999998E-03;  3.3000001E-01;77;  0.0000000E+00;  0.0000000E+00;  0.0000000E+00;  1.0000000E+03;  1.0000000E-01;  0.0000000E+00;0;  0.0000000E+00;  0.0000000E+00;  0.0000000E+00;0;  0.0000000E+00;  4.0000000E+04;  0.0000000E+00;  0.0000000E+00;  4.0000000E+04;  0.0000000E+00;  4.0000000E+04;  0.0000000E+00;  0.0000000E+00;  0.0000000E+00;  0.0000000E+00;
 -2.0000000E-01;  9.9999998E-03;  3.4000000E-01;78;  0.0000000E+00;  0.0000000E+00;  0.0000000E+00;  1.0000000E+03;  1.0000000E-01;  0.0000000E+00;0;  0.0000000E+00;  0.0000000E+00;  0.0000000E+00;0;  0.0000000E+00;  4.0000000E+04;  0.0000000E+00;  0.0000000E+00;  4.0000000E+04;  0.0000000E+00;  4.0000000E+04;  0.0000000E+00;  0.0000000E+00;  0.0000000E+00;  0.0000000E+00;
 -2.0000000E-01;  9.9999998E-03;  3.4999999E-01;79;  0.0000000E+00;  0.0000000E+00;  0.0000000E+00;  1.0000000E+03;  1.0000000E-01;  0.0000000E+00;0;  0.0000000E+00;  0.0000000E+00;  0.0000000E+00;0;  0.0000000E+00;  4.0000000E+04;  0.0000000E+00;  0.0000000E+00;  4.0000000E+04;  0.0000000E+00;  4.0000000E+04;  0.0000000E+00;  0.0000000E+00;  0.0000000E+00;  0.0000000E+00;
 -2.0000000E-01;  9.9999998E-03;  3.6000001E-01;80;  0.0000000E+00;  0.0000000E+00;  0.0000000E+00;  1.0000000E+03;  1.0000000E-01;  0.0000000E+00;0;  0.0000000E+00;  0.0000000E+00;  0.0000000E+00;0;  0.0000000E+00;  4.0000000E+04;  0.0000000E+00;  0.0000000E+00;  4.0000000E+04;  0.0000000E+00;  4.0000000E+04;  0.0000000E+00;  0.0000000E+00;  0.0000000E+00;  0.0000000E+00;
 -2.0000000E-01;  9.9999998E-03;  3.7000000E-01;81;  0.0000000E+00;  0.0000000E+00;  0.0000000E+00;  1.0000000E+03;  1.0000000E-01;  0.0000000E+00;0;  0.0000000E+00;  0.0000000E+00;  0.0000000E+00;0;  0.0000000E+00;  4.0000000E+04;  0.0000000E+00;  0.0000000E+00;  4.0000000E+04;  0.0000000E+00;  4.0000000E+04;  0.0000000E+00;  0.0000000E+00;  0.0000000E+00;  0.0000000E+00;
 -2.0000000E-01;  9.9999998E-03;  3.8000000E-01;82;  0.0000000E+00;  0.0000000E+00;  0.0000000E+00;  1.0000000E+03;  1.0000000E-01;  0.0000000E+00;0;  0.0000000E+00;  0.0000000E+00;  0.0000000E+00;0;  0.0000000E+00;  4.0000000E+04;  0.0000000E+00;  0.0000000E+00;  4.0000000E+04;  0.0000000E+00;  4.0000000E+04;  0.0000000E+00;  0.0000000E+00;  0.0000000E+00;  0.0000000E+00;
 -2.0000000E-01;  9.9999998E-03;  3.8999999E-01;83;  0.0000000E+00;  0.0000000E+00;  0.0000000E+00;  1.0000000E+03;  1.0000000E-01;  0.0000000E+00;0;  0.0000000E+00;  0.0000000E+00;  0.0000000E+00;0;  0.0000000E+00;  4.0000000E+04;  0.0000000E+00;  0.0000000E+00;  4.0000000E+04;  0.0000000E+00;  4.0000000E+04;  0.0000000E+00;  0.0000000E+00;  0.0000000E+00;  0.0000000E+00;
 -2.0000000E-01;  9.9999998E-03;  4.0000001E-01;84;  0.0000000E+00;  0.0000000E+00;  0.0000000E+00;  1.0000000E+03;  1.0000000E-01;  0.0000000E+00;0;  0.0000000E+00;  0.0000000E+00;  0.0000000E+00;0;  0.0000000E+00;  4.0000000E+04;  0.0000000E+00;  0.0000000E+00;  4.0000000E+04;  0.0000000E+00;  4.0000000E+04;  0.0000000E+00;  0.0000000E+00;  0.0000000E+00;  0.0000000E+00;
 -2.0000000E-01;  9.9999998E-03;  4.1000000E-01;85;  0.0000000E+00;  0.0000000E+00;  0.0000000E+00;  1.0000000E+03;  1.0000000E-01;  0.0000000E+00;0;  0.0000000E+00;  0.0000000E+00;  0.0000000E+00;0;  0.0000000E+00;  4.0000000E+04;  0.0000000E+00;  0.0000000E+00;  4.0000000E+04;  0.0000000E+00;  4.0000000E+04;  0.0000000E+00;  0.0000000E+00;  0.0000000E+00;  0.0000000E+00;
 -2.0000000E-01;  9.9999998E-03;  4.1999999E-01;86;  0.0000000E+00;  0.0000000E+00;  0.0000000E+00;  1.0000000E+03;  1.0000000E-01;  0.0000000E+00;0;  0.0000000E+00;  0.0000000E+00;  0.0000000E+00;0;  0.0000000E+00;  4.0000000E+04;  0.0000000E+00;  0.0000000E+00;  4.0000000E+04;  0.0000000E+00;  4.0000000E+04;  0.0000000E+00;  0.0000000E+00;  0.0000000E+00;  0.0000000E+00;
 -2.0000000E-01;  9.9999998E-03;  4.3000001E-01;87;  0.0000000E+00;  0.0000000E+00;  0.0000000E+00;  1.0000000E+03;  1.0000000E-01;  0.0000000E+00;0;  0.0000000E+00;  0.0000000E+00;  0.0000000E+00;0;  0.0000000E+00;  4.0000000E+04;  0.0000000E+00;  0.0000000E+00;  4.0000000E+04;  0.0000000E+00;  4.0000000E+04;  0.0000000E+00;  0.0000000E+00;  0.0000000E+00;  0.0000000E+00;
 -2.0000000E-01;  9.9999998E-03;  4.4000000E-01;88;  0.0000000E+00;  0.0000000E+00;  0.0000000E+00;  1.0000000E+03;  1.0000000E-01;  0.0000000E+00;0;  0.0000000E+00;  0.0000000E+00;  0.0000000E+00;0;  0.0000000E+00;  4.0000000E+04;  0.0000000E+00;  0.0000000E+00;  4.0000000E+04;  0.0000000E+00;  4.0000000E+04;  0.0000000E+00;  0.0000000E+00;  0.0000000E+00;  0.0000000E+00;
  2.8630521E-04;  9.9999998E-03; -2.8992751E-01;2448; -1.2988916E-04;  0.0000000E+00; -4.5639768E-04;  9.9569470E+02;  1.0000000E-01; -3.5668621E+03;3;  2.1642948E+01;  0.0000000E+00;  2.5874025E+01;0; -7.1694939E-03;  3.9661895E+04;  0.0000000E+00; -2.2701921E-01;  4.0000000E+04;  0.0000000E+00;  3.9991039E+04; -6.2268828E-03;  0.0000000E+00; -9.4261102E-04;  8.3739368E+02;
  7.7262009E-04;  9.9999998E-03; -2.7985466E-01;2449;  1.0048298E-04;  0.0000000E+00; -4.8025890E-04;  9.9464221E+02;  1.0000000E-01; -4.4388374E+03;3;  3.0956238E+01;  0.0000000E+00;  2.5678595E+01;0; -8.1765074E-03;  3.9572113E+04;  0.0000000E+00; -2.5182211E-01;  4.0000000E+04;  0.0000000E+00;  3.9998566E+04; -7.3134736E-03;  0.0000000E+00; -8.6303381E-04;  4.3211652E+02;
  9.8594837E-03;  9.9999998E-03; -2.9985678E-01;2507; -4.4339188E-04;  0.0000000E+00; -3.1262901E-04;  9.9714838E+02;  1.0000000E-01; -2.3625010E+03;3;  8.9486904E+00;  0.0000000E+00;  2.4542313E+01;0; -6.9344919E-03;  3.9783352E+04;  0.0000000E+00; -2.8147030E-01;  4.0000000E+04;  0.0000000E+00;  3.9984996E+04; -5.9007453E-03;  0.0000000E+00; -1.0337466E-03;  1.7011339E+03;
  1.0241230E-02;  9.9999998E-03; -2.8978458E-01;2508; -2.7456586E-04;  0.0000000E+00; -2.8740376E-04;  9.9639349E+02;  1.0000000E-01; -2.9879155E+03;3;  1.4314769E+01;  0.0000000E+00;  2.3829412E+01;0; -8.0821021E-03;  3.9717496E+04;  0.0000000E+00; -2.9034871E-01;  4.0000000E+04;  0.0000000E+00;  3.9992043E+04; -7.0863715E-03;  0.0000000E+00; -9.9573052E-04;  8.3677405E+02;
  1.0687927E-02;  9.9999998E-03; -2.7976418E-01;2509; -1.3161876E-04;  0.0000000E+00; -2.8954155E-04;  9.9557922E+02;  1.0000000E-01; -3.6625137E+03;3;  2.1636988E+01;  0.0000000E+00;  2.2228624E+01;0; -9.2212772E-03;  3.9644535E+04;  0.0000000E+00; -3.0840731E-01;  4.0000000E+04;  0.0000000E+00;  4.0000297E+04; -8.3180424E-03;  0.0000000E+00; -9.0323482E-04;  5.8967395E+02;
  1.9761151E-02;  9.9999998E-03; -2.9982850E-01;2568; -5.9158046E-04;  0.0000000E+00; -1.8690065E-04;  9.9775763E+02;  1.0000000E-01; -1.8577747E+03;3;  4.3004184E+00;  0.0000000E+00;  2.1053335E+01;0; -7.4784309E-03;  3.9831188E+04;  0.0000000E+00; -3.8407731E-01;  4.0000000E+04;  0.0000000E+00;  3.9986434E+04; -6.4021559E-03;  0.0000000E+00; -1.0762750E-03;  1.5911367E+03;
  2.0117100E-02;  9.9999998E-03; -2.8979361E-01;2569; -4.6593515E-04;  0.0000000E+00; -1.6356961E-04;  9.9723547E+02;  1.0000000E-01; -2.2903550E+03;3;  7.6269431E+00;  0.0000000E+00;  1.8732430E+01;0; -8.7282714E-03;  3.9781449E+04;  0.0000000E+00; -3.9020410E-01;  4.0000000E+04;  0.0000000E+00;  3.9993973E+04; -7.6959720E-03;  0.0000000E+00; -1.0322996E-03;  7.4389850E+02;
  2.0550743E-02;  9.9999998E-03; -2.7979183E-01;2570; -3.6728461E-04;  0.0000000E+00; -1.6459194E-04;  9.9667810E+02;  1.0000000E-01; -2.7521196E+03;3;  1.2268054E+01;  0.0000000E+00;  1.5877478E+01;0; -9.9709807E-03;  3.9729281E+04;  0.0000000E+00; -4.0349752E-01;  4.0000000E+04;  0.0000000E+00;  4.0003148E+04; -9.0380283E-03;  0.0000000E+00; -9.3295227E-04;  8.7174438E+02;
  2.9635793E-02;  9.9999998E-03; -2.9987964E-01;2629; -7.7096024E-04;  0.0000000E+00; -8.1784179E-05;  9.9835596E+02;  1.0000000E-01; -1.3620355E+03;3;  1.3075218E+00;  0.0000000E+00;  1.5617292E+01;0; -7.7684899E-03;  3.9875984E+04;  0.0000000E+00; -5.0412029E-01;  4.0000000E+04;  0.0000000E+00;  3.9989227E+04; -6.6657467E-03;  0.0000000E+00; -1.1027433E-03;  1.4113568E+03;
  2.9973604E-02;  9.9999998E-03; -2.8985983E-01;2630; -6.8286835E-04;  0.0000000E+00; -6.0587401E-05;  9.9805353E+02;  1.0000000E-01; -1.6125963E+03;3;  2.8783562E+00;  0.0000000E+00;  1.1751765E+01;0; -9.0766139E-03;  3.9843949E+04;  0.0000000E+00; -5.0904858E-01;  4.0000000E+04;  0.0000000E+00;  3.9996750E+04; -8.0219042E-03;  0.0000000E+00; -1.0547097E-03;  7.4801599E+02;
  3.0410027E-02;  9.9999998E-03; -2.7985308E-01;2631; -6.1818468E-04;  0.0000000E+00; -6.6635766E-05;  9.9775934E+02;  1.0000000E-01; -1.8563425E+03;3;  5.0271339E+00;  0.0000000E+00;  7.7927694E+00;0; -1.0376349E-02;  3.9812137E+04;  0.0000000E+00; -5.1278704E-01;  4.0000000E+04;  0.0000000E+00;  4.0005691E+04; -9.4262548E-03;  0.0000000E+00; -9.5009478E-04;  1.1764364E+03;
  3.9527718E-02;  9.9999998E-03; -2.9994777E-01;2690; -9.5122098E-04;  0.0000000E+00; -7.0161745E-06;  9.9883667E+02;  1.0000000E-01; -9.6377521E+02;3;  1.9686283E-01;  0.0000000E+00;  9.6192913E+00;0; -7.8182295E-03;  3.9911141E+04;  0.0000000E+00; -6.2326777E-01;  4.0000000E+04;  0.0000000E+00;  3.9991793E+04; -6.6985320E-03;  0.0000000E+00; -1.1196978E-03;  1.2649576E+03;
  3.9853007E-02;  9.9999998E-03; -2.8993213E-01;2691; -8.9001114E-04;  0.0000000E+00;  1.4638124E-05;  9.9873309E+02;  1.0000000E-01; -1.0496000E+03;3;  5.2385569E-01;  0.0000000E+00;  4.3628597E+00;0; -9.1378400E-03;  3.9895441E+04;  0.0000000E+00; -6.2027127E-01;  4.0000000E+04;  0.0000000E+00;  3.9999055E+04; -8.0705686E-03;  0.0000000E+00; -1.0672711E-03;  8.8248694E+02;
  4.0297192E-02;  9.9999998E-03; -2.7990755E-01;2692; -8.5146894E-04;  0.0000000E+00;  1.8104294E-06;  9.9866718E+02;  1.0000000E-01; -1.1042157E+03;3;  8.5060751E-01;  0.0000000E+00; -5.0824577E-01;0; -1.0443952E-02;  3.9881887E+04;  0.0000000E+00; -5.9991139E-01;  4.0000000E+04;  0.0000000E+00;  4.0008184E+04; -9.4877221E-03;  0.0000000E+00; -9.5623033E-04;  1.4363486E+03;
  4.9460929E-02;  9.9999998E-03; -2.9999870E-01;2751; -1.1124361E-03;  0.0000000E+00;  3.2733846E-05;  9.9913940E+02;  1.0000000E-01; -7.1296747E+02;3;  6.6836768E-01;  0.0000000E+00;  4.3703551E+00;0; -7.6701399E-03;  3.9932770E+04;  0.0000000E+00; -7.2656339E-01;  4.0000000E+04;  0.0000000E+00;  3.9993773E+04; -6.5384898E-03;  0.0000000E+00; -1.1316503E-03;  1.2105790E+03;
  4.9777146E-02;  9.9999998E-03; -2.8998631E-01;2752; -1.0665497E-03;  0.0000000E+00;  5.1395957E-05;  9.9918536E+02;  1.0000000E-01; -6.7489447E+02;3;  3.2661417E-01;  0.0000000E+00; -2.0065675E+00;0; -8.9577772E-03;  3.9929074E+04;  0.0000000E+00; -7.0158482E-01;  4.0000000E+04;  0.0000000E+00;  4.0001543E+04; -7.8852084E-03;  0.0000000E+00; -1.0725688E-03;  1.0480183E+03;
  5.0216772E-02;  9.9999998E-03; -2.7995628E-01;2753; -1.0433199E-03;  0.0000000E+00;  3.1284650E-05;  9.9930573E+02;  1.0000000E-01; -5.7519360E+02;3; -4.4440445E-01;  0.0000000E+00; -7.6417265E+00;0; -1.0222821E-02;  3.9930980E+04;  0.0000000E+00; -6.3520002E-01;  4.0000000E+04;  0.0000000E+00;  4.0010797E+04; -9.2706317E-03;  0.0000000E+00; -9.5218979E-04;  1.6100067E+03;
  5.9434459E-02;  9.9999998E-03; -3.0004203E-01;2812; -1.2401931E-03;  0.0000000E+00;  2.8573046E-05;  9.9922424E+02;  1.0000000E-01; -6.4269788E+02;3;  2.1776223E+00;  0.0000000E+00;  1.0883732E+00;0; -7.3932707E-03;  3.9938086E+04;  0.0000000E+00; -7.8129166E-01;  4.0000000E+04;  0.0000000E+00;  3.9995320E+04; -6.2536085E-03;  0.0000000E+00; -1.1396622E-03;  1.2078699E+03;
  5.9751444E-02;  9.9999998E-03; -2.9001990E-01;2813; -1.2018137E-03;  0.0000000E+00;  4.3213564E-05;  9.9938141E+02;  1.0000000E-01; -5.1247931E+02;3;  1.5735031E+00;  0.0000000E+00; -6.3559861E+00;0; -8.6166896E-03;  3.9943422E+04;  0.0000000E+00; -7.1746397E-01;  4.0000000E+04;  0.0000000E+00;  4.0003168E+04; -7.5460086E-03;  0.0000000E+00; -1.0706808E-03;  1.1268716E+03;
  6.0170699E-02;  9.9999998E-03; -2.7999982E-01;2814; -1.1861770E-03;  0.0000000E+00;  1.6730020E-05;  9.9962433E+02;  1.0000000E-01; -3.1125046E+02;3;  3.1936988E-01;  0.0000000E+00; -1.2623505E+01;0; -9.8054828E-03;  3.9955992E+04;  0.0000000E+00; -5.8691734E-01;  4.0000000E+04;  0.0000000E+00;  4.0010617E+04; -8.8680796E-03;  0.0000000E+00; -9.3740306E-04;  1.6663730E+03;
  6.9451973E-02;  9.9999998E-03; -3.0008313E-01;2873; -1.3217058E-03;  0.0000000E+00; -2.0049185E-05;  9.9910382E+02;  1.0000000E-01; -7.4244812E+02;3;  4.0935526E+00;  0.0000000E+00;  3.8149068E-01;0; -7.0831524E-03;  3.9928590E+04;  0.0000000E+00; -6.9639683E-01;  4.0000000E+04;  0.0000000E+00;  3.9995543E+04; -5.9425123E-03;  0.0000000E+00; -1.1406401E-03;  1.1104432E+03;
  6.9771752E-02;  9.9999998E-03; -2.9004472E-01;2874; -1.2873871E-03;  0.0000000E+00; -1.1135396E-05;  9.9932202E+02;  1.0000000E-01; -5.6171252E+02;3;  3.4693706E+00;  0.0000000E+00; -8.1284914E+00;0; -8.2234722E-03;  3.9938512E+04;  0.0000000E+00; -5.7565641E-01;  4.0000000E+04;  0.0000000E+00;  4.0003523E+04; -7.1646692E-03;  0.0000000E+00; -1.0588032E-03;  9.6071613E+02;
  7.0168771E-02;  9.9999998E-03; -2.8003496E-01;2875; -1.2730528E-03;  0.0000000E+00; -4.4267017E-05;  9.9964764E+02;  1.0000000E-01; -2.9194235E+02;3;  2.1015456E+00;  0.0000000E+00; -1.5259280E+01;0; -9.3176253E-03;  3.9957918E+04;  0.0000000E+00; -3.7590548E-01;  4.0000000E+04;  0.0000000E+00;  4.0011605E+04; -8.4080091E-03;  0.0000000E+00; -9.0961589E-04;  1.5734734E+03;
  7.9520382E-02;  9.9999998E-03; -3.0011904E-01;2934; -1.3425144E-03;  0.0000000E+00; -9.9446785E-05;  9.9881171E+02;  1.0000000E-01; -9.8446600E+02;3;  5.9681182E+00;  0.0000000E+00;  2.3898003E+00;0; -6.8451762E-03;  3.9908172E+04;  0.0000000E+00; -3.0031881E-01;  4.0000000E+04;  0.0000000E+00;  3.9993234E+04; -5.7180994E-03;  0.0000000E+00; -1.1270770E-03;  8.7919733E+02;
  7.9842426E-02;  9.9999998E-03; -2.9006553E-01;2935; -1.3080498E-03;  0.0000000E+00; -1.0207743E-04;  9.9905945E+02;  1.0000000E-01; -7.7923724E+02;3;  5.3814278E+00;  0.0000000E+00; -7.4200406E+00;0; -7.8978958E-03;  3.9919156E+04;  0.0000000E+00; -1.0536300E-01;  4.0000000E+04;  0.0000000E+00;  4.0002348E+04; -6.8673389E-03;  0.0000000E+00; -1.0305572E-03;  3.9489548E+02;
  8.0220222E-02;  9.9999998E-03; -2.8006408E-01;2936; -1.2854170E-03;  0.0000000E+00; -1.5655874E-04;  9.9942731E+02;  1.0000000E-01; -4.7445572E+02;3;  4.0607872E+00;  0.0000000E+00; -1.5704103E+01;0; -8.8931443E-03;  3.9941219E+04;  0.0000000E+00;  1.4887244E-01;  4.0000000E+04;  0.0000000E+00;  4.0010852E+04; -8.0297478E-03;  0.0000000E+00; -8.6339691E-04;  1.4548372E+03;
  8.9647666E-02;  9.9999998E-03; -3.0013958E-01;2995; -1.2798380E-03;  0.0000000E+00; -1.9707835E-04;  9.9841467E+02;  1.0000000E-01; -1.3133949E+03;3;  7.5574121E+00;  0.0000000E+00;  6.8281550E+00;0; -6.7684744E-03;  3.9880285E+04;  0.0000000E+00;  6.5784538E-01;  4.0000000E+04;  0.0000000E+00;  3.9988680E+04; -5.6823702E-03;  0.0000000E+00; -1.0861042E-03;  1.6042657E+03;
  8.9967489E-02;  9.9999998E-03; -2.9007310E-01;2996; -1.2502129E-03;  0.0000000E+00; -2.1754793E-04;  9.9865747E+02;  1.0000000E-01; -1.1122649E+03;3;  6.9520063E+00;  0.0000000E+00; -4.5708280E+00;0; -7.7437242E-03;  3.9890047E+04;  0.0000000E+00;  9.3717080E-01;  4.0000000E+04;  0.0000000E+00;  3.9999562E+04; -6.7691682E-03;  0.0000000E+00; -9.7455579E-04;  1.3521024E+03;
  9.0326153E-02;  9.9999998E-03; -2.8007969E-01;2997; -1.2270259E-03;  0.0000000E+00; -2.9375608E-04;  9.9904224E+02;  1.0000000E-01; -7.9350842E+02;3;  5.6727371E+00;  0.0000000E+00; -1.4462151E+01;0; -8.6505590E-03;  3.9912133E+04;  0.0000000E+00;  1.2024964E+00;  4.0000000E+04;  0.0000000E+00;  4.0009418E+04; -7.8595569E-03;  0.0000000E+00; -7.9100230E-04;  2.1748040E+03;
  9.9848665E-02;  9.9999998E-03; -3.0012226E-01;3056; -1.1188405E-03;  0.0000000E+00; -2.8379154E-04;  9.9794336E+02;  1.0000000E-01; -1.7039025E+03;3;  8.8680935E+00;  0.0000000E+00;  1.3179794E+01;0; -6.9011748E-03;  3.9849090E+04;  0.0000000E+00;  2.4802501E+00;  4.0000000E+04;  0.0000000E+00;  3.9982641E+04; -5.8982121E-03;  0.0000000E+00; -1.0029628E-03;  4.1037710E+03;
  1.0016324E-01;  9.9999998E-03; -2.9003519E-01;3057; -1.1277547E-03;  0.0000000E+00; -3.0858949E-04;  9.9817877E+02;  1.0000000E-01; -1.5088462E+03;3;  8.1412010E+00;  0.0000000E+00; -4.0811422E-01;0; -7.8320093E-03;  3.9856137E+04;  0.0000000E+00;  2.8347492E+00;  4.0000000E+04;  0.0000000E+00;  3.9996402E+04; -6.9522611E-03;  0.0000000E+00; -8.7974838E-04;  4.0945835E+03;
  1.0049967E-01;  9.9999998E-03; -2.8004447E-01;3058; -1.1443584E-03;  0.0000000E+00; -3.9236940E-04;  9.9858026E+02;  1.0000000E-01; -1.1762136E+03;3;  6.8040376E+00;  0.0000000E+00; -1.2408133E+01;0; -8.6785983E-03;  3.9876855E+04;  0.0000000E+00;  3.0263808E+00;  4.0000000E+04;  0.0000000E+00;  4.0008512E+04; -7.9928506E-03;  0.0000000E+00; -6.8574771E-04;  4.5142412E+03;
  1.1015303E-01;  9.9999998E-03; -2.9999879E-01;3117; -9.0128451E-04;  0.0000000E+00; -3.0453366E-04;  9.9739734E+02;  1.0000000E-01; -2.1562354E+03;3;  1.0029395E+01;  0.0000000E+00;  1.9869694E+01;0; -7.2603021E-03;  3.9812602E+04;  0.0000000E+00;  5.4802117E+00;  4.0000000E+04;  0.0000000E+00;  3.9976824E+04; -6.3872752E-03;  0.0000000E+00; -8.7302679E-04;  8.3384932E+03;
  1.1044706E-01;  9.9999998E-03; -2.8988487E-01;3118; -1.0085728E-03;  0.0000000E+00; -3.1103403E-04;  9.9765991E+02;  1.0000000E-01; -1.9387106E+03;3;  9.1465673E+00;  0.0000000E+00;  3.2757716E+00;0; -8.2158521E-03;  3.9817805E+04;  0.0000000E+00;  5.8620586E+00;  4.0000000E+04;  0.0000000E+00;  3.9993512E+04; -7.4685612E-03;  0.0000000E+00; -7.4729125E-04;  8.4666250E+03;
  1.1073107E-01;  9.9999998E-03; -2.7991191E-01;3119; -1.1102506E-03;  0.0000000E+00; -3.7954075E-04;  9.9809210E+02;  1.0000000E-01; -1.5806466E+03;3;  7.6618943E+00;  0.0000000E+00; -1.0743565E+01;0; -9.0419343E-03;  3.9839145E+04;  0.0000000E+00;  5.8307614E+00;  4.0000000E+04;  0.0000000E+00;  4.0009027E+04; -8.4879622E-03;  0.0000000E+00; -5.5397232E-04;  8.5050596E+03;
  1.2051877E-01;  9.9999998E-03; -2.9973146E-01;3178; -7.4600626E-04;  0.0000000E+00; -1.9537397E-04;  9.9678687E+02;  1.0000000E-01; -2.6619988E+03;3;  1.1532313E+01;  0.0000000E+00;  2.3304266E+01;0; -7.9054628E-03;  3.9765461E+04;  0.0000000E+00;  1.0007837E+01;  4.0000000E+04;  0.0000000E+00;  3.9976676E+04; -7.1758372E-03;  0.0000000E+00; -7.2962540E-04;  1.4670428E+04;
  1.2067482E-01;  9.9999998E-03; -2.8967518E-01;3179; -9.8598748E-04;  0.0000000E+00; -1.7610649E-04;  9.9717499E+02;  1.0000000E-01; -2.3404771E+03;3;  1.0532736E+01;  0.0000000E+00;  4.1084833E+00;0; -8.9574354E-03;  3.9778145E+04;  0.0000000E+00;  1.0263041E+01;  4.0000000E+04;  0.0000000E+00;  3.9996039E+04; -8.3406996E-03;  0.0000000E+00; -6.1673555E-04;  1.4825894E+04;
  1.2083593E-01;  9.9999998E-03; -2.7975622E-01;3180; -1.1664412E-03;  0.0000000E+00; -2.3976530E-04;  9.9769617E+02;  1.0000000E-01; -1.9086868E+03;3;  8.7587595E+00;  0.0000000E+00; -1.1067852E+01;0; -9.7691799E-03;  3.9804480E+04;  0.0000000E+00;  9.7496691E+00;  4.0000000E+04;  0.0000000E+00;  4.0013090E+04; -9.3403291E-03;  0.0000000E+00; -4.2885111E-04;  1.4209322E+04;
  1.3071312E-01;  9.9999998E-03; -2.9951286E-01;3239; -7.2691560E-04;  0.0000000E+00;  3.7015190E-05;  9.9626764E+02;  1.0000000E-01; -3.0922087E+03;3;  1.4687719E+01;  0.0000000E+00;  2.1271856E+01;0; -8.9378329E-03;  3.9718281E+04;  0.0000000E+00;  1.6380106E+01;  4.0000000E+04;  0.0000000E+00;  3.9984602E+04; -8.2835462E-03;  0.0000000E+00; -6.5428641E-04;  2.3720396E+04;
  1.3072622E-01;  9.9999998E-03; -2.8949398E-01;3240; -1.0787984E-03;  0.0000000E+00;  4.7183570E-05;  9.9686835E+02;  1.0000000E-01; -2.5944946E+03;3;  1.3441102E+01;  0.0000000E+00; -3.3348408E-01;0; -1.0112764E-02;  3.9745922E+04;  0.0000000E+00;  1.6247681E+01;  4.0000000E+04;  0.0000000E+00;  4.0005848E+04; -9.5661469E-03;  0.0000000E+00; -5.4661697E-04;  2.3545342E+04;
  1.3080987E-01;  9.9999998E-03; -2.7960274E-01;3241; -1.3118630E-03;  0.0000000E+00; -3.1170111E-05;  9.9747528E+02;  1.0000000E-01; -2.0916938E+03;3;  1.0962388E+01;  0.0000000E+00; -1.5382069E+01;0; -1.0873669E-02;  3.9778879E+04;  0.0000000E+00;  1.4844007E+01;  4.0000000E+04;  0.0000000E+00;  4.0022129E+04; -1.0524336E-02;  0.0000000E+00; -3.4933281E-04;  2.1727785E+04;
  1.4079466E-01;  9.9999998E-03; -2.9933318E-01;3300; -8.5432752E-04;  0.0000000E+00;  2.6750058E-04;  9.9592468E+02;  1.0000000E-01; -3.3762996E+03;3;  2.1927124E+01;  0.0000000E+00;  1.0551865E+01;0; -1.0492646E-02;  3.9673641E+04;  0.0000000E+00;  2.4970001E+01;  4.0000000E+04;  0.0000000E+00;  4.0004973E+04; -9.8078689E-03;  0.0000000E+00; -6.8477704E-04;  3.6115570E+04;
  1.4069009E-01;  9.9999998E-03; -2.8934011E-01;3301; -1.2661372E-03;  0.0000000E+00;  2.3125272E-04;  9.9680652E+02;  1.0000000E-01; -2.6457524E+03;3;  1.9598446E+01;  0.0000000E+00; -1.2335287E+01;0; -1.1699267E-02;  3.9722941E+04;  0.0000000E+00;  2.4038914E+01;  4.0000000E+04;  0.0000000E+00;  4.0024910E+04; -1.1157179E-02;  0.0000000E+00; -5.4208771E-04;  3.5034016E+04;
  1.4073011E-01;  9.9999998E-03; -2.7946427E-01;3302; -1.5350177E-03;  0.0000000E+00;  1.4263648E-04;  9.9747491E+02;  1.0000000E-01; -2.0919902E+03;3;  1.5311619E+01;  0.0000000E+00; -2.5112255E+01;0; -1.2335749E-02;  3.9762949E+04;  0.0000000E+00;  2.1130730E+01;  4.0000000E+04;  0.0000000E+00;  4.0039152E+04; -1.2016510E-02;  0.0000000E+00; -3.1924015E-04;  3.1144926E+04;
  1.5082739E-01;  9.9999998E-03; -2.9931200E-01;3361; -1.0133667E-03;  0.0000000E+00;  2.2156484E-04;  9.9565991E+02;  1.0000000E-01; -3.5957007E+03;3;  3.4793427E+01;  0.0000000E+00; -1.6833379E+00;0; -1.2214808E-02;  3.9630207E+04;  0.0000000E+00;  3.5145729E+01;  4.0000000E+04;  0.0000000E+00;  4.0029098E+04; -1.1639457E-02;  0.0000000E+00; -5.7535083E-04;  5.0969754E+04;
  1.5062189E-01;  9.9999998E-03; -2.8931224E-01;3362; -1.4854330E-03;  0.0000000E+00;  1.8901829E-04;  9.9693378E+02;  1.0000000E-01; -2.5403232E+03;3;  3.0078453E+01;  0.0000000E+00; -2.6946714E+01;0; -1.3464002E-02;  3.9709395E+04;  0.0000000E+00;  3.3317963E+01;  4.0000000E+04;  0.0000000E+00;  4.0049965E+04; -1.3042486E-02;  0.0000000E+00; -4.2151567E-04;  4.8808441E+04;
  1.5064275E-01;  9.9999998E-03; -2.7941540E-01;3363; -1.8243147E-03;  0.0000000E+00;  1.5228214E-04;  9.9766077E+02;  1.0000000E-01; -1.9380193E+03;3;  2.2386812E+01;  0.0000000E+00; -3.7520138E+01;0; -1.4017605E-02;  3.9755980E+04;  0.0000000E+00;  2.8298216E+01;  4.0000000E+04;  0.0000000E+00;  4.0060129E+04; -1.3787812E-02;  0.0000000E+00; -2.2979395E-04;  4.1986242E+04;
  1.6099648E-01;  9.9999998E-03; -2.9955301E-01;3422; -8.4871461E-04;  0.0000000E+00; -2.3351016E-04;  9.9470007E+02;  1.0000000E-01; -4.3908882E+03;3;  4.8998493E+01;  0.0000000E+00;  6.1338124E+00;0; -1.2481960E-02;  3.9550641E+04;  0.0000000E+00;  4.2133003E+01;  4.0000000E+04;  0.0000000E+00;  4.0031746E+04; -1.2707537E-02;  0.0000000E+00;  2.2557715E-04;  6.1183414E+04;
  1.6065681E-01;  9.9999998E-03; -2.8950557E-01;3423; -1.5500076E-03;  0.0000000E+00; -2.0980532E-04;  9.9674445E+02;  1.0000000E-01; -2.6971582E+03;3;  4.2013840E+01;  0.0000000E+00; -2.8490164E+01;0; -1.4500414E-02;  3.9685262E+04;  0.0000000E+00;  4.1285824E+01;  4.0000000E+04;  0.0000000E+00;  4.0058281E+04; -1.4772240E-02;  0.0000000E+00;  2.7182617E-04;  6.0586344E+04;
  1.6065116E-01;  9.9999998E-03; -2.7952653E-01;3424; -2.0789383E-03;  0.0000000E+00; -1.1143671E-04;  9.9769965E+02;  1.0000000E-01; -1.9058226E+03;3;  3.0791359E+01;  0.0000000E+00; -4.3344738E+01;0; -1.5432047E-02;  3.9746070E+04;  0.0000000E+00;  3.4722187E+01;  4.0000000E+04;  0.0000000E+00;  4.0072812E+04; -1.5657526E-02;  0.0000000E+00;  2.2547907E-04;  5.1707434E+04;
  1.7145333E-01;  9.9999998E-03; -2.9984811E-01;3483; -1.0533645E-03;  0.0000000E+00; -3.1484593E-05;  9.9219135E+02;  1.0000000E-01; -6.4692983E+03;3;  5.5552315E+01;  0.0000000E+00;  4.0860432E+01;0; -1.4796189E-02;  3.9371445E+04;  0.0000000E+00;  3.8322376E+01;  4.0000000E+04;  0.0000000E+00;  4.0010211E+04; -1.4827510E-02;  0.0000000E+00;  3.1321601E-05;  5.5956801E+04;
  1.7097150E-01;  9.9999998E-03; -2.8982544E-01;3484; -1.4398368E-03;  0.0000000E+00; -4.5023789E-04;  9.9541602E+02;  1.0000000E-01; -3.7977197E+03;3;  4.8001320E+01;  0.0000000E+00; -2.8933227E+00;0; -1.4861344E-02;  3.9600941E+04;  0.0000000E+00;  4.1597374E+01;  4.0000000E+04;  0.0000000E+00;  4.0034598E+04; -1.5935354E-02;  0.0000000E+00;  1.0740098E-03;  6.1356000E+04;
  1.7083122E-01;  9.9999998E-03; -2.7978924E-01;3485; -2.1782811E-03;  0.0000000E+00; -4.0566752E-04;  9.9711560E+02;  1.0000000E-01; -2.3896609E+03;3;  3.5517799E+01;  0.0000000E+00; -3.0287481E+01;0; -1.6217336E-02;  3.9712469E+04;  0.0000000E+00;  3.6695122E+01;  4.0000000E+04;  0.0000000E+00;  4.0058281E+04; -1.7219786E-02;  0.0000000E+00;  1.0024502E-03;  5.4817918E+04;
  1.8176337E-01;  9.9999998E-03; -2.9989621E-01;3544; -1.8905411E-03;  0.0000000E+00;  1.8115227E-04;  9.9030511E+02;  1.0000000E-01; -8.0320195E+03;3;  5.8800125E+01;  0.0000000E+00;  5.0781151E+01;0; -2.0275775E-02;  3.9210473E+04;  0.0000000E+00;  2.9536608E+01;  4.0000000E+04;  0.0000000E+00;  4.0018715E+04; -1.9744568E-02;  0.0000000E+00; -5.3120859E-04;  4.3552434E+04;
  1.8143405E-01;  9.9999998E-03; -2.8999090E-01;3545; -1.7732809E-03;  0.0000000E+00; -9.0788672E-05;  9.9343292E+02;  1.0000000E-01; -5.4406855E+03;3;  4.5832287E+01;  0.0000000E+00;  2.5210966E+01;0; -1.7737687E-02;  3.9462406E+04;  0.0000000E+00;  3.2301296E+01;  4.0000000E+04;  0.0000000E+00;  4.0014375E+04; -1.8171865E-02;  0.0000000E+00;  4.3417793E-04;  4.8687402E+04;
  1.8114655E-01;  9.9999998E-03; -2.8001645E-01;3546; -2.2532393E-03;  0.0000000E+00; -2.7523763E-04;  9.9594159E+02;  1.0000000E-01; -3.3623247E+03;3;  3.3067986E+01;  0.0000000E+00; -4.3048124E+00;0; -1.7432589E-02;  3.9649016E+04;  0.0000000E+00;  3.1751881E+01;  4.0000000E+04;  0.0000000E+00;  4.0026664E+04; -1.8450661E-02;  0.0000000E+00;  1.0180707E-03;  4.8125066E+04;
  1.9174814E-01;  9.9999998E-03; -2.9994398E-01;3605; -2.4036521E-03;  0.0000000E+00;  9.9931094E-05;  9.8995160E+02;  1.0000000E-01; -8.3249004E+03;3;  5.2441826E+01;  0.0000000E+00;  5.0908485E+01;0; -2.3652364E-02;  3.9169410E+04;  0.0000000E+00;  2.1376680E+01;  4.0000000E+04;  0.0000000E+00;  4.0024262E+04; -2.3364890E-02;  0.0000000E+00; -2.8747239E-04;  3.1073398E+04;
  1.9165035E-01;  9.9999998E-03; -2.9001352E-01;3606; -2.3560412E-03;  0.0000000E+00;  6.2514606E-05;  9.9249536E+02;  1.0000000E-01; -6.2174536E+03;3;  3.9453453E+01;  0.0000000E+00;  3.0252934E+01;0; -2.1134749E-02;  3.9381984E+04;  0.0000000E+00;  2.1416315E+01;  4.0000000E+04;  0.0000000E+00;  4.0016691E+04; -2.1096725E-02;  0.0000000E+00; -3.8024300E-05;  3.3325160E+04;
  1.9135615E-01;  9.9999998E-03; -2.8010613E-01;3607; -2.4116354E-03;  0.0000000E+00; -1.1516845E-05;  9.9511597E+02;  1.0000000E-01; -4.0463054E+03;3;  2.6172426E+01;  0.0000000E+00;  1.3124990E+01;0; -1.9115530E-02;  3.9603145E+04;  0.0000000E+00;  2.3897942E+01;  4.0000000E+04;  0.0000000E+00;  4.0005793E+04; -1.9452278E-02;  0.0000000E+00;  3.3674712E-04;  3.7245398E+04;
  2.0164025E-01;  9.9999998E-03; -3.0002984E-01;3666; -2.5247647E-03;  0.0000000E+00;  2.6573869E-04;  9.9017090E+02;  1.0000000E-01; -8.1432266E+03;3;  3.9124908E+01;  0.0000000E+00;  5.6451920E+01;0; -2.5771031E-02;  3.9191320E+04;  0.0000000E+00;  1.5929596E+01;  4.0000000E+04;  0.0000000E+00;  4.0017457E+04; -2.4457876E-02;  0.0000000E+00; -1.3131547E-03;  2.1477363E+04;
  2.0161274E-01;  9.9999998E-03; -2.9005584E-01;3667; -2.6165254E-03;  0.0000000E+00;  1.6371501E-04;  9.9257336E+02;  1.0000000E-01; -6.1528135E+03;3;  2.8147402E+01;  0.0000000E+00;  3.2948982E+01;0; -2.2980243E-02;  3.9389781E+04;  0.0000000E+00;  1.4240829E+01;  4.0000000E+04;  0.0000000E+00;  4.0013559E+04; -2.2355914E-02;  0.0000000E+00; -6.2432932E-04;  2.2037865E+04;
  2.0140697E-01;  9.9999998E-03; -2.8012499E-01;3668; -2.5524793E-03;  0.0000000E+00;  1.2180636E-04;  9.9496521E+02;  1.0000000E-01; -4.1712402E+03;3;  1.7891008E+01;  0.0000000E+00;  1.9654577E+01;0; -2.0179546E-02;  3.9598961E+04;  0.0000000E+00;  1.7450672E+01;  4.0000000E+04;  0.0000000E+00;  3.9997508E+04; -1.9904280E-02;  0.0000000E+00; -2.7526537E-04;  2.7868107E+04;
  2.1157542E-01;  9.9999998E-03; -3.0004141E-01;3727; -2.7589120E-03;  0.0000000E+00;  2.3756953E-04;  9.9093835E+02;  1.0000000E-01; -7.5073926E+03;3;  2.5246983E+01;  0.0000000E+00;  4.8789837E+01;0; -2.6786117E-02;  3.9246902E+04;  0.0000000E+00;  1.1188065E+01;  4.0000000E+04;  0.0000000E+00;  4.0022574E+04; -2.5275741E-02;  0.0000000E+00; -1.5103755E-03;  1.3394350E+04;
  2.1154749E-01;  9.9999998E-03; -2.9006630E-01;3728; -2.7429899E-03;  0.0000000E+00;  1.7821490E-04;  9.9314532E+02;  1.0000000E-01; -5.6789507E+03;3;  1.6530821E+01;  0.0000000E+00;  3.0807474E+01;0; -2.3382237E-02;  3.9435367E+04;  0.0000000E+00;  9.6780176E+00;  4.0000000E+04;  0.0000000E+00;  4.0012477E+04; -2.2420185E-02;  0.0000000E+00; -9.6205313E-04;  1.4424753E+04;
  2.1141568E-01;  9.9999998E-03; -2.8010875E-01;3729; -2.7057102E-03;  0.0000000E+00;  1.2975409E-04;  9.9520746E+02;  1.0000000E-01; -3.9705544E+03;3;  9.8078108E+00;  0.0000000E+00;  1.8466654E+01;0; -2.0393046E-02;  3.9617812E+04;  0.0000000E+00;  1.2320715E+01;  4.0000000E+04;  0.0000000E+00;  3.9998566E+04; -1.9894935E-02;  0.0000000E+00; -4.9811043E-04;  1.9981287E+04;
  2.2153802E-01;  9.9999998E-03; -3.0003276E-01;3788; -2.9216532E-03;  0.0000000E+00;  1.1383916E-04;  9.9204572E+02;  1.0000000E-01; -6.5899863E+03;3;  1.1572184E+01;  0.0000000E+00;  3.8859680E+01;0; -2.5772683E-02;  3.9331648E+04;  0.0000000E+00;  6.8002281E+00;  4.0000000E+04;  0.0000000E+00;  4.0027578E+04; -2.4893172E-02;  0.0000000E+00; -8.7951194E-04;  7.5334038E+03;
  2.2151271E-01;  9.9999998E-03; -2.9005590E-01;3789; -2.8870534E-03;  0.0000000E+00;  9.7997930E-05;  9.9394580E+02;  1.0000000E-01; -5.0158086E+03;3;  5.8995547E+00;  0.0000000E+00;  2.4841183E+01;0; -2.2588599E-02;  3.9497746E+04;  0.0000000E+00;  5.6482682E+00;  4.0000000E+04;  0.0000000E+00;  4.0015512E+04; -2.1946289E-02;  0.0000000E+00; -6.4231083E-04;  8.2885508E+03;
  2.2141300E-01;  9.9999998E-03; -2.8008553E-01;3790; -2.8513547E-03;  0.0000000E+00;  7.4486896E-05;  9.9567517E+02;  1.0000000E-01; -3.5830591E+03;3;  2.4034243E+00;  0.0000000E+00;  1.4529866E+01;0; -1.9770313E-02;  3.9652887E+04;  0.0000000E+00;  8.1719160E+00;  4.0000000E+04;  0.0000000E+00;  4.0002672E+04; -1.9428687E-02;  0.0000000E+00; -3.4162495E-04;  1.3476645E+04;
  2.3151144E-01;  9.9999998E-03; -3.0002090E-01;3849; -3.0445303E-03;  0.0000000E+00;  6.3926664E-06;  9.9333545E+02;  1.0000000E-01; -5.5214736E+03;3; -1.3005391E-01;  0.0000000E+00;  2.9202549E+01;0; -2.3805350E-02;  3.9435566E+04;  0.0000000E+00;  2.7366478E+00;  4.0000000E+04;  0.0000000E+00;  4.0029062E+04; -2.3711935E-02;  0.0000000E+00; -9.3415176E-05;  4.3753857E+03;
  2.3148373E-01;  9.9999998E-03; -2.9004082E-01;3850; -3.0119393E-03;  0.0000000E+00;  1.0355558E-05;  9.9491187E+02;  1.0000000E-01; -4.2154365E+03;3; -2.8110702E+00;  0.0000000E+00;  1.8449358E+01;0; -2.1022640E-02;  3.9575672E+04;  0.0000000E+00;  2.2718875E+00;  4.0000000E+04;  0.0000000E+00;  4.0017090E+04; -2.0947732E-02;  0.0000000E+00; -7.4908283E-05;  4.1122656E+03;
  2.3139922E-01;  9.9999998E-03; -2.8006205E-01;3851; -2.9861117E-03;  0.0000000E+00;  1.0143227E-05;  9.9630432E+02;  1.0000000E-01; -3.0617900E+03;3; -3.6005731E+00;  0.0000000E+00;  1.0092939E+01;0; -1.8624645E-02;  3.9702168E+04;  0.0000000E+00;  4.9193549E+00;  4.0000000E+04;  0.0000000E+00;  4.0005637E+04; -1.8609487E-02;  0.0000000E+00; -1.5157300E-05;  8.5659561E+03;
  2.4148029E-01;  9.9999998E-03; -3.0001166E-01;3910; -3.1186929E-03;  0.0000000E+00; -7.4941570E-05;  9.9469177E+02;  1.0000000E-01; -4.3977520E+03;3; -8.7775564E+00;  0.0000000E+00;  2.0844795E+01;0; -2.1314872E-02;  3.9548289E+04;  0.0000000E+00; -4.6148625E-01;  4.0000000E+04;  0.0000000E+00;  4.0027680E+04; -2.1984413E-02;  0.0000000E+00;  6.6954130E-04;  4.3526382E+03;
  2.4144641E-01;  9.9999998E-03; -2.9002714E-01;3911; -3.1034877E-03;  0.0000000E+00; -6.3271764E-05;  9.9596021E+02;  1.0000000E-01; -3.3469177E+03;3; -8.9539528E+00;  0.0000000E+00;  1.2749681E+01;0; -1.9031137E-02;  3.9662863E+04;  0.0000000E+00; -7.7837892E-02;  4.0000000E+04;  0.0000000E+00;  4.0017062E+04; -1.9576728E-02;  0.0000000E+00;  5.4559094E-04;  2.4805286E+03;
  2.4137133E-01;  9.9999998E-03; -2.8004128E-01;3912; -3.1187059E-03;  0.0000000E+00; -4.8150985E-05;  9.9702466E+02;  1.0000000E-01; -2.4650166E+03;3; -7.7662306E+00;  0.0000000E+00;  6.0237751E+00;0; -1.7210385E-02;  3.9759980E+04;  0.0000000E+00;  2.5799468E+00;  4.0000000E+04;  0.0000000E+00;  4.0007625E+04; -1.7587934E-02;  0.0000000E+00;  3.7754889E-04;  5.2160073E+03;
  2.5143906E-01;  9.9999998E-03; -3.0000576E-01;3971; -3.1717569E-03;  0.0000000E+00; -1.3004175E-04;  9.9601068E+02;  1.0000000E-01; -3.3050918E+03;3; -1.4125213E+01;  0.0000000E+00;  1.3966139E+01;0; -1.8792372E-02;  3.9660047E+04;  0.0000000E+00; -2.5539620E+00;  4.0000000E+04;  0.0000000E+00;  4.0023188E+04; -2.0077262E-02;  0.0000000E+00;  1.2848894E-03;  5.0469170E+03;
  2.5139824E-01;  9.9999998E-03; -2.9001644E-01;3972; -3.1957855E-03;  0.0000000E+00; -1.1977885E-04;  9.9698071E+02;  1.0000000E-01; -2.5014106E+03;3; -1.2431240E+01;  0.0000000E+00;  7.9500704E+00;0; -1.6993539E-02;  3.9748988E+04;  0.0000000E+00; -1.4267802E+00;  4.0000000E+04;  0.0000000E+00;  4.0015727E+04; -1.8112406E-02;  0.0000000E+00;  1.1188672E-03;  2.4825134E+03;
  2.5131774E-01;  9.9999998E-03; -2.8002527E-01;3973; -3.2319312E-03;  0.0000000E+00; -9.6849559E-05;  9.9776099E+02;  1.0000000E-01; -1.8549598E+03;3; -9.9605808E+00;  0.0000000E+00;  2.9285758E+00;0; -1.5664790E-02;  3.9820828E+04;  0.0000000E+00;  1.5773711E+00;  4.0000000E+04;  0.0000000E+00;  4.0008922E+04; -1.6439471E-02;  0.0000000E+00;  7.7468134E-04;  3.7725820E+03;
  2.6138300E-01;  9.9999998E-03; -3.0000198E-01;4032; -3.2406962E-03;  0.0000000E+00; -1.5206134E-04;  9.9719183E+02;  1.0000000E-01; -2.3265022E+03;3; -1.6338198E+01;  0.0000000E+00;  8.5888386E+00;0; -1.6714895E-02;  3.9763246E+04;  0.0000000E+00; -3.5355268E+00;  4.0000000E+04;  0.0000000E+00;  4.0018766E+04; -1.8254997E-02;  0.0000000E+00;  1.5401023E-03;  5.1293916E+03;
  2.6132992E-01;  9.9999998E-03; -2.9000872E-01;4033; -3.2920721E-03;  0.0000000E+00; -1.4780479E-04;  9.9790417E+02;  1.0000000E-01; -1.7363459E+03;3; -1.3524261E+01;  0.0000000E+00;  4.3237953E+00;0; -1.5240084E-02;  3.9828754E+04;  0.0000000E+00; -1.6618675E+00;  4.0000000E+04;  0.0000000E+00;  4.0012562E+04; -1.6661212E-02;  0.0000000E+00;  1.4211275E-03;  2.1852686E+03;
  2.6124075E-01;  9.9999998E-03; -2.8001314E-01;4034; -3.3626631E-03;  0.0000000E+00; -1.3343281E-04;  9.9842542E+02;  1.0000000E-01; -1.3045063E+03;3; -1.0424331E+01;  0.0000000E+00;  7.1149218E-01;0; -1.4205171E-02;  3.9877145E+04;  0.0000000E+00;  1.4099978E+00;  4.0000000E+04;  0.0000000E+00;  4.0008352E+04; -1.5315498E-02;  0.0000000E+00;  1.1103277E-03;  3.3826365E+03;
  2.7130327E-01;  9.9999998E-03; -2.9999954E-01;4093; -3.3358906E-03;  0.0000000E+00; -1.4934353E-04;  9.9819147E+02;  1.0000000E-01; -1.4983280E+03;3; -1.6021248E+01;  0.0000000E+00;  4.6751990E+00;0; -1.5125971E-02;  3.9852168E+04;  0.0000000E+00; -3.4753149E+00;  4.0000000E+04;  0.0000000E+00;  4.0013484E+04; -1.6579635E-02;  0.0000000E+00;  1.4536640E-03;  4.3823945E+03;
  2.7122736E-01;  9.9999998E-03; -2.9000333E-01;4094; -3.3930736E-03;  0.0000000E+00; -1.5593633E-04;  9.9867328E+02;  1.0000000E-01; -1.0991788E+03;3; -1.2705462E+01;  0.0000000E+00;  1.8561947E+00;0; -1.3796821E-02;  3.9896652E+04;  0.0000000E+00; -7.1018380E-01;  4.0000000E+04;  0.0000000E+00;  4.0009246E+04; -1.5277656E-02;  0.0000000E+00;  1.4808350E-03;  1.2753173E+03;
  2.7113250E-01;  9.9999998E-03; -2.8000453E-01;4095; -3.5118291E-03;  0.0000000E+00; -1.5168842E-04;  9.9896381E+02;  1.0000000E-01; -8.5844489E+02;3; -9.5128222E+00;  0.0000000E+00; -6.0812324E-01;0; -1.2975886E-02;  3.9923344E+04;  0.0000000E+00;  1.9787390E+00;  4.0000000E+04;  0.0000000E+00;  4.0007094E+04; -1.4242928E-02;  0.0000000E+00;  1.2670431E-03;  3.8933582E+03;
  2.8117165E-01;  9.9999998E-03; -2.9999816E-01;4154; -3.4194735E-03;  0.0000000E+00; -1.3273626E-04;  9.9897931E+02;  1.0000000E-01; -8.4560571E+02;3; -1.3853567E+01;  0.0000000E+00;  2.1820953E+00;0; -1.3836698E-02;  3.9924141E+04;  0.0000000E+00; -1.8992615E+00;  4.0000000E+04;  0.0000000E+00;  4.0008230E+04; -1.4984367E-02;  0.0000000E+00;  1.1476695E-03;  2.0881748E+03;
  2.8108799E-01;  9.9999998E-03; -2.8999949E-01;4155; -3.5349319E-03;  0.0000000E+00; -1.4920074E-04;  9.9923059E+02;  1.0000000E-01; -6.3746344E+02;3; -1.0587816E+01;  0.0000000E+00;  3.3262241E-01;0; -1.2695500E-02;  3.9946656E+04;  0.0000000E+00;  8.0548686E-01;  4.0000000E+04;  0.0000000E+00;  4.0006496E+04; -1.4027257E-02;  0.0000000E+00;  1.3317566E-03;  2.1669495E+03;
  2.8101048E-01;  9.9999998E-03; -2.7999851E-01;4156; -3.6974961E-03;  0.0000000E+00; -1.4694862E-04;  9.9931689E+02;  1.0000000E-01; -5.6595929E+02;3; -7.6946354E+00;  0.0000000E+00; -1.2033964E+00;0; -1.2096155E-02;  3.9953496E+04;  0.0000000E+00;  2.3949010E+00;  4.0000000E+04;  0.0000000E+00;  4.0006820E+04; -1.3240481E-02;  0.0000000E+00;  1.1443257E-03;  4.1895396E+03;
  2.9102442E-01;  9.9999998E-03; -2.9999661E-01;4215; -3.6165563E-03;  0.0000000E+00; -1.1352648E-04;  9.9945166E+02;  1.0000000E-01; -4.5430814E+02;3; -1.0568336E+01;  0.0000000E+00;  6.4112139E-01;0; -1.2838349E-02;  3.9967953E+04;  0.0000000E+00; -7.8962380E-01;  4.0000000E+04;  0.0000000E+00;  4.0005555E+04; -1.3644048E-02;  0.0000000E+00;  8.0569903E-04;  8.3092157E+02;
  2.9096428E-01;  9.9999998E-03; -2.8999627E-01;4216; -3.7559567E-03;  0.0000000E+00; -1.3001806E-04;  9.9950250E+02;  1.0000000E-01; -4.1218588E+02;3; -7.7760816E+00;  0.0000000E+00; -4.4910061E-01;0; -1.1907364E-02;  3.9970965E+04;  0.0000000E+00;  1.0437092E+00;  4.0000000E+04;  0.0000000E+00;  4.0005945E+04; -1.2904981E-02;  0.0000000E+00;  9.9761714E-04;  2.1900808E+03;
  2.9090688E-01;  9.9999998E-03; -2.7999440E-01;4217; -3.8912864E-03;  0.0000000E+00; -1.3044207E-04;  9.9945428E+02;  1.0000000E-01; -4.5213538E+02;3; -5.4669075E+00;  0.0000000E+00; -1.2347817E+00;0; -1.1406363E-02;  3.9964918E+04;  0.0000000E+00;  1.9472746E+00;  4.0000000E+04;  0.0000000E+00;  4.0006738E+04; -1.2273109E-02;  0.0000000E+00;  8.6674554E-04;  3.3429929E+03;
  3.0095226E-01;  9.9999998E-03; -2.9999465E-01;4276; -3.8771902E-03;  0.0000000E+00; -8.8706896E-05;  9.9956775E+02;  1.0000000E-01; -3.5811334E+02;3; -6.9363456E+00;  0.0000000E+00; -6.4380981E-02;0; -1.1996890E-02;  3.9978578E+04;  0.0000000E+00; -1.5444291E+00;  4.0000000E+04;  0.0000000E+00;  4.0005312E+04; -1.2392031E-02;  0.0000000E+00;  3.9514067E-04;  1.8533527E+03;
  3.0091196E-01;  9.9999998E-03; -2.8999382E-01;4277; -3.9636604E-03;  0.0000000E+00; -1.0649220E-04;  9.9951550E+02;  1.0000000E-01; -4.0142075E+02;3; -4.9195333E+00;  0.0000000E+00; -5.9712547E-01;0; -1.1193379E-02;  3.9971602E+04;  0.0000000E+00; -9.3578517E-02;  4.0000000E+04;  0.0000000E+00;  4.0006156E+04; -1.1805324E-02;  0.0000000E+00;  6.1194500E-04;  8.2480609E+02;
  3.0087000E-01;  9.9999998E-03; -2.7999204E-01;4278; -4.0478101E-03;  0.0000000E+00; -1.1635886E-04;  9.9941370E+02;  1.0000000E-01; -4.8576404E+02;3; -3.3253644E+00;  0.0000000E+00; -9.1918594E-01;0; -1.0698276E-02;  3.9960840E+04;  0.0000000E+00;  6.7280251E-01;  4.0000000E+04;  0.0000000E+00;  4.0007156E+04; -1.1334793E-02;  0.0000000E+00;  6.3651719E-04;  1.5696001E+03;
  3.1097862E-01;  9.9999998E-03; -2.9999298E-01;4337; -4.0433202E-03;  0.0000000E+00; -6.8059868E-05;  9.9944788E+02;  1.0000000E-01; -4.5741916E+02;3; -3.7958689E+00;  0.0000000E+00; -1.6567214E-01;0; -1.1051618E-02;  3.9967289E+04;  0.0000000E+00; -2.5647569E+00;  4.0000000E+04;  0.0000000E+00;  4.0006371E+04; -1.1152142E-02;  0.0000000E+00;  1.0052416E-04;  3.4796504E+03;
  3.1092978E-01;  9.9999998E-03; -2.8999236E-01;4338; -4.0927297E-03;  0.0000000E+00; -8.7143169E-05;  9.9936774E+02;  1.0000000E-01; -5.2383704E+02;3; -2.5713518E+00;  0.0000000E+00; -3.8606378E-01;0; -1.0429325E-02;  3.9958109E+04;  0.0000000E+00; -1.1450837E+00;  4.0000000E+04;  0.0000000E+00;  4.0007738E+04; -1.0762548E-02;  0.0000000E+00;  3.3322323E-04;  1.7240710E+03;
  3.1088358E-01;  9.9999998E-03; -2.7999118E-01;4339; -4.1524391E-03;  0.0000000E+00; -1.0139742E-04;  9.9926953E+02;  1.0000000E-01; -6.0516809E+02;3; -1.6251708E+00;  0.0000000E+00; -4.8853627E-01;0; -1.0041922E-02;  3.9947344E+04;  0.0000000E+00; -2.8344181E-01;  4.0000000E+04;  0.0000000E+00;  4.0008688E+04; -1.0469982E-02;  0.0000000E+00;  4.2805966E-04;  1.1529130E+03;
  3.2092682E-01;  9.9999998E-03; -2.7999160E-01;4400; -4.2212885E-03;  0.0000000E+00; -8.3169150E-05;  9.9909430E+02;  1.0000000E-01; -7.5034912E+02;3; -4.8279408E-01;  0.0000000E+00; -1.1790077E-01;0; -9.5036943E-03;  3.9930605E+04;  0.0000000E+00; -5.7048225E-01;  4.0000000E+04;  0.0000000E+00;  4.0010086E+04; -9.7196605E-03;  0.0000000E+00;  2.1596620E-04;  1.4971431E+03;
  3.2095334E-01;  9.9999998E-03; -2.8999206E-01;4399; -4.1616512E-03;  0.0000000E+00; -6.3849424E-05;  9.9916980E+02;  1.0000000E-01; -6.8778302E+02;3; -9.6905696E-01;  0.0000000E+00; -9.9070638E-02;0; -9.8216906E-03;  3.9939211E+04;  0.0000000E+00; -1.2219287E+00;  4.0000000E+04;  0.0000000E+00;  4.0009000E+04; -9.8649217E-03;  0.0000000E+00;  4.3231426E-05;  2.0210717E+03;
  3.2098076E-01;  9.9999998E-03; -2.9999223E-01;4398; -4.1107731E-03;  0.0000000E+00; -4.1811272E-05;  9.9924963E+02;  1.0000000E-01; -6.2166144E+02;3; -1.6113136E+00;  0.0000000E+00; -1.6852776E-02;0; -1.0302505E-02;  3.9948133E+04;  0.0000000E+00; -2.1433675E+00;  4.0000000E+04;  0.0000000E+00;  4.0008125E+04; -1.0073831E-02;  0.0000000E+00; -2.2867312E-04;  3.1019836E+03;
  3.3099052E-01;  9.9999998E-03; -2.9999217E-01;4459; -4.1394294E-03;  0.0000000E+00; -1.0531394E-05;  9.9901642E+02;  1.0000000E-01; -8.1489050E+02;3; -3.1213358E-01;  0.0000000E+00;  1.4553608E-01;0; -9.8087518E-03;  3.9925305E+04;  0.0000000E+00; -1.4033358E+00;  4.0000000E+04;  0.0000000E+00;  4.0010047E+04; -9.2239035E-03;  0.0000000E+00; -5.8484828E-04;  2.3518638E+03;
  3.3097261E-01;  9.9999998E-03; -2.8999257E-01;4460; -4.2035552E-03;  0.0000000E+00; -3.6539004E-05;  9.9896320E+02;  1.0000000E-01; -8.5898804E+02;3; -3.5373379E-02;  0.0000000E+00;  1.2096409E-01;0; -9.3986997E-03;  3.9919051E+04;  0.0000000E+00; -8.1700015E-01;  4.0000000E+04;  0.0000000E+00;  4.0010633E+04; -9.1413036E-03;  0.0000000E+00; -2.5739655E-04;  1.8042863E+03;
  3.3096027E-01;  9.9999998E-03; -2.7999297E-01;4461; -4.2724097E-03;  0.0000000E+00; -6.2683794E-05;  9.9893073E+02;  1.0000000E-01; -8.8585150E+02;3;  1.6989109E-01;  0.0000000E+00;  1.2448157E-01;0; -9.0788892E-03;  3.9914410E+04;  0.0000000E+00; -3.4959126E-01;  4.0000000E+04;  0.0000000E+00;  4.0010980E+04; -9.0962173E-03;  0.0000000E+00;  1.7328417E-05;  1.5475087E+03;
  3.4103075E-01;  9.9999998E-03; -2.9999268E-01;4520; -4.1558780E-03;  0.0000000E+00;  2.4747291E-05;  9.9879865E+02;  1.0000000E-01; -9.9528052E+02;3;  3.3187923E-01;  0.0000000E+00;  2.5031754E-01;0; -9.5329480E-03;  3.9903445E+04;  0.0000000E+00; -7.7381200E-01;  4.0000000E+04;  0.0000000E+00;  4.0012039E+04; -8.5827820E-03;  0.0000000E+00; -9.5016568E-04;  1.9210591E+03;
  3.4102392E-01;  9.9999998E-03; -2.8999376E-01;4521; -4.2385454E-03;  0.0000000E+00; -1.4993053E-06;  9.9878760E+02;  1.0000000E-01; -1.0044654E+03;3;  4.2014214E-01;  0.0000000E+00;  2.4476604E-01;0; -9.2010312E-03;  3.9900762E+04;  0.0000000E+00; -4.0887585E-01;  4.0000000E+04;  0.0000000E+00;  4.0012402E+04; -8.5722720E-03;  0.0000000E+00; -6.2875875E-04;  1.7084612E+03;
  3.4102982E-01;  9.9999998E-03; -2.7999493E-01;4522; -4.3198969E-03;  0.0000000E+00; -2.7526741E-05;  9.9879419E+02;  1.0000000E-01; -9.9898407E+02;3;  4.8382670E-01;  0.0000000E+00;  2.4565038E-01;0; -8.9325970E-03;  3.9900586E+04;  0.0000000E+00; -7.9981431E-02;  4.0000000E+04;  0.0000000E+00;  4.0012297E+04; -8.5833641E-03;  0.0000000E+00; -3.4923336E-04;  1.6172192E+03;
  3.5107914E-01;  9.9999998E-03; -2.9999354E-01;4581; -4.1800337E-03;  0.0000000E+00;  6.0238101E-05;  9.9862579E+02;  1.0000000E-01; -1.1384863E+03;3;  5.8431470E-01;  0.0000000E+00;  2.9892606E-01;0; -9.3597705E-03;  3.9885438E+04;  0.0000000E+00; -3.9058673E-01;  4.0000000E+04;  0.0000000E+00;  4.0013852E+04; -8.0989301E-03;  0.0000000E+00; -1.2608405E-03;  1.8818811E+03;
  3.5107359E-01;  9.9999998E-03; -2.8999522E-01;4582; -4.2795930E-03;  0.0000000E+00;  3.2551085E-05;  9.9865283E+02;  1.0000000E-01; -1.1161166E+03;3;  5.9726137E-01;  0.0000000E+00;  2.9706344E-01;0; -9.0534519E-03;  3.9886719E+04;  0.0000000E+00; -1.4616157E-01;  4.0000000E+04;  0.0000000E+00;  4.0013258E+04; -8.1214337E-03;  0.0000000E+00; -9.3201821E-04;  1.7832120E+03;
  3.5110137E-01;  9.9999998E-03; -2.7999711E-01;4583; -4.3717111E-03;  0.0000000E+00;  7.6719698E-06;  9.9870227E+02;  1.0000000E-01; -1.0751301E+03;3;  6.0489875E-01;  0.0000000E+00;  2.9425809E-01;0; -8.8278167E-03;  3.9890316E+04;  0.0000000E+00;  7.9463892E-02;  4.0000000E+04;  0.0000000E+00;  4.0013008E+04; -8.1567951E-03;  0.0000000E+00; -6.7102135E-04;  1.7149561E+03;
  3.6113858E-01;  9.9999998E-03; -2.9999465E-01;4642; -4.2248918E-03;  0.0000000E+00;  9.4600015E-05;  9.9851306E+02;  1.0000000E-01; -1.2319158E+03;3;  6.5803242E-01;  0.0000000E+00;  3.1866741E-01;0; -9.2086904E-03;  3.9872594E+04;  0.0000000E+00; -2.5220037E-01;  4.0000000E+04;  0.0000000E+00;  4.0014414E+04; -7.7109062E-03;  0.0000000E+00; -1.4977842E-03;  1.9727140E+03;
  3.6114788E-01;  9.9999998E-03; -2.8999671E-01;4643; -4.3347557E-03;  0.0000000E+00;  6.4932188E-05;  9.9856873E+02;  1.0000000E-01; -1.1857936E+03;3;  6.5171015E-01;  0.0000000E+00;  3.1606060E-01;0; -8.9020571E-03;  3.9876773E+04;  0.0000000E+00; -7.7548727E-02;  4.0000000E+04;  0.0000000E+00;  4.0013938E+04; -7.7439966E-03;  0.0000000E+00; -1.1580604E-03;  1.8784287E+03;
  3.6116681E-01;  9.9999998E-03; -2.7999902E-01;4644; -4.4329371E-03;  0.0000000E+00;  3.8838385E-05;  9.9864630E+02;  1.0000000E-01; -1.1214991E+03;3;  6.4546305E-01;  0.0000000E+00;  3.1276619E-01;0; -8.6787371E-03;  3.9883211E+04;  0.0000000E+00;  9.2063382E-02;  4.0000000E+04;  0.0000000E+00;  4.0013074E+04; -7.7870679E-03;  0.0000000E+00; -8.9166925E-04;  1.7825598E+03;
  3.7113205E-01;  9.9999998E-03; -2.9999560E-01;4703; -4.2942939E-03;  0.0000000E+00;  1.2667270E-04;  9.9844153E+02;  1.0000000E-01; -1.2911733E+03;3;  6.8083304E-01;  0.0000000E+00;  3.2667938E-01;0; -9.0230228E-03;  3.9863922E+04;  0.0000000E+00; -2.1885337E-01;  4.0000000E+04;  0.0000000E+00;  4.0015078E+04; -7.3695714E-03;  0.0000000E+00; -1.6534516E-03;  2.0562859E+03;
  3.7116808E-01;  9.9999998E-03; -2.8999799E-01;4704; -4.4059674E-03;  0.0000000E+00;  9.6000273E-05;  9.9852203E+02;  1.0000000E-01; -1.2244592E+03;3;  6.7379689E-01;  0.0000000E+00;  3.2572851E-01;0; -8.7255081E-03;  3.9870504E+04;  0.0000000E+00; -8.8561878E-02;  4.0000000E+04;  0.0000000E+00;  4.0014289E+04; -7.4050282E-03;  0.0000000E+00; -1.3204796E-03;  1.9397378E+03;
  3.7120596E-01;  9.9999998E-03; -2.8000048E-01;4705; -4.5049661E-03;  0.0000000E+00;  6.8856432E-05;  9.9861694E+02;  1.0000000E-01; -1.1458441E+03;3;  6.6743124E-01;  0.0000000E+00;  3.2342768E-01;0; -8.5060764E-03;  3.9878863E+04;  0.0000000E+00;  3.8557332E-02;  4.0000000E+04;  0.0000000E+00;  4.0013551E+04; -7.4486444E-03;  0.0000000E+00; -1.0574317E-03;  1.8174850E+03;
  3.8113320E-01;  9.9999998E-03; -2.9999635E-01;4764; -4.3846024E-03;  0.0000000E+00;  1.5784385E-04;  9.9840192E+02;  1.0000000E-01; -1.3239625E+03;3;  6.9922727E-01;  0.0000000E+00;  3.3253857E-01;0; -8.7909885E-03;  3.9858516E+04;  0.0000000E+00; -2.0671503E-01;  4.0000000E+04;  0.0000000E+00;  4.0015707E+04; -7.0385016E-03;  0.0000000E+00; -1.7524868E-03;  2.1070173E+03;
  3.8117412E-01;  9.9999998E-03; -2.8999883E-01;4765; -4.4904528E-03;  0.0000000E+00;  1.2674188E-04;  9.9849481E+02;  1.0000000E-01; -1.2470265E+03;3;  6.9340479E-01;  0.0000000E+00;  3.3340657E-01;0; -8.5151345E-03;  3.9866500E+04;  0.0000000E+00; -1.1355165E-01;  4.0000000E+04;  0.0000000E+00;  4.0014320E+04; -7.0768707E-03;  0.0000000E+00; -1.4382643E-03;  1.9803448E+03;
  3.8121089E-01;  9.9999998E-03; -2.8000140E-01;4766; -4.5856708E-03;  0.0000000E+00;  9.8370067E-05;  9.9860272E+02;  1.0000000E-01; -1.1575969E+03;3;  6.8819737E-01;  0.0000000E+00;  3.3125553E-01;0; -8.3039682E-03;  3.9875875E+04;  0.0000000E+00; -2.0968642E-02;  4.0000000E+04;  0.0000000E+00;  4.0013949E+04; -7.1223052E-03;  0.0000000E+00; -1.1816634E-03;  1.8391593E+03;
  3.9115039E-01;  9.9999998E-03; -2.9999682E-01;4825; -4.4872286E-03;  0.0000000E+00;  1.8943976E-04;  9.9838446E+02;  1.0000000E-01; -1.3384313E+03;3;  7.1675700E-01;  0.0000000E+00;  3.3983612E-01;0; -8.5139358E-03;  3.9855094E+04;  0.0000000E+00; -1.8695702E-01;  4.0000000E+04;  0.0000000E+00;  4.0015723E+04; -6.6969506E-03;  0.0000000E+00; -1.8169850E-03;  2.1295691E+03;
  3.9118838E-01;  9.9999998E-03; -2.8999931E-01;4826; -4.5825453E-03;  0.0000000E+00;  1.5779851E-04;  9.9848389E+02;  1.0000000E-01; -1.2560632E+03;3;  7.1239036E-01;  0.0000000E+00;  3.3932933E-01;0; -8.2641412E-03;  3.9863727E+04;  0.0000000E+00; -1.2976676E-01;  4.0000000E+04;  0.0000000E+00;  4.0014566E+04; -6.7406264E-03;  0.0000000E+00; -1.5235150E-03;  1.9997013E+03;
  3.9122009E-01;  9.9999998E-03; -2.8000176E-01;4827; -4.6713455E-03;  0.0000000E+00;  1.2815182E-04;  9.9859491E+02;  1.0000000E-01; -1.1641152E+03;3;  7.0823544E-01;  0.0000000E+00;  3.3808810E-01;0; -8.0663878E-03;  3.9873645E+04;  0.0000000E+00; -7.1442641E-02;  4.0000000E+04;  0.0000000E+00;  4.0014152E+04; -6.7909965E-03;  0.0000000E+00; -1.2753912E-03;  1.8561813E+03;
  4.0116075E-01;  9.9999998E-03; -2.9999697E-01;4886; -4.5921779E-03;  0.0000000E+00;  2.2314752E-04;  9.9837195E+02;  1.0000000E-01; -1.3488014E+03;3;  7.3347515E-01;  0.0000000E+00;  3.4507367E-01;0; -8.2118753E-03;  3.9853180E+04;  0.0000000E+00; -1.6759938E-01;  4.0000000E+04;  0.0000000E+00;  4.0016012E+04; -6.3307914E-03;  0.0000000E+00; -1.8810843E-03;  2.1480496E+03;
  4.0119284E-01;  9.9999998E-03; -2.8999943E-01;4887; -4.6753706E-03;  0.0000000E+00;  1.9047136E-04;  9.9847809E+02;  1.0000000E-01; -1.2608533E+03;3;  7.3045862E-01;  0.0000000E+00;  3.4465864E-01;0; -7.9816859E-03;  3.9862113E+04;  0.0000000E+00; -1.3965562E-01;  4.0000000E+04;  0.0000000E+00;  4.0014887E+04; -6.3829715E-03;  0.0000000E+00; -1.5987140E-03;  2.0117626E+03;
  4.0121508E-01;  9.9999998E-03; -2.8000173E-01;4888; -4.7569079E-03;  0.0000000E+00;  1.5880578E-04;  9.9858740E+02;  1.0000000E-01; -1.1702878E+03;3;  7.2785956E-01;  0.0000000E+00;  3.4301957E-01;0; -7.7923760E-03;  3.9872016E+04;  0.0000000E+00; -1.0861500E-01;  4.0000000E+04;  0.0000000E+00;  4.0014098E+04; -6.4425673E-03;  0.0000000E+00; -1.3498084E-03;  1.8730171E+03;
  4.1115856E-01;  9.9999998E-03; -2.9999706E-01;4947; -4.6897759E-03;  0.0000000E+00;  2.5999465E-04;  9.9837305E+02;  1.0000000E-01; -1.3479125E+03;3;  7.4947929E-01;  0.0000000E+00;  3.4819975E-01;0; -7.8947069E-03;  3.9852176E+04;  0.0000000E+00; -1.5412499E-01;  4.0000000E+04;  0.0000000E+00;  4.0016047E+04; -5.9330040E-03;  0.0000000E+00; -1.9617027E-03;  2.1501086E+03;
  4.1119257E-01;  9.9999998E-03; -2.8999937E-01;4948; -4.7622044E-03;  0.0000000E+00;  2.2595495E-04;  9.9847290E+02;  1.0000000E-01; -1.2651494E+03;3;  7.4793732E-01;  0.0000000E+00;  3.4871241E-01;0; -7.6799882E-03;  3.9860996E+04;  0.0000000E+00; -1.5549111E-01;  4.0000000E+04;  0.0000000E+00;  4.0014867E+04; -5.9966999E-03;  0.0000000E+00; -1.6832881E-03;  2.0238058E+03;
  4.1121551E-01;  9.9999998E-03; -2.8000152E-01;4949; -4.8375065E-03;  0.0000000E+00;  1.9196128E-04;  9.9858276E+02;  1.0000000E-01; -1.1741396E+03;3;  7.4679083E-01;  0.0000000E+00;  3.4724897E-01;0; -7.4965102E-03;  3.9870938E+04;  0.0000000E+00; -1.4673492E-01;  4.0000000E+04;  0.0000000E+00;  4.0014031E+04; -6.0693631E-03;  0.0000000E+00; -1.4271472E-03;  1.8854597E+03;
  4.2115769E-01;  9.9999998E-03; -2.9999709E-01;5008; -4.7718887E-03;  0.0000000E+00;  3.0036864E-04;  9.9838300E+02;  1.0000000E-01; -1.3396658E+03;3;  7.6491410E-01;  0.0000000E+00;  3.5020977E-01;0; -7.5675910E-03;  3.9852500E+04;  0.0000000E+00; -1.1117990E-01;  4.0000000E+04;  0.0000000E+00;  4.0015949E+04; -5.5046626E-03;  0.0000000E+00; -2.0629286E-03;  2.1378271E+03;
  4.2120251E-01;  9.9999998E-03; -2.8999931E-01;5009; -4.8371004E-03;  0.0000000E+00;  2.6501025E-04;  9.9847913E+02;  1.0000000E-01; -1.2600138E+03;3;  7.6484835E-01;  0.0000000E+00;  3.5100099E-01;0; -7.3700156E-03;  3.9861215E+04;  0.0000000E+00; -1.5427093E-01;  4.0000000E+04;  0.0000000E+00;  4.0014848E+04; -5.5822260E-03;  0.0000000E+00; -1.7877899E-03;  2.0173645E+03;
  4.2123225E-01;  9.9999998E-03; -2.8000134E-01;5010; -4.9085156E-03;  0.0000000E+00;  2.2833553E-04;  9.9858624E+02;  1.0000000E-01; -1.1712755E+03;3;  7.6527846E-01;  0.0000000E+00;  3.5073429E-01;0; -7.1873590E-03;  3.9870785E+04;  0.0000000E+00; -1.7522869E-01;  4.0000000E+04;  0.0000000E+00;  4.0014102E+04; -5.6711677E-03;  0.0000000E+00; -1.5161911E-03;  1.8852321E+03;
  4.3117651E-01;  9.9999998E-03; -2.9999724E-01;5069; -4.8327902E-03;  0.0000000E+00;  3.4488062E-04;  9.9841095E+02;  1.0000000E-01; -1.3165060E+03;3;  7.7982801E-01;  0.0000000E+00;  3.4963778E-01;0; -7.2469264E-03;  3.9854512E+04;  0.0000000E+00; -1.5156662E-02;  4.0000000E+04;  0.0000000E+00;  4.0015676E+04; -5.0544809E-03;  0.0000000E+00; -2.1924453E-03;  2.1008416E+03;
  4.3122673E-01;  9.9999998E-03; -2.8999940E-01;5070; -4.8956182E-03;  0.0000000E+00;  3.0803811E-04;  9.9850397E+02;  1.0000000E-01; -1.2394218E+03;3;  7.8129119E-01;  0.0000000E+00;  3.5063970E-01;0; -7.0642047E-03;  3.9863086E+04;  0.0000000E+00; -1.1146069E-01;  4.0000000E+04;  0.0000000E+00;  4.0014773E+04; -5.1478883E-03;  0.0000000E+00; -1.9163162E-03;  1.9797855E+03;
  4.3126008E-01;  9.9999998E-03; -2.8000131E-01;5071; -4.9663037E-03;  0.0000000E+00;  2.6804444E-04;  9.9860590E+02;  1.0000000E-01; -1.1549797E+03;3;  7.8329790E-01;  0.0000000E+00;  3.5062161E-01;0; -6.8742717E-03;  3.9872652E+04;  0.0000000E+00; -1.7043887E-01;  4.0000000E+04;  0.0000000E+00;  4.0013863E+04; -5.2553252E-03;  0.0000000E+00; -1.6189462E-03;  1.8570443E+03;
  4.4122663E-01;  9.9999998E-03; -2.9999748E-01;5130; -4.8711961E-03;  0.0000000E+00;  3.9366333E-04;  9.9845587E+02;  1.0000000E-01; -1.2792725E+03;3;  7.8979677E-01;  0.0000000E+00;  3.4669673E-01;0; -6.9455020E-03;  3.9859094E+04;  0.0000000E+00;  1.1483621E-01;  4.0000000E+04;  0.0000000E+00;  4.0015164E+04; -4.5968629E-03;  0.0000000E+00; -2.3486388E-03;  2.0525762E+03;
  4.4127318E-01;  9.9999998E-03; -2.8999960E-01;5131; -4.9366094E-03;  0.0000000E+00;  3.5444918E-04;  9.9854535E+02;  1.0000000E-01; -1.2051511E+03;3;  7.9411942E-01;  0.0000000E+00;  3.4943587E-01;0; -6.7642704E-03;  3.9866980E+04;  0.0000000E+00; -3.3220068E-02;  4.0000000E+04;  0.0000000E+00;  4.0014309E+04; -4.7070305E-03;  0.0000000E+00; -2.0572396E-03;  1.9204955E+03;
  4.4130376E-01;  9.9999998E-03; -2.8000158E-01;5132; -5.0095548E-03;  0.0000000E+00;  3.1170170E-04;  9.9864850E+02;  1.0000000E-01; -1.1196720E+03;3;  7.9839724E-01;  0.0000000E+00;  3.5111868E-01;0; -6.5748217E-03;  3.9876590E+04;  0.0000000E+00; -1.3114223E-01;  4.0000000E+04;  0.0000000E+00;  4.0013332E+04; -4.8337085E-03;  0.0000000E+00; -1.7411130E-03;  1.7919763E+03;
  4.5131853E-01;  9.9999998E-03; -2.9999793E-01;5191; -4.8873168E-03;  0.0000000E+00;  4.4618850E-04;  9.9852368E+02;  1.0000000E-01; -1.2231259E+03;3;  8.0277580E-01;  0.0000000E+00;  3.4242192E-01;0; -6.6683441E-03;  3.9865473E+04;  0.0000000E+00;  2.4557795E-01;  4.0000000E+04;  0.0000000E+00;  4.0014477E+04; -4.1479357E-03;  0.0000000E+00; -2.5204085E-03;  1.9895674E+03;
  4.5135337E-01;  9.9999998E-03; -2.9000005E-01;5192; -4.9600629E-03;  0.0000000E+00;  4.0475174E-04;  9.9860840E+02;  1.0000000E-01; -1.1529056E+03;3;  8.0854505E-01;  0.0000000E+00;  3.4661904E-01;0; -6.4905742E-03;  3.9873203E+04;  0.0000000E+00;  5.9892736E-02;  4.0000000E+04;  0.0000000E+00;  4.0013484E+04; -4.2744703E-03;  0.0000000E+00; -2.2161042E-03;  1.8386294E+03;
  4.5137233E-01;  9.9999998E-03; -2.8000206E-01;5193; -5.0383746E-03;  0.0000000E+00;  3.5972489E-04;  9.9870819E+02;  1.0000000E-01; -1.0702413E+03;3;  8.1335378E-01;  0.0000000E+00;  3.4880751E-01;0; -6.3074580E-03;  3.9882316E+04;  0.0000000E+00; -6.9515958E-02;  4.0000000E+04;  0.0000000E+00;  4.0012773E+04; -4.4197179E-03;  0.0000000E+00; -1.8877400E-03;  1.7033729E+03;
  4.6140590E-01;  9.9999998E-03; -2.9999837E-01;5252; -4.8836437E-03;  0.0000000E+00;  5.0156686E-04;  9.9859381E+02;  1.0000000E-01; -1.1650040E+03;3;  8.1788421E-01;  0.0000000E+00;  3.3609378E-01;0; -6.4175883E-03;  3.9872504E+04;  0.0000000E+00;  3.4872463E-01;  4.0000000E+04;  0.0000000E+00;  4.0013836E+04; -3.7235871E-03;  0.0000000E+00; -2.6940010E-03;  1.9321960E+03;
  4.6142712E-01;  9.9999998E-03; -2.9000056E-01;5253; -4.9681650E-03;  0.0000000E+00;  4.5865192E-04;  9.9868085E+02;  1.0000000E-01; -1.0929073E+03;3;  8.2226419E-01;  0.0000000E+00;  3.4062320E-01;0; -6.2549487E-03;  3.9880113E+04;  0.0000000E+00;  1.4981052E-01;  4.0000000E+04;  0.0000000E+00;  4.0012953E+04; -3.8648697E-03;  0.0000000E+00; -2.3900792E-03;  1.7530878E+03;
  4.6143624E-01;  9.9999998E-03; -2.8000262E-01;5254; -5.0546979E-03;  0.0000000E+00;  4.1183576E-04;  9.9877661E+02;  1.0000000E-01; -1.0135516E+03;3;  8.3018237E-01;  0.0000000E+00;  3.4328932E-01;0; -6.0820524E-03;  3.9888688E+04;  0.0000000E+00;  2.7591779E-03;  4.0000000E+04;  0.0000000E+00;  4.0011902E+04; -4.0263277E-03;  0.0000000E+00; -2.0557246E-03;  1.6073149E+03;
  4.7143883E-01;  9.9999998E-03; -2.9999870E-01;5313; -4.8670988E-03;  0.0000000E+00;  5.6086795E-04;  9.9865228E+02;  1.0000000E-01; -1.1165610E+03;3;  8.3455664E-01;  0.0000000E+00;  3.2704586E-01;0; -6.2255571E-03;  3.9878168E+04;  0.0000000E+00;  3.8325259E-01;  4.0000000E+04;  0.0000000E+00;  4.0013477E+04; -3.3330200E-03;  0.0000000E+00; -2.8925370E-03;  1.8707253E+03;
  4.7144786E-01;  9.9999998E-03; -2.9000089E-01;5314; -4.9659810E-03;  0.0000000E+00;  5.1699777E-04;  9.9873376E+02;  1.0000000E-01; -1.0490568E+03;3;  8.3897555E-01;  0.0000000E+00;  3.3235344E-01;0; -6.0829511E-03;  3.9885531E+04;  0.0000000E+00;  2.0214976E-01;  4.0000000E+04;  0.0000000E+00;  4.0012395E+04; -3.4869828E-03;  0.0000000E+00; -2.5959681E-03;  1.6933757E+03;
  4.7145048E-01;  9.9999998E-03; -2.8000304E-01;5315; -5.0623850E-03;  0.0000000E+00;  4.7157923E-04;  9.9882745E+02;  1.0000000E-01; -9.7142932E+02;3;  8.4673685E-01;  0.0000000E+00;  3.3549520E-01;0; -5.9598675E-03;  3.9893824E+04;  0.0000000E+00;  5.9894178E-02;  4.0000000E+04;  0.0000000E+00;  4.0011504E+04; -3.6617937E-03;  0.0000000E+00; -2.2980738E-03;  1.5351287E+03;
  4.8141488E-01;  9.9999998E-03; -2.9999867E-01;5374; -4.8456280E-03;  0.0000000E+00;  6.2206475E-04;  9.9867584E+02;  1.0000147E-01; -1.0970554E+03;3;  8.5626298E-01;  0.0000000E+00;  3.1441641E-01;0; -6.0576536E-03;  3.9879805E+04;  0.0000000E+00;  3.3540234E-01;  4.0000000E+04;  0.0000000E+00;  4.0012969E+04; -2.9751121E-03;  0.0000000E+00; -3.0825417E-03;  1.8220812E+03;
  4.8141828E-01;  9.9999998E-03; -2.9000092E-01;5375; -4.9603446E-03;  0.0000000E+00;  5.7796040E-04;  9.9875745E+02;  1.0000147E-01; -1.0294524E+03;3;  8.5742503E-01;  0.0000000E+00;  3.2137546E-01;0; -5.9446576E-03;  3.9887203E+04;  0.0000000E+00;  1.9366157E-01;  4.0000000E+04;  0.0000000E+00;  4.0012285E+04; -3.1399729E-03;  0.0000000E+00; -2.8046847E-03;  1.6602222E+03;
  4.8141554E-01;  9.9999998E-03; -2.8000319E-01;5376; -5.0667492E-03;  0.0000000E+00;  5.3385703E-04;  9.9885040E+02;  1.0000148E-01; -9.5241748E+02;3;  8.6380351E-01;  0.0000000E+00;  3.2545504E-01;0; -5.8671562E-03;  3.9895355E+04;  0.0000000E+00;  7.5515181E-02;  4.0000000E+04;  0.0000000E+00;  4.0011246E+04; -3.3256917E-03;  0.0000000E+00; -2.5414645E-03;  1.5012427E+03;
  4.9138328E-01;  9.9999998E-03; -2.8000265E-01;5437; -5.0730999E-03;  0.0000000E+00;  5.9534749E-04;  9.9880920E+02;  1.0000204E-01; -9.8653998E+02;3;  8.8156629E-01;  0.0000000E+00;  3.1319085E-01;0; -5.7441890E-03;  3.9891445E+04;  0.0000000E+00;  3.8652223E-02;  4.0000000E+04;  0.0000000E+00;  4.0011723E+04; -3.0097347E-03;  0.0000000E+00; -2.7344543E-03;  1.5580568E+03;
  4.9138334E-01;  9.9999998E-03; -2.9000038E-01;5436; -4.9579092E-03;  0.0000000E+00;  6.3925574E-04;  9.9871710E+02;  1.0000199E-01; -1.0628341E+03;3;  8.7625247E-01;  0.0000000E+00;  3.0853748E-01;0; -5.7900180E-03;  3.9883102E+04;  0.0000000E+00;  1.1963154E-01;  4.0000000E+04;  0.0000000E+00;  4.0012691E+04; -2.8148082E-03;  0.0000000E+00; -2.9752098E-03;  1.7055228E+03;
  4.9138492E-01;  9.9999998E-03; -2.9999810E-01;5435; -4.8296587E-03;  0.0000000E+00;  6.8418682E-04;  9.9863043E+02;  1.0000207E-01; -1.1346840E+03;3;  8.7781024E-01;  0.0000000E+00;  2.9931787E-01;0; -5.8823125E-03;  3.9875598E+04;  0.0000000E+00;  2.1024060E-01;  4.0000000E+04;  0.0000000E+00;  4.0013684E+04; -2.6396976E-03;  0.0000000E+00; -3.2426147E-03;  1.8482375E+03;
  5.0147283E-01;  9.9999998E-03; -2.9999709E-01;5496; -4.8283972E-03;  0.0000000E+00;  7.4929668E-04;  9.9852820E+02;  1.0000388E-01; -1.2193729E+03;3;  8.9825720E-01;  0.0000000E+00;  2.8286609E-01;0; -5.7049720E-03;  3.9865219E+04;  0.0000000E+00;  6.5267980E-02;  4.0000000E+04;  0.0000000E+00;  4.0014680E+04; -2.3093864E-03;  0.0000000E+00; -3.3955856E-03;  1.9704675E+03;
  5.0145793E-01;  9.9999998E-03; -2.8999937E-01;5497; -4.9644522E-03;  0.0000000E+00;  7.0239673E-04;  9.9861938E+02;  1.0000371E-01; -1.1438195E+03;3;  8.9177084E-01;  0.0000000E+00;  2.9475850E-01;0; -5.6163250E-03;  3.9873027E+04;  0.0000000E+00;  1.3653076E-02;  4.0000000E+04;  0.0000000E+00;  4.0013730E+04; -2.4954893E-03;  0.0000000E+00; -3.1208356E-03;  1.8376888E+03;
  5.0144821E-01;  9.9999998E-03; -2.8000158E-01;5498; -5.0861398E-03;  0.0000000E+00;  6.5670954E-04;  9.9871747E+02;  1.0000388E-01; -1.0625378E+03;3;  8.9810514E-01;  0.0000000E+00;  3.0124319E-01;0; -5.5776779E-03;  3.9881789E+04;  0.0000000E+00; -3.3583563E-02;  4.0000000E+04;  0.0000000E+00;  4.0012887E+04; -2.6999121E-03;  0.0000000E+00; -2.8777656E-03;  1.6923213E+03;
  5.1143909E-01;  9.9999998E-03; -2.9999575E-01;5557; -4.8468271E-03;  0.0000000E+00;  8.1651198E-04;  9.9838202E+02;  1.0000626E-01; -1.3404559E+03;3;  9.0959954E-01;  0.0000000E+00;  2.7036196E-01;0; -5.5218628E-03;  3.9849719E+04;  0.0000000E+00; -4.2111125E-02;  4.0000000E+04;  0.0000000E+00;  4.0016195E+04; -1.9759692E-03;  0.0000000E+00; -3.5458936E-03;  2.1763291E+03;
  5.1141214E-01;  9.9999998E-03; -2.8999797E-01;5558; -4.9828631E-03;  0.0000000E+00;  7.6680124E-04;  9.9847656E+02;  1.0000617E-01; -1.2621371E+03;3;  9.0227348E-01;  0.0000000E+00;  2.8396085E-01;0; -5.4237647E-03;  3.9858160E+04;  0.0000000E+00; -6.9399558E-02;  4.0000000E+04;  0.0000000E+00;  4.0015266E+04; -2.1742876E-03;  0.0000000E+00; -3.2494771E-03;  2.0440839E+03;
  5.1139802E-01;  9.9999998E-03; -2.8000009E-01;5559; -5.1076724E-03;  0.0000000E+00;  7.1767997E-04;  9.9858057E+02;  1.0000617E-01; -1.1759668E+03;3;  9.1194969E-01;  0.0000000E+00;  2.9068005E-01;0; -5.3702435E-03;  3.9867445E+04;  0.0000000E+00; -9.3763284E-02;  4.0000000E+04;  0.0000000E+00;  4.0014137E+04; -2.3891670E-03;  0.0000000E+00; -2.9810767E-03;  1.8960382E+03;
  5.2138937E-01;  9.9999998E-03; -2.9999423E-01;5618; -4.8797629E-03;  0.0000000E+00;  8.8660215E-04;  9.9820844E+02;  1.0001039E-01; -1.4842543E+03;3;  9.0769410E-01;  0.0000000E+00;  2.6262042E-01;0; -5.3145406E-03;  3.9830211E+04;  0.0000000E+00; -1.2547258E-01;  4.0000000E+04;  0.0000000E+00;  4.0017828E+04; -1.6206211E-03;  0.0000000E+00; -3.6939196E-03;  2.4282031E+03;
  5.2135766E-01;  9.9999998E-03; -2.8999639E-01;5619; -5.0112419E-03;  0.0000000E+00;  8.3285861E-04;  9.9831128E+02;  1.0001048E-01; -1.3990715E+03;3;  9.1143614E-01;  0.0000000E+00;  2.7255762E-01;0; -5.1900642E-03;  3.9839473E+04;  0.0000000E+00; -1.3423903E-01;  4.0000000E+04;  0.0000000E+00;  4.0017023E+04; -1.8331490E-03;  0.0000000E+00; -3.3569154E-03;  2.2851992E+03;
  5.2134293E-01;  9.9999998E-03; -2.7999836E-01;5620; -5.1373234E-03;  0.0000000E+00;  7.8011194E-04;  9.9841968E+02;  1.0001054E-01; -1.3092469E+03;3;  9.2516536E-01;  0.0000000E+00;  2.7869767E-01;0; -5.1230853E-03;  3.9849301E+04;  0.0000000E+00; -1.4427876E-01;  4.0000000E+04;  0.0000000E+00;  4.0015754E+04; -2.0608711E-03;  0.0000000E+00; -3.0622145E-03;  2.1343188E+03;
  5.3137565E-01;  9.9999998E-03; -2.9999298E-01;5679; -4.9161613E-03;  0.0000000E+00;  9.5838291E-04;  9.9805121E+02;  1.0001730E-01; -1.6145222E+03;3;  9.0972388E-01;  0.0000000E+00;  2.4959248E-01;0; -5.0452920E-03;  3.9810477E+04;  0.0000000E+00; -1.7699087E-01;  4.0000000E+04;  0.0000000E+00;  4.0019762E+04; -1.2296574E-03;  0.0000000E+00; -3.8156346E-03;  2.6567014E+03;
  5.3133762E-01;  9.9999998E-03; -2.8999498E-01;5680; -5.0458480E-03;  0.0000000E+00;  9.0248446E-04;  9.9815656E+02;  1.0001743E-01; -1.5272655E+03;3;  9.2388284E-01;  0.0000000E+00;  2.5812536E-01;0; -4.9278997E-03;  3.9819664E+04;  0.0000000E+00; -1.6851714E-01;  4.0000000E+04;  0.0000000E+00;  4.0018727E+04; -1.4591434E-03;  0.0000000E+00; -3.4687566E-03;  2.5080376E+03;
  5.3131890E-01;  9.9999998E-03; -2.7999675E-01;5681; -5.1723542E-03;  0.0000000E+00;  8.4613852E-04;  9.9827325E+02;  1.0001760E-01; -1.4305768E+03;3;  9.3693835E-01;  0.0000000E+00;  2.6515168E-01;0; -4.8493384E-03;  3.9830469E+04;  0.0000000E+00; -1.7372184E-01;  4.0000000E+04;  0.0000000E+00;  4.0017406E+04; -1.7032720E-03;  0.0000000E+00; -3.1460663E-03;  2.3476294E+03;
  5.4140109E-01;  9.9999998E-03; -2.9999256E-01;5740; -4.9516517E-03;  0.0000000E+00;  1.0336485E-03;  9.9797260E+02;  1.0002959E-01; -1.6796562E+03;3;  9.1924930E-01;  0.0000000E+00;  2.3166808E-01;0; -4.7370065E-03;  3.9792848E+04;  0.0000000E+00; -2.0890599E-01;  4.0000000E+04;  0.0000000E+00;  4.0020500E+04; -7.9718075E-04;  0.0000000E+00; -3.9398256E-03;  2.7724319E+03;
  5.4135370E-01;  9.9999998E-03; -2.8999421E-01;5741; -5.0808000E-03;  0.0000000E+00;  9.7648514E-04;  9.9807080E+02;  1.0002951E-01; -1.5983252E+03;3;  9.3162280E-01;  0.0000000E+00;  2.4123132E-01;0; -4.6417709E-03;  3.9802176E+04;  0.0000000E+00; -1.7410097E-01;  4.0000000E+04;  0.0000000E+00;  4.0019418E+04; -1.0465001E-03;  0.0000000E+00; -3.5952707E-03;  2.6286213E+03;
  5.4132867E-01;  9.9999998E-03; -2.7999571E-01;5742; -5.2075246E-03;  0.0000000E+00;  9.1672776E-04;  9.9819104E+02;  1.0002955E-01; -1.4986737E+03;3;  9.4815725E-01;  0.0000000E+00;  2.4984893E-01;0; -4.5551904E-03;  3.9813129E+04;  0.0000000E+00; -1.7879900E-01;  4.0000000E+04;  0.0000000E+00;  4.0018191E+04; -1.3109689E-03;  0.0000000E+00; -3.2442214E-03;  2.4643542E+03;
  5.5146122E-01;  9.9999998E-03; -2.9999322E-01;5801; -4.9764398E-03;  0.0000000E+00;  1.1135864E-03;  9.9799164E+02;  1.0004847E-01; -1.6639036E+03;3;  9.2890745E-01;  0.0000000E+00;  2.1404573E-01;0; -4.4087265E-03;  3.9779461E+04;  0.0000000E+00; -2.5272927E-01;  4.0000000E+04;  0.0000000E+00;  4.0020316E+04; -3.2566930E-04;  0.0000000E+00; -4.0830569E-03;  2.7519036E+03;
  5.5140746E-01;  9.9999998E-03; -2.8999448E-01;5802; -5.1079518E-03;  0.0000000E+00;  1.0552268E-03;  9.9808447E+02;  1.0004845E-01; -1.5869674E+03;3;  9.4090396E-01;  0.0000000E+00;  2.2360003E-01;0; -4.3357280E-03;  3.9787980E+04;  0.0000000E+00; -1.8149841E-01;  4.0000000E+04;  0.0000000E+00;  4.0018980E+04; -5.9684290E-04;  0.0000000E+00; -3.7388853E-03;  2.6081565E+03;
  5.5137914E-01;  9.9999998E-03; -2.7999565E-01;5803; -5.2359947E-03;  0.0000000E+00;  9.9281373E-04;  9.9820886E+02;  1.0004848E-01; -1.4839087E+03;3;  9.5898187E-01;  0.0000000E+00;  2.3361310E-01;0; -4.2519560E-03;  3.9799023E+04;  0.0000000E+00; -1.8430185E-01;  4.0000000E+04;  0.0000000E+00;  4.0017953E+04; -8.8519265E-04;  0.0000000E+00; -3.3667632E-03;  2.4375625E+03;
  5.6156749E-01;  9.9999998E-03; -2.9999536E-01;5862; -4.9808524E-03;  0.0000000E+00;  1.1986276E-03;  9.9813177E+02;  1.0007981E-01; -1.5478081E+03;3;  9.3952477E-01;  0.0000000E+00;  1.9440268E-01;0; -4.0751630E-03;  3.9767676E+04;  0.0000000E+00; -4.2312115E-01;  4.0000000E+04;  0.0000000E+00;  4.0018410E+04;  1.7669320E-04;  0.0000000E+00; -4.2518564E-03;  2.5930911E+03;
  5.6151140E-01;  9.9999998E-03; -2.8999603E-01;5863; -5.1181465E-03;  0.0000000E+00;  1.1379309E-03;  9.9821643E+02;  1.0007969E-01; -1.4776372E+03;3;  9.5178866E-01;  0.0000000E+00;  2.0397714E-01;0; -4.0023113E-03;  3.9774902E+04;  0.0000000E+00; -2.9334876E-01;  4.0000000E+04;  0.0000000E+00;  4.0017648E+04; -1.1740161E-04;  0.0000000E+00; -3.8849097E-03;  2.4389487E+03;
  5.6148154E-01;  9.9999998E-03; -2.7999663E-01;5864; -5.2497447E-03;  0.0000000E+00;  1.0736848E-03;  9.9833051E+02;  1.0007984E-01; -1.3831213E+03;3;  9.7037977E-01;  0.0000000E+00;  2.1467949E-01;0; -3.9339908E-03;  3.9785363E+04;  0.0000000E+00; -2.6578525E-01;  4.0000000E+04;  0.0000000E+00;  4.0016301E+04; -4.3251595E-04;  0.0000000E+00; -3.5014751E-03;  2.2768103E+03;
  5.7171404E-01;  9.9999998E-03; -2.9999906E-01;5923; -4.9573942E-03;  0.0000000E+00;  1.2880475E-03;  9.9837000E+02;  1.0013096E-01; -1.3504309E+03;3;  9.5737958E-01;  0.0000000E+00;  1.7214961E-01;0; -3.7378955E-03;  3.9748352E+04;  0.0000000E+00; -8.6708742E-01;  4.0000000E+04;  0.0000000E+00;  4.0015621E+04;  6.9821510E-04;  0.0000000E+00; -4.4361106E-03;  2.4874521E+03;
  5.7166564E-01;  9.9999998E-03; -2.8999898E-01;5924; -5.1051239E-03;  0.0000000E+00;  1.2253665E-03;  9.9844299E+02;  1.0013096E-01; -1.2899388E+03;3;  9.6615118E-01;  0.0000000E+00;  1.8145736E-01;0; -3.6659557E-03;  3.9754539E+04;  0.0000000E+00; -6.4824641E-01;  4.0000000E+04;  0.0000000E+00;  4.0014699E+04;  3.8145669E-04;  0.0000000E+00; -4.0474124E-03;  2.2604001E+03;
  5.7164121E-01;  9.9999998E-03; -2.7999890E-01;5925; -5.2437303E-03;  0.0000000E+00;  1.1587609E-03;  9.9855005E+02;  1.0013135E-01; -1.2012500E+03;3;  9.8619068E-01;  0.0000000E+00;  1.9249313E-01;0; -3.6016563E-03;  3.9764562E+04;  0.0000000E+00; -5.3469837E-01;  4.0000000E+04;  0.0000000E+00;  4.0013578E+04;  3.8191843E-05;  0.0000000E+00; -3.6398482E-03;  2.0641548E+03;
  5.8186042E-01;  9.9999998E-03; -3.0000412E-01;5984; -4.8886272E-03;  0.0000000E+00;  1.3775186E-03;  9.9862280E+02;  1.0021381E-01; -1.1410048E+03;3;  1.0275086E+00;  0.0000000E+00;  1.3166803E-01;0; -3.3552349E-03;  3.9706605E+04;  0.0000000E+00; -1.5233392E+00;  4.0000000E+04;  0.0000000E+00;  4.0012289E+04;  1.2231594E-03;  0.0000000E+00; -4.5783943E-03;  2.7921511E+03;
  5.8183312E-01;  9.9999998E-03; -2.9000312E-01;5985; -5.0614569E-03;  0.0000000E+00;  1.3159503E-03;  9.9868628E+02;  1.0021405E-01; -1.0884137E+03;3;  1.0102804E+00;  0.0000000E+00;  1.4924237E-01;0; -3.3245625E-03;  3.9711816E+04;  0.0000000E+00; -1.2161764E+00;  4.0000000E+04;  0.0000000E+00;  4.0011422E+04;  8.8724989E-04;  0.0000000E+00; -4.2118123E-03;  2.4142163E+03;
  5.8182102E-01;  9.9999998E-03; -2.8000212E-01;5986; -5.2114516E-03;  0.0000000E+00;  1.2495936E-03;  9.9878723E+02;  1.0021434E-01; -1.0047617E+03;3;  1.0211998E+00;  0.0000000E+00;  1.5692593E-01;0; -3.2993096E-03;  3.9720820E+04;  0.0000000E+00; -9.6683311E-01;  4.0000000E+04;  0.0000000E+00;  4.0010422E+04;  5.1602552E-04;  0.0000000E+00; -3.8153352E-03;  2.0711875E+03;
  5.9197015E-01;  9.9999998E-03; -3.0001035E-01;6045; -4.7367318E-03;  0.0000000E+00;  1.4462082E-03;  9.9878845E+02;  1.0034749E-01; -1.0037247E+03;3;  1.1765416E+00;  0.0000000E+00;  6.2725894E-02;0; -2.5944784E-03;  3.9617383E+04;  0.0000000E+00; -2.1194818E+00;  4.0000000E+04;  0.0000000E+00;  4.0009703E+04;  1.7331592E-03;  0.0000000E+00; -4.3276376E-03;  3.3730403E+03;
  5.9195554E-01;  9.9999998E-03; -2.9000822E-01;6046; -4.9562440E-03;  0.0000000E+00;  1.3932595E-03;  9.9884613E+02;  1.0034800E-01; -9.5597296E+02;3;  1.1315799E+00;  0.0000000E+00;  8.8660546E-02;0; -2.7437974E-03;  3.9622023E+04;  0.0000000E+00; -1.6885128E+00;  4.0000000E+04;  0.0000000E+00;  4.0008762E+04;  1.3832796E-03;  0.0000000E+00; -4.1270768E-03;  2.8004067E+03;
  5.9194797E-01;  9.9999998E-03; -2.8000590E-01;6047; -5.1398375E-03;  0.0000000E+00;  1.3348935E-03;  9.9893604E+02;  1.0034849E-01; -8.8145654E+02;3;  1.1010461E+00;  0.0000000E+00;  1.0587034E-01;0; -2.8867433E-03;  3.9629910E+04;  0.0000000E+00; -1.2901485E+00;  4.0000000E+04;  0.0000000E+00;  4.0007918E+04;  9.9022558E-04;  0.0000000E+00; -3.8769690E-03;  2.2558052E+03;
  6.0198426E-01;  9.9999998E-03; -3.0001765E-01;6106; -4.5225010E-03;  0.0000000E+00;  1.4865876E-03;  9.9875610E+02;  1.0056060E-01; -1.0305387E+03;3;  1.2923462E+00;  0.0000000E+00; -1.3885626E-02;0; -1.3187488E-03;  3.9449977E+04;  0.0000000E+00; -2.0084708E+00;  4.0000000E+04;  0.0000000E+00;  4.0008508E+04;  2.2378354E-03;  0.0000000E+00; -3.5565842E-03;  3.2754075E+03;
  6.0197634E-01;  9.9999998E-03; -2.9001421E-01;6107; -4.7864714E-03;  0.0000000E+00;  1.4463158E-03;  9.9882098E+02;  1.0056145E-01; -9.7681189E+02;3;  1.2664135E+00;  0.0000000E+00;  1.0898336E-02;0; -1.7518690E-03;  3.9454902E+04;  0.0000000E+00; -1.5997862E+00;  4.0000000E+04;  0.0000000E+00;  4.0007352E+04;  1.8707057E-03;  0.0000000E+00; -3.6225747E-03;  2.7274473E+03;
  6.0197151E-01;  9.9999998E-03; -2.8001025E-01;6108; -5.0294609E-03;  0.0000000E+00;  1.4044154E-03;  9.9890912E+02;  1.0056195E-01; -9.0377692E+02;3;  1.2151247E+00;  0.0000000E+00;  4.3533329E-02;0; -2.2226516E-03;  3.9462148E+04;  0.0000000E+00; -1.2023109E+00;  4.0000000E+04;  0.0000000E+00;  4.0006738E+04;  1.4646420E-03;  0.0000000E+00; -3.6872937E-03;  2.1857559E+03;
  6.1192399E-01;  9.9999998E-03; -3.0002668E-01;6167; -4.3398328E-03;  0.0000000E+00;  1.5294872E-03;  9.9850934E+02;  1.0089329E-01; -1.2349774E+03;3;  1.3631002E+00;  0.0000000E+00; -6.9444999E-02;0;  1.2351433E-05;  3.9172977E+04;  0.0000000E+00; -1.2934977E+00;  4.0000000E+04;  0.0000000E+00;  4.0008797E+04;  2.7976949E-03;  0.0000000E+00; -2.7853434E-03;  2.6963220E+03;
  6.1192447E-01;  9.9999998E-03; -2.9002181E-01;6168; -4.6433136E-03;  0.0000000E+00;  1.4996190E-03;  9.9858746E+02;  1.0089496E-01; -1.1702385E+03;3;  1.3317739E+00;  0.0000000E+00; -4.1767843E-02;0; -6.7362934E-04;  3.9178336E+04;  0.0000000E+00; -1.0617352E+00;  4.0000000E+04;  0.0000000E+00;  4.0007738E+04;  2.4040199E-03;  0.0000000E+00; -3.0776493E-03;  2.3918989E+03;
  6.1192405E-01;  9.9999998E-03; -2.8001592E-01;6169; -4.9244147E-03;  0.0000000E+00;  1.4714974E-03;  9.9868256E+02;  1.0089624E-01; -1.0914753E+03;3;  1.2967675E+00;  0.0000000E+00; -1.0023396E-02;0; -1.4549911E-03;  3.9185137E+04;  0.0000000E+00; -7.9315829E-01;  4.0000000E+04;  0.0000000E+00;  4.0006617E+04;  1.9757452E-03;  0.0000000E+00; -3.4307363E-03;  2.0397971E+03;
  6.2180644E-01;  9.9999998E-03; -3.0003878E-01;6228; -4.2479625E-03;  0.0000000E+00;  1.6077228E-03;  9.9812732E+02;  1.0139926E-01; -1.5514623E+03;3;  1.3990550E+00;  0.0000000E+00; -1.0111933E-01;0;  8.8943122E-04;  3.8755355E+04;  0.0000000E+00; -4.1677585E-01;  4.0000000E+04;  0.0000000E+00;  4.0009316E+04;  3.4699745E-03;  0.0000000E+00; -2.5805433E-03;  2.5733286E+03;
  6.2181455E-01;  9.9999998E-03; -2.9003260E-01;6229; -4.5823264E-03;  0.0000000E+00;  1.5824098E-03;  9.9823273E+02;  1.0140163E-01; -1.4641561E+03;3;  1.3641983E+00;  0.0000000E+00; -7.3752970E-02;0;  6.0915248E-05;  3.8761559E+04;  0.0000000E+00; -3.7808868E-01;  4.0000000E+04;  0.0000000E+00;  4.0008246E+04;  3.0355912E-03;  0.0000000E+00; -2.9746760E-03;  2.4215269E+03;
  6.2181896E-01;  9.9999998E-03; -2.8002471E-01;6230; -4.8831073E-03;  0.0000000E+00;  1.5585970E-03;  9.9833820E+02;  1.0140407E-01; -1.3767512E+03;3;  1.3337883E+00;  0.0000000E+00; -4.1975111E-02;0; -8.5553457E-04;  3.8768797E+04;  0.0000000E+00; -2.6799464E-01;  4.0000000E+04;  0.0000000E+00;  4.0007078E+04;  2.5711423E-03;  0.0000000E+00; -3.4266768E-03;  2.2331682E+03;
  6.3161570E-01;  9.9999998E-03; -3.0005598E-01;6289; -4.2680157E-03;  0.0000000E+00;  1.7306200E-03;  9.9776990E+02;  1.0213719E-01; -1.8476021E+03;3;  1.4160360E+00;  0.0000000E+00; -1.1644105E-01;0;  1.1713025E-03;  3.8172320E+04;  0.0000000E+00;  2.3294762E-02;  4.0000000E+04;  0.0000000E+00;  4.0008391E+04;  4.2811194E-03;  0.0000000E+00; -3.1098169E-03;  3.0224524E+03;
  6.3163477E-01;  9.9999998E-03; -2.9004863E-01;6290; -4.6109702E-03;  0.0000000E+00;  1.7018475E-03;  9.9790656E+02;  1.0214166E-01; -1.7343707E+03;3;  1.3755428E+00;  0.0000000E+00; -8.7775536E-02;0;  3.5638106E-04;  3.8179785E+04;  0.0000000E+00; -2.0895304E-02;  4.0000000E+04;  0.0000000E+00;  4.0007109E+04;  3.7888014E-03;  0.0000000E+00; -3.4324203E-03;  2.8388181E+03;
  6.3164639E-01;  9.9999998E-03; -2.8003916E-01;6291; -4.9105952E-03;  0.0000000E+00;  1.6695370E-03;  9.9803992E+02;  1.0214505E-01; -1.6239047E+03;3;  1.3415414E+00;  0.0000000E+00; -5.7151187E-02;0; -4.6092528E-04;  3.8188270E+04;  0.0000000E+00;  3.9175764E-02;  4.0000000E+04;  0.0000000E+00;  4.0005496E+04;  3.2716503E-03;  0.0000000E+00; -3.7325756E-03;  2.6494487E+03;
  6.4139587E-01;  9.9999998E-03; -3.0008030E-01;6350; -4.3736487E-03;  0.0000000E+00;  1.8831420E-03;  9.9761841E+02;  1.0316130E-01; -1.9730800E+03;3;  1.4091648E+00;  0.0000000E+00; -1.1884093E-01;0;  1.1184597E-03;  3.7410945E+04;  0.0000000E+00; -9.9732125E-01;  4.0000000E+04;  0.0000000E+00;  4.0003523E+04;  5.2210502E-03;  0.0000000E+00; -4.1025905E-03;  3.5998452E+03;
  6.4142191E-01;  9.9999998E-03; -2.9007211E-01;6351; -4.6980679E-03;  0.0000000E+00;  1.8432755E-03;  9.9778503E+02;  1.0316780E-01; -1.8350592E+03;3;  1.3681660E+00;  0.0000000E+00; -8.8914432E-02;0;  4.5641139E-04;  3.7419074E+04;  0.0000000E+00; -7.7478683E-01;  4.0000000E+04;  0.0000000E+00;  4.0001676E+04;  4.6579130E-03;  0.0000000E+00; -4.2015016E-03;  3.2575840E+03;
  6.4143795E-01;  9.9999998E-03; -2.8006169E-01;6352; -4.9809627E-03;  0.0000000E+00;  1.7975293E-03;  9.9794965E+02;  1.0317304E-01; -1.6986680E+03;3;  1.3327775E+00;  0.0000000E+00; -5.8479752E-02;0; -1.6776798E-04;  3.7428355E+04;  0.0000000E+00; -4.3053743E-01;  4.0000000E+04;  0.0000000E+00;  4.0000023E+04;  4.0738760E-03;  0.0000000E+00; -4.2416439E-03;  2.8859973E+03;
  6.5124077E-01;  9.9999998E-03; -3.0011255E-01;6411; -4.4474099E-03;  0.0000000E+00;  2.0285333E-03;  9.9771875E+02;  1.0450064E-01; -1.8899712E+03;3;  1.3948845E+00;  0.0000000E+00; -1.2091397E-01;0;  1.3647056E-03;  3.6470645E+04;  0.0000000E+00; -4.0061488E+00;  4.0000000E+04;  0.0000000E+00;  3.9993836E+04;  6.2663346E-03;  0.0000000E+00; -4.9016289E-03;  6.9558926E+03;
  6.5125304E-01;  9.9999998E-03; -2.9010382E-01;6412; -4.7667627E-03;  0.0000000E+00;  1.9813406E-03;  9.9790875E+02;  1.0450911E-01; -1.7325436E+03;3;  1.3563818E+00;  0.0000000E+00; -9.0775706E-02;0;  7.7335071E-04;  3.6478879E+04;  0.0000000E+00; -3.1114275E+00;  4.0000000E+04;  0.0000000E+00;  3.9991570E+04;  5.6262664E-03;  0.0000000E+00; -4.8529156E-03;  5.6257979E+03;
  6.5125918E-01;  9.9999998E-03; -2.8009304E-01;6413; -5.0404388E-03;  0.0000000E+00;  1.9261533E-03;  9.9809991E+02;  1.0451498E-01; -1.5741777E+03;3;  1.3195221E+00;  0.0000000E+00; -6.1297819E-02;0;  2.5886716E-04;  3.6489398E+04;  0.0000000E+00; -2.0508738E+00;  4.0000000E+04;  0.0000000E+00;  3.9989867E+04;  4.9644955E-03;  0.0000000E+00; -4.7056284E-03;  4.1397222E+03;
  6.6131282E-01;  9.9999998E-03; -3.0015171E-01;6472; -4.3201796E-03;  0.0000000E+00;  2.1365692E-03;  9.9792444E+02;  1.0615193E-01; -1.7195563E+03;3;  1.4553142E+00;  0.0000000E+00; -1.6189033E-01;0;  2.4758601E-03;  3.5364137E+04;  0.0000000E+00; -8.1165962E+00;  4.0000000E+04;  0.0000000E+00;  3.9981078E+04;  7.4380743E-03;  0.0000000E+00; -4.9622143E-03;  1.3217593E+04;
  6.6127563E-01;  9.9999998E-03; -2.9014260E-01;6473; -4.7310749E-03;  0.0000000E+00;  2.1027471E-03;  9.9812695E+02;  1.0616234E-01; -1.5518080E+03;3;  1.3826857E+00;  0.0000000E+00; -1.1958859E-01;0;  1.5583723E-03;  3.5371738E+04;  0.0000000E+00; -6.4694600E+00;  4.0000000E+04;  0.0000000E+00;  3.9978754E+04;  6.7019211E-03;  0.0000000E+00; -5.1435488E-03;  1.0642354E+04;
  6.6125286E-01;  9.9999998E-03; -2.8013197E-01;6474; -5.0406419E-03;  0.0000000E+00;  2.0483506E-03;  9.9834375E+02;  1.0616936E-01; -1.3721587E+03;3;  1.3335396E+00;  0.0000000E+00; -8.3208159E-02;0;  9.4997324E-04;  3.5383324E+04;  0.0000000E+00; -4.4789248E+00;  4.0000000E+04;  0.0000000E+00;  3.9976656E+04;  5.9471205E-03;  0.0000000E+00; -4.9971472E-03;  7.5463569E+03;
  6.7172855E-01;  9.9999998E-03; -3.0019620E-01;6533; -3.8490477E-03;  0.0000000E+00;  2.1662097E-03;  9.9801129E+02;  1.0809884E-01; -1.6476077E+03;3;  1.6723380E+00;  0.0000000E+00; -2.5878894E-01;0;  5.2627516E-03;  3.4112590E+04;  0.0000000E+00; -1.1035448E+01;  4.0000000E+04;  0.0000000E+00;  3.9967348E+04;  8.7995417E-03;  0.0000000E+00; -3.5367901E-03;  1.8270746E+04;
  6.7157882E-01;  9.9999998E-03; -2.9018655E-01;6534; -4.5267083E-03;  0.0000000E+00;  2.1933101E-03;  9.9822284E+02;  1.0810918E-01; -1.4723534E+03;3;  1.4872602E+00;  0.0000000E+00; -1.8427436E-01;0;  3.0988082E-03;  3.4120324E+04;  0.0000000E+00; -9.3364706E+00;  4.0000000E+04;  0.0000000E+00;  3.9965277E+04;  7.9110032E-03;  0.0000000E+00; -4.8121950E-03;  1.5569667E+04;
  6.7147744E-01;  9.9999998E-03; -2.8017598E-01;6535; -4.9503068E-03;  0.0000000E+00;  2.1573515E-03;  9.9845380E+02;  1.0811486E-01; -1.2810009E+03;3;  1.4002011E+00;  0.0000000E+00; -1.3636494E-01;0;  2.0346944E-03;  3.4132645E+04;  0.0000000E+00; -6.8000755E+00;  4.0000000E+04;  0.0000000E+00;  3.9962648E+04;  7.0326868E-03;  0.0000000E+00; -4.9979924E-03;  1.1484811E+04;
  6.8247479E-01;  9.9999998E-03; -3.0024606E-01;6594; -3.3944172E-03;  0.0000000E+00;  2.1886099E-03;  9.9793848E+02;  1.1036925E-01; -1.7079517E+03;3;  1.8294687E+00;  0.0000000E+00; -3.4369352E-01;0;  8.4800441E-03;  3.2725963E+04;  0.0000000E+00; -1.1623845E+01;  4.0000000E+04;  0.0000000E+00;  3.9953832E+04;  1.0285690E-02;  0.0000000E+00; -1.8056462E-03;  1.9939793E+04;
  6.8220723E-01;  9.9999998E-03; -2.9023537E-01;6595; -4.1477629E-03;  0.0000000E+00;  2.2487983E-03;  9.9813696E+02;  1.1036934E-01; -1.5435118E+03;3;  1.6818459E+00;  0.0000000E+00; -2.7682808E-01;0;  5.5217324E-03;  3.2738217E+04;  0.0000000E+00; -1.0600428E+01;  4.0000000E+04;  0.0000000E+00;  3.9951777E+04;  9.2760129E-03;  0.0000000E+00; -3.7542807E-03;  1.8329738E+04;
  6.8196797E-01;  9.9999998E-03; -2.8022432E-01;6596; -4.7580362E-03;  0.0000000E+00;  2.2535168E-03;  9.9837219E+02;  1.1036328E-01; -1.3486039E+03;3;  1.5121180E+00;  0.0000000E+00; -1.9989654E-01;0;  3.5589067E-03;  3.2757391E+04;  0.0000000E+00; -8.3633642E+00;  4.0000000E+04;  0.0000000E+00;  3.9949391E+04;  8.2403561E-03;  0.0000000E+00; -4.6814494E-03;  1.4624398E+04;
  6.9429445E-01;  9.9999998E-03; -3.0030614E-01;6655; -3.3236358E-03;  0.0000000E+00;  2.3559893E-03;  9.9790210E+02;  1.1312354E-01; -1.7380743E+03;3;  1.8813617E+00;  0.0000000E+00; -3.8357356E-01;0;  9.7021610E-03;  3.1163994E+04;  0.0000000E+00; -7.2133598E+00;  4.0000000E+04;  0.0000000E+00;  3.9937445E+04;  1.1915011E-02;  0.0000000E+00; -2.2128501E-03;  1.3432767E+04;
  6.9396323E-01;  9.9999998E-03; -2.9029357E-01;6656; -3.9599664E-03;  0.0000000E+00;  2.3734507E-03;  9.9803363E+02;  1.1310323E-01; -1.6290897E+03;3;  1.7826129E+00;  0.0000000E+00; -3.3910316E-01;0;  7.3709004E-03;  3.1182129E+04;  0.0000000E+00; -7.2721586E+00;  4.0000000E+04;  0.0000000E+00;  3.9936102E+04;  1.0832900E-02;  0.0000000E+00; -3.4619996E-03;  1.3620374E+04;
  6.9360137E-01;  9.9999998E-03; -2.8028083E-01;6657; -4.5564426E-03;  0.0000000E+00;  2.3733759E-03;  9.9821393E+02;  1.1306655E-01; -1.4797112E+03;3;  1.6330161E+00;  0.0000000E+00; -2.7018476E-01;0;  5.2917278E-03;  3.1212547E+04;  0.0000000E+00; -6.2661996E+00;  4.0000000E+04;  0.0000000E+00;  3.9934293E+04;  9.6858107E-03;  0.0000000E+00; -4.3940828E-03;  1.1880651E+04;
  7.0672357E-01;  9.9999998E-03; -3.0037925E-01;6716; -2.9872230E-03;  0.0000000E+00;  2.4512690E-03;  9.9828265E+02;  1.1638054E-01; -1.4227744E+03;3;  2.0078526E+00;  0.0000000E+00; -4.4455835E-01;0;  1.2868378E-02;  2.9489203E+04;  0.0000000E+00; -4.8763428E+00;  4.0000000E+04;  0.0000000E+00;  3.9913676E+04;  1.3924400E-02;  0.0000000E+00; -1.0560215E-03;  1.0201766E+04;
  7.0645398E-01;  9.9999998E-03; -2.9036528E-01;6717; -3.6117928E-03;  0.0000000E+00;  2.4584630E-03;  9.9836377E+02;  1.1636343E-01; -1.3555665E+03;3;  1.9119861E+00;  0.0000000E+00; -4.1574237E-01;0;  1.0543821E-02;  2.9501256E+04;  0.0000000E+00; -4.9546304E+00;  4.0000000E+04;  0.0000000E+00;  3.9913008E+04;  1.2738569E-02;  0.0000000E+00; -2.1947473E-03;  1.0412062E+04;
  7.0613629E-01;  9.9999998E-03; -2.8035116E-01;6718; -4.2118230E-03;  0.0000000E+00;  2.4689324E-03;  9.9845923E+02;  1.1632180E-01; -1.2765070E+03;3;  1.8079866E+00;  0.0000000E+00; -3.6000904E-01;0;  8.0388580E-03;  2.9526654E+04;  0.0000000E+00; -4.1880260E+00;  4.0000000E+04;  0.0000000E+00;  3.9912223E+04;  1.1480066E-02;  0.0000000E+00; -3.4412080E-03;  8.9952021E+03;
  7.1820951E-01;  9.9999998E-03; -3.0045220E-01;6777; -2.5139584E-03;  0.0000000E+00;  2.5018845E-03;  9.9860815E+02;  1.1970387E-01; -1.1531031E+03;3;  2.1072459E+00;  0.0000000E+00; -4.7989053E-01;0;  1.7014638E-02;  2.7913297E+04;  0.0000000E+00; -6.7919965E+00;  4.0000000E+04;  0.0000000E+00;  3.9890746E+04;  1.6154494E-02;  0.0000000E+00;  8.6014339E-04;  1.4250404E+04;
  7.1812510E-01;  9.9999998E-03; -2.9043809E-01;6778; -3.2031217E-03;  0.0000000E+00;  2.5210863E-03;  9.9871912E+02;  1.1973148E-01; -1.0612045E+03;3;  2.0360103E+00;  0.0000000E+00; -4.7226951E-01;0;  1.4307087E-02;  2.7905854E+04;  0.0000000E+00; -6.3848162E+00;  4.0000000E+04;  0.0000000E+00;  3.9889547E+04;  1.4856839E-02;  0.0000000E+00; -5.4975104E-04;  1.3571637E+04;
  7.1802205E-01;  9.9999998E-03; -2.8042415E-01;6779; -3.8413361E-03;  0.0000000E+00;  2.5468327E-03;  9.9881757E+02;  1.1974011E-01; -9.7962653E+02;3;  1.9432002E+00;  0.0000000E+00; -4.3369201E-01;0;  1.1308661E-02;  2.7906656E+04;  0.0000000E+00; -5.0983448E+00;  4.0000000E+04;  0.0000000E+00;  3.9888504E+04;  1.3497246E-02;  0.0000000E+00; -2.1885855E-03;  1.1120461E+04;
  7.2942680E-01;  9.9999998E-03; -3.0052239E-01;6838; -2.3970965E-03;  0.0000000E+00;  2.7064353E-03;  9.9839490E+02;  1.2316162E-01; -1.3297894E+03;3;  2.1687903E+00;  0.0000000E+00; -4.9509555E-01;0;  1.8960817E-02;  2.6372070E+04;  0.0000000E+00; -6.4329023E+00;  4.0000000E+04;  0.0000000E+00;  3.9873625E+04;  1.8755900E-02;  0.0000000E+00;  2.0491665E-04;  1.4059493E+04;
  7.2941947E-01;  9.9999998E-03; -2.9050714E-01;6839; -3.0858067E-03;  0.0000000E+00;  2.7121170E-03;  9.9854773E+02;  1.2320525E-01; -1.2031758E+03;3;  2.0971673E+00;  0.0000000E+00; -4.8554793E-01;0;  1.6403865E-02;  2.6361396E+04;  0.0000000E+00; -6.1653323E+00;  4.0000000E+04;  0.0000000E+00;  3.9871980E+04;  1.7322099E-02;  0.0000000E+00; -9.1823417E-04;  1.3572116E+04;
  7.2939253E-01;  9.9999998E-03; -2.8049195E-01;6840; -3.7003960E-03;  0.0000000E+00;  2.7155278E-03;  9.9867181E+02;  1.2323190E-01; -1.1003639E+03;3;  2.0102963E+00;  0.0000000E+00; -4.6598423E-01;0;  1.3640925E-02;  2.6356779E+04;  0.0000000E+00; -5.0558052E+00;  4.0000000E+04;  0.0000000E+00;  3.9870582E+04;  1.5830601E-02;  0.0000000E+00; -2.1896756E-03;  1.1373855E+04;
  7.4145365E-01;  9.9999998E-03; -3.0059496E-01;6899; -2.5507803E-03;  0.0000000E+00;  3.0337581E-03;  9.9760620E+02;  1.2707587E-01; -1.9832030E+03;3;  2.1889215E+00;  0.0000000E+00; -5.0213408E-01;0;  1.9981198E-02;  2.4745947E+04;  0.0000000E+00; -5.4915816E-01;  4.0000000E+04;  0.0000000E+00;  3.9861438E+04;  2.2180730E-02;  0.0000000E+00; -2.1995334E-03;  3.7521157E+03;
  7.4143040E-01;  9.9999998E-03; -2.9057711E-01;6900; -3.1715657E-03;  0.0000000E+00;  3.0122427E-03;  9.9779053E+02;  1.2709706E-01; -1.8305160E+03;3;  2.1194944E+00;  0.0000000E+00; -4.9091867E-01;0;  1.7839432E-02;  2.4746723E+04;  0.0000000E+00; -1.5640950E+00;  4.0000000E+04;  0.0000000E+00;  3.9859340E+04;  2.0567283E-02;  0.0000000E+00; -2.7278520E-03;  5.0180439E+03;
  7.4138081E-01;  9.9999998E-03; -2.8055912E-01;6901; -3.7308200E-03;  0.0000000E+00;  2.9873077E-03;  9.9795996E+02;  1.2710489E-01; -1.6901249E+03;3;  2.0323164E+00;  0.0000000E+00; -4.6335977E-01;0;  1.5503085E-02;  2.4752229E+04;  0.0000000E+00; -1.8954548E+00;  4.0000000E+04;  0.0000000E+00;  3.9857426E+04;  1.8885219E-02;  0.0000000E+00; -3.3821345E-03;  5.4952866E+03;
  7.5394738E-01;  9.9999998E-03; -3.0067036E-01;6960; -2.4156321E-03;  0.0000000E+00;  3.3181130E-03;  9.9665204E+02;  1.3126996E-01; -2.7736992E+03;3;  2.2697542E+00;  0.0000000E+00; -5.1028550E-01;0;  2.2854382E-02;  2.3155818E+04;  0.0000000E+00;  7.6639276E+00;  4.0000000E+04;  0.0000000E+00;  3.9849930E+04;  2.6403056E-02;  0.0000000E+00; -3.5486738E-03;  1.8055566E+04;
  7.5395256E-01;  9.9999998E-03; -2.9065013E-01;6961; -3.1831542E-03;  0.0000000E+00;  3.3172464E-03;  9.9686475E+02;  1.3130464E-01; -2.5975066E+03;3;  2.1507528E+00;  0.0000000E+00; -4.8516494E-01;0;  2.0347655E-02;  2.3153596E+04;  0.0000000E+00;  4.7746663E+00;  4.0000000E+04;  0.0000000E+00;  3.9847371E+04;  2.4648253E-02;  0.0000000E+00; -4.3005990E-03;  1.1742277E+04;
  7.5396156E-01;  9.9999998E-03; -2.8062940E-01;6962; -3.7655055E-03;  0.0000000E+00;  3.2881405E-03;  9.9708704E+02;  1.3132791E-01; -2.4133142E+03;3;  2.0546498E+00;  0.0000000E+00; -4.5568362E-01;0;  1.8094655E-02;  2.3156242E+04;  0.0000000E+00;  2.5580394E+00;  4.0000000E+04;  0.0000000E+00;  3.9844977E+04;  2.2787886E-02;  0.0000000E+00; -4.6932315E-03;  7.0408169E+03;
  7.6823670E-01;  9.9999998E-03; -3.0076396E-01;7021; -1.2067361E-03;  0.0000000E+00;  3.3921357E-03;  9.9657904E+02;  1.3613868E-01; -2.8341912E+03;3;  2.7396274E+00;  0.0000000E+00; -6.0934895E-01;0;  3.0811749E-02;  2.1536742E+04;  0.0000000E+00;  1.0190435E+01;  4.0000000E+04;  0.0000000E+00;  3.9825469E+04;  3.1381529E-02;  0.0000000E+00; -5.6977919E-04;  2.7032457E+04;
  7.6800299E-01;  9.9999998E-03; -2.9073983E-01;7022; -2.8623189E-03;  0.0000000E+00;  3.5912166E-03;  9.9673798E+02;  1.3614008E-01; -2.7025405E+03;3;  2.2741547E+00;  0.0000000E+00; -5.0604111E-01;0;  2.4923217E-02;  2.1543131E+04;  0.0000000E+00;  7.1804199E+00;  4.0000000E+04;  0.0000000E+00;  3.9824207E+04;  2.9687032E-02;  0.0000000E+00; -4.7638156E-03;  1.9625270E+04;
  7.6783884E-01;  9.9999998E-03; -2.8071588E-01;7023; -3.6843522E-03;  0.0000000E+00;  3.5976679E-03;  9.9695605E+02;  1.3612975E-01; -2.5218545E+03;3;  2.1052642E+00;  0.0000000E+00; -4.5350134E-01;0;  2.2022955E-02;  2.1556600E+04;  0.0000000E+00;  4.4221454E+00;  4.0000000E+04;  0.0000000E+00;  3.9821992E+04;  2.7658662E-02;  0.0000000E+00; -5.6357062E-03;  1.2694279E+04;
  7.8396940E-01;  9.9999998E-03; -3.0087849E-01;7082;  1.1615627E-04;  0.0000000E+00;  3.5359708E-03;  9.9766376E+02;  1.4183947E-01; -1.9355500E+03;3;  3.3430450E+00;  0.0000000E+00; -6.8501163E-01;0;  3.8079798E-02;  1.9890818E+04;  0.0000000E+00;  5.8628159E+00;  4.0000000E+04;  0.0000000E+00;  3.9785047E+04;  3.6240313E-02;  0.0000000E+00;  1.8394848E-03;  2.0946883E+04;
  7.8345090E-01;  9.9999998E-03; -2.9085013E-01;7083; -2.1232038E-03;  0.0000000E+00;  3.8582508E-03;  9.9774561E+02;  1.4175479E-01; -1.8677001E+03;3;  2.7041037E+00;  0.0000000E+00; -5.8716118E-01;0;  3.0365543E-02;  1.9917529E+04;  0.0000000E+00;  4.3397217E+00;  4.0000000E+04;  0.0000000E+00;  3.9785633E+04;  3.4897424E-02;  0.0000000E+00; -4.5318813E-03;  1.6011146E+04;
  7.8297573E-01;  9.9999998E-03; -2.8082290E-01;7084; -3.4202202E-03;  0.0000000E+00;  3.9262874E-03;  9.9787933E+02;  1.4165220E-01; -1.7569379E+03;3;  2.2335408E+00;  0.0000000E+00; -4.6491277E-01;0;  2.6601631E-02;  1.9952146E+04;  0.0000000E+00;  2.7630837E+00;  4.0000000E+04;  0.0000000E+00;  3.9784699E+04;  3.2936256E-02;  0.0000000E+00; -6.3346261E-03;  1.0776679E+04;
  7.9938525E-01;  9.9999998E-03; -3.0099177E-01;7143;  1.8836154E-03;  0.0000000E+00;  3.5597596E-03;  9.9848065E+02;  1.4782649E-01; -1.2587297E+03;3;  4.0265322E+00;  0.0000000E+00; -6.9872171E-01;0;  4.5883849E-02;  1.8343375E+04;  0.0000000E+00;  5.0465302E+00;  4.0000000E+04;  0.0000000E+00;  3.9746699E+04;  3.9378446E-02;  0.0000000E+00;  6.5054023E-03;  2.1473719E+04;
  7.9907393E-01;  9.9999998E-03; -2.9096359E-01;7144; -4.0616948E-04;  0.0000000E+00;  3.8848333E-03;  9.9869287E+02;  1.4780945E-01; -1.0829323E+03;3;  3.4349754E+00;  0.0000000E+00; -7.1249938E-01;0;  3.8341250E-02;  1.8354367E+04;  0.0000000E+00;  2.9330337E+00;  4.0000000E+04;  0.0000000E+00;  3.9745641E+04;  3.8434334E-02;  0.0000000E+00; -9.3083916E-05;  1.4263048E+04;
  7.9867238E-01;  9.9999998E-03; -2.8093633E-01;7145; -2.3176256E-03;  0.0000000E+00;  4.1308594E-03;  9.9889484E+02;  1.4771856E-01; -9.1562836E+02;3;  2.8313146E+00;  0.0000000E+00; -5.8619422E-01;0;  3.2061074E-02;  1.8384838E+04;  0.0000000E+00;  1.4062256E+00;  4.0000000E+04;  0.0000000E+00;  3.9744312E+04;  3.6977075E-02;  0.0000000E+00; -4.9160002E-03;  8.3518184E+03;
  8.1356573E-01;  9.9999998E-03; -3.0108771E-01;7204;  3.0385896E-03;  0.0000000E+00;  3.7075332E-03;  9.9837775E+02;  1.5358791E-01; -1.3440112E+03;3;  4.5223346E+00;  0.0000000E+00; -7.2613025E-01;0;  4.9824979E-02;  1.6989686E+04;  0.0000000E+00;  4.8161969E+00;  4.0000000E+04;  0.0000000E+00;  3.9720672E+04;  4.0931754E-02;  0.0000000E+00;  8.8932263E-03;  1.8464512E+04;
  8.1331843E-01;  9.9999998E-03; -2.9105812E-01;7205;  1.5011383E-03;  0.0000000E+00;  3.7853632E-03;  9.9866681E+02;  1.5355936E-01; -1.1045118E+03;3;  4.2259722E+00;  0.0000000E+00; -7.9349768E-01;0;  4.6153262E-02;  1.7004348E+04;  0.0000000E+00;  3.1480057E+00;  4.0000000E+04;  0.0000000E+00;  3.9718371E+04;  3.9887834E-02;  0.0000000E+00;  6.2654279E-03;  1.2737882E+04;
  8.1303060E-01;  9.9999998E-03; -2.8102997E-01;7206; -1.2297707E-04;  0.0000000E+00;  3.9896965E-03;  9.9889575E+02;  1.5350109E-01; -9.1483826E+02;3;  3.8122001E+00;  0.0000000E+00; -8.0152291E-01;0;  3.9867476E-02;  1.7025123E+04;  0.0000000E+00;  2.0769408E+00;  4.0000000E+04;  0.0000000E+00;  3.9716504E+04;  3.8563728E-02;  0.0000000E+00;  1.3037474E-03;  8.6411582E+03;
  8.2658702E-01;  9.9999998E-03; -2.8111011E-01;7267;  1.2727140E-03;  0.0000000E+00;  3.9972556E-03;  9.9804144E+02;  1.5926766E-01; -1.6226206E+03;3;  4.4493194E+00;  0.0000000E+00; -9.2378265E-01;0;  4.4458114E-02;  1.5795117E+04;  0.0000000E+00;  2.5223744E+00;  4.0000000E+04;  0.0000000E+00;  3.9699711E+04;  3.9019436E-02;  0.0000000E+00;  5.4386780E-03;  7.3889272E+03;
  8.2685167E-01;  9.9999998E-03; -2.9114068E-01;7266;  2.4885202E-03;  0.0000000E+00;  3.9505996E-03;  9.9772473E+02;  1.5933076E-01; -1.8850330E+03;3;  4.6968741E+00;  0.0000000E+00; -8.4124160E-01;0;  4.8649210E-02;  1.5773274E+04;  0.0000000E+00;  3.1820228E+00;  4.0000000E+04;  0.0000000E+00;  3.9702676E+04;  4.0247016E-02;  0.0000000E+00;  8.4021939E-03;  9.3238105E+03;
  8.2713121E-01;  9.9999998E-03; -3.0117297E-01;7265;  3.6275389E-03;  0.0000000E+00;  4.0172557E-03;  9.9736731E+02;  1.5939461E-01; -2.1811233E+03;3;  4.8835416E+00;  0.0000000E+00; -7.6628751E-01;0;  4.9906492E-02;  1.5751231E+04;  0.0000000E+00;  4.1841717E+00;  4.0000000E+04;  0.0000000E+00;  3.9705695E+04;  4.1248955E-02;  0.0000000E+00;  8.6575393E-03;  1.2312775E+04;
  8.4285301E-01;  9.9999998E-03; -3.0127048E-01;7326;  3.9894204E-03;  0.0000000E+00;  4.5106164E-03;  9.9638068E+02;  1.6614172E-01; -2.9985322E+03;3;  5.1997323E+00;  0.0000000E+00; -8.2123524E-01;0;  4.7396272E-02;  1.4490656E+04;  0.0000000E+00;  1.9135556E+00;  4.0000000E+04;  0.0000000E+00;  3.9688387E+04;  4.0649578E-02;  0.0000000E+00;  6.7466954E-03;  4.9184634E+03;
  8.4263265E-01;  9.9999998E-03; -2.9123572E-01;7327;  2.9010582E-03;  0.0000000E+00;  4.4398895E-03;  9.9681824E+02;  1.6607633E-01; -2.6360239E+03;3;  5.0014458E+00;  0.0000000E+00; -8.7084711E-01;0;  4.6363119E-02;  1.4511420E+04;  0.0000000E+00;  1.8921244E+00;  4.0000000E+04;  0.0000000E+00;  3.9684195E+04;  3.9724499E-02;  0.0000000E+00;  6.6386205E-03;  4.3247764E+03;
  8.4231859E-01;  9.9999998E-03; -2.8120181E-01;7328;  1.8024070E-03;  0.0000000E+00;  4.4476492E-03;  9.9721313E+02;  1.6597450E-01; -2.3088728E+03;3;  4.8095388E+00;  0.0000000E+00; -9.4939196E-01;0;  4.3008115E-02;  1.4538880E+04;  0.0000000E+00;  2.1080997E+00;  4.0000000E+04;  0.0000000E+00;  3.9680535E+04;  3.8654953E-02;  0.0000000E+00;  4.3531614E-03;  4.5149819E+03;
  8.5884947E-01;  9.9999998E-03; -2.8131095E-01;7389;  1.9588068E-03;  0.0000000E+00;  5.1490804E-03;  9.9694482E+02;  1.7360236E-01; -2.5311382E+03;3;  5.0030980E+00;  0.0000000E+00; -9.2234856E-01;0;  3.8989287E-02;  1.3313475E+04;  0.0000000E+00;  8.6228853E-01;  4.0000000E+04;  0.0000000E+00;  3.9653238E+04;  3.8427282E-02;  0.0000000E+00;  5.6200649E-04;  5.6941997E+03;
  8.5896188E-01;  9.9999998E-03; -2.9134640E-01;7388;  3.1573155E-03;  0.0000000E+00;  5.0682416E-03;  9.9648566E+02;  1.7363393E-01; -2.9115718E+03;3;  5.2900352E+00;  0.0000000E+00; -9.2091107E-01;0;  4.3097880E-02;  1.3299039E+04;  0.0000000E+00;  1.8059449E-02;  4.0000000E+04;  0.0000000E+00;  3.9657855E+04;  3.9498057E-02;  0.0000000E+00;  3.5998242E-03;  1.0122761E+04;
  8.5903591E-01;  9.9999998E-03; -3.0138290E-01;7387;  4.4552623E-03;  0.0000000E+00;  5.0400174E-03;  9.9599066E+02;  1.7362770E-01; -3.3216836E+03;3;  5.5394530E+00;  0.0000000E+00; -8.7873840E-01;0;  4.5875244E-02;  1.3290414E+04;  0.0000000E+00; -6.7679030E-01;  4.0000000E+04;  0.0000000E+00;  3.9662645E+04;  4.0558312E-02;  0.0000000E+00;  5.3169299E-03;  1.3875631E+04;
  8.7745315E-01;  9.9999998E-03; -2.8143919E-01;7450;  2.1953681E-03;  0.0000000E+00;  5.9538614E-03;  9.9713800E+02;  1.8255147E-01; -2.3710933E+03;3;  5.2492719E+00;  0.0000000E+00; -8.5385287E-01;0;  3.8227782E-02;  1.2079875E+04;  0.0000000E+00;  6.6945873E-02;  4.0000000E+04;  0.0000000E+00;  3.9616809E+04;  4.1431095E-02;  0.0000000E+00; -3.2033129E-03;  8.2571064E+03;
  8.7739927E-01;  9.9999998E-03; -2.9147643E-01;7449;  3.3935991E-03;  0.0000000E+00;  5.8480562E-03;  9.9664685E+02;  1.8250178E-01; -2.7780447E+03;3;  5.5420461E+00;  0.0000000E+00; -9.1467667E-01;0;  4.2553883E-02;  1.2077378E+04;  0.0000000E+00; -7.1813017E-01;  4.0000000E+04;  0.0000000E+00;  3.9622023E+04;  4.2591311E-02;  0.0000000E+00; -3.7427522E-05;  1.3426995E+04;
  8.7729824E-01;  9.9999998E-03; -3.0151460E-01;7448;  4.7323387E-03;  0.0000000E+00;  5.7629067E-03;  9.9610046E+02;  1.8238860E-01; -3.2306738E+03;3;  5.8074436E+00;  0.0000000E+00; -9.0553319E-01;0;  4.6437029E-02;  1.2082525E+04;  0.0000000E+00; -1.4978913E+00;  4.0000000E+04;  0.0000000E+00;  3.9627711E+04;  4.3857187E-02;  0.0000000E+00;  2.5798413E-03;  1.7578719E+04;
  8.9638746E-01;  9.9999998E-03; -3.0165398E-01;7509;  5.2405531E-03;  0.0000000E+00;  6.4832461E-03;  9.9655927E+02;  1.9194493E-01; -2.8505859E+03;3;  6.0100222E+00;  0.0000000E+00; -8.8193733E-01;0;  5.5806506E-02;  1.0946852E+04;  0.0000000E+00; -2.7416680E+00;  4.0000000E+04;  0.0000000E+00;  3.9586715E+04;  5.4601975E-02;  0.0000000E+00;  1.2045309E-03;  2.2510062E+04;
  8.9650339E-01;  9.9999998E-03; -2.9161206E-01;7510;  3.8526896E-03;  0.0000000E+00;  6.5998160E-03;  9.9710077E+02;  1.9208662E-01; -2.4019565E+03;3;  5.8237128E+00;  0.0000000E+00; -9.2667246E-01;0;  5.0717216E-02;  1.0939319E+04;  0.0000000E+00; -1.8318312E+00;  4.0000000E+04;  0.0000000E+00;  3.9581098E+04;  5.2910093E-02;  0.0000000E+00; -2.1928782E-03;  1.7286623E+04;
  8.9651793E-01;  9.9999998E-03; -2.8157118E-01;7511;  2.6763740E-03;  0.0000000E+00;  6.7134593E-03;  9.9760779E+02;  1.9212674E-01; -1.9819191E+03;3;  5.5391893E+00;  0.0000000E+00; -8.4973264E-01;0;  4.5717426E-02;  1.0942890E+04;  0.0000000E+00; -9.4441819E-01;  4.0000000E+04;  0.0000000E+00;  3.9575969E+04;  5.1376846E-02;  0.0000000E+00; -5.6594200E-03;  1.1065381E+04;
  9.1680807E-01;  9.9999998E-03; -3.0179292E-01;7570;  4.5618690E-03;  0.0000000E+00;  7.6604644E-03;  9.9612164E+02;  2.0259312E-01; -3.2131436E+03;3;  6.0589519E+00;  0.0000000E+00; -7.9724592E-01;0;  6.8863347E-02;  9.8308916E+03;  0.0000000E+00; -1.0527350E+00;  4.0000000E+04;  0.0000000E+00;  3.9554598E+04;  7.5881913E-02;  0.0000000E+00; -7.0185675E-03;  1.0855967E+04;
  9.1698259E-01;  9.9999998E-03; -2.9174605E-01;7571;  3.6810902E-03;  0.0000000E+00;  7.6717907E-03;  9.9664404E+02;  2.0270415E-01; -2.7803655E+03;3;  5.9008856E+00;  0.0000000E+00; -8.0847776E-01;0;  6.5151475E-02;  9.8275947E+03;  0.0000000E+00; -8.1626385E-01;  4.0000000E+04;  0.0000000E+00;  3.9548762E+04;  7.3787555E-02;  0.0000000E+00; -8.6360769E-03;  8.5797344E+03;
  9.1699427E-01;  9.9999998E-03; -2.8170043E-01;7572;  2.8267095E-03;  0.0000000E+00;  7.6920325E-03;  9.9718939E+02;  2.0270887E-01; -2.3285266E+03;3;  5.7193041E+00;  0.0000000E+00; -7.8958911E-01;0;  6.1016854E-02;  9.8351152E+03;  0.0000000E+00; -6.2035650E-01;  4.0000000E+04;  0.0000000E+00;  3.9543125E+04;  7.1622476E-02;  0.0000000E+00; -1.0605622E-02;  6.2937075E+03;
  9.3978095E-01;  9.9999998E-03; -3.0193776E-01;7631;  5.8341753E-03;  0.0000000E+00;  8.4785819E-03;  9.9489709E+02;  2.1482496E-01; -4.2276826E+03;3;  6.6386600E+00;  0.0000000E+00; -8.2136142E-01;0;  1.0215823E-01;  8.7272725E+03;  0.0000000E+00;  2.5460832E+00;  4.0000000E+04;  0.0000000E+00;  3.9527137E+04;  1.1038435E-01;  0.0000000E+00; -8.2261264E-03;  2.4862553E+04;
  9.3951523E-01;  9.9999998E-03; -2.9188329E-01;7632;  4.0994752E-03;  0.0000000E+00;  8.5922489E-03;  9.9550684E+02;  2.1475312E-01; -3.7225117E+03;3;  6.1082997E+00;  0.0000000E+00; -7.7102941E-01;0;  9.4858557E-02;  8.7414023E+03;  0.0000000E+00;  1.1612793E+00;  4.0000000E+04;  0.0000000E+00;  3.9520660E+04;  1.0709319E-01;  0.0000000E+00; -1.2234637E-02;  1.6500213E+04;
  9.3925172E-01;  9.9999998E-03; -2.8183118E-01;7633;  3.1375368E-03;  0.0000000E+00;  8.6337663E-03;  9.9617865E+02;  2.1462871E-01; -3.1659348E+03;3;  5.8914900E+00;  0.0000000E+00; -7.3207343E-01;0;  8.8649035E-02;  8.7612090E+03;  0.0000000E+00;  5.9880245E-02;  4.0000000E+04;  0.0000000E+00;  3.9513465E+04;  1.0358095E-01;  0.0000000E+00; -1.4931913E-02;  9.2942529E+03;
  9.6523094E-01;  9.9999998E-03; -3.0211094E-01;7692;  1.7426759E-02;  0.0000000E+00;  8.7461649E-03;  9.9519165E+02;  2.2883162E-01; -3.9836399E+03;3;  8.8681278E+00;  0.0000000E+00; -8.9189762E-01;0;  1.3632250E-01;  7.7034956E+03;  0.0000000E+00;  2.3052587E-01;  4.0000000E+04;  0.0000000E+00;  3.9472508E+04;  1.3664274E-01;  0.0000000E+00; -3.2024688E-04;  3.3898027E+04;
  9.6414918E-01;  9.9999998E-03; -2.9204082E-01;7693;  1.1592640E-02;  0.0000000E+00;  8.7235644E-03;  9.9540503E+02;  2.2846705E-01; -3.8068547E+03;3;  8.1311817E+00;  0.0000000E+00; -8.9515638E-01;0;  1.3397962E-01;  7.7275317E+03;  0.0000000E+00;  2.9907250E-01;  4.0000000E+04;  0.0000000E+00;  3.9474699E+04;  1.3752618E-01;  0.0000000E+00; -3.5465604E-03;  2.9618896E+04;
  9.6330947E-01;  9.9999998E-03; -2.8197640E-01;7694;  5.6581628E-03;  0.0000000E+00;  9.3472535E-03;  9.9587726E+02;  2.2810228E-01; -3.4156067E+03;3;  6.8454800E+00;  0.0000000E+00; -7.8997260E-01;0;  1.2092413E-01;  7.7566763E+03;  0.0000000E+00; -4.4816369E-01;  4.0000000E+04;  0.0000000E+00;  3.9471789E+04;  1.3758126E-01;  0.0000000E+00; -1.6657127E-02;  1.8237732E+04;
  9.9042046E-01;  9.9999998E-03; -3.0229411E-01;7753;  2.4657389E-02;  0.0000000E+00;  9.4021363E-03;  9.9659888E+02;  2.4372646E-01; -2.8177471E+03;3;  6.2170811E+00;  0.0000000E+00; -1.4031661E+00;0;  1.3541973E-01;  6.8182856E+03;  0.0000000E+00; -2.3942945E+00;  4.0000000E+04;  0.0000000E+00;  3.9407383E+04;  1.3657990E-01;  0.0000000E+00; -1.1601740E-03;  3.5825398E+04;
  9.8907268E-01;  9.9999998E-03; -2.9221344E-01;7754;  2.0284381E-02;  0.0000000E+00;  9.6031381E-03;  9.9653381E+02;  2.4315159E-01; -2.8716714E+03;3;  9.4894905E+00;  0.0000000E+00; -1.1718277E+00;0;  1.3307321E-01;  6.8446548E+03;  0.0000000E+00; -1.5357456E+00;  4.0000000E+04;  0.0000000E+00;  3.9413195E+04;  1.4167254E-01;  0.0000000E+00; -8.5993269E-03;  3.2587545E+04;
  9.8793846E-01;  9.9999998E-03; -2.8213733E-01;7755;  1.3687053E-02;  0.0000000E+00;  9.9729309E-03;  9.9669354E+02;  2.4259429E-01; -2.7393296E+03;3;  8.8186502E+00;  0.0000000E+00; -9.0182042E-01;0;  1.2942697E-01;  6.8749199E+03;  0.0000000E+00; -1.5726305E+00;  4.0000000E+04;  0.0000000E+00;  3.9415781E+04;  1.4758550E-01;  0.0000000E+00; -1.8158527E-02;  2.0234938E+04;
  9.8708755E-01;  9.9999998E-03; -2.7206859E-01;7756;  9.0240072E-03;  0.0000000E+00;  1.0385484E-02;  9.9701624E+02;  2.4211279E-01; -2.4719790E+03;3;  7.8766875E+00;  0.0000000E+00; -6.8472010E-01;0;  1.2405321E-01;  6.9047764E+03;  0.0000000E+00; -1.5198665E+00;  4.0000000E+04;  0.0000000E+00;  3.9412355E+04;  1.5022671E-01;  0.0000000E+00; -2.6173502E-02;  8.7579170E+03;
  9.6261185E-01;  9.9999998E-03; -2.7191716E-01;7695;  3.2257766E-03;  0.0000000E+00;  9.5161386E-03;  9.9643982E+02;  2.2774397E-01; -2.9495457E+03;3;  5.9831929E+00;  0.0000000E+00; -6.1081254E-01;0;  1.1344452E-01;  7.7882432E+03;  0.0000000E+00; -9.0805328E-01;  4.0000000E+04;  0.0000000E+00;  3.9465379E+04;  1.3469638E-01;  0.0000000E+00; -2.1251861E-02;  8.7597549E+03;
  1.0127639E+00;  9.9999998E-03; -2.8230962E-01;7816;  2.1613164E-02;  0.0000000E+00;  1.0406774E-02;  9.9735486E+02;  2.5785771E-01; -2.1914436E+03;3;  6.2132082E+00;  0.0000000E+00; -1.2759113E+00;0;  1.0912442E-01;  6.1004561E+03;  0.0000000E+00; -2.2941854E+00;  4.0000000E+04;  0.0000000E+00;  3.9356445E+04;  1.2565151E-01;  0.0000000E+00; -1.6527083E-02;  1.5270154E+04;
  1.0138005E+00;  9.9999998E-03; -2.9238847E-01;7815;  2.3560027E-02;  0.0000000E+00;  1.0421031E-02;  9.9716382E+02;  2.5849834E-01; -2.3497107E+03;3;  4.3263631E+00;  0.0000000E+00; -1.0676929E+00;0;  1.0785668E-01;  6.0708823E+03;  0.0000000E+00; -2.2791154E+00;  4.0000000E+04;  0.0000000E+00;  3.9356168E+04;  1.2026433E-01;  0.0000000E+00; -1.2407643E-02;  2.8459900E+04;
  1.0150038E+00;  9.9999998E-03; -3.0247205E-01;7814;  2.5554439E-02;  0.0000000E+00;  1.0586885E-02;  9.9702466E+02;  2.5917086E-01; -2.4650161E+03;3;  3.1591403E+00;  0.0000000E+00; -8.7368536E-01;0;  1.0307223E-01;  6.0425669E+03;  0.0000000E+00; -2.3262100E+00;  4.0000000E+04;  0.0000000E+00;  3.9353699E+04;  1.1419990E-01;  0.0000000E+00; -1.1127676E-02;  3.8500328E+04;
  1.0370198E+00;  9.9999998E-03; -2.8247422E-01;7877;  2.2922896E-02;  0.0000000E+00;  1.1025759E-02;  9.9707971E+02;  2.7327278E-01; -2.4193875E+03;3;  1.9062430E+00;  0.0000000E+00;  4.3867579E-01;0;  7.0555523E-02;  5.4352964E+03;  0.0000000E+00; -2.3113444E+00;  4.0000000E+04;  0.0000000E+00;  3.9310383E+04;  8.4732227E-02;  0.0000000E+00; -1.4176706E-02;  4.1230737E+03;
  1.0375708E+00;  9.9999998E-03; -2.9255116E-01;7876;  2.3907166E-02;  0.0000000E+00;  1.1225741E-02;  9.9674677E+02;  2.7370915E-01; -2.6952314E+03;3;  1.5768274E+00;  0.0000000E+00;  2.3263074E-01;0;  6.5025091E-02;  5.4169590E+03;  0.0000000E+00; -2.2377565E+00;  4.0000000E+04;  0.0000000E+00;  3.9313488E+04;  7.8750640E-02;  0.0000000E+00; -1.3725547E-02;  9.9059541E+03;
  1.0383184E+00;  9.9999998E-03; -3.0263311E-01;7875;  2.5146442E-02;  0.0000000E+00;  1.1311143E-02;  9.9632495E+02;  2.7430877E-01; -3.0447029E+03;3;  1.4135242E+00;  0.0000000E+00; -7.8740127E-02;0;  6.0330503E-02;  5.3930845E+03;  0.0000000E+00; -1.7598783E+00;  4.0000000E+04;  0.0000000E+00;  3.9317164E+04;  7.2386339E-02;  0.0000000E+00; -1.2055838E-02;  1.7435121E+04;
  1.0631930E+00;  9.9999998E-03; -2.8264374E-01;7938;  2.2353763E-02;  0.0000000E+00;  1.2124278E-02;  9.9635858E+02;  2.9040447E-01; -3.0168516E+03;3;  6.3643014E-01;  0.0000000E+00;  5.2916467E-01;0;  1.7605223E-02;  4.8107158E+03;  0.0000000E+00; -1.9332418E+00;  4.0000000E+04;  0.0000000E+00;  3.9275895E+04;  3.2441348E-02;  0.0000000E+00; -1.4836124E-02;  1.2910477E+04;
  1.0632938E+00;  9.9999998E-03; -2.9272011E-01;7937;  2.3281636E-02;  0.0000000E+00;  1.2177667E-02;  9.9593921E+02;  2.9052576E-01; -3.3642983E+03;3;  6.3618384E-02;  0.0000000E+00;  3.8524848E-01;0;  1.1977677E-02;  4.8052729E+03;  0.0000000E+00; -1.9176462E+00;  4.0000000E+04;  0.0000000E+00;  3.9279680E+04;  2.6181525E-02;  0.0000000E+00; -1.4203847E-02;  1.9084139E+04;
  1.0633805E+00;  9.9999998E-03; -3.0279994E-01;7936;  2.4607234E-02;  0.0000000E+00;  1.2174780E-02;  9.9539532E+02;  2.9062647E-01; -3.8149028E+03;3; -6.4513588E-01;  0.0000000E+00;  2.4345326E-01;0;  7.7453554E-03;  4.8009800E+03;  0.0000000E+00; -1.6727235E+00;  4.0000000E+04;  0.0000000E+00;  3.9284332E+04;  2.0691883E-02;  0.0000000E+00; -1.2946527E-02;  2.3456916E+04;
  1.0920260E+00;  9.9999998E-03; -2.8283036E-01;7999;  2.0428319E-02;  0.0000000E+00;  1.2580852E-02;  9.9523926E+02;  3.0995539E-01; -3.9441819E+03;3; -8.7496561E-01;  0.0000000E+00; -1.0156053E+00;0; -1.8614082E-02;  4.2173604E+03;  0.0000000E+00; -1.6986167E+00;  4.0000000E+04;  0.0000000E+00;  3.9246434E+04; -1.4191641E-02;  0.0000000E+00; -4.4224411E-03;  2.0460303E+04;
  1.0918664E+00;  9.9999998E-03; -2.9290709E-01;7998;  2.1176433E-02;  0.0000000E+00;  1.2185737E-02;  9.9464648E+02;  3.0978376E-01; -4.4352788E+03;3; -1.3032250E+00;  0.0000000E+00; -1.8144351E+00;0; -2.0467157E-02;  4.2193999E+03;  0.0000000E+00; -1.3151770E+00;  4.0000000E+04;  0.0000000E+00;  3.9250766E+04; -2.1904973E-02;  0.0000000E+00;  1.4378170E-03;  3.3025617E+04;
  1.0916972E+00;  9.9999998E-03; -3.0298507E-01;7997;  2.2454118E-02;  0.0000000E+00;  1.2098503E-02;  9.9377545E+02;  3.0938464E-01; -5.1569365E+03;3; -1.8297368E+00;  0.0000000E+00; -1.9764158E+00;0; -2.5745416E-02;  4.2262324E+03;  0.0000000E+00; -9.0793300E-01;  4.0000000E+04;  0.0000000E+00;  3.9256727E+04; -2.7931724E-02;  0.0000000E+00;  2.1863072E-03;  4.2667328E+04;
  1.1251245E+00;  9.9999998E-03; -2.8304800E-01;8060;  1.6793421E-02;  0.0000000E+00;  1.1176044E-02;  9.9402478E+02;  3.3303782E-01; -4.9503726E+03;3; -3.3754814E+00;  0.0000000E+00; -2.7483146E+00;0; -2.0997444E-02;  3.6478108E+03;  0.0000000E+00; -3.2734830E+00;  4.0000000E+04;  0.0000000E+00;  3.9206996E+04; -4.5086470E-02;  0.0000000E+00;  2.4089025E-02;  2.1469166E+04;
  1.1249393E+00;  9.9999998E-03; -2.9312780E-01;8059;  1.6939359E-02;  0.0000000E+00;  9.8365992E-03;  9.9301392E+02;  3.3293855E-01; -5.7878291E+03;3; -3.6894853E+00;  0.0000000E+00; -4.4886289E+00;0; -9.2105940E-03;  3.6451724E+03;  0.0000000E+00; -2.7754109E+00;  4.0000000E+04;  0.0000000E+00;  3.9213625E+04; -5.5345755E-02;  0.0000000E+00;  4.6135161E-02;  3.1064906E+04;
  1.1246138E+00;  9.9999998E-03; -3.0320868E-01;8058;  1.7633749E-02;  0.0000000E+00;  8.9829229E-03;  9.9192877E+02;  3.3254528E-01; -6.6868652E+03;3; -3.8823752E+00;  0.0000000E+00; -5.8048730E+00;0; -3.6523975E-03;  3.6490840E+03;  0.0000000E+00; -2.4209969E+00;  4.0000000E+04;  0.0000000E+00;  3.9222664E+04; -6.3447200E-02;  0.0000000E+00;  5.9794802E-02;  4.3506930E+04;
  1.1653719E+00;  9.9999998E-03; -2.8331226E-01;8121;  1.2591668E-02;  0.0000000E+00;  1.2897615E-02;  9.9402631E+02;  3.6200732E-01; -4.9490845E+03;3; -7.3018827E+00;  0.0000000E+00; -1.0199535E+00;0; -1.0304044E-01;  3.0939507E+03;  0.0000000E+00; -6.3742132E+00;  4.0000000E+04;  0.0000000E+00;  3.9123848E+04; -7.2375037E-02;  0.0000000E+00; -3.0665403E-02;  1.9595488E+04;
  1.0120442E+00;  9.9999998E-03; -2.7223727E-01;7817;  1.9021330E-02;  0.0000000E+00;  1.0489733E-02;  9.9762714E+02;  2.5739449E-01; -1.9658699E+03;3;  8.7281990E+00;  0.0000000E+00; -1.0019239E+00;0;  1.0924474E-01;  6.1237021E+03;  0.0000000E+00; -1.9544984E+00;  4.0000000E+04;  0.0000000E+00;  3.9353805E+04;  1.3048933E-01;  0.0000000E+00; -2.1244591E-02;  5.2294399E+03;
  1.0367191E+00;  9.9999998E-03; -2.7240226E-01;7878;  2.2085421E-02;  0.0000000E+00;  1.0690484E-02;  9.9742206E+02;  2.7302909E-01; -2.1357905E+03;3;  2.0344336E+00;  0.0000000E+00;  5.9032363E-01;0;  7.6257735E-02;  5.4468306E+03;  0.0000000E+00; -2.0025675E+00;  4.0000000E+04;  0.0000000E+00;  3.9307059E+04;  9.0106308E-02;  0.0000000E+00; -1.3848572E-02;  2.2475420E+03;
  1.0629294E+00;  9.9999998E-03; -2.7256891E-01;7939;  2.1605076E-02;  0.0000000E+00;  1.1943714E-02;  9.9679083E+02;  2.9016605E-01; -2.6587385E+03;3;  8.1793928E-01;  0.0000000E+00;  8.9469635E-01;0;  2.5063224E-02;  4.8211533E+03;  0.0000000E+00; -1.9329592E+00;  4.0000000E+04;  0.0000000E+00;  3.9272953E+04;  3.9549701E-02;  0.0000000E+00; -1.4486476E-02;  7.6951992E+03;
  1.0918926E+00;  9.9999998E-03; -2.7275464E-01;8000;  1.9978389E-02;  0.0000000E+00;  1.2970076E-02;  9.9585217E+02;  3.0978394E-01; -3.4363940E+03;3; -5.3162110E-01;  0.0000000E+00; -4.8595317E-02;0; -1.4609015E-02;  4.2255425E+03;  0.0000000E+00; -2.3441019E+00;  4.0000000E+04;  0.0000000E+00;  3.9242145E+04; -4.7333511E-03;  0.0000000E+00; -9.8756636E-03;  1.2541448E+04;
  1.1252654E+00;  9.9999998E-03; -2.7297196E-01;8061;  1.6928870E-02;  0.0000000E+00;  1.2862100E-02;  9.9501910E+02;  3.3303106E-01; -4.1265942E+03;3; -2.9793515E+00;  0.0000000E+00; -1.8727129E+00;0; -3.2740239E-02;  3.6531462E+03;  0.0000000E+00; -3.8135481E+00;  4.0000000E+04;  0.0000000E+00;  3.9200344E+04; -3.2903306E-02;  0.0000000E+00;  1.6306726E-04;  1.6408764E+04;
  1.1654316E+00;  9.9999998E-03; -2.7324331E-01;8122;  1.3335499E-02;  0.0000000E+00;  1.4084364E-02;  9.9532471E+02;  3.6191639E-01; -3.8733638E+03;3; -7.1047583E+00;  0.0000000E+00;  1.2543328E+00;0; -9.9873401E-02;  3.1017590E+03;  0.0000000E+00; -5.3648458E+00;  4.0000000E+04;  0.0000000E+00;  3.9104621E+04; -6.0286850E-02;  0.0000000E+00; -3.9586551E-02;  1.9453148E+04;
  1.1658760E+00;  9.9999998E-03; -2.9339561E-01;8120;  1.1932426E-02;  0.0000000E+00;  1.1130051E-02;  9.9258917E+02;  3.6263400E-01; -6.1397148E+03;3; -7.6920357E+00;  0.0000000E+00; -3.5450113E+00;0; -9.2298582E-02;  3.0769128E+03;  0.0000000E+00; -6.8741741E+00;  4.0000000E+04;  0.0000000E+00;  3.9140805E+04; -8.3321147E-02;  0.0000000E+00; -8.9774374E-03;  1.6295520E+04;
  1.1668038E+00;  9.9999998E-03; -3.0349010E-01;8119;  1.1343000E-02;  0.0000000E+00;  8.9008361E-03;  9.9105066E+02;  3.6368865E-01; -7.4143428E+03;3; -8.1360598E+00;  0.0000000E+00; -6.4713869E+00;0; -6.9636822E-02;  3.0530281E+03;  0.0000000E+00; -6.5268216E+00;  4.0000000E+04;  0.0000000E+00;  3.9157098E+04; -9.3136199E-02;  0.0000000E+00;  2.3499373E-02;  1.2796336E+04;
  1.2076266E+00;  9.9999998E-03; -2.7347636E-01;8183;  9.2932787E-03;  0.0000000E+00;  8.2725110E-03;  9.9616516E+02;  3.9331618E-01; -3.1770828E+03;3; -1.2538129E+01;  0.0000000E+00;  5.6364942E-01;0; -1.6038111E-01;  2.6387319E+03;  0.0000000E+00; -6.0784559E+00;  4.0000000E+04;  0.0000000E+00;  3.8996531E+04; -1.1362523E-01;  0.0000000E+00; -4.6755873E-02;  2.1626754E+04;
  1.2084022E+00;  9.9999998E-03; -2.8356305E-01;8182;  7.5108833E-03;  0.0000000E+00;  8.6979317E-03;  9.9481238E+02;  3.9421654E-01; -4.2978369E+03;3; -1.3205541E+01;  0.0000000E+00; -1.3031510E-01;0; -1.8722384E-01;  2.6220645E+03;  0.0000000E+00; -8.5712261E+00;  4.0000000E+04;  0.0000000E+00;  3.9009016E+04; -1.2392560E-01;  0.0000000E+00; -6.3298233E-02;  1.9086969E+04;
  1.2094102E+00;  9.9999998E-03; -2.9365769E-01;8181;  6.0435524E-03;  0.0000000E+00;  8.5701495E-03;  9.9324988E+02;  3.9537883E-01; -5.5923135E+03;3; -1.3904013E+01;  0.0000000E+00; -1.2327155E+00;0; -2.0589073E-01;  2.6012095E+03;  0.0000000E+00; -1.0153852E+01;  4.0000000E+04;  0.0000000E+00;  3.9027672E+04; -1.3355581E-01;  0.0000000E+00; -7.2334915E-02;  5.4664180E+03;
  1.2112734E+00;  9.9999998E-03; -3.0376768E-01;8180;  5.2107573E-03;  0.0000000E+00;  7.7874227E-03;  9.9170074E+02;  3.9736453E-01; -6.8757275E+03;3; -1.4754234E+01;  0.0000000E+00; -2.7784779E+00;0; -2.1392219E-01;  2.5703906E+03;  0.0000000E+00; -1.0607553E+01;  4.0000000E+04;  0.0000000E+00;  3.9044840E+04; -1.4386764E-01;  0.0000000E+00; -7.0054546E-02;  2.9035516E+04;
  1.2516613E+00;  9.9999998E-03; -2.8372651E-01;8243; -9.0414117E-04;  0.0000000E+00; -5.1656179E-03;  9.9354932E+02;  4.2752108E-01; -5.3442524E+03;3; -1.7804661E+01;  0.0000000E+00; -3.7460842E+00;0; -1.1347120E-01;  2.2266826E+03;  0.0000000E+00; -9.8527451E+00;  4.0000000E+04;  0.0000000E+00;  3.8978523E+04; -1.0756675E-01;  0.0000000E+00; -5.9044398E-03;  2.0326072E+04;
  1.2527984E+00;  9.9999998E-03; -2.9384410E-01;8242; -3.3158297E-03;  0.0000000E+00; -5.5683656E-03;  9.9165802E+02;  4.2888650E-01; -6.9111094E+03;3; -1.8893349E+01;  0.0000000E+00; -4.7626066E+00;0; -1.1721962E-01;  2.2075684E+03;  0.0000000E+00; -1.1487421E+01;  4.0000000E+04;  0.0000000E+00;  3.8991836E+04; -1.1236773E-01;  0.0000000E+00; -4.8518823E-03;  1.4029881E+04;
  1.2549199E+00;  9.9999998E-03; -3.0397320E-01;8241; -5.1875012E-03;  0.0000000E+00; -6.5151961E-03;  9.8979230E+02;  4.3126667E-01; -8.4568291E+03;3; -2.0010784E+01;  0.0000000E+00; -6.6497746E+00;0; -1.1001980E-01;  2.1789470E+03;  0.0000000E+00; -1.1748763E+01;  4.0000000E+04;  0.0000000E+00;  3.9005938E+04; -1.1177057E-01;  0.0000000E+00;  1.7507651E-03;  5.3075715E+04;
  1.2964277E+00;  9.9999998E-03; -2.8396085E-01;8304; -1.3926433E-02;  0.0000000E+00; -1.6461141E-02;  9.9173083E+02;  4.6161559E-01; -6.8507661E+03;3; -2.1335264E+01;  0.0000000E+00; -8.6033154E+00;0;  5.4238868E-01;  1.9053434E+03;  0.0000000E+00; -1.1181170E+01;  4.0000000E+04;  0.0000000E+00;  3.8916121E+04;  5.6006038E-01;  0.0000000E+00; -1.7671706E-02;  2.6424277E+04;
  1.2965480E+00;  9.9999998E-03; -2.9408306E-01;8303; -1.7337458E-02;  0.0000000E+00; -1.5919684E-02;  9.8977991E+02;  4.6212134E-01; -8.4670420E+03;3; -2.2702570E+01;  0.0000000E+00; -8.8866301E+00;0;  5.3737485E-01;  1.8976359E+03;  0.0000000E+00; -1.2502426E+01;  4.0000000E+04;  0.0000000E+00;  3.8930457E+04;  5.6654453E-01;  0.0000000E+00; -2.9169682E-02;  1.1598962E+04;
  1.2980014E+00;  9.9999998E-03; -3.0422032E-01;8302; -2.1613171E-02;  0.0000000E+00; -1.5768465E-02;  9.8795593E+02;  4.6410692E-01; -9.9781338E+03;3; -2.4330959E+01;  0.0000000E+00; -9.4266262E+00;0;  5.7146251E-01;  1.8788160E+03;  0.0000000E+00; -1.2477054E+01;  4.0000000E+04;  0.0000000E+00;  3.8943539E+04;  6.0825169E-01;  0.0000000E+00; -3.6789149E-02;  3.6912895E+04;
  1.2505593E+00;  9.9999998E-03; -2.7360770E-01;8244;  1.8545823E-03;  0.0000000E+00; -5.0144633E-03;  9.9502533E+02;  4.2622870E-01; -4.1213833E+03;3; -1.6706509E+01;  0.0000000E+00; -3.2590744E+00;0; -1.0584865E-01;  2.2438562E+03;  0.0000000E+00; -6.8558350E+00;  4.0000000E+04;  0.0000000E+00;  3.8974230E+04; -1.0268851E-01;  0.0000000E+00; -3.1601391E-03;  2.4858596E+04;
  1.2958168E+00;  9.9999998E-03; -2.7383572E-01;8305; -1.0336794E-02;  0.0000000E+00; -1.6668245E-02;  9.9322821E+02;  4.6074098E-01; -5.6102285E+03;3; -1.9929783E+01;  0.0000000E+00; -8.3883085E+00;0;  5.3258866E-01;  1.9151858E+03;  0.0000000E+00; -8.2008486E+00;  4.0000000E+04;  0.0000000E+00;  3.8907723E+04;  5.3925139E-01;  0.0000000E+00; -6.6627199E-03;  2.8565660E+04;
  1.3424195E+00;  9.9999998E-03; -2.7416921E-01;8366; -1.6982736E-02;  0.0000000E+00; -2.9872682E-02;  9.9979053E+02;  4.8875889E-01; -1.7352083E+02;3; -2.2647520E+01;  0.0000000E+00; -1.4547913E+01;0;  2.0009086E+00;  1.7295596E+03;  0.0000000E+00; -8.3987684E+00;  4.0000000E+04;  0.0000000E+00;  3.8739574E+04;  1.9269360E+00;  0.0000000E+00;  7.3972680E-02;  3.4359754E+04;
  1.3432353E+00;  9.9999998E-03; -2.8429410E-01;8365; -2.0636899E-02;  0.0000000E+00; -2.6731689E-02;  9.9849323E+02;  4.8961431E-01; -1.2482729E+03;3; -2.4562286E+01;  0.0000000E+00; -1.4555157E+01;0;  2.0302370E+00;  1.7223669E+03;  0.0000000E+00; -1.0920717E+01;  4.0000000E+04;  0.0000000E+00;  3.8732719E+04;  2.0098393E+00;  0.0000000E+00;  2.0397635E-02;  4.1664129E+04;
  1.3439337E+00;  9.9999998E-03; -2.9441416E-01;8364; -2.4847545E-02;  0.0000000E+00; -2.4466708E-02;  9.9708942E+02;  4.9042878E-01; -2.4112664E+03;3; -2.6798889E+01;  0.0000000E+00; -1.4795778E+01;0;  2.0594051E+00;  1.7150037E+03;  0.0000000E+00; -1.2311939E+01;  4.0000000E+04;  0.0000000E+00;  3.8746281E+04;  2.0845771E+00;  0.0000000E+00; -2.5171954E-02;  3.6301598E+04;
  1.3458180E+00;  9.9999998E-03; -3.0454800E-01;8363; -2.9822947E-02;  0.0000000E+00; -2.3771387E-02;  9.9583960E+02;  4.9208426E-01; -3.4467090E+03;3; -2.9955591E+01;  0.0000000E+00; -1.5544649E+01;0;  2.1492517E+00;  1.7028190E+03;  0.0000000E+00; -1.2438198E+01;  4.0000000E+04;  0.0000000E+00;  3.8766492E+04;  2.1905417E+00;  0.0000000E+00; -4.1290082E-02;  2.3623338E+04;
  1.3910334E+00;  9.9999998E-03; -2.7426943E-01;8427;  2.5482073E-01;  0.0000000E+00; -3.0881718E-02;  1.0043283E+03;  4.8745450E-01;  3.5856545E+03;3;  3.5353283E+01;  0.0000000E+00; -2.4772066E+01;0;  2.4121220E+00;  1.7546530E+03;  0.0000000E+00; -7.7026620E+00;  4.0000000E+04;  0.0000000E+00;  3.8678805E+04;  2.1224334E+00;  0.0000000E+00;  2.8968853E-01;  3.4626676E+04;
  1.3937542E+00;  9.9999998E-03; -2.8439420E-01;8426;  2.8613916E-01;  0.0000000E+00; -1.9784300E-02;  1.0032477E+03;  4.8762316E-01;  2.6905178E+03;3;  4.9829193E+01;  0.0000000E+00; -2.0754057E+01;0;  2.3024571E+00;  1.7513687E+03;  0.0000000E+00; -1.0049450E+01;  4.0000000E+04;  0.0000000E+00;  3.8677027E+04;  2.1547835E+00;  0.0000000E+00;  1.4767371E-01;  3.9566594E+04;
  1.3958948E+00;  9.9999998E-03; -2.9452261E-01;8425;  2.9854888E-01;  0.0000000E+00; -1.6204849E-02;  1.0021528E+03;  4.8761103E-01;  1.7834371E+03;3;  5.1495247E+01;  0.0000000E+00; -2.1565351E+01;0;  2.2622266E+00;  1.7499229E+03;  0.0000000E+00; -1.1595876E+01;  4.0000000E+04;  0.0000000E+00;  3.8688938E+04;  2.1841347E+00;  0.0000000E+00;  7.8091793E-02;  3.5707477E+04;
  1.3983558E+00;  9.9999998E-03; -3.0465803E-01;8424;  3.0790618E-01;  0.0000000E+00; -1.4177272E-02;  1.0009524E+03;  4.8735514E-01;  7.8896082E+02;3;  5.1663399E+01;  0.0000000E+00; -2.2392736E+01;0;  2.2277524E+00;  1.7507216E+03;  0.0000000E+00; -1.1808253E+01;  4.0000000E+04;  0.0000000E+00;  3.8711934E+04;  2.1909006E+00;  0.0000000E+00;  3.6851909E-02;  2.2330547E+04;
  1.4369296E+00;  9.9999998E-03; -2.7411938E-01;8488;  3.0644134E-01;  0.0000000E+00; -1.7967282E-02;  1.0010461E+03;  4.6017286E-01;  8.6653656E+02;3;  7.2118431E+01;  0.0000000E+00; -3.1027451E+01;0;  1.5447743E+00;  1.9471241E+03;  0.0000000E+00; -7.7102265E+00;  4.0000000E+04;  0.0000000E+00;  3.8779953E+04;  8.3933556E-01;  0.0000000E+00;  7.0543879E-01;  2.9039145E+04;
  1.4401283E+00;  9.9999998E-03; -2.8429160E-01;8487;  3.2022861E-01;  0.0000000E+00; -1.0037783E-02;  9.9994073E+02;  4.5938841E-01; -4.9078758E+01;3;  7.5263397E+01;  0.0000000E+00; -2.9617994E+01;0;  1.4439356E+00;  1.9514417E+03;  0.0000000E+00; -1.0093568E+01;  4.0000000E+04;  0.0000000E+00;  3.8756652E+04;  7.7625853E-01;  0.0000000E+00;  6.6767716E-01;  2.9305398E+04;
  1.4427838E+00;  9.9999998E-03; -2.9444748E-01;8486;  3.3352375E-01;  0.0000000E+00; -4.8035001E-03;  9.9889319E+02;  4.5831990E-01; -9.1683984E+02;3;  7.5119987E+01;  0.0000000E+00; -2.9989180E+01;0;  1.3255684E+00;  1.9592533E+03;  0.0000000E+00; -1.1545070E+01;  4.0000000E+04;  0.0000000E+00;  3.8751160E+04;  7.2038043E-01;  0.0000000E+00;  6.0518801E-01;  2.3509959E+04;
  1.4455497E+00;  9.9999998E-03; -3.0460000E-01;8485;  3.4692571E-01;  0.0000000E+00; -1.2927741E-03;  9.9750812E+02;  4.5692506E-01; -2.0641987E+03;3;  7.5932404E+01;  0.0000000E+00; -3.0821218E+01;0;  1.1923418E+00;  1.9702356E+03;  0.0000000E+00; -1.0938303E+01;  4.0000000E+04;  0.0000000E+00;  3.8760543E+04;  6.5512097E-01;  0.0000000E+00;  5.3722078E-01;  5.2386074E+03;
  1.4809430E+00;  9.9999998E-03; -2.7401927E-01;8549;  2.9383805E-01;  0.0000000E+00;  4.0866468E-02;  9.9404004E+02;  4.2611784E-01; -4.9365732E+03;3;  7.2270256E+01;  0.0000000E+00; -4.1723091E+01;0;  9.6125758E-01;  2.2266978E+03;  0.0000000E+00; -7.8510137E+00;  4.0000000E+04;  0.0000000E+00;  3.8934957E+04;  3.5581961E-01;  0.0000000E+00;  6.0543799E-01;  3.7230602E+04;
  1.4846457E+00;  9.9999998E-03; -2.8421685E-01;8548;  3.0585203E-01;  0.0000000E+00;  3.8062315E-02;  9.9303784E+02;  4.2456934E-01; -5.7665977E+03;3;  7.5655930E+01;  0.0000000E+00; -4.0734161E+01;0;  1.0269314E+00;  2.2399185E+03;  0.0000000E+00; -1.0446501E+01;  4.0000000E+04;  0.0000000E+00;  3.8909801E+04;  3.2953209E-01;  0.0000000E+00;  6.9739932E-01;  3.6579809E+04;
  1.4877639E+00;  9.9999998E-03; -2.9439607E-01;8547;  3.1677124E-01;  0.0000000E+00;  4.2950649E-02;  9.9164819E+02;  4.2266747E-01; -6.9175039E+03;3;  7.9768585E+01;  0.0000000E+00; -4.1848949E+01;0;  9.3781787E-01;  2.2579685E+03;  0.0000000E+00; -1.1677394E+01;  4.0000000E+04;  0.0000000E+00;  3.8887855E+04;  3.0394113E-01;  0.0000000E+00;  6.3387674E-01;  2.9279057E+04;
  1.4908159E+00;  9.9999998E-03; -3.0456212E-01;8546;  3.2576227E-01;  0.0000000E+00;  4.5882463E-02;  9.8964087E+02;  4.2062530E-01; -8.5799805E+03;3;  8.5328392E+01;  0.0000000E+00; -4.0099812E+01;0;  8.4578741E-01;  2.2775635E+03;  0.0000000E+00; -9.2586327E+00;  4.0000000E+04;  0.0000000E+00;  3.8882027E+04;  2.8563780E-01;  0.0000000E+00;  5.6014961E-01;  1.7046305E+04;
  1.5218999E+00;  9.9999998E-03; -2.7413017E-01;8610;  2.6938069E-01;  0.0000000E+00;  1.2379866E-01;  9.8877344E+02;  3.8880205E-01; -9.2969219E+03;3;  7.1965645E+01;  0.0000000E+00; -3.7347462E+01;0;  1.7534622E+00;  2.6400764E+03;  0.0000000E+00; -9.9118299E+00;  4.0000000E+04;  0.0000000E+00;  3.8974590E+04;  1.9039807E+00;  0.0000000E+00; -1.5051857E-01;  5.4388500E+04;
  1.5254487E+00;  9.9999998E-03; -2.8426912E-01;8609;  2.8369275E-01;  0.0000000E+00;  9.0575792E-02;  9.8900165E+02;  3.8683978E-01; -9.1077559E+03;3;  7.7660912E+01;  0.0000000E+00; -3.3350368E+01;0;  2.2076809E+00;  2.6656460E+03;  0.0000000E+00; -1.3241179E+01;  4.0000000E+04;  0.0000000E+00;  3.9006871E+04;  1.9810323E+00;  0.0000000E+00;  2.2664870E-01;  6.4143051E+04;
  1.5289396E+00;  9.9999998E-03; -2.9446021E-01;8608;  2.9125804E-01;  0.0000000E+00;  6.9302596E-02;  9.8738104E+02;  3.8428956E-01; -1.0449510E+04;3;  8.3032646E+01;  0.0000000E+00; -8.0790472E-01;0;  2.6368666E+00;  2.6987949E+03;  0.0000000E+00; -1.4136441E+01;  4.0000000E+04;  0.0000000E+00;  3.8970574E+04;  2.0798721E+00;  0.0000000E+00;  5.5699456E-01;  5.6845910E+04;
  1.5324944E+00;  9.9999998E-03; -3.0464166E-01;8607;  2.9304844E-01;  0.0000000E+00;  7.5960830E-02;  9.8471613E+02;  3.8175032E-01; -1.2655944E+04;3;  9.9594223E+01;  0.0000000E+00;  2.3779575E+01;0;  2.6378477E+00;  2.7315427E+03;  0.0000000E+00; -8.8153105E+00;  4.0000000E+04;  0.0000000E+00;  3.8938938E+04;  2.2115726E+00;  0.0000000E+00;  4.2627501E-01;  2.0800682E+04;
  1.5579401E+00;  9.9999998E-03; -2.7437934E-01;8671;  2.5174841E-01;  0.0000000E+00;  1.5488577E-01;  9.8680841E+02;  3.5063872E-01; -1.0920810E+04;3;  6.1245407E+01;  0.0000000E+00;  3.8704258E+01;0;  3.9711115E+00;  3.2412349E+03;  0.0000000E+00; -1.4548309E+01;  4.0000000E+04;  0.0000000E+00;  3.8850191E+04;  4.7651277E+00;  0.0000000E+00; -7.9401606E-01;  8.1436539E+04;
  1.5608193E+00;  9.9999998E-03; -2.8445560E-01;8670;  2.6115867E-01;  0.0000000E+00;  1.5287714E-01;  9.8769415E+02;  3.4882033E-01; -1.0187215E+04;3;  4.7370930E+01;  0.0000000E+00;  2.6078861E+01;0;  3.8917041E+00;  3.2761650E+03;  0.0000000E+00; -1.8355667E+01;  4.0000000E+04;  0.0000000E+00;  3.8914109E+04;  4.8502169E+00;  0.0000000E+00; -9.5851266E-01;  9.7300016E+04;
  1.5650127E+00;  9.9999998E-03; -2.9455256E-01;8669;  2.5914899E-01;  0.0000000E+00;  1.3189431E-01;  9.8726215E+02;  3.4577382E-01; -1.0544318E+04;3;  7.4578888E+01;  0.0000000E+00;  4.0819292E+00;0;  4.2677183E+00;  3.3329417E+03;  0.0000000E+00; -1.8091425E+01;  4.0000000E+04;  0.0000000E+00;  3.8980426E+04;  5.0781345E+00;  0.0000000E+00; -8.1041616E-01;  9.2285094E+04;
  1.5696882E+00;  9.9999998E-03; -3.0467948E-01;8668;  2.5065058E-01;  0.0000000E+00;  9.6502639E-02;  9.8526343E+02;  3.4293255E-01; -1.2198110E+04;3;  7.0565735E+01;  0.0000000E+00; -3.3529518E+01;0;  5.0485229E+00;  3.3856233E+03;  0.0000000E+00; -7.6954932E+00;  4.0000000E+04;  0.0000000E+00;  3.9020113E+04;  5.3703842E+00;  0.0000000E+00; -3.2186136E-01;  3.9076355E+04;
  1.5888258E+00;  9.9999998E-03; -2.7447760E-01;8732;  4.4664472E-01;  0.0000000E+00;  9.4637103E-02;  9.8963379E+02;  3.1572494E-01; -8.5780127E+03;3; -1.6469968E+02;  0.0000000E+00;  5.4315647E+01;0;  6.2182493E+00;  4.0263850E+03;  0.0000000E+00; -1.8991171E+01;  4.0000000E+04;  0.0000000E+00;  3.8788000E+04;  6.8980570E+00;  0.0000000E+00; -6.7980772E-01;  9.9098773E+04;
  1.5899388E+00;  9.9999998E-03; -2.8459349E-01;8731;  4.1483054E-01;  0.0000000E+00;  1.0048104E-01;  9.8944080E+02;  3.1458440E-01; -8.7375449E+03;3; -1.7358804E+02;  0.0000000E+00;  5.0083065E+01;0;  6.0699024E+00;  4.0558125E+03;  0.0000000E+00; -2.1354774E+01;  4.0000000E+04;  0.0000000E+00;  3.8797066E+04;  6.8944521E+00;  0.0000000E+00; -8.2454973E-01;  1.0414567E+05;
  1.5951391E+00;  9.9999998E-03; -2.9468217E-01;8730;  4.6998894E-01;  0.0000000E+00;  9.3224168E-02;  9.8855969E+02;  3.1136540E-01; -9.4657432E+03;3; -1.8110649E+02;  0.0000000E+00;  4.3152458E+01;0;  6.2048054E+00;  4.1400728E+03;  0.0000000E+00; -1.9959131E+01;  4.0000000E+04;  0.0000000E+00;  3.8859492E+04;  7.0667586E+00;  0.0000000E+00; -8.6195314E-01;  1.0327062E+05;
  1.6012071E+00;  9.9999998E-03; -3.0477026E-01;8729;  5.4148895E-01;  0.0000000E+00;  8.6876966E-02;  9.8622235E+02;  3.0876940E-01; -1.1398242E+04;3; -1.8735374E+02;  0.0000000E+00;  3.6483257E+01;0;  6.3669949E+00;  4.2023857E+03;  0.0000000E+00; -4.4318757E+00;  4.0000000E+04;  0.0000000E+00;  3.8942418E+04;  7.2528548E+00;  0.0000000E+00; -8.8586020E-01;  4.5954613E+04;
  1.6167394E+00;  9.9999998E-03; -2.7446228E-01;8793;  7.6022959E-01;  0.0000000E+00;  2.9220015E-02;  9.9479614E+02;  2.8496721E-01; -4.3035205E+03;3; -1.8333459E+02;  0.0000000E+00;  5.8240673E+01;0;  6.8738499E+00;  4.9970000E+03;  0.0000000E+00; -1.9021734E+01;  4.0000000E+04;  0.0000000E+00;  3.8774770E+04;  7.4025712E+00;  0.0000000E+00; -5.2872121E-01;  9.0868477E+04;
  1.6170034E+00;  9.9999998E-03; -2.8460377E-01;8792;  7.1175086E-01;  0.0000000E+00;  4.0252838E-02;  9.9439844E+02;  2.8431118E-01; -4.6324155E+03;3; -1.9926103E+02;  0.0000000E+00;  5.7530251E+01;0;  6.8026581E+00;  5.0205059E+03;  0.0000000E+00; -1.9818762E+01;  4.0000000E+04;  0.0000000E+00;  3.8769422E+04;  7.4547215E+00;  0.0000000E+00; -6.5206349E-01;  8.7112633E+04;
  1.6216919E+00;  9.9999998E-03; -2.9471183E-01;8791;  7.5908357E-01;  0.0000000E+00;  3.4775309E-02;  9.9210217E+02;  2.8160286E-01; -6.5305317E+03;3; -2.0105147E+02;  0.0000000E+00;  5.1833824E+01;0;  6.8222742E+00;  5.1124751E+03;  0.0000000E+00; -1.7441057E+01;  4.0000000E+04;  0.0000000E+00;  3.8809098E+04;  7.4626136E+00;  0.0000000E+00; -6.4033949E-01;  9.0355758E+04;
  1.6271671E+00;  9.9999998E-03; -3.0480275E-01;8790;  8.4995562E-01;  0.0000000E+00;  3.7755188E-02;  9.8764673E+02;  2.8007045E-01; -1.0212935E+04;3; -1.8479282E+02;  0.0000000E+00;  4.7058304E+01;0;  6.6982241E+00;  5.1383433E+03;  0.0000000E+00;  3.3933024E+00;  4.0000000E+04;  0.0000000E+00;  3.8885559E+04;  7.4626555E+00;  0.0000000E+00; -7.6443166E-01;  2.5883453E+04;
  1.6419709E+00;  9.9999998E-03; -2.7440849E-01;8854;  1.0264881E+00;  0.0000000E+00; -2.6652042E-02;  9.9933679E+02;  2.5868091E-01; -5.4802344E+02;3; -1.5013400E+02;  0.0000000E+00;  5.2420120E+01;0;  6.2627811E+00;  6.1237192E+03;  0.0000000E+00; -1.4069907E+01;  4.0000000E+04;  0.0000000E+00;  3.8771223E+04;  6.6087480E+00;  0.0000000E+00; -3.4596694E-01;  6.5374918E+04;
  1.6421275E+00;  9.9999998E-03; -2.8457507E-01;8853;  9.9865150E-01;  0.0000000E+00; -1.7251873E-02;  9.9880933E+02;  2.5827816E-01; -9.8384552E+02;3; -1.6413193E+02;  0.0000000E+00;  5.2503456E+01;0;  6.3384595E+00;  6.1441006E+03;  0.0000000E+00; -1.5417070E+01;  4.0000000E+04;  0.0000000E+00;  3.8754840E+04;  6.7462215E+00;  0.0000000E+00; -4.0776226E-01;  6.8275078E+04;
  1.6455982E+00;  9.9999998E-03; -2.9469451E-01;8852;  1.0197450E+00;  0.0000000E+00; -1.5389285E-02;  9.9550616E+02;  2.5642061E-01; -3.7127375E+03;3; -1.6179877E+02;  0.0000000E+00;  5.0198872E+01;0;  6.2833514E+00;  6.2181221E+03;  0.0000000E+00; -1.1438809E+01;  4.0000000E+04;  0.0000000E+00;  3.8792598E+04;  6.7131653E+00;  0.0000000E+00; -4.2981383E-01;  6.6162609E+04;
  1.6489691E+00;  9.9999998E-03; -3.0480850E-01;8851;  1.0682375E+00;  0.0000000E+00; -9.6496716E-03;  9.8999951E+02;  2.5619537E-01; -8.2610527E+03;3; -1.4591557E+02;  0.0000000E+00;  5.3985828E+01;0;  6.2053604E+00;  6.1724326E+03;  0.0000000E+00;  1.4808099E+01;  4.0000000E+04;  0.0000000E+00;  3.8845863E+04;  6.7130566E+00;  0.0000000E+00; -5.0769639E-01;  1.9249119E+04;
  1.6651182E+00;  9.9999998E-03; -2.7435651E-01;8914;  1.2036815E+00;  0.0000000E+00; -7.2741210E-02;  1.0014218E+03;  2.3641565E-01;  1.1735754E+03;3; -8.7972183E+01;  0.0000000E+00;  4.3772522E+01;0;  5.1078124E+00;  7.3728433E+03;  0.0000000E+00; -8.9900942E+00;  4.0000000E+04;  0.0000000E+00;  3.8767289E+04;  5.1921620E+00;  0.0000000E+00; -8.4349655E-02;  4.2777168E+04;
  1.6649842E+00;  9.9999998E-03; -2.8453615E-01;8913;  1.1874353E+00;  0.0000000E+00; -6.3305058E-02;  1.0007723E+03;  2.3623894E-01;  6.3741748E+02;3; -1.0005594E+02;  0.0000000E+00;  4.5584690E+01;0;  5.2703509E+00;  7.3852896E+03;  0.0000000E+00; -1.0419971E+01;  4.0000000E+04;  0.0000000E+00;  3.8751395E+04;  5.3967772E+00;  0.0000000E+00; -1.2642622E-01;  4.6910000E+04;
  1.6673995E+00;  9.9999998E-03; -2.9466978E-01;8912;  1.1941291E+00;  0.0000000E+00; -5.8925938E-02;  9.9670233E+02;  2.3522748E-01; -2.7215933E+03;3; -9.8569328E+01;  0.0000000E+00;  4.6303825E+01;0;  5.2767892E+00;  7.4176440E+03;  0.0000000E+00; -3.3730593E+00;  4.0000000E+04;  0.0000000E+00;  3.8785461E+04;  5.4195604E+00;  0.0000000E+00; -1.4277118E-01;  3.7074449E+04;
  1.6857032E+00;  9.9999998E-03; -2.8450787E-01;8972;  1.2833734E+00;  0.0000000E+00; -9.3188405E-02;  1.0006449E+03;  2.1791629E-01;  5.3161597E+02;3; -3.9900539E+01;  0.0000000E+00;  3.2535343E+01;0;  4.0490961E+00;  8.6899639E+03;  0.0000000E+00; -5.9453421E+00;  4.0000000E+04;  0.0000000E+00;  3.8759895E+04;  3.9514477E+00;  0.0000000E+00;  9.7648479E-02;  2.7502316E+04;
  1.6860311E+00;  9.9999998E-03; -2.7432132E-01;8973;  1.2896283E+00;  0.0000000E+00; -1.0051823E-01;  1.0014716E+03;  2.1792054E-01;  1.2129586E+03;3; -2.9617996E+01;  0.0000000E+00;  2.9735832E+01;0;  3.8459959E+00;  8.6897754E+03;  0.0000000E+00; -4.7921510E+00;  4.0000000E+04;  0.0000000E+00;  3.8771758E+04;  3.7269330E+00;  0.0000000E+00;  1.1906298E-01;  2.2614336E+04;
  1.6869844E+00;  9.9999998E-03; -2.9465458E-01;8971;  1.2856368E+00;  0.0000000E+00; -8.8956840E-02;  9.9662970E+02;  2.1764587E-01; -2.7778904E+03;3; -4.3200886E+01;  0.0000000E+00;  3.3525143E+01;0;  4.1542501E+00;  8.6659844E+03;  0.0000000E+00;  6.6845074E+00;  4.0000000E+04;  0.0000000E+00;  3.8789883E+04;  4.0618396E+00;  0.0000000E+00;  9.2410631E-02;  5.3676030E+03;
  1.7043290E+00;  9.9999998E-03; -2.9467851E-01;9030;  1.3257984E+00;  0.0000000E+00; -1.0316662E-01;  9.9748468E+02;  2.0306914E-01; -2.0700645E+03;3; -4.4852161E+00;  0.0000000E+00;  1.9651573E+01;0;  3.0949619E+00;  9.9634053E+03;  0.0000000E+00;  1.8300901E+01;  4.0000000E+04;  0.0000000E+00;  3.8778062E+04;  2.9053087E+00;  0.0000000E+00;  1.8965326E-01;  3.2802875E+04;
  1.7044158E+00;  9.9999998E-03; -2.8451222E-01;9031;  1.3229219E+00;  0.0000000E+00; -1.0613625E-01;  9.9981732E+02;  2.0279047E-01; -1.5034818E+02;3; -2.9734323E-02;  0.0000000E+00;  1.7571991E+01;0;  2.9022210E+00;  1.0026459E+04;  0.0000000E+00; -6.3765056E-02;  4.0000000E+04;  0.0000000E+00;  3.8766598E+04;  2.7130120E+00;  0.0000000E+00;  1.8920895E-01;  7.3025171E+03;
  1.7050594E+00;  9.9999998E-03; -2.7431828E-01;9032;  1.3225183E+00;  0.0000000E+00; -1.1106307E-01;  1.0004393E+03;  2.0261975E-01;  3.6149924E+02;3;  6.7694225E+00;  0.0000000E+00;  1.5027351E+01;0;  2.6990848E+00;  1.0040777E+04;  0.0000000E+00; -6.5564066E-01;  4.0000000E+04;  0.0000000E+00;  3.8779121E+04;  2.4937806E+00;  0.0000000E+00;  2.0530424E-01;  5.1986333E+03;
  1.7201445E+00;  9.9999998E-03; -2.9475257E-01;9089;  1.3407838E+00;  0.0000000E+00; -1.0693908E-01;  1.0000098E+03;  1.9078891E-01;  8.0306568E+00;3;  1.3856940E+01;  0.0000000E+00;  9.7209187E+00;0;  2.1862831E+00;  1.1331546E+04;  0.0000000E+00;  2.6279573E+01;  4.0000000E+04;  0.0000000E+00;  3.8737168E+04;  1.9917829E+00;  0.0000000E+00;  1.9450012E-01;  4.9070125E+04;
  1.7214220E+00;  9.9999998E-03; -2.8456709E-01;9090;  1.3363221E+00;  0.0000000E+00; -1.0809203E-01;  9.9959015E+02;  1.9026019E-01; -3.3664587E+02;3;  1.8396248E+01;  0.0000000E+00;  7.3869429E+00;0;  1.9588350E+00;  1.1390339E+04;  0.0000000E+00;  7.5666995E+00;  4.0000000E+04;  0.0000000E+00;  3.8752414E+04;  1.7682428E+00;  0.0000000E+00;  1.9059213E-01;  1.7600010E+04;
  1.7224830E+00;  9.9999998E-03; -2.7436599E-01;9091;  1.3323429E+00;  0.0000000E+00; -1.1050287E-01;  9.9935828E+02;  1.8995608E-01; -5.2702692E+02;3;  2.1756964E+01;  0.0000000E+00;  5.3034449E+00;0;  1.7748303E+00;  1.1409175E+04;  0.0000000E+00;  4.4386616E+00;  4.0000000E+04;  0.0000000E+00;  3.8771344E+04;  1.5713155E+00;  0.0000000E+00;  2.0351486E-01;  1.8207066E+04;
  1.7372122E+00;  9.9999998E-03; -2.8467453E-01;9148;  1.3398652E+00;  0.0000000E+00; -1.0452731E-01;  1.0004681E+03;  1.7976922E-01;  3.8366226E+02;3;  2.5359236E+01;  0.0000000E+00;  1.3689001E+00;0;  1.2431589E+00;  1.2783606E+04;  0.0000000E+00;  1.3683657E+01;  4.0000000E+04;  0.0000000E+00;  3.8712574E+04;  1.0898894E+00;  0.0000000E+00;  1.5326948E-01;  2.7064971E+04;
  1.7386893E+00;  9.9999998E-03; -2.7447048E-01;9149;  1.3344369E+00;  0.0000000E+00; -1.0518369E-01;  9.9883142E+02;  1.7940085E-01; -9.5751044E+02;3;  2.7470102E+01;  0.0000000E+00;  8.1054069E-02;0;  1.0934935E+00;  1.2788554E+04;  0.0000000E+00;  9.2557955E+00;  4.0000000E+04;  0.0000000E+00;  3.8741234E+04;  9.2422384E-01;  0.0000000E+00;  1.6926961E-01;  3.1548600E+04;
  1.7522146E+00;  9.9999998E-03; -2.8483215E-01;9205;  1.3400401E+00;  0.0000000E+00; -9.8314025E-02;  1.0022720E+03;  1.7091307E-01;  1.8570574E+03;3;  2.8883490E+01;  0.0000000E+00; -1.7250390E+00;0;  7.2846967E-01;  1.4198649E+04;  0.0000000E+00;  1.4495381E+01;  4.0000000E+04;  0.0000000E+00;  3.8648766E+04;  6.2533313E-01;  0.0000000E+00;  1.0313652E-01;  1.8571234E+04;
  1.7538887E+00;  9.9999998E-03; -2.7463266E-01;9206;  1.3338535E+00;  0.0000000E+00; -9.7943611E-02;  9.9948535E+02;  1.7056246E-01; -4.2049530E+02;3;  2.9673027E+01;  0.0000000E+00; -2.1149285E+00;0;  6.2148666E-01;  1.4180279E+04;  0.0000000E+00;  1.2855706E+01;  4.0000000E+04;  0.0000000E+00;  3.8684281E+04;  4.9635971E-01;  0.0000000E+00;  1.2512694E-01;  3.6153293E+04;
  1.7668772E+00;  9.9999998E-03; -2.8502795E-01;9262;  1.3396045E+00;  0.0000000E+00; -9.1533981E-02;  1.0039128E+03;  1.6340055E-01;  3.1878413E+03;3;  3.0926977E+01;  0.0000000E+00; -3.0843089E+00;0;  3.8776928E-01;  1.5596885E+04;  0.0000000E+00;  9.9906197E+00;  4.0000000E+04;  0.0000000E+00;  3.8575645E+04;  3.2442257E-01;  0.0000000E+00;  6.3346714E-02;  1.0620055E+04;
  1.7683924E+00;  9.9999998E-03; -2.7484599E-01;9263;  1.3325968E+00;  0.0000000E+00; -9.0576746E-02;  1.0013192E+03;  1.6310990E-01;  1.0743510E+03;3;  3.0627810E+01;  0.0000000E+00; -3.0362899E+00;0;  3.1463480E-01;  1.5580386E+04;  0.0000000E+00;  1.2518849E+01;  4.0000000E+04;  0.0000000E+00;  3.8604965E+04;  2.2627665E-01;  0.0000000E+00;  8.8358149E-02;  2.6849348E+04;
  1.7825954E+00;  9.9999998E-03; -2.7509671E-01;9319;  1.3312064E+00;  0.0000000E+00; -8.3641917E-02;  1.0032696E+03;  1.5679768E-01;  2.6523098E+03;3;  3.1922087E+01;  0.0000000E+00; -3.4034615E+00;0;  1.2775570E-01;  1.6950336E+04;  0.0000000E+00;  6.8750901E+00;  4.0000000E+04;  0.0000000E+00;  3.8517379E+04;  6.3822135E-02;  0.0000000E+00;  6.3933559E-02;  8.1167886E+03;
  1.7966022E+00;  9.9999998E-03; -2.7537656E-01;9374;  1.3298711E+00;  0.0000000E+00; -7.7142753E-02;  1.0045255E+03;  1.5146393E-01;  3.6538555E+03;3;  3.3130592E+01;  0.0000000E+00; -3.5669091E+00;0;  2.8707279E-02;  1.8242488E+04;  0.0000000E+00;  2.5678861E+00;  4.0000000E+04;  0.0000000E+00;  3.8426867E+04; -1.9876441E-02;  0.0000000E+00;  4.8583720E-02;  2.2188285E+04;
  1.2791537E-03;  9.9999998E-03; -2.6984411E-01;2450;  3.5184770E-04;  0.0000000E+00; -5.2188302E-04;  9.9353387E+02;  1.0000000E-01; -5.3570830E+03;3;  4.1539192E+01;  0.0000000E+00;  2.4943556E+01;0; -9.1749709E-03;  3.9477812E+04;  0.0000000E+00; -2.9396707E-01;  4.0000000E+04;  0.0000000E+00;  4.0005684E+04; -8.4320568E-03;  0.0000000E+00; -7.4291416E-04;  1.4076357E+03;
  1.7844214E-03;  9.9999998E-03; -2.5986546E-01;2451;  5.7437585E-04;  0.0000000E+00; -5.5515335E-04;  9.9239691E+02;  1.0000000E-01; -6.2990317E+03;3;  5.2596859E+01;  0.0000000E+00;  2.4011965E+01;0; -1.0160344E-02;  3.9383277E+04;  0.0000000E+00; -3.5667899E-01;  4.0000000E+04;  0.0000000E+00;  4.0012305E+04; -9.5680589E-03;  0.0000000E+00; -5.9228484E-04;  2.3954004E+03;
  2.2515231E-03;  9.9999998E-03; -2.4990237E-01;2452;  7.3607144E-04;  0.0000000E+00; -5.7474582E-04;  9.9128503E+02;  1.0000000E-01; -7.2201909E+03;3;  6.3069843E+01;  0.0000000E+00;  2.2902805E+01;0; -1.1122526E-02;  3.9292102E+04;  0.0000000E+00; -4.3447933E-01;  4.0000000E+04;  0.0000000E+00;  4.0019258E+04; -1.0698634E-02;  0.0000000E+00; -4.2389170E-04;  3.1521899E+03;
  2.6647649E-03;  9.9999998E-03; -2.3993927E-01;2453;  8.2624267E-04;  0.0000000E+00; -5.7822204E-04;  9.9022601E+02;  1.0000000E-01; -8.0975488E+03;3;  7.2079308E+01;  0.0000000E+00;  2.1533648E+01;0; -1.2051717E-02;  3.9207953E+04;  0.0000000E+00; -5.1470476E-01;  4.0000000E+04;  0.0000000E+00;  4.0021184E+04; -1.1800348E-02;  0.0000000E+00; -2.5136949E-04;  3.5874634E+03;
  3.0227506E-03;  9.9999998E-03; -2.2997007E-01;2454;  8.4879593E-04;  0.0000000E+00; -5.6408625E-04;  9.8925702E+02;  1.0000000E-01; -8.9003408E+03;3;  7.8996826E+01;  0.0000000E+00;  1.9756968E+01;0; -1.2937748E-02;  3.9133938E+04;  0.0000000E+00; -5.8148938E-01;  4.0000000E+04;  0.0000000E+00;  4.0022234E+04; -1.2850123E-02;  0.0000000E+00; -8.7624532E-05;  3.6943899E+03;
  3.3199198E-03;  9.9999998E-03; -2.1999267E-01;2455;  8.1779296E-04;  0.0000000E+00; -5.3252111E-04;  9.8840442E+02;  1.0000000E-01; -9.6067402E+03;3;  8.3647842E+01;  0.0000000E+00;  1.7567377E+01;0; -1.3768122E-02;  3.9070770E+04;  0.0000000E+00; -6.2069905E-01;  4.0000000E+04;  0.0000000E+00;  4.0020211E+04; -1.3824992E-02;  0.0000000E+00;  5.6870165E-05;  3.5252805E+03;
  3.5544368E-03;  9.9999998E-03; -2.1000732E-01;2456;  7.5276342E-04;  0.0000000E+00; -4.8673304E-04;  9.8768372E+02;  1.0000000E-01; -1.0203811E+04;3;  8.6226013E+01;  0.0000000E+00;  1.5116543E+01;0; -1.4530655E-02;  3.9018816E+04;  0.0000000E+00; -6.2413180E-01;  4.0000000E+04;  0.0000000E+00;  4.0016684E+04; -1.4706054E-02;  0.0000000E+00;  1.7539869E-04;  3.1645649E+03;
  3.7317416E-03;  9.9999998E-03; -2.0001444E-01;2457;  6.7418121E-04;  0.0000000E+00; -4.3215120E-04;  9.8709845E+02;  1.0000000E-01; -1.0688686E+04;3;  8.7150162E+01;  0.0000000E+00;  1.2641168E+01;0; -1.5215038E-02;  3.8978141E+04;  0.0000000E+00; -5.9124607E-01;  4.0000000E+04;  0.0000000E+00;  4.0012934E+04; -1.5480788E-02;  0.0000000E+00;  2.6575016E-04;  2.7029072E+03;
  3.8623936E-03;  9.9999998E-03; -1.9001545E-01;2458;  5.9997285E-04;  0.0000000E+00; -3.7440323E-04;  9.8664557E+02;  1.0000000E-01; -1.1063885E+04;3;  8.6893097E+01;  0.0000000E+00;  1.0360313E+01;0; -1.5813719E-02;  3.8947129E+04;  0.0000000E+00; -5.2833807E-01;  4.0000000E+04;  0.0000000E+00;  4.0008301E+04; -1.6143605E-02;  0.0000000E+00;  3.2988639E-04;  2.2197480E+03;
  3.9566173E-03;  9.9999998E-03; -1.8001194E-01;2459;  5.4335443E-04;  0.0000000E+00; -3.1816185E-04;  9.8630994E+02;  1.0000000E-01; -1.1341951E+04;3;  8.5935890E+01;  0.0000000E+00;  8.4109592E+00;0; -1.6322048E-02;  3.8924688E+04;  0.0000000E+00; -4.4598508E-01;  4.0000000E+04;  0.0000000E+00;  4.0004520E+04; -1.6694652E-02;  0.0000000E+00;  3.7260429E-04;  1.7731823E+03;
  4.0253601E-03;  9.9999998E-03; -1.7000492E-01;2460;  5.1123853E-04;  0.0000000E+00; -2.6611600E-04;  9.8607300E+02;  1.0000000E-01; -1.1538241E+04;3;  8.4656181E+01;  0.0000000E+00;  6.8237772E+00;0; -1.6739186E-02;  3.8909105E+04;  0.0000000E+00; -3.5602060E-01;  4.0000000E+04;  0.0000000E+00;  4.0001680E+04; -1.7139032E-02;  0.0000000E+00;  3.9984679E-04;  1.3980009E+03;
  4.0768241E-03;  9.9999998E-03; -1.5999609E-01;2461;  5.0462282E-04;  0.0000000E+00; -2.2092699E-04;  9.8591620E+02;  1.0000000E-01; -1.1668164E+04;3;  8.3317818E+01;  0.0000000E+00;  5.5496163E+00;0; -1.7068183E-02;  3.8898918E+04;  0.0000000E+00; -2.6891655E-01;  4.0000000E+04;  0.0000000E+00;  3.9999156E+04; -1.7485350E-02;  0.0000000E+00;  4.1716735E-04;  1.1101731E+03;
  4.1172989E-03;  9.9999998E-03; -1.4998765E-01;2462;  5.1987550E-04;  0.0000000E+00; -1.8435983E-04;  9.8581720E+02;  1.0000000E-01; -1.1750187E+04;3;  8.2120277E+01;  0.0000000E+00;  4.5009437E+00;0; -1.7316127E-02;  3.8892359E+04;  0.0000000E+00; -1.9218042E-01;  4.0000000E+04;  0.0000000E+00;  3.9998719E+04; -1.7745005E-02;  0.0000000E+00;  4.2887797E-04;  9.1205615E+02;
  4.1500367E-03;  9.9999998E-03; -1.3998161E-01;2463;  5.4938305E-04;  0.0000000E+00; -1.5679814E-04;  9.8576105E+02;  1.0000000E-01; -1.1796703E+04;3;  8.1148354E+01;  0.0000000E+00;  3.6062844E+00;0; -1.7492982E-02;  3.8888391E+04;  0.0000000E+00; -1.2989829E-01;  4.0000000E+04;  0.0000000E+00;  3.9997535E+04; -1.7930698E-02;  0.0000000E+00;  4.3771556E-04;  7.9637262E+02;
  4.1757277E-03;  9.9999998E-03; -1.2997775E-01;2464;  5.8458751E-04;  0.0000000E+00; -1.3682531E-04;  9.8572235E+02;  1.0000000E-01; -1.1828752E+04;3;  8.0525444E+01;  0.0000000E+00;  2.8275783E+00;0; -1.7611582E-02;  3.8885836E+04;  0.0000000E+00; -8.3103202E-02;  4.0000000E+04;  0.0000000E+00;  3.9997461E+04; -1.8056493E-02;  0.0000000E+00;  4.4491235E-04;  7.4825684E+02;
  4.1940324E-03;  9.9999998E-03; -1.1997397E-01;2465;  6.1715854E-04;  0.0000000E+00; -1.2196050E-04;  9.8569922E+02;  1.0000000E-01; -1.1847912E+04;3;  8.0184288E+01;  0.0000000E+00;  2.1516283E+00;0; -1.7686572E-02;  3.8884355E+04;  0.0000000E+00; -5.0664812E-02;  4.0000000E+04;  0.0000000E+00;  3.9996848E+04; -1.8137133E-02;  0.0000000E+00;  4.5056155E-04;  7.4857684E+02;
  4.2046392E-03;  9.9999998E-03; -1.0997003E-01;2466;  6.4104120E-04;  0.0000000E+00; -1.1039219E-04;  9.8568622E+02;  1.0000000E-01; -1.1858677E+04;3;  8.0086784E+01;  0.0000000E+00;  1.5727930E+00;0; -1.7733008E-02;  3.8882574E+04;  0.0000000E+00; -2.9832875E-02;  4.0000000E+04;  0.0000000E+00;  3.9996605E+04; -1.8187501E-02;  0.0000000E+00;  4.5449272E-04;  7.7986243E+02;
  1.1170450E-02;  9.9999998E-03; -2.6978302E-01;2510; -4.5080010E-06;  0.0000000E+00; -3.0755982E-04;  9.9472369E+02;  1.0000000E-01; -4.3713330E+03;3;  3.0124382E+01;  0.0000000E+00;  2.0526281E+01;0; -1.0344057E-02;  3.9570172E+04;  0.0000000E+00; -3.5295406E-01;  4.0000000E+04;  0.0000000E+00;  4.0008082E+04; -9.5759612E-03;  0.0000000E+00; -7.6809642E-04;  1.6304832E+03;
  1.1644187E-02;  9.9999998E-03; -2.5982431E-01;2511;  1.0036868E-04;  0.0000000E+00; -3.2897692E-04;  9.9387268E+02;  1.0000000E-01; -5.0763501E+03;3;  3.8486412E+01;  0.0000000E+00;  1.9093208E+01;0; -1.1441740E-02;  3.9496102E+04;  0.0000000E+00; -4.3118250E-01;  4.0000000E+04;  0.0000000E+00;  4.0015043E+04; -1.0838418E-02;  0.0000000E+00; -6.0332153E-04;  2.6161963E+03;
  1.2063864E-02;  9.9999998E-03; -2.4987662E-01;2512;  1.5763725E-04;  0.0000000E+00; -3.4051083E-04;  9.9302942E+02;  1.0000000E-01; -5.7749971E+03;3;  4.5953209E+01;  0.0000000E+00;  1.8008024E+01;0; -1.2499063E-02;  3.9426719E+04;  0.0000000E+00; -5.3612530E-01;  4.0000000E+04;  0.0000000E+00;  4.0021121E+04; -1.2075927E-02;  0.0000000E+00; -4.2313652E-04;  3.3203464E+03;
  1.2421041E-02;  9.9999998E-03; -2.3992492E-01;2513;  1.5607430E-04;  0.0000000E+00; -3.3832804E-04;  9.9224561E+02;  1.0000000E-01; -6.4243613E+03;3;  5.1650219E+01;  0.0000000E+00;  1.6936243E+01;0; -1.3504538E-02;  3.9364203E+04;  0.0000000E+00; -6.4925343E-01;  4.0000000E+04;  0.0000000E+00;  4.0023898E+04; -1.3261850E-02;  0.0000000E+00; -2.4268776E-04;  3.6666892E+03;
  1.2720617E-02;  9.9999998E-03; -2.2996254E-01;2514;  1.0270793E-04;  0.0000000E+00; -3.1984205E-04;  9.9153906E+02;  1.0000000E-01; -7.0097275E+03;3;  5.5237373E+01;  0.0000000E+00;  1.5608026E+01;0; -1.4449037E-02;  3.9310398E+04;  0.0000000E+00; -7.4671429E-01;  4.0000000E+04;  0.0000000E+00;  4.0023355E+04; -1.4373347E-02;  0.0000000E+00; -7.5689430E-05;  3.6686067E+03;
  1.2958884E-02;  9.9999998E-03; -2.1998972E-01;2515;  1.7168166E-05;  0.0000000E+00; -2.8711994E-04;  9.9093573E+02;  1.0000000E-01; -7.5095654E+03;3;  5.6671829E+01;  0.0000000E+00;  1.3877917E+01;0; -1.5323802E-02;  3.9266770E+04;  0.0000000E+00; -8.0711621E-01;  4.0000000E+04;  0.0000000E+00;  4.0020293E+04; -1.5391171E-02;  0.0000000E+00;  6.7368761E-05;  3.4014509E+03;
  1.3137794E-02;  9.9999998E-03; -2.1000676E-01;2516; -7.4076175E-05;  0.0000000E+00; -2.4739656E-04;  9.9042932E+02;  1.0000000E-01; -7.9291089E+03;3;  5.6347500E+01;  0.0000000E+00;  1.1878414E+01;0; -1.6123056E-02;  3.9231789E+04;  0.0000000E+00; -8.1802297E-01;  4.0000000E+04;  0.0000000E+00;  4.0016156E+04; -1.6303845E-02;  0.0000000E+00;  1.8078866E-04;  2.9646128E+03;
  1.3266439E-02;  9.9999998E-03; -2.0001516E-01;2517; -1.5389766E-04;  0.0000000E+00; -2.1061646E-04;  9.9003955E+02;  1.0000000E-01; -8.2520625E+03;3;  5.4673756E+01;  0.0000000E+00;  9.8518848E+00;0; -1.6839905E-02;  3.9205836E+04;  0.0000000E+00; -7.7825665E-01;  4.0000000E+04;  0.0000000E+00;  4.0011965E+04; -1.7104119E-02;  0.0000000E+00;  2.6421348E-04;  2.4560920E+03;
  1.3356176E-02;  9.9999998E-03; -1.9001724E-01;2518; -2.1644561E-04;  0.0000000E+00; -1.8019348E-04;  9.8975507E+02;  1.0000000E-01; -8.4877109E+03;3;  5.2319210E+01;  0.0000000E+00;  8.0109625E+00;0; -1.7465590E-02;  3.9187789E+04;  0.0000000E+00; -6.9650924E-01;  4.0000000E+04;  0.0000000E+00;  4.0007043E+04; -1.7787609E-02;  0.0000000E+00;  3.2201968E-04;  1.9539158E+03;
  1.3417291E-02;  9.9999998E-03; -1.8001468E-01;2519; -2.5922651E-04;  0.0000000E+00; -1.5427844E-04;  9.8955908E+02;  1.0000000E-01; -8.6501260E+03;3;  4.9831612E+01;  0.0000000E+00;  6.4523082E+00;0; -1.7993523E-02;  3.9175863E+04;  0.0000000E+00; -5.8757460E-01;  4.0000000E+04;  0.0000000E+00;  4.0003215E+04; -1.8354626E-02;  0.0000000E+00;  3.6110371E-04;  1.5079976E+03;
  1.3459789E-02;  9.9999998E-03; -1.7000885E-01;2520; -2.8139169E-04;  0.0000000E+00; -1.3198065E-04;  9.8943719E+02;  1.0000000E-01; -8.7510615E+03;3;  4.7537338E+01;  0.0000000E+00;  5.1824737E+00;0; -1.8422224E-02;  3.9168684E+04;  0.0000000E+00; -4.6798161E-01;  4.0000000E+04;  0.0000000E+00;  4.0000035E+04; -1.8810807E-02;  0.0000000E+00;  3.8858302E-04;  1.1426594E+03;
  1.3491505E-02;  9.9999998E-03; -1.6000199E-01;2521; -2.8452350E-04;  0.0000000E+00; -1.1357990E-04;  9.8936719E+02;  1.0000000E-01; -8.8090840E+03;3;  4.5641846E+01;  0.0000000E+00;  4.1550598E+00;0; -1.8755378E-02;  3.9165172E+04;  0.0000000E+00; -3.5227448E-01;  4.0000000E+04;  0.0000000E+00;  3.9999023E+04; -1.9165706E-02;  0.0000000E+00;  4.1032812E-04;  8.6423987E+02;
  1.3518058E-02;  9.9999998E-03; -1.4999633E-01;2522; -2.7291311E-04;  0.0000000E+00; -9.9180397E-05;  9.8933801E+02;  1.0000000E-01; -8.8332314E+03;3;  4.4160435E+01;  0.0000000E+00;  3.3059828E+00;0; -1.9001408E-02;  3.9163578E+04;  0.0000000E+00; -2.5079915E-01;  4.0000000E+04;  0.0000000E+00;  3.9997344E+04; -1.9431563E-02;  0.0000000E+00;  4.3015508E-04;  6.6956079E+02;
  1.3541084E-02;  9.9999998E-03; -1.3999192E-01;2523; -2.5212750E-04;  0.0000000E+00; -8.8446097E-05;  9.8932935E+02;  1.0000000E-01; -8.8404414E+03;3;  4.3113678E+01;  0.0000000E+00;  2.5812917E+00;0; -1.9172484E-02;  3.9163488E+04;  0.0000000E+00; -1.6903046E-01;  4.0000000E+04;  0.0000000E+00;  3.9996887E+04; -1.9622177E-02;  0.0000000E+00;  4.4969303E-04;  5.5107019E+02;
  1.3560692E-02;  9.9999998E-03; -1.2998821E-01;2524; -2.2815356E-04;  0.0000000E+00; -8.0702121E-05;  9.8932544E+02;  1.0000000E-01; -8.8436514E+03;3;  4.2473721E+01;  0.0000000E+00;  1.9502004E+00;0; -1.9283734E-02;  3.9163078E+04;  0.0000000E+00; -1.0816133E-01;  4.0000000E+04;  0.0000000E+00;  3.9997422E+04; -1.9752502E-02;  0.0000000E+00;  4.6876795E-04;  4.9602634E+02;
  1.3576200E-02;  9.9999998E-03; -1.1998463E-01;2525; -2.0641016E-04;  0.0000000E+00; -7.4433279E-05;  9.8932440E+02;  1.0000000E-01; -8.8445400E+03;3;  4.2119102E+01;  0.0000000E+00;  1.4053258E+00;0; -1.9352004E-02;  3.9162949E+04;  0.0000000E+00; -6.6353776E-02;  4.0000000E+04;  0.0000000E+00;  3.9997062E+04; -1.9838097E-02;  0.0000000E+00;  4.8609183E-04;  4.8479318E+02;
  1.3586736E-02;  9.9999998E-03; -1.0998096E-01;2526; -1.9061958E-04;  0.0000000E+00; -6.9238755E-05;  9.8931519E+02;  1.0000000E-01; -8.8521445E+03;3;  4.2023773E+01;  0.0000000E+00;  9.4044173E-01;0; -1.9393902E-02;  3.9162219E+04;  0.0000000E+00; -3.9710414E-02;  4.0000000E+04;  0.0000000E+00;  3.9997539E+04; -1.9894280E-02;  0.0000000E+00;  5.0037634E-04;  4.9812210E+02;
  2.1014577E-02;  9.9999998E-03; -2.6981857E-01;2571; -3.0094679E-04;  0.0000000E+00; -1.7232740E-04;  9.9611932E+02;  1.0000000E-01; -3.2150696E+03;3;  1.7515249E+01;  0.0000000E+00;  1.3339681E+01;0; -1.1186954E-02;  3.9677195E+04;  0.0000000E+00; -4.4715509E-01;  4.0000000E+04;  0.0000000E+00;  4.0011039E+04; -1.0397959E-02;  0.0000000E+00; -7.8899506E-04;  1.8995215E+03;
  2.1453353E-02;  9.9999998E-03; -2.5986606E-01;2572; -2.7382412E-04;  0.0000000E+00; -1.7953475E-04;  9.9556433E+02;  1.0000000E-01; -3.6748591E+03;3;  2.2462194E+01;  0.0000000E+00;  1.1687578E+01;0; -1.2360202E-02;  3.9627320E+04;  0.0000000E+00; -5.3131050E-01;  4.0000000E+04;  0.0000000E+00;  4.0017992E+04; -1.1745231E-02;  0.0000000E+00; -6.1497104E-04;  2.8115415E+03;
  2.1827582E-02;  9.9999998E-03; -2.4992210E-01;2573; -2.8778118E-04;  0.0000000E+00; -1.8308499E-04;  9.9503448E+02;  1.0000000E-01; -4.1138589E+03;3;  2.6177576E+01;  0.0000000E+00;  1.0890888E+01;0; -1.3478454E-02;  3.9582566E+04;  0.0000000E+00; -6.4822465E-01;  4.0000000E+04;  0.0000000E+00;  4.0023070E+04; -1.3050690E-02;  0.0000000E+00; -4.2776385E-04;  3.4073062E+03;
  2.2136495E-02;  9.9999998E-03; -2.3996957E-01;2574; -3.4072617E-04;  0.0000000E+00; -1.8154568E-04;  9.9455194E+02;  1.0000000E-01; -4.5136006E+03;3;  2.8012156E+01;  0.0000000E+00;  1.0555738E+01;0; -1.4534197E-02;  3.9544070E+04;  0.0000000E+00; -7.7572745E-01;  4.0000000E+04;  0.0000000E+00;  4.0023961E+04; -1.4289858E-02;  0.0000000E+00; -2.4433876E-04;  3.6261611E+03;
  2.2386532E-02;  9.9999998E-03; -2.3000230E-01;2575; -4.2552079E-04;  0.0000000E+00; -1.7587590E-04;  9.9413043E+02;  1.0000000E-01; -4.8628252E+03;3;  2.7830694E+01;  0.0000000E+00;  1.0230490E+01;0; -1.5520110E-02;  3.9513477E+04;  0.0000000E+00; -8.8506061E-01;  4.0000000E+04;  0.0000000E+00;  4.0022652E+04; -1.5440760E-02;  0.0000000E+00; -7.9349455E-05;  3.5031792E+03;
  2.2575188E-02;  9.9999998E-03; -2.2002159E-01;2576; -5.2991346E-04;  0.0000000E+00; -1.6778176E-04;  9.9378326E+02;  1.0000000E-01; -5.1504717E+03;3;  2.5929485E+01;  0.0000000E+00;  9.6251850E+00;0; -1.6427586E-02;  3.9490590E+04;  0.0000000E+00; -9.5076746E-01;  4.0000000E+04;  0.0000000E+00;  4.0019008E+04; -1.6484933E-02;  0.0000000E+00;  5.7346420E-05;  3.1353198E+03;
  2.2706542E-02;  9.9999998E-03; -2.1002983E-01;2577; -6.3947309E-04;  0.0000000E+00; -1.5834629E-04;  9.9351453E+02;  1.0000000E-01; -5.3730825E+03;3;  2.2874113E+01;  0.0000000E+00;  8.6946964E+00;0; -1.7248454E-02;  3.9474875E+04;  0.0000000E+00; -9.5853031E-01;  4.0000000E+04;  0.0000000E+00;  4.0014941E+04; -1.7410545E-02;  0.0000000E+00;  1.6209180E-04;  2.6381213E+03;
  2.2792155E-02;  9.9999998E-03; -2.0003004E-01;2578; -7.4068713E-04;  0.0000000E+00; -1.4831235E-04;  9.9332947E+02;  1.0000000E-01; -5.5264116E+03;3;  1.9238226E+01;  0.0000000E+00;  7.5527101E+00;0; -1.7975485E-02;  3.9464887E+04;  0.0000000E+00; -9.0754968E-01;  4.0000000E+04;  0.0000000E+00;  4.0010000E+04; -1.8212568E-02;  0.0000000E+00;  2.3708388E-04;  2.1141204E+03;
  2.2843435E-02;  9.9999998E-03; -1.9002523E-01;2579; -8.2280161E-04;  0.0000000E+00; -1.3828451E-04;  9.9321594E+02;  1.0000000E-01; -5.6204829E+03;3;  1.5585521E+01;  0.0000000E+00;  6.3673620E+00;0; -1.8602801E-02;  3.9460320E+04;  0.0000000E+00; -8.0856276E-01;  4.0000000E+04;  0.0000000E+00;  4.0004605E+04; -1.8891528E-02;  0.0000000E+00;  2.8872627E-04;  1.6341240E+03;
  2.2871753E-02;  9.9999998E-03; -1.8001761E-01;2580; -8.7950582E-04;  0.0000000E+00; -1.2815808E-04;  9.9316724E+02;  1.0000000E-01; -5.6608276E+03;3;  1.2254301E+01;  0.0000000E+00;  5.2632070E+00;0; -1.9127361E-02;  3.9459293E+04;  0.0000000E+00; -6.7922175E-01;  4.0000000E+04;  0.0000000E+00;  4.0001457E+04; -1.9452697E-02;  0.0000000E+00;  3.2533560E-04;  1.2318486E+03;
  2.2888014E-02;  9.9999998E-03; -1.7000967E-01;2581; -9.0906321E-04;  0.0000000E+00; -1.1819486E-04;  9.9316016E+02;  1.0000000E-01; -5.6667041E+03;3;  9.4946728E+00;  0.0000000E+00;  4.2970643E+00;0; -1.9549994E-02;  3.9460699E+04;  0.0000000E+00; -5.3885692E-01;  4.0000000E+04;  0.0000000E+00;  4.0000172E+04; -1.9904889E-02;  0.0000000E+00;  3.5489525E-04;  9.1180426E+02;
  2.2900071E-02;  9.9999998E-03; -1.6000293E-01;2582; -9.1411336E-04;  0.0000000E+00; -1.0879984E-04;  9.9318097E+02;  1.0000000E-01; -5.6494204E+03;3;  7.3431582E+00;  0.0000000E+00;  3.4702046E+00;0; -1.9875899E-02;  3.9463574E+04;  0.0000000E+00; -4.0425235E-01;  4.0000000E+04;  0.0000000E+00;  3.9998629E+04; -2.0259332E-02;  0.0000000E+00;  3.8343261E-04;  6.6421100E+02;
  2.2912286E-02;  9.9999998E-03; -1.4999750E-01;2583; -9.0044871E-04;  0.0000000E+00; -1.0037670E-04;  9.9321814E+02;  1.0000000E-01; -5.6186558E+03;3;  5.7356639E+00;  0.0000000E+00;  2.7614102E+00;0; -2.0114575E-02;  3.9466914E+04;  0.0000000E+00; -2.8716621E-01;  4.0000000E+04;  0.0000000E+00;  3.9998062E+04; -2.0528717E-02;  0.0000000E+00;  4.1414247E-04;  4.7905469E+02;
  2.2925720E-02;  9.9999998E-03; -1.3999306E-01;2584; -8.7541086E-04;  0.0000000E+00; -9.3078808E-05;  9.9325452E+02;  1.0000000E-01; -5.5884839E+03;3;  4.6164279E+00;  0.0000000E+00;  2.1494858E+00;0; -2.0279115E-02;  3.9469961E+04;  0.0000000E+00; -1.9361243E-01;  4.0000000E+04;  0.0000000E+00;  3.9997219E+04; -2.0726470E-02;  0.0000000E+00;  4.4735597E-04;  3.5157544E+02;
  2.2939678E-02;  9.9999998E-03; -1.2998937E-01;2585; -8.4662769E-04;  0.0000000E+00; -8.6559448E-05;  9.9328101E+02;  1.0000000E-01; -5.5665586E+03;3;  3.8871291E+00;  0.0000000E+00;  1.6213192E+00;0; -2.0385221E-02;  3.9471801E+04;  0.0000000E+00; -1.2458602E-01;  4.0000000E+04;  0.0000000E+00;  3.9997852E+04; -2.0866457E-02;  0.0000000E+00;  4.8123609E-04;  2.7769443E+02;
  2.2952784E-02;  9.9999998E-03; -1.1998621E-01;2586; -8.2066411E-04;  0.0000000E+00; -8.0278347E-05;  9.9329352E+02;  1.0000000E-01; -5.5561885E+03;3;  3.4446530E+00;  0.0000000E+00;  1.1700244E+00;0; -2.0450078E-02;  3.9472984E+04;  0.0000000E+00; -7.7526808E-02;  4.0000000E+04;  0.0000000E+00;  3.9997621E+04; -2.0962929E-02;  0.0000000E+00;  5.1285070E-04;  2.4385234E+02;
  2.2963507E-02;  9.9999998E-03; -1.0998387E-01;2587; -8.0210617E-04;  0.0000000E+00; -7.4233903E-05;  9.9329211E+02;  1.0000000E-01; -5.5573735E+03;3;  3.2028809E+00;  0.0000000E+00;  7.8886330E-01;0; -2.0490244E-02;  3.9473102E+04;  0.0000000E+00; -4.7635585E-02;  4.0000000E+04;  0.0000000E+00;  3.9997402E+04; -2.1029850E-02;  0.0000000E+00;  5.3960650E-04;  2.2965150E+02;
  3.0862520E-02;  9.9999998E-03; -2.6987490E-01;2632; -5.8967329E-04;  0.0000000E+00; -8.1521815E-05;  9.9748224E+02;  1.0000000E-01; -2.0859163E+03;3;  7.2441459E+00;  0.0000000E+00;  4.7915592E+00;0; -1.1639086E-02;  3.9782816E+04;  0.0000000E+00; -5.4239124E-01;  4.0000000E+04;  0.0000000E+00;  4.0012969E+04; -1.0839432E-02;  0.0000000E+00; -7.9965370E-04;  2.1233794E+03;
  3.1275105E-02;  9.9999998E-03; -2.5991753E-01;2633; -6.0374191E-04;  0.0000000E+00; -9.5496835E-05;  9.9722626E+02;  1.0000000E-01; -2.2980090E+03;3;  8.8313761E+00;  0.0000000E+00;  3.2930002E+00;0; -1.2846919E-02;  3.9757926E+04;  0.0000000E+00; -6.1155909E-01;  4.0000000E+04;  0.0000000E+00;  4.0019859E+04; -1.2227606E-02;  0.0000000E+00; -6.1931275E-04;  2.9075383E+03;
  3.1613167E-02;  9.9999998E-03; -2.4996857E-01;2634; -6.6101219E-04;  0.0000000E+00; -1.0475547E-04;  9.9700275E+02;  1.0000000E-01; -2.4831890E+03;3;  9.1298265E+00;  0.0000000E+00;  3.1599755E+00;0; -1.3988445E-02;  3.9737418E+04;  0.0000000E+00; -7.1439672E-01;  4.0000000E+04;  0.0000000E+00;  4.0023641E+04; -1.3560389E-02;  0.0000000E+00; -4.2805544E-04;  3.3507266E+03;
  3.1879298E-02;  9.9999998E-03; -2.4000919E-01;2635; -7.5771223E-04;  0.0000000E+00; -1.0911555E-04;  9.9681287E+02;  1.0000000E-01; -2.6404685E+03;3;  7.8151474E+00;  0.0000000E+00;  3.8462369E+00;0; -1.5057343E-02;  3.9723684E+04;  0.0000000E+00; -8.2902712E-01;  4.0000000E+04;  0.0000000E+00;  4.0024012E+04; -1.4812691E-02;  0.0000000E+00; -2.4465166E-04;  3.4131675E+03;
  3.2082926E-02;  9.9999998E-03; -2.3003227E-01;2636; -8.8493683E-04;  0.0000000E+00; -1.1025115E-04;  9.9667169E+02;  1.0000000E-01; -2.7574529E+03;3;  4.9069252E+00;  0.0000000E+00;  4.6762605E+00;0; -1.6047662E-02;  3.9715703E+04;  0.0000000E+00; -9.2645013E-01;  4.0000000E+04;  0.0000000E+00;  4.0021133E+04; -1.5963126E-02;  0.0000000E+00; -8.4536892E-05;  3.1546477E+03;
  3.2224573E-02;  9.9999998E-03; -2.2004026E-01;2637; -1.0288578E-03;  0.0000000E+00; -1.0971967E-04;  9.9657251E+02;  1.0000000E-01; -2.8396233E+03;3;  8.7980241E-01;  0.0000000E+00;  5.2272758E+00;0; -1.6952636E-02;  3.9713543E+04;  0.0000000E+00; -9.8124826E-01;  4.0000000E+04;  0.0000000E+00;  4.0017574E+04; -1.6995652E-02;  0.0000000E+00;  4.3016305E-05;  2.6963552E+03;
  3.2310404E-02;  9.9999998E-03; -2.1003786E-01;2638; -1.1736032E-03;  0.0000000E+00; -1.0836771E-04;  9.9652997E+02;  1.0000000E-01; -2.8748323E+03;3; -3.7577596E+00;  0.0000000E+00;  5.3329706E+00;0; -1.7765509E-02;  3.9715797E+04;  0.0000000E+00; -9.7953749E-01;  4.0000000E+04;  0.0000000E+00;  4.0012148E+04; -1.7901704E-02;  0.0000000E+00;  1.3619490E-04;  2.1715754E+03;
  3.2353986E-02;  9.9999998E-03; -2.0002949E-01;2639; -1.3028814E-03;  0.0000000E+00; -1.0740740E-04;  9.9653094E+02;  1.0000000E-01; -2.8740422E+03;3; -8.3837376E+00;  0.0000000E+00;  5.0672455E+00;0; -1.8480755E-02;  3.9721191E+04;  0.0000000E+00; -9.2106396E-01;  4.0000000E+04;  0.0000000E+00;  4.0006641E+04; -1.8680532E-02;  0.0000000E+00;  1.9977521E-04;  1.6868104E+03;
  3.2368578E-02;  9.9999998E-03; -1.9001868E-01;2640; -1.4047960E-03;  0.0000000E+00; -1.0760363E-04;  9.9658179E+02;  1.0000000E-01; -2.8319199E+03;3; -1.2633323E+01;  0.0000000E+00;  4.5669556E+00;0; -1.9094093E-02;  3.9729180E+04;  0.0000000E+00; -8.1686503E-01;  4.0000000E+04;  0.0000000E+00;  4.0002387E+04; -1.9336816E-02;  0.0000000E+00;  2.4272356E-04;  1.2980094E+03;
  3.2367941E-02;  9.9999998E-03; -1.8000886E-01;2641; -1.4733453E-03;  0.0000000E+00; -1.0850383E-04;  9.9665637E+02;  1.0000000E-01; -2.7701438E+03;3; -1.6171434E+01;  0.0000000E+00;  3.9682589E+00;0; -1.9603690E-02;  3.9738117E+04;  0.0000000E+00; -6.8439293E-01;  4.0000000E+04;  0.0000000E+00;  3.9999691E+04; -1.9878946E-02;  0.0000000E+00;  2.7525530E-04;  1.0059594E+03;
  3.2361660E-02;  9.9999998E-03; -1.7000143E-01;2642; -1.5084605E-03;  0.0000000E+00; -1.0897427E-04;  9.9675482E+02;  1.0000000E-01; -2.6885659E+03;3; -1.8986984E+01;  0.0000000E+00;  3.3490798E+00;0; -2.0011149E-02;  3.9747363E+04;  0.0000000E+00; -5.4249740E-01;  4.0000000E+04;  0.0000000E+00;  3.9997652E+04; -2.0317517E-02;  0.0000000E+00;  3.0636735E-04;  7.7829297E+02;
  3.2356702E-02;  9.9999998E-03; -1.5999636E-01;2643; -1.5143392E-03;  0.0000000E+00; -1.0801635E-04;  9.9685828E+02;  1.0000000E-01; -2.6028401E+03;3; -2.1096077E+01;  0.0000000E+00;  2.7519903E+00;0; -2.0322412E-02;  3.9755824E+04;  0.0000000E+00; -4.0742177E-01;  4.0000000E+04;  0.0000000E+00;  3.9997574E+04; -2.0664558E-02;  0.0000000E+00;  3.4214638E-04;  5.8570795E+02;
  3.2356378E-02;  9.9999998E-03; -1.4999305E-01;2644; -1.4982945E-03;  0.0000000E+00; -1.0508794E-04;  9.9694110E+02;  1.0000000E-01; -2.5342493E+03;3; -2.2546459E+01;  0.0000000E+00;  2.2003934E+00;0; -2.0547692E-02;  3.9763207E+04;  0.0000000E+00; -2.9046455E-01;  4.0000000E+04;  0.0000000E+00;  3.9998090E+04; -2.0932660E-02;  0.0000000E+00;  3.8496748E-04;  4.1941013E+02;
  3.2361075E-02;  9.9999998E-03; -1.3999082E-01;2645; -1.4695138E-03;  0.0000000E+00; -1.0060053E-04;  9.9701434E+02;  1.0000000E-01; -2.4735596E+03;3; -2.3584089E+01;  0.0000000E+00;  1.7098306E+00;0; -2.0700807E-02;  3.9768355E+04;  0.0000000E+00; -1.9730818E-01;  4.0000000E+04;  0.0000000E+00;  3.9998168E+04; -2.1134410E-02;  0.0000000E+00;  4.3360252E-04;  2.8444641E+02;
  3.2369971E-02;  9.9999998E-03; -1.2998925E-01;2646; -1.4367666E-03;  0.0000000E+00; -9.4781120E-05;  9.9706281E+02;  1.0000000E-01; -2.4334126E+03;3; -2.4284769E+01;  0.0000000E+00;  1.2878166E+00;0; -2.0798162E-02;  3.9772066E+04;  0.0000000E+00; -1.2873642E-01;  4.0000000E+04;  0.0000000E+00;  3.9998844E+04; -2.1282371E-02;  0.0000000E+00;  4.8421012E-04;  1.8595464E+02;
  3.2381192E-02;  9.9999998E-03; -1.1998825E-01;2647; -1.4074895E-03;  0.0000000E+00; -8.7646389E-05;  9.9708331E+02;  1.0000000E-01; -2.4164255E+03;3; -2.4747128E+01;  0.0000000E+00;  9.3080395E-01;0; -2.0857340E-02;  3.9773605E+04;  0.0000000E+00; -8.1931204E-02;  4.0000000E+04;  0.0000000E+00;  3.9998707E+04; -2.1389231E-02;  0.0000000E+00;  5.3189055E-04;  1.1945399E+02;
  3.2392155E-02;  9.9999998E-03; -1.0998819E-01;2648; -1.3868898E-03;  0.0000000E+00; -7.9906793E-05;  9.9708386E+02;  1.0000000E-01; -2.4159810E+03;3; -2.5075483E+01;  0.0000000E+00;  6.3167197E-01;0; -2.0894716E-02;  3.9774086E+04;  0.0000000E+00; -5.1946703E-02;  4.0000000E+04;  0.0000000E+00;  3.9998277E+04; -2.1467220E-02;  0.0000000E+00;  5.7250459E-04;  7.5114059E+01;
  4.0738709E-02;  9.9999998E-03; -2.6992059E-01;2693; -8.5137162E-04;  0.0000000E+00; -2.0184869E-05;  9.9864191E+02;  1.0000000E-01; -1.1251533E+03;3;  8.3376956E-01;  0.0000000E+00; -3.8293033E+00;0; -1.1702097E-02;  3.9873488E+04;  0.0000000E+00; -5.9224850E-01;  4.0000000E+04;  0.0000000E+00;  4.0015430E+04; -1.0904096E-02;  0.0000000E+00; -7.9800130E-04;  2.2637390E+03;
  4.1124951E-02;  9.9999998E-03; -2.5995749E-01;2694; -8.9606427E-04;  0.0000000E+00; -4.0644638E-05;  9.9865112E+02;  1.0000000E-01; -1.1174993E+03;3;  1.4910622E-02;  0.0000000E+00; -5.0394182E+00;0; -1.2895821E-02;  3.9870445E+04;  0.0000000E+00; -6.1651552E-01;  4.0000000E+04;  0.0000000E+00;  4.0021043E+04; -1.2285365E-02;  0.0000000E+00; -6.1045634E-04;  2.8855374E+03;
  4.1429475E-02;  9.9999998E-03; -2.5000051E-01;2695; -9.8634965E-04;  0.0000000E+00; -5.5142340E-05;  9.9869513E+02;  1.0000000E-01; -1.0810558E+03;3; -2.0059106E+00;  0.0000000E+00; -4.4164290E+00;0; -1.4016751E-02;  3.9872957E+04;  0.0000000E+00; -6.7290032E-01;  4.0000000E+04;  0.0000000E+00;  4.0022629E+04; -1.3601670E-02;  0.0000000E+00; -4.1508130E-04;  3.1479458E+03;
  4.1656449E-02;  9.9999998E-03; -2.4003132E-01;2696; -1.1188228E-03;  0.0000000E+00; -6.2498162E-05;  9.9875690E+02;  1.0000000E-01; -1.0298969E+03;3; -5.3014131E+00;  0.0000000E+00; -2.6733871E+00;0; -1.5060492E-02;  3.9880594E+04;  0.0000000E+00; -7.4500877E-01;  4.0000000E+04;  0.0000000E+00;  4.0022832E+04; -1.4827671E-02;  0.0000000E+00; -2.3282145E-04;  3.0350964E+03;
  4.1816376E-02;  9.9999998E-03; -2.3004340E-01;2697; -1.2836608E-03;  0.0000000E+00; -6.3276428E-05;  9.9885156E+02;  1.0000000E-01; -9.5147925E+02;3; -9.7380161E+00;  0.0000000E+00; -6.8783760E-01;0; -1.6022896E-02;  3.9892898E+04;  0.0000000E+00; -8.0874783E-01;  4.0000000E+04;  0.0000000E+00;  4.0019277E+04; -1.5942886E-02;  0.0000000E+00; -8.0009748E-05;  2.6338486E+03;
  4.1913074E-02;  9.9999998E-03; -2.2004057E-01;2698; -1.4632625E-03;  0.0000000E+00; -5.8803285E-05;  9.9897412E+02;  1.0000000E-01; -8.4990192E+02;3; -1.4832935E+01;  0.0000000E+00;  9.8111069E-01;0; -1.6899463E-02;  3.9908797E+04;  0.0000000E+00; -8.4231299E-01;  4.0000000E+04;  0.0000000E+00;  4.0014754E+04; -1.6934343E-02;  0.0000000E+00;  3.4879427E-05;  2.0936526E+03;
  4.1956961E-02;  9.9999998E-03; -2.1002914E-01;2699; -1.6347911E-03;  0.0000000E+00; -5.7365527E-05;  9.9911743E+02;  1.0000000E-01; -7.3118921E+02;3; -2.0006746E+01;  0.0000000E+00;  2.0956295E+00;0; -1.7685642E-02;  3.9926559E+04;  0.0000000E+00; -8.3349967E-01;  4.0000000E+04;  0.0000000E+00;  4.0007891E+04; -1.7798070E-02;  0.0000000E+00;  1.1242778E-04;  1.5739357E+03;
  4.1964319E-02;  9.9999998E-03; -2.0001480E-01;2700; -1.7806466E-03;  0.0000000E+00; -6.3448293E-05;  9.9928400E+02;  1.0000000E-01; -5.9321777E+02;3; -2.4813564E+01;  0.0000000E+00;  2.6664715E+00;0; -1.8376134E-02;  3.9945203E+04;  0.0000000E+00; -7.8141201E-01;  4.0000000E+04;  0.0000000E+00;  4.0004012E+04; -1.8536732E-02;  0.0000000E+00;  1.6059760E-04;  1.1964471E+03;
  4.1950833E-02;  9.9999998E-03; -1.9000269E-01;2701; -1.8910053E-03;  0.0000000E+00; -7.5208067E-05;  9.9946423E+02;  1.0000000E-01; -4.4388867E+02;3; -2.8935148E+01;  0.0000000E+00;  2.8292935E+00;0; -1.8966025E-02;  3.9963664E+04;  0.0000000E+00; -6.9417143E-01;  4.0000000E+04;  0.0000000E+00;  4.0000258E+04; -1.9157445E-02;  0.0000000E+00;  1.9142026E-04;  9.8801343E+02;
  4.1928120E-02;  9.9999998E-03; -1.7999440E-01;2702; -1.9624913E-03;  0.0000000E+00; -8.8878936E-05;  9.9964618E+02;  1.0000000E-01; -2.9312750E+02;3; -3.2226685E+01;  0.0000000E+00;  2.7217767E+00;0; -1.9453213E-02;  3.9980688E+04;  0.0000000E+00; -5.8502054E-01;  4.0000000E+04;  0.0000000E+00;  3.9998219E+04; -1.9670624E-02;  0.0000000E+00;  2.1741129E-04;  8.6819214E+02;
  4.1904457E-02;  9.9999998E-03; -1.6998973E-01;2703; -1.9969535E-03;  0.0000000E+00; -1.0079933E-04;  9.9982153E+02;  1.0000000E-01; -1.4784767E+02;3; -3.4707981E+01;  0.0000000E+00;  2.4449375E+00;0; -1.9839492E-02;  3.9995461E+04;  0.0000000E+00; -4.6822119E-01;  4.0000000E+04;  0.0000000E+00;  3.9997332E+04; -2.0088153E-02;  0.0000000E+00;  2.4866173E-04;  7.4721356E+02;
  4.1885737E-02;  9.9999998E-03; -1.5998814E-01;2704; -2.0000348E-03;  0.0000000E+00; -1.0866667E-04;  9.9997321E+02;  1.0000000E-01; -2.2221594E+01;3; -3.6457645E+01;  0.0000000E+00;  2.0748882E+00;0; -2.0131271E-02;  4.0008000E+04;  0.0000000E+00; -3.5629255E-01;  4.0000000E+04;  0.0000000E+00;  3.9998016E+04; -2.0422459E-02;  0.0000000E+00;  2.9118761E-04;  5.9710083E+02;
  4.1874915E-02;  9.9999998E-03; -1.4998887E-01;2705; -1.9803115E-03;  0.0000000E+00; -1.1168710E-04;  1.0000996E+03;  1.0000000E-01;  8.2565567E+01;3; -3.7667530E+01;  0.0000000E+00;  1.6754183E+00;0; -2.0339316E-02;  4.0017809E+04;  0.0000000E+00; -2.5826901E-01;  4.0000000E+04;  0.0000000E+00;  3.9998348E+04; -2.0685658E-02;  0.0000000E+00;  3.4634137E-04;  4.3629050E+02;
  4.1872352E-02;  9.9999998E-03; -1.3999029E-01;2706; -1.9474729E-03;  0.0000000E+00; -1.1018856E-04;  1.0001934E+03;  1.0000000E-01;  1.6029176E+02;3; -3.8496223E+01;  0.0000000E+00;  1.3000162E+00;0; -2.0478310E-02;  4.0024578E+04;  0.0000000E+00; -1.7909558E-01;  4.0000000E+04;  0.0000000E+00;  4.0000086E+04; -2.0889428E-02;  0.0000000E+00;  4.1111710E-04;  2.9547134E+02;
  4.1877113E-02;  9.9999998E-03; -1.2999228E-01;2707; -1.9110485E-03;  0.0000000E+00; -1.0481499E-04;  1.0002477E+03;  1.0000000E-01;  2.0522876E+02;3; -3.9060623E+01;  0.0000000E+00;  9.7710073E-01;0; -2.0565402E-02;  4.0028754E+04;  0.0000000E+00; -1.1988565E-01;  4.0000000E+04;  0.0000000E+00;  3.9999777E+04; -2.1044791E-02;  0.0000000E+00;  4.7938857E-04;  1.9510446E+02;
  4.1886702E-02;  9.9999998E-03; -1.1999459E-01;2708; -1.8790055E-03;  0.0000000E+00; -9.6441268E-05;  1.0002700E+03;  1.0000000E-01;  2.2369737E+02;3; -3.9488480E+01;  0.0000000E+00;  7.0616496E-01;0; -2.0618418E-02;  4.0030438E+04;  0.0000000E+00; -7.8592949E-02;  4.0000000E+04;  0.0000000E+00;  4.0000156E+04; -2.1162432E-02;  0.0000000E+00;  5.4401410E-04;  1.4268204E+02;
  4.1897722E-02;  9.9999998E-03; -1.0999684E-01;2709; -1.8567508E-03;  0.0000000E+00; -8.6604872E-05;  1.0002635E+03;  1.0000000E-01;  2.1826543E+02;3; -3.9830891E+01;  0.0000000E+00;  4.8042250E-01;0; -2.0653469E-02;  4.0030410E+04;  0.0000000E+00; -5.1296804E-02;  4.0000000E+04;  0.0000000E+00;  3.9999281E+04; -2.1252569E-02;  0.0000000E+00;  5.9909874E-04;  1.5096655E+02;
  5.0645348E-02;  9.9999998E-03; -2.6995829E-01;2754; -1.0607691E-03;  0.0000000E+00;  3.1055047E-06;  9.9948175E+02;  1.0000000E-01; -4.2937057E+02;3; -1.7881315E+00;  0.0000000E+00; -1.1161160E+01;0; -1.1431960E-02;  3.9939707E+04;  0.0000000E+00; -5.6140852E-01;  4.0000000E+04;  0.0000000E+00;  4.0016184E+04; -1.0648819E-02;  0.0000000E+00; -7.8314129E-04;  2.3116028E+03;
  5.1003512E-02;  9.9999998E-03; -2.5998983E-01;2755; -1.1270763E-03;  0.0000000E+00; -1.9898234E-05;  9.9970001E+02;  1.0000000E-01; -2.4853618E+02;3; -3.9651954E+00;  0.0000000E+00; -1.2064471E+01;0; -1.2569701E-02;  3.9954613E+04;  0.0000000E+00; -5.0761062E-01;  4.0000000E+04;  0.0000000E+00;  4.0020844E+04; -1.1983587E-02;  0.0000000E+00; -5.8611366E-04;  2.7688762E+03;
  5.1274814E-02;  9.9999998E-03; -2.5002337E-01;2756; -1.2451935E-03;  0.0000000E+00; -3.1569671E-05;  9.9995514E+02;  1.0000000E-01; -3.7184135E+01;3; -7.1805410E+00;  0.0000000E+00; -1.0760264E+01;0; -1.3631635E-02;  3.9975156E+04;  0.0000000E+00; -4.8535928E-01;  4.0000000E+04;  0.0000000E+00;  4.0022281E+04; -1.3246128E-02;  0.0000000E+00; -3.8550718E-04;  2.8506138E+03;
  5.1463872E-02;  9.9999998E-03; -2.4004261E-01;2757; -1.4109340E-03;  0.0000000E+00; -2.5135267E-05;  1.0002220E+03;  1.0000000E-01;  1.8389603E+02;3; -1.1360690E+01;  0.0000000E+00; -8.1132431E+00;0; -1.4616544E-02;  4.0000488E+04;  0.0000000E+00; -4.8980445E-01;  4.0000000E+04;  0.0000000E+00;  4.0020824E+04; -1.4411606E-02;  0.0000000E+00; -2.0493806E-04;  2.5623787E+03;
  5.1583920E-02;  9.9999998E-03; -2.3004283E-01;2758; -1.6040254E-03;  0.0000000E+00; -1.1842015E-05;  1.0005016E+03;  1.0000000E-01;  4.1559317E+02;3; -1.6231272E+01;  0.0000000E+00; -5.1570625E+00;0; -1.5523626E-02;  4.0028984E+04;  0.0000000E+00; -5.0597900E-01;  4.0000000E+04;  0.0000000E+00;  4.0016027E+04; -1.5462354E-02;  0.0000000E+00; -6.1272316E-05;  2.0125450E+03;
  5.1643107E-02;  9.9999998E-03; -2.2003032E-01;2759; -1.8012138E-03;  0.0000000E+00; -4.4597687E-06;  1.0007823E+03;  1.0000000E-01;  6.4808044E+02;3; -2.1317600E+01;  0.0000000E+00; -2.5719192E+00;0; -1.6350696E-02;  4.0058660E+04;  0.0000000E+00; -5.1758319E-01;  4.0000000E+04;  0.0000000E+00;  4.0011176E+04; -1.6389042E-02;  0.0000000E+00;  3.8346909E-05;  1.3755210E+03;
  5.1655542E-02;  9.9999998E-03; -2.1001209E-01;2760; -1.9819876E-03;  0.0000000E+00; -8.5531965E-06;  1.0010721E+03;  1.0000000E-01;  8.8827118E+02;3; -2.6206249E+01;  0.0000000E+00; -6.5699798E-01;0; -1.7093247E-02;  4.0088188E+04;  0.0000000E+00; -5.1350814E-01;  4.0000000E+04;  0.0000000E+00;  4.0005305E+04; -1.7190427E-02;  0.0000000E+00;  9.7179582E-05;  8.6514081E+02;
  5.1639166E-02;  9.9999998E-03; -1.9999589E-01;2761; -2.1306637E-03;  0.0000000E+00; -2.4805679E-05;  1.0013536E+03;  1.0000000E-01;  1.1214497E+03;3; -3.0501959E+01;  0.0000000E+00;  6.0172963E-01;0; -1.7744925E-02;  4.0116371E+04;  0.0000000E+00; -4.8951429E-01;  4.0000000E+04;  0.0000000E+00;  4.0000598E+04; -1.7871533E-02;  0.0000000E+00;  1.2660678E-04;  6.9677332E+02;
  5.1607553E-02;  9.9999998E-03; -1.8998526E-01;2762; -2.2395481E-03;  0.0000000E+00; -4.8628193E-05;  1.0016229E+03;  1.0000000E-01;  1.3445546E+03;3; -3.4020206E+01;  0.0000000E+00;  1.3202784E+00;0; -1.8300077E-02;  4.0141867E+04;  0.0000000E+00; -4.4694722E-01;  4.0000000E+04;  0.0000000E+00;  3.9998504E+04; -1.8442072E-02;  0.0000000E+00;  1.4199510E-04;  7.7317297E+02;
  5.1569249E-02;  9.9999998E-03; -1.7998043E-01;2763; -2.3061722E-03;  0.0000000E+00; -7.5119198E-05;  1.0018689E+03;  1.0000000E-01;  1.5483019E+03;3; -3.6703884E+01;  0.0000000E+00;  1.6321813E+00;0; -1.8756252E-02;  4.0163648E+04;  0.0000000E+00; -3.9051902E-01;  4.0000000E+04;  0.0000000E+00;  3.9996602E+04; -1.8914741E-02;  0.0000000E+00;  1.5848945E-04;  8.1730072E+02;
  5.1532228E-02;  9.9999998E-03; -1.6998063E-01;2764; -2.3346324E-03;  0.0000000E+00; -9.9008095E-05;  1.0020927E+03;  1.0000000E-01;  1.7336793E+03;3; -3.8651726E+01;  0.0000000E+00;  1.6493983E+00;0; -1.9115020E-02;  4.0182004E+04;  0.0000000E+00; -3.2608441E-01;  4.0000000E+04;  0.0000000E+00;  3.9995945E+04; -1.9302621E-02;  0.0000000E+00;  1.8760223E-04;  7.4793250E+02;
  5.1502574E-02;  9.9999998E-03; -1.5998515E-01;2765; -2.3322289E-03;  0.0000000E+00; -1.1657525E-04;  1.0022717E+03;  1.0000000E-01;  1.8820209E+03;3; -3.9951214E+01;  0.0000000E+00;  1.4757314E+00;0; -1.9382834E-02;  4.0196191E+04;  0.0000000E+00; -2.5976691E-01;  4.0000000E+04;  0.0000000E+00;  3.9998059E+04; -1.9618170E-02;  0.0000000E+00;  2.3533498E-04;  5.9198785E+02;
  5.1483210E-02;  9.9999998E-03; -1.4999135E-01;2766; -2.3078043E-03;  0.0000000E+00; -1.2557047E-04;  1.0024136E+03;  1.0000000E-01;  1.9996471E+03;3; -4.0815300E+01;  0.0000000E+00;  1.2099471E+00;0; -1.9571092E-02;  4.0206461E+04;  0.0000000E+00; -1.9731180E-01;  4.0000000E+04;  0.0000000E+00;  4.0000590E+04; -1.9872978E-02;  0.0000000E+00;  3.0188568E-04;  4.0816339E+02;
  5.1474635E-02;  9.9999998E-03; -1.3999784E-01;2767; -2.2710629E-03;  0.0000000E+00; -1.2586321E-04;  1.0025043E+03;  1.0000000E-01;  2.0747068E+03;3; -4.1365955E+01;  0.0000000E+00;  9.3787247E-01;0; -1.9694965E-02;  4.0213184E+04;  0.0000000E+00; -1.4325067E-01;  4.0000000E+04;  0.0000000E+00;  4.0000512E+04; -2.0077281E-02;  0.0000000E+00;  3.8231554E-04;  2.5384984E+02;
  5.1475864E-02;  9.9999998E-03; -1.3000408E-01;2768; -2.2316948E-03;  0.0000000E+00; -1.1946384E-04;  1.0025560E+03;  1.0000000E-01;  2.1176685E+03;3; -4.1777206E+01;  0.0000000E+00;  7.0347559E-01;0; -1.9772030E-02;  4.0216711E+04;  0.0000000E+00; -1.0012046E-01;  4.0000000E+04;  0.0000000E+00;  4.0001469E+04; -2.0240083E-02;  0.0000000E+00;  4.6805374E-04;  1.5890309E+02;
  5.1483773E-02;  9.9999998E-03; -1.2000903E-01;2769; -2.1975357E-03;  0.0000000E+00; -1.0837609E-04;  1.0025676E+03;  1.0000000E-01;  2.1272485E+03;3; -4.2116497E+01;  0.0000000E+00;  5.0795859E-01;0; -1.9820264E-02;  4.0218121E+04;  0.0000000E+00; -6.7945883E-02;  4.0000000E+04;  0.0000000E+00;  4.0001105E+04; -2.0369787E-02;  0.0000000E+00;  5.4952397E-04;  1.1914999E+02;
  5.1494300E-02;  9.9999998E-03; -1.1001223E-01;2770; -2.1740727E-03;  0.0000000E+00; -9.5042058E-05;  1.0025510E+03;  1.0000000E-01;  2.1135205E+03;3; -4.2438698E+01;  0.0000000E+00;  3.4564805E-01;0; -1.9855129E-02;  4.0217234E+04;  0.0000000E+00; -4.5098912E-02;  4.0000000E+04;  0.0000000E+00;  4.0000621E+04; -2.0474020E-02;  0.0000000E+00;  6.1889208E-04;  1.5677699E+02;
  6.0579687E-02;  9.9999998E-03; -2.6999879E-01;2815; -1.2137265E-03;  0.0000000E+00; -1.5036068E-05;  9.9994763E+02;  1.0000000E-01; -4.3406181E+01;3; -1.6065128E+00;  0.0000000E+00; -1.6438400E+01;0; -1.0932141E-02;  3.9976762E+04;  0.0000000E+00; -4.2741215E-01;  4.0000000E+04;  0.0000000E+00;  4.0017535E+04; -1.0177787E-02;  0.0000000E+00; -7.5435336E-04;  2.2842104E+03;
  6.0908105E-02;  9.9999998E-03; -2.6002470E-01;2816; -1.2959380E-03;  0.0000000E+00; -3.3718785E-05;  1.0003212E+03;  1.0000000E-01;  2.6616531E+02;3; -4.2979193E+00;  0.0000000E+00; -1.7185312E+01;0; -1.1983523E-02;  4.0005172E+04;  0.0000000E+00; -2.7499110E-01;  4.0000000E+04;  0.0000000E+00;  4.0020367E+04; -1.1437866E-02;  0.0000000E+00; -5.4565689E-04;  2.6271565E+03;
  6.1147552E-02;  9.9999998E-03; -2.5004816E-01;2817; -1.4322442E-03;  0.0000000E+00; -3.0143843E-05;  1.0007197E+03;  1.0000000E-01;  5.9632880E+02;3; -7.7696514E+00;  0.0000000E+00; -1.5357453E+01;0; -1.2958853E-02;  4.0038992E+04;  0.0000000E+00; -1.5472114E-01;  4.0000000E+04;  0.0000000E+00;  4.0021016E+04; -1.2619816E-02;  0.0000000E+00; -3.3903669E-04;  2.5788838E+03;
  6.1304707E-02;  9.9999998E-03; -2.4005674E-01;2818; -1.6111500E-03;  0.0000000E+00; -9.4947072E-06;  1.0011302E+03;  1.0000000E-01;  9.3636859E+02;3; -1.1903009E+01;  0.0000000E+00; -1.2078416E+01;0; -1.3860296E-02;  4.0076578E+04;  0.0000000E+00; -7.7707373E-02;  4.0000000E+04;  0.0000000E+00;  4.0018621E+04; -1.3700249E-02;  0.0000000E+00; -1.6004797E-04;  2.1611914E+03;
  6.1394028E-02;  9.9999998E-03; -2.3004669E-01;2819; -1.8124828E-03;  0.0000000E+00;  1.2216911E-05;  1.0015330E+03;  1.0000000E-01;  1.2699888E+03;3; -1.6384333E+01;  0.0000000E+00; -8.4479284E+00;0; -1.4689743E-02;  4.0116039E+04;  0.0000000E+00; -4.3016560E-02;  4.0000000E+04;  0.0000000E+00;  4.0013664E+04; -1.4663653E-02;  0.0000000E+00; -2.6088897E-05;  1.4914911E+03;
  6.1427414E-02;  9.9999998E-03; -2.2002451E-01;2820; -2.0137012E-03;  0.0000000E+00;  2.2789254E-05;  1.0019248E+03;  1.0000000E-01;  1.5946216E+03;3; -2.0846542E+01;  0.0000000E+00; -5.2312403E+00;0; -1.5446709E-02;  4.0154949E+04;  0.0000000E+00; -4.1582044E-02;  4.0000000E+04;  0.0000000E+00;  4.0007289E+04; -1.5503593E-02;  0.0000000E+00;  5.6883382E-05;  7.3511157E+02;
  6.1420690E-02;  9.9999998E-03; -2.1000040E-01;2821; -2.1947215E-03;  0.0000000E+00;  1.6743927E-05;  1.0022939E+03;  1.0000000E-01;  1.9004895E+03;3; -2.4920986E+01;  0.0000000E+00; -2.7360568E+00;0; -1.6126899E-02;  4.0191516E+04;  0.0000000E+00; -6.0589109E-02;  4.0000000E+04;  0.0000000E+00;  4.0003387E+04; -1.6221821E-02;  0.0000000E+00;  9.4921474E-05;  9.0597237E+01;
  6.1390758E-02;  9.9999998E-03; -1.9998269E-01;2822; -2.3416122E-03;  0.0000000E+00; -3.8119592E-06;  1.0026399E+03;  1.0000000E-01;  2.1870986E+03;3; -2.8376184E+01;  0.0000000E+00; -9.8277467E-01;0; -1.6723681E-02;  4.0224793E+04;  0.0000000E+00; -8.8411652E-02;  4.0000000E+04;  0.0000000E+00;  3.9998957E+04; -1.6826659E-02;  0.0000000E+00;  1.0297846E-04;  4.8192792E+02;
  6.1347656E-02;  9.9999998E-03; -1.8997331E-01;2823; -2.4462740E-03;  0.0000000E+00; -3.4345499E-05;  1.0029521E+03;  1.0000000E-01;  2.4457581E+03;3; -3.1089685E+01;  0.0000000E+00;  1.4160132E-01;0; -1.7231397E-02;  4.0253387E+04;  0.0000000E+00; -1.1585557E-01;  4.0000000E+04;  0.0000000E+00;  3.9996305E+04; -1.7331390E-02;  0.0000000E+00;  9.9991848E-05;  7.6546240E+02;
  6.1299287E-02;  9.9999998E-03; -1.7997211E-01;2824; -2.5076529E-03;  0.0000000E+00; -7.0365764E-05;  1.0032231E+03;  1.0000000E-01;  2.6703442E+03;3; -3.3070026E+01;  0.0000000E+00;  7.6389241E-01;0; -1.7646965E-02;  4.0276836E+04;  0.0000000E+00; -1.3577875E-01;  4.0000000E+04;  0.0000000E+00;  3.9995953E+04; -1.7750904E-02;  0.0000000E+00;  1.0393912E-04;  8.2875964E+02;
  6.1253555E-02;  9.9999998E-03; -1.6997838E-01;2825; -2.5312407E-03;  0.0000000E+00; -1.0663647E-04;  1.0034526E+03;  1.0000000E-01;  2.8604624E+03;3; -3.4429276E+01;  0.0000000E+00;  1.0016901E+00;0; -1.7971516E-02;  4.0295297E+04;  0.0000000E+00; -1.4343894E-01;  4.0000000E+04;  0.0000000E+00;  3.9996242E+04; -1.8099535E-02;  0.0000000E+00;  1.2801905E-04;  7.1779926E+02;
  6.1216637E-02;  9.9999998E-03; -1.5998925E-01;2826; -2.5241121E-03;  0.0000000E+00; -1.3671273E-04;  1.0036306E+03;  1.0000000E-01;  3.0078162E+03;3; -3.5283398E+01;  0.0000000E+00;  9.7891355E-01;0; -1.8211603E-02;  4.0308633E+04;  0.0000000E+00; -1.3749219E-01;  4.0000000E+04;  0.0000000E+00;  3.9999320E+04; -1.8390078E-02;  0.0000000E+00;  1.7847569E-04;  5.0502701E+02;
  6.1191242E-02;  9.9999998E-03; -1.5000167E-01;2827; -2.4945522E-03;  0.0000000E+00; -1.5557421E-04;  1.0037574E+03;  1.0000000E-01;  3.1129983E+03;3; -3.5792332E+01;  0.0000000E+00;  8.1907725E-01;0; -1.8378953E-02;  4.0317645E+04;  0.0000000E+00; -1.2043002E-01;  4.0000000E+04;  0.0000000E+00;  4.0000781E+04; -1.8633306E-02;  0.0000000E+00;  2.5435290E-04;  2.7692111E+02;
  6.1177898E-02;  9.9999998E-03; -1.4001387E-01;2828; -2.4534857E-03;  0.0000000E+00; -1.5950257E-04;  1.0038332E+03;  1.0000000E-01;  3.1757126E+03;3; -3.6100342E+01;  0.0000000E+00;  6.2945992E-01;0; -1.8488711E-02;  4.0322672E+04;  0.0000000E+00; -9.7315341E-02;  4.0000000E+04;  0.0000000E+00;  4.0003598E+04; -1.8837415E-02;  0.0000000E+00;  3.4870376E-04;  1.3967920E+02;
  6.1175514E-02;  9.9999998E-03; -1.3002472E-01;2829; -2.4109411E-03;  0.0000000E+00; -1.4975791E-04;  1.0038686E+03;  1.0000000E-01;  3.2050452E+03;3; -3.6348274E+01;  0.0000000E+00;  4.6818194E-01;0; -1.8558362E-02;  4.0325039E+04;  0.0000000E+00; -7.3324740E-02;  4.0000000E+04;  0.0000000E+00;  4.0003402E+04; -1.9008864E-02;  0.0000000E+00;  4.5050151E-04;  1.3744725E+02;
  6.1180968E-02;  9.9999998E-03; -1.2003228E-01;2830; -2.3730411E-03;  0.0000000E+00; -1.2989194E-04;  1.0038654E+03;  1.0000000E-01;  3.2023787E+03;3; -3.6590759E+01;  0.0000000E+00;  3.3820909E-01;0; -1.8605281E-02;  4.0325098E+04;  0.0000000E+00; -5.1697776E-02;  4.0000000E+04;  0.0000000E+00;  4.0003367E+04; -1.9153003E-02;  0.0000000E+00;  5.4772123E-04;  1.1002508E+02;
  6.1190810E-02;  9.9999998E-03; -1.1003471E-01;2831; -2.3472540E-03;  0.0000000E+00; -1.0642236E-04;  1.0038323E+03;  1.0000000E-01;  3.1749226E+03;3; -3.6850372E+01;  0.0000000E+00;  2.3329824E-01;0; -1.8643629E-02;  4.0323586E+04;  0.0000000E+00; -3.4021638E-02;  4.0000000E+04;  0.0000000E+00;  4.0002617E+04; -1.9274101E-02;  0.0000000E+00;  6.3047174E-04;  5.3627739E+01;
  7.0546553E-02;  9.9999998E-03; -2.7004680E-01;2876; -1.3005940E-03;  0.0000000E+00; -8.2913379E-05;  1.0000604E+03;  1.0000000E-01;  4.9973896E+01;3;  9.5138200E-02;  0.0000000E+00; -1.9520376E+01;0; -1.0342771E-02;  3.9986707E+04;  0.0000000E+00; -1.3710625E-01;  4.0000000E+04;  0.0000000E+00;  4.0018113E+04; -9.6323453E-03;  0.0000000E+00; -7.1042578E-04;  2.2277529E+03;
  7.0844442E-02;  9.9999998E-03; -2.6007289E-01;2877; -1.3824702E-03;  0.0000000E+00; -1.0063327E-04;  1.0005309E+03;  1.0000000E-01;  4.3979004E+02;3; -2.5225184E+00;  0.0000000E+00; -2.0339270E+01;0; -1.1290111E-02;  4.0023023E+04;  0.0000000E+00;  9.9608712E-02;  4.0000000E+04;  0.0000000E+00;  4.0020945E+04; -1.0801251E-02;  0.0000000E+00; -4.8885937E-04;  2.5701685E+03;
  7.1055382E-02;  9.9999998E-03; -2.5009105E-01;2878; -1.5199457E-03;  0.0000000E+00; -8.6710868E-05;  1.0010286E+03;  1.0000000E-01;  8.5212402E+02;3; -5.6993694E+00;  0.0000000E+00; -1.8307467E+01;0; -1.2161101E-02;  4.0064977E+04;  0.0000000E+00;  3.0023754E-01;  4.0000000E+04;  0.0000000E+00;  4.0020559E+04; -1.1885255E-02;  0.0000000E+00; -2.7584698E-04;  2.5056538E+03;
  7.1189262E-02;  9.9999998E-03; -2.4009000E-01;2879; -1.7005717E-03;  0.0000000E+00; -4.9955772E-05;  1.0015172E+03;  1.0000000E-01;  1.2569521E+03;3; -9.2597647E+00;  0.0000000E+00; -1.4632120E+01;0; -1.2961049E-02;  4.0109891E+04;  0.0000000E+00;  4.4140381E-01;  4.0000000E+04;  0.0000000E+00;  4.0017531E+04; -1.2862334E-02;  0.0000000E+00; -9.8714838E-05;  2.0848225E+03;
  7.1258731E-02;  9.9999998E-03; -2.3006843E-01;2880; -1.9020640E-03;  0.0000000E+00; -1.1576475E-05;  1.0019859E+03;  1.0000000E-01;  1.6452867E+03;3; -1.2956393E+01;  0.0000000E+00; -1.0576118E+01;0; -1.3695146E-02;  4.0155379E+04;  0.0000000E+00;  5.1101571E-01;  4.0000000E+04;  0.0000000E+00;  4.0010844E+04; -1.3719967E-02;  0.0000000E+00;  2.4820727E-05;  1.4614030E+03;
  7.1277358E-02;  9.9999998E-03; -2.2003534E-01;2881; -2.1007622E-03;  0.0000000E+00;  9.9701092E-06;  1.0024193E+03;  1.0000000E-01;  2.0043877E+03;3; -1.6483791E+01;  0.0000000E+00; -6.9497309E+00;0; -1.4365025E-02;  4.0198406E+04;  0.0000000E+00;  5.0935662E-01;  4.0000000E+04;  0.0000000E+00;  4.0005770E+04; -1.4455205E-02;  0.0000000E+00;  9.0179848E-05;  8.7536578E+02;
  7.1260713E-02;  9.9999998E-03; -2.1000305E-01;2882; -2.2767500E-03;  0.0000000E+00;  8.3541245E-06;  1.0028203E+03;  1.0000000E-01;  2.3365266E+03;3; -1.9600176E+01;  0.0000000E+00; -4.1062016E+00;0; -1.4967541E-02;  4.0237656E+04;  0.0000000E+00;  4.4884068E-01;  4.0000000E+04;  0.0000000E+00;  4.0000969E+04; -1.5073651E-02;  0.0000000E+00;  1.0611061E-04;  6.7438239E+02;
  7.1223542E-02;  9.9999998E-03; -1.9998047E-01;2883; -2.4183046E-03;  0.0000000E+00; -1.1786655E-05;  1.0031753E+03;  1.0000000E-01;  2.6306416E+03;3; -2.2135683E+01;  0.0000000E+00; -2.0534344E+00;0; -1.5496679E-02;  4.0271664E+04;  0.0000000E+00;  3.5067156E-01;  4.0000000E+04;  0.0000000E+00;  3.9997613E+04; -1.5587757E-02;  0.0000000E+00;  9.1079135E-05;  8.3491925E+02;
  7.1174875E-02;  9.9999998E-03; -1.8997021E-01;2884; -2.5187728E-03;  0.0000000E+00; -4.4272070E-05;  1.0034821E+03;  1.0000000E-01;  2.8848567E+03;3; -2.4047352E+01;  0.0000000E+00; -6.8421340E-01;0; -1.5946779E-02;  4.0299520E+04;  0.0000000E+00;  2.3817423E-01;  4.0000000E+04;  0.0000000E+00;  3.9995758E+04; -1.6014351E-02;  0.0000000E+00;  6.7570960E-05;  9.4058508E+02;
  7.1122140E-02;  9.9999998E-03; -1.7997132E-01;2885; -2.5785631E-03;  0.0000000E+00; -8.4905863E-05;  1.0037377E+03;  1.0000000E-01;  3.0966038E+03;3; -2.5381737E+01;  0.0000000E+00;  1.2892157E-01;0; -1.6314672E-02;  4.0321207E+04;  0.0000000E+00;  1.3138588E-01;  4.0000000E+04;  0.0000000E+00;  3.9996242E+04; -1.6371084E-02;  0.0000000E+00;  5.6412358E-05;  8.6665991E+02;
  7.1073599E-02;  9.9999998E-03; -1.6998200E-01;2886; -2.6026187E-03;  0.0000000E+00; -1.2908271E-04;  1.0039373E+03;  1.0000000E-01;  3.2619324E+03;3; -2.6231194E+01;  0.0000000E+00;  5.1229763E-01;0; -1.6601039E-02;  4.0336957E+04;  0.0000000E+00;  4.5276452E-02;  4.0000000E+04;  0.0000000E+00;  3.9996840E+04; -1.6673569E-02;  0.0000000E+00;  7.2528957E-05;  6.3791278E+02;
  7.1034104E-02;  9.9999998E-03; -1.5999751E-01;2887; -2.5961422E-03;  0.0000000E+00; -1.6506766E-04;  1.0040894E+03;  1.0000000E-01;  3.3880522E+03;3; -2.6729898E+01;  0.0000000E+00;  5.9815663E-01;0; -1.6812231E-02;  4.0347352E+04;  0.0000000E+00; -1.2313054E-02;  4.0000000E+04;  0.0000000E+00;  4.0000230E+04; -1.6934836E-02;  0.0000000E+00;  1.2260409E-04;  3.2481372E+02;
  7.1006410E-02;  9.9999998E-03; -1.5001455E-01;2888; -2.5669851E-03;  0.0000000E+00; -1.8839617E-04;  1.0041897E+03;  1.0000000E-01;  3.4711118E+03;3; -2.6993200E+01;  0.0000000E+00;  5.2152842E-01;0; -1.6959591E-02;  4.0353203E+04;  0.0000000E+00; -4.1673031E-02;  4.0000000E+04;  0.0000000E+00;  4.0002922E+04; -1.7164439E-02;  0.0000000E+00;  2.0484763E-04;  5.8928066E+01;
  7.0991106E-02;  9.9999998E-03; -1.4003158E-01;2889; -2.5264975E-03;  0.0000000E+00; -1.9374373E-04;  1.0042363E+03;  1.0000000E-01;  3.5096292E+03;3; -2.7128109E+01;  0.0000000E+00;  4.0080908E-01;0; -1.7058037E-02;  4.0355727E+04;  0.0000000E+00; -4.9426012E-02;  4.0000000E+04;  0.0000000E+00;  4.0005465E+04; -1.7368421E-02;  0.0000000E+00;  3.1038342E-04;  2.5722260E+02;
  7.0986800E-02;  9.9999998E-03; -1.3004667E-01;2890; -2.4840918E-03;  0.0000000E+00; -1.8247298E-04;  1.0042471E+03;  1.0000000E-01;  3.5187153E+03;3; -2.7258226E+01;  0.0000000E+00;  2.9567009E-01;0; -1.7124303E-02;  4.0355891E+04;  0.0000000E+00; -4.4095226E-02;  4.0000000E+04;  0.0000000E+00;  4.0005176E+04; -1.7550142E-02;  0.0000000E+00;  4.2584052E-04;  3.7855856E+02;
  7.0990667E-02;  9.9999998E-03; -1.2005603E-01;2891; -2.4468491E-03;  0.0000000E+00; -1.5585327E-04;  1.0042195E+03;  1.0000000E-01;  3.4958022E+03;3; -2.7411608E+01;  0.0000000E+00;  2.1236411E-01;0; -1.7174343E-02;  4.0354352E+04;  0.0000000E+00; -3.2751262E-02;  4.0000000E+04;  0.0000000E+00;  4.0005633E+04; -1.7711207E-02;  0.0000000E+00;  5.3686410E-04;  3.6156540E+02;
  7.0999034E-02;  9.9999998E-03; -1.1005741E-01;2892; -2.4208620E-03;  0.0000000E+00; -1.1757651E-04;  1.0041791E+03;  1.0000000E-01;  3.4623218E+03;3; -2.7627785E+01;  0.0000000E+00;  1.4813468E-01;0; -1.7220622E-02;  4.0351875E+04;  0.0000000E+00; -2.0391613E-02;  4.0000000E+04;  0.0000000E+00;  4.0004824E+04; -1.7852137E-02;  0.0000000E+00;  6.3151546E-04;  2.2751938E+02;
  8.0562159E-02;  9.9999998E-03; -2.7009481E-01;2937; -1.3052594E-03;  0.0000000E+00; -2.0900021E-04;  9.9989691E+02;  1.0000000E-01; -8.5429680E+01;3;  2.1880753E+00;  0.0000000E+00; -2.0777443E+01;0; -9.8131504E-03;  3.9973566E+04;  0.0000000E+00;  4.2306498E-01;  4.0000000E+04;  0.0000000E+00;  4.0018066E+04; -9.1650179E-03;  0.0000000E+00; -6.4813212E-04;  2.3185854E+03;
  8.0826528E-02;  9.9999998E-03; -2.6013061E-01;2938; -1.3826614E-03;  0.0000000E+00; -2.2784642E-04;  1.0004204E+03;  1.0000000E-01;  3.4833582E+02;3; -1.1555082E-01;  0.0000000E+00; -2.1951860E+01;0; -1.0651962E-02;  4.0014391E+04;  0.0000000E+00;  6.8019825E-01;  4.0000000E+04;  0.0000000E+00;  4.0021535E+04; -1.0236321E-02;  0.0000000E+00; -4.1564088E-04;  2.7826064E+03;
  8.1008993E-02;  9.9999998E-03; -2.5015101E-01;2939; -1.5164602E-03;  0.0000000E+00; -2.0518037E-04;  1.0009593E+03;  1.0000000E-01;  7.9474298E+02;3; -2.7546074E+00;  0.0000000E+00; -1.9910763E+01;0; -1.1412166E-02;  4.0060379E+04;  0.0000000E+00;  8.8990813E-01;  4.0000000E+04;  0.0000000E+00;  4.0020520E+04; -1.1213464E-02;  0.0000000E+00; -1.9870192E-04;  2.8056050E+03;
  8.1124254E-02;  9.9999998E-03; -2.4014418E-01;2940; -1.6945176E-03;  0.0000000E+00; -1.5016193E-04;  1.0014829E+03;  1.0000000E-01;  1.2286072E+03;3; -5.5859714E+00;  0.0000000E+00; -1.6056288E+01;0; -1.2101889E-02;  4.0108113E+04;  0.0000000E+00;  1.0297083E+00;  4.0000000E+04;  0.0000000E+00;  4.0016613E+04; -1.2076277E-02;  0.0000000E+00; -2.5611342E-05;  2.4772078E+03;
  8.1182182E-02;  9.9999998E-03; -2.3011295E-01;2941; -1.8948494E-03;  0.0000000E+00; -8.5981330E-05;  1.0019641E+03;  1.0000000E-01;  1.6272133E+03;3; -8.4052191E+00;  0.0000000E+00; -1.1748533E+01;0; -1.2730166E-02;  4.0154684E+04;  0.0000000E+00;  1.0836462E+00;  4.0000000E+04;  0.0000000E+00;  4.0011066E+04; -1.2816017E-02;  0.0000000E+00;  8.5850610E-05;  1.9855256E+03;
  8.1194215E-02;  9.9999998E-03; -2.2006834E-01;2942; -2.0896161E-03;  0.0000000E+00; -4.2829724E-05;  1.0023970E+03;  1.0000000E-01;  1.9858204E+03;3; -1.1008284E+01;  0.0000000E+00; -7.8977127E+00;0; -1.3302039E-02;  4.0198082E+04;  0.0000000E+00;  1.0465145E+00;  4.0000000E+04;  0.0000000E+00;  4.0005324E+04; -1.3434671E-02;  0.0000000E+00;  1.3263157E-04;  1.5591917E+03;
  8.1173852E-02;  9.9999998E-03; -2.1002360E-01;2943; -2.2605748E-03;  0.0000000E+00; -3.0031853E-05;  1.0027727E+03;  1.0000000E-01;  2.2971201E+03;3; -1.3223754E+01;  0.0000000E+00; -4.8622022E+00;0; -1.3817327E-02;  4.0235504E+04;  0.0000000E+00;  9.2803288E-01;  4.0000000E+04;  0.0000000E+00;  3.9999938E+04; -1.3943126E-02;  0.0000000E+00;  1.2579950E-04;  1.3441681E+03;
  8.1133179E-02;  9.9999998E-03; -1.9999139E-01;2944; -2.3943998E-03;  0.0000000E+00; -4.4048116E-05;  1.0030967E+03;  1.0000000E-01;  2.5655571E+03;3; -1.4965525E+01;  0.0000000E+00; -2.6682363E+00;0; -1.4271189E-02;  4.0266449E+04;  0.0000000E+00;  7.5298941E-01;  4.0000000E+04;  0.0000000E+00;  3.9997090E+04; -1.4358257E-02;  0.0000000E+00;  8.7068103E-05;  1.2643701E+03;
  8.1083059E-02;  9.9999998E-03; -1.8997657E-01;2945; -2.4894187E-03;  0.0000000E+00; -7.3393188E-05;  1.0033621E+03;  1.0000000E-01;  2.7854026E+03;3; -1.6222828E+01;  0.0000000E+00; -1.1877372E+00;0; -1.4658283E-02;  4.0290695E+04;  0.0000000E+00;  5.5516118E-01;  4.0000000E+04;  0.0000000E+00;  3.9996480E+04; -1.4700429E-02;  0.0000000E+00;  4.2146246E-05;  1.1439773E+03;
  8.1030175E-02;  9.9999998E-03; -1.7997724E-01;2946; -2.5449637E-03;  0.0000000E+00; -1.1215874E-04;  1.0035679E+03;  1.0000000E-01;  2.9559658E+03;3; -1.7048599E+01;  0.0000000E+00; -2.8274432E-01;0; -1.4975532E-02;  4.0307645E+04;  0.0000000E+00;  3.6670366E-01;  4.0000000E+04;  0.0000000E+00;  3.9997117E+04; -1.4989985E-02;  0.0000000E+00;  1.4453652E-05;  8.9671924E+02;
  8.0982387E-02;  9.9999998E-03; -1.6998903E-01;2947; -2.5685274E-03;  0.0000000E+00; -1.5605976E-04;  1.0037177E+03;  1.0000000E-01;  3.0800117E+03;3; -1.7534912E+01;  0.0000000E+00;  1.7608194E-01;0; -1.5223722E-02;  4.0318879E+04;  0.0000000E+00;  2.1009502E-01;  4.0000000E+04;  0.0000000E+00;  3.9999133E+04; -1.5244198E-02;  0.0000000E+00;  2.0476098E-05;  5.3495660E+02;
  8.0944814E-02;  9.9999998E-03; -1.6000646E-01;2948; -2.5653860E-03;  0.0000000E+00; -1.9253251E-04;  1.0038192E+03;  1.0000000E-01;  3.1640586E+03;3; -1.7781519E+01;  0.0000000E+00;  3.2658669E-01;0; -1.5408355E-02;  4.0324855E+04;  0.0000000E+00;  9.6966930E-02;  4.0000000E+04;  0.0000000E+00;  4.0002270E+04; -1.5475742E-02;  0.0000000E+00;  6.7386711E-05;  1.5165166E+02;
  8.0919541E-02;  9.9999998E-03; -1.5002622E-01;2949; -2.5427288E-03;  0.0000000E+00; -2.1422692E-04;  1.0038691E+03;  1.0000000E-01;  3.2055391E+03;3; -1.7874073E+01;  0.0000000E+00;  3.0741996E-01;0; -1.5539854E-02;  4.0326719E+04;  0.0000000E+00;  2.7684491E-02;  4.0000000E+04;  0.0000000E+00;  4.0005668E+04; -1.5692666E-02;  0.0000000E+00;  1.5281230E-04;  3.2349850E+02;
  8.0907740E-02;  9.9999998E-03; -1.4004716E-01;2950; -2.5099888E-03;  0.0000000E+00; -2.1652487E-04;  1.0038823E+03;  1.0000000E-01;  3.2164028E+03;3; -1.7914484E+01;  0.0000000E+00;  2.3650013E-01;0; -1.5632164E-02;  4.0325777E+04;  0.0000000E+00; -6.4010941E-03;  4.0000000E+04;  0.0000000E+00;  4.0009453E+04; -1.5898433E-02;  0.0000000E+00;  2.6626856E-04;  6.1471338E+02;
  8.0906697E-02;  9.9999998E-03; -1.3006526E-01;2951; -2.4739241E-03;  0.0000000E+00; -2.0152524E-04;  1.0038628E+03;  1.0000000E-01;  3.2002058E+03;3; -1.7966818E+01;  0.0000000E+00;  1.7404446E-01;0; -1.5700718E-02;  4.0323129E+04;  0.0000000E+00; -1.7067103E-02;  4.0000000E+04;  0.0000000E+00;  4.0009391E+04; -1.6093085E-02;  0.0000000E+00;  3.9236696E-04;  7.6015009E+02;
  8.0913484E-02;  9.9999998E-03; -1.2007516E-01;2952; -2.4412696E-03;  0.0000000E+00; -1.7051652E-04;  1.0038225E+03;  1.0000000E-01;  3.1669229E+03;3; -1.8069645E+01;  0.0000000E+00;  1.2434557E-01;0; -1.5759323E-02;  4.0320188E+04;  0.0000000E+00; -1.4994386E-02;  4.0000000E+04;  0.0000000E+00;  4.0008520E+04; -1.6273985E-02;  0.0000000E+00;  5.1466253E-04;  7.4104053E+02;
  8.0922909E-02;  9.9999998E-03; -1.1007470E-01;2953; -2.4181106E-03;  0.0000000E+00; -1.2677908E-04;  1.0037709E+03;  1.0000000E-01;  3.1241584E+03;3; -1.8225096E+01;  0.0000000E+00;  8.7065674E-02;0; -1.5818302E-02;  4.0317285E+04;  0.0000000E+00; -8.0285305E-03;  4.0000000E+04;  0.0000000E+00;  4.0007363E+04; -1.6437601E-02;  0.0000000E+00;  6.1929988E-04;  5.8584674E+02;
  9.0633005E-02;  9.9999998E-03; -2.7012742E-01;2998; -1.2509173E-03;  0.0000000E+00; -3.5606531E-04;  9.9954285E+02;  1.0000000E-01; -3.7875473E+02;3;  3.9585009E+00;  0.0000000E+00; -2.0749018E+01;0; -9.4767855E-03;  3.9945766E+04;  0.0000000E+00;  1.4227898E+00;  4.0000000E+04;  0.0000000E+00;  4.0017672E+04; -8.9124860E-03;  0.0000000E+00; -5.6429917E-04;  3.0526987E+03;
  9.0868287E-02;  9.9999998E-03; -2.6017374E-01;2999; -1.3315749E-03;  0.0000000E+00; -3.7606253E-04;  1.0000925E+03;  1.0000000E-01;  7.6639809E+01;3;  1.9775265E+00;  0.0000000E+00; -2.2565359E+01;0; -1.0215815E-02;  3.9987832E+04;  0.0000000E+00;  1.5805846E+00;  4.0000000E+04;  0.0000000E+00;  4.0022324E+04; -9.8887505E-03;  0.0000000E+00; -3.2706489E-04;  3.5551597E+03;
  9.1024153E-02;  9.9999998E-03; -2.5019804E-01;3000; -1.4635394E-03;  0.0000000E+00; -3.4797683E-04;  1.0006467E+03;  1.0000000E-01;  5.3578729E+02;3; -1.5122269E-01;  0.0000000E+00; -2.0721518E+01;0; -1.0870078E-02;  4.0034227E+04;  0.0000000E+00;  1.6699767E+00;  4.0000000E+04;  0.0000000E+00;  4.0022004E+04; -1.0757635E-02;  0.0000000E+00; -1.1244230E-04;  3.5983118E+03;
  9.1118254E-02;  9.9999998E-03; -2.4019039E-01;3001; -1.6378841E-03;  0.0000000E+00; -2.7652332E-04;  1.0011653E+03;  1.0000000E-01;  9.6550354E+02;3; -2.3035111E+00;  0.0000000E+00; -1.6784792E+01;0; -1.1450827E-02;  4.0082047E+04;  0.0000000E+00;  1.6905346E+00;  4.0000000E+04;  0.0000000E+00;  4.0017941E+04; -1.1502150E-02;  0.0000000E+00;  5.1323499E-05;  3.2691941E+03;
  9.1163337E-02;  9.9999998E-03; -2.3015742E-01;3002; -1.8334221E-03;  0.0000000E+00; -1.9306752E-04;  1.0016246E+03;  1.0000000E-01;  1.3459373E+03;3; -4.3543911E+00;  0.0000000E+00; -1.2318213E+01;0; -1.1970830E-02;  4.0126777E+04;  0.0000000E+00;  1.6383234E+00;  4.0000000E+04;  0.0000000E+00;  4.0013117E+04; -1.2118546E-02;  0.0000000E+00;  1.4771611E-04;  2.7517007E+03;
  9.1173835E-02;  9.9999998E-03; -2.2010973E-01;3003; -2.0271346E-03;  0.0000000E+00; -1.2229066E-04;  1.0020184E+03;  1.0000000E-01;  1.6721503E+03;3; -6.1826949E+00;  0.0000000E+00; -8.3253593E+00;0; -1.2440748E-02;  4.0166707E+04;  0.0000000E+00;  1.5102315E+00;  4.0000000E+04;  0.0000000E+00;  4.0006539E+04; -1.2615231E-02;  0.0000000E+00;  1.7448326E-04;  2.2470493E+03;
  9.1153756E-02;  9.9999998E-03; -2.1005873E-01;3004; -2.1950076E-03;  0.0000000E+00; -8.7904184E-05;  1.0023435E+03;  1.0000000E-01;  1.9415747E+03;3; -7.6907210E+00;  0.0000000E+00; -5.2019033E+00;0; -1.2864776E-02;  4.0199887E+04;  0.0000000E+00;  1.3114182E+00;  4.0000000E+04;  0.0000000E+00;  4.0000875E+04; -1.3009651E-02;  0.0000000E+00;  1.4487487E-04;  1.8701317E+03;
  9.1114081E-02;  9.9999998E-03; -2.0001654E-01;3005; -2.3265083E-03;  0.0000000E+00; -8.6942913E-05;  1.0026039E+03;  1.0000000E-01;  2.1572722E+03;3; -8.8402719E+00;  0.0000000E+00; -2.9541819E+00;0; -1.3241021E-02;  4.0225887E+04;  0.0000000E+00;  1.0616370E+00;  4.0000000E+04;  0.0000000E+00;  3.9998262E+04; -1.3324028E-02;  0.0000000E+00;  8.3006547E-05;  1.5866809E+03;
  9.1063403E-02;  9.9999998E-03; -1.8999420E-01;3006; -2.4180529E-03;  0.0000000E+00; -1.0867708E-04;  1.0027944E+03;  1.0000000E-01;  2.3150950E+03;3; -9.6326122E+00;  0.0000000E+00; -1.4451947E+00;0; -1.3564765E-02;  4.0243812E+04;  0.0000000E+00;  7.9315001E-01;  4.0000000E+04;  0.0000000E+00;  3.9997980E+04; -1.3582072E-02;  0.0000000E+00;  1.7307459E-05;  1.2876465E+03;
  9.1011420E-02;  9.9999998E-03; -1.7999013E-01;3007; -2.4742447E-03;  0.0000000E+00; -1.4042041E-04;  1.0029316E+03;  1.0000000E-01;  2.4287708E+03;3; -1.0129510E+01;  0.0000000E+00; -5.1999712E-01;0; -1.3833094E-02;  4.0255195E+04;  0.0000000E+00;  5.4127854E-01;  4.0000000E+04;  0.0000000E+00;  3.9999445E+04; -1.3806321E-02;  0.0000000E+00; -2.6773258E-05;  9.1075446E+02;
  9.0967126E-02;  9.9999998E-03; -1.6999970E-01;3008; -2.5000894E-03;  0.0000000E+00; -1.7593757E-04;  1.0030168E+03;  1.0000000E-01;  2.4993860E+03;3; -1.0393293E+01;  0.0000000E+00; -3.5568949E-02;0; -1.4046403E-02;  4.0260160E+04;  0.0000000E+00;  3.3262873E-01;  4.0000000E+04;  0.0000000E+00;  4.0001410E+04; -1.4014814E-02;  0.0000000E+00; -3.1588181E-05;  4.9785907E+02;
  9.0935737E-02;  9.9999998E-03; -1.6001645E-01;3009; -2.5039595E-03;  0.0000000E+00; -2.0641723E-04;  1.0030549E+03;  1.0000000E-01;  2.5308914E+03;3; -1.0497151E+01;  0.0000000E+00;  1.4562878E-01;0; -1.4209649E-02;  4.0260793E+04;  0.0000000E+00;  1.7932351E-01;  4.0000000E+04;  0.0000000E+00;  4.0004902E+04; -1.4220019E-02;  0.0000000E+00;  1.0369856E-05;  3.8320004E+02;
  9.0920143E-02;  9.9999998E-03; -1.5003753E-01;3010; -2.4906860E-03;  0.0000000E+00; -2.2123994E-04;  1.0030591E+03;  1.0000000E-01;  2.5344468E+03;3; -1.0514153E+01;  0.0000000E+00;  1.6430174E-01;0; -1.4331506E-02;  4.0258082E+04;  0.0000000E+00;  8.0833822E-02;  4.0000000E+04;  0.0000000E+00;  4.0008863E+04; -1.4427776E-02;  0.0000000E+00;  9.6270189E-05;  7.2469025E+02;
  9.0919852E-02;  9.9999998E-03; -1.4006086E-01;3011; -2.4656109E-03;  0.0000000E+00; -2.2084150E-04;  1.0030365E+03;  1.0000000E-01;  2.5156819E+03;3; -1.0505000E+01;  0.0000000E+00;  1.2930275E-01;0; -1.4424146E-02;  4.0253801E+04;  0.0000000E+00;  2.6961066E-02;  4.0000000E+04;  0.0000000E+00;  4.0011625E+04; -1.4638637E-02;  0.0000000E+00;  2.1449073E-04;  1.0463074E+03;
  9.0932079E-02;  9.9999998E-03; -1.3007939E-01;3012; -2.4357385E-03;  0.0000000E+00; -2.0442007E-04;  1.0029913E+03;  1.0000000E-01;  2.4782510E+03;3; -1.0512420E+01;  0.0000000E+00;  9.5479824E-02;0; -1.4500855E-02;  4.0249188E+04;  0.0000000E+00;  3.4634427E-03;  4.0000000E+04;  0.0000000E+00;  4.0012105E+04; -1.4849001E-02;  0.0000000E+00;  3.4814607E-04;  1.2105593E+03;
  9.0951487E-02;  9.9999998E-03; -1.2008715E-01;3013; -2.4081629E-03;  0.0000000E+00; -1.7166942E-04;  1.0029367E+03;  1.0000000E-01;  2.4330176E+03;3; -1.0565941E+01;  0.0000000E+00;  6.8542689E-02;0; -1.4573210E-02;  4.0245191E+04;  0.0000000E+00; -2.8329454E-03;  4.0000000E+04;  0.0000000E+00;  4.0011926E+04; -1.5052265E-02;  0.0000000E+00;  4.7905539E-04;  1.1930370E+03;
  9.0971828E-02;  9.9999998E-03; -1.1008167E-01;3014; -2.3891772E-03;  0.0000000E+00; -1.2761050E-04;  1.0028807E+03;  1.0000000E-01;  2.3865991E+03;3; -1.0664295E+01;  0.0000000E+00;  4.7802303E-02;0; -1.4648772E-02;  4.0242137E+04;  0.0000000E+00; -1.4584195E-03;  4.0000000E+04;  0.0000000E+00;  4.0009793E+04; -1.5240503E-02;  0.0000000E+00;  5.9173070E-04;  1.0244229E+03;
  1.0078028E-01;  9.9999998E-03; -2.7010143E-01;3059; -1.2018560E-03;  0.0000000E+00; -4.5265674E-04;  9.9909534E+02;  1.0000000E-01; -7.4950964E+02;3;  5.1549940E+00;  0.0000000E+00; -2.0093399E+01;0; -9.4338665E-03;  3.9910312E+04;  0.0000000E+00;  3.0515807E+00;  4.0000000E+04;  0.0000000E+00;  4.0018527E+04; -8.9771096E-03;  0.0000000E+00; -4.5675668E-04;  4.9865156E+03;
  1.0099033E-01;  9.9999998E-03; -2.6015666E-01;3060; -1.3006154E-03;  0.0000000E+00; -4.6857199E-04;  9.9966272E+02;  1.0000000E-01; -2.7944888E+02;3;  3.3810079E+00;  0.0000000E+00; -2.2708122E+01;0; -1.0089214E-02;  3.9952270E+04;  0.0000000E+00;  2.9354210E+00;  4.0000000E+04;  0.0000000E+00;  4.0023477E+04; -9.8640099E-03;  0.0000000E+00; -2.2520381E-04;  5.1762861E+03;
  1.0112982E-01;  9.9999998E-03; -2.5018206E-01;3061; -1.4354816E-03;  0.0000000E+00; -4.3842063E-04;  1.0002205E+03;  1.0000000E-01;  1.8261212E+02;3;  1.6207584E+00;  0.0000000E+00; -2.1177200E+01;0; -1.0648212E-02;  3.9998285E+04;  0.0000000E+00;  2.7251766E+00;  4.0000000E+04;  0.0000000E+00;  4.0024105E+04; -1.0625711E-02;  0.0000000E+00; -2.2501801E-05;  4.9623652E+03;
  1.0120697E-01;  9.9999998E-03; -2.4017484E-01;3062; -1.6038909E-03;  0.0000000E+00; -3.6349206E-04;  1.0007231E+03;  1.0000000E-01;  5.9909418E+02;3; -2.7745878E-02;  0.0000000E+00; -1.7242413E+01;0; -1.1126274E-02;  4.0043766E+04;  0.0000000E+00;  2.4660308E+00;  4.0000000E+04;  0.0000000E+00;  4.0021371E+04; -1.1250509E-02;  0.0000000E+00;  1.2423471E-04;  4.3975908E+03;
  1.0123677E-01;  9.9999998E-03; -2.3014536E-01;3063; -1.7907070E-03;  0.0000000E+00; -2.6808691E-04;  1.0011447E+03;  1.0000000E-01;  9.4841760E+02;3; -1.5009413E+00;  0.0000000E+00; -1.2643024E+01;0; -1.1541751E-02;  4.0085680E+04;  0.0000000E+00;  2.1848462E+00;  4.0000000E+04;  0.0000000E+00;  4.0015004E+04; -1.1741840E-02;  0.0000000E+00;  2.0008942E-04;  3.6434873E+03;
  1.0123250E-01;  9.9999998E-03; -2.2010566E-01;3064; -1.9772600E-03;  0.0000000E+00; -1.8206939E-04;  1.0014822E+03;  1.0000000E-01;  1.2280146E+03;3; -2.7548389E+00;  0.0000000E+00; -8.5178881E+00;0; -1.1911561E-02;  4.0120781E+04;  0.0000000E+00;  1.8888627E+00;  4.0000000E+04;  0.0000000E+00;  4.0009562E+04; -1.2116259E-02;  0.0000000E+00;  2.0469810E-04;  2.8919731E+03;
  1.0120907E-01;  9.9999998E-03; -2.1006401E-01;3065; -2.1408021E-03;  0.0000000E+00; -1.2928460E-04;  1.0017350E+03;  1.0000000E-01;  1.4373915E+03;3; -3.7569022E+00;  0.0000000E+00; -5.3167410E+00;0; -1.2245308E-02;  4.0148418E+04;  0.0000000E+00;  1.5769681E+00;  4.0000000E+04;  0.0000000E+00;  4.0004340E+04; -1.2397918E-02;  0.0000000E+00;  1.5261066E-04;  2.2729995E+03;
  1.0116811E-01;  9.9999998E-03; -2.0002881E-01;3066; -2.2708012E-03;  0.0000000E+00; -1.1387848E-04;  1.0019152E+03;  1.0000000E-01;  1.5867206E+03;3; -4.5025349E+00;  0.0000000E+00; -3.0503712E+00;0; -1.2545324E-02;  4.0167586E+04;  0.0000000E+00;  1.2534381E+00;  4.0000000E+04;  0.0000000E+00;  4.0000438E+04; -1.2614778E-02;  0.0000000E+00;  6.9453883E-05;  1.7919598E+03;
  1.0111955E-01;  9.9999998E-03; -1.9000767E-01;3067; -2.3635314E-03;  0.0000000E+00; -1.2544112E-04;  1.0020276E+03;  1.0000000E-01;  1.6798538E+03;3; -5.0067973E+00;  0.0000000E+00; -1.5504533E+00;0; -1.2808672E-02;  4.0178973E+04;  0.0000000E+00;  9.3470353E-01;  4.0000000E+04;  0.0000000E+00;  3.9999203E+04; -1.2793837E-02;  0.0000000E+00; -1.4835150E-05;  1.3643000E+03;
  1.0107253E-01;  9.9999998E-03; -1.8000332E-01;3068; -2.4222340E-03;  0.0000000E+00; -1.4934814E-04;  1.0020820E+03;  1.0000000E-01;  1.7248895E+03;3; -5.3059707E+00;  0.0000000E+00; -6.3797033E-01;0; -1.3032335E-02;  4.0183496E+04;  0.0000000E+00;  6.4533192E-01;  4.0000000E+04;  0.0000000E+00;  4.0001102E+04; -1.2958800E-02;  0.0000000E+00; -7.3534451E-05;  9.3412274E+02;
  1.0103630E-01;  9.9999998E-03; -1.7000924E-01;3069; -2.4538625E-03;  0.0000000E+00; -1.7449378E-04;  1.0020979E+03;  1.0000000E-01;  1.7380249E+03;3; -5.4521189E+00;  0.0000000E+00; -1.5619673E-01;0; -1.3216426E-02;  4.0182703E+04;  0.0000000E+00;  4.0743321E-01;  4.0000000E+04;  0.0000000E+00;  4.0003875E+04; -1.3128036E-02;  0.0000000E+00; -8.8389839E-05;  6.1219019E+02;
  1.0101766E-01;  9.9999998E-03; -1.6002052E-01;3070; -2.4635624E-03;  0.0000000E+00; -1.9509770E-04;  1.0020819E+03;  1.0000000E-01;  1.7247908E+03;3; -5.4948182E+00;  0.0000000E+00;  3.8726334E-02;0; -1.3364583E-02;  4.0177758E+04;  0.0000000E+00;  2.3146281E-01;  4.0000000E+04;  0.0000000E+00;  4.0007652E+04; -1.3312737E-02;  0.0000000E+00; -5.1846488E-05;  7.3890417E+02;
  1.0102252E-01;  9.9999998E-03; -1.5003778E-01;3071; -2.4558816E-03;  0.0000000E+00; -2.0722099E-04;  1.0020363E+03;  1.0000000E-01;  1.6869646E+03;3; -5.4778695E+00;  0.0000000E+00;  7.8071348E-02;0; -1.3483568E-02;  4.0170902E+04;  0.0000000E+00;  1.1508916E-01;  4.0000000E+04;  0.0000000E+00;  4.0011684E+04; -1.3516368E-02;  0.0000000E+00;  3.2800319E-05;  1.1402798E+03;
  1.0105119E-01;  9.9999998E-03; -1.4005667E-01;3072; -2.4371387E-03;  0.0000000E+00; -2.0704062E-04;  1.0019813E+03;  1.0000000E-01;  1.6414351E+03;3; -5.4481931E+00;  0.0000000E+00;  6.4618699E-02;0; -1.3583055E-02;  4.0163902E+04;  0.0000000E+00;  4.7611315E-02;  4.0000000E+04;  0.0000000E+00;  4.0014574E+04; -1.3736383E-02;  0.0000000E+00;  1.5332816E-04;  1.4922756E+03;
  1.0111132E-01;  9.9999998E-03; -1.3006580E-01;3073; -2.4141890E-03;  0.0000000E+00; -1.9163042E-04;  1.0019214E+03;  1.0000000E-01;  1.5918562E+03;3; -5.4307528E+00;  0.0000000E+00;  4.8197117E-02;0; -1.3672967E-02;  4.0157574E+04;  0.0000000E+00;  1.3806148E-02;  4.0000000E+04;  0.0000000E+00;  4.0015199E+04; -1.3964849E-02;  0.0000000E+00;  2.9188173E-04;  1.6776691E+03;
  1.0118584E-01;  9.9999998E-03; -1.2006216E-01;3074; -2.3931344E-03;  0.0000000E+00; -1.6061083E-04;  1.0018662E+03;  1.0000000E-01;  1.5461292E+03;3; -5.4432263E+00;  0.0000000E+00;  3.4961767E-02;0; -1.3762648E-02;  4.0152891E+04;  0.0000000E+00; -2.6835306E-04;  4.0000000E+04;  0.0000000E+00;  4.0014793E+04; -1.4191613E-02;  0.0000000E+00;  4.2896479E-04;  1.6684136E+03;
  1.0123516E-01;  9.9999998E-03; -1.1005298E-01;3075; -2.3796656E-03;  0.0000000E+00; -1.1806707E-04;  1.0018172E+03;  1.0000000E-01;  1.5055377E+03;3; -5.4947329E+00;  0.0000000E+00;  2.4912557E-02;0; -1.3858160E-02;  4.0150652E+04;  0.0000000E+00; -4.5214645E-03;  4.0000000E+04;  0.0000000E+00;  4.0013348E+04; -1.4406018E-02;  0.0000000E+00;  5.4785836E-04;  1.4956018E+03;
  1.1095884E-01;  9.9999998E-03; -2.6999074E-01;3120; -1.2154205E-03;  0.0000000E+00; -4.3595614E-04;  9.9865009E+02;  1.0000000E-01; -1.1183881E+03;3;  5.9271989E+00;  0.0000000E+00; -1.9731695E+01;0; -9.7414255E-03;  3.9873305E+04;  0.0000000E+00;  5.4574227E+00;  4.0000000E+04;  0.0000000E+00;  4.0020309E+04; -9.4088931E-03;  0.0000000E+00; -3.3253292E-04;  8.3100107E+03;
  1.1112603E-01;  9.9999998E-03; -2.6006120E-01;3121; -1.3345627E-03;  0.0000000E+00; -4.5260382E-04;  9.9924274E+02;  1.0000000E-01; -6.2738965E+02;3;  4.1876283E+00;  0.0000000E+00; -2.3020609E+01;0; -1.0320145E-02;  3.9915570E+04;  0.0000000E+00;  4.8474026E+00;  4.0000000E+04;  0.0000000E+00;  4.0027297E+04; -1.0203568E-02;  0.0000000E+00; -1.1657621E-04;  7.7921738E+03;
  1.1125347E-01;  9.9999998E-03; -2.5009134E-01;3122; -1.4775235E-03;  0.0000000E+00; -4.2214652E-04;  9.9980457E+02;  1.0000000E-01; -1.6192134E+02;3;  2.5970817E+00;  0.0000000E+00; -2.1721189E+01;0; -1.0791457E-02;  3.9961395E+04;  0.0000000E+00;  4.1266165E+00;  4.0000000E+04;  0.0000000E+00;  4.0028336E+04; -1.0855498E-02;  0.0000000E+00;  6.4040301E-05;  6.9512026E+03;
  1.1134095E-01;  9.9999998E-03; -2.4008480E-01;3123; -1.6421565E-03;  0.0000000E+00; -3.5238752E-04;  1.0002919E+03;  1.0000000E-01;  2.4186971E+02;3;  1.2402869E+00;  0.0000000E+00; -1.7747551E+01;0; -1.1173557E-02;  4.0004984E+04;  0.0000000E+00;  3.4073582E+00;  4.0000000E+04;  0.0000000E+00;  4.0026520E+04; -1.1359169E-02;  0.0000000E+00;  1.8561119E-04;  5.8624463E+03;
  1.1138633E-01;  9.9999998E-03; -2.3005511E-01;3124; -1.8195026E-03;  0.0000000E+00; -2.6012183E-04;  1.0006815E+03;  1.0000000E-01;  5.6452722E+02;3;  1.3646208E-01;  0.0000000E+00; -1.2984952E+01;0; -1.1490386E-02;  4.0043422E+04;  0.0000000E+00;  2.7607412E+00;  4.0000000E+04;  0.0000000E+00;  4.0020746E+04; -1.1725728E-02;  0.0000000E+00;  2.3534225E-04;  4.6704199E+03;
  1.1140306E-01;  9.9999998E-03; -2.2001755E-01;3125; -1.9960040E-03;  0.0000000E+00; -1.6827308E-04;  1.0009575E+03;  1.0000000E-01;  7.9326154E+02;3; -7.2964168E-01;  0.0000000E+00; -8.6699848E+00;0; -1.1764913E-02;  4.0073859E+04;  0.0000000E+00;  2.2097318E+00;  4.0000000E+04;  0.0000000E+00;  4.0013996E+04; -1.1979878E-02;  0.0000000E+00;  2.1496529E-04;  3.5453792E+03;
  1.1139197E-01;  9.9999998E-03; -2.0998579E-01;3126; -2.1502159E-03;  0.0000000E+00; -1.1272548E-04;  1.0011372E+03;  1.0000000E-01;  9.4219556E+02;3; -1.3894306E+00;  0.0000000E+00; -5.3632236E+00;0; -1.2012273E-02;  4.0095973E+04;  0.0000000E+00;  1.7430286E+00;  4.0000000E+04;  0.0000000E+00;  4.0007395E+04; -1.2152999E-02;  0.0000000E+00;  1.4072534E-04;  2.6215308E+03;
  1.1136340E-01;  9.9999998E-03; -1.9996355E-01;3127; -2.2738669E-03;  0.0000000E+00; -9.5084339E-05;  1.0012383E+03;  1.0000000E-01;  1.0258475E+03;3; -1.8661956E+00;  0.0000000E+00; -3.0645866E+00;0; -1.2239870E-02;  4.0108996E+04;  0.0000000E+00;  1.3394157E+00;  4.0000000E+04;  0.0000000E+00;  4.0003008E+04; -1.2278457E-02;  0.0000000E+00;  3.8587325E-05;  1.9323406E+03;
  1.1133054E-01;  9.9999998E-03; -1.8994856E-01;3128; -2.3634508E-03;  0.0000000E+00; -1.0400410E-04;  1.0012698E+03;  1.0000000E-01;  1.0520197E+03;3; -2.1839559E+00;  0.0000000E+00; -1.5734156E+00;0; -1.2447363E-02;  4.0113789E+04;  0.0000000E+00;  9.8584789E-01;  4.0000000E+04;  0.0000000E+00;  4.0001801E+04; -1.2386158E-02;  0.0000000E+00; -6.1204628E-05;  1.4079248E+03;
  1.1130138E-01;  9.9999998E-03; -1.7994344E-01;3129; -2.4229316E-03;  0.0000000E+00; -1.2414074E-04;  1.0012512E+03;  1.0000000E-01;  1.0365139E+03;3; -2.3700094E+00;  0.0000000E+00; -6.8136483E-01;0; -1.2632160E-02;  4.0112219E+04;  0.0000000E+00;  6.8276429E-01;  4.0000000E+04;  0.0000000E+00;  4.0002867E+04; -1.2500570E-02;  0.0000000E+00; -1.3158943E-04;  9.8888257E+02;
  1.1128832E-01;  9.9999998E-03; -1.6994254E-01;3130; -2.4572150E-03;  0.0000000E+00; -1.4622217E-04;  1.0011979E+03;  1.0000000E-01;  9.9246576E+02;3; -2.4532969E+00;  0.0000000E+00; -2.1079108E-01;0; -1.2793346E-02;  4.0105691E+04;  0.0000000E+00;  4.3741965E-01;  4.0000000E+04;  0.0000000E+00;  4.0006051E+04; -1.2638985E-02;  0.0000000E+00; -1.5436098E-04;  8.1068781E+02;
  1.1128701E-01;  9.9999998E-03; -1.5994568E-01;3131; -2.4709783E-03;  0.0000000E+00; -1.6511504E-04;  1.0011277E+03;  1.0000000E-01;  9.3429456E+02;3; -2.4718606E+00;  0.0000000E+00; -1.5697913E-02;0; -1.2933539E-02;  4.0096449E+04;  0.0000000E+00;  2.5426549E-01;  4.0000000E+04;  0.0000000E+00;  4.0009707E+04; -1.2811289E-02;  0.0000000E+00; -1.2225052E-04;  1.0660986E+03;
  1.1129698E-01;  9.9999998E-03; -1.4996223E-01;3132; -2.4696158E-03;  0.0000000E+00; -1.7773936E-04;  1.0010493E+03;  1.0000000E-01;  8.6930878E+02;3; -2.4575365E+00;  0.0000000E+00;  3.2497939E-02;0; -1.3057851E-02;  4.0086734E+04;  0.0000000E+00;  1.2982653E-01;  4.0000000E+04;  0.0000000E+00;  4.0013098E+04; -1.3018824E-02;  0.0000000E+00; -3.9027036E-05;  1.5097443E+03;
  1.1131940E-01;  9.9999998E-03; -1.3998701E-01;3133; -2.4591894E-03;  0.0000000E+00; -1.8028640E-04;  1.0009814E+03;  1.0000000E-01;  8.1311279E+02;3; -2.4406178E+00;  0.0000000E+00;  3.0079728E-02;0; -1.3172815E-02;  4.0077926E+04;  0.0000000E+00;  5.3628605E-02;  4.0000000E+04;  0.0000000E+00;  4.0017223E+04; -1.3255488E-02;  0.0000000E+00;  8.2673767E-05;  1.8934352E+03;
  1.1135500E-01;  9.9999998E-03; -1.3000813E-01;3134; -2.4450263E-03;  0.0000000E+00; -1.6898365E-04;  1.0009260E+03;  1.0000000E-01;  7.6718817E+02;3; -2.4354370E+00;  0.0000000E+00;  2.4487939E-02;0; -1.3285217E-02;  4.0071457E+04;  0.0000000E+00;  1.1489785E-02;  4.0000000E+04;  0.0000000E+00;  4.0018379E+04; -1.3509692E-02;  0.0000000E+00;  2.2447442E-04;  2.1053887E+03;
  1.1140668E-01;  9.9999998E-03; -1.2001779E-01;3135; -2.4322805E-03;  0.0000000E+00; -1.4164073E-04;  1.0008803E+03;  1.0000000E-01;  7.2936206E+02;3; -2.4453006E+00;  0.0000000E+00;  1.9151798E-02;0; -1.3400174E-02;  4.0068113E+04;  0.0000000E+00; -9.5544532E-03;  4.0000000E+04;  0.0000000E+00;  4.0017367E+04; -1.3766183E-02;  0.0000000E+00;  3.6600925E-04;  2.1119075E+03;
  1.1150921E-01;  9.9999998E-03; -1.1000833E-01;3136; -2.4255672E-03;  0.0000000E+00; -1.0455594E-04;  1.0008550E+03;  1.0000000E-01;  7.0842444E+02;3; -2.4655628E+00;  0.0000000E+00;  1.5231353E-02;0; -1.3518281E-02;  4.0067188E+04;  0.0000000E+00; -1.8649137E-02;  4.0000000E+04;  0.0000000E+00;  4.0016465E+04; -1.4007743E-02;  0.0000000E+00;  4.8946217E-04;  1.9419630E+03;
  1.2098832E-01;  9.9999998E-03; -2.6986593E-01;3181; -1.3100813E-03;  0.0000000E+00; -3.0630486E-04;  9.9830048E+02;  1.0000000E-01; -1.4080095E+03;3;  6.7066360E+00;  0.0000000E+00; -2.0574162E+01;0; -1.0398818E-02;  3.9841676E+04;  0.0000000E+00;  8.6971827E+00;  4.0000000E+04;  0.0000000E+00;  4.0024836E+04; -1.0183355E-02;  0.0000000E+00; -2.1546311E-04;  1.2992041E+04;
  1.2113857E-01;  9.9999998E-03; -2.5994864E-01;3182; -1.4479297E-03;  0.0000000E+00; -3.3474417E-04;  9.9891980E+02;  1.0000000E-01; -8.9493762E+02;3;  4.7427263E+00;  0.0000000E+00; -2.4102785E+01;0; -1.0889676E-02;  3.9885578E+04;  0.0000000E+00;  7.3331771E+00;  4.0000000E+04;  0.0000000E+00;  4.0032086E+04; -1.0872824E-02;  0.0000000E+00; -1.6852398E-05;  1.1371064E+04;
  1.2127326E-01;  9.9999998E-03; -2.4998963E-01;3183; -1.5983346E-03;  0.0000000E+00; -3.1237601E-04;  9.9949072E+02;  1.0000000E-01; -4.2191400E+02;3;  3.0765164E+00;  0.0000000E+00; -2.2743206E+01;0; -1.1267123E-02;  3.9931090E+04;  0.0000000E+00;  5.8806896E+00;  4.0000000E+04;  0.0000000E+00;  4.0033320E+04; -1.1404245E-02;  0.0000000E+00;  1.3712246E-04;  9.5276074E+03;
  1.2138253E-01;  9.9999998E-03; -2.3999192E-01;3184; -1.7601328E-03;  0.0000000E+00; -2.5155811E-04;  9.9996906E+02;  1.0000000E-01; -2.5628904E+01;3;  1.7929446E+00;  0.0000000E+00; -1.8541485E+01;0; -1.1553045E-02;  3.9973617E+04;  0.0000000E+00;  4.5298095E+00;  4.0000000E+04;  0.0000000E+00;  4.0032023E+04; -1.1781383E-02;  0.0000000E+00;  2.2833754E-04;  7.6283647E+03;
  1.2145966E-01;  9.9999998E-03; -2.2996973E-01;3185; -1.9282129E-03;  0.0000000E+00; -1.6753927E-04;  1.0003350E+03;  1.0000000E-01;  2.7752301E+02;3;  8.6862707E-01;  0.0000000E+00; -1.3493583E+01;0; -1.1775499E-02;  4.0009855E+04;  0.0000000E+00;  3.3952389E+00;  4.0000000E+04;  0.0000000E+00;  4.0026020E+04; -1.2023865E-02;  0.0000000E+00;  2.4836589E-04;  5.8170400E+03;
  1.2149340E-01;  9.9999998E-03; -2.1993907E-01;3186; -2.0912122E-03;  0.0000000E+00; -9.0829817E-05;  1.0005734E+03;  1.0000000E-01;  4.7504828E+02;3;  2.2563273E-01;  0.0000000E+00; -8.9446030E+00;0; -1.1960511E-02;  4.0037656E+04;  0.0000000E+00;  2.5109510E+00;  4.0000000E+04;  0.0000000E+00;  4.0018820E+04; -1.2163038E-02;  0.0000000E+00;  2.0252731E-04;  4.2266499E+03;
  1.2150265E-01;  9.9999998E-03; -2.0991510E-01;3187; -2.2322489E-03;  0.0000000E+00; -4.8558137E-05;  1.0006976E+03;  1.0000000E-01;  5.7795898E+02;3; -2.1546945E-01;  0.0000000E+00; -5.4718552E+00;0; -1.2129275E-02;  4.0055320E+04;  0.0000000E+00;  1.8480759E+00;  4.0000000E+04;  0.0000000E+00;  4.0010980E+04; -1.2236891E-02;  0.0000000E+00;  1.0761646E-04;  2.9599214E+03;
  1.2149992E-01;  9.9999998E-03; -1.9990206E-01;3188; -2.3420316E-03;  0.0000000E+00; -4.3477663E-05;  1.0007295E+03;  1.0000000E-01;  6.0432861E+02;3; -5.1666898E-01;  0.0000000E+00; -3.0935755E+00;0; -1.2293044E-02;  4.0063488E+04;  0.0000000E+00;  1.3511496E+00;  4.0000000E+04;  0.0000000E+00;  4.0006074E+04; -1.2282362E-02;  0.0000000E+00; -1.0681874E-05;  2.0507615E+03;
  1.2148072E-01;  9.9999998E-03; -1.8989594E-01;3189; -2.4240555E-03;  0.0000000E+00; -5.8174515E-05;  1.0006926E+03;  1.0000000E-01;  5.7381091E+02;3; -7.1243978E-01;  0.0000000E+00; -1.5860819E+00;0; -1.2453389E-02;  4.0063477E+04;  0.0000000E+00;  9.6823251E-01;  4.0000000E+04;  0.0000000E+00;  4.0003316E+04; -1.2330945E-02;  0.0000000E+00; -1.2244473E-04;  1.4372611E+03;
  1.2145419E-01;  9.9999998E-03; -1.7989445E-01;3190; -2.4807937E-03;  0.0000000E+00; -8.1205755E-05;  1.0006140E+03;  1.0000000E-01;  5.0872635E+02;3; -8.2913470E-01;  0.0000000E+00; -6.9918007E-01;0; -1.2607787E-02;  4.0056930E+04;  0.0000000E+00;  6.6595167E-01;  4.0000000E+04;  0.0000000E+00;  4.0004164E+04; -1.2406725E-02;  0.0000000E+00; -2.0106240E-04;  1.0474830E+03;
  1.2143849E-01;  9.9999998E-03; -1.6989434E-01;3191; -2.5158990E-03;  0.0000000E+00; -1.0553795E-04;  1.0005166E+03;  1.0000000E-01;  4.2803726E+02;3; -8.8585043E-01;  0.0000000E+00; -2.3459122E-01;0; -1.2754354E-02;  4.0046648E+04;  0.0000000E+00;  4.2862988E-01;  4.0000000E+04;  0.0000000E+00;  4.0007238E+04; -1.2525368E-02;  0.0000000E+00; -2.2898574E-04;  9.8061163E+02;
  1.2145028E-01;  9.9999998E-03; -1.5989716E-01;3192; -2.5341774E-03;  0.0000000E+00; -1.2670520E-04;  1.0004128E+03;  1.0000000E-01;  3.4201501E+02;3; -8.9954239E-01;  0.0000000E+00; -3.9681744E-02;0; -1.2893711E-02;  4.0034062E+04;  0.0000000E+00;  2.5009006E-01;  4.0000000E+04;  0.0000000E+00;  4.0011645E+04; -1.2693913E-02;  0.0000000E+00; -1.9979870E-04;  1.3080027E+03;
  1.2150940E-01;  9.9999998E-03; -1.4991315E-01;3193; -2.5407569E-03;  0.0000000E+00; -1.4197177E-04;  1.0003167E+03;  1.0000000E-01;  2.6241232E+02;3; -8.9049935E-01;  0.0000000E+00;  1.1410010E-02;0; -1.3028595E-02;  4.0022566E+04;  0.0000000E+00;  1.2493352E-01;  4.0000000E+04;  0.0000000E+00;  4.0015516E+04; -1.2910686E-02;  0.0000000E+00; -1.1790889E-04;  1.7859457E+03;
  1.2161792E-01;  9.9999998E-03; -1.3993408E-01;3194; -2.5407071E-03;  0.0000000E+00; -1.4839314E-04;  1.0002366E+03;  1.0000000E-01;  1.9604384E+02;3; -8.7404227E-01;  0.0000000E+00;  1.3869246E-02;0; -1.3162574E-02;  4.0013121E+04;  0.0000000E+00;  4.4144243E-02;  4.0000000E+04;  0.0000000E+00;  4.0017875E+04; -1.3166424E-02;  0.0000000E+00;  3.8501689E-06;  2.2004163E+03;
  1.2176755E-01;  9.9999998E-03; -1.2994750E-01;3195; -2.5385597E-03;  0.0000000E+00; -1.4305821E-04;  1.0001865E+03;  1.0000000E-01;  1.5446477E+02;3; -8.6027282E-01;  0.0000000E+00;  1.2036488E-02;0; -1.3299154E-02;  4.0006812E+04;  0.0000000E+00; -3.7143698E-03;  4.0000000E+04;  0.0000000E+00;  4.0020875E+04; -1.3446171E-02;  0.0000000E+00;  1.4701653E-04;  2.4391218E+03;
  1.2190776E-01;  9.9999998E-03; -1.1994851E-01;3196; -2.5365483E-03;  0.0000000E+00; -1.2272633E-04;  1.0001640E+03;  1.0000000E-01;  1.3589738E+02;3; -8.5623604E-01;  0.0000000E+00;  1.1871163E-02;0; -1.3439463E-02;  4.0004617E+04;  0.0000000E+00; -2.9456045E-02;  4.0000000E+04;  0.0000000E+00;  4.0020199E+04; -1.3730727E-02;  0.0000000E+00;  2.9126435E-04;  2.4619285E+03;
  1.2199353E-01;  9.9999998E-03; -1.0994314E-01;3197; -2.5363793E-03;  0.0000000E+00; -9.2123955E-05;  1.0001649E+03;  1.0000000E-01;  1.3658873E+02;3; -8.6580253E-01;  0.0000000E+00;  1.2147037E-02;0; -1.3580532E-02;  4.0006039E+04;  0.0000000E+00; -4.0904514E-02;  4.0000000E+04;  0.0000000E+00;  4.0018691E+04; -1.3999151E-02;  0.0000000E+00;  4.1861949E-04;  2.2963342E+03;
  1.3093697E-01;  9.9999998E-03; -2.6972589E-01;3242; -1.4855117E-03;  0.0000000E+00; -1.1171831E-04;  9.9811200E+02;  1.0000000E-01; -1.5641533E+03;3;  8.1075668E+00;  0.0000000E+00; -2.4099321E+01;0; -1.1392676E-02;  3.9819059E+04;  0.0000000E+00;  1.2721274E+01;  4.0000000E+04;  0.0000000E+00;  4.0033191E+04; -1.1259541E-02;  0.0000000E+00; -1.3313501E-04;  1.8963869E+04;
  1.3108315E-01;  9.9999998E-03; -2.5982594E-01;3243; -1.6428287E-03;  0.0000000E+00; -1.5541306E-04;  9.9874420E+02;  1.0000000E-01; -1.0404150E+03;3;  5.4737720E+00;  0.0000000E+00; -2.6702869E+01;0; -1.1757568E-02;  3.9864121E+04;  0.0000000E+00;  1.0289309E+01;  4.0000000E+04;  0.0000000E+00;  4.0039836E+04; -1.1812028E-02;  0.0000000E+00;  5.4461299E-05;  1.5772903E+04;
  1.3123225E-01;  9.9999998E-03; -2.4988340E-01;3244; -1.7957963E-03;  0.0000000E+00; -1.5011615E-04;  9.9932214E+02;  1.0000000E-01; -5.6161377E+02;3;  3.4040744E+00;  0.0000000E+00; -2.4594700E+01;0; -1.2010308E-02;  3.9910691E+04;  0.0000000E+00;  7.8926673E+00;  4.0000000E+04;  0.0000000E+00;  4.0041652E+04; -1.2195427E-02;  0.0000000E+00;  1.8511864E-04;  1.2567699E+04;
  1.3136104E-01;  9.9999998E-03; -2.3990211E-01;3245; -1.9513690E-03;  0.0000000E+00; -1.0330126E-04;  9.9980310E+02;  1.0000000E-01; -1.6310649E+02;3;  1.9623035E+00;  0.0000000E+00; -1.9789501E+01;0; -1.2182211E-02;  3.9953988E+04;  0.0000000E+00;  5.7767878E+00;  4.0000000E+04;  0.0000000E+00;  4.0037621E+04; -1.2428299E-02;  0.0000000E+00;  2.4608846E-04;  9.6061045E+03;
  1.3145879E-01;  9.9999998E-03; -2.2989756E-01;3246; -2.1054032E-03;  0.0000000E+00; -4.1632684E-05;  1.0001577E+03;  1.0000000E-01;  1.3066296E+02;3;  1.0522923E+00;  0.0000000E+00; -1.4260908E+01;0; -1.2301357E-02;  3.9989879E+04;  0.0000000E+00;  4.0754385E+00;  4.0000000E+04;  0.0000000E+00;  4.0031027E+04; -1.2538993E-02;  0.0000000E+00;  2.3763638E-04;  7.0258955E+03;
  1.3152415E-01;  9.9999998E-03; -2.1988660E-01;3247; -2.2456222E-03;  0.0000000E+00;  3.6698186E-06;  1.0003748E+03;  1.0000000E-01;  3.1050974E+02;3;  5.1908255E-01;  0.0000000E+00; -9.3634443E+00;0; -1.2396404E-02;  4.0016141E+04;  0.0000000E+00;  2.8104391E+00;  4.0000000E+04;  0.0000000E+00;  4.0023004E+04; -1.2564919E-02;  0.0000000E+00;  1.6851570E-04;  4.8986299E+03;
  1.3156107E-01;  9.9999998E-03; -2.0987877E-01;3248; -2.3631603E-03;  0.0000000E+00;  1.9292427E-05;  1.0004680E+03;  1.0000000E-01;  3.8774213E+02;3;  2.1754336E-01;  0.0000000E+00; -5.6742234E+00;0; -1.2491687E-02;  4.0032133E+04;  0.0000000E+00;  1.9235154E+00;  4.0000000E+04;  0.0000000E+00;  4.0014141E+04; -1.2547168E-02;  0.0000000E+00;  5.5480403E-05;  3.2677600E+03;
  1.3157763E-01;  9.9999998E-03; -1.9987504E-01;3249; -2.4589405E-03;  0.0000000E+00;  1.2806321E-05;  1.0004546E+03;  1.0000000E-01;  3.7658194E+02;3;  4.5590054E-02;  0.0000000E+00; -3.1789470E+00;0; -1.2599639E-02;  4.0037395E+04;  0.0000000E+00;  1.3190954E+00;  4.0000000E+04;  0.0000000E+00;  4.0008383E+04; -1.2523719E-02;  0.0000000E+00; -7.5919357E-05;  2.1335068E+03;
  1.3158177E-01;  9.9999998E-03; -1.8987091E-01;3250; -2.5326097E-03;  0.0000000E+00; -8.0447999E-06;  1.0003776E+03;  1.0000000E-01;  3.1278128E+02;3; -6.0694348E-02;  0.0000000E+00; -1.6237947E+00;0; -1.2721458E-02;  4.0034379E+04;  0.0000000E+00;  9.0320057E-01;  4.0000000E+04;  0.0000000E+00;  4.0004672E+04; -1.2525169E-02;  0.0000000E+00; -1.9628969E-04;  1.4242343E+03;
  1.3158965E-01;  9.9999998E-03; -1.7986511E-01;3251; -2.5861620E-03;  0.0000000E+00; -3.5147630E-05;  1.0002599E+03;  1.0000000E-01;  2.1540132E+02;3; -1.2386239E-01;  0.0000000E+00; -7.2070384E-01;0; -1.2853822E-02;  4.0024848E+04;  0.0000000E+00;  6.0546392E-01;  4.0000000E+04;  0.0000000E+00;  4.0005242E+04; -1.2573726E-02;  0.0000000E+00; -2.8009608E-04;  1.0458345E+03;
  1.3162051E-01;  9.9999998E-03; -1.6985546E-01;3252; -2.6229438E-03;  0.0000000E+00; -6.2463754E-05;  1.0001288E+03;  1.0000000E-01;  1.0666365E+02;3; -1.5509805E-01;  0.0000000E+00; -2.4914451E-01;0; -1.2993208E-02;  4.0012152E+04;  0.0000000E+00;  3.8410982E-01;  4.0000000E+04;  0.0000000E+00;  4.0007414E+04; -1.2682430E-02;  0.0000000E+00; -3.1077748E-04;  1.0441691E+03;
  1.3169727E-01;  9.9999998E-03; -1.5984540E-01;3253; -2.6472446E-03;  0.0000000E+00; -8.6369058E-05;  1.0000064E+03;  1.0000000E-01;  5.3331823E+00;3; -1.6328061E-01;  0.0000000E+00; -4.9757272E-02;0; -1.3138137E-02;  3.9998398E+04;  0.0000000E+00;  2.1874344E-01;  4.0000000E+04;  0.0000000E+00;  4.0011785E+04; -1.2855374E-02;  0.0000000E+00; -2.8276295E-04;  1.4145912E+03;
  1.3182759E-01;  9.9999998E-03; -1.4984663E-01;3254; -2.6632925E-03;  0.0000000E+00; -1.0415466E-04;  9.9990942E+02;  1.0000000E-01; -7.5059608E+01;3; -1.5859936E-01;  0.0000000E+00;  4.2371252E-03;0; -1.3288475E-02;  3.9986219E+04;  0.0000000E+00;  9.9747255E-02;  4.0000000E+04;  0.0000000E+00;  4.0015664E+04; -1.3087490E-02;  0.0000000E+00; -2.0098472E-04;  1.9161555E+03;
  1.3193440E-01;  9.9999998E-03; -1.3986172E-01;3255; -2.6739407E-03;  0.0000000E+00; -1.1375504E-04;  9.9984424E+02;  1.0000000E-01; -1.2903339E+02;3; -1.5306595E-01;  0.0000000E+00;  8.8407602E-03;0; -1.3441873E-02;  3.9977223E+04;  0.0000000E+00;  2.0151963E-02;  4.0000000E+04;  0.0000000E+00;  4.0019535E+04; -1.3363720E-02;  0.0000000E+00; -7.8152691E-05;  2.3527939E+03;
  1.3196577E-01;  9.9999998E-03; -1.2989444E-01;3256; -2.6814379E-03;  0.0000000E+00; -1.1292824E-04;  9.9980890E+02;  1.0000000E-01; -1.5831651E+02;3; -1.5256524E-01;  0.0000000E+00;  8.6407969E-03;0; -1.3596104E-02;  3.9972047E+04;  0.0000000E+00; -2.7844185E-02;  4.0000000E+04;  0.0000000E+00;  4.0021379E+04; -1.3663286E-02;  0.0000000E+00;  6.7182242E-05;  2.6146440E+03;
  1.3195887E-01;  9.9999998E-03; -1.1992200E-01;3257; -2.6882065E-03;  0.0000000E+00; -1.0118975E-04;  9.9980518E+02;  1.0000000E-01; -1.6142754E+02;3; -1.5664726E-01;  0.0000000E+00;  8.5379435E-03;0; -1.3751399E-02;  3.9971379E+04;  0.0000000E+00; -5.2687224E-02;  4.0000000E+04;  0.0000000E+00;  4.0021105E+04; -1.3965707E-02;  0.0000000E+00;  2.1430830E-04;  2.6556125E+03;
  1.3193667E-01;  9.9999998E-03; -1.0993768E-01;3258; -2.6954338E-03;  0.0000000E+00; -8.1312668E-05;  9.9982062E+02;  1.0000000E-01; -1.4863777E+02;3; -1.6368571E-01;  0.0000000E+00;  8.5457945E-03;0; -1.3905000E-02;  3.9973746E+04;  0.0000000E+00; -6.1627153E-02;  4.0000000E+04;  0.0000000E+00;  4.0020039E+04; -1.4249932E-02;  0.0000000E+00;  3.4493170E-04;  2.4991467E+03;
  1.4085230E-01;  9.9999998E-03; -2.6960146E-01;3303; -1.7407109E-03;  0.0000000E+00;  5.9228074E-05;  9.9810852E+02;  1.0000000E-01; -1.5670668E+03;3;  1.0672866E+01;  0.0000000E+00; -3.0909119E+01;0; -1.2681394E-02;  3.9805488E+04;  0.0000000E+00;  1.7378359E+01;  4.0000000E+04;  0.0000000E+00;  4.0047473E+04; -1.2589896E-02;  0.0000000E+00; -9.1497437E-05;  2.6029881E+04;
  1.4101979E-01;  9.9999998E-03; -2.5971261E-01;3304; -1.9086256E-03;  0.0000000E+00;  7.4762629E-06;  9.9872754E+02;  1.0000000E-01; -1.0541924E+03;3;  6.7050691E+00;  0.0000000E+00; -3.1119904E+01;0; -1.2856582E-02;  3.9852227E+04;  0.0000000E+00;  1.3498021E+01;  4.0000000E+04;  0.0000000E+00;  4.0051289E+04; -1.2948863E-02;  0.0000000E+00;  9.2280781E-05;  2.0702096E+04;
  1.4117663E-01;  9.9999998E-03; -2.4979320E-01;3305; -2.0574452E-03;  0.0000000E+00;  3.0004826E-06;  9.9930591E+02;  1.0000000E-01; -5.7504547E+02;3;  3.8099189E+00;  0.0000000E+00; -2.7260588E+01;0; -1.2934794E-02;  3.9900832E+04;  0.0000000E+00;  9.9613628E+00;  4.0000000E+04;  0.0000000E+00;  4.0049797E+04; -1.3137355E-02;  0.0000000E+00;  2.0256154E-04;  1.5788554E+04;
  1.4130782E-01;  9.9999998E-03; -2.3983805E-01;3306; -2.1939159E-03;  0.0000000E+00;  2.8889992E-05;  9.9979626E+02;  1.0000000E-01; -1.6878535E+02;3;  1.9644593E+00;  0.0000000E+00; -2.1353920E+01;0; -1.2955067E-02;  3.9946320E+04;  0.0000000E+00;  7.0150104E+00;  4.0000000E+04;  0.0000000E+00;  4.0043652E+04; -1.3193382E-02;  0.0000000E+00;  2.3831484E-04;  1.1587738E+04;
  1.4141472E-01;  9.9999998E-03; -2.2985579E-01;3307; -2.3181913E-03;  0.0000000E+00;  5.8458943E-05;  1.0001529E+03;  1.0000000E-01;  1.2671246E+02;3;  9.3297917E-01;  0.0000000E+00; -1.5155115E+01;0; -1.2949693E-02;  3.9984008E+04;  0.0000000E+00;  4.7355556E+00;  4.0000000E+04;  0.0000000E+00;  4.0035383E+04; -1.3156055E-02;  0.0000000E+00;  2.0636218E-04;  8.1583618E+03;
  1.4149801E-01;  9.9999998E-03; -2.1986219E-01;3308; -2.4312695E-03;  0.0000000E+00;  7.9174402E-05;  1.0003657E+03;  1.0000000E-01;  3.0300378E+02;3;  4.3732736E-01;  0.0000000E+00; -9.8499212E+00;0; -1.2949594E-02;  4.0011215E+04;  0.0000000E+00;  3.0918155E+00;  4.0000000E+04;  0.0000000E+00;  4.0026117E+04; -1.3066123E-02;  0.0000000E+00;  1.1652885E-04;  5.4703369E+03;
  1.4155412E-01;  9.9999998E-03; -2.0986687E-01;3309; -2.5298821E-03;  0.0000000E+00;  8.1816550E-05;  1.0004449E+03;  1.0000000E-01;  3.6858215E+02;3;  2.3922655E-01;  0.0000000E+00; -5.9207625E+00;0; -1.2973877E-02;  4.0026855E+04;  0.0000000E+00;  1.9784056E+00;  4.0000000E+04;  0.0000000E+00;  4.0016402E+04; -1.2962161E-02;  0.0000000E+00; -1.1715660E-05;  3.4775505E+03;
  1.4159028E-01;  9.9999998E-03; -1.9986910E-01;3310; -2.6130339E-03;  0.0000000E+00;  6.6873530E-05;  1.0004199E+03;  1.0000000E-01;  3.4784201E+02;3;  1.7339976E-01;  0.0000000E+00; -3.3022461E+00;0; -1.3031132E-02;  4.0031527E+04;  0.0000000E+00;  1.2591338E+00;  4.0000000E+04;  0.0000000E+00;  4.0008793E+04; -1.2878715E-02;  0.0000000E+00; -1.5241651E-04;  2.1253855E+03;
  1.4162946E-01;  9.9999998E-03; -1.8986072E-01;3311; -2.6806730E-03;  0.0000000E+00;  4.0726478E-05;  1.0003222E+03;  1.0000000E-01;  2.6695541E+02;3;  1.4969955E-01;  0.0000000E+00; -1.6848017E+00;0; -1.3121030E-02;  4.0027227E+04;  0.0000000E+00;  8.0283242E-01;  4.0000000E+04;  0.0000000E+00;  4.0004441E+04; -1.2843367E-02;  0.0000000E+00; -2.7766378E-04;  1.3158706E+03;
  1.4169659E-01;  9.9999998E-03; -1.7983629E-01;3312; -2.7340206E-03;  0.0000000E+00;  9.4866355E-06;  1.0001898E+03;  1.0000000E-01;  1.5723012E+02;3;  1.3489036E-01;  0.0000000E+00; -7.5162536E-01;0; -1.3238274E-02;  4.0016699E+04;  0.0000000E+00;  5.0700986E-01;  4.0000000E+04;  0.0000000E+00;  4.0004348E+04; -1.2874886E-02;  0.0000000E+00; -3.6338743E-04;  9.2394226E+02;
  1.4178629E-01;  9.9999998E-03; -1.6980082E-01;3313; -2.7752619E-03;  0.0000000E+00; -2.1646085E-05;  1.0000504E+03;  1.0000000E-01;  4.1677834E+01;3;  1.2403308E-01;  0.0000000E+00; -2.6365298E-01;0; -1.3375578E-02;  4.0003238E+04;  0.0000000E+00;  3.0458283E-01;  4.0000000E+04;  0.0000000E+00;  4.0007332E+04; -1.2981758E-02;  0.0000000E+00; -3.9381991E-04;  9.5142883E+02;
  1.4185335E-01;  9.9999998E-03; -1.5979175E-01;3314; -2.8066635E-03;  0.0000000E+00; -4.9207061E-05;  9.9992749E+02;  1.0000000E-01; -6.0097065E+01;3;  1.1847071E-01;  0.0000000E+00; -5.4806545E-02;0; -1.3525199E-02;  3.9989441E+04;  0.0000000E+00;  1.5936255E-01;  4.0000000E+04;  0.0000000E+00;  4.0010973E+04; -1.3161238E-02;  0.0000000E+00; -3.6396124E-04;  1.3492280E+03;
  1.4188336E-01;  9.9999998E-03; -1.4981917E-01;3315; -2.8311331E-03;  0.0000000E+00; -7.0723843E-05;  9.9983459E+02;  1.0000000E-01; -1.3703316E+02;3;  1.1710227E-01;  0.0000000E+00;  3.4777988E-03;0; -1.3682731E-02;  3.9977344E+04;  0.0000000E+00;  5.5610649E-02;  4.0000000E+04;  0.0000000E+00;  4.0014215E+04; -1.3402857E-02;  0.0000000E+00; -2.7987483E-04;  1.8714274E+03;
  1.4188500E-01;  9.9999998E-03; -1.3985856E-01;3316; -2.8514073E-03;  0.0000000E+00; -8.4101484E-05;  9.9977124E+02;  1.0000000E-01; -1.8952550E+02;3;  1.1679471E-01;  0.0000000E+00;  9.1197761E-03;0; -1.3846215E-02;  3.9968617E+04;  0.0000000E+00; -1.3246886E-02;  4.0000000E+04;  0.0000000E+00;  4.0019152E+04; -1.3690899E-02;  0.0000000E+00; -1.5531533E-04;  2.3276562E+03;
  1.4186974E-01;  9.9999998E-03; -1.2989481E-01;3317; -2.8694235E-03;  0.0000000E+00; -8.7182802E-05;  9.9974060E+02;  1.0000000E-01; -2.1490750E+02;3;  1.1588947E-01;  0.0000000E+00;  9.5662577E-03;0; -1.4013571E-02;  3.9963445E+04;  0.0000000E+00; -5.2862231E-02;  4.0000000E+04;  0.0000000E+00;  4.0020938E+04; -1.4004747E-02;  0.0000000E+00; -8.8232446E-06;  2.6058503E+03;
  1.4184229E-01;  9.9999998E-03; -1.1992075E-01;3318; -2.8860297E-03;  0.0000000E+00; -7.9187354E-05;  9.9973413E+02;  1.0000000E-01; -2.2029007E+02;3;  1.1420608E-01;  0.0000000E+00;  9.8706754E-03;0; -1.4181581E-02;  3.9962266E+04;  0.0000000E+00; -7.0334367E-02;  4.0000000E+04;  0.0000000E+00;  4.0020930E+04; -1.4321016E-02;  0.0000000E+00;  1.3943495E-04;  2.6591899E+03;
  1.4180598E-01;  9.9999998E-03; -1.0993406E-01;3319; -2.9013194E-03;  0.0000000E+00; -6.3151550E-05;  9.9974615E+02;  1.0000000E-01; -2.1031503E+02;3;  1.1191677E-01;  0.0000000E+00;  1.0030672E-02;0; -1.4345323E-02;  3.9964289E+04;  0.0000000E+00; -7.2727360E-02;  4.0000000E+04;  0.0000000E+00;  4.0020098E+04; -1.4616815E-02;  0.0000000E+00;  2.7149307E-04;  2.5102561E+03;
  1.5166664E-01;  9.9999998E-03; -1.0992466E-01;3380; -3.1461818E-03;  0.0000000E+00; -4.7279322E-05;  9.9986072E+02;  1.0000000E-01; -1.1540414E+02;3;  1.8997577E-01;  0.0000000E+00;  1.2260878E-02;0; -1.4766910E-02;  3.9971723E+04;  0.0000000E+00; -7.1831189E-02;  4.0000000E+04;  0.0000000E+00;  4.0018781E+04; -1.4970129E-02;  0.0000000E+00;  2.0321940E-04;  2.3121458E+03;
  1.5170839E-01;  9.9999998E-03; -1.1991659E-01;3379; -3.1221439E-03;  0.0000000E+00; -6.0540937E-05;  9.9986243E+02;  1.0000000E-01; -1.1397208E+02;3;  1.9096451E-01;  0.0000000E+00;  1.2207743E-02;0; -1.4597267E-02;  3.9971016E+04;  0.0000000E+00; -7.8381322E-02;  4.0000000E+04;  0.0000000E+00;  4.0019820E+04; -1.4668893E-02;  0.0000000E+00;  7.1625800E-05;  2.4533987E+03;
  1.5174273E-01;  9.9999998E-03; -1.2989566E-01;3378; -3.0945472E-03;  0.0000000E+00; -6.5750930E-05;  9.9988153E+02;  1.0000000E-01; -9.8170067E+01;3;  1.9188875E-01;  0.0000000E+00;  1.1935810E-02;0; -1.4420872E-02;  3.9973316E+04;  0.0000000E+00; -7.3851906E-02;  4.0000000E+04;  0.0000000E+00;  4.0019781E+04; -1.4344711E-02;  0.0000000E+00; -7.6161181E-05;  2.3945615E+03;
  1.5176730E-01;  9.9999998E-03; -1.3986485E-01;3377; -3.0643006E-03;  0.0000000E+00; -5.9933634E-05;  9.9991705E+02;  1.0000000E-01; -6.8738800E+01;3;  1.9268999E-01;  0.0000000E+00;  1.1439274E-02;0; -1.4243633E-02;  3.9978918E+04;  0.0000000E+00; -5.1289640E-02;  4.0000000E+04;  0.0000000E+00;  4.0016789E+04; -1.4020863E-02;  0.0000000E+00; -2.2276927E-04;  2.1130234E+03;
  1.5178230E-01;  9.9999998E-03; -1.4982986E-01;3376; -3.0319416E-03;  0.0000000E+00; -4.3910386E-05;  9.9998126E+02;  1.0000000E-01; -1.5505734E+01;3;  1.9336696E-01;  0.0000000E+00;  5.0202427E-03;0; -1.4070775E-02;  3.9988070E+04;  0.0000000E+00; -3.9503537E-03;  4.0000000E+04;  0.0000000E+00;  4.0013465E+04; -1.3722083E-02;  0.0000000E+00; -3.4869261E-04;  1.6531980E+03;
  1.5178806E-01;  9.9999998E-03; -1.5980203E-01;3375; -2.9971534E-03;  0.0000000E+00; -1.9514380E-05;  1.0000753E+03;  1.0000000E-01;  6.2417988E+01;3;  1.9430248E-01;  0.0000000E+00; -5.8480624E-02;0; -1.3906807E-02;  4.0000457E+04;  0.0000000E+00;  7.3640905E-02;  4.0000000E+04;  0.0000000E+00;  4.0009387E+04; -1.3471165E-02;  0.0000000E+00; -4.3564220E-04;  1.1204037E+03;
  1.5177846E-01;  9.9999998E-03; -1.6980091E-01;3374; -2.9585750E-03;  0.0000000E+00;  1.1723319E-05;  1.0001984E+03;  1.0000000E-01;  1.6434103E+02;3;  1.9341822E-01;  0.0000000E+00; -2.7838203E-01;0; -1.3756249E-02;  4.0014199E+04;  0.0000000E+00;  1.9086528E-01;  4.0000000E+04;  0.0000000E+00;  4.0006473E+04; -1.3286702E-02;  0.0000000E+00; -4.6954633E-04;  6.9581793E+02;
  1.5173489E-01;  9.9999998E-03; -1.7982557E-01;3373; -2.9139568E-03;  0.0000000E+00;  4.7561392E-05;  1.0003320E+03;  1.0000000E-01;  2.7505396E+02;3;  1.8200944E-01;  0.0000000E+00; -7.8307760E-01;0; -1.3625376E-02;  4.0027820E+04;  0.0000000E+00;  3.7234032E-01;  4.0000000E+04;  0.0000000E+00;  4.0004215E+04; -1.3181987E-02;  0.0000000E+00; -4.4338830E-04;  6.5880139E+02;
  1.5165681E-01;  9.9999998E-03; -1.8985786E-01;3372; -2.8611692E-03;  0.0000000E+00;  8.3919069E-05;  1.0004627E+03;  1.0000000E-01;  3.8329779E+02;3;  1.4766662E-01;  0.0000000E+00; -1.7433239E+00;0; -1.3523634E-02;  4.0037828E+04;  0.0000000E+00;  6.7005146E-01;  4.0000000E+04;  0.0000000E+00;  4.0003719E+04; -1.3163276E-02;  0.0000000E+00; -3.6035784E-04;  1.0803762E+03;
  1.5157644E-01;  9.9999998E-03; -1.9988194E-01;3371; -2.7990234E-03;  0.0000000E+00;  1.1542391E-04;  1.0005576E+03;  1.0000000E-01;  4.6201163E+02;3;  9.0445384E-02;  0.0000000E+00; -3.4054754E+00;0; -1.3463178E-02;  4.0041605E+04;  0.0000000E+00;  1.1714987E+00;  4.0000000E+04;  0.0000000E+00;  4.0007930E+04; -1.3228354E-02;  0.0000000E+00; -2.3482391E-04;  1.9756616E+03;
  1.5150061E-01;  9.9999998E-03; -2.0988409E-01;3370; -2.7271498E-03;  0.0000000E+00;  1.3585153E-04;  1.0005824E+03;  1.0000000E-01;  4.8255426E+02;3;  5.3628385E-02;  0.0000000E+00; -6.1072483E+00;0; -1.3454506E-02;  4.0036371E+04;  0.0000000E+00;  2.0017815E+00;  4.0000000E+04;  0.0000000E+00;  4.0016203E+04; -1.3364860E-02;  0.0000000E+00; -8.9645982E-05;  3.5125420E+03;
  1.5080084E-01;  9.9999998E-03; -2.6953897E-01;3364; -2.0648891E-03;  0.0000000E+00;  1.1054529E-04;  9.9823462E+02;  1.0000000E-01; -1.4625759E+03;3;  1.4687303E+01;  0.0000000E+00; -3.9520336E+01;0; -1.4155267E-02;  3.9798801E+04;  0.0000000E+00;  2.2274921E+01;  4.0000000E+04;  0.0000000E+00;  4.0064238E+04; -1.4125615E-02;  0.0000000E+00; -2.9651914E-05;  3.3605137E+04;
  1.5098113E-01;  9.9999998E-03; -2.5965977E-01;3365; -2.2336880E-03;  0.0000000E+00;  8.3695682E-05;  9.9882446E+02;  1.0000000E-01; -9.7389838E+02;3;  8.5134830E+00;  0.0000000E+00; -3.6183659E+01;0; -1.4078417E-02;  3.9847738E+04;  0.0000000E+00;  1.6577904E+01;  4.0000000E+04;  0.0000000E+00;  4.0062500E+04; -1.4204494E-02;  0.0000000E+00;  1.2607715E-04;  2.5558498E+04;
  1.5113616E-01;  9.9999998E-03; -2.4975738E-01;3366; -2.3591509E-03;  0.0000000E+00;  8.1128885E-05;  9.9940222E+02;  1.0000000E-01; -4.9524524E+02;3;  4.3353591E+00;  0.0000000E+00; -2.9964659E+01;0; -1.3920353E-02;  3.9900621E+04;  0.0000000E+00;  1.1798647E+01;  4.0000000E+04;  0.0000000E+00;  4.0056949E+04; -1.4129675E-02;  0.0000000E+00;  2.0932234E-04;  1.8717787E+04;
  1.5126291E-01;  9.9999998E-03; -2.3982234E-01;3367; -2.4647568E-03;  0.0000000E+00;  1.0126160E-04;  9.9990326E+02;  1.0000000E-01; -8.0145882E+01;3;  1.8826963E+00;  0.0000000E+00; -2.2721634E+01;0; -1.3753411E-02;  3.9949523E+04;  0.0000000E+00;  8.0581131E+00;  4.0000000E+04;  0.0000000E+00;  4.0048047E+04; -1.3968894E-02;  0.0000000E+00;  2.1548267E-04;  1.3250725E+04;
  1.5135896E-01;  9.9999998E-03; -2.2985882E-01;3368; -2.5591149E-03;  0.0000000E+00;  1.2553413E-04;  1.0002710E+03;  1.0000000E-01;  2.2448747E+02;3;  6.4999539E-01;  0.0000000E+00; -1.5829926E+01;0; -1.3607381E-02;  3.9990215E+04;  0.0000000E+00;  5.2782102E+00;  4.0000000E+04;  0.0000000E+00;  4.0038008E+04; -1.3764559E-02;  0.0000000E+00;  1.5717828E-04;  9.0162588E+03;
  1.5143193E-01;  9.9999998E-03; -2.1987650E-01;3369; -2.6467782E-03;  0.0000000E+00;  1.3988082E-04;  1.0004970E+03;  1.0000000E-01;  4.1174146E+02;3;  1.6114421E-01;  0.0000000E+00; -1.0197929E+01;0; -1.3503575E-02;  4.0019496E+04;  0.0000000E+00;  3.3147852E+00;  4.0000000E+04;  0.0000000E+00;  4.0026785E+04; -1.3552590E-02;  0.0000000E+00;  4.9015071E-05;  5.8211675E+03;
  1.6081686E-01;  9.9999998E-03; -2.6960212E-01;3425; -2.4042821E-03;  0.0000000E+00; -2.7492417E-05;  9.9831061E+02;  1.0000000E-01; -1.3996147E+03;3;  1.9301525E+01;  0.0000000E+00; -4.4548241E+01;0; -1.5537849E-02;  3.9792379E+04;  0.0000000E+00;  2.6379181E+01;  4.0000000E+04;  0.0000000E+00;  4.0076062E+04; -1.5757032E-02;  0.0000000E+00;  2.1918288E-04;  4.0007988E+04;
  1.6100846E-01;  9.9999998E-03; -2.5970706E-01;3426; -2.5823498E-03;  0.0000000E+00;  3.0541400E-05;  9.9890167E+02;  1.0000000E-01; -9.0994958E+02;3;  1.0418792E+01;  0.0000000E+00; -3.8856472E+01;0; -1.5242909E-02;  3.9846020E+04;  0.0000000E+00;  1.8854555E+01;  4.0000000E+04;  0.0000000E+00;  4.0070238E+04; -1.5480502E-02;  0.0000000E+00;  2.3759235E-04;  2.9201572E+04;
  1.6115889E-01;  9.9999998E-03; -2.4980134E-01;3427; -2.6876237E-03;  0.0000000E+00;  7.7118370E-05;  9.9949841E+02;  1.0000000E-01; -4.1554379E+02;3;  4.7680111E+00;  0.0000000E+00; -3.0998495E+01;0; -1.4845717E-02;  3.9904523E+04;  0.0000000E+00;  1.3007018E+01;  4.0000000E+04;  0.0000000E+00;  4.0060355E+04; -1.5079829E-02;  0.0000000E+00;  2.3411191E-04;  2.0641402E+04;
  1.6124125E-01;  9.9999998E-03; -2.3986959E-01;3428; -2.7609260E-03;  0.0000000E+00;  1.2151173E-04;  1.0000438E+03;  1.0000000E-01;  3.6344650E+01;3;  1.6593773E+00;  0.0000000E+00; -2.3007088E+01;0; -1.4474474E-02;  3.9959832E+04;  0.0000000E+00;  8.7175779E+00;  4.0000000E+04;  0.0000000E+00;  4.0048508E+04; -1.4660162E-02;  0.0000000E+00;  1.8568768E-04;  1.4214457E+04;
  1.6129343E-01;  9.9999998E-03; -2.2991048E-01;3429; -2.8231596E-03;  0.0000000E+00;  1.5668034E-04;  1.0004467E+03;  1.0000000E-01;  3.7006360E+02;3;  2.3144995E-01;  0.0000000E+00; -1.5864960E+01;0; -1.4173743E-02;  4.0004418E+04;  0.0000000E+00;  5.6212630E+00;  4.0000000E+04;  0.0000000E+00;  4.0037141E+04; -1.4268623E-02;  0.0000000E+00;  9.4879346E-05;  9.4121670E+03;
  1.6133870E-01;  9.9999998E-03; -2.1992789E-01;3430; -2.8828371E-03;  0.0000000E+00;  1.7386064E-04;  1.0006890E+03;  1.0000000E-01;  5.7074927E+02;3; -2.3015998E-01;  0.0000000E+00; -1.0187544E+01;0; -1.3958205E-02;  4.0035781E+04;  0.0000000E+00;  3.4439209E+00;  4.0000000E+04;  0.0000000E+00;  4.0025387E+04; -1.3928808E-02;  0.0000000E+00; -2.9396077E-05;  5.8636963E+03;
  1.6141160E-01;  9.9999998E-03; -2.0992863E-01;3431; -2.9419379E-03;  0.0000000E+00;  1.6849184E-04;  1.0007919E+03;  1.0000000E-01;  6.5608020E+02;3; -2.2968157E-01;  0.0000000E+00; -6.1177735E+00;0; -1.3831996E-02;  4.0053836E+04;  0.0000000E+00;  1.9790725E+00;  4.0000000E+04;  0.0000000E+00;  4.0014305E+04; -1.3658796E-02;  0.0000000E+00; -1.7320042E-04;  3.3370806E+03;
  1.6152674E-01;  9.9999998E-03; -1.9991137E-01;3432; -2.9999469E-03;  0.0000000E+00;  1.4446465E-04;  1.0007835E+03;  1.0000000E-01;  6.4916681E+02;3; -7.6852299E-02;  0.0000000E+00; -3.4321890E+00;0; -1.3790349E-02;  4.0060395E+04;  0.0000000E+00;  1.0520620E+00;  4.0000000E+04;  0.0000000E+00;  4.0006090E+04; -1.3473392E-02;  0.0000000E+00; -3.1695722E-04;  1.6827701E+03;
  1.6163906E-01;  9.9999998E-03; -1.8988673E-01;3433; -3.0550093E-03;  0.0000000E+00;  1.0912924E-04;  1.0006998E+03;  1.0000000E-01;  5.7973669E+02;3;  7.0613347E-02;  0.0000000E+00; -1.7700310E+00;0; -1.3819983E-02;  4.0057730E+04;  0.0000000E+00;  5.0523943E-01;  4.0000000E+04;  0.0000000E+00;  4.0001961E+04; -1.3383010E-02;  0.0000000E+00; -4.3697280E-04;  7.4642889E+02;
  1.6168727E-01;  9.9999998E-03; -1.7985852E-01;3434; -3.1061387E-03;  0.0000000E+00;  6.9706912E-05;  1.0005822E+03;  1.0000000E-01;  4.8225797E+02;3;  1.6104004E-01;  0.0000000E+00; -8.0305505E-01;0; -1.3904148E-02;  4.0048637E+04;  0.0000000E+00;  2.0427893E-01;  4.0000000E+04;  0.0000000E+00;  4.0000930E+04; -1.3391632E-02;  0.0000000E+00; -5.1251613E-04;  2.9886871E+02;
  1.6170351E-01;  9.9999998E-03; -1.6983290E-01;3435; -3.1548087E-03;  0.0000000E+00;  3.1808111E-05;  1.0004579E+03;  1.0000000E-01;  3.7934729E+02;3;  1.9954149E-01;  0.0000000E+00; -2.8852084E-01;0; -1.4028101E-02;  4.0035730E+04;  0.0000000E+00;  4.7018707E-02;  4.0000000E+04;  0.0000000E+00;  4.0003109E+04; -1.3496549E-02;  0.0000000E+00; -5.3155218E-04;  3.0457129E+02;
  1.6169778E-01;  9.9999998E-03; -1.5982974E-01;3436; -3.2020824E-03;  0.0000000E+00; -7.4637967E-07;  1.0003385E+03;  1.0000000E-01;  2.8048590E+02;3;  2.0976901E-01;  0.0000000E+00; -6.0627118E-02;0; -1.4178718E-02;  4.0022023E+04;  0.0000000E+00; -3.3917464E-02;  4.0000000E+04;  0.0000000E+00;  4.0007348E+04; -1.3686628E-02;  0.0000000E+00; -4.9209053E-04;  7.5645813E+02;
  1.6168524E-01;  9.9999998E-03; -1.4985318E-01;3437; -3.2487141E-03;  0.0000000E+00; -2.6174872E-05;  1.0002430E+03;  1.0000000E-01;  2.0137701E+02;3;  2.1053338E-01;  0.0000000E+00;  7.1279560E-03;0; -1.4346292E-02;  4.0009625E+04;  0.0000000E+00; -7.4738033E-02;  4.0000000E+04;  0.0000000E+00;  4.0011078E+04; -1.3944461E-02;  0.0000000E+00; -4.0183123E-04;  1.2794381E+03;
  1.6167070E-01;  9.9999998E-03; -1.3988547E-01;3438; -3.2944698E-03;  0.0000000E+00; -4.3155414E-05;  1.0001702E+03;  1.0000000E-01;  1.4103305E+02;3;  2.0986666E-01;  0.0000000E+00;  1.4324461E-02;0; -1.4524017E-02;  3.9999852E+04;  0.0000000E+00; -9.0873390E-02;  4.0000000E+04;  0.0000000E+00;  4.0013703E+04; -1.4248873E-02;  0.0000000E+00; -2.7514409E-04;  1.7244355E+03;
  1.6165170E-01;  9.9999998E-03; -1.2991597E-01;3439; -3.3380990E-03;  0.0000000E+00; -5.0266353E-05;  1.0001209E+03;  1.0000000E-01;  1.0014532E+02;3;  2.0909232E-01;  0.0000000E+00;  1.4787595E-02;0; -1.4705800E-02;  3.9992969E+04;  0.0000000E+00; -8.9732088E-02;  4.0000000E+04;  0.0000000E+00;  4.0016727E+04; -1.4575820E-02;  0.0000000E+00; -1.2998018E-04;  1.9974263E+03;
  1.6162303E-01;  9.9999998E-03; -1.1993793E-01;3440; -3.3776120E-03;  0.0000000E+00; -4.6692763E-05;  1.0000855E+03;  1.0000000E-01;  7.0812813E+01;3;  2.0825556E-01;  0.0000000E+00;  1.5011211E-02;0; -1.4885211E-02;  3.9989508E+04;  0.0000000E+00; -7.8211054E-02;  4.0000000E+04;  0.0000000E+00;  4.0017570E+04; -1.4900351E-02;  0.0000000E+00;  1.5139467E-05;  2.0583196E+03;
  1.6158484E-01;  9.9999998E-03; -1.0994835E-01;3441; -3.4110304E-03;  0.0000000E+00; -3.5337162E-05;  1.0000677E+03;  1.0000000E-01;  5.6097179E+01;3;  2.0744795E-01;  0.0000000E+00;  1.4831946E-02;0; -1.5055730E-02;  3.9988449E+04;  0.0000000E+00; -6.2605016E-02;  4.0000000E+04;  0.0000000E+00;  4.0016480E+04; -1.5199578E-02;  0.0000000E+00;  1.4384852E-04;  1.9292699E+03;
  1.7093085E-01;  9.9999998E-03; -2.6980668E-01;3486; -2.6614526E-03;  0.0000000E+00; -2.3282989E-04;  9.9804034E+02;  1.0000000E-01; -1.6235590E+03;3;  2.1711056E+01;  0.0000000E+00; -3.7948467E+01;0; -1.6555473E-02;  3.9778906E+04;  0.0000000E+00;  2.7739418E+01;  4.0000000E+04;  0.0000000E+00;  4.0066102E+04; -1.7241292E-02;  0.0000000E+00;  6.8581861E-04;  4.2139160E+04;
  1.7108184E-01;  9.9999998E-03; -2.5986999E-01;3487; -2.8964414E-03;  0.0000000E+00; -8.2594939E-05;  9.9878461E+02;  1.0000000E-01; -1.0069345E+03;3;  1.1039514E+01;  0.0000000E+00; -3.4808193E+01;0; -1.6178939E-02;  3.9844137E+04;  0.0000000E+00;  1.9440142E+01;  4.0000000E+04;  0.0000000E+00;  4.0062051E+04; -1.6627451E-02;  0.0000000E+00;  4.4851113E-04;  3.0059588E+04;
  1.7118017E-01;  9.9999998E-03; -2.4994138E-01;3488; -3.0016250E-03;  0.0000000E+00;  2.4360264E-05;  9.9949487E+02;  1.0000000E-01; -4.1850668E+02;3;  4.4724455E+00;  0.0000000E+00; -2.8176958E+01;0; -1.5585597E-02;  3.9911391E+04;  0.0000000E+00;  1.3272552E+01;  4.0000000E+04;  0.0000000E+00;  4.0051480E+04; -1.5876597E-02;  0.0000000E+00;  2.9100032E-04;  2.0850178E+04;
  1.7120476E-01;  9.9999998E-03; -2.3998779E-01;3489; -3.0522838E-03;  0.0000000E+00;  9.6769785E-05;  1.0001236E+03;  1.0000000E-01;  1.0241685E+02;3;  1.0671309E+00;  0.0000000E+00; -2.1244671E+01;0; -1.5017266E-02;  3.9972750E+04;  0.0000000E+00;  8.9074383E+00;  4.0000000E+04;  0.0000000E+00;  4.0041520E+04; -1.5180472E-02;  0.0000000E+00;  1.6320564E-04;  1.4197445E+04;
  1.7120370E-01;  9.9999998E-03; -2.3000877E-01;3490; -3.0837238E-03;  0.0000000E+00;  1.4682396E-04;  1.0005764E+03;  1.0000000E-01;  4.7751736E+02;3; -3.6175710E-01;  0.0000000E+00; -1.4863011E+01;0; -1.4562775E-02;  4.0020785E+04;  0.0000000E+00;  5.7521567E+00;  4.0000000E+04;  0.0000000E+00;  4.0029801E+04; -1.4593885E-02;  0.0000000E+00;  3.1110045E-05;  9.2730400E+03;
  1.7122661E-01;  9.9999998E-03; -2.2001001E-01;3491; -3.1140621E-03;  0.0000000E+00;  1.7152463E-04;  1.0008503E+03;  1.0000000E-01;  7.0447388E+02;3; -7.0530725E-01;  0.0000000E+00; -9.6665525E+00;0; -1.4236937E-02;  4.0053039E+04;  0.0000000E+00;  3.4794800E+00;  4.0000000E+04;  0.0000000E+00;  4.0019379E+04; -1.4127130E-02;  0.0000000E+00; -1.0980782E-04;  5.6108862E+03;
  1.7130664E-01;  9.9999998E-03; -2.0999186E-01;3492; -3.1502023E-03;  0.0000000E+00;  1.6921863E-04;  1.0009697E+03;  1.0000000E-01;  8.0333533E+02;3; -5.5294621E-01;  0.0000000E+00; -5.8755565E+00;0; -1.4034272E-02;  4.0071777E+04;  0.0000000E+00;  1.9121447E+00;  4.0000000E+04;  0.0000000E+00;  4.0009676E+04; -1.3779282E-02;  0.0000000E+00; -2.5499059E-04;  3.0064182E+03;
  1.7144118E-01;  9.9999998E-03; -1.9995652E-01;3493; -3.1927219E-03;  0.0000000E+00;  1.4582259E-04;  1.0009818E+03;  1.0000000E-01;  8.1340912E+02;3; -2.6500863E-01;  0.0000000E+00; -3.3350582E+00;0; -1.3941391E-02;  4.0078859E+04;  0.0000000E+00;  9.0511811E-01;  4.0000000E+04;  0.0000000E+00;  4.0002090E+04; -1.3549708E-02;  0.0000000E+00; -3.9168331E-04;  1.3335757E+03;
  1.7156342E-01;  9.9999998E-03; -1.8992817E-01;3494; -3.2396484E-03;  0.0000000E+00;  1.1126830E-04;  1.0009193E+03;  1.0000000E-01;  7.6155872E+02;3; -1.8948603E-02;  0.0000000E+00; -1.7374227E+00;0; -1.3938854E-02;  4.0077539E+04;  0.0000000E+00;  3.1639019E-01;  4.0000000E+04;  0.0000000E+00;  3.9998918E+04; -1.3438172E-02;  0.0000000E+00; -5.0068222E-04;  5.2978607E+02;
  1.7163593E-01;  9.9999998E-03; -1.7990825E-01;3495; -3.2899519E-03;  0.0000000E+00;  7.3206647E-05;  1.0008215E+03;  1.0000000E-01;  6.8067212E+02;3;  1.3144249E-01;  0.0000000E+00; -7.9545641E-01;0; -1.4004960E-02;  4.0069375E+04;  0.0000000E+00;  1.3394807E-02;  4.0000000E+04;  0.0000000E+00;  3.9997820E+04; -1.3440248E-02;  0.0000000E+00; -5.6471169E-04;  3.6959033E+02;
  1.7165627E-01;  9.9999998E-03; -1.6989046E-01;3496; -3.3434725E-03;  0.0000000E+00;  3.7039219E-05;  1.0007056E+03;  1.0000000E-01;  5.8457605E+02;3;  1.9961025E-01;  0.0000000E+00; -2.8726190E-01;0; -1.4119770E-02;  4.0057504E+04;  0.0000000E+00; -1.1550421E-01;  4.0000000E+04;  0.0000000E+00;  3.9999559E+04; -1.3545902E-02;  0.0000000E+00; -5.7386776E-04;  2.1153738E+02;
  1.7165352E-01;  9.9999998E-03; -1.5989745E-01;3497; -3.4002054E-03;  0.0000000E+00;  6.1282244E-06;  1.0005944E+03;  1.0000000E-01;  4.9243051E+02;3;  2.2065009E-01;  0.0000000E+00; -5.9580430E-02;0; -1.4266397E-02;  4.0044250E+04;  0.0000000E+00; -1.5297560E-01;  4.0000000E+04;  0.0000000E+00;  4.0004188E+04; -1.3738770E-02;  0.0000000E+00; -5.2762683E-04;  3.6829767E+02;
  1.7164668E-01;  9.9999998E-03; -1.4992380E-01;3498; -3.4594168E-03;  0.0000000E+00; -1.8131272E-05;  1.0004995E+03;  1.0000000E-01;  4.1381546E+02;3;  2.2371046E-01;  0.0000000E+00;  9.8901615E-03;0; -1.4432307E-02;  4.0031910E+04;  0.0000000E+00; -1.4929253E-01;  4.0000000E+04;  0.0000000E+00;  4.0006703E+04; -1.3998087E-02;  0.0000000E+00; -4.3422091E-04;  8.1462750E+02;
  1.7163569E-01;  9.9999998E-03; -1.3995618E-01;3499; -3.5191162E-03;  0.0000000E+00; -3.4456636E-05;  1.0004171E+03;  1.0000000E-01;  3.4547171E+02;3;  2.2313833E-01;  0.0000000E+00;  1.7767267E-02;0; -1.4608652E-02;  4.0021656E+04;  0.0000000E+00; -1.2841485E-01;  4.0000000E+04;  0.0000000E+00;  4.0009469E+04; -1.4300661E-02;  0.0000000E+00; -3.0799158E-04;  1.2154944E+03;
  1.7161556E-01;  9.9999998E-03; -1.2998444E-01;3500; -3.5763513E-03;  0.0000000E+00; -4.1466377E-05;  1.0003541E+03;  1.0000000E-01;  2.9342380E+02;3;  2.2233775E-01;  0.0000000E+00;  1.8127076E-02;0; -1.4788380E-02;  4.0014344E+04;  0.0000000E+00; -1.0098331E-01;  4.0000000E+04;  0.0000000E+00;  4.0012090E+04; -1.4622164E-02;  0.0000000E+00; -1.6621589E-04;  1.4635439E+03;
  1.7158093E-01;  9.9999998E-03; -1.2000403E-01;3501; -3.6277196E-03;  0.0000000E+00; -3.8445953E-05;  1.0003032E+03;  1.0000000E-01;  2.5115340E+02;3;  2.2154012E-01;  0.0000000E+00;  1.8257398E-02;0; -1.4964459E-02;  4.0009230E+04;  0.0000000E+00; -7.3774651E-02;  4.0000000E+04;  0.0000000E+00;  4.0012035E+04; -1.4938272E-02;  0.0000000E+00; -2.6188012E-05;  1.5195219E+03;
  1.7153080E-01;  9.9999998E-03; -1.1001389E-01;3502; -3.6702035E-03;  0.0000000E+00; -2.8052147E-05;  1.0002689E+03;  1.0000000E-01;  2.2270975E+02;3;  2.2080065E-01;  0.0000000E+00;  1.7842438E-02;0; -1.5130238E-02;  4.0006707E+04;  0.0000000E+00; -5.1364213E-02;  4.0000000E+04;  0.0000000E+00;  4.0011660E+04; -1.5227331E-02;  0.0000000E+00;  9.7093143E-05;  1.4025507E+03;
  1.8106560E-01;  9.9999998E-03; -2.7003342E-01;3547; -2.7920185E-03;  0.0000000E+00; -2.0151013E-04;  9.9748071E+02;  1.0000000E-01; -2.0872002E+03;3;  1.9612576E+01;  0.0000000E+00; -2.0150318E+01;0; -1.7478770E-02;  3.9763406E+04;  0.0000000E+00;  2.5607500E+01;  4.0000000E+04;  0.0000000E+00;  4.0036547E+04; -1.8288285E-02;  0.0000000E+00;  8.0951536E-04;  3.9068387E+04;
  1.8108706E-01;  9.9999998E-03; -2.6007119E-01;3548; -3.1093657E-03;  0.0000000E+00; -7.6660588E-05;  9.9853961E+02;  1.0000000E-01; -1.2098917E+03;3;  9.1990576E+00;  0.0000000E+00; -2.3597084E+01;0; -1.6934158E-02;  3.9849699E+04;  0.0000000E+00;  1.8514635E+01;  4.0000000E+04;  0.0000000E+00;  4.0036465E+04; -1.7437464E-02;  0.0000000E+00;  5.0330604E-04;  2.8419660E+04;
  1.8110968E-01;  9.9999998E-03; -2.5012022E-01;3549; -3.2472794E-03;  0.0000000E+00;  2.5882748E-05;  9.9939001E+02;  1.0000000E-01; -5.0536841E+02;3;  2.9291203E+00;  0.0000000E+00; -2.1150845E+01;0; -1.6125565E-02;  3.9924586E+04;  0.0000000E+00;  1.2883906E+01;  4.0000000E+04;  0.0000000E+00;  4.0029910E+04; -1.6399218E-02;  0.0000000E+00;  2.7365255E-04;  1.9804189E+04;
  1.8110028E-01;  9.9999998E-03; -2.4014449E-01;3550; -3.2944365E-03;  0.0000000E+00;  8.4076542E-05;  1.0000841E+03;  1.0000000E-01;  6.9726425E+01;3; -9.0380281E-02;  0.0000000E+00; -1.7130558E+01;0; -1.5341668E-02;  3.9986848E+04;  0.0000000E+00;  8.8000059E+00;  4.0000000E+04;  0.0000000E+00;  4.0023691E+04; -1.5457363E-02;  0.0000000E+00;  1.1569493E-04;  1.3507949E+04;
  1.8107858E-01;  9.9999998E-03; -2.3013845E-01;3551; -3.3071665E-03;  0.0000000E+00;  1.2364749E-04;  1.0005861E+03;  1.0000000E-01;  4.8551712E+02;3; -1.1698252E+00;  0.0000000E+00; -1.2686855E+01;0; -1.4730204E-02;  4.0033594E+04;  0.0000000E+00;  5.7566590E+00;  4.0000000E+04;  0.0000000E+00;  4.0017855E+04; -1.4694760E-02;  0.0000000E+00; -3.5443940E-05;  8.8074512E+03;
  1.8109740E-01;  9.9999998E-03; -2.2011267E-01;3552; -3.3143018E-03;  0.0000000E+00;  1.4472974E-04;  1.0008842E+03;  1.0000000E-01;  7.3252252E+02;3; -1.2391529E+00;  0.0000000E+00; -8.5818958E+00;0; -1.4299049E-02;  4.0064414E+04;  0.0000000E+00;  3.4645631E+00;  4.0000000E+04;  0.0000000E+00;  4.0010164E+04; -1.4114353E-02;  0.0000000E+00; -1.8469608E-04;  5.2424849E+03;
  1.8119419E-01;  9.9999998E-03; -2.1006364E-01;3553; -3.3299620E-03;  0.0000000E+00;  1.4307885E-04;  1.0010262E+03;  1.0000000E-01;  8.5014880E+02;3; -8.7934983E-01;  0.0000000E+00; -5.3700256E+00;0; -1.4025612E-02;  4.0081711E+04;  0.0000000E+00;  1.8243390E+00;  4.0000000E+04;  0.0000000E+00;  4.0003180E+04; -1.3698983E-02;  0.0000000E+00; -3.2662903E-04;  2.6924346E+03;
  1.8132947E-01;  9.9999998E-03; -2.0001109E-01;3554; -3.3575855E-03;  0.0000000E+00;  1.2318295E-04;  1.0010549E+03;  1.0000000E-01;  8.7395056E+02;3; -4.4440630E-01;  0.0000000E+00; -3.1012197E+00;0; -1.3885603E-02;  4.0088957E+04;  0.0000000E+00;  7.4974579E-01;  4.0000000E+04;  0.0000000E+00;  3.9997902E+04; -1.3433939E-02;  0.0000000E+00; -4.5166482E-04;  1.1508322E+03;
  1.8144590E-01;  9.9999998E-03; -1.8997414E-01;3555; -3.3967509E-03;  0.0000000E+00;  9.3191593E-05;  1.0010172E+03;  1.0000000E-01;  8.4264282E+02;3; -1.0187951E-01;  0.0000000E+00; -1.6333566E+00;0; -1.3852431E-02;  4.0088098E+04;  0.0000000E+00;  1.2433928E-01;  4.0000000E+04;  0.0000000E+00;  3.9994410E+04; -1.3307164E-02;  0.0000000E+00; -5.4526614E-04;  7.8274493E+02;
  1.8153347E-01;  9.9999998E-03; -1.7995229E-01;3556; -3.4464383E-03;  0.0000000E+00;  6.0213439E-05;  1.0009359E+03;  1.0000000E-01;  7.7538550E+02;3;  1.0472371E-01;  0.0000000E+00; -7.5044882E-01;0; -1.3898720E-02;  4.0080969E+04;  0.0000000E+00; -1.7742519E-01;  4.0000000E+04;  0.0000000E+00;  3.9994160E+04; -1.3304558E-02;  0.0000000E+00; -5.9416273E-04;  8.5796777E+02;
  1.8157555E-01;  9.9999998E-03; -1.6994959E-01;3557; -3.5051622E-03;  0.0000000E+00;  2.8856846E-05;  1.0008336E+03;  1.0000000E-01;  6.9054840E+02;3;  2.0040272E-01;  0.0000000E+00; -2.6995420E-01;0; -1.4000515E-02;  4.0070426E+04;  0.0000000E+00; -2.7440429E-01;  4.0000000E+04;  0.0000000E+00;  3.9996219E+04; -1.3409397E-02;  0.0000000E+00; -5.9111742E-04;  7.1005847E+02;
  1.8158746E-01;  9.9999998E-03; -1.5996528E-01;3558; -3.5714551E-03;  0.0000000E+00;  1.8894013E-06;  1.0007334E+03;  1.0000000E-01;  6.0758777E+02;3;  2.3181638E-01;  0.0000000E+00; -5.3077012E-02;0; -1.4137913E-02;  4.0058031E+04;  0.0000000E+00; -2.6481372E-01;  4.0000000E+04;  0.0000000E+00;  3.9999000E+04; -1.3600690E-02;  0.0000000E+00; -5.3722213E-04;  4.2407678E+02;
  1.8158348E-01;  9.9999998E-03; -1.4999321E-01;3559; -3.6429544E-03;  0.0000000E+00; -1.9354122E-05;  1.0006381E+03;  1.0000000E-01;  5.2867639E+02;3;  2.3724648E-01;  0.0000000E+00;  1.3751172E-02;0; -1.4296081E-02;  4.0046363E+04;  0.0000000E+00; -2.1420823E-01;  4.0000000E+04;  0.0000000E+00;  4.0001902E+04; -1.3854914E-02;  0.0000000E+00; -4.4116704E-04;  3.8647931E+02;
  1.8156424E-01;  9.9999998E-03; -1.4002265E-01;3560; -3.7160136E-03;  0.0000000E+00; -3.3575423E-05;  1.0005552E+03;  1.0000000E-01;  4.6003638E+02;3;  2.3670253E-01;  0.0000000E+00;  2.1712810E-02;0; -1.4464848E-02;  4.0036227E+04;  0.0000000E+00; -1.5627012E-01;  4.0000000E+04;  0.0000000E+00;  4.0004480E+04; -1.4147837E-02;  0.0000000E+00; -3.1701144E-04;  6.4317249E+02;
  1.8153067E-01;  9.9999998E-03; -1.3004611E-01;3561; -3.7866340E-03;  0.0000000E+00; -3.8450227E-05;  1.0004860E+03;  1.0000000E-01;  4.0265527E+02;3;  2.3547699E-01;  0.0000000E+00;  2.2814402E-02;0; -1.4636345E-02;  4.0028531E+04;  0.0000000E+00; -1.0483991E-01;  4.0000000E+04;  0.0000000E+00;  4.0006500E+04; -1.4455308E-02;  0.0000000E+00; -1.8103659E-04;  8.3702216E+02;
  1.8148692E-01;  9.9999998E-03; -1.2006050E-01;3562; -3.8501900E-03;  0.0000000E+00; -3.2828695E-05;  1.0004299E+03;  1.0000000E-01;  3.5623685E+02;3;  2.3455599E-01;  0.0000000E+00;  2.3286618E-02;0; -1.4803435E-02;  4.0023059E+04;  0.0000000E+00; -6.5576777E-02;  4.0000000E+04;  0.0000000E+00;  4.0006875E+04; -1.4754462E-02;  0.0000000E+00; -4.8972444E-05;  8.7609534E+02;
  1.8143664E-01;  9.9999998E-03; -1.1006718E-01;3563; -3.9022260E-03;  0.0000000E+00; -2.0160393E-05;  1.0003806E+03;  1.0000000E-01;  3.1534912E+02;3;  2.3408487E-01;  0.0000000E+00;  2.2326708E-02;0; -1.4959469E-02;  4.0019340E+04;  0.0000000E+00; -4.0150493E-02;  4.0000000E+04;  0.0000000E+00;  4.0006281E+04; -1.5025384E-02;  0.0000000E+00;  6.5914406E-05;  7.6837274E+02;
  1.9110581E-01;  9.9999998E-03; -2.7015373E-01;3608; -2.8193735E-03;  0.0000000E+00; -3.9741837E-05;  9.9712537E+02;  1.0000000E-01; -2.3815623E+03;3;  1.4678044E+01;  0.0000000E+00; -3.7163761E+00;0; -1.8256616E-02;  3.9763855E+04;  0.0000000E+00;  2.2491562E+01;  4.0000000E+04;  0.0000000E+00;  4.0007000E+04; -1.8727701E-02;  0.0000000E+00;  4.7108537E-04;  3.4734840E+04;
  1.9100836E-01;  9.9999998E-03; -2.6019126E-01;3609; -3.2089353E-03;  0.0000000E+00;  4.5457717E-05;  9.9839478E+02;  1.0000000E-01; -1.3298883E+03;3;  5.7974839E+00;  0.0000000E+00; -1.1776065E+01;0; -1.7536588E-02;  3.9866273E+04;  0.0000000E+00;  1.7501957E+01;  4.0000000E+04;  0.0000000E+00;  4.0007926E+04; -1.7767988E-02;  0.0000000E+00;  2.3139922E-04;  2.6852490E+04;
  1.9097424E-01;  9.9999998E-03; -2.5024062E-01;3610; -3.4036154E-03;  0.0000000E+00;  1.1911563E-04;  9.9926782E+02;  1.0000000E-01; -6.0660010E+02;3;  5.3643519E-01;  0.0000000E+00; -1.3010087E+01;0; -1.6520772E-02;  3.9940805E+04;  0.0000000E+00;  1.2571682E+01;  4.0000000E+04;  0.0000000E+00;  4.0004129E+04; -1.6568620E-02;  0.0000000E+00;  4.7848240E-05;  1.9114895E+04;
  1.9094740E-01;  9.9999998E-03; -2.4026997E-01;3611; -3.4632056E-03;  0.0000000E+00;  1.2425533E-04;  9.9993713E+02;  1.0000000E-01; -5.2097294E+01;3; -1.6724440E+00;  0.0000000E+00; -1.1892365E+01;0; -1.5475859E-02;  3.9997840E+04;  0.0000000E+00;  8.7456341E+00;  4.0000000E+04;  0.0000000E+00;  4.0001441E+04; -1.5454194E-02;  0.0000000E+00; -2.1665444E-05;  1.3150417E+04;
  1.9092998E-01;  9.9999998E-03; -2.3025684E-01;3612; -3.4711785E-03;  0.0000000E+00;  1.1316372E-04;  1.0004445E+03;  1.0000000E-01;  3.6818710E+02;3; -2.1219411E+00;  0.0000000E+00; -9.7630262E+00;0; -1.4679118E-02;  4.0039078E+04;  0.0000000E+00;  5.7816367E+00;  4.0000000E+04;  0.0000000E+00;  4.0000125E+04; -1.4561647E-02;  0.0000000E+00; -1.1747143E-04;  8.6032715E+03;
  1.9096893E-01;  9.9999998E-03; -2.2020668E-01;3613; -3.4664818E-03;  0.0000000E+00;  1.0919601E-04;  1.0007552E+03;  1.0000000E-01;  6.2566132E+02;3; -1.7702365E+00;  0.0000000E+00; -7.1216640E+00;0; -1.4145130E-02;  4.0065129E+04;  0.0000000E+00;  3.4575071E+00;  4.0000000E+04;  0.0000000E+00;  3.9999133E+04; -1.3896175E-02;  0.0000000E+00; -2.4895533E-04;  5.1089258E+03;
  1.9108513E-01;  9.9999998E-03; -2.1012838E-01;3614; -3.4682846E-03;  0.0000000E+00;  1.0169182E-04;  1.0009189E+03;  1.0000000E-01;  7.6126239E+02;3; -1.1623576E+00;  0.0000000E+00; -4.6720023E+00;0; -1.3812118E-02;  4.0079672E+04;  0.0000000E+00;  1.7466314E+00;  4.0000000E+04;  0.0000000E+00;  3.9996406E+04; -1.3431926E-02;  0.0000000E+00; -3.8019233E-04;  2.6241445E+03;
  1.9120708E-01;  9.9999998E-03; -2.0006579E-01;3615; -3.4848528E-03;  0.0000000E+00;  8.5591069E-05;  1.0009634E+03;  1.0000000E-01;  7.9819965E+02;3; -5.8644760E-01;  0.0000000E+00; -2.7580454E+00;0; -1.3635018E-02;  4.0085719E+04;  0.0000000E+00;  6.1361700E-01;  4.0000000E+04;  0.0000000E+00;  3.9992918E+04; -1.3144924E-02;  0.0000000E+00; -4.9009331E-04;  1.3250371E+03;
  1.9131701E-01;  9.9999998E-03; -1.9002049E-01;3616; -3.5186121E-03;  0.0000000E+00;  6.1936189E-05;  1.0009399E+03;  1.0000000E-01;  7.7864465E+02;3; -1.6217008E-01;  0.0000000E+00; -1.4658151E+00;0; -1.3575885E-02;  4.0084801E+04;  0.0000000E+00; -4.0212043E-02;  4.0000000E+04;  0.0000000E+00;  3.9990898E+04; -1.3010405E-02;  0.0000000E+00; -5.6547933E-04;  1.2249802E+03;
  1.9140227E-01;  9.9999998E-03; -1.8000044E-01;3617; -3.5684712E-03;  0.0000000E+00;  3.5758796E-05;  1.0008754E+03;  1.0000000E-01;  7.2531281E+02;3;  8.8328563E-02;  0.0000000E+00; -6.7200524E-01;0; -1.3602714E-02;  4.0078738E+04;  0.0000000E+00; -3.3489296E-01;  4.0000000E+04;  0.0000000E+00;  3.9991070E+04; -1.3005766E-02;  0.0000000E+00; -5.9694814E-04;  1.3190942E+03;
  1.9145240E-01;  9.9999998E-03; -1.7000630E-01;3618; -3.6323508E-03;  0.0000000E+00;  1.0699671E-05;  1.0007899E+03;  1.0000000E-01;  6.5440125E+02;3;  2.0463844E-01;  0.0000000E+00; -2.3714241E-01;0; -1.3688521E-02;  4.0068988E+04;  0.0000000E+00; -3.9760703E-01;  4.0000000E+04;  0.0000000E+00;  3.9992262E+04; -1.3108059E-02;  0.0000000E+00; -5.8046269E-04;  1.1607356E+03;
  1.9147430E-01;  9.9999998E-03; -1.6002636E-01;3619; -3.7079249E-03;  0.0000000E+00; -1.0770347E-05;  1.0007025E+03;  1.0000000E-01;  5.8200824E+02;3;  2.4331146E-01;  0.0000000E+00; -4.0341835E-02;0; -1.3811697E-02;  4.0058254E+04;  0.0000000E+00; -3.4222618E-01;  4.0000000E+04;  0.0000000E+00;  3.9995445E+04; -1.3292832E-02;  0.0000000E+00; -5.1886489E-04;  8.2731549E+02;
  1.9147380E-01;  9.9999998E-03; -1.5005079E-01;3620; -3.7923604E-03;  0.0000000E+00; -2.5379517E-05;  1.0006170E+03;  1.0000000E-01;  5.1119540E+02;3;  2.4987799E-01;  0.0000000E+00;  2.0806868E-02;0; -1.3956384E-02;  4.0048168E+04;  0.0000000E+00; -2.4893248E-01;  4.0000000E+04;  0.0000000E+00;  3.9998086E+04; -1.3535080E-02;  0.0000000E+00; -4.2130300E-04;  4.6801044E+02;
  1.9145606E-01;  9.9999998E-03; -1.4007255E-01;3621; -3.8800356E-03;  0.0000000E+00; -3.2193420E-05;  1.0005360E+03;  1.0000000E-01;  4.4403683E+02;3;  2.4914575E-01;  0.0000000E+00;  2.8602805E-02;0; -1.4111400E-02;  4.0038852E+04;  0.0000000E+00; -1.6029295E-01;  4.0000000E+04;  0.0000000E+00;  3.9999199E+04; -1.3810068E-02;  0.0000000E+00; -3.0133134E-04;  2.2770615E+02;
  1.9142540E-01;  9.9999998E-03; -1.3008739E-01;3622; -3.9640586E-03;  0.0000000E+00; -3.1282820E-05;  1.0004725E+03;  1.0000000E-01;  3.9139633E+02;3;  2.4823084E-01;  0.0000000E+00;  2.9038509E-02;0; -1.4268571E-02;  4.0031625E+04;  0.0000000E+00; -9.2015907E-02;  4.0000000E+04;  0.0000000E+00;  4.0001383E+04; -1.4094654E-02;  0.0000000E+00; -1.7391671E-04;  2.0353697E+02;
  1.9138989E-01;  9.9999998E-03; -1.2009460E-01;3623; -4.0380075E-03;  0.0000000E+00; -2.2892944E-05;  1.0004167E+03;  1.0000000E-01;  3.4527420E+02;3;  2.4823488E-01;  0.0000000E+00;  2.8246395E-02;0; -1.4420848E-02;  4.0026973E+04;  0.0000000E+00; -4.7193222E-02;  4.0000000E+04;  0.0000000E+00;  4.0001707E+04; -1.4367959E-02;  0.0000000E+00; -5.2889427E-05;  1.9579375E+02;
  1.9136004E-01;  9.9999998E-03; -1.1009630E-01;3624; -4.0970491E-03;  0.0000000E+00; -1.0843008E-05;  1.0003746E+03;  1.0000000E-01;  3.1031223E+02;3;  2.4818334E-01;  0.0000000E+00;  2.6413584E-02;0; -1.4561698E-02;  4.0023609E+04;  0.0000000E+00; -2.3664724E-02;  4.0000000E+04;  0.0000000E+00;  4.0000832E+04; -1.4612345E-02;  0.0000000E+00;  5.0647064E-05;  9.4373756E+01;
  2.0108466E-01;  9.9999998E-03; -2.7018109E-01;3669; -2.7806340E-03;  0.0000000E+00;  5.9511331E-05;  9.9707965E+02;  1.0000000E-01; -2.4194377E+03;3;  9.2866039E+00;  0.0000000E+00;  5.7900090E+00;0; -1.8468952E-02;  3.9777848E+04;  0.0000000E+00;  2.0203207E+01;  4.0000000E+04;  0.0000000E+00;  3.9989387E+04; -1.8564140E-02;  0.0000000E+00;  9.5188923E-05;  3.1569961E+04;
  2.0089926E-01;  9.9999998E-03; -2.6021504E-01;3670; -3.2179467E-03;  0.0000000E+00;  1.2946241E-04;  9.9841675E+02;  1.0000000E-01; -1.3117159E+03;3;  2.4473739E+00;  0.0000000E+00; -4.2906322E+00;0; -1.7702987E-02;  3.9886578E+04;  0.0000000E+00;  1.7406610E+01;  4.0000000E+04;  0.0000000E+00;  3.9989781E+04; -1.7600909E-02;  0.0000000E+00; -1.0207813E-04;  2.6801750E+04;
  2.0082796E-01;  9.9999998E-03; -2.5026456E-01;3671; -3.4752914E-03;  0.0000000E+00;  2.1126153E-04;  9.9919623E+02;  1.0000000E-01; -6.6590710E+02;3; -1.6901667E+00;  0.0000000E+00; -7.3277850E+00;0; -1.6660130E-02;  3.9954590E+04;  0.0000000E+00;  1.2874283E+01;  4.0000000E+04;  0.0000000E+00;  3.9986137E+04; -1.6370956E-02;  0.0000000E+00; -2.8917327E-04;  1.9651898E+04;
  2.0079501E-01;  9.9999998E-03; -2.4030901E-01;3672; -3.5607596E-03;  0.0000000E+00;  1.9646127E-04;  9.9974866E+02;  1.0000000E-01; -2.0824103E+02;3; -3.1354578E+00;  0.0000000E+00; -7.6712418E+00;0; -1.5439448E-02;  4.0001832E+04;  0.0000000E+00;  8.9929209E+00;  4.0000000E+04;  0.0000000E+00;  3.9983191E+04; -1.5180643E-02;  0.0000000E+00; -2.5880540E-04;  1.3679339E+04;
  2.0079678E-01;  9.9999998E-03; -2.3030756E-01;3673; -3.5741883E-03;  0.0000000E+00;  1.3435527E-04;  1.0001840E+03;  1.0000000E-01;  1.5248952E+02;3; -2.9579084E+00;  0.0000000E+00; -7.0878534E+00;0; -1.4458865E-02;  4.0033973E+04;  0.0000000E+00;  5.9080896E+00;  4.0000000E+04;  0.0000000E+00;  3.9985461E+04; -1.4220963E-02;  0.0000000E+00; -2.3790200E-04;  8.9860273E+03;
  2.0086296E-01;  9.9999998E-03; -2.2025008E-01;3674; -3.5675310E-03;  0.0000000E+00;  9.0323272E-05;  1.0004814E+03;  1.0000000E-01;  3.9880353E+02;3; -2.1807113E+00;  0.0000000E+00; -5.6758599E+00;0; -1.3821222E-02;  4.0053125E+04;  0.0000000E+00;  3.4805193E+00;  4.0000000E+04;  0.0000000E+00;  3.9988527E+04; -1.3511525E-02;  0.0000000E+00; -3.0969671E-04;  5.3441797E+03;
  2.0097984E-01;  9.9999998E-03; -2.1016599E-01;3675; -3.5636374E-03;  0.0000000E+00;  6.6747809E-05;  1.0006459E+03;  1.0000000E-01;  5.3509595E+02;3; -1.3487993E+00;  0.0000000E+00; -3.9084926E+00;0; -1.3440092E-02;  4.0063820E+04;  0.0000000E+00;  1.6982791E+00;  4.0000000E+04;  0.0000000E+00;  3.9989816E+04; -1.3026176E-02;  0.0000000E+00; -4.1391639E-04;  2.8321008E+03;
  2.0108609E-01;  9.9999998E-03; -2.0010638E-01;3676; -3.5752009E-03;  0.0000000E+00;  4.8652932E-05;  1.0006951E+03;  1.0000000E-01;  5.7588495E+02;3; -6.6431087E-01;  0.0000000E+00; -2.3541541E+00;0; -1.3236817E-02;  4.0068266E+04;  0.0000000E+00;  5.2164203E-01;  4.0000000E+04;  0.0000000E+00;  3.9988520E+04; -1.2733852E-02;  0.0000000E+00; -5.0296466E-04;  1.6753124E+03;
  2.0119344E-01;  9.9999998E-03; -1.9006196E-01;3677; -3.6070913E-03;  0.0000000E+00;  2.7795148E-05;  1.0006901E+03;  1.0000000E-01;  5.7173694E+02;3; -1.8708195E-01;  0.0000000E+00; -1.2584935E+00;0; -1.3157534E-02;  4.0066699E+04;  0.0000000E+00; -1.4507641E-01;  4.0000000E+04;  0.0000000E+00;  3.9988406E+04; -1.2599817E-02;  0.0000000E+00; -5.5771676E-04;  1.5976790E+03;
  2.0127642E-01;  9.9999998E-03; -1.8005128E-01;3678; -3.6585652E-03;  0.0000000E+00;  5.7490620E-06;  1.0006379E+03;  1.0000000E-01;  5.2847888E+02;3;  8.7758914E-02;  0.0000000E+00; -5.7087475E-01;0; -1.3166463E-02;  4.0061410E+04;  0.0000000E+00; -4.2311630E-01;  4.0000000E+04;  0.0000000E+00;  3.9988324E+04; -1.2595571E-02;  0.0000000E+00; -5.7089218E-04;  1.6534492E+03;
  2.0133194E-01;  9.9999998E-03; -1.7006305E-01;3679; -3.7283869E-03;  0.0000000E+00; -1.3547276E-05;  1.0005681E+03;  1.0000000E-01;  4.7060397E+02;3;  2.1397913E-01;  0.0000000E+00; -1.9272721E-01;0; -1.3234580E-02;  4.0053699E+04;  0.0000000E+00; -4.5079082E-01;  4.0000000E+04;  0.0000000E+00;  3.9989891E+04; -1.2693417E-02;  0.0000000E+00; -5.4116303E-04;  1.4856857E+03;
  2.0136233E-01;  9.9999998E-03; -1.6008188E-01;3680; -3.8141769E-03;  0.0000000E+00; -2.6749012E-05;  1.0004954E+03;  1.0000000E-01;  4.1045752E+02;3;  2.5556800E-01;  0.0000000E+00; -2.2880986E-02;0; -1.3339601E-02;  4.0044934E+04;  0.0000000E+00; -3.5632944E-01;  4.0000000E+04;  0.0000000E+00;  3.9992234E+04; -1.2866719E-02;  0.0000000E+00; -4.7288308E-04;  1.1770747E+03;
  2.0136838E-01;  9.9999998E-03; -1.5009907E-01;3681; -3.9110249E-03;  0.0000000E+00; -3.2513657E-05;  1.0004285E+03;  1.0000000E-01;  3.5505170E+02;3;  2.6296756E-01;  0.0000000E+00;  2.8699096E-02;0; -1.3465635E-02;  4.0036371E+04;  0.0000000E+00; -2.3160695E-01;  4.0000000E+04;  0.0000000E+00;  3.9993508E+04; -1.3089942E-02;  0.0000000E+00; -3.7569265E-04;  8.5624103E+02;
  2.0135815E-01;  9.9999998E-03; -1.4011021E-01;3682; -4.0108776E-03;  0.0000000E+00; -3.1840558E-05;  1.0003681E+03;  1.0000000E-01;  3.0497903E+02;3;  2.6258358E-01;  0.0000000E+00;  3.4872033E-02;0; -1.3601243E-02;  4.0029277E+04;  0.0000000E+00; -1.2490789E-01;  4.0000000E+04;  0.0000000E+00;  3.9994641E+04; -1.3338804E-02;  0.0000000E+00; -2.6243972E-04;  6.0892603E+02;
  2.0134306E-01;  9.9999998E-03; -1.3011409E-01;3683; -4.1052639E-03;  0.0000000E+00; -2.6039052E-05;  1.0003158E+03;  1.0000000E-01;  2.6162222E+02;3;  2.6247686E-01;  0.0000000E+00;  3.4304056E-02;0; -1.3738267E-02;  4.0024113E+04;  0.0000000E+00; -5.1231463E-02;  4.0000000E+04;  0.0000000E+00;  3.9996516E+04; -1.3591828E-02;  0.0000000E+00; -1.4643886E-04;  4.7783115E+02;
  2.0133607E-01;  9.9999998E-03; -1.2011232E-01;3684; -4.1868160E-03;  0.0000000E+00; -1.6496910E-05;  1.0002823E+03;  1.0000000E-01;  2.3386993E+02;3;  2.6270199E-01;  0.0000000E+00;  3.3052184E-02;0; -1.3869939E-02;  4.0020766E+04;  0.0000000E+00; -9.6229743E-03;  4.0000000E+04;  0.0000000E+00;  3.9996734E+04; -1.3830629E-02;  0.0000000E+00; -3.9310151E-05;  4.6811679E+02;
  2.0134333E-01;  9.9999998E-03; -1.1010692E-01;3685; -4.2509073E-03;  0.0000000E+00; -5.6208178E-06;  1.0002589E+03;  1.0000000E-01;  2.1451245E+02;3;  2.6329160E-01;  0.0000000E+00;  3.0037967E-02;0; -1.3990650E-02;  4.0019535E+04;  0.0000000E+00;  6.4729308E-03;  4.0000000E+04;  0.0000000E+00;  3.9996020E+04; -1.4040971E-02;  0.0000000E+00;  5.0320799E-05;  5.5427167E+02;
  2.1110749E-01;  9.9999998E-03; -2.7015701E-01;3730; -2.7896615E-03;  0.0000000E+00;  9.0047222E-05;  9.9714337E+02;  1.0000000E-01; -2.3666492E+03;3;  4.2508583E+00;  0.0000000E+00;  8.2897062E+00;0; -1.8256580E-02;  3.9788230E+04;  0.0000000E+00;  1.7454472E+01;  4.0000000E+04;  0.0000000E+00;  3.9985215E+04; -1.8097008E-02;  0.0000000E+00; -1.5957325E-04;  2.7493998E+04;
  2.1081567E-01;  9.9999998E-03; -2.6018691E-01;3731; -3.1758922E-03;  0.0000000E+00;  1.2963975E-04;  9.9851392E+02;  1.0000000E-01; -1.2311750E+03;3; -3.0495676E-01;  0.0000000E+00; -1.1381372E+00;0; -1.7292952E-02;  3.9902312E+04;  0.0000000E+00;  1.7802441E+01;  4.0000000E+04;  0.0000000E+00;  3.9982586E+04; -1.7037535E-02;  0.0000000E+00; -2.5541644E-04;  2.7328938E+04;
  2.1071567E-01;  9.9999998E-03; -2.5022253E-01;3732; -3.4994711E-03;  0.0000000E+00;  2.4350504E-04;  9.9918152E+02;  1.0000000E-01; -6.7810425E+02;3; -3.2146935E+00;  0.0000000E+00; -4.9408193E+00;0; -1.6448988E-02;  3.9959855E+04;  0.0000000E+00;  1.3530620E+01;  4.0000000E+04;  0.0000000E+00;  3.9979227E+04; -1.5885510E-02;  0.0000000E+00; -5.6347734E-04;  2.0610162E+04;
  2.1069017E-01;  9.9999998E-03; -2.4026863E-01;3733; -3.6145605E-03;  0.0000000E+00;  2.5242387E-04;  9.9956726E+02;  1.0000000E-01; -3.5850839E+02;3; -4.0303907E+00;  0.0000000E+00; -5.5150604E+00;0; -1.5222566E-02;  3.9995195E+04;  0.0000000E+00;  9.3508730E+00;  4.0000000E+04;  0.0000000E+00;  3.9975574E+04; -1.4702500E-02;  0.0000000E+00; -5.2006682E-04;  1.4328195E+04;
  2.1071258E-01;  9.9999998E-03; -2.3027802E-01;3734; -3.6340700E-03;  0.0000000E+00;  1.6373266E-04;  9.9988281E+02;  1.0000000E-01; -9.7083672E+01;3; -3.4219689E+00;  0.0000000E+00; -5.3999801E+00;0; -1.4109360E-02;  4.0017293E+04;  0.0000000E+00;  6.0318017E+00;  4.0000000E+04;  0.0000000E+00;  3.9977250E+04; -1.3734804E-02;  0.0000000E+00; -3.7455518E-04;  9.3842197E+03;
  2.1079850E-01;  9.9999998E-03; -2.2022499E-01;3735; -3.6285312E-03;  0.0000000E+00;  8.3940009E-05;  1.0001251E+03;  1.0000000E-01;  1.0360201E+02;3; -2.3585889E+00;  0.0000000E+00; -4.5768166E+00;0; -1.3384711E-02;  4.0029727E+04;  0.0000000E+00;  3.4850743E+00;  4.0000000E+04;  0.0000000E+00;  3.9983492E+04; -1.3024562E-02;  0.0000000E+00; -3.6014881E-04;  5.5568901E+03;
  2.1089794E-01;  9.9999998E-03; -2.1016179E-01;3736; -3.6244786E-03;  0.0000000E+00;  4.4342130E-05;  1.0002594E+03;  1.0000000E-01;  2.1490750E+02;3; -1.4000932E+00;  0.0000000E+00; -3.2081661E+00;0; -1.2973710E-02;  4.0036609E+04;  0.0000000E+00;  1.6673222E+00;  4.0000000E+04;  0.0000000E+00;  3.9985832E+04; -1.2548592E-02;  0.0000000E+00; -4.2511767E-04;  3.0460864E+03;
  2.1099705E-01;  9.9999998E-03; -2.0011562E-01;3737; -3.6365280E-03;  0.0000000E+00;  1.7739430E-05;  1.0003083E+03;  1.0000000E-01;  2.5540018E+02;3; -6.6295242E-01;  0.0000000E+00; -1.9491975E+00;0; -1.2754552E-02;  4.0038793E+04;  0.0000000E+00;  4.8319864E-01;  4.0000000E+04;  0.0000000E+00;  3.9985746E+04; -1.2267600E-02;  0.0000000E+00; -4.8695217E-04;  1.9256412E+03;
  2.1109989E-01;  9.9999998E-03; -1.9008936E-01;3738; -3.6696712E-03;  0.0000000E+00; -6.6946841E-06;  1.0002984E+03;  1.0000000E-01;  2.4720288E+02;3; -1.7038584E-01;  0.0000000E+00; -1.0348228E+00;0; -1.2662085E-02;  4.0037066E+04;  0.0000000E+00; -1.6719592E-01;  4.0000000E+04;  0.0000000E+00;  3.9985645E+04; -1.2142582E-02;  0.0000000E+00; -5.1950279E-04;  1.8043647E+03;
  2.1117736E-01;  9.9999998E-03; -1.8009543E-01;3739; -3.7247885E-03;  0.0000000E+00; -2.7282398E-05;  1.0002637E+03;  1.0000000E-01;  2.1846295E+02;3;  1.0557649E-01;  0.0000000E+00; -4.5772153E-01;0; -1.2656552E-02;  4.0032531E+04;  0.0000000E+00; -4.1419369E-01;  4.0000000E+04;  0.0000000E+00;  3.9986484E+04; -1.2141102E-02;  0.0000000E+00; -5.1545002E-04;  1.8089551E+03;
  2.1123335E-01;  9.9999998E-03; -1.7011516E-01;3740; -3.8011048E-03;  0.0000000E+00; -4.1618590E-05;  1.0002180E+03;  1.0000000E-01;  1.8053810E+02;3;  2.3049878E-01;  0.0000000E+00; -1.4280759E-01;0; -1.2707015E-02;  4.0026523E+04;  0.0000000E+00; -4.0806872E-01;  4.0000000E+04;  0.0000000E+00;  3.9988148E+04; -1.2232671E-02;  0.0000000E+00; -4.7434508E-04;  1.6417982E+03;
  2.1126732E-01;  9.9999998E-03; -1.6013482E-01;3741; -3.8957868E-03;  0.0000000E+00; -4.7483391E-05;  1.0001658E+03;  1.0000000E-01;  1.3737883E+02;3;  2.7121276E-01;  0.0000000E+00; -4.5637744E-03;0; -1.2791506E-02;  4.0020414E+04;  0.0000000E+00; -2.8696737E-01;  4.0000000E+04;  0.0000000E+00;  3.9989430E+04; -1.2389817E-02;  0.0000000E+00; -4.0168857E-04;  1.3939357E+03;
  2.1128544E-01;  9.9999998E-03; -1.5014540E-01;3742; -4.0028645E-03;  0.0000000E+00; -4.4655048E-05;  1.0001232E+03;  1.0000000E-01;  1.0202180E+02;3;  2.7847266E-01;  0.0000000E+00;  3.5300806E-02;0; -1.2894649E-02;  4.0014855E+04;  0.0000000E+00; -1.4857170E-01;  4.0000000E+04;  0.0000000E+00;  3.9990613E+04; -1.2587219E-02;  0.0000000E+00; -3.0743002E-04;  1.1775223E+03;
  2.1129890E-01;  9.9999998E-03; -1.4014277E-01;3743; -4.1126530E-03;  0.0000000E+00; -3.6428009E-05;  1.0000884E+03;  1.0000000E-01;  7.3281876E+01;3;  2.7815279E-01;  0.0000000E+00;  3.9752938E-02;0; -1.3005703E-02;  4.0010816E+04;  0.0000000E+00; -4.1497469E-02;  4.0000000E+04;  0.0000000E+00;  3.9991484E+04; -1.2802164E-02;  0.0000000E+00; -2.0353845E-04;  1.0428723E+03;
  2.1132006E-01;  9.9999998E-03; -1.3012813E-01;3744; -4.2149355E-03;  0.0000000E+00; -2.6007299E-05;  1.0000717E+03;  1.0000000E-01;  5.9356346E+01;3;  2.7813375E-01;  0.0000000E+00;  3.9310656E-02;0; -1.3117421E-02;  4.0008688E+04;  0.0000000E+00;  2.3303391E-02;  4.0000000E+04;  0.0000000E+00;  3.9991957E+04; -1.3015902E-02;  0.0000000E+00; -1.0152003E-04;  9.9308618E+02;
  2.1136235E-01;  9.9999998E-03; -1.2010679E-01;3745; -4.3020495E-03;  0.0000000E+00; -1.5033242E-05;  1.0000705E+03;  1.0000000E-01;  5.8368721E+01;3;  2.7894145E-01;  0.0000000E+00;  3.6750838E-02;0; -1.3224078E-02;  4.0008402E+04;  0.0000000E+00;  5.1975470E-02;  4.0000000E+04;  0.0000000E+00;  3.9992148E+04; -1.3213475E-02;  0.0000000E+00; -1.0602678E-05;  1.0150350E+03;
  2.1143608E-01;  9.9999998E-03; -1.1007886E-01;3746; -4.3689809E-03;  0.0000000E+00; -6.2001673E-06;  1.0000823E+03;  1.0000000E-01;  6.8244980E+01;3;  2.7946070E-01;  0.0000000E+00;  3.3698127E-02;0; -1.3320714E-02;  4.0009887E+04;  0.0000000E+00;  5.5189028E-02;  4.0000000E+04;  0.0000000E+00;  3.9992152E+04; -1.3383961E-02;  0.0000000E+00;  6.3247091E-05;  1.0931443E+03;
  2.2117203E-01;  9.9999998E-03; -2.7011669E-01;3791; -2.8970120E-03;  0.0000000E+00;  4.6075136E-05;  9.9727014E+02;  1.0000000E-01; -2.2616150E+03;3; -2.7904642E-01;  0.0000000E+00;  6.2831016E+00;0; -1.7603509E-02;  3.9795504E+04;  0.0000000E+00;  1.3556341E+01;  4.0000000E+04;  0.0000000E+00;  3.9990707E+04; -1.7534871E-02;  0.0000000E+00; -6.8639158E-05;  2.1535863E+04;
  2.2084057E-01;  9.9999998E-03; -2.6013914E-01;3792; -3.1797991E-03;  0.0000000E+00;  7.4739168E-05;  9.9853064E+02;  1.0000000E-01; -1.2173483E+03;3; -2.6135521E+00;  0.0000000E+00; -9.4659239E-01;0; -1.6494198E-02;  3.9902914E+04;  0.0000000E+00;  1.6569187E+01;  4.0000000E+04;  0.0000000E+00;  3.9984992E+04; -1.6317362E-02;  0.0000000E+00; -1.7683538E-04;  2.5339729E+04;
  2.2068992E-01;  9.9999998E-03; -2.5015751E-01;3793; -3.5160943E-03;  0.0000000E+00;  2.0392540E-04;  9.9913507E+02;  1.0000000E-01; -7.1657233E+02;3; -4.1309152E+00;  0.0000000E+00; -4.5788984E+00;0; -1.5863029E-02;  3.9954238E+04;  0.0000000E+00;  1.3454598E+01;  4.0000000E+04;  0.0000000E+00;  3.9983504E+04; -1.5231360E-02;  0.0000000E+00; -6.3166942E-04;  2.0335713E+04;
  2.2066861E-01;  9.9999998E-03; -2.4018826E-01;3794; -3.6477149E-03;  0.0000000E+00;  2.4486700E-04;  9.9939032E+02;  1.0000000E-01; -5.0512152E+02;3; -4.3107357E+00;  0.0000000E+00; -4.9521594E+00;0; -1.4765851E-02;  3.9978363E+04;  0.0000000E+00;  9.2703571E+00;  4.0000000E+04;  0.0000000E+00;  3.9978316E+04; -1.4107035E-02;  0.0000000E+00; -6.5881573E-04;  1.4083939E+04;
  2.2070836E-01;  9.9999998E-03; -2.3019369E-01;3795; -3.6722335E-03;  0.0000000E+00;  1.6027754E-04;  9.9958411E+02;  1.0000000E-01; -3.4458286E+02;3; -3.4345646E+00;  0.0000000E+00; -4.6407080E+00;0; -1.3634343E-02;  3.9991660E+04;  0.0000000E+00;  5.8871927E+00;  4.0000000E+04;  0.0000000E+00;  3.9979656E+04; -1.3182005E-02;  0.0000000E+00; -4.5233779E-04;  9.0975635E+03;
  2.2077948E-01;  9.9999998E-03; -2.2015822E-01;3796; -3.6681406E-03;  0.0000000E+00;  7.2629889E-05;  9.9974420E+02;  1.0000000E-01; -2.1194463E+02;3; -2.2885396E+00;  0.0000000E+00; -3.7929456E+00;0; -1.2889130E-02;  3.9998875E+04;  0.0000000E+00;  3.3823736E+00;  4.0000000E+04;  0.0000000E+00;  3.9983562E+04; -1.2511235E-02;  0.0000000E+00; -3.7789490E-04;  5.4016436E+03;
  2.2086532E-01;  9.9999998E-03; -2.1012083E-01;3797; -3.6673020E-03;  0.0000000E+00;  2.4158877E-05;  9.9982764E+02;  1.0000000E-01; -1.4281078E+02;3; -1.3103849E+00;  0.0000000E+00; -2.6058869E+00;0; -1.2474149E-02;  4.0002223E+04;  0.0000000E+00;  1.6161827E+00;  4.0000000E+04;  0.0000000E+00;  3.9985039E+04; -1.2069602E-02;  0.0000000E+00; -4.0454802E-04;  3.0204624E+03;
  2.2097787E-01;  9.9999998E-03; -2.0009199E-01;3798; -3.6829740E-03;  0.0000000E+00; -1.1253754E-05;  9.9985333E+02;  1.0000000E-01; -1.2152743E+02;3; -5.8308613E-01;  0.0000000E+00; -1.5622057E+00;0; -1.2251803E-02;  4.0002746E+04;  0.0000000E+00;  4.9022540E-01;  4.0000000E+04;  0.0000000E+00;  3.9984949E+04; -1.1813628E-02;  0.0000000E+00; -4.3817511E-04;  1.9496644E+03;
  2.2109520E-01;  9.9999998E-03; -1.9008633E-01;3799; -3.7201170E-03;  0.0000000E+00; -3.9623777E-05;  9.9984406E+02;  1.0000000E-01; -1.2918153E+02;3; -1.1436265E-01;  0.0000000E+00; -8.1002951E-01;0; -1.2154168E-02;  4.0000656E+04;  0.0000000E+00; -1.0022858E-01;  4.0000000E+04;  0.0000000E+00;  3.9985516E+04; -1.1703969E-02;  0.0000000E+00; -4.5019854E-04;  1.7972809E+03;
  2.2117475E-01;  9.9999998E-03; -1.8010819E-01;3800; -3.7804437E-03;  0.0000000E+00; -5.9671547E-05;  9.9982574E+02;  1.0000000E-01; -1.4439098E+02;3;  1.4103194E-01;  0.0000000E+00; -3.4145012E-01;0; -1.2138336E-02;  3.9997773E+04;  0.0000000E+00; -2.9863718E-01;  4.0000000E+04;  0.0000000E+00;  3.9985984E+04; -1.1706637E-02;  0.0000000E+00; -4.3169849E-04;  1.7679911E+03;
  2.2121866E-01;  9.9999998E-03; -1.7013949E-01;3801; -3.8630478E-03;  0.0000000E+00; -7.0293179E-05;  9.9980420E+02;  1.0000000E-01; -1.6221764E+02;3;  2.5358498E-01;  0.0000000E+00; -9.1469966E-02;0; -1.2172909E-02;  3.9994203E+04;  0.0000000E+00; -2.6312265E-01;  4.0000000E+04;  0.0000000E+00;  3.9987051E+04; -1.1790386E-02;  0.0000000E+00; -3.8252279E-04;  1.6284807E+03;
  2.2123788E-01;  9.9999998E-03; -1.6016507E-01;3802; -3.9651315E-03;  0.0000000E+00; -6.9645452E-05;  9.9978760E+02;  1.0000000E-01; -1.7599503E+02;3;  2.8955778E-01;  0.0000000E+00;  1.3426670E-02;0; -1.2236693E-02;  3.9990996E+04;  0.0000000E+00; -1.3313791E-01;  4.0000000E+04;  0.0000000E+00;  3.9988062E+04; -1.1927775E-02;  0.0000000E+00; -3.0891740E-04;  1.4721664E+03;
  2.2126624E-01;  9.9999998E-03; -1.5017121E-01;3803; -4.0800110E-03;  0.0000000E+00; -5.9125967E-05;  9.9977844E+02;  1.0000000E-01; -1.8355037E+02;3;  2.9564053E-01;  0.0000000E+00;  4.1445535E-02;0; -1.2314676E-02;  3.9989340E+04;  0.0000000E+00; -3.3296607E-03;  4.0000000E+04;  0.0000000E+00;  3.9988637E+04; -1.2094008E-02;  0.0000000E+00; -2.2066827E-04;  1.3791565E+03;
  2.2132884E-01;  9.9999998E-03; -1.4014857E-01;3804; -4.1970303E-03;  0.0000000E+00; -4.4123262E-05;  9.9978387E+02;  1.0000000E-01; -1.7905667E+02;3;  2.9560956E-01;  0.0000000E+00;  4.3776143E-02;0; -1.2397251E-02;  3.9989281E+04;  0.0000000E+00;  8.4113613E-02;  4.0000000E+04;  0.0000000E+00;  3.9988613E+04; -1.2268583E-02;  0.0000000E+00; -1.2866811E-04;  1.3521425E+03;
  2.2142583E-01;  9.9999998E-03; -1.3009760E-01;3805; -4.3051289E-03;  0.0000000E+00; -2.9239995E-05;  9.9980981E+02;  1.0000000E-01; -1.5757579E+02;3;  2.9547122E-01;  0.0000000E+00;  4.3347396E-02;0; -1.2479483E-02;  3.9990887E+04;  0.0000000E+00;  1.2554924E-01;  4.0000000E+04;  0.0000000E+00;  3.9989129E+04; -1.2436794E-02;  0.0000000E+00; -4.2689258E-05;  1.3668177E+03;
  2.2153139E-01;  9.9999998E-03; -1.2004804E-01;3806; -4.3950616E-03;  0.0000000E+00; -1.7512904E-05;  9.9984778E+02;  1.0000000E-01; -1.2611989E+02;3;  2.9601544E-01;  0.0000000E+00;  4.0555809E-02;0; -1.2559431E-02;  3.9994379E+04;  0.0000000E+00;  1.3219593E-01;  4.0000000E+04;  0.0000000E+00;  3.9988758E+04; -1.2589574E-02;  0.0000000E+00;  3.0143334E-05;  1.4071135E+03;
  2.2160268E-01;  9.9999998E-03; -1.1001790E-01;3807; -4.4614188E-03;  0.0000000E+00; -1.1250694E-05;  9.9990082E+02;  1.0000000E-01; -8.2170517E+01;3;  2.9671651E-01;  0.0000000E+00;  3.7423458E-02;0; -1.2636855E-02;  3.9998867E+04;  0.0000000E+00;  1.1757979E-01;  4.0000000E+04;  0.0000000E+00;  3.9988355E+04; -1.2723391E-02;  0.0000000E+00;  8.6535925E-05;  1.4645886E+03;
  2.3121202E-01;  9.9999998E-03; -2.7008116E-01;3852; -3.0362960E-03;  0.0000000E+00; -5.3328204E-06;  9.9754095E+02;  1.0000000E-01; -2.0372758E+03;3; -4.0011830E+00;  0.0000000E+00;  3.3728342E+00;0; -1.6692163E-02;  3.9812805E+04;  0.0000000E+00;  9.9308014E+00;  4.0000000E+04;  0.0000000E+00;  3.9996922E+04; -1.6824121E-02;  0.0000000E+00;  1.3195649E-04;  1.5964120E+04;
  2.3094742E-01;  9.9999998E-03; -2.6009125E-01;3853; -3.2739018E-03;  0.0000000E+00;  1.1329124E-05;  9.9851056E+02;  1.0000000E-01; -1.2339897E+03;3; -4.4643312E+00;  0.0000000E+00; -2.1433029E+00;0; -1.5574631E-02;  3.9895617E+04;  0.0000000E+00;  1.3205990E+01;  4.0000000E+04;  0.0000000E+00;  3.9993016E+04; -1.5590353E-02;  0.0000000E+00;  1.5721591E-05;  2.0243783E+04;
  2.3075840E-01;  9.9999998E-03; -2.5009486E-01;3854; -3.5551451E-03;  0.0000000E+00;  1.1617284E-04;  9.9904321E+02;  1.0000000E-01; -7.9266895E+02;3; -4.6253037E+00;  0.0000000E+00; -4.8669257E+00;0; -1.4980750E-02;  3.9939711E+04;  0.0000000E+00;  1.1899014E+01;  4.0000000E+04;  0.0000000E+00;  3.9991434E+04; -1.4518954E-02;  0.0000000E+00; -4.6179589E-04;  1.7896238E+04;
  2.3073268E-01;  9.9999998E-03; -2.4010253E-01;3855; -3.6821428E-03;  0.0000000E+00;  1.6778398E-04;  9.9922278E+02;  1.0000000E-01; -6.4393243E+02;3; -4.1501532E+00;  0.0000000E+00; -4.9657373E+00;0; -1.4057907E-02;  3.9956043E+04;  0.0000000E+00;  8.3474483E+00;  4.0000000E+04;  0.0000000E+00;  3.9987805E+04; -1.3481596E-02;  0.0000000E+00; -5.7631190E-04;  1.2530468E+04;
  2.3075815E-01;  9.9999998E-03; -2.3009792E-01;3856; -3.7076501E-03;  0.0000000E+00;  1.1653762E-04;  9.9932581E+02;  1.0000000E-01; -5.5855212E+02;3; -3.1249573E+00;  0.0000000E+00; -4.2455883E+00;0; -1.3063943E-02;  3.9963531E+04;  0.0000000E+00;  5.3544526E+00;  4.0000000E+04;  0.0000000E+00;  3.9987348E+04; -1.2639031E-02;  0.0000000E+00; -4.2491237E-04;  8.0973145E+03;
  2.3083583E-01;  9.9999998E-03; -2.2007234E-01;3857; -3.7064275E-03;  0.0000000E+00;  4.9219743E-05;  9.9939648E+02;  1.0000000E-01; -4.9998587E+02;3; -2.0142124E+00;  0.0000000E+00; -3.2055049E+00;0; -1.2383391E-02;  3.9966070E+04;  0.0000000E+00;  3.0693135E+00;  4.0000000E+04;  0.0000000E+00;  3.9988145E+04; -1.2035768E-02;  0.0000000E+00; -3.4762273E-04;  4.7615654E+03;
  2.3097721E-01;  9.9999998E-03; -2.1004075E-01;3858; -3.7105384E-03;  0.0000000E+00; -1.0628271E-07;  9.9942242E+02;  1.0000000E-01; -4.7850497E+02;3; -1.0945709E+00;  0.0000000E+00; -2.1103427E+00;0; -1.1990054E-02;  3.9966230E+04;  0.0000000E+00;  1.4767964E+00;  4.0000000E+04;  0.0000000E+00;  3.9988348E+04; -1.1644034E-02;  0.0000000E+00; -3.4602033E-04;  2.5877317E+03;
  2.3111385E-01;  9.9999998E-03; -2.0002900E-01;3859; -3.7316515E-03;  0.0000000E+00; -3.6723202E-05;  9.9942456E+02;  1.0000000E-01; -4.7672726E+02;3; -4.3915266E-01;  0.0000000E+00; -1.2135396E+00;0; -1.1781915E-02;  3.9965742E+04;  0.0000000E+00;  5.1737291E-01;  4.0000000E+04;  0.0000000E+00;  3.9987355E+04; -1.1424425E-02;  0.0000000E+00; -3.5749015E-04;  1.6786025E+03;
  2.3121642E-01;  9.9999998E-03; -1.9004810E-01;3860; -3.7744362E-03;  0.0000000E+00; -6.5918961E-05;  9.9941876E+02;  1.0000000E-01; -4.8156662E+02;3; -2.9365292E-02;  0.0000000E+00; -5.9873873E-01;0; -1.1689599E-02;  3.9965148E+04;  0.0000000E+00;  4.3651462E-02;  4.0000000E+04;  0.0000000E+00;  3.9986594E+04; -1.1336626E-02;  0.0000000E+00; -3.5297175E-04;  1.5817537E+03;
  2.3128876E-01;  9.9999998E-03; -1.8008249E-01;3861; -3.8408691E-03;  0.0000000E+00; -8.4690830E-05;  9.9941815E+02;  1.0000000E-01; -4.8206046E+02;3;  1.8855692E-01;  0.0000000E+00; -2.3047569E-01;0; -1.1668445E-02;  3.9964117E+04;  0.0000000E+00; -9.0963475E-02;  4.0000000E+04;  0.0000000E+00;  3.9987277E+04; -1.1344575E-02;  0.0000000E+00; -3.2386958E-04;  1.5639229E+03;
  2.3133476E-01;  9.9999998E-03; -1.7011754E-01;3862; -3.9295284E-03;  0.0000000E+00; -9.2129703E-05;  9.9942847E+02;  1.0000000E-01; -4.7351749E+02;3;  2.8107187E-01;  0.0000000E+00; -4.2159446E-02;0; -1.1688145E-02;  3.9963824E+04;  0.0000000E+00; -3.5421677E-02;  4.0000000E+04;  0.0000000E+00;  3.9987734E+04; -1.1417839E-02;  0.0000000E+00; -2.7030575E-04;  1.4909437E+03;
  2.3135942E-01;  9.9999998E-03; -1.6013846E-01;3863; -4.0377504E-03;  0.0000000E+00; -8.6182918E-05;  9.9944897E+02;  1.0000000E-01; -4.5653030E+02;3;  3.0930689E-01;  0.0000000E+00;  3.1108093E-02;0; -1.1730109E-02;  3.9964387E+04;  0.0000000E+00;  8.2052939E-02;  4.0000000E+04;  0.0000000E+00;  3.9987816E+04; -1.1530942E-02;  0.0000000E+00; -1.9916736E-04;  1.4487174E+03;
  2.3141122E-01;  9.9999998E-03; -1.5012984E-01;3864; -4.1581341E-03;  0.0000000E+00; -6.9592410E-05;  9.9948419E+02;  1.0000000E-01; -4.2734595E+02;3;  3.1324446E-01;  0.0000000E+00;  4.8447300E-02;0; -1.1781722E-02;  3.9966625E+04;  0.0000000E+00;  1.7999631E-01;  4.0000000E+04;  0.0000000E+00;  3.9987863E+04; -1.1661729E-02;  0.0000000E+00; -1.1999375E-04;  1.4673087E+03;
  2.3149274E-01;  9.9999998E-03; -1.4008977E-01;3865; -4.2790161E-03;  0.0000000E+00; -4.9370890E-05;  9.9953473E+02;  1.0000000E-01; -3.8547058E+02;3;  3.1319168E-01;  0.0000000E+00;  4.9074728E-02;0; -1.1837255E-02;  3.9970949E+04;  0.0000000E+00;  2.2910015E-01;  4.0000000E+04;  0.0000000E+00;  3.9987559E+04; -1.1794327E-02;  0.0000000E+00; -4.2928277E-05;  1.5139369E+03;
  2.3158112E-01;  9.9999998E-03; -1.3004337E-01;3866; -4.3881098E-03;  0.0000000E+00; -3.1954292E-05;  9.9960522E+02;  1.0000000E-01; -3.2705249E+02;3;  3.1328073E-01;  0.0000000E+00;  4.7749680E-02;0; -1.1895381E-02;  3.9976891E+04;  0.0000000E+00;  2.3461004E-01;  4.0000000E+04;  0.0000000E+00;  3.9987094E+04; -1.1919547E-02;  0.0000000E+00;  2.4166096E-05;  1.5585643E+03;
  2.3163110E-01;  9.9999998E-03; -1.2001038E-01;3867; -4.4760541E-03;  0.0000000E+00; -2.1464590E-05;  9.9968427E+02;  1.0000000E-01; -2.6157285E+02;3;  3.1388915E-01;  0.0000000E+00;  4.4541426E-02;0; -1.1957138E-02;  3.9983629E+04;  0.0000000E+00;  2.1253762E-01;  4.0000000E+04;  0.0000000E+00;  3.9986613E+04; -1.2034304E-02;  0.0000000E+00;  7.7165620E-05;  1.5946836E+03;
  2.3164119E-01;  9.9999998E-03; -1.0999438E-01;3868; -4.5399172E-03;  0.0000000E+00; -1.7157343E-05;  9.9976947E+02;  1.0000000E-01; -1.9100694E+02;3;  3.1494546E-01;  0.0000000E+00;  4.0961593E-02;0; -1.2021196E-02;  3.9990926E+04;  0.0000000E+00;  1.7764068E-01;  4.0000000E+04;  0.0000000E+00;  3.9986613E+04; -1.2137048E-02;  0.0000000E+00;  1.1585229E-04;  1.6281891E+03;
  2.4121960E-01;  9.9999998E-03; -2.7005231E-01;3913; -3.1929750E-03;  0.0000000E+00; -4.5195509E-05;  9.9791919E+02;  1.0000000E-01; -1.7239019E+03;3; -6.5293093E+00;  0.0000000E+00;  7.8038466E-01;0; -1.5695101E-02;  3.9840672E+04;  0.0000000E+00;  7.0535660E+00;  4.0000000E+04;  0.0000000E+00;  4.0001430E+04; -1.6012773E-02;  0.0000000E+00;  3.1767250E-04;  1.1555310E+04;
  2.4104139E-01;  9.9999998E-03; -2.6005372E-01;3914; -3.4132670E-03;  0.0000000E+00; -3.2996275E-05;  9.9857043E+02;  1.0000000E-01; -1.1843616E+03;3; -5.6371837E+00;  0.0000000E+00; -3.2273586E+00;0; -1.4678503E-02;  3.9894730E+04;  0.0000000E+00;  9.4719791E+00;  4.0000000E+04;  0.0000000E+00;  3.9999590E+04; -1.4852230E-02;  0.0000000E+00;  1.7372571E-04;  1.4654218E+04;
  2.4089314E-01;  9.9999998E-03; -2.5004688E-01;3915; -3.6301713E-03;  0.0000000E+00;  3.7687460E-05;  9.9894159E+02;  1.0000000E-01; -8.7686407E+02;3; -4.7766399E+00;  0.0000000E+00; -4.9118190E+00;0; -1.4058329E-02;  3.9924270E+04;  0.0000000E+00;  9.0211868E+00;  4.0000000E+04;  0.0000000E+00;  3.9999379E+04; -1.3821342E-02;  0.0000000E+00; -2.3698708E-04;  1.3617350E+04;
  2.4084081E-01;  9.9999998E-03; -2.4003787E-01;3916; -3.7304861E-03;  0.0000000E+00;  7.8089397E-05;  9.9907654E+02;  1.0000000E-01; -7.6506476E+02;3; -3.7804742E+00;  0.0000000E+00; -4.6990824E+00;0; -1.3270436E-02;  3.9935316E+04;  0.0000000E+00;  6.7450652E+00;  4.0000000E+04;  0.0000000E+00;  3.9997645E+04; -1.2890236E-02;  0.0000000E+00; -3.8019993E-04;  1.0086956E+04;
  2.4086852E-01;  9.9999998E-03; -2.3001842E-01;3917; -3.7549788E-03;  0.0000000E+00;  5.1299783E-05;  9.9911652E+02;  1.0000000E-01; -7.3192993E+02;3; -2.6482222E+00;  0.0000000E+00; -3.7834935E+00;0; -1.2462039E-02;  3.9937449E+04;  0.0000000E+00;  4.3955407E+00;  4.0000000E+04;  0.0000000E+00;  3.9996539E+04; -1.2155887E-02;  0.0000000E+00; -3.0615256E-04;  6.5547764E+03;
  2.4096628E-01;  9.9999998E-03; -2.1998340E-01;3918; -3.7580538E-03;  0.0000000E+00;  6.0501311E-06;  9.9913190E+02;  1.0000000E-01; -7.1918951E+02;3; -1.6111395E+00;  0.0000000E+00; -2.6925426E+00;0; -1.1894867E-02;  3.9936770E+04;  0.0000000E+00;  2.5448589E+00;  4.0000000E+04;  0.0000000E+00;  3.9996582E+04; -1.1638951E-02;  0.0000000E+00; -2.5591539E-04;  3.8052402E+03;
  2.4109171E-01;  9.9999998E-03; -2.0996724E-01;3919; -3.7677041E-03;  0.0000000E+00; -2.4164858E-05;  9.9910992E+02;  1.0000000E-01; -7.3741125E+02;3; -8.2033855E-01;  0.0000000E+00; -1.6556549E+00;0; -1.1570272E-02;  3.9936074E+04;  0.0000000E+00;  1.3027364E+00;  4.0000000E+04;  0.0000000E+00;  3.9993797E+04; -1.1313202E-02;  0.0000000E+00; -2.5707029E-04;  2.0653599E+03;
  2.4119300E-01;  9.9999998E-03; -1.9998424E-01;3920; -3.7951248E-03;  0.0000000E+00; -5.4963508E-05;  9.9909491E+02;  1.0000000E-01; -7.4985535E+02;3; -2.7055910E-01;  0.0000000E+00; -8.9591646E-01;0; -1.1392813E-02;  3.9936344E+04;  0.0000000E+00;  5.7893038E-01;  4.0000000E+04;  0.0000000E+00;  3.9990945E+04; -1.1138283E-02;  0.0000000E+00; -2.5453093E-04;  1.3901310E+03;
  2.4128945E-01;  9.9999998E-03; -1.9001646E-01;3921; -3.8445594E-03;  0.0000000E+00; -8.2501741E-05;  9.9909637E+02;  1.0000000E-01; -7.4862079E+02;3;  6.7010790E-02;  0.0000000E+00; -4.1017240E-01;0; -1.1311298E-02;  3.9937156E+04;  0.0000000E+00;  2.4445774E-01;  4.0000000E+04;  0.0000000E+00;  3.9989254E+04; -1.1073750E-02;  0.0000000E+00; -2.3754846E-04;  1.3151113E+03;
  2.4138521E-01;  9.9999998E-03; -1.8005054E-01;3922; -3.9170855E-03;  0.0000000E+00; -9.9163663E-05;  9.9912921E+02;  1.0000000E-01; -7.2141168E+02;3;  2.4026585E-01;  0.0000000E+00; -1.3264379E-01;0; -1.1287075E-02;  3.9939016E+04;  0.0000000E+00;  1.7297469E-01;  4.0000000E+04;  0.0000000E+00;  3.9989879E+04; -1.1085720E-02;  0.0000000E+00; -2.0135596E-04;  1.3143251E+03;
  2.4148606E-01;  9.9999998E-03; -1.7007291E-01;3923; -4.0117609E-03;  0.0000000E+00; -1.0261365E-04;  9.9917468E+02;  1.0000000E-01; -6.8378314E+02;3;  3.1026116E-01;  0.0000000E+00;  8.0540444E-04;0; -1.1292252E-02;  3.9942070E+04;  0.0000000E+00;  2.3222899E-01;  4.0000000E+04;  0.0000000E+00;  3.9989305E+04; -1.1145692E-02;  0.0000000E+00; -1.4655910E-04;  1.3223251E+03;
  2.4158473E-01;  9.9999998E-03; -1.6007257E-01;3924; -4.1250070E-03;  0.0000000E+00; -9.2042901E-05;  9.9924066E+02;  1.0000000E-01; -6.2911798E+02;3;  3.2998070E-01;  0.0000000E+00;  4.6998154E-02;0; -1.1311395E-02;  3.9946832E+04;  0.0000000E+00;  3.1468856E-01;  4.0000000E+04;  0.0000000E+00;  3.9989137E+04; -1.1230878E-02;  0.0000000E+00; -8.0517246E-05;  1.3778257E+03;
  2.4166299E-01;  9.9999998E-03; -1.5004843E-01;3925; -4.2481739E-03;  0.0000000E+00; -7.1246031E-05;  9.9931854E+02;  1.0000000E-01; -5.6457660E+02;3;  3.3187649E-01;  0.0000000E+00;  5.5694580E-02;0; -1.1338050E-02;  3.9953621E+04;  0.0000000E+00;  3.6039883E-01;  4.0000000E+04;  0.0000000E+00;  3.9988477E+04; -1.1324634E-02;  0.0000000E+00; -1.3415593E-05;  1.4576189E+03;
  2.4170566E-01;  9.9999998E-03; -1.4002207E-01;3926; -4.3682819E-03;  0.0000000E+00; -4.8800852E-05;  9.9941296E+02;  1.0000000E-01; -4.8635663E+02;3;  3.3169457E-01;  0.0000000E+00;  5.5154122E-02;0; -1.1370866E-02;  3.9961613E+04;  0.0000000E+00;  3.5779586E-01;  4.0000000E+04;  0.0000000E+00;  3.9988043E+04; -1.1416762E-02;  0.0000000E+00;  4.5896111E-05;  1.5251252E+03;
  2.4170095E-01;  9.9999998E-03; -1.3000444E-01;3927; -4.4737346E-03;  0.0000000E+00; -3.1558069E-05;  9.9951556E+02;  1.0000000E-01; -4.0132199E+02;3;  3.3218181E-01;  0.0000000E+00;  5.2260812E-02;0; -1.1410871E-02;  3.9970551E+04;  0.0000000E+00;  3.2198706E-01;  4.0000000E+04;  0.0000000E+00;  3.9987410E+04; -1.1503514E-02;  0.0000000E+00;  9.2643073E-05;  1.5695748E+03;
  2.4165289E-01;  9.9999998E-03; -1.1999189E-01;3928; -4.5569008E-03;  0.0000000E+00; -2.3509951E-05;  9.9961780E+02;  1.0000000E-01; -3.1663303E+02;3;  3.3280143E-01;  0.0000000E+00;  4.8480351E-02;0; -1.1458517E-02;  3.9979363E+04;  0.0000000E+00;  2.7095181E-01;  4.0000000E+04;  0.0000000E+00;  3.9987129E+04; -1.1584532E-02;  0.0000000E+00;  1.2601436E-04;  1.5960438E+03;
  2.4159978E-01;  9.9999998E-03; -1.0999001E-01;3929; -4.6160477E-03;  0.0000000E+00; -2.2067521E-05;  9.9971173E+02;  1.0000000E-01; -2.3880806E+02;3;  3.3332098E-01;  0.0000000E+00;  4.5336749E-02;0; -1.1511706E-02;  3.9987266E+04;  0.0000000E+00;  2.1775620E-01;  4.0000000E+04;  0.0000000E+00;  3.9987160E+04; -1.1659702E-02;  0.0000000E+00;  1.4799644E-04;  1.6135438E+03;
  2.5119638E-01;  9.9999998E-03; -2.7003002E-01;3974; -3.3546002E-03;  0.0000000E+00; -8.5070285E-05;  9.9834631E+02;  1.0000000E-01; -1.3700353E+03;3; -7.7608995E+00;  0.0000000E+00; -1.0653536E+00;0; -1.4582775E-02;  3.9873207E+04;  0.0000000E+00;  5.0145245E+00;  4.0000000E+04;  0.0000000E+00;  4.0004934E+04; -1.5142739E-02;  0.0000000E+00;  5.5996404E-04;  8.4181377E+03;
  2.5107929E-01;  9.9999998E-03; -2.6002654E-01;3975; -3.5594446E-03;  0.0000000E+00; -6.7577392E-05;  9.9872357E+02;  1.0000000E-01; -1.0575010E+03;3; -6.0156798E+00;  0.0000000E+00; -3.6919415E+00;0; -1.3782205E-02;  3.9903750E+04;  0.0000000E+00;  6.5989003E+00;  4.0000000E+04;  0.0000000E+00;  4.0004703E+04; -1.4099846E-02;  0.0000000E+00;  3.1764057E-04;  1.0352804E+04;
  2.5097415E-01;  9.9999998E-03; -2.5001508E-01;3976; -3.7223611E-03;  0.0000000E+00; -1.7337856E-05;  9.9892889E+02;  1.0000000E-01; -8.8738232E+02;3; -4.5655084E+00;  0.0000000E+00; -4.5007777E+00;0; -1.3213604E-02;  3.9918277E+04;  0.0000000E+00;  6.4659071E+00;  4.0000000E+04;  0.0000000E+00;  4.0005195E+04; -1.3164123E-02;  0.0000000E+00; -4.9481077E-05;  9.8554082E+03;
  2.5091699E-01;  9.9999998E-03; -2.3999761E-01;3977; -3.7974922E-03;  0.0000000E+00;  8.7437302E-06;  9.9898883E+02;  1.0000000E-01; -8.3775409E+02;3; -3.2798283E+00;  0.0000000E+00; -4.0482745E+00;0; -1.2549983E-02;  3.9921855E+04;  0.0000000E+00;  5.0827518E+00;  4.0000000E+04;  0.0000000E+00;  4.0004316E+04; -1.2364973E-02;  0.0000000E+00; -1.8501005E-04;  7.6563159E+03;
  2.5095233E-01;  9.9999998E-03; -2.2996356E-01;3978; -3.8204282E-03;  0.0000000E+00; -2.1332538E-05;  9.9899939E+02;  1.0000000E-01; -8.2896423E+02;3; -2.1117954E+00;  0.0000000E+00; -3.1582344E+00;0; -1.1879624E-02;  3.9919684E+04;  0.0000000E+00;  3.3585112E+00;  4.0000000E+04;  0.0000000E+00;  4.0004898E+04; -1.1754209E-02;  0.0000000E+00; -1.2541492E-04;  5.0722837E+03;
  2.5104597E-01;  9.9999998E-03; -2.1992631E-01;3979; -3.8294618E-03;  0.0000000E+00; -3.7023812E-05;  9.9897162E+02;  1.0000000E-01; -8.5197589E+02;3; -1.1936374E+00;  0.0000000E+00; -2.1185489E+00;0; -1.1471617E-02;  3.9916777E+04;  0.0000000E+00;  2.0109239E+00;  4.0000000E+04;  0.0000000E+00;  4.0003383E+04; -1.1335575E-02;  0.0000000E+00; -1.3604229E-04;  3.0519695E+03;
  2.5112769E-01;  9.9999998E-03; -2.0993030E-01;3980; -3.8467804E-03;  0.0000000E+00; -4.1893425E-05;  9.9891229E+02;  1.0000000E-01; -9.0115967E+02;3; -5.4305422E-01;  0.0000000E+00; -1.2154530E+00;0; -1.1236596E-02;  3.9916148E+04;  0.0000000E+00;  1.1496164E+00;  4.0000000E+04;  0.0000000E+00;  3.9997391E+04; -1.1081551E-02;  0.0000000E+00; -1.5504503E-04;  1.7247747E+03;
  2.5122985E-01;  9.9999998E-03; -1.9995725E-01;3981; -3.8816021E-03;  0.0000000E+00; -6.6795423E-05;  9.9889581E+02;  1.0000000E-01; -9.1478894E+02;3; -9.9203035E-02;  0.0000000E+00; -6.1373782E-01;0; -1.1092435E-02;  3.9917391E+04;  0.0000000E+00;  6.6335452E-01;  4.0000000E+04;  0.0000000E+00;  3.9993809E+04; -1.0951607E-02;  0.0000000E+00; -1.4082722E-04;  1.1919740E+03;
  2.5135002E-01;  9.9999998E-03; -1.8998921E-01;3982; -3.9377632E-03;  0.0000000E+00; -9.1064750E-05;  9.9892822E+02;  1.0000000E-01; -8.8792548E+02;3;  1.6261376E-01;  0.0000000E+00; -2.4855486E-01;0; -1.1024138E-02;  3.9920531E+04;  0.0000000E+00;  4.6513397E-01;  4.0000000E+04;  0.0000000E+00;  3.9992133E+04; -1.0909822E-02;  0.0000000E+00; -1.1431631E-04;  1.1169286E+03;
  2.5148696E-01;  9.9999998E-03; -1.8001227E-01;3983; -4.0165125E-03;  0.0000000E+00; -1.0312350E-04;  9.9899689E+02;  1.0000000E-01; -8.3103821E+02;3;  2.9013988E-01;  0.0000000E+00; -5.0398305E-02;0; -1.0999238E-02;  3.9925922E+04;  0.0000000E+00;  4.4178906E-01;  4.0000000E+04;  0.0000000E+00;  3.9992090E+04; -1.0925115E-02;  0.0000000E+00; -7.4123425E-05;  1.1436177E+03;
  2.5163400E-01;  9.9999998E-03; -1.7001896E-01;3984; -4.1163433E-03;  0.0000000E+00; -1.0118388E-04;  9.9909082E+02;  1.0000000E-01; -7.5326263E+02;3;  3.3798933E-01;  0.0000000E+00;  3.6592942E-02;0; -1.0993129E-02;  3.9933414E+04;  0.0000000E+00;  4.8351589E-01;  4.0000000E+04;  0.0000000E+00;  3.9991684E+04; -1.0971857E-02;  0.0000000E+00; -2.1271531E-05;  1.2125066E+03;
  2.5176841E-01;  9.9999998E-03; -1.6000961E-01;3985; -4.2324360E-03;  0.0000000E+00; -8.5546118E-05;  9.9919946E+02;  1.0000000E-01; -6.6324048E+02;3;  3.5026079E-01;  0.0000000E+00;  6.1220787E-02;0; -1.0994258E-02;  3.9942598E+04;  0.0000000E+00;  5.1163763E-01;  4.0000000E+04;  0.0000000E+00;  3.9991496E+04; -1.1030656E-02;  0.0000000E+00;  3.6397603E-05;  1.2985382E+03;
  2.5184330E-01;  9.9999998E-03; -1.4999419E-01;3986; -4.3545836E-03;  0.0000000E+00; -6.2350133E-05;  9.9932404E+02;  1.0000000E-01; -5.6003357E+02;3;  3.5105291E-01;  0.0000000E+00;  6.3786142E-02;0; -1.1000683E-02;  3.9952957E+04;  0.0000000E+00;  4.9415919E-01;  4.0000000E+04;  0.0000000E+00;  3.9990406E+04; -1.1089760E-02;  0.0000000E+00;  8.9077090E-05;  1.3692787E+03;
  2.5183409E-01;  9.9999998E-03; -1.3998215E-01;3987; -4.4703395E-03;  0.0000000E+00; -4.0096886E-05;  9.9944403E+02;  1.0000000E-01; -4.6062894E+02;3;  3.5117662E-01;  0.0000000E+00;  6.1502233E-02;0; -1.1014733E-02;  3.9963613E+04;  0.0000000E+00;  4.3861759E-01;  4.0000000E+04;  0.0000000E+00;  3.9989738E+04; -1.1144798E-02;  0.0000000E+00;  1.3006575E-04;  1.4163882E+03;
  2.5177172E-01;  9.9999998E-03; -1.2997782E-01;3988; -4.5688236E-03;  0.0000000E+00; -2.6993261E-05;  9.9955963E+02;  1.0000000E-01; -3.6482919E+02;3;  3.5148355E-01;  0.0000000E+00;  5.7372611E-02;0; -1.1038269E-02;  3.9973809E+04;  0.0000000E+00;  3.6549529E-01;  4.0000000E+04;  0.0000000E+00;  3.9989211E+04; -1.1195939E-02;  0.0000000E+00;  1.5767013E-04;  1.4463167E+03;
  2.5168481E-01;  9.9999998E-03; -1.1997918E-01;3989; -4.6449066E-03;  0.0000000E+00; -2.3300496E-05;  9.9966058E+02;  1.0000000E-01; -2.8117725E+02;3;  3.5214359E-01;  0.0000000E+00;  5.3450692E-02;0; -1.1072382E-02;  3.9982617E+04;  0.0000000E+00;  2.9122481E-01;  4.0000000E+04;  0.0000000E+00;  3.9988746E+04; -1.1245719E-02;  0.0000000E+00;  1.7333722E-04;  1.4645032E+03;
  2.5159729E-01;  9.9999998E-03; -1.0998496E-01;3990; -4.6985233E-03;  0.0000000E+00; -2.4217266E-05;  9.9973920E+02;  1.0000000E-01; -2.1609265E+02;3;  3.5245788E-01;  0.0000000E+00;  5.0394539E-02;0; -1.1116764E-02;  3.9989070E+04;  0.0000000E+00;  2.2544096E-01;  4.0000000E+04;  0.0000000E+00;  3.9988668E+04; -1.1297253E-02;  0.0000000E+00;  1.8048898E-04;  1.4750419E+03;
  2.6114112E-01;  9.9999998E-03; -2.7001363E-01;4035; -3.5195758E-03;  0.0000000E+00; -1.1772975E-04;  9.9875427E+02;  1.0000000E-01; -1.0320696E+03;3; -7.7793112E+00;  0.0000000E+00; -2.0593340E+00;0; -1.3476768E-02;  3.9905730E+04;  0.0000000E+00;  3.8534551E+00;  4.0000000E+04;  0.0000000E+00;  4.0006477E+04; -1.4260052E-02;  0.0000000E+00;  7.8328454E-04;  6.5514004E+03;
  2.6106116E-01;  9.9999998E-03; -2.6000771E-01;4036; -3.7008484E-03;  0.0000000E+00; -9.8694400E-05;  9.9892072E+02;  1.0000000E-01; -8.9414752E+02;3; -5.6722851E+00;  0.0000000E+00; -3.5695016E+00;0; -1.2884034E-02;  3.9917398E+04;  0.0000000E+00;  4.7295208E+00;  4.0000000E+04;  0.0000000E+00;  4.0007848E+04; -1.3355253E-02;  0.0000000E+00;  4.7121913E-04;  7.5306689E+03;
  2.6098427E-01;  9.9999998E-03; -2.4999447E-01;4037; -3.8238475E-03;  0.0000000E+00; -6.6345041E-05;  9.9898254E+02;  1.0000000E-01; -8.4293915E+02;3; -3.9985414E+00;  0.0000000E+00; -3.7895913E+00;0; -1.2403506E-02;  3.9919672E+04;  0.0000000E+00;  4.6132021E+00;  4.0000000E+04;  0.0000000E+00;  4.0008672E+04; -1.2557358E-02;  0.0000000E+00;  1.5385155E-04;  7.1458091E+03;
  2.6094791E-01;  9.9999998E-03; -2.3997249E-01;4038; -3.8825807E-03;  0.0000000E+00; -5.7702993E-05;  9.9897046E+02;  1.0000000E-01; -8.5296350E+02;3; -2.6486375E+00;  0.0000000E+00; -3.2319221E+00;0; -1.1862158E-02;  3.9915898E+04;  0.0000000E+00;  3.6265004E+00;  4.0000000E+04;  0.0000000E+00;  4.0008961E+04; -1.1906460E-02;  0.0000000E+00;  4.4301636E-05;  5.6079839E+03;
  2.6099375E-01;  9.9999998E-03; -2.2993223E-01;4039; -3.9065392E-03;  0.0000000E+00; -8.8004330E-05;  9.9895215E+02;  1.0000000E-01; -8.6812360E+02;3; -1.5634869E+00;  0.0000000E+00; -2.4167707E+00;0; -1.1354016E-02;  3.9910074E+04;  0.0000000E+00;  2.4209397E+00;  4.0000000E+04;  0.0000000E+00;  4.0010801E+04; -1.1425680E-02;  0.0000000E+00;  7.1664661E-05;  3.9151836E+03;
  2.6106533E-01;  9.9999998E-03; -2.1990430E-01;4040; -3.9239940E-03;  0.0000000E+00; -6.6587607E-05;  9.9889050E+02;  1.0000000E-01; -9.1918390E+02;3; -7.9932237E-01;  0.0000000E+00; -1.5196062E+00;0; -1.1133133E-02;  3.9906598E+04;  0.0000000E+00;  1.5526723E+00;  4.0000000E+04;  0.0000000E+00;  4.0007652E+04; -1.1108223E-02;  0.0000000E+00; -2.4908724E-05;  2.5495269E+03;
  2.6116106E-01;  9.9999998E-03; -2.0991483E-01;4041; -3.9505605E-03;  0.0000000E+00; -5.6498506E-05;  9.9883124E+02;  1.0000000E-01; -9.6831830E+02;3; -2.7824455E-01;  0.0000000E+00; -8.1772798E-01;0; -1.0975127E-02;  3.9906348E+04;  0.0000000E+00;  1.0169480E+00;  4.0000000E+04;  0.0000000E+00;  4.0000996E+04; -1.0923997E-02;  0.0000000E+00; -5.1130162E-05;  1.5343851E+03;
  2.6128787E-01;  9.9999998E-03; -1.9994326E-01;4042; -3.9931391E-03;  0.0000000E+00; -7.4967225E-05;  9.9883704E+02;  1.0000000E-01; -9.6347894E+02;3;  6.0528491E-02;  0.0000000E+00; -3.7249604E-01;0; -1.0865645E-02;  3.9909449E+04;  0.0000000E+00;  7.4978864E-01;  4.0000000E+04;  0.0000000E+00;  3.9996852E+04; -1.0837834E-02;  0.0000000E+00; -2.7810751E-05;  1.1368320E+03;
  2.6143521E-01;  9.9999998E-03; -1.8996890E-01;4043; -4.0558139E-03;  0.0000000E+00; -9.3486684E-05;  9.9890881E+02;  1.0000000E-01; -9.0402380E+02;3;  2.4919824E-01;  0.0000000E+00; -1.1468861E-01;0; -1.0812371E-02;  3.9916461E+04;  0.0000000E+00;  6.6350365E-01;  4.0000000E+04;  0.0000000E+00;  3.9995180E+04; -1.0817683E-02;  0.0000000E+00;  5.3119297E-06;  1.0840234E+03;
  2.6159137E-01;  9.9999998E-03; -1.7998239E-01;4044; -4.1396334E-03;  0.0000000E+00; -9.9390949E-05;  9.9902863E+02;  1.0000000E-01; -8.0476733E+02;3;  3.3504763E-01;  0.0000000E+00;  1.4638917E-02;0; -1.0788835E-02;  3.9926129E+04;  0.0000000E+00;  6.6183788E-01;  4.0000000E+04;  0.0000000E+00;  3.9994590E+04; -1.0835787E-02;  0.0000000E+00;  4.6953061E-05;  1.1238284E+03;
  2.6173872E-01;  9.9999998E-03; -1.6998260E-01;4045; -4.2426377E-03;  0.0000000E+00; -9.0783833E-05;  9.9917395E+02;  1.0000000E-01; -6.8437573E+02;3;  3.6432725E-01;  0.0000000E+00;  6.3976713E-02;0; -1.0774840E-02;  3.9938098E+04;  0.0000000E+00;  6.6555250E-01;  4.0000000E+04;  0.0000000E+00;  3.9993766E+04; -1.0870083E-02;  0.0000000E+00;  9.5243318E-05;  1.1770748E+03;
  2.6185176E-01;  9.9999998E-03; -1.5997568E-01;4046; -4.3584290E-03;  0.0000000E+00; -7.0703914E-05;  9.9932965E+02;  1.0000000E-01; -5.5539172E+02;3;  3.7027121E-01;  0.0000000E+00;  7.4375331E-02;0; -1.0762998E-02;  3.9951062E+04;  0.0000000E+00;  6.3061774E-01;  4.0000000E+04;  0.0000000E+00;  3.9992988E+04; -1.0905460E-02;  0.0000000E+00;  1.4246118E-04;  1.2101718E+03;
  2.6190221E-01;  9.9999998E-03; -1.4996983E-01;4047; -4.4765710E-03;  0.0000000E+00; -4.6214478E-05;  9.9948016E+02;  1.0000000E-01; -4.3065448E+02;3;  3.7073418E-01;  0.0000000E+00;  7.2622634E-02;0; -1.0754575E-02;  3.9964344E+04;  0.0000000E+00;  5.5342811E-01;  4.0000000E+04;  0.0000000E+00;  3.9992168E+04; -1.0934859E-02;  0.0000000E+00;  1.8028379E-04;  1.2227386E+03;
  2.6187474E-01;  9.9999998E-03; -1.3996673E-01;4048; -4.5843651E-03;  0.0000000E+00; -2.8208007E-05;  9.9961212E+02;  1.0000000E-01; -3.2137363E+02;3;  3.7096259E-01;  0.0000000E+00;  6.8411350E-02;0; -1.0754090E-02;  3.9976242E+04;  0.0000000E+00;  4.5473579E-01;  4.0000000E+04;  0.0000000E+00;  3.9991387E+04; -1.0958491E-02;  0.0000000E+00;  2.0440083E-04;  1.2322012E+03;
  2.6178768E-01;  9.9999998E-03; -1.2996738E-01;4049; -4.6736035E-03;  0.0000000E+00; -2.1347218E-05;  9.9972211E+02;  1.0000000E-01; -2.3021571E+02;3;  3.7175676E-01;  0.0000000E+00;  6.3276872E-02;0; -1.0765387E-02;  3.9985938E+04;  0.0000000E+00;  3.5491955E-01;  4.0000000E+04;  0.0000000E+00;  3.9991035E+04; -1.0980604E-02;  0.0000000E+00;  2.1521754E-04;  1.2464478E+03;
  2.6168466E-01;  9.9999998E-03; -1.1997319E-01;4050; -4.7422820E-03;  0.0000000E+00; -2.0942316E-05;  9.9979834E+02;  1.0000000E-01; -1.6705701E+02;3;  3.7219423E-01;  0.0000000E+00;  5.9396595E-02;0; -1.0790345E-02;  3.9992953E+04;  0.0000000E+00;  2.6695687E-01;  4.0000000E+04;  0.0000000E+00;  3.9990480E+04; -1.1006217E-02;  0.0000000E+00;  2.1587119E-04;  1.2621055E+03;
  2.6158649E-01;  9.9999998E-03; -1.0998136E-01;4051; -4.7903485E-03;  0.0000000E+00; -2.3514527E-05;  9.9984131E+02;  1.0000000E-01; -1.3145308E+02;3;  3.7232307E-01;  0.0000000E+00;  5.6313630E-02;0; -1.0829705E-02;  3.9997180E+04;  0.0000000E+00;  1.9645107E-01;  4.0000000E+04;  0.0000000E+00;  3.9990344E+04; -1.1040580E-02;  0.0000000E+00;  2.1087428E-04;  1.2722267E+03;
  2.7105585E-01;  9.9999998E-03; -2.7000237E-01;4096; -3.6892151E-03;  0.0000000E+00; -1.3329009E-04;  9.9908484E+02;  1.0000000E-01; -7.5820081E+02;3; -6.8642292E+00;  0.0000000E+00; -2.3282206E+00;0; -1.2526937E-02;  3.9932688E+04;  0.0000000E+00;  3.3084586E+00;  4.0000000E+04;  0.0000000E+00;  4.0007945E+04; -1.3393908E-02;  0.0000000E+00;  8.6697051E-04;  5.5545034E+03;
  2.7099830E-01;  9.9999998E-03; -2.5999540E-01;4097; -3.8399124E-03;  0.0000000E+00; -1.2114028E-04;  9.9909344E+02;  1.0000000E-01; -7.5104047E+02;3; -4.7769938E+00;  0.0000000E+00; -3.0407901E+00;0; -1.2058391E-02;  3.9930691E+04;  0.0000000E+00;  3.5828445E+00;  4.0000000E+04;  0.0000000E+00;  4.0009195E+04; -1.2639677E-02;  0.0000000E+00;  5.8128557E-04;  5.7652661E+03;
  2.7095419E-01;  9.9999998E-03; -2.4998245E-01;4098; -3.9334153E-03;  0.0000000E+00; -1.0624454E-04;  9.9905072E+02;  1.0000000E-01; -7.8644690E+02;3; -3.1758540E+00;  0.0000000E+00; -2.9180224E+00;0; -1.1662111E-02;  3.9923273E+04;  0.0000000E+00;  3.2106471E+00;  4.0000000E+04;  0.0000000E+00;  4.0010211E+04; -1.1998395E-02;  0.0000000E+00;  3.3628376E-04;  5.1193975E+03;
  2.7095336E-01;  9.9999998E-03; -2.3996004E-01;4099; -3.9832103E-03;  0.0000000E+00; -1.1296592E-04;  9.9898840E+02;  1.0000000E-01; -8.3809973E+02;3; -1.9494740E+00;  0.0000000E+00; -2.3525915E+00;0; -1.1242358E-02;  3.9914512E+04;  0.0000000E+00;  2.4120572E+00;  4.0000000E+04;  0.0000000E+00;  4.0011664E+04; -1.1498707E-02;  0.0000000E+00;  2.5634977E-04;  3.9823176E+03;
  2.7101618E-01;  9.9999998E-03; -2.2992267E-01;4100; -4.0111360E-03;  0.0000000E+00; -1.3426084E-04;  9.9894763E+02;  1.0000000E-01; -8.7187659E+02;3; -1.0393753E+00;  0.0000000E+00; -1.6604478E+00;0; -1.0918564E-02;  3.9907242E+04;  0.0000000E+00;  1.6464289E+00;  4.0000000E+04;  0.0000000E+00;  4.0013566E+04; -1.1144963E-02;  0.0000000E+00;  2.2639849E-04;  3.0643030E+03;
  2.7110747E-01;  9.9999998E-03; -2.1990335E-01;4101; -4.0389597E-03;  0.0000000E+00; -8.9529378E-05;  9.9888855E+02;  1.0000000E-01; -9.2081348E+02;3; -4.3619967E-01;  0.0000000E+00; -9.7731084E-01;0; -1.0851270E-02;  3.9904246E+04;  0.0000000E+00;  1.1655478E+00;  4.0000000E+04;  0.0000000E+00;  4.0009188E+04; -1.0923152E-02;  0.0000000E+00;  7.1882008E-05;  2.1769861E+03;
  2.7122891E-01;  9.9999998E-03; -2.0991749E-01;4102; -4.0753367E-03;  0.0000000E+00; -7.0451111E-05;  9.9885370E+02;  1.0000000E-01; -9.4970154E+02;3; -4.2486250E-02;  0.0000000E+00; -4.8000574E-01;0; -1.0761040E-02;  3.9906309E+04;  0.0000000E+00;  9.1525680E-01;  4.0000000E+04;  0.0000000E+00;  4.0003289E+04; -1.0804690E-02;  0.0000000E+00;  4.3650358E-05;  1.4529316E+03;
  2.7137229E-01;  9.9999998E-03; -1.9994280E-01;4103; -4.1255862E-03;  0.0000000E+00; -8.2906990E-05;  9.9890533E+02;  1.0000000E-01; -9.0688794E+02;3;  1.9790877E-01;  0.0000000E+00; -1.7751002E-01;0; -1.0685634E-02;  3.9912707E+04;  0.0000000E+00;  8.2152039E-01;  4.0000000E+04;  0.0000000E+00;  3.9999230E+04; -1.0759138E-02;  0.0000000E+00;  7.3503266E-05;  1.1996981E+03;
  2.7152357E-01;  9.9999998E-03; -1.8996164E-01;4104; -4.1939835E-03;  0.0000000E+00; -9.4157753E-05;  9.9903009E+02;  1.0000000E-01; -8.0353284E+02;3;  3.2187298E-01;  0.0000000E+00; -1.1487277E-02;0; -1.0648035E-02;  3.9923730E+04;  0.0000000E+00;  8.0338967E-01;  4.0000000E+04;  0.0000000E+00;  3.9997789E+04; -1.0758422E-02;  0.0000000E+00;  1.1038763E-04;  1.1711837E+03;
  2.7166563E-01;  9.9999998E-03; -1.7996956E-01;4105; -4.2815185E-03;  0.0000000E+00; -9.2047085E-05;  9.9920410E+02;  1.0000000E-01; -6.5938873E+02;3;  3.7332842E-01;  0.0000000E+00;  6.2732682E-02;0; -1.0627159E-02;  3.9937855E+04;  0.0000000E+00;  7.9269207E-01;  4.0000000E+04;  0.0000000E+00;  3.9997137E+04; -1.0778639E-02;  0.0000000E+00;  1.5148078E-04;  1.1736268E+03;
  2.7178133E-01;  9.9999998E-03; -1.6996852E-01;4106; -4.3852697E-03;  0.0000000E+00; -7.6315060E-05;  9.9939044E+02;  1.0000000E-01; -5.0502277E+02;3;  3.8867655E-01;  0.0000000E+00;  8.4775545E-02;0; -1.0607847E-02;  3.9953531E+04;  0.0000000E+00;  7.4606955E-01;  4.0000000E+04;  0.0000000E+00;  3.9996383E+04; -1.0802014E-02;  0.0000000E+00;  1.9416674E-04;  1.1453403E+03;
  2.7185383E-01;  9.9999998E-03; -1.5996547E-01;4107; -4.4979742E-03;  0.0000000E+00; -5.2290652E-05;  9.9957452E+02;  1.0000000E-01; -3.5248386E+02;3;  3.9087459E-01;  0.0000000E+00;  8.6179167E-02;0; -1.0587215E-02;  3.9969613E+04;  0.0000000E+00;  6.5310216E-01;  4.0000000E+04;  0.0000000E+00;  3.9994895E+04; -1.0818201E-02;  0.0000000E+00;  2.3098584E-04;  1.0868306E+03;
  2.7187368E-01;  9.9999998E-03; -1.4996567E-01;4108; -4.6082153E-03;  0.0000000E+00; -3.0644213E-05;  9.9974109E+02;  1.0000000E-01; -2.1451245E+02;3;  3.9121404E-01;  0.0000000E+00;  8.1887662E-02;0; -1.0569463E-02;  3.9984145E+04;  0.0000000E+00;  5.3130448E-01;  4.0000000E+04;  0.0000000E+00;  3.9993973E+04; -1.0824793E-02;  0.0000000E+00;  2.5532936E-04;  1.0329143E+03;
  2.7183500E-01;  9.9999998E-03; -1.3996796E-01;4109; -4.7060242E-03;  0.0000000E+00; -1.9046933E-05;  9.9987122E+02;  1.0000000E-01; -1.0671303E+02;3;  3.9226577E-01;  0.0000000E+00;  7.5267047E-02;0; -1.0560577E-02;  3.9996184E+04;  0.0000000E+00;  4.0564448E-01;  4.0000000E+04;  0.0000000E+00;  3.9993211E+04; -1.0825647E-02;  0.0000000E+00;  2.6507041E-04;  1.0125232E+03;
  2.7175406E-01;  9.9999998E-03; -1.2997176E-01;4110; -4.7864830E-03;  0.0000000E+00; -1.6029766E-05;  9.9995691E+02;  1.0000000E-01; -3.5702694E+01;3;  3.9288893E-01;  0.0000000E+00;  7.0147052E-02;0; -1.0565066E-02;  4.0004148E+04;  0.0000000E+00;  2.9300880E-01;  4.0000000E+04;  0.0000000E+00;  3.9992422E+04; -1.0827406E-02;  0.0000000E+00;  2.6234053E-04;  1.0235766E+03;
  2.7165860E-01;  9.9999998E-03; -1.1997769E-01;4111; -4.8483079E-03;  0.0000000E+00; -1.7303128E-05;  1.0000039E+03;  1.0000000E-01;  3.2591672E+00;3;  3.9314047E-01;  0.0000000E+00;  6.6182010E-02;0; -1.0585933E-02;  4.0008555E+04;  0.0000000E+00;  2.0238356E-01;  4.0000000E+04;  0.0000000E+00;  3.9991902E+04; -1.0837324E-02;  0.0000000E+00;  2.5139080E-04;  1.0458772E+03;
  2.7157322E-01;  9.9999998E-03; -1.0998470E-01;4112; -4.8914766E-03;  0.0000000E+00; -2.1098058E-05;  1.0000060E+03;  1.0000000E-01;  4.9381318E+00;3;  3.9307174E-01;  0.0000000E+00;  6.2668599E-02;0; -1.0624541E-02;  4.0009191E+04;  0.0000000E+00;  1.3568673E-01;  4.0000000E+04;  0.0000000E+00;  3.9991512E+04; -1.0862015E-02;  0.0000000E+00;  2.3747415E-04;  1.0596962E+03;
  2.8095415E-01;  9.9999998E-03; -2.6999512E-01;4157; -3.8569949E-03;  0.0000000E+00; -1.3362421E-04;  9.9928802E+02;  1.0000000E-01; -5.8985986E+02;3; -5.3664541E+00;  0.0000000E+00; -2.0978661E+00;0; -1.1752961E-02;  3.9949074E+04;  0.0000000E+00;  2.8463271E+00;  4.0000000E+04;  0.0000000E+00;  4.0008148E+04; -1.2552610E-02;  0.0000000E+00;  7.9964858E-04;  4.6953169E+03;
  2.8092435E-01;  9.9999998E-03; -2.5998837E-01;4158; -3.9728084E-03;  0.0000000E+00; -1.3234581E-04;  9.9919507E+02;  1.0000000E-01; -6.6689471E+02;3; -3.5737245E+00;  0.0000000E+00; -2.3081741E+00;0; -1.1345027E-02;  3.9938359E+04;  0.0000000E+00;  2.5765369E+00;  4.0000000E+04;  0.0000000E+00;  4.0009824E+04; -1.1955876E-02;  0.0000000E+00;  6.1084918E-04;  4.2381787E+03;
  2.8092813E-01;  9.9999998E-03; -2.4997687E-01;4159; -4.0470245E-03;  0.0000000E+00; -1.2989971E-04;  9.9908783E+02;  1.0000000E-01; -7.5573169E+02;3; -2.2333040E+00;  0.0000000E+00; -2.0290318E+00;0; -1.1038301E-02;  3.9925805E+04;  0.0000000E+00;  1.9992342E+00;  4.0000000E+04;  0.0000000E+00;  4.0010922E+04; -1.1474437E-02;  0.0000000E+00;  4.3613627E-04;  3.4277720E+03;
  2.8097966E-01;  9.9999998E-03; -2.3995732E-01;4160; -4.0938491E-03;  0.0000000E+00; -1.4544738E-04;  9.9900824E+02;  1.0000000E-01; -8.2165576E+02;3; -1.2503918E+00;  0.0000000E+00; -1.5278133E+00;0; -1.0736728E-02;  3.9915223E+04;  0.0000000E+00;  1.4185131E+00;  4.0000000E+04;  0.0000000E+00;  4.0012621E+04; -1.1118236E-02;  0.0000000E+00;  3.8150800E-04;  2.7489387E+03;
  2.8107628E-01;  9.9999998E-03; -2.2992700E-01;4161; -4.1291146E-03;  0.0000000E+00; -1.5886572E-04;  9.9897723E+02;  1.0000000E-01; -8.4733405E+02;3; -5.5995649E-01;  0.0000000E+00; -9.9875820E-01;0; -1.0566492E-02;  3.9909070E+04;  0.0000000E+00;  1.0472784E+00;  4.0000000E+04;  0.0000000E+00;  4.0014098E+04; -1.0881106E-02;  0.0000000E+00;  3.1461444E-04;  2.4486768E+03;
  2.8118259E-01;  9.9999998E-03; -2.1991605E-01;4162; -4.1675433E-03;  0.0000000E+00; -1.0846769E-04;  9.9894336E+02;  1.0000000E-01; -8.7538263E+02;3; -1.2011564E-01;  0.0000000E+00; -5.3511333E-01;0; -1.0599648E-02;  3.9908465E+04;  0.0000000E+00;  8.9454460E-01;  4.0000000E+04;  0.0000000E+00;  4.0010086E+04; -1.0745680E-02;  0.0000000E+00;  1.4603256E-04;  1.9060415E+03;
  2.8131253E-01;  9.9999998E-03; -2.0993160E-01;4163; -4.2136498E-03;  0.0000000E+00; -8.7057932E-05;  9.9896307E+02;  1.0000000E-01; -8.5908679E+02;3;  1.5233560E-01;  0.0000000E+00; -2.1577159E-01;0; -1.0564400E-02;  3.9913910E+04;  0.0000000E+00;  8.5439628E-01;  4.0000000E+04;  0.0000000E+00;  4.0004352E+04; -1.0685806E-02;  0.0000000E+00;  1.2140598E-04;  1.4282742E+03;
  2.8145152E-01;  9.9999998E-03; -1.9995302E-01;4164; -4.2713843E-03;  0.0000000E+00; -9.2817689E-05;  9.9906854E+02;  1.0000000E-01; -7.7168188E+02;3;  3.0687511E-01;  0.0000000E+00; -3.0824356E-02;0; -1.0522195E-02;  3.9924754E+04;  0.0000000E+00;  8.6136734E-01;  4.0000000E+04;  0.0000000E+00;  4.0000941E+04; -1.0675595E-02;  0.0000000E+00;  1.5339971E-04;  1.2815223E+03;
  2.8158334E-01;  9.9999998E-03; -1.8996771E-01;4165; -4.3445732E-03;  0.0000000E+00; -9.5473784E-05;  9.9924866E+02;  1.0000000E-01; -6.2245154E+02;3;  3.7931848E-01;  0.0000000E+00;  6.2163450E-02;0; -1.0499802E-02;  3.9939586E+04;  0.0000000E+00;  8.6017096E-01;  4.0000000E+04;  0.0000000E+00;  3.9999781E+04; -1.0691279E-02;  0.0000000E+00;  1.9147585E-04;  1.2420280E+03;
  2.8169334E-01;  9.9999998E-03; -1.7997219E-01;4166; -4.4343094E-03;  0.0000000E+00; -8.4443302E-05;  9.9946307E+02;  1.0000000E-01; -4.4482693E+02;3;  4.0575725E-01;  0.0000000E+00;  9.6313551E-02;0; -1.0482196E-02;  3.9957305E+04;  0.0000000E+00;  8.1601733E-01;  4.0000000E+04;  0.0000000E+00;  3.9998984E+04; -1.0713406E-02;  0.0000000E+00;  2.3121029E-04;  1.1716404E+03;
  2.8176340E-01;  9.9999998E-03; -1.6997120E-01;4167; -4.5363531E-03;  0.0000000E+00; -6.2703628E-05;  9.9968164E+02;  1.0000000E-01; -2.6374564E+02;3;  4.1168302E-01;  0.0000000E+00;  1.0213036E-01;0; -1.0460039E-02;  3.9976039E+04;  0.0000000E+00;  7.1921420E-01;  4.0000000E+04;  0.0000000E+00;  3.9998344E+04; -1.0728868E-02;  0.0000000E+00;  2.6882938E-04;  1.0482469E+03;
  2.8179520E-01;  9.9999998E-03; -1.5997089E-01;4168; -4.6426742E-03;  0.0000000E+00; -3.8574039E-05;  9.9988257E+02;  1.0000000E-01; -9.7281197E+01;3;  4.1256303E-01;  0.0000000E+00;  9.8003887E-02;0; -1.0434884E-02;  3.9993445E+04;  0.0000000E+00;  5.8448184E-01;  4.0000000E+04;  0.0000000E+00;  3.9997055E+04; -1.0731874E-02;  0.0000000E+00;  2.9699053E-04;  9.1003113E+02;
  2.8178981E-01;  9.9999998E-03; -1.4997412E-01;4169; -4.7433986E-03;  0.0000000E+00; -2.1050073E-05;  1.0000441E+03;  1.0000000E-01;  3.6542175E+01;3;  4.1359136E-01;  0.0000000E+00;  9.0176791E-02;0; -1.0413300E-02;  4.0008262E+04;  0.0000000E+00;  4.3898669E-01;  4.0000000E+04;  0.0000000E+00;  3.9995957E+04; -1.0723870E-02;  0.0000000E+00;  3.1056965E-04;  8.1597546E+02;
  2.8174722E-01;  9.9999998E-03; -1.3997817E-01;4170; -4.8315981E-03;  0.0000000E+00; -1.3129075E-05;  1.0001635E+03;  1.0000000E-01;  1.3540358E+02;3;  4.1454479E-01;  0.0000000E+00;  8.3125934E-02;0; -1.0401797E-02;  4.0018992E+04;  0.0000000E+00;  3.0430657E-01;  4.0000000E+04;  0.0000000E+00;  3.9994984E+04; -1.0711173E-02;  0.0000000E+00;  3.0937622E-04;  7.9493787E+02;
  2.8167710E-01;  9.9999998E-03; -1.2998176E-01;4171; -4.9038650E-03;  0.0000000E+00; -1.2022725E-05;  1.0002211E+03;  1.0000000E-01;  1.8310593E+02;3;  4.1505665E-01;  0.0000000E+00;  7.7615559E-02;0; -1.0405179E-02;  4.0024797E+04;  0.0000000E+00;  1.9306153E-01;  4.0000000E+04;  0.0000000E+00;  3.9993938E+04; -1.0702082E-02;  0.0000000E+00;  2.9690296E-04;  8.2510919E+02;
  2.8160280E-01;  9.9999998E-03; -1.1998618E-01;4172; -4.9595837E-03;  0.0000000E+00; -1.4280939E-05;  1.0002279E+03;  1.0000000E-01;  1.8883417E+02;3;  4.1497847E-01;  0.0000000E+00;  7.3499277E-02;0; -1.0426683E-02;  4.0025941E+04;  0.0000000E+00;  1.1044666E-01;  4.0000000E+04;  0.0000000E+00;  3.9993250E+04; -1.0704916E-02;  0.0000000E+00;  2.7823230E-04;  8.6402710E+02;
  2.8153914E-01;  9.9999998E-03; -1.0999023E-01;4173; -4.9989675E-03;  0.0000000E+00; -1.8883016E-05;  1.0001886E+03;  1.0000000E-01;  1.5624249E+02;3;  4.1482911E-01;  0.0000000E+00;  6.9675058E-02;0; -1.0468274E-02;  4.0023117E+04;  0.0000000E+00;  5.5432595E-02;  4.0000000E+04;  0.0000000E+00;  3.9992918E+04; -1.0727235E-02;  0.0000000E+00;  2.5896059E-04;  8.8160394E+02;
  2.9087132E-01;  9.9999998E-03; -2.6999095E-01;4218; -4.0060035E-03;  0.0000000E+00; -1.2970556E-04;  9.9934473E+02;  1.0000000E-01; -5.4289825E+02;3; -3.6686139E+00;  0.0000000E+00; -1.5867764E+00;0; -1.1045951E-02;  3.9953406E+04;  0.0000000E+00;  1.9888330E+00;  4.0000000E+04;  0.0000000E+00;  4.0008164E+04; -1.1737896E-02;  0.0000000E+00;  6.9194508E-04;  3.3535303E+03;
  2.9089046E-01;  9.9999998E-03; -2.5998512E-01;4219; -4.0941848E-03;  0.0000000E+00; -1.3424813E-04;  9.9920618E+02;  1.0000000E-01; -6.5766040E+02;3; -2.3118918E+00;  0.0000000E+00; -1.5370865E+00;0; -1.0734089E-02;  3.9938883E+04;  0.0000000E+00;  1.4376647E+00;  4.0000000E+04;  0.0000000E+00;  4.0009789E+04; -1.1302112E-02;  0.0000000E+00;  5.6802266E-04;  2.6390103E+03;
  2.9096553E-01;  9.9999998E-03; -2.4997607E-01;4220; -4.1580871E-03;  0.0000000E+00; -1.3673872E-04;  9.9908337E+02;  1.0000000E-01; -7.5938593E+02;3; -1.3222599E+00;  0.0000000E+00; -1.2325612E+00;0; -1.0536657E-02;  3.9925527E+04;  0.0000000E+00;  9.1975379E-01;  4.0000000E+04;  0.0000000E+00;  4.0010875E+04; -1.0971048E-02;  0.0000000E+00;  4.3439088E-04;  2.0900469E+03;
  2.9105297E-01;  9.9999998E-03; -2.3996152E-01;4221; -4.2070928E-03;  0.0000000E+00; -1.5423240E-04;  9.9902399E+02;  1.0000000E-01; -8.0861908E+02;3; -6.2588048E-01;  0.0000000E+00; -8.4742033E-01;0; -1.0346921E-02;  3.9917023E+04;  0.0000000E+00;  7.2314215E-01;  4.0000000E+04;  0.0000000E+00;  4.0012246E+04; -1.0744152E-02;  0.0000000E+00;  3.9723059E-04;  1.9941270E+03;
  2.9114887E-01;  9.9999998E-03; -2.2994022E-01;4222; -4.2517968E-03;  0.0000000E+00; -1.6523934E-04;  9.9902979E+02;  1.0000000E-01; -8.0382910E+02;3; -1.5781367E-01;  0.0000000E+00; -4.8853517E-01;0; -1.0276568E-02;  3.9914289E+04;  0.0000000E+00;  7.0302987E-01;  4.0000000E+04;  0.0000000E+00;  4.0013246E+04; -1.0608933E-02;  0.0000000E+00;  3.3236481E-04;  2.0489878E+03;
  2.9125789E-01;  9.9999998E-03; -2.1993566E-01;4223; -4.3008863E-03;  0.0000000E+00; -1.2527405E-04;  9.9904926E+02;  1.0000000E-01; -7.8768140E+02;3;  1.3184537E-01;  0.0000000E+00; -2.0962246E-01;0; -1.0353785E-02;  3.9917602E+04;  0.0000000E+00;  7.5588059E-01;  4.0000000E+04;  0.0000000E+00;  4.0009668E+04; -1.0546685E-02;  0.0000000E+00;  1.9289977E-04;  1.7193025E+03;
  2.9137760E-01;  9.9999998E-03; -2.0995148E-01;4224; -4.3565184E-03;  0.0000000E+00; -1.0486747E-04;  9.9912897E+02;  1.0000000E-01; -7.2165863E+02;3;  3.0045146E-01;  0.0000000E+00; -2.8237600E-02;0; -1.0362618E-02;  3.9926980E+04;  0.0000000E+00;  8.1946182E-01;  4.0000000E+04;  0.0000000E+00;  4.0005578E+04; -1.0535571E-02;  0.0000000E+00;  1.7295266E-04;  1.4103680E+03;
  2.9149574E-01;  9.9999998E-03; -1.9997022E-01;4225; -4.4212928E-03;  0.0000000E+00; -1.0413511E-04;  9.9928906E+02;  1.0000000E-01; -5.8902039E+02;3;  3.8733360E-01;  0.0000000E+00;  6.9414839E-02;0; -1.0350122E-02;  3.9941570E+04;  0.0000000E+00;  8.5095000E-01;  4.0000000E+04;  0.0000000E+00;  4.0002879E+04; -1.0554166E-02;  0.0000000E+00;  2.0404329E-04;  1.3015763E+03;
  2.9160130E-01;  9.9999998E-03; -1.8998083E-01;4226; -4.4987053E-03;  0.0000000E+00; -9.7848497E-05;  9.9951257E+02;  1.0000000E-01; -4.0384042E+02;3;  4.2315042E-01;  0.0000000E+00;  1.1084146E-01;0; -1.0341345E-02;  3.9960105E+04;  0.0000000E+00;  8.2521200E-01;  4.0000000E+04;  0.0000000E+00;  4.0001805E+04; -1.0583196E-02;  0.0000000E+00;  2.4185042E-04;  1.2139087E+03;
  2.9167008E-01;  9.9999998E-03; -1.7998426E-01;4227; -4.5889779E-03;  0.0000000E+00; -7.9230762E-05;  9.9975525E+02;  1.0000000E-01; -2.0275970E+02;3;  4.3350759E-01;  0.0000000E+00;  1.2060024E-01;0; -1.0327335E-02;  3.9980430E+04;  0.0000000E+00;  7.3756611E-01;  4.0000000E+04;  0.0000000E+00;  4.0000871E+04; -1.0607971E-02;  0.0000000E+00;  2.8063517E-04;  1.0626648E+03;
  2.9169825E-01;  9.9999998E-03; -1.6998337E-01;4228; -4.6872068E-03;  0.0000000E+00; -5.4403474E-05;  9.9998987E+02;  1.0000000E-01; -8.3948240E+00;3;  4.3513012E-01;  0.0000000E+00;  1.1680212E-01;0; -1.0304875E-02;  4.0000316E+04;  0.0000000E+00;  6.0269266E-01;  4.0000000E+04;  0.0000000E+00;  3.9999699E+04; -1.0619742E-02;  0.0000000E+00;  3.1486669E-04;  8.6455707E+02;
  2.9169863E-01;  9.9999998E-03; -1.5998456E-01;4229; -4.7855871E-03;  0.0000000E+00; -3.1649943E-05;  1.0001926E+03;  1.0000000E-01;  1.5950166E+02;3;  4.3575689E-01;  0.0000000E+00;  1.0946214E-01;0; -1.0279478E-02;  4.0017863E+04;  0.0000000E+00;  4.4807404E-01;  4.0000000E+04;  0.0000000E+00;  3.9998195E+04; -1.0616519E-02;  0.0000000E+00;  3.3704177E-04;  6.8581635E+02;
  2.9167643E-01;  9.9999998E-03; -1.4998817E-01;4230; -4.8769214E-03;  0.0000000E+00; -1.6874596E-05;  1.0003417E+03;  1.0000000E-01;  2.8315250E+02;3;  4.3682045E-01;  0.0000000E+00;  1.0039644E-01;0; -1.0258977E-02;  4.0031844E+04;  0.0000000E+00;  2.9937866E-01;  4.0000000E+04;  0.0000000E+00;  3.9996758E+04; -1.0602405E-02;  0.0000000E+00;  3.4342770E-04;  6.0146198E+02;
  2.9163200E-01;  9.9999998E-03; -1.3999210E-01;4231; -4.9562566E-03;  0.0000000E+00; -1.0687152E-05;  1.0004276E+03;  1.0000000E-01;  3.5426160E+02;3;  4.3777567E-01;  0.0000000E+00;  9.2074640E-02;0; -1.0249697E-02;  4.0040512E+04;  0.0000000E+00;  1.7202525E-01;  4.0000000E+04;  0.0000000E+00;  3.9995684E+04; -1.0585085E-02;  0.0000000E+00;  3.3538876E-04;  6.2648267E+02;
  2.9157463E-01;  9.9999998E-03; -1.2999499E-01;4232; -5.0211879E-03;  0.0000000E+00; -1.0633030E-05;  1.0004584E+03;  1.0000000E-01;  3.7984109E+02;3;  4.3813962E-01;  0.0000000E+00;  8.5969202E-02;0; -1.0256177E-02;  4.0043629E+04;  0.0000000E+00;  7.4573107E-02;  4.0000000E+04;  0.0000000E+00;  3.9994512E+04; -1.0573616E-02;  0.0000000E+00;  3.1743909E-04;  6.9831897E+02;
  2.9151937E-01;  9.9999998E-03; -1.1999693E-01;4233; -5.0717290E-03;  0.0000000E+00; -1.3700183E-05;  1.0004276E+03;  1.0000000E-01;  3.5426160E+02;3;  4.3784940E-01;  0.0000000E+00;  8.1535630E-02;0; -1.0281757E-02;  4.0042066E+04;  0.0000000E+00;  8.9378208E-03;  4.0000000E+04;  0.0000000E+00;  3.9994227E+04; -1.0576929E-02;  0.0000000E+00;  2.9517268E-04;  7.5460254E+02;
  2.9147542E-01;  9.9999998E-03; -1.0999675E-01;4234; -5.1087271E-03;  0.0000000E+00; -1.8716481E-05;  1.0003539E+03;  1.0000000E-01;  2.9322629E+02;3;  4.3795383E-01;  0.0000000E+00;  7.6423407E-02;0; -1.0328561E-02;  4.0036184E+04;  0.0000000E+00; -2.8163116E-02;  4.0000000E+04;  0.0000000E+00;  3.9994289E+04; -1.0602820E-02;  0.0000000E+00;  2.7425896E-04;  7.6726691E+02;
  3.0085161E-01;  9.9999998E-03; -2.6998922E-01;4279; -4.1272268E-03;  0.0000000E+00; -1.2128043E-04;  9.9928741E+02;  1.0000000E-01; -5.9035370E+02;3; -2.1127577E+00;  0.0000000E+00; -9.9003744E-01;0; -1.0416413E-02;  3.9947453E+04;  0.0000000E+00;  8.0654204E-01;  4.0000000E+04;  0.0000000E+00;  4.0009266E+04; -1.0964086E-02;  0.0000000E+00;  5.4767320E-04;  1.7832390E+03;
  3.0089372E-01;  9.9999998E-03; -2.5998506E-01;4280; -4.1976068E-03;  0.0000000E+00; -1.2665428E-04;  9.9916125E+02;  1.0000000E-01; -6.9489392E+02;3; -1.2146416E+00;  0.0000000E+00; -8.5515738E-01;0; -1.0233168E-02;  3.9934262E+04;  0.0000000E+00;  5.6967920E-01;  4.0000000E+04;  0.0000000E+00;  4.0010203E+04; -1.0682494E-02;  0.0000000E+00;  4.4932589E-04;  1.6396437E+03;
  3.0100134E-01;  9.9999998E-03; -2.4997927E-01;4281; -4.2591486E-03;  0.0000000E+00; -1.3122470E-04;  9.9907190E+02;  1.0000000E-01; -7.6891650E+02;3; -5.7310849E-01;  0.0000000E+00; -6.1277157E-01;0; -1.0133410E-02;  3.9924203E+04;  0.0000000E+00;  3.8805568E-01;  4.0000000E+04;  0.0000000E+00;  4.0011086E+04; -1.0484704E-02;  0.0000000E+00;  3.5129386E-04;  1.5738604E+03;
  3.0110839E-01;  9.9999998E-03; -2.3997039E-01;4282; -4.3154885E-03;  0.0000000E+00; -1.4735361E-04;  9.9904663E+02;  1.0000000E-01; -7.8985419E+02;3; -1.3546510E-01;  0.0000000E+00; -3.5644516E-01;0; -1.0035385E-02;  3.9919801E+04;  0.0000000E+00;  4.4297141E-01;  4.0000000E+04;  0.0000000E+00;  4.0011695E+04; -1.0365683E-02;  0.0000000E+00;  3.3029701E-04;  1.6621991E+03;
  3.0120936E-01;  9.9999998E-03; -2.2995795E-01;4283; -4.3712589E-03;  0.0000000E+00; -1.5987091E-04;  9.9909491E+02;  1.0000000E-01; -7.4985535E+02;3;  1.4660345E-01;  0.0000000E+00; -1.4195499E-01;0; -1.0018832E-02;  3.9921355E+04;  0.0000000E+00;  5.7885104E-01;  4.0000000E+04;  0.0000000E+00;  4.0011703E+04; -1.0312124E-02;  0.0000000E+00;  2.9329225E-04;  1.7663213E+03;
  3.0130935E-01;  9.9999998E-03; -2.1995893E-01;4284; -4.4310400E-03;  0.0000000E+00; -1.3428483E-04;  9.9917389E+02;  1.0000000E-01; -6.8442511E+02;3;  3.1358773E-01;  0.0000000E+00;  7.1718534E-03;0; -1.0108916E-02;  3.9929102E+04;  0.0000000E+00;  7.0416439E-01;  4.0000000E+04;  0.0000000E+00;  4.0009039E+04; -1.0307528E-02;  0.0000000E+00;  1.9861179E-04;  1.5576313E+03;
  3.0141070E-01;  9.9999998E-03; -2.0997491E-01;4285; -4.4957027E-03;  0.0000000E+00; -1.1921595E-04;  9.9931268E+02;  1.0000000E-01; -5.6941602E+02;3;  4.0320715E-01;  0.0000000E+00;  9.2977494E-02;0; -1.0144284E-02;  3.9942449E+04;  0.0000000E+00;  7.7638775E-01;  4.0000000E+04;  0.0000000E+00;  4.0005457E+04; -1.0333988E-02;  0.0000000E+00;  1.8970402E-04;  1.3422944E+03;
  3.0150414E-01;  9.9999998E-03; -1.9999012E-01;4286; -4.5669242E-03;  0.0000000E+00; -1.1434271E-04;  9.9952252E+02;  1.0000000E-01; -3.9559375E+02;3;  4.4325051E-01;  0.0000000E+00;  1.3346766E-01;0; -1.0154098E-02;  3.9960219E+04;  0.0000000E+00;  7.7794451E-01;  4.0000000E+04;  0.0000000E+00;  4.0003754E+04; -1.0374472E-02;  0.0000000E+00;  2.2037375E-04;  1.2224307E+03;
  3.0157346E-01;  9.9999998E-03; -1.8999779E-01;4287; -4.6476959E-03;  0.0000000E+00; -1.0086335E-04;  9.9977496E+02;  1.0000000E-01; -1.8641447E+02;3;  4.5653030E-01;  0.0000000E+00;  1.4334908E-01;0; -1.0156356E-02;  3.9981047E+04;  0.0000000E+00;  7.0811272E-01;  4.0000000E+04;  0.0000000E+00;  4.0002184E+04; -1.0414347E-02;  0.0000000E+00;  2.5799117E-04;  1.0699834E+03;
  3.0160588E-01;  9.9999998E-03; -1.8000031E-01;4288; -4.7371536E-03;  0.0000000E+00; -7.7882534E-05;  1.0000323E+03;  1.0000000E-01;  2.6764675E+01;3;  4.5907277E-01;  0.0000000E+00;  1.3978723E-01;0; -1.0146093E-02;  4.0002500E+04;  0.0000000E+00;  5.8276868E-01;  4.0000000E+04;  0.0000000E+00;  4.0000961E+04; -1.0443169E-02;  0.0000000E+00;  2.9707653E-04;  8.5157440E+02;
  3.0160496E-01;  9.9999998E-03; -1.6999942E-01;4289; -4.8303069E-03;  0.0000000E+00; -5.2505795E-05;  1.0002628E+03;  1.0000000E-01;  2.1777162E+02;3;  4.5933059E-01;  0.0000000E+00;  1.3174334E-01;0; -1.0125922E-02;  4.0022738E+04;  0.0000000E+00;  4.2934331E-01;  4.0000000E+04;  0.0000000E+00;  3.9999684E+04; -1.0455922E-02;  0.0000000E+00;  3.3000007E-04;  6.1371344E+02;
  3.0158442E-01;  9.9999998E-03; -1.6000019E-01;4290; -4.9209115E-03;  0.0000000E+00; -3.1239520E-05;  1.0004504E+03;  1.0000000E-01;  3.7312524E+02;3;  4.6004534E-01;  0.0000000E+00;  1.2275713E-01;0; -1.0103994E-02;  4.0039465E+04;  0.0000000E+00;  2.7583969E-01;  4.0000000E+04;  0.0000000E+00;  3.9998746E+04; -1.0453297E-02;  0.0000000E+00;  3.4930292E-04;  4.5058524E+02;
  3.0155155E-01;  9.9999998E-03; -1.5000333E-01;4291; -5.0036074E-03;  0.0000000E+00; -1.8057410E-05;  1.0005800E+03;  1.0000000E-01;  4.8048022E+02;3;  4.6115425E-01;  0.0000000E+00;  1.1181680E-01;0; -1.0088226E-02;  4.0051531E+04;  0.0000000E+00;  1.4015639E-01;  4.0000000E+04;  0.0000000E+00;  3.9997098E+04; -1.0440711E-02;  0.0000000E+00;  3.5248557E-04;  4.5457700E+02;
  3.0150944E-01;  9.9999998E-03; -1.4000610E-01;4292; -5.0750398E-03;  0.0000000E+00; -1.2859855E-05;  1.0006390E+03;  1.0000000E-01;  5.2946649E+02;3;  4.6197098E-01;  0.0000000E+00;  1.0258234E-01;0; -1.0084376E-02;  4.0057664E+04;  0.0000000E+00;  3.2767698E-02;  4.0000000E+04;  0.0000000E+00;  3.9995941E+04; -1.0426380E-02;  0.0000000E+00;  3.4200365E-04;  5.6635822E+02;
  3.0146635E-01;  9.9999998E-03; -1.3000727E-01;4293; -5.1339371E-03;  0.0000000E+00; -1.3329063E-05;  1.0006356E+03;  1.0000000E-01;  5.2650360E+02;3;  4.6234033E-01;  0.0000000E+00;  9.5346086E-02;0; -1.0096503E-02;  4.0058434E+04;  0.0000000E+00; -4.1627049E-02;  4.0000000E+04;  0.0000000E+00;  3.9994871E+04; -1.0419501E-02;  0.0000000E+00;  3.2299719E-04;  6.7381586E+02;
  3.0143145E-01;  9.9999998E-03; -1.2000662E-01;4294; -5.1807500E-03;  0.0000000E+00; -1.6905373E-05;  1.0005769E+03;  1.0000000E-01;  4.7791241E+02;3;  4.6190590E-01;  0.0000000E+00;  9.0107672E-02;0; -1.0127731E-02;  4.0054539E+04;  0.0000000E+00; -8.4003419E-02;  4.0000000E+04;  0.0000000E+00;  3.9994621E+04; -1.0429028E-02;  0.0000000E+00;  3.0129822E-04;  7.2866656E+02;
  3.0141172E-01;  9.9999998E-03; -1.1000366E-01;4295; -5.2170614E-03;  0.0000000E+00; -2.1647915E-05;  1.0004794E+03;  1.0000000E-01;  3.9722333E+02;3;  4.6188167E-01;  0.0000000E+00;  8.4729858E-02;0; -1.0179997E-02;  4.0046156E+04;  0.0000000E+00; -9.9473573E-02;  4.0000000E+04;  0.0000000E+00;  3.9994727E+04; -1.0462394E-02;  0.0000000E+00;  2.8239624E-04;  7.1963074E+02;
  3.1086853E-01;  9.9999998E-03; -2.6998946E-01;4340; -4.2176545E-03;  0.0000000E+00; -1.0919963E-04;  9.9917139E+02;  1.0000000E-01; -6.8649908E+02;3; -9.1472036E-01;  0.0000000E+00; -4.6289361E-01;0; -9.8703532E-03;  3.9936527E+04;  0.0000000E+00;  7.4937321E-02;  4.0000000E+04;  0.0000000E+00;  4.0009121E+04; -1.0254688E-02;  0.0000000E+00;  3.8433450E-04;  1.2807555E+03;
  3.1092167E-01;  9.9999998E-03; -2.5998724E-01;4341; -4.2839730E-03;  0.0000000E+00; -1.1442300E-04;  9.9908875E+02;  1.0000000E-01; -7.5494159E+02;3; -3.9559701E-01;  0.0000000E+00; -3.4458467E-01;0; -9.8054036E-03;  3.9927457E+04;  0.0000000E+00;  1.6157582E-01;  4.0000000E+04;  0.0000000E+00;  4.0010441E+04; -1.0104761E-02;  0.0000000E+00;  2.9935798E-04;  1.3916725E+03;
  3.1105027E-01;  9.9999998E-03; -2.4998464E-01;4342; -4.3500522E-03;  0.0000000E+00; -1.1839797E-04;  9.9904657E+02;  1.0000000E-01; -7.8990356E+02;3; -3.2434471E-02;  0.0000000E+00; -1.8764661E-01;0; -9.7936373E-03;  3.9922270E+04;  0.0000000E+00;  2.3036979E-01;  4.0000000E+04;  0.0000000E+00;  4.0009980E+04; -1.0013601E-02;  0.0000000E+00;  2.1996304E-04;  1.4291571E+03;
  3.1117460E-01;  9.9999998E-03; -2.3998149E-01;4343; -4.4159237E-03;  0.0000000E+00; -1.3045978E-04;  9.9907178E+02;  1.0000000E-01; -7.6901526E+02;3;  2.0579579E-01;  0.0000000E+00; -4.2111140E-02;0; -9.7705396E-03;  3.9922750E+04;  0.0000000E+00;  3.9549518E-01;  4.0000000E+04;  0.0000000E+00;  4.0009785E+04; -9.9767912E-03;  0.0000000E+00;  2.0625179E-04;  1.4695066E+03;
  3.1126818E-01;  9.9999998E-03; -2.2997762E-01;4344; -4.4826781E-03;  0.0000000E+00; -1.4381527E-04;  9.9916443E+02;  1.0000000E-01; -6.9227673E+02;3;  3.5079038E-01;  0.0000000E+00;  6.8056293E-02;0; -9.7821802E-03;  3.9929102E+04;  0.0000000E+00;  5.6470275E-01;  4.0000000E+04;  0.0000000E+00;  4.0009746E+04; -9.9839149E-03;  0.0000000E+00;  2.0173454E-04;  1.5191537E+03;
  3.1134844E-01;  9.9999998E-03; -2.1998422E-01;4345; -4.5525222E-03;  0.0000000E+00; -1.3207209E-04;  9.9929889E+02;  1.0000000E-01; -5.8087244E+02;3;  4.3088660E-01;  0.0000000E+00;  1.3351116E-01;0; -9.8641552E-03;  3.9941062E+04;  0.0000000E+00;  6.7088675E-01;  4.0000000E+04;  0.0000000E+00;  4.0007289E+04; -1.0021036E-02;  0.0000000E+00;  1.5688113E-04;  1.3629482E+03;
  3.1142151E-01;  9.9999998E-03; -2.0999950E-01;4346; -4.6249698E-03;  0.0000000E+00; -1.2594614E-04;  9.9948651E+02;  1.0000000E-01; -4.2542007E+02;3;  4.6845874E-01;  0.0000000E+00;  1.6482495E-01;0; -9.9071003E-03;  3.9957562E+04;  0.0000000E+00;  6.9749635E-01;  4.0000000E+04;  0.0000000E+00;  4.0004668E+04; -1.0074189E-02;  0.0000000E+00;  1.6708832E-04;  1.1933881E+03;
  3.1147924E-01;  9.9999998E-03; -2.0001103E-01;4347; -4.7015641E-03;  0.0000000E+00; -1.2051714E-04;  9.9973010E+02;  1.0000000E-01; -2.2359862E+02;3;  4.8152381E-01;  0.0000000E+00;  1.7318605E-01;0; -9.9300258E-03;  3.9977738E+04;  0.0000000E+00;  6.4695609E-01;  4.0000000E+04;  0.0000000E+00;  4.0003320E+04; -1.0130530E-02;  0.0000000E+00;  2.0050435E-04;  1.0417162E+03;
  3.1151116E-01;  9.9999998E-03; -1.9001597E-01;4348; -4.7846236E-03;  0.0000000E+00; -1.0378264E-04;  9.9999414E+02;  1.0000000E-01; -4.8393693E+00;3;  4.8422858E-01;  0.0000000E+00;  1.6663583E-01;0; -9.9398633E-03;  3.9999383E+04;  0.0000000E+00;  5.3535575E-01;  4.0000000E+04;  0.0000000E+00;  4.0002402E+04; -1.0179454E-02;  0.0000000E+00;  2.3959104E-04;  8.3388416E+02;
  3.1151706E-01;  9.9999998E-03; -1.8001652E-01;4349; -4.8724278E-03;  0.0000000E+00; -7.9639998E-05;  1.0002452E+03;  1.0000000E-01;  2.0315475E+02;3;  4.8421100E-01;  0.0000000E+00;  1.5778333E-01;0; -9.9336999E-03;  4.0020625E+04;  0.0000000E+00;  3.8925114E-01;  4.0000000E+04;  0.0000000E+00;  4.0001234E+04; -1.0214029E-02;  0.0000000E+00;  2.8032908E-04;  5.7613385E+02;
  3.1149971E-01;  9.9999998E-03; -1.7001477E-01;4350; -4.9605435E-03;  0.0000000E+00; -5.5486325E-05;  1.0004640E+03;  1.0000000E-01;  3.8438419E+02;3;  4.8450160E-01;  0.0000000E+00;  1.4813349E-01;0; -9.9180015E-03;  4.0039551E+04;  0.0000000E+00;  2.3724613E-01;  4.0000000E+04;  0.0000000E+00;  3.9999793E+04; -1.0232035E-02;  0.0000000E+00;  3.1403397E-04;  3.4262534E+02;
  3.1146780E-01;  9.9999998E-03; -1.6001487E-01;4351; -5.0440766E-03;  0.0000000E+00; -3.6171332E-05;  1.0006288E+03;  1.0000000E-01;  5.2097290E+02;3;  4.8528516E-01;  0.0000000E+00;  1.3777405E-01;0; -9.9020926E-03;  4.0054418E+04;  0.0000000E+00;  9.9531271E-02;  4.0000000E+04;  0.0000000E+00;  3.9998121E+04; -1.0235745E-02;  0.0000000E+00;  3.3365240E-04;  3.0555759E+02;
  3.1143039E-01;  9.9999998E-03; -1.5001683E-01;4352; -5.1192893E-03;  0.0000000E+00; -2.4485627E-05;  1.0007240E+03;  1.0000000E-01;  5.9978552E+02;3;  4.8613307E-01;  0.0000000E+00;  1.2615186E-01;0; -9.8932665E-03;  4.0064172E+04;  0.0000000E+00; -1.2207015E-02;  4.0000000E+04;  0.0000000E+00;  3.9996469E+04; -1.0230876E-02;  0.0000000E+00;  3.3760921E-04;  4.6513525E+02;
  3.1139538E-01;  9.9999998E-03; -1.4001748E-01;4353; -5.1843207E-03;  0.0000000E+00; -2.0075802E-05;  1.0007603E+03;  1.0000000E-01;  6.2980933E+02;3;  4.8701760E-01;  0.0000000E+00;  1.1531186E-01;0; -9.8964302E-03;  4.0068215E+04;  0.0000000E+00; -9.1632552E-02;  4.0000000E+04;  0.0000000E+00;  3.9995504E+04; -1.0225391E-02;  0.0000000E+00;  3.2896100E-04;  6.2902307E+02;
  3.1136888E-01;  9.9999998E-03; -1.3001572E-01;4354; -5.2388771E-03;  0.0000000E+00; -2.0639482E-05;  1.0007345E+03;  1.0000000E-01;  6.0847662E+02;3;  4.8749033E-01;  0.0000000E+00;  1.0621616E-01;0; -9.9150641E-03;  4.0066914E+04;  0.0000000E+00; -1.3769998E-01;  4.0000000E+04;  0.0000000E+00;  3.9994750E+04; -1.0228177E-02;  0.0000000E+00;  3.1311257E-04;  7.3250574E+02;
  3.1135935E-01;  9.9999998E-03; -1.2001141E-01;4355; -5.2837934E-03;  0.0000000E+00; -2.4177176E-05;  1.0006621E+03;  1.0000000E-01;  5.4852771E+02;3;  4.8734450E-01;  0.0000000E+00;  9.9765308E-02;0; -9.9517396E-03;  4.0061227E+04;  0.0000000E+00; -1.5402660E-01;  4.0000000E+04;  0.0000000E+00;  3.9994719E+04; -1.0247593E-02;  0.0000000E+00;  2.9585353E-04;  7.6053009E+02;
  3.1137383E-01;  9.9999998E-03; -1.1000317E-01;4356; -5.3209346E-03;  0.0000000E+00; -2.8400889E-05;  1.0005551E+03;  1.0000000E-01;  4.5993762E+02;3;  4.8697108E-01;  0.0000000E+00;  9.4418220E-02;0; -1.0008139E-02;  4.0052391E+04;  0.0000000E+00; -1.4732456E-01;  4.0000000E+04;  0.0000000E+00;  3.9994797E+04; -1.0290393E-02;  0.0000000E+00;  2.8225404E-04;  7.1601691E+02;
  3.2141054E-01;  9.9999998E-03; -1.0999659E-01;4417; -5.4189083E-03;  0.0000000E+00; -3.8990082E-05;  1.0005770E+03;  1.0000000E-01;  4.7801117E+02;3;  5.1347232E-01;  0.0000000E+00;  1.0645075E-01;0; -9.8097399E-03;  4.0054578E+04;  0.0000000E+00; -1.6702624E-01;  4.0000000E+04;  0.0000000E+00;  3.9995168E+04; -1.0082252E-02;  0.0000000E+00;  2.7251273E-04;  7.2620428E+02;
  3.2135135E-01;  9.9999998E-03; -1.2000932E-01;4416; -5.3795618E-03;  0.0000000E+00; -3.5712677E-05;  1.0006747E+03;  1.0000000E-01;  5.5899652E+02;3;  5.1345283E-01;  0.0000000E+00;  1.1319909E-01;0; -9.7515620E-03;  4.0062887E+04;  0.0000000E+00; -1.9316721E-01;  4.0000000E+04;  0.0000000E+00;  3.9994641E+04; -1.0029712E-02;  0.0000000E+00;  2.7815011E-04;  8.0951843E+02;
  3.2131594E-01;  9.9999998E-03; -1.3002056E-01;4415; -5.3345640E-03;  0.0000000E+00; -3.2762207E-05;  1.0007531E+03;  1.0000000E-01;  6.2398236E+02;3;  5.1345211E-01;  0.0000000E+00;  1.2054963E-01;0; -9.7110122E-03;  4.0069180E+04;  0.0000000E+00; -2.0181893E-01;  4.0000000E+04;  0.0000000E+00;  3.9994879E+04; -9.9987769E-03;  0.0000000E+00;  2.8776497E-04;  8.2168268E+02;
  3.2131222E-01;  9.9999998E-03; -1.4002635E-01;4414; -5.2824444E-03;  0.0000000E+00; -3.1931053E-05;  1.0007948E+03;  1.0000000E-01;  6.5845050E+02;3;  5.1311165E-01;  0.0000000E+00;  1.2975699E-01;0; -9.6865483E-03;  4.0071570E+04;  0.0000000E+00; -1.8498991E-01;  4.0000000E+04;  0.0000000E+00;  3.9995039E+04; -9.9834166E-03;  0.0000000E+00;  2.9686833E-04;  7.5189105E+02;
  3.2132968E-01;  9.9999998E-03; -1.5002827E-01;4413; -5.2219247E-03;  0.0000000E+00; -3.5274184E-05;  1.0007809E+03;  1.0000000E-01;  6.4699402E+02;3;  5.1243454E-01;  0.0000000E+00;  1.4117800E-01;0; -9.6762562E-03;  4.0069512E+04;  0.0000000E+00; -1.3666016E-01;  4.0000000E+04;  0.0000000E+00;  3.9996105E+04; -9.9762287E-03;  0.0000000E+00;  2.9997210E-04;  6.0125916E+02;
  3.2135949E-01;  9.9999998E-03; -1.6002767E-01;4412; -5.1526194E-03;  0.0000000E+00; -4.4536468E-05;  1.0007085E+03;  1.0000000E-01;  5.8694635E+02;3;  5.1133710E-01;  0.0000000E+00;  1.5442643E-01;0; -9.6774446E-03;  4.0062160E+04;  0.0000000E+00; -5.4430909E-02;  4.0000000E+04;  0.0000000E+00;  3.9997688E+04; -9.9692009E-03;  0.0000000E+00;  2.9175656E-04;  3.8661469E+02;
  3.2139289E-01;  9.9999998E-03; -1.7002732E-01;4411; -5.0750840E-03;  0.0000000E+00; -6.0545262E-05;  1.0005737E+03;  1.0000000E-01;  4.7524582E+02;3;  5.1056623E-01;  0.0000000E+00;  1.6542561E-01;0; -9.6860528E-03;  4.0049859E+04;  0.0000000E+00;  5.9220571E-02;  4.0000000E+04;  0.0000000E+00;  3.9999359E+04; -9.9549918E-03;  0.0000000E+00;  2.6893854E-04;  1.7725594E+02;
  3.2142007E-01;  9.9999998E-03; -1.8002914E-01;4410; -4.9914988E-03;  0.0000000E+00; -8.2125902E-05;  1.0003851E+03;  1.0000000E-01;  3.1910208E+02;3;  5.1006490E-01;  0.0000000E+00;  1.7582743E-01;0; -9.6956734E-03;  4.0032867E+04;  0.0000000E+00;  1.9637154E-01;  4.0000000E+04;  0.0000000E+00;  4.0000793E+04; -9.9281827E-03;  0.0000000E+00;  2.3250932E-04;  2.8679297E+02;
  3.2143599E-01;  9.9999998E-03; -1.9003130E-01;4409; -4.9056895E-03;  0.0000000E+00; -1.0459752E-04;  1.0001481E+03;  1.0000000E-01;  1.2266320E+02;3;  5.1014328E-01;  0.0000000E+00;  1.8706851E-01;0; -9.6972175E-03;  4.0012934E+04;  0.0000000E+00;  3.4383172E-01;  4.0000000E+04;  0.0000000E+00;  4.0001875E+04; -9.8859835E-03;  0.0000000E+00;  1.8876644E-04;  5.5400427E+02;
  3.2143790E-01;  9.9999998E-03; -2.0003042E-01;4408; -4.8213871E-03;  0.0000000E+00; -1.2041799E-04;  9.9988531E+02;  1.0000000E-01; -9.5009659E+01;3;  5.1064724E-01;  0.0000000E+00;  1.9773206E-01;0; -9.6830111E-03;  3.9991375E+04;  0.0000000E+00;  4.8015469E-01;  4.0000000E+04;  0.0000000E+00;  4.0003031E+04; -9.8289642E-03;  0.0000000E+00;  1.4595338E-04;  7.9019257E+02;
  3.2142827E-01;  9.9999998E-03; -2.1002319E-01;4407; -4.7405935E-03;  0.0000000E+00; -1.2362486E-04;  9.9963123E+02;  1.0000000E-01; -3.0552222E+02;3;  5.0938797E-01;  0.0000000E+00;  2.0289935E-01;0; -9.6548507E-03;  3.9970422E+04;  0.0000000E+00;  5.7752073E-01;  4.0000000E+04;  0.0000000E+00;  4.0003480E+04; -9.7612264E-03;  0.0000000E+00;  1.0637579E-04;  9.6538031E+02;
  3.2139859E-01;  9.9999998E-03; -2.2000811E-01;4406; -4.6620416E-03;  0.0000000E+00; -1.2010051E-04;  9.9940741E+02;  1.0000000E-01; -4.9094907E+02;3;  5.0007403E-01;  0.0000000E+00;  1.9721831E-01;0; -9.6170157E-03;  3.9951727E+04;  0.0000000E+00;  6.1115074E-01;  4.0000000E+04;  0.0000000E+00;  4.0005383E+04; -9.6904887E-03;  0.0000000E+00;  7.3473420E-05;  1.1312468E+03;
  3.2134536E-01;  9.9999998E-03; -2.2999619E-01;4405; -4.5838994E-03;  0.0000000E+00; -1.2002979E-04;  9.9923145E+02;  1.0000000E-01; -6.3672272E+02;3;  4.7182930E-01;  0.0000000E+00;  1.7731494E-01;0; -9.5562339E-03;  3.9936824E+04;  0.0000000E+00;  5.6605363E-01;  4.0000000E+04;  0.0000000E+00;  4.0007703E+04; -9.6262172E-03;  0.0000000E+00;  6.9983143E-05;  1.2977365E+03;
  3.2126471E-01;  9.9999998E-03; -2.3999260E-01;4404; -4.5074346E-03;  0.0000000E+00; -1.0823485E-04;  9.9909821E+02;  1.0000000E-01; -7.4713934E+02;3;  4.1254196E-01;  0.0000000E+00;  1.3444337E-01;0; -9.5284078E-03;  3.9926047E+04;  0.0000000E+00;  4.4148600E-01;  4.0000000E+04;  0.0000000E+00;  4.0008465E+04; -9.5787067E-03;  0.0000000E+00;  5.0298793E-05;  1.3471167E+03;
  3.2114640E-01;  9.9999998E-03; -2.4999098E-01;4403; -4.4320314E-03;  0.0000000E+00; -1.0152674E-04;  9.9902612E+02;  1.0000000E-01; -8.0684137E+02;3;  3.0565608E-01;  0.0000000E+00;  6.9388933E-02;0; -9.4921375E-03;  3.9920418E+04;  0.0000000E+00;  2.6045907E-01;  4.0000000E+04;  0.0000000E+00;  4.0010020E+04; -9.5582120E-03;  0.0000000E+00;  6.6074157E-05;  1.3818405E+03;
  3.2100841E-01;  9.9999998E-03; -2.5999069E-01;4402; -4.3584607E-03;  0.0000000E+00; -9.8328084E-05;  9.9900952E+02;  1.0000000E-01; -8.2056940E+02;3;  1.3286279E-01;  0.0000000E+00; -1.0489956E-02;0; -9.4409352E-03;  3.9920027E+04;  0.0000000E+00;  6.7492142E-02;  4.0000000E+04;  0.0000000E+00;  4.0010461E+04; -9.5727406E-03;  0.0000000E+00;  1.3180575E-04;  1.3993129E+03;
  3.2093096E-01;  9.9999998E-03; -2.6999107E-01;4401; -4.2876485E-03;  0.0000000E+00; -9.3206596E-05;  9.9903815E+02;  1.0000000E-01; -7.9686633E+02;3; -1.2384529E-01;  0.0000000E+00; -8.2756937E-02;0; -9.4198612E-03;  3.9923992E+04;  0.0000000E+00; -1.7021671E-01;  4.0000000E+04;  0.0000000E+00;  4.0010539E+04; -9.6251732E-03;  0.0000000E+00;  2.0531204E-04;  1.3900956E+03;
  3.3098707E-01;  9.9999998E-03; -2.6999357E-01;4462; -4.3465272E-03;  0.0000000E+00; -7.7778139E-05;  9.9892584E+02;  1.0000000E-01; -8.8990076E+02;3;  3.1898364E-01;  0.0000000E+00;  1.4238963E-01;0; -9.0150135E-03;  3.9912500E+04;  0.0000000E+00; -1.2210459E-02;  4.0000000E+04;  0.0000000E+00;  4.0011121E+04; -9.0813283E-03;  0.0000000E+00;  6.6314475E-05;  1.4844515E+03;
  3.3107883E-01;  9.9999998E-03; -2.5999475E-01;4463; -4.4248956E-03;  0.0000000E+00; -8.2974584E-05;  9.9895184E+02;  1.0000000E-01; -8.6837048E+02;3;  4.2083114E-01;  0.0000000E+00;  1.7385572E-01;0; -9.1001289E-03;  3.9913918E+04;  0.0000000E+00;  2.2266483E-01;  4.0000000E+04;  0.0000000E+00;  4.0010992E+04; -9.0917256E-03;  0.0000000E+00; -8.4035437E-06;  1.4649873E+03;
  3.3120987E-01;  9.9999998E-03; -2.4999724E-01;4464; -4.5063267E-03;  0.0000000E+00; -8.3791849E-05;  9.9901868E+02;  1.0000000E-01; -8.1301404E+02;3;  4.8472202E-01;  0.0000000E+00;  2.0256786E-01;0; -9.2103416E-03;  3.9919395E+04;  0.0000000E+00;  3.9182466E-01;  4.0000000E+04;  0.0000000E+00;  4.0009559E+04; -9.1252495E-03;  0.0000000E+00; -8.5092455E-05;  1.4041842E+03;
  3.3131507E-01;  9.9999998E-03; -2.4000257E-01;4465; -4.5898594E-03;  0.0000000E+00; -8.3835141E-05;  9.9913336E+02;  1.0000000E-01; -7.1800439E+02;3;  5.1984614E-01;  0.0000000E+00;  2.2136128E-01;0; -9.2979437E-03;  3.9929258E+04;  0.0000000E+00;  5.0242931E-01;  4.0000000E+04;  0.0000000E+00;  4.0007742E+04; -9.1800513E-03;  0.0000000E+00; -1.1789259E-04;  1.2689124E+03;
  3.3137918E-01;  9.9999998E-03; -2.3001178E-01;4466; -4.6740086E-03;  0.0000000E+00; -9.2777402E-05;  9.9929413E+02;  1.0000000E-01; -5.8482294E+02;3;  5.3554732E-01;  0.0000000E+00;  2.2955711E-01;0; -9.3337484E-03;  3.9942965E+04;  0.0000000E+00;  5.4564065E-01;  4.0000000E+04;  0.0000000E+00;  4.0005824E+04; -9.2506818E-03;  0.0000000E+00; -8.3066538E-05;  1.0999774E+03;
  3.3141413E-01;  9.9999998E-03; -2.2002687E-01;4467; -4.7581294E-03;  0.0000000E+00; -1.0273870E-04;  9.9949542E+02;  1.0000000E-01; -4.1801288E+02;3;  5.3970963E-01;  0.0000000E+00;  2.3033847E-01;0; -9.3672508E-03;  3.9960168E+04;  0.0000000E+00;  5.1983678E-01;  4.0000000E+04;  0.0000000E+00;  4.0003316E+04; -9.3298014E-03;  0.0000000E+00; -3.7449863E-05;  8.9485797E+02;
  3.3142772E-01;  9.9999998E-03; -2.1003973E-01;4468; -4.8413645E-03;  0.0000000E+00; -1.1412271E-04;  9.9973145E+02;  1.0000000E-01; -2.2251222E+02;3;  5.3854930E-01;  0.0000000E+00;  2.2614160E-01;0; -9.3949642E-03;  3.9979859E+04;  0.0000000E+00;  4.3547511E-01;  4.0000000E+04;  0.0000000E+00;  4.0002469E+04; -9.4101373E-03;  0.0000000E+00;  1.5173127E-05;  7.1875183E+02;
  3.3141816E-01;  9.9999998E-03; -2.0004344E-01;4469; -4.9253670E-03;  0.0000000E+00; -1.1387860E-04;  9.9998627E+02;  1.0000000E-01; -1.1357703E+01;3;  5.3702265E-01;  0.0000000E+00;  2.1751204E-01;0; -9.4235335E-03;  4.0000348E+04;  0.0000000E+00;  3.1123292E-01;  4.0000000E+04;  0.0000000E+00;  4.0002270E+04; -9.4852773E-03;  0.0000000E+00;  6.1743602E-05;  5.2696527E+02;
  3.3138499E-01;  9.9999998E-03; -1.9004053E-01;4470; -5.0102039E-03;  0.0000000E+00; -1.0094803E-04;  1.0002226E+03;  1.0000000E-01;  1.8438985E+02;3;  5.3616530E-01;  0.0000000E+00;  2.0718449E-01;0; -9.4407033E-03;  4.0020312E+04;  0.0000000E+00;  1.7054631E-01;  4.0000000E+04;  0.0000000E+00;  4.0001500E+04; -9.5503107E-03;  0.0000000E+00;  1.0960772E-04;  2.8378619E+02;
  3.3134210E-01;  9.9999998E-03; -1.8003693E-01;4471; -5.0938930E-03;  0.0000000E+00; -8.2652936E-05;  1.0004301E+03;  1.0000000E-01;  3.5633560E+02;3;  5.3652567E-01;  0.0000000E+00;  1.9411400E-01;0; -9.4443932E-03;  4.0038285E+04;  0.0000000E+00;  3.4570266E-02;  4.0000000E+04;  0.0000000E+00;  3.9999969E+04; -9.6021583E-03;  0.0000000E+00;  1.5776513E-04;  7.4292961E+01;
  3.3130503E-01;  9.9999998E-03; -1.7003579E-01;4472; -5.1735304E-03;  0.0000000E+00; -6.5611304E-05;  1.0005951E+03;  1.0000000E-01;  4.9302310E+02;3;  5.3716564E-01;  0.0000000E+00;  1.8274124E-01;0; -9.4417566E-03;  4.0052578E+04;  0.0000000E+00; -8.1611186E-02;  4.0000000E+04;  0.0000000E+00;  3.9998301E+04; -9.6403733E-03;  0.0000000E+00;  1.9861681E-04;  3.1589844E+02;
  3.3127880E-01;  9.9999998E-03; -1.6003685E-01;4473; -5.2464930E-03;  0.0000000E+00; -5.3851971E-05;  1.0006964E+03;  1.0000000E-01;  5.7697131E+02;3;  5.3828055E-01;  0.0000000E+00;  1.7105593E-01;0; -9.4408160E-03;  4.0062648E+04;  0.0000000E+00; -1.6792837E-01;  4.0000000E+04;  0.0000000E+00;  3.9996523E+04; -9.6676499E-03;  0.0000000E+00;  2.2683399E-04;  5.6703723E+02;
  3.3127242E-01;  9.9999998E-03; -1.5003699E-01;4474; -5.3118831E-03;  0.0000000E+00; -4.7849779E-05;  1.0007488E+03;  1.0000000E-01;  6.2042688E+02;3;  5.3921020E-01;  0.0000000E+00;  1.5854999E-01;0; -9.4469916E-03;  4.0068203E+04;  0.0000000E+00; -2.1988219E-01;  4.0000000E+04;  0.0000000E+00;  3.9995172E+04; -9.6888961E-03;  0.0000000E+00;  2.4190405E-04;  7.5821088E+02;
  3.3129439E-01;  9.9999998E-03; -1.4003251E-01;4475; -5.3698733E-03;  0.0000000E+00; -4.6543617E-05;  1.0007488E+03;  1.0000000E-01;  6.2042688E+02;3;  5.4014134E-01;  0.0000000E+00;  1.4699960E-01;0; -9.4634574E-03;  4.0068984E+04;  0.0000000E+00; -2.3855783E-01;  4.0000000E+04;  0.0000000E+00;  3.9994426E+04; -9.7105103E-03;  0.0000000E+00;  2.4705281E-04;  8.7081482E+02;
  3.3134809E-01;  9.9999998E-03; -1.3002047E-01;4476; -5.4214769E-03;  0.0000000E+00; -4.7980175E-05;  1.0007079E+03;  1.0000000E-01;  5.8655133E+02;3;  5.4061127E-01;  0.0000000E+00;  1.3728651E-01;0; -9.4922669E-03;  4.0066121E+04;  0.0000000E+00; -2.2938438E-01;  4.0000000E+04;  0.0000000E+00;  3.9994043E+04; -9.7395442E-03;  0.0000000E+00;  2.4727712E-04;  8.9807446E+02;
  3.3142009E-01;  9.9999998E-03; -1.2000259E-01;4477; -5.4678759E-03;  0.0000000E+00; -5.0367293E-05;  1.0006448E+03;  1.0000000E-01;  5.3420709E+02;3;  5.4079318E-01;  0.0000000E+00;  1.2906295E-01;0; -9.5351674E-03;  4.0060609E+04;  0.0000000E+00; -2.0034911E-01;  4.0000000E+04;  0.0000000E+00;  3.9994082E+04; -9.7827865E-03;  0.0000000E+00;  2.4761874E-04;  8.4573767E+02;
  3.3148828E-01;  9.9999998E-03; -1.0999170E-01;4478; -5.5101458E-03;  0.0000000E+00; -5.2199408E-05;  1.0005694E+03;  1.0000000E-01;  4.7169037E+02;3;  5.4120290E-01;  0.0000000E+00;  1.2006992E-01;0; -9.5935529E-03;  4.0053770E+04;  0.0000000E+00; -1.6018449E-01;  4.0000000E+04;  0.0000000E+00;  3.9994883E+04; -9.8453108E-03;  0.0000000E+00;  2.5175812E-04;  7.2945190E+02;
  3.4106782E-01;  9.9999998E-03; -2.6999655E-01;4523; -4.4029248E-03;  0.0000000E+00; -4.8381728E-05;  9.9883905E+02;  1.0000000E-01; -9.6184937E+02;3;  5.2699286E-01;  0.0000000E+00;  2.5091621E-01;0; -8.8160895E-03;  3.9903125E+04;  0.0000000E+00;  1.7833231E-01;  4.0000000E+04;  0.0000000E+00;  4.0011875E+04; -8.6126402E-03;  0.0000000E+00; -2.0344934E-04;  1.5795706E+03;
  3.4115043E-01;  9.9999998E-03; -2.5999880E-01;4524; -4.4883932E-03;  0.0000000E+00; -6.2445906E-05;  9.9891455E+02;  1.0000000E-01; -8.9928320E+02;3;  5.5329013E-01;  0.0000000E+00;  2.5784472E-01;0; -8.8314684E-03;  3.9909039E+04;  0.0000000E+00;  3.5654345E-01;  4.0000000E+04;  0.0000000E+00;  4.0011027E+04; -8.6574350E-03;  0.0000000E+00; -1.7403370E-04;  1.5384536E+03;
  3.4126043E-01;  9.9999998E-03; -2.5000262E-01;4525; -4.5759939E-03;  0.0000000E+00; -6.5788365E-05;  9.9902582E+02;  1.0000000E-01; -8.0708826E+02;3;  5.6659192E-01;  0.0000000E+00;  2.6112890E-01;0; -8.9435671E-03;  3.9918652E+04;  0.0000000E+00;  4.6130303E-01;  4.0000000E+04;  0.0000000E+00;  4.0009523E+04; -8.7162070E-03;  0.0000000E+00; -2.2735998E-04;  1.4215778E+03;
  3.4134519E-01;  9.9999998E-03; -2.4001002E-01;4526; -4.6653277E-03;  0.0000000E+00; -5.9305057E-05;  9.9916315E+02;  1.0000000E-01; -6.9331372E+02;3;  5.7110763E-01;  0.0000000E+00;  2.5845975E-01;0; -9.0734558E-03;  3.9931719E+04;  0.0000000E+00;  5.0065947E-01;  4.0000000E+04;  0.0000000E+00;  4.0007312E+04; -8.7880660E-03;  0.0000000E+00; -2.8538972E-04;  1.1939813E+03;
  3.4138551E-01;  9.9999998E-03; -2.3002350E-01;4527; -4.7547668E-03;  0.0000000E+00; -6.1000599E-05;  9.9933795E+02;  1.0000000E-01; -5.4847833E+02;3;  5.7066190E-01;  0.0000000E+00;  2.5337514E-01;0; -9.1254376E-03;  3.9947488E+04;  0.0000000E+00;  4.8074311E-01;  4.0000000E+04;  0.0000000E+00;  4.0004340E+04; -8.8697942E-03;  0.0000000E+00; -2.5564356E-04;  9.0053802E+02;
  3.4139559E-01;  9.9999998E-03; -2.2004119E-01;4528; -4.8425868E-03;  0.0000000E+00; -7.6695862E-05;  9.9954303E+02;  1.0000000E-01; -3.7860657E+02;3;  5.6747401E-01;  0.0000000E+00;  2.4998789E-01;0; -9.1324924E-03;  3.9965676E+04;  0.0000000E+00;  4.0947330E-01;  4.0000000E+04;  0.0000000E+00;  4.0001926E+04; -8.9562899E-03;  0.0000000E+00; -1.7620233E-04;  6.5506244E+02;
  3.4139132E-01;  9.9999998E-03; -2.1005128E-01;4529; -4.9285628E-03;  0.0000000E+00; -9.6179887E-05;  9.9978204E+02;  1.0000000E-01; -1.8058748E+02;3;  5.6467867E-01;  0.0000000E+00;  2.4416170E-01;0; -9.1432799E-03;  3.9984828E+04;  0.0000000E+00;  3.0048209E-01;  4.0000000E+04;  0.0000000E+00;  4.0001453E+04; -9.0422258E-03;  0.0000000E+00; -1.0105422E-04;  4.8089767E+02;
  3.4137806E-01;  9.9999998E-03; -2.0005043E-01;4530; -5.0146058E-03;  0.0000000E+00; -9.9790806E-05;  1.0000219E+03;  1.0000000E-01;  1.8073563E+01;3;  5.6304497E-01;  0.0000000E+00;  2.3630400E-01;0; -9.1686109E-03;  4.0004246E+04;  0.0000000E+00;  1.7148645E-01;  4.0000000E+04;  0.0000000E+00;  4.0001207E+04; -9.1229845E-03;  0.0000000E+00; -4.5626621E-05;  2.9587091E+02;
  3.4135491E-01;  9.9999998E-03; -1.9004618E-01;4531; -5.0995946E-03;  0.0000000E+00; -9.1308080E-05;  1.0002336E+03;  1.0000000E-01;  1.9347601E+02;3;  5.6274599E-01;  0.0000000E+00;  2.2554889E-01;0; -9.1867708E-03;  4.0021891E+04;  0.0000000E+00;  3.9690055E-02;  4.0000000E+04;  0.0000000E+00;  4.0000125E+04; -9.1950260E-03;  0.0000000E+00;  8.2555871E-06;  5.6087753E+01;
  3.4132352E-01;  9.9999998E-03; -1.8004295E-01;4532; -5.1816464E-03;  0.0000000E+00; -7.8881058E-05;  1.0004057E+03;  1.0000000E-01;  3.3608926E+02;3;  5.6333345E-01;  0.0000000E+00;  2.1380502E-01;0; -9.1948984E-03;  4.0037660E+04;  0.0000000E+00; -7.9154462E-02;  4.0000000E+04;  0.0000000E+00;  3.9998496E+04; -9.2564458E-03;  0.0000000E+00;  6.1547682E-05;  2.3350864E+02;
  3.4129813E-01;  9.9999998E-03; -1.7004153E-01;4533; -5.2584307E-03;  0.0000000E+00; -6.8105153E-05;  1.0005385E+03;  1.0000000E-01;  4.4611084E+02;3;  5.6459737E-01;  0.0000000E+00;  2.0082058E-01;0; -9.1991238E-03;  4.0049484E+04;  0.0000000E+00; -1.7221457E-01;  4.0000000E+04;  0.0000000E+00;  3.9996762E+04; -9.3069430E-03;  0.0000000E+00;  1.0781929E-04;  5.0260214E+02;
  3.4129712E-01;  9.9999998E-03; -1.6004017E-01;4534; -5.3285495E-03;  0.0000000E+00; -6.1581777E-05;  1.0006182E+03;  1.0000000E-01;  5.1218304E+02;3;  5.6585991E-01;  0.0000000E+00;  1.8677229E-01;0; -9.2056440E-03;  4.0057664E+04;  0.0000000E+00; -2.3194575E-01;  4.0000000E+04;  0.0000000E+00;  3.9995527E+04; -9.3483841E-03;  0.0000000E+00;  1.4273979E-04;  7.2554987E+02;
  3.4133071E-01;  9.9999998E-03; -1.5003508E-01;4535; -5.3918753E-03;  0.0000000E+00; -5.9520800E-05;  1.0006544E+03;  1.0000000E-01;  5.4220691E+02;3;  5.6722480E-01;  0.0000000E+00;  1.7424832E-01;0; -9.2186108E-03;  4.0061664E+04;  0.0000000E+00; -2.5688627E-01;  4.0000000E+04;  0.0000000E+00;  3.9994164E+04; -9.3848193E-03;  0.0000000E+00;  1.6620886E-04;  8.7889429E+02;
  3.4139568E-01;  9.9999998E-03; -1.4002310E-01;4536; -5.4492359E-03;  0.0000000E+00; -6.0399248E-05;  1.0006520E+03;  1.0000000E-01;  5.4013287E+02;3;  5.6813848E-01;  0.0000000E+00;  1.6376939E-01;0; -9.2406105E-03;  4.0062141E+04;  0.0000000E+00; -2.5111109E-01;  4.0000000E+04;  0.0000000E+00;  3.9993340E+04; -9.4218776E-03;  0.0000000E+00;  1.8126672E-04;  9.4986780E+02;
  3.4146768E-01;  9.9999998E-03; -1.3000742E-01;4537; -5.5015478E-03;  0.0000000E+00; -6.2714891E-05;  1.0006252E+03;  1.0000000E-01;  5.1791125E+02;3;  5.6893891E-01;  0.0000000E+00;  1.5422179E-01;0; -9.2734769E-03;  4.0059867E+04;  0.0000000E+00; -2.2239552E-01;  4.0000000E+04;  0.0000000E+00;  3.9993477E+04; -9.4659422E-03;  0.0000000E+00;  1.9246491E-04;  9.3800800E+02;
  3.4152094E-01;  9.9999998E-03; -1.1999505E-01;4538; -5.5498965E-03;  0.0000000E+00; -6.4755310E-05;  1.0005822E+03;  1.0000000E-01;  4.8225797E+02;3;  5.6933957E-01;  0.0000000E+00;  1.4493096E-01;0; -9.3184728E-03;  4.0055953E+04;  0.0000000E+00; -1.7995507E-01;  4.0000000E+04;  0.0000000E+00;  3.9993953E+04; -9.5225619E-03;  0.0000000E+00;  2.0408897E-04;  8.5417413E+02;
  3.4155208E-01;  9.9999998E-03; -1.0999055E-01;4539; -5.5951905E-03;  0.0000000E+00; -6.5191009E-05;  1.0005334E+03;  1.0000000E-01;  4.4196280E+02;3;  5.7008195E-01;  0.0000000E+00;  1.3420738E-01;0; -9.3762493E-03;  4.0050887E+04;  0.0000000E+00; -1.3250795E-01;  4.0000000E+04;  0.0000000E+00;  3.9995020E+04; -9.5950030E-03;  0.0000000E+00;  2.1875398E-04;  7.1752454E+02;
  3.5114586E-01;  9.9999998E-03; -2.6999944E-01;4584; -4.4622375E-03;  0.0000000E+00; -1.0906278E-05;  9.9877942E+02;  1.0000000E-01; -1.0112307E+03;3;  6.0778999E-01;  0.0000000E+00;  2.9210883E-01;0; -8.7399902E-03;  3.9896473E+04;  0.0000000E+00;  2.5840124E-01;  4.0000000E+04;  0.0000000E+00;  4.0012008E+04; -8.2046380E-03;  0.0000000E+00; -5.3535210E-04;  1.6451658E+03;
  3.5120761E-01;  9.9999998E-03; -2.6000249E-01;4585; -4.5529143E-03;  0.0000000E+00; -2.8160805E-05;  9.9888922E+02;  1.0000000E-01; -9.2027026E+02;3;  6.0698074E-01;  0.0000000E+00;  2.8880453E-01;0; -8.7062465E-03;  3.9905785E+04;  0.0000000E+00;  3.7983489E-01;  4.0000000E+04;  0.0000000E+00;  4.0011125E+04; -8.2637332E-03;  0.0000000E+00; -4.4251294E-04;  1.5465717E+03;
  3.5128361E-01;  9.9999998E-03; -2.5000677E-01;4586; -4.6441047E-03;  0.0000000E+00; -4.1277915E-05;  9.9902966E+02;  1.0000000E-01; -8.0392786E+02;3;  6.0394239E-01;  0.0000000E+00;  2.8428003E-01;0; -8.7327454E-03;  3.9918168E+04;  0.0000000E+00;  4.3764850E-01;  4.0000000E+04;  0.0000000E+00;  4.0009465E+04; -8.3328038E-03;  0.0000000E+00; -3.9994175E-04;  1.3909276E+03;
  3.5134232E-01;  9.9999998E-03; -2.4001469E-01;4587; -4.7363746E-03;  0.0000000E+00; -3.6487854E-05;  9.9919006E+02;  1.0000000E-01; -6.7099335E+02;3;  6.0033840E-01;  0.0000000E+00;  2.7656373E-01;0; -8.8508967E-03;  3.9932805E+04;  0.0000000E+00;  4.3713489E-01;  4.0000000E+04;  0.0000000E+00;  4.0006801E+04; -8.4111923E-03;  0.0000000E+00; -4.3970410E-04;  1.1069226E+03;
  3.5136363E-01;  9.9999998E-03; -2.3003006E-01;4588; -4.8286393E-03;  0.0000000E+00; -3.0391680E-05;  9.9936188E+02;  1.0000000E-01; -5.2867639E+02;3;  5.9697741E-01;  0.0000000E+00;  2.6814404E-01;0; -8.9224065E-03;  3.9949855E+04;  0.0000000E+00;  3.8900620E-01;  4.0000000E+04;  0.0000000E+00;  4.0003105E+04; -8.4971059E-03;  0.0000000E+00; -4.2530091E-04;  7.2843402E+02;
  3.5136023E-01;  9.9999998E-03; -2.2004880E-01;4589; -4.9182121E-03;  0.0000000E+00; -4.7607264E-05;  9.9955762E+02;  1.0000000E-01; -3.6650815E+02;3;  5.9354699E-01;  0.0000000E+00;  2.6252878E-01;0; -8.9131650E-03;  3.9967727E+04;  0.0000000E+00;  3.0396205E-01;  4.0000000E+04;  0.0000000E+00;  4.0001035E+04; -8.5870167E-03;  0.0000000E+00; -3.2614789E-04;  4.6104187E+02;
  3.5134405E-01;  9.9999998E-03; -2.1005681E-01;4590; -5.0055641E-03;  0.0000000E+00; -7.1133290E-05;  9.9978510E+02;  1.0000000E-01; -1.7806903E+02;3;  5.9080887E-01;  0.0000000E+00;  2.5970596E-01;0; -8.9111831E-03;  3.9985828E+04;  0.0000000E+00;  1.9466290E-01;  4.0000000E+04;  0.0000000E+00;  4.0000977E+04; -8.6771278E-03;  0.0000000E+00; -2.3405530E-04;  2.9402829E+02;
  3.5132188E-01;  9.9999998E-03; -2.0005329E-01;4591; -5.0924579E-03;  0.0000000E+00; -7.8590805E-05;  1.0000020E+03;  1.0000000E-01;  1.6789649E+00;3;  5.8948207E-01;  0.0000000E+00;  2.5262716E-01;0; -8.9323316E-03;  4.0003336E+04;  0.0000000E+00;  7.4644439E-02;  4.0000000E+04;  0.0000000E+00;  4.0000578E+04; -8.7637827E-03;  0.0000000E+00; -1.6854916E-04;  1.1616257E+02;
  3.5129967E-01;  9.9999998E-03; -1.9004725E-01;4592; -5.1773051E-03;  0.0000000E+00; -7.5037264E-05;  1.0001822E+03;  1.0000000E-01;  1.5090932E+02;3;  5.8975965E-01;  0.0000000E+00;  2.4204196E-01;0; -8.9515122E-03;  4.0019051E+04;  0.0000000E+00; -4.1471541E-02;  4.0000000E+04;  0.0000000E+00;  3.9999215E+04; -8.8438354E-03;  0.0000000E+00; -1.0767646E-04;  1.2566354E+02;
  3.5128650E-01;  9.9999998E-03; -1.8004288E-01;4593; -5.2582147E-03;  0.0000000E+00; -6.8933470E-05;  1.0003295E+03;  1.0000000E-01;  2.7297992E+02;3;  5.9082454E-01;  0.0000000E+00;  2.2924675E-01;0; -8.9642508E-03;  4.0032215E+04;  0.0000000E+00; -1.3989061E-01;  4.0000000E+04;  0.0000000E+00;  3.9997203E+04; -8.9154504E-03;  0.0000000E+00; -4.8800266E-05;  3.9137119E+02;
  3.5129216E-01;  9.9999998E-03; -1.7003904E-01;4594; -5.3333049E-03;  0.0000000E+00; -6.4970453E-05;  1.0004377E+03;  1.0000000E-01;  3.6265640E+02;3;  5.9245670E-01;  0.0000000E+00;  2.1549480E-01;0; -8.9752423E-03;  4.0042285E+04;  0.0000000E+00; -2.1006022E-01;  4.0000000E+04;  0.0000000E+00;  3.9995734E+04; -8.9784367E-03;  0.0000000E+00;  3.1948205E-06;  6.3703113E+02;
  3.5132122E-01;  9.9999998E-03; -1.6003232E-01;4595; -5.4020113E-03;  0.0000000E+00; -6.4173088E-05;  1.0004990E+03;  1.0000000E-01;  4.1342041E+02;3;  5.9412277E-01;  0.0000000E+00;  2.0314826E-01;0; -8.9893173E-03;  4.0048863E+04;  0.0000000E+00; -2.4672480E-01;  4.0000000E+04;  0.0000000E+00;  3.9994500E+04; -9.0345973E-03;  0.0000000E+00;  4.5280285E-05;  8.2813770E+02;
  3.5136938E-01;  9.9999998E-03; -1.5002091E-01;4596; -5.4648058E-03;  0.0000000E+00; -6.5881417E-05;  1.0005319E+03;  1.0000000E-01;  4.4067889E+02;3;  5.9567475E-01;  0.0000000E+00;  1.9181044E-01;0; -9.0095559E-03;  4.0052422E+04;  0.0000000E+00; -2.5070366E-01;  4.0000000E+04;  0.0000000E+00;  3.9993383E+04; -9.0873772E-03;  0.0000000E+00;  7.7821634E-05;  9.4529333E+02;
  3.5142210E-01;  9.9999998E-03; -1.4000848E-01;4597; -5.5225920E-03;  0.0000000E+00; -6.8998088E-05;  1.0005358E+03;  1.0000000E-01;  4.4383929E+02;3;  5.9667796E-01;  0.0000000E+00;  1.8189833E-01;0; -9.0378262E-03;  4.0053160E+04;  0.0000000E+00; -2.2804494E-01;  4.0000000E+04;  0.0000000E+00;  3.9992918E+04; -9.1413045E-03;  0.0000000E+00;  1.0347800E-04;  9.8059418E+02;
  3.5146287E-01;  9.9999998E-03; -1.3000089E-01;4598; -5.5764243E-03;  0.0000000E+00; -7.2204457E-05;  1.0005228E+03;  1.0000000E-01;  4.3307416E+02;3;  5.9756845E-01;  0.0000000E+00;  1.7182775E-01;0; -9.0750325E-03;  4.0051863E+04;  0.0000000E+00; -1.8779828E-01;  4.0000000E+04;  0.0000000E+00;  3.9993270E+04; -9.2009585E-03;  0.0000000E+00;  1.2592642E-04;  9.3899567E+02;
  3.5148895E-01;  9.9999998E-03; -1.1999799E-01;4599; -5.6272415E-03;  0.0000000E+00; -7.4241289E-05;  1.0005034E+03;  1.0000000E-01;  4.1697586E+02;3;  5.9854138E-01;  0.0000000E+00;  1.6111973E-01;0; -9.1214767E-03;  4.0049398E+04;  0.0000000E+00; -1.3948618E-01;  4.0000000E+04;  0.0000000E+00;  3.9993609E+04; -9.2699463E-03;  0.0000000E+00;  1.4846955E-04;  8.3581165E+02;
  3.5150295E-01;  9.9999998E-03; -1.0999810E-01;4600; -5.6757079E-03;  0.0000000E+00; -7.3879375E-05;  1.0004805E+03;  1.0000000E-01;  3.9811218E+02;3;  5.9979314E-01;  0.0000000E+00;  1.4885204E-01;0; -9.1774184E-03;  4.0046539E+04;  0.0000000E+00; -9.1251120E-02;  4.0000000E+04;  0.0000000E+00;  3.9994594E+04; -9.3502961E-03;  0.0000000E+00;  1.7287739E-04;  6.9270215E+02;
  3.6119115E-01;  9.9999998E-03; -2.7000180E-01;4645; -4.5272252E-03;  0.0000000E+00;  2.1085751E-05;  9.9874896E+02;  1.0000000E-01; -1.0364645E+03;3;  6.3959503E-01;  0.0000000E+00;  3.0778646E-01;0; -8.6094337E-03;  3.9892109E+04;  0.0000000E+00;  2.2806679E-01;  4.0000000E+04;  0.0000000E+00;  4.0012035E+04; -7.8402776E-03;  0.0000000E+00; -7.6915621E-04;  1.6643265E+03;
  3.6123273E-01;  9.9999998E-03; -2.6000521E-01;4646; -4.6204273E-03;  0.0000000E+00;  5.7278235E-06;  9.9887610E+02;  1.0000000E-01; -9.3113416E+02;3;  6.3385952E-01;  0.0000000E+00;  3.0336216E-01;0; -8.5863089E-03;  3.9903625E+04;  0.0000000E+00;  3.1604519E-01;  4.0000000E+04;  0.0000000E+00;  4.0010652E+04; -7.9028616E-03;  0.0000000E+00; -6.8344694E-04;  1.5148143E+03;
  3.6128476E-01;  9.9999998E-03; -2.5000960E-01;4647; -4.7131074E-03;  0.0000000E+00; -1.0540524E-05;  9.9903345E+02;  1.0000000E-01; -8.0076746E+02;3;  6.2896341E-01;  0.0000000E+00;  2.9802421E-01;0; -8.5731223E-03;  3.9917262E+04;  0.0000000E+00;  3.5369629E-01;  4.0000000E+04;  0.0000000E+00;  4.0009441E+04; -7.9744784E-03;  0.0000000E+00; -5.9864356E-04;  1.3225448E+03;
  3.6131537E-01;  9.9999998E-03; -2.4001634E-01;4648; -4.8057279E-03;  0.0000000E+00; -1.4834771E-05;  9.9920001E+02;  1.0000000E-01; -6.6279608E+02;3;  6.2497419E-01;  0.0000000E+00;  2.9139045E-01;0; -8.6353151E-03;  3.9932648E+04;  0.0000000E+00;  3.4489641E-01;  4.0000000E+04;  0.0000000E+00;  4.0007367E+04; -8.0551431E-03;  0.0000000E+00; -5.8017171E-04;  1.0515038E+03;
  3.6132064E-01;  9.9999998E-03; -2.3003015E-01;4649; -4.8983064E-03;  0.0000000E+00; -7.7981413E-06;  9.9937006E+02;  1.0000000E-01; -5.2191119E+02;3;  6.2196916E-01;  0.0000000E+00;  2.8295159E-01;0; -8.7100640E-03;  3.9949422E+04;  0.0000000E+00;  2.9673219E-01;  4.0000000E+04;  0.0000000E+00;  4.0003516E+04; -8.1432313E-03;  0.0000000E+00; -5.6683243E-04;  6.4639508E+02;
  3.6131057E-01;  9.9999998E-03; -2.2004774E-01;4650; -4.9883262E-03;  0.0000000E+00; -2.1104846E-05;  9.9955115E+02;  1.0000000E-01; -3.7184134E+02;3;  6.1918938E-01;  0.0000000E+00;  2.7699465E-01;0; -8.7067969E-03;  3.9966652E+04;  0.0000000E+00;  2.1874797E-01;  4.0000000E+04;  0.0000000E+00;  4.0000664E+04; -8.2360255E-03;  0.0000000E+00; -4.7077189E-04;  3.4155246E+02;
  3.6129084E-01;  9.9999998E-03; -2.1005447E-01;4651; -5.0762580E-03;  0.0000000E+00; -4.3630542E-05;  9.9975348E+02;  1.0000000E-01; -2.0424113E+02;3;  6.1748445E-01;  0.0000000E+00;  2.6999211E-01;0; -8.7030698E-03;  3.9983371E+04;  0.0000000E+00;  1.2227237E-01;  4.0000000E+04;  0.0000000E+00;  3.9999973E+04; -8.3305715E-03;  0.0000000E+00; -3.7249827E-04;  1.7862627E+02;
  3.6126971E-01;  9.9999998E-03; -2.0005049E-01;4652; -5.1634689E-03;  0.0000000E+00; -5.2734853E-05;  9.9993921E+02;  1.0000000E-01; -5.0368946E+01;3;  6.1678720E-01;  0.0000000E+00;  2.6232296E-01;0; -8.7228287E-03;  3.9999004E+04;  0.0000000E+00;  1.9908266E-02;  4.0000000E+04;  0.0000000E+00;  3.9999578E+04; -8.4236655E-03;  0.0000000E+00; -2.9916284E-04;  3.8389740E+01;
  3.6125690E-01;  9.9999998E-03; -1.9004419E-01;4653; -5.2481587E-03;  0.0000000E+00; -5.3942334E-05;  1.0000986E+03;  1.0000000E-01;  8.1676704E+01;3;  6.1757231E-01;  0.0000000E+00;  2.5234890E-01;0; -8.7438356E-03;  4.0012707E+04;  0.0000000E+00; -7.5376406E-02;  4.0000000E+04;  0.0000000E+00;  3.9998191E+04; -8.5124588E-03;  0.0000000E+00; -2.3137688E-04;  2.3831189E+02;
  3.6125934E-01;  9.9999998E-03; -1.8003781E-01;4654; -5.3282548E-03;  0.0000000E+00; -5.4101409E-05;  1.0002250E+03;  1.0000000E-01;  1.8646387E+02;3;  6.1913943E-01;  0.0000000E+00;  2.4105822E-01;0; -8.7622385E-03;  4.0024133E+04;  0.0000000E+00; -1.5190838E-01;  4.0000000E+04;  0.0000000E+00;  3.9996824E+04; -8.5952748E-03;  0.0000000E+00; -1.6696381E-04;  4.8612518E+02;
  3.6128125E-01;  9.9999998E-03; -1.7002995E-01;4655; -5.4026586E-03;  0.0000000E+00; -5.5722830E-05;  1.0003063E+03;  1.0000000E-01;  2.5372122E+02;3;  6.2085241E-01;  0.0000000E+00;  2.3040715E-01;0; -8.7812077E-03;  4.0032801E+04;  0.0000000E+00; -2.0120873E-01;  4.0000000E+04;  0.0000000E+00;  3.9995355E+04; -8.6718462E-03;  0.0000000E+00; -1.0936116E-04;  7.0672125E+02;
  3.6132228E-01;  9.9999998E-03; -1.6001919E-01;4656; -5.4713190E-03;  0.0000000E+00; -5.9131107E-05;  1.0003704E+03;  1.0000000E-01;  3.0685553E+02;3;  6.2269938E-01;  0.0000000E+00;  2.1963474E-01;0; -8.8037048E-03;  4.0038547E+04;  0.0000000E+00; -2.1977308E-01;  4.0000000E+04;  0.0000000E+00;  3.9993867E+04; -8.7434016E-03;  0.0000000E+00; -6.0303573E-05;  8.6887946E+02;
  3.6136949E-01;  9.9999998E-03; -1.5000847E-01;4657; -5.5348463E-03;  0.0000000E+00; -6.3768355E-05;  1.0004023E+03;  1.0000000E-01;  3.3332391E+02;3;  6.2441725E-01;  0.0000000E+00;  2.0925352E-01;0; -8.8317143E-03;  4.0042098E+04;  0.0000000E+00; -2.0978335E-01;  4.0000000E+04;  0.0000000E+00;  3.9993070E+04; -8.8125514E-03;  0.0000000E+00; -1.9162655E-05;  9.5555145E+02;
  3.6140808E-01;  9.9999998E-03; -1.4000259E-01;4658; -5.5941949E-03;  0.0000000E+00; -6.8721507E-05;  1.0004184E+03;  1.0000000E-01;  3.4665686E+02;3;  6.2579429E-01;  0.0000000E+00;  1.9907816E-01;0; -8.8662673E-03;  4.0043359E+04;  0.0000000E+00; -1.7813528E-01;  4.0000000E+04;  0.0000000E+00;  3.9992918E+04; -8.8824565E-03;  0.0000000E+00;  1.6188744E-05;  9.6380164E+02;
  3.6143655E-01;  9.9999998E-03; -1.3000126E-01;4659; -5.6503471E-03;  0.0000000E+00; -7.2992596E-05;  1.0004219E+03;  1.0000000E-01;  3.4952097E+02;3;  6.2712175E-01;  0.0000000E+00;  1.8851116E-01;0; -8.9075193E-03;  4.0043305E+04;  0.0000000E+00; -1.3409095E-01;  4.0000000E+04;  0.0000000E+00;  3.9992918E+04; -8.9560561E-03;  0.0000000E+00;  4.8537262E-05;  9.0452832E+02;
  3.6145449E-01;  9.9999998E-03; -1.2000266E-01;4660; -5.7039848E-03;  0.0000000E+00; -7.5437951E-05;  1.0004201E+03;  1.0000000E-01;  3.4803955E+02;3;  6.2865841E-01;  0.0000000E+00;  1.7715387E-01;0; -8.9552356E-03;  4.0042133E+04;  0.0000000E+00; -8.6744264E-02;  4.0000000E+04;  0.0000000E+00;  3.9993848E+04; -9.0356525E-03;  0.0000000E+00;  8.0416663E-05;  7.9636230E+02;
  3.6146194E-01;  9.9999998E-03; -1.1000534E-01;4661; -5.7554035E-03;  0.0000000E+00; -7.4940719E-05;  1.0004177E+03;  1.0000000E-01;  3.4606430E+02;3;  6.3053620E-01;  0.0000000E+00;  1.6367613E-01;0; -9.0094898E-03;  4.0040695E+04;  0.0000000E+00; -4.3235987E-02;  4.0000000E+04;  0.0000000E+00;  3.9994684E+04; -9.1223884E-03;  0.0000000E+00;  1.1289858E-04;  6.6122144E+02;
  3.7122712E-01;  9.9999998E-03; -2.7000341E-01;4706; -4.5993160E-03;  0.0000000E+00;  5.0116119E-05;  9.9873676E+02;  1.0000000E-01; -1.0465876E+03;3;  6.6198504E-01;  0.0000000E+00;  3.1856406E-01;0; -8.4379856E-03;  3.9889027E+04;  0.0000000E+00;  1.4634597E-01;  4.0000000E+04;  0.0000000E+00;  4.0012426E+04; -7.5021116E-03;  0.0000000E+00; -9.3587436E-04;  1.6624911E+03;
  3.7124133E-01;  9.9999998E-03; -2.6000682E-01;4707; -4.6920651E-03;  0.0000000E+00;  3.5397516E-05;  9.9887390E+02;  1.0000000E-01; -9.3296124E+02;3;  6.5715289E-01;  0.0000000E+00;  3.1328982E-01;0; -8.4283408E-03;  3.9901621E+04;  0.0000000E+00;  2.2058909E-01;  4.0000000E+04;  0.0000000E+00;  4.0010559E+04; -7.5657135E-03;  0.0000000E+00; -8.6262682E-04;  1.4810889E+03;
  3.7126416E-01;  9.9999998E-03; -2.5001082E-01;4708; -4.7841095E-03;  0.0000000E+00;  1.8879597E-05;  9.9903076E+02;  1.0000000E-01; -8.0298962E+02;3;  6.5286756E-01;  0.0000000E+00;  3.0931315E-01;0; -8.4112044E-03;  3.9915945E+04;  0.0000000E+00;  2.5429150E-01;  4.0000000E+04;  0.0000000E+00;  4.0009078E+04; -7.6389285E-03;  0.0000000E+00; -7.7227637E-04;  1.2771741E+03;
  3.7128314E-01;  9.9999998E-03; -2.4001580E-01;4709; -4.8756539E-03;  0.0000000E+00;  6.9999678E-06;  9.9919946E+02;  1.0000000E-01; -6.6324048E+02;3;  6.4940357E-01;  0.0000000E+00;  3.0377659E-01;0; -8.4323632E-03;  3.9931039E+04;  0.0000000E+00;  2.4948035E-01;  4.0000000E+04;  0.0000000E+00;  4.0007336E+04; -7.7214977E-03;  0.0000000E+00; -7.1086577E-04;  1.0349604E+03;
  3.7128544E-01;  9.9999998E-03; -2.3002543E-01;4710; -4.9670665E-03;  0.0000000E+00;  9.6673612E-06;  9.9936157E+02;  1.0000000E-01; -5.2892334E+02;3;  6.4692158E-01;  0.0000000E+00;  2.9607755E-01;0; -8.4986174E-03;  3.9946934E+04;  0.0000000E+00;  2.1256135E-01;  4.0000000E+04;  0.0000000E+00;  4.0004332E+04; -7.8124162E-03;  0.0000000E+00; -6.8620109E-04;  6.7089551E+02;
  3.7127617E-01;  9.9999998E-03; -2.2003894E-01;4711; -5.0568446E-03;  0.0000000E+00;  1.6032013E-06;  9.9952948E+02;  1.0000000E-01; -3.8981613E+02;3;  6.4505559E-01;  0.0000000E+00;  2.8907445E-01;0; -8.5138585E-03;  3.9962809E+04;  0.0000000E+00;  1.5169907E-01;  4.0000000E+04;  0.0000000E+00;  4.0001605E+04; -7.9094321E-03;  0.0000000E+00; -6.0442695E-04;  3.2577930E+02;
  3.7126568E-01;  9.9999998E-03; -2.1004353E-01;4712; -5.1449882E-03;  0.0000000E+00; -1.6019350E-05;  9.9970526E+02;  1.0000000E-01; -2.4419063E+02;3;  6.4393014E-01;  0.0000000E+00;  2.8263190E-01;0; -8.5191410E-03;  3.9978629E+04;  0.0000000E+00;  7.6767579E-02;  4.0000000E+04;  0.0000000E+00;  4.0000809E+04; -8.0098109E-03;  0.0000000E+00; -5.0932972E-04;  1.4046167E+02;
  3.7126026E-01;  9.9999998E-03; -2.0003843E-01;4713; -5.2321912E-03;  0.0000000E+00; -2.5685982E-05;  9.9987158E+02;  1.0000000E-01; -1.0636736E+02;3;  6.4414853E-01;  0.0000000E+00;  2.7394560E-01;0; -8.5412981E-03;  3.9992531E+04;  0.0000000E+00; -1.6002677E-03;  4.0000000E+04;  0.0000000E+00;  3.9999719E+04; -8.1106853E-03;  0.0000000E+00; -4.3061326E-04;  4.4403229E+01;
  3.7126645E-01;  9.9999998E-03; -1.9002983E-01;4714; -5.3167283E-03;  0.0000000E+00; -3.0079722E-05;  1.0000096E+03;  1.0000000E-01;  7.9010110E+00;3;  6.4550716E-01;  0.0000000E+00;  2.6404226E-01;0; -8.5670166E-03;  4.0005113E+04;  0.0000000E+00; -7.2669663E-02;  4.0000000E+04;  0.0000000E+00;  3.9998281E+04; -8.2095191E-03;  0.0000000E+00; -3.5749769E-04;  2.6924969E+02;
  3.7128708E-01;  9.9999998E-03; -1.8002000E-01;4715; -5.3966907E-03;  0.0000000E+00; -3.4298064E-05;  1.0001169E+03;  1.0000000E-01;  9.6886147E+01;3;  6.4749271E-01;  0.0000000E+00;  2.5359175E-01;0; -8.5931001E-03;  4.0015293E+04;  0.0000000E+00; -1.2699483E-01;  4.0000000E+04;  0.0000000E+00;  3.9996668E+04; -8.3045941E-03;  0.0000000E+00; -2.8850578E-04;  5.0797366E+02;
  3.7132087E-01;  9.9999998E-03; -1.7000909E-01;4716; -5.4713748E-03;  0.0000000E+00; -3.9710245E-05;  1.0001933E+03;  1.0000000E-01;  1.6019299E+02;3;  6.4972764E-01;  0.0000000E+00;  2.4288189E-01;0; -8.6213918E-03;  4.0023590E+04;  0.0000000E+00; -1.5796851E-01;  4.0000000E+04;  0.0000000E+00;  3.9995062E+04; -8.3954269E-03;  0.0000000E+00; -2.2596464E-04;  7.1232361E+02;
  3.7136084E-01;  9.9999998E-03; -1.5999991E-01;4717; -5.5408701E-03;  0.0000000E+00; -4.6249123E-05;  1.0002550E+03;  1.0000000E-01;  2.1125328E+02;3;  6.5225315E-01;  0.0000000E+00;  2.3168971E-01;0; -8.6533781E-03;  4.0029293E+04;  0.0000000E+00; -1.6331506E-01;  4.0000000E+04;  0.0000000E+00;  3.9993902E+04; -8.4825885E-03;  0.0000000E+00; -1.7078919E-04;  8.5321777E+02;
  3.7139937E-01;  9.9999998E-03; -1.4999545E-01;4718; -5.6059896E-03;  0.0000000E+00; -5.3070089E-05;  1.0002974E+03;  1.0000000E-01;  2.4641278E+02;3;  6.5424329E-01;  0.0000000E+00;  2.2203001E-01;0; -8.6899651E-03;  4.0032996E+04;  0.0000000E+00; -1.4567743E-01;  4.0000000E+04;  0.0000000E+00;  3.9993418E+04; -8.5675642E-03;  0.0000000E+00; -1.2240105E-04;  9.1813971E+02;
  3.7143224E-01;  9.9999998E-03; -1.3999519E-01;4719; -5.6676515E-03;  0.0000000E+00; -5.9411694E-05;  1.0003195E+03;  1.0000000E-01;  2.6468387E+02;3;  6.5605783E-01;  0.0000000E+00;  2.1193907E-01;0; -8.7314388E-03;  4.0034750E+04;  0.0000000E+00; -1.1181396E-01;  4.0000000E+04;  0.0000000E+00;  3.9993211E+04; -8.6521925E-03;  0.0000000E+00; -7.9246682E-05;  9.1172076E+02;
  3.7145555E-01;  9.9999998E-03; -1.2999801E-01;4720; -5.7265437E-03;  0.0000000E+00; -6.4410124E-05;  1.0003331E+03;  1.0000000E-01;  2.7594281E+02;3;  6.5803337E-01;  0.0000000E+00;  2.0160986E-01;0; -8.7775588E-03;  4.0035547E+04;  0.0000000E+00; -7.0378549E-02;  4.0000000E+04;  0.0000000E+00;  3.9993426E+04; -8.7383855E-03;  0.0000000E+00; -3.9173468E-05;  8.4917676E+02;
  3.7146670E-01;  9.9999998E-03; -1.2000272E-01;4721; -5.7829814E-03;  0.0000000E+00; -6.7177156E-05;  1.0003432E+03;  1.0000000E-01;  2.8433765E+02;3;  6.6018999E-01;  0.0000000E+00;  1.9017842E-01;0; -8.8277627E-03;  4.0035312E+04;  0.0000000E+00; -2.9383598E-02;  4.0000000E+04;  0.0000000E+00;  3.9994145E+04; -8.8274898E-03;  0.0000000E+00; -2.7279449E-07;  7.4989575E+02;
  3.7146357E-01;  9.9999998E-03; -1.1000787E-01;4722; -5.8368533E-03;  0.0000000E+00; -6.6914668E-05;  1.0003516E+03;  1.0000000E-01;  2.9125101E+02;3;  6.6275394E-01;  0.0000000E+00;  1.7599717E-01;0; -8.8819712E-03;  4.0034977E+04;  0.0000000E+00;  5.3899097E-03;  4.0000000E+04;  0.0000000E+00;  3.9995340E+04; -8.9199599E-03;  0.0000000E+00;  3.7988386E-05;  6.3378485E+02;
  3.8123313E-01;  9.9999998E-03; -2.7000418E-01;4767; -4.6771863E-03;  0.0000000E+00;  7.7837387E-05;  9.9872687E+02;  1.0000000E-01; -1.0547850E+03;3;  6.8366170E-01;  0.0000000E+00;  3.2788515E-01;0; -8.2349535E-03;  3.9886840E+04;  0.0000000E+00;  6.0775246E-02;  4.0000000E+04;  0.0000000E+00;  4.0012844E+04; -7.1771592E-03;  0.0000000E+00; -1.0577948E-03;  1.6715238E+03;
  3.8124335E-01;  9.9999998E-03; -2.6000729E-01;4768; -4.7676573E-03;  0.0000000E+00;  6.2607913E-05;  9.9886639E+02;  1.0000000E-01; -9.3918329E+02;3;  6.7985451E-01;  0.0000000E+00;  3.2296234E-01;0; -8.2384273E-03;  3.9899562E+04;  0.0000000E+00;  1.2160505E-01;  4.0000000E+04;  0.0000000E+00;  4.0010844E+04; -7.2427662E-03;  0.0000000E+00; -9.9566113E-04;  1.4758467E+03;
  3.8125613E-01;  9.9999998E-03; -2.5001058E-01;4769; -4.8577981E-03;  0.0000000E+00;  4.5903362E-05;  9.9901947E+02;  1.0000000E-01; -8.1237207E+02;3;  6.7645448E-01;  0.0000000E+00;  3.1886715E-01;0; -8.2319975E-03;  3.9913520E+04;  0.0000000E+00;  1.5261090E-01;  4.0000000E+04;  0.0000000E+00;  4.0008965E+04; -7.3191593E-03;  0.0000000E+00; -9.1283798E-04;  1.2690101E+03;
  3.8127089E-01;  9.9999998E-03; -2.4001361E-01;4770; -4.9476246E-03;  0.0000000E+00;  2.8787881E-05;  9.9918451E+02;  1.0000000E-01; -6.7563519E+02;3;  6.7381299E-01;  0.0000000E+00;  3.1384471E-01;0; -8.2353046E-03;  3.9928176E+04;  0.0000000E+00;  1.5499268E-01;  4.0000000E+04;  0.0000000E+00;  4.0007668E+04; -7.4059865E-03;  0.0000000E+00; -8.2931831E-04;  1.0619106E+03;
  3.8128188E-01;  9.9999998E-03; -2.3001832E-01;4771; -5.0374204E-03;  0.0000000E+00;  2.4488178E-05;  9.9934814E+02;  1.0000000E-01; -5.4003412E+02;3;  6.7198914E-01;  0.0000000E+00;  3.0708596E-01;0; -8.2915602E-03;  3.9943520E+04;  0.0000000E+00;  1.3407955E-01;  4.0000000E+04;  0.0000000E+00;  4.0005734E+04; -7.5022508E-03;  0.0000000E+00; -7.8930974E-04;  7.7455902E+02;
  3.8128951E-01;  9.9999998E-03; -2.2002499E-01;4772; -5.1266728E-03;  0.0000000E+00;  2.0047604E-05;  9.9950415E+02;  1.0000000E-01; -4.1080319E+02;3;  6.7105770E-01;  0.0000000E+00;  2.9977104E-01;0; -8.3302725E-03;  3.9958555E+04;  0.0000000E+00;  9.5728137E-02;  4.0000000E+04;  0.0000000E+00;  4.0003066E+04; -7.6060095E-03;  0.0000000E+00; -7.2426297E-04;  4.5540860E+02;
  3.8129818E-01;  9.9999998E-03; -2.1002461E-01;4773; -5.2149794E-03;  0.0000000E+00;  8.7423869E-06;  9.9966473E+02;  1.0000000E-01; -2.7776993E+02;3;  6.7089671E-01;  0.0000000E+00;  2.9242000E-01;0; -8.3540073E-03;  3.9973117E+04;  0.0000000E+00;  4.6983790E-02;  4.0000000E+04;  0.0000000E+00;  4.0001777E+04; -7.7148248E-03;  0.0000000E+00; -6.3918234E-04;  2.4156427E+02;
  3.8131201E-01;  9.9999998E-03; -2.0001625E-01;4774; -5.3022704E-03;  0.0000000E+00;  1.3549302E-06;  9.9980853E+02;  1.0000000E-01; -1.5861279E+02;3;  6.7198539E-01;  0.0000000E+00;  2.8343135E-01;0; -8.3856517E-03;  3.9986352E+04;  0.0000000E+00; -4.1476008E-03;  4.0000000E+04;  0.0000000E+00;  4.0000227E+04; -7.8259967E-03;  0.0000000E+00; -5.5965496E-04;  3.5544933E+01;
  3.8133487E-01;  9.9999998E-03; -1.9000521E-01;4775; -5.3867772E-03;  0.0000000E+00; -4.2998613E-06;  9.9993024E+02;  1.0000000E-01; -5.7776142E+01;3;  6.7423761E-01;  0.0000000E+00;  2.7315122E-01;0; -8.4198751E-03;  3.9998074E+04;  0.0000000E+00; -4.9467526E-02;  4.0000000E+04;  0.0000000E+00;  3.9998316E+04; -7.9369470E-03;  0.0000000E+00; -4.8292804E-04;  2.2309410E+02;
  3.8136804E-01;  9.9999998E-03; -1.7999434E-01;4776; -5.4668514E-03;  0.0000000E+00; -1.1165715E-05;  1.0000294E+03;  1.0000000E-01;  2.4394371E+01;3;  6.7677546E-01;  0.0000000E+00;  2.6324818E-01;0; -8.4560644E-03;  4.0008070E+04;  0.0000000E+00; -8.1827164E-02;  4.0000000E+04;  0.0000000E+00;  3.9996500E+04; -8.0457861E-03;  0.0000000E+00; -4.1027830E-04;  4.7049841E+02;
  3.8140672E-01;  9.9999998E-03; -1.6998556E-01;4777; -5.5422597E-03;  0.0000000E+00; -1.9119672E-05;  1.0001161E+03;  1.0000000E-01;  9.6194809E+01;3;  6.7977160E-01;  0.0000000E+00;  2.5224385E-01;0; -8.4953392E-03;  4.0016066E+04;  0.0000000E+00; -9.6446991E-02;  4.0000000E+04;  0.0000000E+00;  3.9994805E+04; -8.1515312E-03;  0.0000000E+00; -3.4380815E-04;  6.6979803E+02;
  3.8144237E-01;  9.9999998E-03; -1.5998073E-01;4778; -5.6132372E-03;  0.0000000E+00; -2.7499460E-05;  1.0001761E+03;  1.0000000E-01;  1.4587242E+02;3;  6.8253869E-01;  0.0000000E+00;  2.4150176E-01;0; -8.5381335E-03;  4.0022207E+04;  0.0000000E+00; -9.2028499E-02;  4.0000000E+04;  0.0000000E+00;  3.9993809E+04; -8.2541648E-03;  0.0000000E+00; -2.8396890E-04;  7.9754022E+02;
  3.8147104E-01;  9.9999998E-03; -1.4998035E-01;4779; -5.6805699E-03;  0.0000000E+00; -3.5350135E-05;  1.0002219E+03;  1.0000000E-01;  1.8389603E+02;3;  6.8505162E-01;  0.0000000E+00;  2.3167473E-01;0; -8.5845068E-03;  4.0026129E+04;  0.0000000E+00; -7.1173817E-02;  4.0000000E+04;  0.0000000E+00;  3.9993180E+04; -8.3542196E-03;  0.0000000E+00; -2.3028743E-04;  8.5164697E+02;
  3.8149229E-01;  9.9999998E-03; -1.3998368E-01;4780; -5.7448903E-03;  0.0000000E+00; -4.2052739E-05;  1.0002551E+03;  1.0000000E-01;  2.1135205E+02;3;  6.8727505E-01;  0.0000000E+00;  2.2279608E-01;0; -8.6343680E-03;  4.0028820E+04;  0.0000000E+00; -3.9802708E-02;  4.0000000E+04;  0.0000000E+00;  3.9993457E+04; -8.4526930E-03;  0.0000000E+00; -1.8167518E-04;  8.4389056E+02;
  3.8150549E-01;  9.9999998E-03; -1.2998927E-01;4781; -5.8065406E-03;  0.0000000E+00; -4.7187099E-05;  1.0002783E+03;  1.0000000E-01;  2.3061076E+02;3;  6.8994069E-01;  0.0000000E+00;  2.1248330E-01;0; -8.6870976E-03;  4.0029727E+04;  0.0000000E+00; -5.2586272E-03;  4.0000000E+04;  0.0000000E+00;  3.9993621E+04; -8.5505703E-03;  0.0000000E+00; -1.3652713E-04;  7.9128387E+02;
  3.8150963E-01;  9.9999998E-03; -1.1999585E-01;4782; -5.8655059E-03;  0.0000000E+00; -5.0087543E-05;  1.0002916E+03;  1.0000000E-01;  2.4157341E+02;3;  6.9304681E-01;  0.0000000E+00;  2.0016421E-01;0; -8.7418929E-03;  4.0030047E+04;  0.0000000E+00;  2.6042547E-02;  4.0000000E+04;  0.0000000E+00;  3.9994359E+04; -8.6484747E-03;  0.0000000E+00; -9.3417933E-05;  7.1147797E+02;
  3.8150445E-01;  9.9999998E-03; -1.1000226E-01;4783; -5.9213946E-03;  0.0000000E+00; -5.0132800E-05;  1.0003002E+03;  1.0000000E-01;  2.4878308E+02;3;  6.9649988E-01;  0.0000000E+00;  1.8515660E-01;0; -8.7984912E-03;  4.0030207E+04;  0.0000000E+00;  4.9925268E-02;  4.0000000E+04;  0.0000000E+00;  3.9995289E+04; -8.7463250E-03;  0.0000000E+00; -5.2166262E-05;  6.2072516E+02;
  3.9123493E-01;  9.9999998E-03; -2.7000430E-01;4828; -4.7583943E-03;  0.0000000E+00;  1.0536378E-04;  9.9871948E+02;  1.0000000E-01; -1.0609083E+03;3;  7.0482707E-01;  0.0000000E+00;  3.3509091E-01;0; -8.0004390E-03;  3.9884941E+04;  0.0000000E+00; -1.6002592E-02;  4.0000000E+04;  0.0000000E+00;  4.0012750E+04; -6.8511274E-03;  0.0000000E+00; -1.1493119E-03;  1.6865845E+03;
  3.9124191E-01;  9.9999998E-03; -2.6000693E-01;4829; -4.8457379E-03;  0.0000000E+00;  8.8437351E-05;  9.9885474E+02;  1.0000000E-01; -9.4881268E+02;3;  7.0206279E-01;  0.0000000E+00;  3.3074009E-01;0; -8.0164615E-03;  3.9897555E+04;  0.0000000E+00;  2.8247222E-02;  4.0000000E+04;  0.0000000E+00;  4.0011359E+04; -6.9226180E-03;  0.0000000E+00; -1.0938436E-03;  1.4941746E+03;
  3.9125958E-01;  9.9999998E-03; -2.5000948E-01;4830; -4.9336180E-03;  0.0000000E+00;  7.1084200E-05;  9.9900574E+02;  1.0000000E-01; -8.2372980E+02;3;  6.9973683E-01;  0.0000000E+00;  3.2733926E-01;0; -8.0296267E-03;  3.9911055E+04;  0.0000000E+00;  5.4545306E-02;  4.0000000E+04;  0.0000000E+00;  4.0009141E+04; -7.0057344E-03;  0.0000000E+00; -1.0238924E-03;  1.2879623E+03;
  3.9128444E-01;  9.9999998E-03; -2.4001095E-01;4831; -5.0218422E-03;  0.0000000E+00;  5.1878775E-05;  9.9916595E+02;  1.0000000E-01; -6.9099280E+02;3;  6.9814062E-01;  0.0000000E+00;  3.2241997E-01;0; -8.0417860E-03;  3.9925582E+04;  0.0000000E+00;  6.3867241E-02;  4.0000000E+04;  0.0000000E+00;  4.0008082E+04; -7.1004522E-03;  0.0000000E+00; -9.4133365E-04;  1.1038711E+03;
  3.9130515E-01;  9.9999998E-03; -2.3001127E-01;4832; -5.1103705E-03;  0.0000000E+00;  4.1108411E-05;  9.9933130E+02;  1.0000000E-01; -5.5400903E+02;3;  6.9717979E-01;  0.0000000E+00;  3.1652793E-01;0; -8.0951322E-03;  3.9940078E+04;  0.0000000E+00;  5.9042286E-02;  4.0000000E+04;  0.0000000E+00;  4.0006742E+04; -7.2060293E-03;  0.0000000E+00; -8.8910287E-04;  8.9706104E+02;
  3.9132360E-01;  9.9999998E-03; -2.2001068E-01;4833; -5.1991539E-03;  0.0000000E+00;  3.6867070E-05;  9.9948859E+02;  1.0000000E-01; -4.2369171E+02;3;  6.9712204E-01;  0.0000000E+00;  3.0934265E-01;0; -8.1552295E-03;  3.9954824E+04;  0.0000000E+00;  4.3254986E-02;  4.0000000E+04;  0.0000000E+00;  4.0004641E+04; -7.3205275E-03;  0.0000000E+00; -8.3470246E-04;  6.4562793E+02;
  3.9134488E-01;  9.9999998E-03; -2.1000506E-01;4834; -5.2877180E-03;  0.0000000E+00;  3.2041517E-05;  9.9963379E+02;  1.0000000E-01; -3.0339883E+02;3;  6.9823080E-01;  0.0000000E+00;  3.0089647E-01;0; -8.2040438E-03;  3.9968605E+04;  0.0000000E+00;  2.0884104E-02;  4.0000000E+04;  0.0000000E+00;  4.0002895E+04; -7.4413992E-03;  0.0000000E+00; -7.6264451E-04;  4.0804565E+02;
  3.9137122E-01;  9.9999998E-03; -1.9999538E-01;4835; -5.3750155E-03;  0.0000000E+00;  2.7461974E-05;  9.9976746E+02;  1.0000000E-01; -1.9263652E+02;3;  7.0040411E-01;  0.0000000E+00;  2.9111031E-01;0; -8.2503688E-03;  3.9981555E+04;  0.0000000E+00; -2.8393634E-03;  4.0000000E+04;  0.0000000E+00;  4.0000918E+04; -7.5658616E-03;  0.0000000E+00; -6.8450766E-04;  1.4190242E+02;
  3.9140204E-01;  9.9999998E-03; -1.8998547E-01;4836; -5.4594111E-03;  0.0000000E+00;  2.1272594E-05;  9.9988751E+02;  1.0000000E-01; -9.3182549E+01;3;  7.0351893E-01;  0.0000000E+00;  2.8016639E-01;0; -8.2968632E-03;  3.9993207E+04;  0.0000000E+00; -2.2498863E-02;  4.0000000E+04;  0.0000000E+00;  3.9998699E+04; -7.6912623E-03;  0.0000000E+00; -6.0560129E-04;  1.4922108E+02;
  3.9143288E-01;  9.9999998E-03; -1.7997757E-01;4837; -5.5398401E-03;  0.0000000E+00;  1.3070014E-05;  9.9998566E+02;  1.0000000E-01; -1.1900898E+01;3;  7.0720047E-01;  0.0000000E+00;  2.6853204E-01;0; -8.3459020E-03;  4.0003348E+04;  0.0000000E+00; -3.3483695E-02;  4.0000000E+04;  0.0000000E+00;  3.9996629E+04; -7.8154597E-03;  0.0000000E+00; -5.3044269E-04;  4.0657339E+02;
  3.9145979E-01;  9.9999998E-03; -1.6997288E-01;4838; -5.6163636E-03;  0.0000000E+00;  4.1607559E-06;  1.0000710E+03;  1.0000000E-01;  5.8862534E+01;3;  7.1041983E-01;  0.0000000E+00;  2.5821668E-01;0; -8.3981445E-03;  4.0011379E+04;  0.0000000E+00; -3.2925673E-02;  4.0000000E+04;  0.0000000E+00;  3.9995363E+04; -7.9369489E-03;  0.0000000E+00; -4.6119603E-04;  6.0107758E+02;
  3.9148149E-01;  9.9999998E-03; -1.5997198E-01;4839; -5.6892224E-03;  0.0000000E+00; -4.5658244E-06;  1.0001432E+03;  1.0000000E-01;  1.1861393E+02;3;  7.1340919E-01;  0.0000000E+00;  2.4872586E-01;0; -8.4532537E-03;  4.0018148E+04;  0.0000000E+00; -2.0483691E-02;  4.0000000E+04;  0.0000000E+00;  3.9994090E+04; -8.0549512E-03;  0.0000000E+00; -3.9830248E-04;  7.2188965E+02;
  3.9149684E-01;  9.9999998E-03; -1.4997433E-01;4840; -5.7589323E-03;  0.0000000E+00; -1.2413002E-05;  1.0001946E+03;  1.0000000E-01;  1.6118063E+02;3;  7.1655595E-01;  0.0000000E+00;  2.3894551E-01;0; -8.5109528E-03;  4.0022719E+04;  0.0000000E+00;  1.4151091E-03;  4.0000000E+04;  0.0000000E+00;  3.9993816E+04; -8.1694480E-03;  0.0000000E+00; -3.4150452E-04;  7.7608649E+02;
  3.9150906E-01;  9.9999998E-03; -1.3997896E-01;4841; -5.8258772E-03;  0.0000000E+00; -1.8890445E-05;  1.0002314E+03;  1.0000000E-01;  1.9179704E+02;3;  7.1963125E-01;  0.0000000E+00;  2.2949377E-01;0; -8.5708760E-03;  4.0025664E+04;  0.0000000E+00;  2.8080577E-02;  4.0000000E+04;  0.0000000E+00;  3.9993902E+04; -8.2807895E-03;  0.0000000E+00; -2.9008623E-04;  7.7874310E+02;
  3.9151940E-01;  9.9999998E-03; -1.2998484E-01;4842; -5.8900909E-03;  0.0000000E+00; -2.3723400E-05;  1.0002541E+03;  1.0000000E-01;  2.1046318E+02;3;  7.2333121E-01;  0.0000000E+00;  2.1790878E-01;0; -8.6322241E-03;  4.0027227E+04;  0.0000000E+00;  5.3959604E-02;  4.0000000E+04;  0.0000000E+00;  3.9994105E+04; -8.3894236E-03;  0.0000000E+00; -2.4280064E-04;  7.4573981E+02;
  3.9152551E-01;  9.9999998E-03; -1.1999092E-01;4843; -5.9512695E-03;  0.0000000E+00; -2.6470243E-05;  1.0002685E+03;  1.0000000E-01;  2.2241347E+02;3;  7.2746289E-01;  0.0000000E+00;  2.0453891E-01;0; -8.6940220E-03;  4.0027855E+04;  0.0000000E+00;  7.4532054E-02;  4.0000000E+04;  0.0000000E+00;  3.9994605E+04; -8.4955497E-03;  0.0000000E+00; -1.9847248E-04;  6.9144867E+02;
  3.9152572E-01;  9.9999998E-03; -1.0999607E-01;4844; -6.0087373E-03;  0.0000000E+00; -2.6849761E-05;  1.0002752E+03;  1.0000000E-01;  2.2804294E+02;3;  7.3177367E-01;  0.0000000E+00;  1.8908256E-01;0; -8.7560108E-03;  4.0027414E+04;  0.0000000E+00;  8.7323532E-02;  4.0000000E+04;  0.0000000E+00;  3.9995457E+04; -8.5989917E-03;  0.0000000E+00; -1.5701950E-04;  6.2780652E+02;
  4.0122676E-01;  9.9999998E-03; -2.7000400E-01;4889; -4.8394226E-03;  0.0000000E+00;  1.3378647E-04;  9.9871088E+02;  1.0000000E-01; -1.0680192E+03;3;  7.2554165E-01;  0.0000000E+00;  3.4103251E-01;0; -7.7366680E-03;  3.9883051E+04;  0.0000000E+00; -7.7639803E-02;  4.0000000E+04;  0.0000000E+00;  4.0012844E+04; -6.5124910E-03;  0.0000000E+00; -1.2241772E-03;  1.7069175E+03;
  4.0123528E-01;  9.9999998E-03; -2.6000622E-01;4890; -4.9236654E-03;  0.0000000E+00;  1.1468379E-04;  9.9884564E+02;  1.0000000E-01; -9.5636804E+02;3;  7.2398549E-01;  0.0000000E+00;  3.3726799E-01;0; -7.7684661E-03;  3.9895602E+04;  0.0000000E+00; -5.1415246E-02;  4.0000000E+04;  0.0000000E+00;  4.0011297E+04; -6.5945797E-03;  0.0000000E+00; -1.1738867E-03;  1.5165909E+03;
  4.0125290E-01;  9.9999998E-03; -2.5000814E-01;4891; -5.0097010E-03;  0.0000000E+00;  9.6384792E-05;  9.9899506E+02;  1.0000000E-01; -8.3256903E+02;3;  7.2273654E-01;  0.0000000E+00;  3.3420828E-01;0; -7.8088921E-03;  3.9908848E+04;  0.0000000E+00; -3.2877948E-02;  4.0000000E+04;  0.0000000E+00;  4.0009566E+04; -6.6893701E-03;  0.0000000E+00; -1.1195221E-03;  1.3148954E+03;
  4.0127942E-01;  9.9999998E-03; -2.4000843E-01;4892; -5.0967517E-03;  0.0000000E+00;  7.4843359E-05;  9.9915247E+02;  1.0000000E-01; -7.0215295E+02;3;  7.2222537E-01;  0.0000000E+00;  3.2961339E-01;0; -7.8377808E-03;  3.9923027E+04;  0.0000000E+00; -2.0484341E-02;  4.0000000E+04;  0.0000000E+00;  4.0008395E+04; -6.7967866E-03;  0.0000000E+00; -1.0409941E-03;  1.1515970E+03;
  4.0130678E-01;  9.9999998E-03; -2.3000553E-01;4893; -5.1846979E-03;  0.0000000E+00;  5.9048212E-05;  9.9931915E+02;  1.0000000E-01; -5.6408282E+02;3;  7.2234058E-01;  0.0000000E+00;  3.2427606E-01;0; -7.9007410E-03;  3.9937215E+04;  0.0000000E+00; -1.3252678E-02;  4.0000000E+04;  0.0000000E+00;  4.0007402E+04; -6.9159959E-03;  0.0000000E+00; -9.8474475E-04;  1.0103363E+03;
  4.0133139E-01;  9.9999998E-03; -2.2000085E-01;4894; -5.2736746E-03;  0.0000000E+00;  5.6599085E-05;  9.9947607E+02;  1.0000000E-01; -4.3406180E+02;3;  7.2331214E-01;  0.0000000E+00;  3.1725541E-01;0; -7.9902234E-03;  3.9951652E+04;  0.0000000E+00; -1.0223143E-02;  4.0000000E+04;  0.0000000E+00;  4.0005711E+04; -7.0451358E-03;  0.0000000E+00; -9.4508776E-04;  7.9197705E+02;
  4.0135634E-01;  9.9999998E-03; -2.0999464E-01;4895; -5.3626164E-03;  0.0000000E+00;  5.6223278E-05;  9.9961902E+02;  1.0000000E-01; -3.1564539E+02;3;  7.2568822E-01;  0.0000000E+00;  3.0779222E-01;0; -8.0646491E-03;  3.9965551E+04;  0.0000000E+00; -9.4586248E-03;  4.0000000E+04;  0.0000000E+00;  4.0003773E+04; -7.1815029E-03;  0.0000000E+00; -8.8314607E-04;  5.1355652E+02;
  4.0138263E-01;  9.9999998E-03; -1.9998747E-01;4896; -5.4500150E-03;  0.0000000E+00;  5.2957250E-05;  9.9975220E+02;  1.0000000E-01; -2.0527815E+02;3;  7.2905582E-01;  0.0000000E+00;  2.9717964E-01;0; -8.1281513E-03;  3.9978742E+04;  0.0000000E+00; -8.4188432E-03;  4.0000000E+04;  0.0000000E+00;  4.0001234E+04; -7.3221242E-03;  0.0000000E+00; -8.0602732E-04;  2.0855624E+02;
  4.0140834E-01;  9.9999998E-03; -1.8998122E-01;4897; -5.5346177E-03;  0.0000000E+00;  4.6436482E-05;  9.9987231E+02;  1.0000000E-01; -1.0577479E+02;3;  7.3320496E-01;  0.0000000E+00;  2.8542712E-01;0; -8.1900377E-03;  3.9990684E+04;  0.0000000E+00; -4.4688066E-03;  4.0000000E+04;  0.0000000E+00;  3.9999004E+04; -7.4640955E-03;  0.0000000E+00; -7.2594179E-04;  8.9094795E+01;
  4.0143102E-01;  9.9999998E-03; -1.7997706E-01;4898; -5.6158835E-03;  0.0000000E+00;  3.8038695E-05;  9.9997528E+02;  1.0000000E-01; -2.0493248E+01;3;  7.3704076E-01;  0.0000000E+00;  2.7476996E-01;0; -8.2542105E-03;  4.0001531E+04;  0.0000000E+00;  4.4193338E-03;  4.0000000E+04;  0.0000000E+00;  3.9996988E+04; -7.6048267E-03;  0.0000000E+00; -6.4938341E-04;  3.3903958E+02;
  4.0145025E-01;  9.9999998E-03; -1.6997564E-01;4899; -5.6938990E-03;  0.0000000E+00;  2.9347873E-05;  1.0000667E+03;  1.0000000E-01;  5.5307079E+01;3;  7.4089867E-01;  0.0000000E+00;  2.6436010E-01;0; -8.3210021E-03;  4.0010336E+04;  0.0000000E+00;  1.9120887E-02;  4.0000000E+04;  0.0000000E+00;  3.9995691E+04; -7.7423053E-03;  0.0000000E+00; -5.7869666E-04;  5.2422052E+02;
  4.0146685E-01;  9.9999998E-03; -1.5997675E-01;4900; -5.7687922E-03;  0.0000000E+00;  2.1131162E-05;  1.0001476E+03;  1.0000000E-01;  1.2226815E+02;3;  7.4481010E-01;  0.0000000E+00;  2.5373003E-01;0; -8.3898501E-03;  4.0017047E+04;  0.0000000E+00;  3.8950730E-02;  4.0000000E+04;  0.0000000E+00;  3.9994828E+04; -7.8753410E-03;  0.0000000E+00; -5.1450910E-04;  6.4334607E+02;
  4.0148240E-01;  9.9999998E-03; -1.4998001E-01;4901; -5.8408813E-03;  0.0000000E+00;  1.3969856E-05;  1.0002039E+03;  1.0000000E-01;  1.6898288E+02;3;  7.4900043E-01;  0.0000000E+00;  2.4249110E-01;0; -8.4603475E-03;  4.0021938E+04;  0.0000000E+00;  6.1629541E-02;  4.0000000E+04;  0.0000000E+00;  3.9994410E+04; -8.0034854E-03;  0.0000000E+00; -4.5686183E-04;  7.0666211E+02;
  4.0149519E-01;  9.9999998E-03; -1.3998446E-01;4902; -5.9102271E-03;  0.0000000E+00;  8.1794915E-06;  1.0002419E+03;  1.0000000E-01;  2.0038939E+02;3;  7.5323391E-01;  0.0000000E+00;  2.3234279E-01;0; -8.5320445E-03;  4.0025344E+04;  0.0000000E+00;  8.3699919E-02;  4.0000000E+04;  0.0000000E+00;  3.9994641E+04; -8.1268372E-03;  0.0000000E+00; -4.0520722E-04;  7.2779169E+02;
  4.0150633E-01;  9.9999998E-03; -1.2998909E-01;4903; -5.9766280E-03;  0.0000000E+00;  3.9050497E-06;  1.0002675E+03;  1.0000000E-01;  2.2162337E+02;3;  7.5782841E-01;  0.0000000E+00;  2.2081304E-01;0; -8.6040515E-03;  4.0027184E+04;  0.0000000E+00;  1.0149890E-01;  4.0000000E+04;  0.0000000E+00;  3.9994449E+04; -8.2455985E-03;  0.0000000E+00; -3.5845273E-04;  7.1932532E+02;
  4.0151599E-01;  9.9999998E-03; -1.1999303E-01;4904; -6.0395347E-03;  0.0000000E+00;  1.2344452E-06;  1.0002727E+03;  1.0000000E-01;  2.2596892E+02;3;  7.6287276E-01;  0.0000000E+00;  2.0661980E-01;0; -8.6753238E-03;  4.0027805E+04;  0.0000000E+00;  1.1245875E-01;  4.0000000E+04;  0.0000000E+00;  3.9994645E+04; -8.3598150E-03;  0.0000000E+00; -3.1550924E-04;  6.9211688E+02;
  4.0152109E-01;  9.9999998E-03; -1.0999577E-01;4905; -6.0980930E-03;  0.0000000E+00;  1.7392736E-07;  1.0002683E+03;  1.0000000E-01;  2.2231470E+02;3;  7.6828635E-01;  0.0000000E+00;  1.8959166E-01;0; -8.7455902E-03;  4.0027062E+04;  0.0000000E+00;  1.1570603E-01;  4.0000000E+04;  0.0000000E+00;  3.9995148E+04; -8.4693963E-03;  0.0000000E+00; -2.7619410E-04;  6.5439801E+02;
  4.1122758E-01;  9.9999998E-03; -2.7000356E-01;4950; -4.9163196E-03;  0.0000000E+00;  1.6394405E-04;  9.9870563E+02;  1.0000000E-01; -1.0723647E+03;3;  7.4594975E-01;  0.0000000E+00;  3.4549361E-01;0; -7.4460749E-03;  3.9882152E+04;  0.0000000E+00; -1.3369964E-01;  4.0000000E+04;  0.0000000E+00;  4.0012809E+04; -6.1536296E-03;  0.0000000E+00; -1.2924453E-03;  1.7231802E+03;
  4.1123569E-01;  9.9999998E-03; -2.6000550E-01;4951; -4.9984320E-03;  0.0000000E+00;  1.4245663E-04;  9.9884082E+02;  1.0000000E-01; -9.6036792E+02;3;  7.4546540E-01;  0.0000000E+00;  3.4281236E-01;0; -7.4979528E-03;  3.9894293E+04;  0.0000000E+00; -1.2114701E-01;  4.0000000E+04;  0.0000000E+00;  4.0011566E+04; -6.2511140E-03;  0.0000000E+00; -1.2468387E-03;  1.5360337E+03;
  4.1124797E-01;  9.9999998E-03; -2.5000703E-01;4952; -5.0834352E-03;  0.0000000E+00;  1.2330108E-04;  9.9898761E+02;  1.0000000E-01; -8.3874170E+02;3;  7.4552196E-01;  0.0000000E+00;  3.3953691E-01;0; -7.5729820E-03;  3.9907402E+04;  0.0000000E+00; -1.0936967E-01;  4.0000000E+04;  0.0000000E+00;  4.0009812E+04; -6.3623120E-03;  0.0000000E+00; -1.2106701E-03;  1.3395060E+03;
  4.1126814E-01;  9.9999998E-03; -2.4000658E-01;4953; -5.1702508E-03;  0.0000000E+00;  9.9731922E-05;  9.9914038E+02;  1.0000000E-01; -7.1217737E+02;3;  7.4609762E-01;  0.0000000E+00;  3.3566839E-01;0; -7.6260078E-03;  3.9921363E+04;  0.0000000E+00; -9.6267000E-02;  4.0000000E+04;  0.0000000E+00;  4.0008746E+04; -6.4868592E-03;  0.0000000E+00; -1.1391487E-03;  1.1943376E+03;
  4.1129079E-01;  9.9999998E-03; -2.3000228E-01;4954; -5.2584913E-03;  0.0000000E+00;  8.0575657E-05;  9.9931317E+02;  1.0000000E-01; -5.6902094E+02;3;  7.4734372E-01;  0.0000000E+00;  3.3096957E-01;0; -7.7084969E-03;  3.9935801E+04;  0.0000000E+00; -8.1405111E-02;  4.0000000E+04;  0.0000000E+00;  4.0008055E+04; -6.6237473E-03;  0.0000000E+00; -1.0847496E-03;  1.0827625E+03;
  4.1131294E-01;  9.9999998E-03; -2.1999787E-01;4955; -5.3484626E-03;  0.0000000E+00;  8.1105747E-05;  9.9947083E+02;  1.0000000E-01; -4.3840735E+02;3;  7.4963427E-01;  0.0000000E+00;  3.2321206E-01;0; -7.8318380E-03;  3.9950184E+04;  0.0000000E+00; -6.4864680E-02;  4.0000000E+04;  0.0000000E+00;  4.0006352E+04; -6.7708925E-03;  0.0000000E+00; -1.0609452E-03;  8.4692645E+02;
  4.1133574E-01;  9.9999998E-03; -2.0999520E-01;4956; -5.4382076E-03;  0.0000000E+00;  8.2398510E-05;  9.9961469E+02;  1.0000000E-01; -3.1925024E+02;3;  7.5333053E-01;  0.0000000E+00;  3.1289694E-01;0; -7.9295840E-03;  3.9964250E+04;  0.0000000E+00; -4.6394587E-02;  4.0000000E+04;  0.0000000E+00;  4.0003840E+04; -6.9254390E-03;  0.0000000E+00; -1.0041454E-03;  5.3283716E+02;
  4.1135827E-01;  9.9999998E-03; -1.9999222E-01;4957; -5.5262521E-03;  0.0000000E+00;  7.8481542E-05;  9.9975146E+02;  1.0000000E-01; -2.0592010E+02;3;  7.5757104E-01;  0.0000000E+00;  3.0258429E-01;0; -8.0112247E-03;  3.9977758E+04;  0.0000000E+00; -2.5577590E-02;  4.0000000E+04;  0.0000000E+00;  4.0001559E+04; -7.0842644E-03;  0.0000000E+00; -9.2696032E-04;  2.2923636E+02;
  4.1137931E-01;  9.9999998E-03; -1.8998966E-01;4958; -5.6117764E-03;  0.0000000E+00;  7.1683251E-05;  9.9987805E+02;  1.0000000E-01; -1.0103418E+02;3;  7.6220423E-01;  0.0000000E+00;  2.9161316E-01;0; -8.0907019E-03;  3.9990277E+04;  0.0000000E+00; -2.1288472E-03;  4.0000000E+04;  0.0000000E+00;  3.9999598E+04; -7.2441152E-03;  0.0000000E+00; -8.4658677E-04;  4.6825108E+01;
  4.1139889E-01;  9.9999998E-03; -1.7998832E-01;4959; -5.6943842E-03;  0.0000000E+00;  6.3643834E-05;  9.9999359E+02;  1.0000000E-01; -5.3331823E+00;3;  7.6685727E-01;  0.0000000E+00;  2.8090942E-01;0; -8.1717027E-03;  4.0001148E+04;  0.0000000E+00;  2.3701960E-02;  4.0000000E+04;  0.0000000E+00;  3.9997883E+04; -7.4020242E-03;  0.0000000E+00; -7.6967874E-04;  2.7451288E+02;
  4.1141695E-01;  9.9999998E-03; -1.6998851E-01;4960; -5.7741897E-03;  0.0000000E+00;  5.5819077E-05;  1.0000903E+03;  1.0000000E-01;  7.4862083E+01;3;  7.7167052E-01;  0.0000000E+00;  2.7049330E-01;0; -8.2543874E-03;  4.0010637E+04;  0.0000000E+00;  5.0937671E-02;  4.0000000E+04;  0.0000000E+00;  3.9996523E+04; -7.5556184E-03;  0.0000000E+00; -6.9876900E-04;  4.4925443E+02;
  4.1143441E-01;  9.9999998E-03; -1.5999013E-01;4961; -5.8511482E-03;  0.0000000E+00;  4.8537160E-05;  1.0001718E+03;  1.0000000E-01;  1.4231696E+02;3;  7.7679211E-01;  0.0000000E+00;  2.5834984E-01;0; -8.3382381E-03;  4.0018078E+04;  0.0000000E+00;  7.7823445E-02;  4.0000000E+04;  0.0000000E+00;  3.9995656E+04; -7.7033956E-03;  0.0000000E+00; -6.3484284E-04;  5.7181757E+02;
  4.1145101E-01;  9.9999998E-03; -1.4999273E-01;4962; -5.9253941E-03;  0.0000000E+00;  4.2312524E-05;  1.0002368E+03;  1.0000000E-01;  1.9624136E+02;3;  7.8217310E-01;  0.0000000E+00;  2.4514008E-01;0; -8.4228758E-03;  4.0023867E+04;  0.0000000E+00;  1.0205217E-01;  4.0000000E+04;  0.0000000E+00;  3.9994938E+04; -7.8446744E-03;  0.0000000E+00; -5.7820120E-04;  6.4990735E+02;
  4.1146716E-01;  9.9999998E-03; -1.3999565E-01;4963; -5.9967553E-03;  0.0000000E+00;  3.7197617E-05;  1.0002775E+03;  1.0000000E-01;  2.2991942E+02;3;  7.8789932E-01;  0.0000000E+00;  2.3119336E-01;0; -8.5078394E-03;  4.0027312E+04;  0.0000000E+00;  1.2118777E-01;  4.0000000E+04;  0.0000000E+00;  3.9994773E+04; -7.9794032E-03;  0.0000000E+00; -5.2843615E-04;  6.9300452E+02;
  4.1148117E-01;  9.9999998E-03; -1.2999819E-01;4964; -6.0648201E-03;  0.0000000E+00;  3.3206241E-05;  1.0002973E+03;  1.0000000E-01;  2.4631403E+02;3;  7.9389441E-01;  0.0000000E+00;  2.1633902E-01;0; -8.5921511E-03;  4.0029297E+04;  0.0000000E+00;  1.3321796E-01;  4.0000000E+04;  0.0000000E+00;  3.9994883E+04; -8.1077581E-03;  0.0000000E+00; -4.8439275E-04;  7.0999048E+02;
  4.1149238E-01;  9.9999998E-03; -1.1999977E-01;4965; -6.1289058E-03;  0.0000000E+00;  3.0218644E-05;  1.0003027E+03;  1.0000000E-01;  2.5075835E+02;3;  8.0004835E-01;  0.0000000E+00;  1.9990124E-01;0; -8.6748498E-03;  4.0029484E+04;  0.0000000E+00;  1.3724743E-01;  4.0000000E+04;  0.0000000E+00;  3.9994980E+04; -8.2299970E-03;  0.0000000E+00; -4.4485289E-04;  7.0860742E+02;
  4.1150111E-01;  9.9999998E-03; -1.0999997E-01;4966; -6.1881477E-03;  0.0000000E+00;  2.7959097E-05;  1.0002845E+03;  1.0000000E-01;  2.3574641E+02;3;  8.0597985E-01;  0.0000000E+00;  1.8215668E-01;0; -8.7556876E-03;  4.0028336E+04;  0.0000000E+00;  1.3374236E-01;  4.0000000E+04;  0.0000000E+00;  3.9995098E+04; -8.3462680E-03;  0.0000000E+00; -4.0941982E-04;  6.9460236E+02;
  4.2125005E-01;  9.9999998E-03; -2.7000320E-01;5011; -4.9854196E-03;  0.0000000E+00;  1.9709941E-04;  9.9870654E+02;  1.0000000E-01; -1.0716240E+03;3;  7.6585293E-01;  0.0000000E+00;  3.4866518E-01;0; -7.1412250E-03;  3.9881801E+04;  0.0000000E+00; -1.8217875E-01;  4.0000000E+04;  0.0000000E+00;  4.0013238E+04; -5.7733459E-03;  0.0000000E+00; -1.3678789E-03;  1.7306760E+03;
  4.2125955E-01;  9.9999998E-03; -2.6000497E-01;5012; -5.0668647E-03;  0.0000000E+00;  1.7316484E-04;  9.9884161E+02;  1.0000000E-01; -9.5967657E+02;3;  7.6667708E-01;  0.0000000E+00;  3.4670126E-01;0; -7.2153443E-03;  3.9893785E+04;  0.0000000E+00; -1.8110850E-01;  4.0000000E+04;  0.0000000E+00;  4.0011617E+04; -5.8899047E-03;  0.0000000E+00; -1.3254395E-03;  1.5474290E+03;
  4.2126474E-01;  9.9999998E-03; -2.5000635E-01;5013; -5.1521035E-03;  0.0000000E+00;  1.5340080E-04;  9.9898401E+02;  1.0000000E-01; -8.4175397E+02;3;  7.6803219E-01;  0.0000000E+00;  3.4322938E-01;0; -7.3294993E-03;  3.9906777E+04;  0.0000000E+00; -1.7407450E-01;  4.0000000E+04;  0.0000000E+00;  4.0010219E+04; -6.0210624E-03;  0.0000000E+00; -1.3084367E-03;  1.3553694E+03;
  4.2127335E-01;  9.9999998E-03; -2.4000603E-01;5014; -5.2398830E-03;  0.0000000E+00;  1.2841636E-04;  9.9914185E+02;  1.0000000E-01; -7.1094287E+02;3;  7.6986349E-01;  0.0000000E+00;  3.3979306E-01;0; -7.4119242E-03;  3.9920793E+04;  0.0000000E+00; -1.6084105E-01;  4.0000000E+04;  0.0000000E+00;  4.0008953E+04; -6.1660204E-03;  0.0000000E+00; -1.2459038E-03;  1.2046521E+03;
  4.2128488E-01;  9.9999998E-03; -2.3000173E-01;5015; -5.3295526E-03;  0.0000000E+00;  1.0748269E-04;  9.9931287E+02;  1.0000000E-01; -5.6926782E+02;3;  7.7240676E-01;  0.0000000E+00;  3.3540571E-01;0; -7.5200656E-03;  3.9935145E+04;  0.0000000E+00; -1.4174555E-01;  4.0000000E+04;  0.0000000E+00;  4.0008324E+04; -6.3233832E-03;  0.0000000E+00; -1.1966826E-03;  1.1031763E+03;
  4.2129862E-01;  9.9999998E-03; -2.1999988E-01;5016; -5.4212655E-03;  0.0000000E+00;  1.0989957E-04;  9.9946661E+02;  1.0000000E-01; -4.4191342E+02;3;  7.7604884E-01;  0.0000000E+00;  3.2746112E-01;0; -7.6745623E-03;  3.9949598E+04;  0.0000000E+00; -1.1712231E-01;  4.0000000E+04;  0.0000000E+00;  4.0006035E+04; -6.4907800E-03;  0.0000000E+00; -1.1837822E-03;  8.3651440E+02;
  4.2131540E-01;  9.9999998E-03; -2.1000227E-01;5017; -5.5125258E-03;  0.0000000E+00;  1.1003004E-04;  9.9961768E+02;  1.0000000E-01; -3.1673178E+02;3;  7.8065616E-01;  0.0000000E+00;  3.1769753E-01;0; -7.7928789E-03;  3.9964012E+04;  0.0000000E+00; -8.7375998E-02;  4.0000000E+04;  0.0000000E+00;  4.0003828E+04; -6.6651762E-03;  0.0000000E+00; -1.1277028E-03;  5.0489789E+02;
  4.2133331E-01;  9.9999998E-03; -2.0000370E-01;5018; -5.6020645E-03;  0.0000000E+00;  1.0448194E-04;  9.9976239E+02;  1.0000000E-01; -1.9683394E+02;3;  7.8555065E-01;  0.0000000E+00;  3.0862439E-01;0; -7.8937681E-03;  3.9978000E+04;  0.0000000E+00; -5.3261530E-02;  4.0000000E+04;  0.0000000E+00;  4.0001512E+04; -6.8432880E-03;  0.0000000E+00; -1.0504798E-03;  2.2853703E+02;
  4.2135122E-01;  9.9999998E-03; -1.9000407E-01;5019; -5.6892550E-03;  0.0000000E+00;  9.7256307E-05;  9.9989893E+02;  1.0000000E-01; -8.3750717E+01;3;  7.9095650E-01;  0.0000000E+00;  2.9831356E-01;0; -7.9922760E-03;  3.9990879E+04;  0.0000000E+00; -1.6050197E-02;  4.0000000E+04;  0.0000000E+00;  3.9999977E+04; -7.0216218E-03;  0.0000000E+00; -9.7065431E-04;  2.9291714E+01;
  4.2136878E-01;  9.9999998E-03; -1.8000422E-01;5020; -5.7737799E-03;  0.0000000E+00;  8.9807661E-05;  1.0000224E+03;  1.0000000E-01;  1.8567375E+01;3;  7.9688627E-01;  0.0000000E+00;  2.8697646E-01;0; -8.0912160E-03;  4.0002703E+04;  0.0000000E+00;  2.2335233E-02;  4.0000000E+04;  0.0000000E+00;  3.9998535E+04; -7.1968827E-03;  0.0000000E+00; -8.9433359E-04;  2.1564711E+02;
  4.2138618E-01;  9.9999998E-03; -1.7000477E-01;5021; -5.8556055E-03;  0.0000000E+00;  8.2843282E-05;  1.0001308E+03;  1.0000000E-01;  1.0834261E+02;3;  8.0296445E-01;  0.0000000E+00;  2.7480063E-01;0; -8.1906905E-03;  4.0012555E+04;  0.0000000E+00;  5.9432648E-02;  4.0000000E+04;  0.0000000E+00;  3.9997211E+04; -7.3664323E-03;  0.0000000E+00; -8.2425843E-04;  3.8175565E+02;
  4.2140338E-01;  9.9999998E-03; -1.6000581E-01;5022; -5.9346505E-03;  0.0000000E+00;  7.6635748E-05;  1.0002166E+03;  1.0000000E-01;  1.7945172E+02;3;  8.0953151E-01;  0.0000000E+00;  2.6127276E-01;0; -8.2903709E-03;  4.0020629E+04;  0.0000000E+00;  9.2529662E-02;  4.0000000E+04;  0.0000000E+00;  3.9996355E+04; -7.5284988E-03;  0.0000000E+00; -7.6187204E-04;  5.1108673E+02;
  4.2142022E-01;  9.9999998E-03; -1.5000717E-01;5023; -6.0107461E-03;  0.0000000E+00;  7.1149763E-05;  1.0002852E+03;  1.0000000E-01;  2.3624023E+02;3;  8.1646216E-01;  0.0000000E+00;  2.4607487E-01;0; -8.3899926E-03;  4.0026906E+04;  0.0000000E+00;  1.1914819E-01;  4.0000000E+04;  0.0000000E+00;  3.9995762E+04; -7.6822620E-03;  0.0000000E+00; -7.0773036E-04;  6.0575696E+02;
  4.2143673E-01;  9.9999998E-03; -1.4000829E-01;5024; -6.0836389E-03;  0.0000000E+00;  6.6321663E-05;  1.0003289E+03;  1.0000000E-01;  2.7248611E+02;3;  8.2377183E-01;  0.0000000E+00;  2.2886902E-01;0; -8.4890639E-03;  4.0030598E+04;  0.0000000E+00;  1.3749544E-01;  4.0000000E+04;  0.0000000E+00;  3.9995043E+04; -7.8276340E-03;  0.0000000E+00; -6.6143030E-04;  6.7042926E+02;
  4.2145291E-01;  9.9999998E-03; -1.3000868E-01;5025; -6.1528329E-03;  0.0000000E+00;  6.1992396E-05;  1.0003478E+03;  1.0000000E-01;  2.8818939E+02;3;  8.3091414E-01;  0.0000000E+00;  2.1163659E-01;0; -8.5866861E-03;  4.0032641E+04;  0.0000000E+00;  1.4676450E-01;  4.0000000E+04;  0.0000000E+00;  3.9995125E+04; -7.9650162E-03;  0.0000000E+00; -6.2167022E-04;  7.1090094E+02;
  4.2146733E-01;  9.9999998E-03; -1.2000799E-01;5026; -6.2176757E-03;  0.0000000E+00;  5.7992391E-05;  1.0003461E+03;  1.0000000E-01;  2.8670795E+02;3;  8.3758670E-01;  0.0000000E+00;  1.9533199E-01;0; -8.6819418E-03;  4.0032828E+04;  0.0000000E+00;  1.4728267E-01;  4.0000000E+04;  0.0000000E+00;  3.9994844E+04; -8.0949832E-03;  0.0000000E+00; -5.8695866E-04;  7.3281219E+02;
  4.2147908E-01;  9.9999998E-03; -1.1000611E-01;5027; -6.2773987E-03;  0.0000000E+00;  5.4114949E-05;  1.0003227E+03;  1.0000000E-01;  2.6735046E+02;3;  8.4355468E-01;  0.0000000E+00;  1.7976056E-01;0; -8.7746885E-03;  4.0030953E+04;  0.0000000E+00;  1.4035749E-01;  4.0000000E+04;  0.0000000E+00;  3.9994570E+04; -8.2181664E-03;  0.0000000E+00; -5.5652222E-04;  7.3975525E+02;
  4.3128052E-01;  9.9999998E-03; -2.7000311E-01;5072; -5.0435793E-03;  0.0000000E+00;  2.3351735E-04;  9.9872430E+02;  1.0000000E-01; -1.0569083E+03;3;  7.8549832E-01;  0.0000000E+00;  3.4907392E-01;0; -6.8322350E-03;  3.9883273E+04;  0.0000000E+00; -2.0240276E-01;  4.0000000E+04;  0.0000000E+00;  4.0012672E+04; -5.3777206E-03;  0.0000000E+00; -1.4545143E-03;  1.7098367E+03;
  4.3129185E-01;  9.9999998E-03; -2.6000482E-01;5073; -5.1261797E-03;  0.0000000E+00;  2.0726318E-04;  9.9885736E+02;  1.0000000E-01; -9.4663989E+02;3;  7.8757447E-01;  0.0000000E+00;  3.4761646E-01;0; -6.9301454E-03;  3.9895180E+04;  0.0000000E+00; -2.1613678E-01;  4.0000000E+04;  0.0000000E+00;  4.0011395E+04; -5.5154175E-03;  0.0000000E+00; -1.4147277E-03;  1.5334374E+03;
  4.3129364E-01;  9.9999998E-03; -2.5000632E-01;5074; -5.2131573E-03;  0.0000000E+00;  1.8723626E-04;  9.9899646E+02;  1.0000000E-01; -8.3143329E+02;3;  7.9046494E-01;  0.0000000E+00;  3.4459016E-01;0; -7.0857350E-03;  3.9908074E+04;  0.0000000E+00; -2.1687828E-01;  4.0000000E+04;  0.0000000E+00;  4.0010035E+04; -5.6682420E-03;  0.0000000E+00; -1.4174931E-03;  1.3419607E+03;
  4.3129513E-01;  9.9999998E-03; -2.4000660E-01;5075; -5.3032474E-03;  0.0000000E+00;  1.6229429E-04;  9.9915454E+02;  1.0000000E-01; -7.0042462E+02;3;  7.9356468E-01;  0.0000000E+00;  3.4200570E-01;0; -7.2038788E-03;  3.9921789E+04;  0.0000000E+00; -2.0699650E-01;  4.0000000E+04;  0.0000000E+00;  4.0008719E+04; -5.8349376E-03;  0.0000000E+00; -1.3689410E-03;  1.1793938E+03;
  4.3129987E-01;  9.9999998E-03; -2.3000340E-01;5076; -5.3955065E-03;  0.0000000E+00;  1.3950419E-04;  9.9932648E+02;  1.0000000E-01; -5.5800891E+02;3;  7.9742843E-01;  0.0000000E+00;  3.3754191E-01;0; -7.3352391E-03;  3.9936246E+04;  0.0000000E+00; -1.8795443E-01;  4.0000000E+04;  0.0000000E+00;  4.0007801E+04; -6.0137315E-03;  0.0000000E+00; -1.3215076E-03;  1.0712854E+03;
  4.3130618E-01;  9.9999998E-03; -2.2000426E-01;5077; -5.4898248E-03;  0.0000000E+00;  1.4076500E-04;  9.9947852E+02;  1.0000000E-01; -4.3203717E+02;3;  8.0228710E-01;  0.0000000E+00;  3.3013067E-01;0; -7.5135184E-03;  3.9950969E+04;  0.0000000E+00; -1.6078694E-01;  4.0000000E+04;  0.0000000E+00;  4.0005758E+04; -6.2020537E-03;  0.0000000E+00; -1.3114646E-03;  7.9262018E+02;
  4.3131569E-01;  9.9999998E-03; -2.1001065E-01;5078; -5.5835270E-03;  0.0000000E+00;  1.3878383E-04;  9.9963062E+02;  1.0000000E-01; -3.0601602E+02;3;  8.0775321E-01;  0.0000000E+00;  3.2189995E-01;0; -7.6524355E-03;  3.9965426E+04;  0.0000000E+00; -1.2634608E-01;  4.0000000E+04;  0.0000000E+00;  4.0003215E+04; -6.3966475E-03;  0.0000000E+00; -1.2557879E-03;  4.7032477E+02;
  4.3132737E-01;  9.9999998E-03; -2.0001559E-01;5079; -5.6754090E-03;  0.0000000E+00;  1.3141395E-04;  9.9977972E+02;  1.0000000E-01; -1.8251335E+02;3;  8.1357700E-01;  0.0000000E+00;  3.1331587E-01;0; -7.7735325E-03;  3.9979836E+04;  0.0000000E+00; -8.5922763E-02;  4.0000000E+04;  0.0000000E+00;  4.0001328E+04; -6.5940665E-03;  0.0000000E+00; -1.1794659E-03;  2.2979570E+02;
  4.3134031E-01;  9.9999998E-03; -1.9001809E-01;5080; -5.7650250E-03;  0.0000000E+00;  1.2356049E-04;  9.9992786E+02;  1.0000000E-01; -5.9751396E+01;3;  8.2005972E-01;  0.0000000E+00;  3.0316049E-01;0; -7.8915823E-03;  3.9993035E+04;  0.0000000E+00; -4.1554328E-02;  4.0000000E+04;  0.0000000E+00;  4.0000227E+04; -6.7905821E-03;  0.0000000E+00; -1.1009999E-03;  5.9373333E+01;
  4.3135363E-01;  9.9999998E-03; -1.8001918E-01;5081; -5.8520506E-03;  0.0000000E+00;  1.1653358E-04;  1.0000651E+03;  1.0000000E-01;  5.3924400E+01;3;  8.2724023E-01;  0.0000000E+00;  2.9143971E-01;0; -8.0087604E-03;  4.0005230E+04;  0.0000000E+00;  3.8883635E-03;  4.0000000E+04;  0.0000000E+00;  3.9998867E+04; -6.9826553E-03;  0.0000000E+00; -1.0261055E-03;  1.7119090E+02;
  4.3136767E-01;  9.9999998E-03; -1.7001964E-01;5082; -5.9362049E-03;  0.0000000E+00;  1.1027426E-04;  1.0001774E+03;  1.0000000E-01;  1.4695880E+02;3;  8.3506811E-01;  0.0000000E+00;  2.7755567E-01;0; -8.1251692E-03;  4.0015469E+04;  0.0000000E+00;  4.7011022E-02;  4.0000000E+04;  0.0000000E+00;  3.9997598E+04; -7.1673668E-03;  0.0000000E+00; -9.5780275E-04;  3.2851599E+02;
  4.3138257E-01;  9.9999998E-03; -1.6001987E-01;5083; -6.0172626E-03;  0.0000000E+00;  1.0457496E-04;  1.0002700E+03;  1.0000000E-01;  2.2369737E+02;3;  8.4315687E-01;  0.0000000E+00;  2.6217023E-01;0; -8.2407761E-03;  4.0023980E+04;  0.0000000E+00;  8.4432967E-02;  4.0000000E+04;  0.0000000E+00;  3.9996707E+04; -7.3427623E-03;  0.0000000E+00; -8.9801388E-04;  4.6415378E+02;
  4.3139845E-01;  9.9999998E-03; -1.5001994E-01;5084; -6.0949819E-03;  0.0000000E+00;  9.9301498E-05;  1.0003370E+03;  1.0000000E-01;  2.7920197E+02;3;  8.5159022E-01;  0.0000000E+00;  2.4531426E-01;0; -8.3554378E-03;  4.0030176E+04;  0.0000000E+00;  1.1346341E-01;  4.0000000E+04;  0.0000000E+00;  3.9995836E+04; -7.5079249E-03;  0.0000000E+00; -8.4751268E-04;  5.7322455E+02;
  4.3141553E-01;  9.9999998E-03; -1.4001954E-01;5085; -6.1690174E-03;  0.0000000E+00;  9.4201925E-05;  1.0003792E+03;  1.0000000E-01;  3.1416394E+02;3;  8.5977846E-01;  0.0000000E+00;  2.2817823E-01;0; -8.4687155E-03;  4.0034379E+04;  0.0000000E+00;  1.3261798E-01;  4.0000000E+04;  0.0000000E+00;  3.9995363E+04; -7.6629054E-03;  0.0000000E+00; -8.0580980E-04;  6.5602118E+02;
  4.3143314E-01;  9.9999998E-03; -1.3001831E-01;5086; -6.2389979E-03;  0.0000000E+00;  8.9200694E-05;  1.0003990E+03;  1.0000000E-01;  3.3055856E+02;3;  8.6728442E-01;  0.0000000E+00;  2.1265195E-01;0; -8.5797841E-03;  4.0036422E+04;  0.0000000E+00;  1.4182156E-01;  4.0000000E+04;  0.0000000E+00;  3.9994852E+04; -7.8084515E-03;  0.0000000E+00; -7.7133230E-04;  7.1591187E+02;
  4.3145052E-01;  9.9999998E-03; -1.2001619E-01;5087; -6.3043651E-03;  0.0000000E+00;  8.3997518E-05;  1.0003951E+03;  1.0000000E-01;  3.2729938E+02;3;  8.7436175E-01;  0.0000000E+00;  1.9688235E-01;0; -8.6878706E-03;  4.0036398E+04;  0.0000000E+00;  1.4204673E-01;  4.0000000E+04;  0.0000000E+00;  3.9994203E+04; -7.9456186E-03;  0.0000000E+00; -7.4225210E-04;  7.5689484E+02;
  4.3146607E-01;  9.9999998E-03; -1.1001314E-01;5088; -6.3645379E-03;  0.0000000E+00;  7.8442019E-05;  1.0003601E+03;  1.0000000E-01;  2.9836194E+02;3;  8.8067079E-01;  0.0000000E+00;  1.8197159E-01;0; -8.7928381E-03;  4.0034375E+04;  0.0000000E+00;  1.3497004E-01;  4.0000000E+04;  0.0000000E+00;  3.9994191E+04; -8.0754636E-03;  0.0000000E+00; -7.1737444E-04;  7.8104010E+02;
  4.4132122E-01;  9.9999998E-03; -2.7000341E-01;5133; -5.0893552E-03;  0.0000000E+00;  2.7395602E-04;  9.9876654E+02;  1.0000000E-01; -1.0218970E+03;3;  8.0332863E-01;  0.0000000E+00;  3.4933990E-01;0; -6.5363459E-03;  3.9886926E+04;  0.0000000E+00; -1.9029178E-01;  4.0000000E+04;  0.0000000E+00;  4.0012234E+04; -4.9769268E-03;  0.0000000E+00; -1.5594193E-03;  1.6478749E+03;
  4.4133082E-01;  9.9999998E-03; -2.6000515E-01;5134; -5.1748678E-03;  0.0000000E+00;  2.4532151E-04;  9.9889520E+02;  1.0000000E-01; -9.1528278E+02;3;  8.0787867E-01;  0.0000000E+00;  3.4730622E-01;0; -6.6558328E-03;  3.9898773E+04;  0.0000000E+00; -2.2146213E-01;  4.0000000E+04;  0.0000000E+00;  4.0010965E+04; -5.1361104E-03;  0.0000000E+00; -1.5197225E-03;  1.4812687E+03;
  4.4133055E-01;  9.9999998E-03; -2.5000697E-01;5135; -5.2650711E-03;  0.0000000E+00;  2.2508795E-04;  9.9903278E+02;  1.0000000E-01; -8.0131067E+02;3;  8.1255060E-01;  0.0000000E+00;  3.4408104E-01;0; -6.8506491E-03;  3.9911375E+04;  0.0000000E+00; -2.3286884E-01;  4.0000000E+04;  0.0000000E+00;  4.0009340E+04; -5.3105224E-03;  0.0000000E+00; -1.5401269E-03;  1.2872634E+03;
  4.4132763E-01;  9.9999998E-03; -2.4000818E-01;5136; -5.3587696E-03;  0.0000000E+00;  2.0189215E-04;  9.9918439E+02;  1.0000000E-01; -6.7573395E+02;3;  8.1714046E-01;  0.0000000E+00;  3.4136027E-01;0; -7.0103076E-03;  3.9924996E+04;  0.0000000E+00; -2.2951999E-01;  4.0000000E+04;  0.0000000E+00;  4.0008086E+04; -5.4985881E-03;  0.0000000E+00; -1.5117197E-03;  1.1104690E+03;
  4.4132787E-01;  9.9999998E-03; -2.3000662E-01;5137; -5.4546827E-03;  0.0000000E+00;  1.7756899E-04;  9.9935126E+02;  1.0000000E-01; -5.3746631E+02;3;  8.2227951E-01;  0.0000000E+00;  3.3775485E-01;0; -7.1612201E-03;  3.9939211E+04;  0.0000000E+00; -2.1440226E-01;  4.0000000E+04;  0.0000000E+00;  4.0007020E+04; -5.6981854E-03;  0.0000000E+00; -1.4630347E-03;  9.9045215E+02;
  4.4132978E-01;  9.9999998E-03; -2.2000916E-01;5138; -5.5524013E-03;  0.0000000E+00;  1.7380965E-04;  9.9950818E+02;  1.0000000E-01; -4.0744525E+02;3;  8.2831687E-01;  0.0000000E+00;  3.3127144E-01;0; -7.3520038E-03;  3.9953734E+04;  0.0000000E+00; -1.8949567E-01;  4.0000000E+04;  0.0000000E+00;  4.0005359E+04; -5.9065386E-03;  0.0000000E+00; -1.4454651E-03;  7.2995129E+02;
  4.4133317E-01;  9.9999998E-03; -2.1001713E-01;5139; -5.6494111E-03;  0.0000000E+00;  1.6888956E-04;  9.9965857E+02;  1.0000000E-01; -2.8285620E+02;3;  8.3470994E-01;  0.0000000E+00;  3.2421800E-01;0; -7.5105065E-03;  3.9968152E+04;  0.0000000E+00; -1.5612005E-01;  4.0000000E+04;  0.0000000E+00;  4.0002973E+04; -6.1203050E-03;  0.0000000E+00; -1.3902014E-03;  4.4289288E+02;
  4.4133794E-01;  9.9999998E-03; -2.0002402E-01;5140; -5.7445266E-03;  0.0000000E+00;  1.5970728E-04;  9.9981854E+02;  1.0000000E-01; -1.5031674E+02;3;  8.4167314E-01;  0.0000000E+00;  3.1609207E-01;0; -7.6517044E-03;  3.9982285E+04;  0.0000000E+00; -1.1578621E-01;  4.0000000E+04;  0.0000000E+00;  4.0001281E+04; -6.3358149E-03;  0.0000000E+00; -1.3158892E-03;  2.3675070E+02;
  4.4134399E-01;  9.9999998E-03; -1.9002779E-01;5141; -5.8373683E-03;  0.0000000E+00;  1.5148064E-04;  9.9996582E+02;  1.0000000E-01; -2.8295496E+01;3;  8.4938425E-01;  0.0000000E+00;  3.0621144E-01;0; -7.7889147E-03;  3.9995961E+04;  0.0000000E+00; -7.0756629E-02;  4.0000000E+04;  0.0000000E+00;  4.0000055E+04; -6.5491502E-03;  0.0000000E+00; -1.2397646E-03;  1.0018828E+02;
  4.4135159E-01;  9.9999998E-03; -1.8002945E-01;5142; -5.9274184E-03;  0.0000000E+00;  1.4446551E-04;  1.0001062E+03;  1.0000000E-01;  8.7997513E+01;3;  8.5787106E-01;  0.0000000E+00;  2.9424775E-01;0; -7.9235565E-03;  4.0008148E+04;  0.0000000E+00; -2.4174634E-02;  4.0000000E+04;  0.0000000E+00;  3.9998609E+04; -6.7564985E-03;  0.0000000E+00; -1.1670575E-03;  1.5698637E+02;
  4.4136137E-01;  9.9999998E-03; -1.7002991E-01;5143; -6.0141641E-03;  0.0000000E+00;  1.3820585E-04;  1.0002199E+03;  1.0000000E-01;  1.8221707E+02;3;  8.6742127E-01;  0.0000000E+00;  2.7926272E-01;0; -8.0561358E-03;  4.0018570E+04;  0.0000000E+00;  2.0264501E-02;  4.0000000E+04;  0.0000000E+00;  3.9997535E+04; -6.9547589E-03;  0.0000000E+00; -1.1013772E-03;  3.0030991E+02;
  4.4137347E-01;  9.9999998E-03; -1.6002975E-01;5144; -6.0972385E-03;  0.0000000E+00;  1.3224022E-04;  1.0003149E+03;  1.0000000E-01;  2.6083212E+02;3;  8.7726605E-01;  0.0000000E+00;  2.6274699E-01;0; -8.1869094E-03;  4.0027254E+04;  0.0000000E+00;  5.8946069E-02;  4.0000000E+04;  0.0000000E+00;  3.9996816E+04; -7.1418234E-03;  0.0000000E+00; -1.0450863E-03;  4.3761658E+02;
  4.4138798E-01;  9.9999998E-03; -1.5002912E-01;5145; -6.1764056E-03;  0.0000000E+00;  1.2642467E-04;  1.0003891E+03;  1.0000000E-01;  3.2236127E+02;3;  8.8654572E-01;  0.0000000E+00;  2.4660075E-01;0; -8.3158854E-03;  4.0033855E+04;  0.0000000E+00;  8.9114554E-02;  4.0000000E+04;  0.0000000E+00;  3.9995836E+04; -7.3168138E-03;  0.0000000E+00; -9.9907129E-04;  5.5505267E+02;
  4.4140455E-01;  9.9999998E-03; -1.4002782E-01;5146; -6.2513705E-03;  0.0000000E+00;  1.2045844E-04;  1.0004272E+03;  1.0000000E-01;  3.5396530E+02;3;  8.9564496E-01;  0.0000000E+00;  2.3001884E-01;0; -8.4426897E-03;  4.0038117E+04;  0.0000000E+00;  1.0947685E-01;  4.0000000E+04;  0.0000000E+00;  3.9994988E+04; -7.4800118E-03;  0.0000000E+00; -9.6267759E-04;  6.4929565E+02;
  4.4142237E-01;  9.9999998E-03; -1.3002580E-01;5147; -6.3219015E-03;  0.0000000E+00;  1.1421323E-04;  1.0004439E+03;  1.0000000E-01;  3.6779205E+02;3;  9.0372461E-01;  0.0000000E+00;  2.1468081E-01;0; -8.5665835E-03;  4.0040332E+04;  0.0000000E+00;  1.2022963E-01;  4.0000000E+04;  0.0000000E+00;  3.9994727E+04; -7.6325662E-03;  0.0000000E+00; -9.3401747E-04;  7.2178241E+02;
  4.4144061E-01;  9.9999998E-03; -1.2002315E-01;5148; -6.3876654E-03;  0.0000000E+00;  1.0747050E-04;  1.0004354E+03;  1.0000000E-01;  3.6068115E+02;3;  9.1111755E-01;  0.0000000E+00;  1.9979730E-01;0; -8.6868517E-03;  4.0039902E+04;  0.0000000E+00;  1.2249859E-01;  4.0000000E+04;  0.0000000E+00;  3.9994113E+04; -7.7759787E-03;  0.0000000E+00; -9.1087294E-04;  7.7524414E+02;
  4.4145700E-01;  9.9999998E-03; -1.1001983E-01;5149; -6.4483355E-03;  0.0000000E+00;  1.0018172E-04;  1.0004013E+03;  1.0000000E-01;  3.3243503E+02;3;  9.1750395E-01;  0.0000000E+00;  1.8672021E-01;0; -8.8034393E-03;  4.0037656E+04;  0.0000000E+00;  1.1788453E-01;  4.0000000E+04;  0.0000000E+00;  3.9993902E+04; -7.9118088E-03;  0.0000000E+00; -8.9163083E-04;  8.1042694E+02;
  4.5137924E-01;  9.9999998E-03; -2.7000400E-01;5194; -5.1228525E-03;  0.0000000E+00;  3.1959862E-04;  9.9882520E+02;  1.0000000E-01; -9.7330579E+02;3;  8.2108265E-01;  0.0000000E+00;  3.4740296E-01;0; -6.2787710E-03;  3.9892750E+04;  0.0000000E+00; -1.5343374E-01;  4.0000000E+04;  0.0000000E+00;  4.0011570E+04; -4.5827511E-03;  0.0000000E+00; -1.6960197E-03;  1.5577332E+03;
  4.5138130E-01;  9.9999998E-03; -2.6000586E-01;5195; -5.2129463E-03;  0.0000000E+00;  2.8863060E-04;  9.9894879E+02;  1.0000000E-01; -8.7088898E+02;3;  8.2793152E-01;  0.0000000E+00;  3.4510911E-01;0; -6.4132987E-03;  3.9903742E+04;  0.0000000E+00; -2.0206624E-01;  4.0000000E+04;  0.0000000E+00;  4.0010184E+04; -4.7621503E-03;  0.0000000E+00; -1.6511484E-03;  1.3992449E+03;
  4.5137817E-01;  9.9999998E-03; -2.5000802E-01;5196; -5.3076735E-03;  0.0000000E+00;  2.6748472E-04;  9.9908221E+02;  1.0000000E-01; -7.6037354E+02;3;  8.3430862E-01;  0.0000000E+00;  3.4224561E-01;0; -6.6362945E-03;  3.9916266E+04;  0.0000000E+00; -2.2489808E-01;  4.0000000E+04;  0.0000000E+00;  4.0008758E+04; -4.9565467E-03;  0.0000000E+00; -1.6797479E-03;  1.2071694E+03;
  4.5137280E-01;  9.9999998E-03; -2.4001019E-01;5197; -5.4060393E-03;  0.0000000E+00;  2.4708660E-04;  9.9922363E+02;  1.0000000E-01; -6.4319171E+02;3;  8.4055096E-01;  0.0000000E+00;  3.3860382E-01;0; -6.8377098E-03;  3.9929336E+04;  0.0000000E+00; -2.2908725E-01;  4.0000000E+04;  0.0000000E+00;  4.0007371E+04; -5.1641287E-03;  0.0000000E+00; -1.6735813E-03;  1.0135552E+03;
  4.5136836E-01;  9.9999998E-03; -2.3001084E-01;5198; -5.5064531E-03;  0.0000000E+00;  2.2139371E-04;  9.9939203E+02;  1.0000000E-01; -5.0368945E+02;3;  8.4694326E-01;  0.0000000E+00;  3.3571589E-01;0; -7.0032999E-03;  3.9943215E+04;  0.0000000E+00; -2.1950082E-01;  4.0000000E+04;  0.0000000E+00;  4.0006371E+04; -5.3825877E-03;  0.0000000E+00; -1.6207122E-03;  8.6590430E+02;
  4.5136392E-01;  9.9999998E-03; -2.2001325E-01;5199; -5.6083049E-03;  0.0000000E+00;  2.1053113E-04;  9.9954303E+02;  1.0000000E-01; -3.7860657E+02;3;  8.5414732E-01;  0.0000000E+00;  3.3054969E-01;0; -7.1979752E-03;  3.9957375E+04;  0.0000000E+00; -1.9942382E-01;  4.0000000E+04;  0.0000000E+00;  4.0004504E+04; -5.6090057E-03;  0.0000000E+00; -1.5889693E-03;  6.5820074E+02;
  4.5135927E-01;  9.9999998E-03; -2.1002024E-01;5200; -5.7093524E-03;  0.0000000E+00;  2.0145366E-04;  9.9969934E+02;  1.0000000E-01; -2.4907938E+02;3;  8.6156100E-01;  0.0000000E+00;  3.2440960E-01;0; -7.3724762E-03;  3.9971891E+04;  0.0000000E+00; -1.7083681E-01;  4.0000000E+04;  0.0000000E+00;  4.0002543E+04; -5.8398247E-03;  0.0000000E+00; -1.5326517E-03;  4.1893790E+02;
  4.5135611E-01;  9.9999998E-03; -2.0002678E-01;5201; -5.8085672E-03;  0.0000000E+00;  1.9124514E-04;  9.9985309E+02;  1.0000000E-01; -1.2172495E+02;3;  8.6951059E-01;  0.0000000E+00;  3.1716269E-01;0; -7.5327531E-03;  3.9985840E+04;  0.0000000E+00; -1.3536103E-01;  4.0000000E+04;  0.0000000E+00;  4.0001078E+04; -6.0711592E-03;  0.0000000E+00; -1.4615941E-03;  2.4170885E+02;
  4.5135519E-01;  9.9999998E-03; -1.9003092E-01;5202; -5.9052575E-03;  0.0000000E+00;  1.8218553E-04;  1.0000016E+03;  1.0000000E-01;  1.2839143E+00;3;  8.7903678E-01;  0.0000000E+00;  3.0677879E-01;0; -7.6870527E-03;  3.9998949E+04;  0.0000000E+00; -9.5089749E-02;  4.0000000E+04;  0.0000000E+00;  3.9999898E+04; -6.2988633E-03;  0.0000000E+00; -1.3881896E-03;  1.3469370E+02;
  4.5135674E-01;  9.9999998E-03; -1.8003306E-01;5203; -5.9986976E-03;  0.0000000E+00;  1.7441984E-04;  1.0001362E+03;  1.0000000E-01;  1.1278693E+02;3;  8.8919747E-01;  0.0000000E+00;  2.9464132E-01;0; -7.8373207E-03;  4.0011125E+04;  0.0000000E+00; -5.2879620E-02;  4.0000000E+04;  0.0000000E+00;  3.9998941E+04; -6.5190401E-03;  0.0000000E+00; -1.3182805E-03;  1.7952299E+02;
  4.5136100E-01;  9.9999998E-03; -1.7003389E-01;5204; -6.0882047E-03;  0.0000000E+00;  1.6713986E-04;  1.0002588E+03;  1.0000000E-01;  2.1441370E+02;3;  9.0014023E-01;  0.0000000E+00;  2.7973941E-01;0; -7.9844063E-03;  4.0021457E+04;  0.0000000E+00; -1.2107150E-02;  4.0000000E+04;  0.0000000E+00;  3.9997508E+04; -6.7284335E-03;  0.0000000E+00; -1.2559728E-03;  3.0772159E+02;
  4.5136830E-01;  9.9999998E-03; -1.6003375E-01;5205; -6.1733341E-03;  0.0000000E+00;  1.5997690E-04;  1.0003516E+03;  1.0000000E-01;  2.9134979E+02;3;  9.1120362E-01;  0.0000000E+00;  2.6367387E-01;0; -8.1288712E-03;  4.0030258E+04;  0.0000000E+00;  2.3933109E-02;  4.0000000E+04;  0.0000000E+00;  3.9996734E+04; -6.9249542E-03;  0.0000000E+00; -1.2039169E-03;  4.3986780E+02;
  4.5137864E-01;  9.9999998E-03; -1.5003295E-01;5206; -6.2538618E-03;  0.0000000E+00;  1.5268853E-04;  1.0004205E+03;  1.0000000E-01;  3.4843460E+02;3;  9.2155600E-01;  0.0000000E+00;  2.4797001E-01;0; -8.2707861E-03;  4.0036641E+04;  0.0000000E+00;  5.2773748E-02;  4.0000000E+04;  0.0000000E+00;  3.9995840E+04; -7.1078013E-03;  0.0000000E+00; -1.1629848E-03;  5.5674268E+02;
  4.5139191E-01;  9.9999998E-03; -1.4003165E-01;5207; -6.3296584E-03;  0.0000000E+00;  1.4509121E-04;  1.0004622E+03;  1.0000000E-01;  3.8290274E+02;3;  9.3110681E-01;  0.0000000E+00;  2.3269211E-01;0; -8.4098438E-03;  4.0040895E+04;  0.0000000E+00;  7.3318131E-02;  4.0000000E+04;  0.0000000E+00;  3.9995328E+04; -7.2775283E-03;  0.0000000E+00; -1.1323154E-03;  6.5267694E+02;
  4.5140693E-01;  9.9999998E-03; -1.3002978E-01;5208; -6.4006802E-03;  0.0000000E+00;  1.3708224E-04;  1.0004771E+03;  1.0000000E-01;  3.9524808E+02;3;  9.3962950E-01;  0.0000000E+00;  2.1855012E-01;0; -8.5453279E-03;  4.0042945E+04;  0.0000000E+00;  8.5791841E-02;  4.0000000E+04;  0.0000000E+00;  3.9994590E+04; -7.4356501E-03;  0.0000000E+00; -1.1096776E-03;  7.2778839E+02;
  4.5142233E-01;  9.9999998E-03; -1.2002723E-01;5209; -6.4668586E-03;  0.0000000E+00;  1.2855414E-04;  1.0004670E+03;  1.0000000E-01;  3.8685327E+02;3;  9.4717157E-01;  0.0000000E+00;  2.0549162E-01;0; -8.6765625E-03;  4.0042793E+04;  0.0000000E+00;  9.1114171E-02;  4.0000000E+04;  0.0000000E+00;  3.9994188E+04; -7.5840973E-03;  0.0000000E+00; -1.0924650E-03;  7.8410358E+02;
  4.5143795E-01;  9.9999998E-03; -1.1002372E-01;5210; -6.5281191E-03;  0.0000000E+00;  1.1937555E-04;  1.0004325E+03;  1.0000000E-01;  3.5831085E+02;3;  9.5442420E-01;  0.0000000E+00;  1.9146167E-01;0; -8.8034729E-03;  4.0040156E+04;  0.0000000E+00;  9.0478189E-02;  4.0000000E+04;  0.0000000E+00;  3.9993750E+04; -7.7247554E-03;  0.0000000E+00; -1.0787171E-03;  8.2175671E+02;
  4.6143749E-01;  9.9999998E-03; -2.7000469E-01;5255; -5.1457146E-03;  0.0000000E+00;  3.7081123E-04;  9.9888739E+02;  1.0000000E-01; -9.2175171E+02;3;  8.3899236E-01;  0.0000000E+00;  3.4278023E-01;0; -6.0750199E-03;  3.9898531E+04;  0.0000000E+00; -9.9516876E-02;  4.0000000E+04;  0.0000000E+00;  4.0010711E+04; -4.2064060E-03;  0.0000000E+00; -1.8686142E-03;  1.4601519E+03;
  4.6143520E-01;  9.9999998E-03; -2.6000676E-01;5256; -5.2417652E-03;  0.0000000E+00;  3.3823593E-04;  9.9900665E+02;  1.0000000E-01; -8.2298907E+02;3;  8.4805661E-01;  0.0000000E+00;  3.4046581E-01;0; -6.2217652E-03;  3.9909625E+04;  0.0000000E+00; -1.6350727E-01;  4.0000000E+04;  0.0000000E+00;  4.0009539E+04; -4.4031660E-03;  0.0000000E+00; -1.8185991E-03;  1.3028552E+03;
  4.6142843E-01;  9.9999998E-03; -2.5000912E-01;5257; -5.3421040E-03;  0.0000000E+00;  3.1511782E-04;  9.9913391E+02;  1.0000000E-01; -7.1755994E+02;3;  8.5586071E-01;  0.0000000E+00;  3.3790460E-01;0; -6.4552422E-03;  3.9921586E+04;  0.0000000E+00; -1.9714113E-01;  4.0000000E+04;  0.0000000E+00;  4.0008145E+04; -4.6147979E-03;  0.0000000E+00; -1.8404444E-03;  1.1171007E+03;
  4.6141994E-01;  9.9999998E-03; -2.4001235E-01;5258; -5.4457602E-03;  0.0000000E+00;  2.9637519E-04;  9.9927295E+02;  1.0000000E-01; -6.0235333E+02;3;  8.6337072E-01;  0.0000000E+00;  3.3483961E-01;0; -6.6860402E-03;  3.9934012E+04;  0.0000000E+00; -2.0845844E-01;  4.0000000E+04;  0.0000000E+00;  4.0006387E+04; -4.8391214E-03;  0.0000000E+00; -1.8469188E-03;  8.9925458E+02;
  4.6141154E-01;  9.9999998E-03; -2.3001485E-01;5259; -5.5513857E-03;  0.0000000E+00;  2.7190970E-04;  9.9942322E+02;  1.0000000E-01; -4.7786304E+02;3;  8.7137413E-01;  0.0000000E+00;  3.3156145E-01;0; -6.8701142E-03;  3.9947770E+04;  0.0000000E+00; -2.0433705E-01;  4.0000000E+04;  0.0000000E+00;  4.0004855E+04; -5.0735935E-03;  0.0000000E+00; -1.7965209E-03;  7.2857245E+02;
  4.6140116E-01;  9.9999998E-03; -2.2001700E-01;5260; -5.6578559E-03;  0.0000000E+00;  2.5258548E-04;  9.9957935E+02;  1.0000000E-01; -3.4848398E+02;3;  8.7985235E-01;  0.0000000E+00;  3.2724392E-01;0; -7.0596389E-03;  3.9961473E+04;  0.0000000E+00; -1.8964303E-01;  4.0000000E+04;  0.0000000E+00;  4.0003840E+04; -5.3151539E-03;  0.0000000E+00; -1.7444851E-03;  5.6410968E+02;
  4.6138915E-01;  9.9999998E-03; -2.1002065E-01;5261; -5.7636546E-03;  0.0000000E+00;  2.3847498E-04;  9.9974042E+02;  1.0000000E-01; -2.1505565E+02;3;  8.8806683E-01;  0.0000000E+00;  3.2256714E-01;0; -7.2449767E-03;  3.9975500E+04;  0.0000000E+00; -1.6734140E-01;  4.0000000E+04;  0.0000000E+00;  4.0002242E+04; -5.5600698E-03;  0.0000000E+00; -1.6849070E-03;  3.8407758E+02;
  4.6137676E-01;  9.9999998E-03; -2.0002441E-01;5262; -5.8675022E-03;  0.0000000E+00;  2.2690902E-04;  9.9988745E+02;  1.0000000E-01; -9.3231934E+01;3;  8.9776641E-01;  0.0000000E+00;  3.1530154E-01;0; -7.4210288E-03;  3.9989137E+04;  0.0000000E+00; -1.3936850E-01;  4.0000000E+04;  0.0000000E+00;  4.0001219E+04; -5.8042002E-03;  0.0000000E+00; -1.6168286E-03;  2.3170076E+02;
  4.6136600E-01;  9.9999998E-03; -1.9002736E-01;5263; -5.9684124E-03;  0.0000000E+00;  2.1655958E-04;  1.0000354E+03;  1.0000000E-01;  2.9332504E+01;3;  9.0883017E-01;  0.0000000E+00;  3.0517390E-01;0; -7.5895702E-03;  4.0002059E+04;  0.0000000E+00; -1.0753297E-01;  4.0000000E+04;  0.0000000E+00;  3.9999805E+04; -6.0432530E-03;  0.0000000E+00; -1.5463170E-03;  1.5722014E+02;
  4.6135753E-01;  9.9999998E-03; -1.8002921E-01;5264; -6.0654492E-03;  0.0000000E+00;  2.0714439E-04;  1.0001635E+03;  1.0000000E-01;  1.3540358E+02;3;  9.2082995E-01;  0.0000000E+00;  2.9279664E-01;0; -7.7529363E-03;  4.0013625E+04;  0.0000000E+00; -7.4036121E-02;  4.0000000E+04;  0.0000000E+00;  3.9998609E+04; -6.2732603E-03;  0.0000000E+00; -1.4796760E-03;  2.2473837E+02;
  4.6135229E-01;  9.9999998E-03; -1.7003033E-01;5265; -6.1578001E-03;  0.0000000E+00;  1.9791159E-04;  1.0002731E+03;  1.0000000E-01;  2.2626521E+02;3;  9.3305612E-01;  0.0000000E+00;  2.7861947E-01;0; -7.9123788E-03;  4.0023805E+04;  0.0000000E+00; -4.1404840E-02;  4.0000000E+04;  0.0000000E+00;  3.9997645E+04; -6.4909840E-03;  0.0000000E+00; -1.4213943E-03;  3.4923251E+02;
  4.6135134E-01;  9.9999998E-03; -1.6003080E-01;5266; -6.2449868E-03;  0.0000000E+00;  1.8847715E-04;  1.0003627E+03;  1.0000000E-01;  3.0043594E+02;3;  9.4523591E-01;  0.0000000E+00;  2.6332429E-01;0; -8.0686035E-03;  4.0031828E+04;  0.0000000E+00; -1.2062652E-02;  4.0000000E+04;  0.0000000E+00;  3.9996254E+04; -6.6943979E-03;  0.0000000E+00; -1.3742053E-03;  4.7334866E+02;
  4.6135488E-01;  9.9999998E-03; -1.5003067E-01;5267; -6.3269106E-03;  0.0000000E+00;  1.7886663E-04;  1.0004290E+03;  1.0000000E-01;  3.5544675E+02;3;  9.5634836E-01;  0.0000000E+00;  2.4895172E-01;0; -8.2217325E-03;  4.0038008E+04;  0.0000000E+00;  1.2223830E-02;  4.0000000E+04;  0.0000000E+00;  3.9995641E+04; -6.8828822E-03;  0.0000000E+00; -1.3388506E-03;  5.8133716E+02;
  4.6136260E-01;  9.9999998E-03; -1.4003007E-01;5268; -6.4036394E-03;  0.0000000E+00;  1.6908397E-04;  1.0004700E+03;  1.0000000E-01;  3.8932233E+02;3;  9.6586359E-01;  0.0000000E+00;  2.3659612E-01;0; -8.3714481E-03;  4.0042000E+04;  0.0000000E+00;  3.0716171E-02;  4.0000000E+04;  0.0000000E+00;  3.9994992E+04; -7.0572365E-03;  0.0000000E+00; -1.3142115E-03;  6.6825830E+02;
  4.6137348E-01;  9.9999998E-03; -1.3002881E-01;5269; -6.4752866E-03;  0.0000000E+00;  1.5899034E-04;  1.0004886E+03;  1.0000000E-01;  4.0482806E+02;3;  9.7503394E-01;  0.0000000E+00;  2.2324452E-01;0; -8.5170316E-03;  4.0044059E+04;  0.0000000E+00;  4.3606259E-02;  4.0000000E+04;  0.0000000E+00;  3.9994266E+04; -7.2192987E-03;  0.0000000E+00; -1.2977328E-03;  7.3464703E+02;
  4.6138674E-01;  9.9999998E-03; -1.2002674E-01;5270; -6.5419432E-03;  0.0000000E+00;  1.4822438E-04;  1.0004771E+03;  1.0000000E-01;  3.9524808E+02;3;  9.8405224E-01;  0.0000000E+00;  2.0830989E-01;0; -8.6577507E-03;  4.0043691E+04;  0.0000000E+00;  5.1483616E-02;  4.0000000E+04;  0.0000000E+00;  3.9994160E+04; -7.3712850E-03;  0.0000000E+00; -1.2864657E-03;  7.8254224E+02;
  4.6140221E-01;  9.9999998E-03; -1.1002377E-01;5271; -6.6037872E-03;  0.0000000E+00;  1.3665785E-04;  1.0004438E+03;  1.0000000E-01;  3.6769330E+02;3;  9.9259663E-01;  0.0000000E+00;  1.9270511E-01;0; -8.7934481E-03;  4.0041387E+04;  0.0000000E+00;  5.4991513E-02;  4.0000000E+04;  0.0000000E+00;  3.9993789E+04; -7.5153373E-03;  0.0000000E+00; -1.2781104E-03;  8.1255542E+02;
  4.7144878E-01;  9.9999998E-03; -2.7000523E-01;5316; -5.1613166E-03;  0.0000000E+00;  4.3147078E-04;  9.9893048E+02;  1.0000000E-01; -8.8609839E+02;3;  8.5661072E-01;  0.0000000E+00;  3.3573291E-01;0; -5.9801773E-03;  3.9903375E+04;  0.0000000E+00; -4.5694020E-02;  4.0000000E+04;  0.0000000E+00;  4.0010043E+04; -3.8556587E-03;  0.0000000E+00; -2.1245186E-03;  1.3820887E+03;
  4.7144029E-01;  9.9999998E-03; -2.6000750E-01;5317; -5.2641761E-03;  0.0000000E+00;  3.9772503E-04;  9.9904425E+02;  1.0000000E-01; -7.9182947E+02;3;  8.6738920E-01;  0.0000000E+00;  3.3359280E-01;0; -6.1218115E-03;  3.9914027E+04;  0.0000000E+00; -1.1601099E-01;  4.0000000E+04;  0.0000000E+00;  4.0009047E+04; -4.0665609E-03;  0.0000000E+00; -2.0552506E-03;  1.2193964E+03;
  4.7142819E-01;  9.9999998E-03; -2.5001007E-01;5318; -5.3704800E-03;  0.0000000E+00;  3.6976510E-04;  9.9917035E+02;  1.0000000E-01; -6.8733856E+02;3;  8.7698114E-01;  0.0000000E+00;  3.3150676E-01;0; -6.3258400E-03;  3.9925570E+04;  0.0000000E+00; -1.5560274E-01;  4.0000000E+04;  0.0000000E+00;  4.0007473E+04; -4.2921961E-03;  0.0000000E+00; -2.0336439E-03;  1.0346952E+03;
  4.7141740E-01;  9.9999998E-03; -2.4001354E-01;5319; -5.4796846E-03;  0.0000000E+00;  3.4854340E-04;  9.9930347E+02;  1.0000000E-01; -5.7707013E+02;3;  8.8546181E-01;  0.0000000E+00;  3.2970148E-01;0; -6.5551526E-03;  3.9937914E+04;  0.0000000E+00; -1.7171934E-01;  4.0000000E+04;  0.0000000E+00;  4.0005684E+04; -4.5300247E-03;  0.0000000E+00; -2.0251279E-03;  8.1598761E+02;
  4.7140875E-01;  9.9999998E-03; -2.3001793E-01;5320; -5.5908533E-03;  0.0000000E+00;  3.2669329E-04;  9.9944366E+02;  1.0000000E-01; -4.6092523E+02;3;  8.9452046E-01;  0.0000000E+00;  3.2685363E-01;0; -6.7586466E-03;  3.9951008E+04;  0.0000000E+00; -1.7188919E-01;  4.0000000E+04;  0.0000000E+00;  4.0004184E+04; -4.7771996E-03;  0.0000000E+00; -1.9814470E-03;  5.9995630E+02;
  4.7139832E-01;  9.9999998E-03; -2.2002062E-01;5321; -5.7023489E-03;  0.0000000E+00;  3.0165544E-04;  9.9959796E+02;  1.0000000E-01; -3.3307700E+02;3;  9.0439886E-01;  0.0000000E+00;  3.2301387E-01;0; -6.9437544E-03;  3.9964605E+04;  0.0000000E+00; -1.6187790E-01;  4.0000000E+04;  0.0000000E+00;  4.0002848E+04; -5.0305058E-03;  0.0000000E+00; -1.9132484E-03;  4.4917822E+02;
  4.7138456E-01;  9.9999998E-03; -2.1002109E-01;5322; -5.8131428E-03;  0.0000000E+00;  2.8220715E-04;  9.9975543E+02;  1.0000000E-01; -2.0261156E+02;3;  9.1487497E-01;  0.0000000E+00;  3.1812307E-01;0; -7.1338122E-03;  3.9978113E+04;  0.0000000E+00; -1.4570032E-01;  4.0000000E+04;  0.0000000E+00;  4.0001891E+04; -5.2861031E-03;  0.0000000E+00; -1.8477092E-03;  3.1859647E+02;
  4.7136819E-01;  9.9999998E-03; -2.0002127E-01;5323; -5.9217992E-03;  0.0000000E+00;  2.6774002E-04;  9.9990637E+02;  1.0000000E-01; -7.7578056E+01;3;  9.2643690E-01;  0.0000000E+00;  3.1073758E-01;0; -7.3201736E-03;  3.9991246E+04;  0.0000000E+00; -1.2588108E-01;  4.0000000E+04;  0.0000000E+00;  4.0000461E+04; -5.5396045E-03;  0.0000000E+00; -1.7805690E-03;  1.9356181E+02;
  4.7135141E-01;  9.9999998E-03; -1.9002168E-01;5324; -6.0270736E-03;  0.0000000E+00;  2.5532275E-04;  1.0000430E+03;  1.0000000E-01;  3.5653313E+01;3;  9.3918347E-01;  0.0000000E+00;  3.0084440E-01;0; -7.4995374E-03;  4.0003574E+04;  0.0000000E+00; -1.0413758E-01;  4.0000000E+04;  0.0000000E+00;  3.9999148E+04; -5.7866247E-03;  0.0000000E+00; -1.7129129E-03;  1.7330580E+02;
  4.7133613E-01;  9.9999998E-03; -1.8002227E-01;5325; -6.1277533E-03;  0.0000000E+00;  2.4328164E-04;  1.0001690E+03;  1.0000000E-01;  1.4004543E+02;3;  9.5300210E-01;  0.0000000E+00;  2.8801337E-01;0; -7.6732296E-03;  4.0014969E+04;  0.0000000E+00; -8.1950814E-02;  4.0000000E+04;  0.0000000E+00;  3.9997719E+04; -6.0231960E-03;  0.0000000E+00; -1.6500334E-03;  2.8254315E+02;
  4.7132456E-01;  9.9999998E-03; -1.7002298E-01;5326; -6.2229354E-03;  0.0000000E+00;  2.3107175E-04;  1.0002684E+03;  1.0000000E-01;  2.2231470E+02;3;  9.6637356E-01;  0.0000000E+00;  2.7501234E-01;0; -7.8427223E-03;  4.0024234E+04;  0.0000000E+00; -6.0705792E-02;  4.0000000E+04;  0.0000000E+00;  3.9996715E+04; -6.2462022E-03;  0.0000000E+00; -1.5965204E-03;  4.1388275E+02;
  4.7131759E-01;  9.9999998E-03; -1.6002373E-01;5327; -6.3123358E-03;  0.0000000E+00;  2.1875602E-04;  1.0003542E+03;  1.0000000E-01;  2.9352255E+02;3;  9.7890252E-01;  0.0000000E+00;  2.6248071E-01;0; -8.0087269E-03;  4.0032078E+04;  0.0000000E+00; -4.1552875E-02;  4.0000000E+04;  0.0000000E+00;  3.9996121E+04; -6.4537930E-03;  0.0000000E+00; -1.5549335E-03;  5.3151294E+02;
  4.7131556E-01;  9.9999998E-03; -1.5002450E-01;5328; -6.3959197E-03;  0.0000000E+00;  2.0647451E-04;  1.0004142E+03;  1.0000000E-01;  3.4310141E+02;3;  9.9013567E-01;  0.0000000E+00;  2.5067982E-01;0; -8.1713647E-03;  4.0037566E+04;  0.0000000E+00; -2.5193766E-02;  4.0000000E+04;  0.0000000E+00;  3.9995191E+04; -6.6456236E-03;  0.0000000E+00; -1.5257411E-03;  6.2629138E+02;
  4.7131836E-01;  9.9999998E-03; -1.4002511E-01;5329; -6.4737317E-03;  0.0000000E+00;  1.9396984E-04;  1.0004516E+03;  1.0000000E-01;  3.7411288E+02;3;  1.0012459E+00;  0.0000000E+00;  2.3726670E-01;0; -8.3302222E-03;  4.0041172E+04;  0.0000000E+00; -1.1748755E-02;  4.0000000E+04;  0.0000000E+00;  3.9994711E+04; -6.8226792E-03;  0.0000000E+00; -1.5075433E-03;  6.9653918E+02;
  4.7132549E-01;  9.9999998E-03; -1.3002521E-01;5330; -6.5460177E-03;  0.0000000E+00;  1.8098242E-04;  1.0004675E+03;  1.0000000E-01;  3.8734708E+02;3;  1.0118699E+00;  0.0000000E+00;  2.2297853E-01;0; -8.4845098E-03;  4.0042742E+04;  0.0000000E+00; -8.9252071E-04;  4.0000000E+04;  0.0000000E+00;  3.9994266E+04; -6.9870232E-03;  0.0000000E+00; -1.4974865E-03;  7.4449188E+02;
  4.7133669E-01;  9.9999998E-03; -1.2002441E-01;5331; -6.6131768E-03;  0.0000000E+00;  1.6738281E-04;  1.0004603E+03;  1.0000000E-01;  3.8142133E+02;3;  1.0218744E+00;  0.0000000E+00;  2.0802426E-01;0; -8.6333826E-03;  4.0042527E+04;  0.0000000E+00;  7.6934723E-03;  4.0000000E+04;  0.0000000E+00;  3.9994480E+04; -7.1410751E-03;  0.0000000E+00; -1.4923074E-03;  7.7363293E+02;
  4.7135162E-01;  9.9999998E-03; -1.1002268E-01;5332; -6.6756564E-03;  0.0000000E+00;  1.5313817E-04;  1.0004321E+03;  1.0000000E-01;  3.5801456E+02;3;  1.0312930E+00;  0.0000000E+00;  1.9247410E-01;0; -8.7765027E-03;  4.0040488E+04;  0.0000000E+00;  1.4151455E-02;  4.0000000E+04;  0.0000000E+00;  3.9994215E+04; -7.2870818E-03;  0.0000000E+00; -1.4894208E-03;  7.8609131E+02;
  4.8133329E-01;  9.9999998E-03; -1.1002222E-01;5393; -6.7445254E-03;  0.0000000E+00;  1.7053174E-04;  1.0004145E+03;  1.0000146E-01;  3.4339771E+02;3;  1.0704870E+00;  0.0000000E+00;  1.9111134E-01;0; -8.7573873E-03;  4.0037652E+04;  0.0000000E+00; -2.9013185E-02;  4.0000000E+04;  0.0000000E+00;  3.9994320E+04; -7.0440434E-03;  0.0000000E+00; -1.7133440E-03;  7.5049493E+02;
  4.8131824E-01;  9.9999998E-03; -1.2002282E-01;5392; -6.6813510E-03;  0.0000000E+00;  1.8764462E-04;  1.0004328E+03;  1.0000150E-01;  3.5860715E+02;3;  1.0601453E+00;  0.0000000E+00;  2.0645481E-01;0; -8.6076371E-03;  4.0039391E+04;  0.0000000E+00; -3.6206055E-02;  4.0000000E+04;  0.0000000E+00;  3.9994051E+04; -6.8973396E-03;  0.0000000E+00; -1.7102978E-03;  7.6315875E+02;
  4.8130786E-01;  9.9999998E-03; -1.3002245E-01;5391; -6.6135442E-03;  0.0000000E+00;  2.0437234E-04;  1.0004388E+03;  1.0000146E-01;  3.6354529E+02;3;  1.0490987E+00;  0.0000000E+00;  2.2118393E-01;0; -8.4514301E-03;  4.0039336E+04;  0.0000000E+00; -4.2799447E-02;  4.0000000E+04;  0.0000000E+00;  3.9994184E+04; -6.7425179E-03;  0.0000000E+00; -1.7089121E-03;  7.5976703E+02;
  4.8130187E-01;  9.9999998E-03; -1.4002131E-01;5390; -6.5404526E-03;  0.0000000E+00;  2.2065653E-04;  1.0004194E+03;  1.0000150E-01;  3.4744696E+02;3;  1.0373769E+00;  0.0000000E+00;  2.3521160E-01;0; -8.2893148E-03;  4.0038426E+04;  0.0000000E+00; -4.8613396E-02;  4.0000000E+04;  0.0000000E+00;  3.9994246E+04; -6.5773255E-03;  0.0000000E+00; -1.7119891E-03;  7.3565955E+02;
  4.8129964E-01;  9.9999998E-03; -1.5001984E-01;5389; -6.4614629E-03;  0.0000000E+00;  2.3650724E-04;  1.0003842E+03;  1.0000141E-01;  3.1831198E+02;3;  1.0250440E+00;  0.0000000E+00;  2.4844939E-01;0; -8.1223566E-03;  4.0035203E+04;  0.0000000E+00; -5.3956643E-02;  4.0000000E+04;  0.0000000E+00;  3.9994871E+04; -6.3992986E-03;  0.0000000E+00; -1.7230585E-03;  6.8508759E+02;
  4.8130053E-01;  9.9999998E-03; -1.6001850E-01;5388; -6.3761151E-03;  0.0000000E+00;  2.5199907E-04;  1.0003342E+03;  1.0000144E-01;  2.7683167E+02;3;  1.0121685E+00;  0.0000000E+00;  2.6074362E-01;0; -7.9515297E-03;  4.0030059E+04;  0.0000000E+00; -5.9563305E-02;  4.0000000E+04;  0.0000000E+00;  3.9995496E+04; -6.2062787E-03;  0.0000000E+00; -1.7452510E-03;  6.0363477E+02;
  4.8130429E-01;  9.9999998E-03; -1.7001761E-01;5387; -6.2842658E-03;  0.0000000E+00;  2.6733975E-04;  1.0002556E+03;  1.0000145E-01;  2.1174710E+02;3;  9.9890161E-01;  0.0000000E+00;  2.7183875E-01;0; -7.7772858E-03;  4.0022781E+04;  0.0000000E+00; -6.6240095E-02;  4.0000000E+04;  0.0000000E+00;  3.9996332E+04; -5.9970198E-03;  0.0000000E+00; -1.7802661E-03;  4.9027805E+02;
  4.8131031E-01;  9.9999998E-03; -1.8001758E-01;5386; -6.1861374E-03;  0.0000000E+00;  2.8279156E-04;  1.0001579E+03;  1.0000140E-01;  1.3086049E+02;3;  9.8491120E-01;  0.0000000E+00;  2.8251752E-01;0; -7.5995689E-03;  4.0014102E+04;  0.0000000E+00; -7.4611619E-02;  4.0000000E+04;  0.0000000E+00;  3.9997375E+04; -5.7716123E-03;  0.0000000E+00; -1.8279564E-03;  3.4962161E+02;
  4.8131812E-01;  9.9999998E-03; -1.9001856E-01;5385; -6.0819606E-03;  0.0000000E+00;  2.9807811E-04;  1.0000416E+03;  1.0000148E-01;  3.4468163E+01;3;  9.6992695E-01;  0.0000000E+00;  2.9379049E-01;0; -7.4177734E-03;  4.0003387E+04;  0.0000000E+00; -8.4924057E-02;  4.0000000E+04;  0.0000000E+00;  3.9998641E+04; -5.5316021E-03;  0.0000000E+00; -1.8861713E-03;  2.0149112E+02;
  4.8132709E-01;  9.9999998E-03; -2.0002089E-01;5384; -5.9725191E-03;  0.0000000E+00;  3.1366161E-04;  9.9990509E+02;  1.0000140E-01; -7.8615059E+01;3;  9.5505732E-01;  0.0000000E+00;  3.0419976E-01;0; -7.2306143E-03;  3.9991141E+04;  0.0000000E+00; -9.6905336E-02;  4.0000000E+04;  0.0000000E+00;  4.0000039E+04; -5.2798055E-03;  0.0000000E+00; -1.9508088E-03;  1.3544444E+02;
  4.8133543E-01;  9.9999998E-03; -2.1002363E-01;5383; -5.8591543E-03;  0.0000000E+00;  3.3176524E-04;  9.9975574E+02;  1.0000147E-01; -2.0236465E+02;3;  9.4173348E-01;  0.0000000E+00;  3.1147861E-01;0; -7.0380187E-03;  3.9978246E+04;  0.0000000E+00; -1.0961824E-01;  4.0000000E+04;  0.0000000E+00;  4.0001086E+04; -5.0201011E-03;  0.0000000E+00; -2.0179176E-03;  2.1938507E+02;
  4.8134357E-01;  9.9999998E-03; -2.2002418E-01;5382; -5.7435473E-03;  0.0000000E+00;  3.5624357E-04;  9.9960107E+02;  1.0000146E-01; -3.3050919E+02;3;  9.2920732E-01;  0.0000000E+00;  3.1684551E-01;0; -6.8473201E-03;  3.9964898E+04;  0.0000000E+00; -1.2129406E-01;  4.0000000E+04;  0.0000000E+00;  4.0001852E+04; -4.7568958E-03;  0.0000000E+00; -2.0904241E-03;  3.2516406E+02;
  4.8135296E-01;  9.9999998E-03; -2.3001964E-01;5381; -5.6269583E-03;  0.0000000E+00;  3.8321095E-04;  9.9945190E+02;  1.0000141E-01; -4.5411063E+02;3;  9.1751367E-01;  0.0000000E+00;  3.2067755E-01;0; -6.6606975E-03;  3.9951496E+04;  0.0000000E+00; -1.2909159E-01;  4.0000000E+04;  0.0000000E+00;  4.0003254E+04; -4.4947052E-03;  0.0000000E+00; -2.1659923E-03;  5.0412589E+02;
  4.8136556E-01;  9.9999998E-03; -2.4001393E-01;5380; -5.5103325E-03;  0.0000000E+00;  4.0327269E-04;  9.9931421E+02;  1.0000148E-01; -5.6818146E+02;3;  9.0720010E-01;  0.0000000E+00;  3.2294944E-01;0; -6.4427350E-03;  3.9938438E+04;  0.0000000E+00; -1.2882432E-01;  4.0000000E+04;  0.0000000E+00;  4.0005613E+04; -4.2375596E-03;  0.0000000E+00; -2.2051751E-03;  7.6844342E+02;
  4.8137984E-01;  9.9999998E-03; -2.5001067E-01;5379; -5.3956751E-03;  0.0000000E+00;  4.2943936E-04;  9.9918616E+02;  1.0000146E-01; -6.7425256E+02;3;  8.9719677E-01;  0.0000000E+00;  3.2416636E-01;0; -6.2337215E-03;  3.9926266E+04;  0.0000000E+00; -1.1456056E-01;  4.0000000E+04;  0.0000000E+00;  4.0007094E+04; -3.9890995E-03;  0.0000000E+00; -2.2446220E-03;  9.7773303E+02;
  4.8139471E-01;  9.9999998E-03; -2.6000795E-01;5378; -5.2834433E-03;  0.0000000E+00;  4.6167875E-04;  9.9906110E+02;  1.0000148E-01; -7.7785455E+02;3;  8.8606995E-01;  0.0000000E+00;  3.2546806E-01;0; -6.0630757E-03;  3.9914934E+04;  0.0000000E+00; -7.9046421E-02;  4.0000000E+04;  0.0000000E+00;  4.0008516E+04; -3.7525427E-03;  0.0000000E+00; -2.3105331E-03;  1.1664200E+03;
  4.8140880E-01;  9.9999998E-03; -2.7000555E-01;5377; -5.1737186E-03;  0.0000000E+00;  4.9579254E-04;  9.9895422E+02;  1.0000148E-01; -8.6639526E+02;3;  8.7512875E-01;  0.0000000E+00;  3.2579964E-01;0; -5.9257047E-03;  3.9904562E+04;  0.0000000E+00; -1.6200075E-02;  4.0000000E+04;  0.0000000E+00;  4.0009734E+04; -3.5305622E-03;  0.0000000E+00; -2.3951428E-03;  1.3340940E+03;
  4.9138790E-01;  9.9999998E-03; -1.1000799E-01;5454; -6.8112025E-03;  0.0000000E+00;  1.9079055E-04;  1.0003693E+03;  1.0000202E-01;  3.0596664E+02;3;  1.1102871E+00;  0.0000000E+00;  1.8868747E-01;0; -8.7418556E-03;  4.0033574E+04;  0.0000000E+00; -7.1200289E-02;  4.0000000E+04;  0.0000000E+00;  3.9994426E+04; -6.7910673E-03;  0.0000000E+00; -1.9507878E-03;  7.1461902E+02;
  4.9136668E-01;  9.9999998E-03; -1.2000813E-01;5453; -6.7472323E-03;  0.0000000E+00;  2.1085145E-04;  1.0003791E+03;  1.0000196E-01;  3.1406519E+02;3;  1.0989203E+00;  0.0000000E+00;  2.0375448E-01;0; -8.5854884E-03;  4.0035016E+04;  0.0000000E+00; -7.6475821E-02;  4.0000000E+04;  0.0000000E+00;  3.9994340E+04; -6.6447104E-03;  0.0000000E+00; -1.9407780E-03;  7.5569867E+02;
  4.9135149E-01;  9.9999998E-03; -1.3000752E-01;5452; -6.6785966E-03;  0.0000000E+00;  2.3081698E-04;  1.0003801E+03;  1.0000198E-01;  3.1495404E+02;3;  1.0867361E+00;  0.0000000E+00;  2.1819495E-01;0; -8.4220348E-03;  4.0034969E+04;  0.0000000E+00; -7.8221217E-02;  4.0000000E+04;  0.0000000E+00;  3.9994098E+04; -6.4901798E-03;  0.0000000E+00; -1.9318549E-03;  7.8023151E+02;
  4.9134272E-01;  9.9999998E-03; -1.4000624E-01;5451; -6.6045020E-03;  0.0000000E+00;  2.5053663E-04;  1.0003679E+03;  1.0000201E-01;  3.0478149E+02;3;  1.0738417E+00;  0.0000000E+00;  2.3191549E-01;0; -8.2522770E-03;  4.0033738E+04;  0.0000000E+00; -7.6248795E-02;  4.0000000E+04;  0.0000000E+00;  3.9993977E+04; -6.3252570E-03;  0.0000000E+00; -1.9270204E-03;  7.8065875E+02;
  4.9134004E-01;  9.9999998E-03; -1.5000473E-01;5450; -6.5241964E-03;  0.0000000E+00;  2.6990628E-04;  1.0003331E+03;  1.0000207E-01;  2.7594281E+02;3;  1.0602341E+00;  0.0000000E+00;  2.4482904E-01;0; -8.0775414E-03;  4.0031113E+04;  0.0000000E+00; -7.1150742E-02;  4.0000000E+04;  0.0000000E+00;  3.9994246E+04; -6.1474908E-03;  0.0000000E+00; -1.9300506E-03;  7.4869995E+02;
  4.9134269E-01;  9.9999998E-03; -1.6000357E-01;5449; -6.4371107E-03;  0.0000000E+00;  2.8889446E-04;  1.0002841E+03;  1.0000201E-01;  2.3535136E+02;3;  1.0460120E+00;  0.0000000E+00;  2.5684050E-01;0; -7.8990264E-03;  4.0026262E+04;  0.0000000E+00; -6.4377040E-02;  4.0000000E+04;  0.0000000E+00;  3.9994664E+04; -5.9546577E-03;  0.0000000E+00; -1.9443684E-03;  6.7733942E+02;
  4.9134937E-01;  9.9999998E-03; -1.7000343E-01;5448; -6.3429759E-03;  0.0000000E+00;  3.0756346E-04;  1.0002099E+03;  1.0000210E-01;  1.7392101E+02;3;  1.0312552E+00;  0.0000000E+00;  2.6780975E-01;0; -7.7171875E-03;  4.0020027E+04;  0.0000000E+00; -5.7915583E-02;  4.0000000E+04;  0.0000000E+00;  3.9995871E+04; -5.7452372E-03;  0.0000000E+00; -1.9719503E-03;  5.6238837E+02;
  4.9135849E-01;  9.9999998E-03; -1.8000457E-01;5447; -6.2419800E-03;  0.0000000E+00;  3.2610566E-04;  1.0001208E+03;  1.0000210E-01;  1.0004655E+02;3;  1.0159711E+00;  0.0000000E+00;  2.7777427E-01;0; -7.5319894E-03;  4.0011117E+04;  0.0000000E+00; -5.3877592E-02;  4.0000000E+04;  0.0000000E+00;  3.9996855E+04; -5.5190427E-03;  0.0000000E+00; -2.0129466E-03;  4.0457800E+02;
  4.9136743E-01;  9.9999998E-03; -1.9000743E-01;5446; -6.1345981E-03;  0.0000000E+00;  3.4460117E-04;  1.0000062E+03;  1.0000215E-01;  5.1356573E+00;3;  1.0003074E+00;  0.0000000E+00;  2.8691426E-01;0; -7.3428256E-03;  4.0000664E+04;  0.0000000E+00; -5.3938664E-02;  4.0000000E+04;  0.0000000E+00;  3.9998422E+04; -5.2772341E-03;  0.0000000E+00; -2.0655913E-03;  2.1633760E+02;
  4.9137414E-01;  9.9999998E-03; -2.0001198E-01;5445; -6.0215057E-03;  0.0000000E+00;  3.6300853E-04;  9.9987463E+02;  1.0000205E-01; -1.0384892E+02;3;  9.8398197E-01;  0.0000000E+00;  2.9615325E-01;0; -7.1485229E-03;  3.9988500E+04;  0.0000000E+00; -5.8842234E-02;  4.0000000E+04;  0.0000000E+00;  3.9999965E+04; -5.0224042E-03;  0.0000000E+00; -2.1261189E-03;  8.0775719E+01;
  4.9138108E-01;  9.9999998E-03; -2.1001792E-01;5444; -5.9039011E-03;  0.0000000E+00;  3.8319267E-04;  9.9972607E+02;  1.0000203E-01; -2.2695654E+02;3;  9.6841508E-01;  0.0000000E+00;  3.0388275E-01;0; -6.9486517E-03;  3.9975574E+04;  0.0000000E+00; -6.8097353E-02;  4.0000000E+04;  0.0000000E+00;  4.0001223E+04; -4.7581657E-03;  0.0000000E+00; -2.1904861E-03;  1.9739595E+02;
  4.9138743E-01;  9.9999998E-03; -2.2002165E-01;5443; -5.7837418E-03;  0.0000000E+00;  4.1016302E-04;  9.9956946E+02;  1.0000205E-01; -3.5668127E+02;3;  9.5418817E-01;  0.0000000E+00;  3.0895039E-01;0; -6.7522340E-03;  3.9961895E+04;  0.0000000E+00; -7.9917476E-02;  4.0000000E+04;  0.0000000E+00;  4.0001777E+04; -4.4890372E-03;  0.0000000E+00; -2.2631967E-03;  3.1440417E+02;
  4.9139166E-01;  9.9999998E-03; -2.3001784E-01;5442; -5.6623816E-03;  0.0000000E+00;  4.3871431E-04;  9.9941339E+02;  1.0000207E-01; -4.8601096E+02;3;  9.4080508E-01;  0.0000000E+00;  3.1283459E-01;0; -6.5599070E-03;  3.9948035E+04;  0.0000000E+00; -9.1138460E-02;  4.0000000E+04;  0.0000000E+00;  4.0003613E+04; -4.2198780E-03;  0.0000000E+00; -2.3400290E-03;  5.2440802E+02;
  4.9139664E-01;  9.9999998E-03; -2.4001272E-01;5441; -5.5406936E-03;  0.0000000E+00;  4.5910745E-04;  9.9927814E+02;  1.0000210E-01; -5.9805719E+02;3;  9.2915922E-01;  0.0000000E+00;  3.1446072E-01;0; -6.3324049E-03;  3.9934918E+04;  0.0000000E+00; -9.7438365E-02;  4.0000000E+04;  0.0000000E+00;  4.0005871E+04; -3.9549395E-03;  0.0000000E+00; -2.3774654E-03;  8.0836230E+02;
  4.9139470E-01;  9.9999998E-03; -2.5000992E-01;5440; -5.4209549E-03;  0.0000000E+00;  4.8935349E-04;  9.9914417E+02;  1.0000207E-01; -7.0906635E+02;3;  9.1680670E-01;  0.0000000E+00;  3.1573051E-01;0; -6.1361725E-03;  3.9922586E+04;  0.0000000E+00; -9.2717096E-02;  4.0000000E+04;  0.0000000E+00;  4.0007395E+04; -3.6983811E-03;  0.0000000E+00; -2.4377911E-03;  1.0210948E+03;
  4.9138826E-01;  9.9999998E-03; -2.6000741E-01;5439; -5.3032124E-03;  0.0000000E+00;  5.2388641E-04;  9.9902130E+02;  1.0000200E-01; -8.1084125E+02;3;  9.0466201E-01;  0.0000000E+00;  3.1620577E-01;0; -5.9772250E-03;  3.9911137E+04;  0.0000000E+00; -7.0574783E-02;  4.0000000E+04;  0.0000000E+00;  4.0009105E+04; -3.4536289E-03;  0.0000000E+00; -2.5235962E-03;  1.2122467E+03;
  4.9138528E-01;  9.9999998E-03; -2.7000502E-01;5438; -5.1874011E-03;  0.0000000E+00;  5.5848359E-04;  9.9891217E+02;  1.0000207E-01; -9.0125848E+02;3;  8.9295906E-01;  0.0000000E+00;  3.1524467E-01;0; -5.8365166E-03;  3.9901004E+04;  0.0000000E+00; -2.6514538E-02;  4.0000000E+04;  0.0000000E+00;  4.0010473E+04; -3.2232911E-03;  0.0000000E+00; -2.6132253E-03;  1.3903719E+03;
  5.0144213E-01;  9.9999998E-03; -2.7000386E-01;5499; -5.2059451E-03;  0.0000000E+00;  6.1844866E-04;  9.9882373E+02;  1.0000364E-01; -9.7454034E+02;3;  9.0976828E-01;  0.0000000E+00;  3.0410048E-01;0; -5.6827450E-03;  3.9891836E+04;  0.0000000E+00; -7.0103675E-02;  4.0000000E+04;  0.0000000E+00;  4.0011367E+04; -2.9221969E-03;  0.0000000E+00; -2.7605481E-03;  1.5243381E+03;
  5.0144196E-01;  9.9999998E-03; -2.6000613E-01;5500; -5.3266296E-03;  0.0000000E+00;  5.8232987E-04;  9.9893854E+02;  1.0000370E-01; -8.7938251E+02;3;  9.2314416E-01;  0.0000000E+00;  3.0481857E-01;0; -5.8346735E-03;  3.9902531E+04;  0.0000000E+00; -9.0078317E-02;  4.0000000E+04;  0.0000000E+00;  4.0010109E+04; -3.1608401E-03;  0.0000000E+00; -2.6738336E-03;  1.3389102E+03;
  5.0144035E-01;  9.9999998E-03; -2.5000829E-01;5501; -5.4488960E-03;  0.0000000E+00;  5.4566667E-04;  9.9906842E+02;  1.0000373E-01; -7.7178064E+02;3;  9.3704802E-01;  0.0000000E+00;  3.0515239E-01;0; -6.0006576E-03;  3.9914523E+04;  0.0000000E+00; -9.1505140E-02;  4.0000000E+04;  0.0000000E+00;  4.0008410E+04; -3.4138474E-03;  0.0000000E+00; -2.5868102E-03;  1.1398403E+03;
  5.0142825E-01;  9.9999998E-03; -2.4001043E-01;5502; -5.5730469E-03;  0.0000000E+00;  5.1367783E-04;  9.9921082E+02;  1.0000383E-01; -6.5380865E+02;3;  9.5057195E-01;  0.0000000E+00;  3.0500612E-01;0; -6.2084030E-03;  3.9927406E+04;  0.0000000E+00; -7.9235375E-02;  4.0000000E+04;  0.0000000E+00;  4.0006711E+04; -3.6785279E-03;  0.0000000E+00; -2.5298749E-03;  9.1949976E+02;
  5.0141197E-01;  9.9999998E-03; -2.3001416E-01;5503; -5.6991177E-03;  0.0000000E+00;  4.9190497E-04;  9.9935455E+02;  1.0000373E-01; -5.3475031E+02;3;  9.6344602E-01;  0.0000000E+00;  3.0418915E-01;0; -6.4487387E-03;  3.9941445E+04;  0.0000000E+00; -6.0681820E-02;  4.0000000E+04;  0.0000000E+00;  4.0004793E+04; -3.9509470E-03;  0.0000000E+00; -2.4977918E-03;  6.3080023E+02;
  5.0140023E-01;  9.9999998E-03; -2.2001599E-01;5504; -5.8246073E-03;  0.0000000E+00;  4.6400906E-04;  9.9951007E+02;  1.0000384E-01; -4.0591446E+02;3;  9.7844279E-01;  0.0000000E+00;  3.0074540E-01;0; -6.6566989E-03;  3.9955727E+04;  0.0000000E+00; -4.1722804E-02;  4.0000000E+04;  0.0000000E+00;  4.0003043E+04; -4.2266226E-03;  0.0000000E+00; -2.4300762E-03;  3.9995209E+02;
  5.0138670E-01;  9.9999998E-03; -2.1001098E-01;5505; -5.9485002E-03;  0.0000000E+00;  4.3679142E-04;  9.9967468E+02;  1.0000365E-01; -2.6952325E+02;3;  9.9489397E-01;  0.0000000E+00;  2.9540291E-01;0; -6.8636611E-03;  3.9970086E+04;  0.0000000E+00; -2.6194045E-02;  4.0000000E+04;  0.0000000E+00;  4.0001895E+04; -4.5010592E-03;  0.0000000E+00; -2.3626017E-03;  2.3450015E+02;
  5.0137347E-01;  9.9999998E-03; -2.0000385E-01;5506; -6.0693915E-03;  0.0000000E+00;  4.1498028E-04;  9.9982599E+02;  1.0000372E-01; -1.4414407E+02;3;  1.0117805E+00;  0.0000000E+00;  2.8863007E-01;0; -7.0715640E-03;  3.9983340E+04;  0.0000000E+00; -1.7239448E-02;  4.0000000E+04;  0.0000000E+00;  4.0000160E+04; -4.7692000E-03;  0.0000000E+00; -2.3023637E-03;  2.7883276E+01;
  5.0136268E-01;  9.9999998E-03; -1.8999819E-01;5507; -6.1854594E-03;  0.0000000E+00;  3.9415271E-04;  9.9995837E+02;  1.0000368E-01; -3.4468163E+01;3;  1.0293573E+00;  0.0000000E+00;  2.8073683E-01;0; -7.2735124E-03;  3.9995855E+04;  0.0000000E+00; -1.6513569E-02;  4.0000000E+04;  0.0000000E+00;  3.9998148E+04; -5.0264336E-03;  0.0000000E+00; -2.2470788E-03;  2.2592357E+02;
  5.0135440E-01;  9.9999998E-03; -1.7999423E-01;5508; -6.2955520E-03;  0.0000000E+00;  3.7293983E-04;  1.0000714E+03;  1.0000376E-01;  5.9158821E+01;3;  1.0465864E+00;  0.0000000E+00;  2.7207264E-01;0; -7.4702972E-03;  4.0006602E+04;  0.0000000E+00; -2.4127299E-02;  4.0000000E+04;  0.0000000E+00;  3.9996438E+04; -5.2691810E-03;  0.0000000E+00; -2.2011162E-03;  4.4693442E+02;
  5.0134772E-01;  9.9999998E-03; -1.6999170E-01;5509; -6.3989642E-03;  0.0000000E+00;  3.5147814E-04;  1.0001614E+03;  1.0000373E-01;  1.3372461E+02;3;  1.0634459E+00;  0.0000000E+00;  2.6240987E-01;0; -7.6631783E-03;  4.0015117E+04;  0.0000000E+00; -3.8599327E-02;  4.0000000E+04;  0.0000000E+00;  3.9994883E+04; -5.4952577E-03;  0.0000000E+00; -2.1679208E-03;  6.2159747E+02;
  5.0134456E-01;  9.9999998E-03; -1.5999053E-01;5510; -6.4951242E-03;  0.0000000E+00;  3.2963933E-04;  1.0002283E+03;  1.0000366E-01;  1.8913045E+02;3;  1.0797354E+00;  0.0000000E+00;  2.5171694E-01;0; -7.8527853E-03;  4.0021512E+04;  0.0000000E+00; -5.7125710E-02;  4.0000000E+04;  0.0000000E+00;  3.9994496E+04; -5.7038660E-03;  0.0000000E+00; -2.1489197E-03;  7.4143115E+02;
  5.0134641E-01;  9.9999998E-03; -1.4999045E-01;5511; -6.5839272E-03;  0.0000000E+00;  3.0735991E-04;  1.0002823E+03;  1.0000379E-01;  2.3386993E+02;3;  1.0953966E+00;  0.0000000E+00;  2.4003075E-01;0; -8.0393301E-03;  4.0025941E+04;  0.0000000E+00; -7.6244883E-02;  4.0000000E+04;  0.0000000E+00;  3.9993637E+04; -5.8956747E-03;  0.0000000E+00; -2.1436554E-03;  8.0723895E+02;
  5.0135416E-01;  9.9999998E-03; -1.3999097E-01;5512; -6.6656559E-03;  0.0000000E+00;  2.8464798E-04;  1.0003137E+03;  1.0000389E-01;  2.5994327E+02;3;  1.1103091E+00;  0.0000000E+00;  2.2745833E-01;0; -8.2222326E-03;  4.0028406E+04;  0.0000000E+00; -9.2709944E-02;  4.0000000E+04;  0.0000000E+00;  3.9993738E+04; -6.0724118E-03;  0.0000000E+00; -2.1498210E-03;  8.2508173E+02;
  5.0136787E-01;  9.9999998E-03; -1.2999159E-01;5513; -6.7409156E-03;  0.0000000E+00;  2.6162798E-04;  1.0003264E+03;  1.0000376E-01;  2.7041211E+02;3;  1.1244559E+00;  0.0000000E+00;  2.1407773E-01;0; -8.4001767E-03;  4.0029449E+04;  0.0000000E+00; -1.0415968E-01;  4.0000000E+04;  0.0000000E+00;  3.9994023E+04; -6.2364698E-03;  0.0000000E+00; -2.1637066E-03;  8.0414716E+02;
  5.0138688E-01;  9.9999998E-03; -1.1999202E-01;5514; -6.8105208E-03;  0.0000000E+00;  2.3851331E-04;  1.0003281E+03;  1.0000389E-01;  2.7179477E+02;3;  1.1377814E+00;  0.0000000E+00;  1.9997929E-01;0; -8.5715447E-03;  4.0029508E+04;  0.0000000E+00; -1.0944963E-01;  4.0000000E+04;  0.0000000E+00;  3.9994320E+04; -6.3902494E-03;  0.0000000E+00; -2.1812948E-03;  7.5499304E+02;
  5.0141019E-01;  9.9999998E-03; -1.0999214E-01;5515; -6.8753306E-03;  0.0000000E+00;  2.1554022E-04;  1.0003295E+03;  1.0000384E-01;  2.7297992E+02;3;  1.1501901E+00;  0.0000000E+00;  1.8525292E-01;0; -8.7352674E-03;  4.0028465E+04;  0.0000000E+00; -1.0845666E-01;  4.0000000E+04;  0.0000000E+00;  3.9994738E+04; -6.5358798E-03;  0.0000000E+00; -2.1993876E-03;  6.8796399E+02;
  5.1139390E-01;  9.9999998E-03; -2.7000216E-01;5560; -5.2310508E-03;  0.0000000E+00;  6.7629264E-04;  9.9869073E+02;  1.0000632E-01; -1.0847101E+03;3;  9.2626923E-01;  0.0000000E+00;  2.9264319E-01;0; -5.4742610E-03;  3.9877926E+04;  0.0000000E+00; -1.0967148E-01;  4.0000000E+04;  0.0000000E+00;  4.0012965E+04; -2.6208328E-03;  0.0000000E+00; -2.8534280E-03;  1.7275396E+03;
  5.1140320E-01;  9.9999998E-03; -2.6000416E-01;5561; -5.3553828E-03;  0.0000000E+00;  6.3790457E-04;  9.9881671E+02;  1.0000619E-01; -9.8031793E+02;3;  9.4064641E-01;  0.0000000E+00;  2.9397631E-01;0; -5.6410488E-03;  3.9889395E+04;  0.0000000E+00; -1.1155754E-01;  4.0000000E+04;  0.0000000E+00;  4.0011508E+04; -2.8681620E-03;  0.0000000E+00; -2.7728865E-03;  1.5310516E+03;
  5.1140761E-01;  9.9999998E-03; -2.5000593E-01;5562; -5.4812524E-03;  0.0000000E+00;  5.9978646E-04;  9.9895892E+02;  1.0000618E-01; -8.6249414E+02;3;  9.5594597E-01;  0.0000000E+00;  2.9484570E-01;0; -5.8315676E-03;  3.9902453E+04;  0.0000000E+00; -9.5743768E-02;  4.0000000E+04;  0.0000000E+00;  4.0009660E+04; -3.1296459E-03;  0.0000000E+00; -2.7019216E-03;  1.3206313E+03;
  5.1140177E-01;  9.9999998E-03; -2.4000718E-01;5563; -5.6090015E-03;  0.0000000E+00;  5.6609820E-04;  9.9911273E+02;  1.0000615E-01; -7.3509033E+02;3;  9.7025871E-01;  0.0000000E+00;  2.9559204E-01;0; -6.0603311E-03;  3.9916461E+04;  0.0000000E+00; -6.8865933E-02;  4.0000000E+04;  0.0000000E+00;  4.0008312E+04; -3.4023814E-03;  0.0000000E+00; -2.6579495E-03;  1.0992975E+03;
  5.1139086E-01;  9.9999998E-03; -2.3000933E-01;5564; -5.7386174E-03;  0.0000000E+00;  5.4388377E-04;  9.9927039E+02;  1.0000625E-01; -6.0447675E+02;3;  9.8571497E-01;  0.0000000E+00;  2.9440576E-01;0; -6.3240980E-03;  3.9931270E+04;  0.0000000E+00; -3.8710225E-02;  4.0000000E+04;  0.0000000E+00;  4.0005930E+04; -3.6822432E-03;  0.0000000E+00; -2.6418548E-03;  8.0860352E+02;
  5.1138037E-01;  9.9999998E-03; -2.2000989E-01;5565; -5.8673969E-03;  0.0000000E+00;  5.1810843E-04;  9.9943634E+02;  1.0000622E-01; -4.6699915E+02;3;  1.0023625E+00;  0.0000000E+00;  2.9156673E-01;0; -6.5555330E-03;  3.9946578E+04;  0.0000000E+00; -1.1097820E-02;  4.0000000E+04;  0.0000000E+00;  4.0003898E+04; -3.9645364E-03;  0.0000000E+00; -2.5909964E-03;  5.4389252E+02;
  5.1136839E-01;  9.9999998E-03; -2.1000499E-01;5566; -5.9941360E-03;  0.0000000E+00;  4.9207790E-04;  9.9960791E+02;  1.0000617E-01; -3.2483032E+02;3;  1.0197797E+00;  0.0000000E+00;  2.8715768E-01;0; -6.7774514E-03;  3.9961742E+04;  0.0000000E+00;  9.8723425E-03;  4.0000000E+04;  0.0000000E+00;  4.0002312E+04; -4.2443792E-03;  0.0000000E+00; -2.5330719E-03;  3.2166611E+02;
  5.1135635E-01;  9.9999998E-03; -1.9999777E-01;5567; -6.1173933E-03;  0.0000000E+00;  4.6937162E-04;  9.9975891E+02;  1.0000618E-01; -1.9974744E+02;3;  1.0388024E+00;  0.0000000E+00;  2.8095469E-01;0; -6.9955755E-03;  3.9976133E+04;  0.0000000E+00;  2.1032218E-02;  4.0000000E+04;  0.0000000E+00;  4.0000234E+04; -4.5165843E-03;  0.0000000E+00; -2.4789909E-03;  6.9860603E+01;
  5.1134670E-01;  9.9999998E-03; -1.8999146E-01;5568; -6.2355916E-03;  0.0000000E+00;  4.4657959E-04;  9.9989813E+02;  1.0000610E-01; -8.4392677E+01;3;  1.0578082E+00;  0.0000000E+00;  2.7374485E-01;0; -7.2067445E-03;  3.9989078E+04;  0.0000000E+00;  2.0658586E-02;  4.0000000E+04;  0.0000000E+00;  3.9998289E+04; -4.7764587E-03;  0.0000000E+00; -2.4302858E-03;  2.1781898E+02;
  5.1134068E-01;  9.9999998E-03; -1.7998633E-01;5569; -6.3476935E-03;  0.0000000E+00;  4.2318000E-04;  1.0000145E+03;  1.0000620E-01;  1.2049042E+01;3;  1.0767741E+00;  0.0000000E+00;  2.6536533E-01;0; -7.4126516E-03;  4.0000160E+04;  0.0000000E+00;  8.7233623E-03;  4.0000000E+04;  0.0000000E+00;  3.9996281E+04; -5.0204657E-03;  0.0000000E+00; -2.3921856E-03;  4.6372736E+02;
  5.1133859E-01;  9.9999998E-03; -1.6998237E-01;5570; -6.4529185E-03;  0.0000000E+00;  3.9922327E-04;  1.0001057E+03;  1.0000616E-01;  8.7503700E+01;3;  1.0954577E+00;  0.0000000E+00;  2.5585994E-01;0; -7.6145409E-03;  4.0009004E+04;  0.0000000E+00; -1.2931799E-02;  4.0000000E+04;  0.0000000E+00;  3.9995121E+04; -5.2465904E-03;  0.0000000E+00; -2.3679507E-03;  6.5649750E+02;
  5.1134044E-01;  9.9999998E-03; -1.5997966E-01;5571; -6.5507791E-03;  0.0000000E+00;  3.7470181E-04;  1.0001772E+03;  1.0000635E-01;  1.4676128E+02;3;  1.1134568E+00;  0.0000000E+00;  2.4536216E-01;0; -7.8132031E-03;  4.0015496E+04;  0.0000000E+00; -4.0775094E-02;  4.0000000E+04;  0.0000000E+00;  3.9993988E+04; -5.4544783E-03;  0.0000000E+00; -2.3587248E-03;  7.8581091E+02;
  5.1134735E-01;  9.9999998E-03; -1.4997818E-01;5572; -6.6411686E-03;  0.0000000E+00;  3.4960135E-04;  1.0002257E+03;  1.0000607E-01;  1.8695767E+02;3;  1.1306345E+00;  0.0000000E+00;  2.3399493E-01;0; -8.0089495E-03;  4.0020008E+04;  0.0000000E+00; -7.0314832E-02;  4.0000000E+04;  0.0000000E+00;  3.9993484E+04; -5.6451964E-03;  0.0000000E+00; -2.3637533E-03;  8.5224084E+02;
  5.1135987E-01;  9.9999998E-03; -1.3997763E-01;5573; -6.7243460E-03;  0.0000000E+00;  3.2395270E-04;  1.0002573E+03;  1.0000619E-01;  2.1322853E+02;3;  1.1468930E+00;  0.0000000E+00;  2.2180590E-01;0; -8.2012350E-03;  4.0022270E+04;  0.0000000E+00; -9.7176492E-02;  4.0000000E+04;  0.0000000E+00;  3.9993285E+04; -5.8208276E-03;  0.0000000E+00; -2.3804076E-03;  8.6270648E+02;
  5.1137727E-01;  9.9999998E-03; -1.2997778E-01;5574; -6.8008867E-03;  0.0000000E+00;  2.9795349E-04;  1.0002718E+03;  1.0000630E-01;  2.2517882E+02;3;  1.1622931E+00;  0.0000000E+00;  2.0882693E-01;0; -8.3885835E-03;  4.0023188E+04;  0.0000000E+00; -1.1808567E-01;  4.0000000E+04;  0.0000000E+00;  3.9993547E+04; -5.9839087E-03;  0.0000000E+00; -2.4046751E-03;  8.2814075E+02;
  5.1139820E-01;  9.9999998E-03; -1.1997836E-01;5575; -6.8715932E-03;  0.0000000E+00;  2.7190929E-04;  1.0002769E+03;  1.0000610E-01;  2.2942561E+02;3;  1.1768016E+00;  0.0000000E+00;  1.9513448E-01;0; -8.5691335E-03;  4.0023078E+04;  0.0000000E+00; -1.3121454E-01;  4.0000000E+04;  0.0000000E+00;  3.9994391E+04; -6.1368328E-03;  0.0000000E+00; -2.4323009E-03;  7.6121136E+02;
  5.1142073E-01;  9.9999998E-03; -1.0997946E-01;5576; -6.9373315E-03;  0.0000000E+00;  2.4612932E-04;  1.0002800E+03;  1.0000629E-01;  2.3199344E+02;3;  1.1902761E+00;  0.0000000E+00;  1.8081956E-01;0; -8.7416042E-03;  4.0022328E+04;  0.0000000E+00; -1.3592309E-01;  4.0000000E+04;  0.0000000E+00;  3.9995012E+04; -6.2816781E-03;  0.0000000E+00; -2.4599263E-03;  6.7501733E+02;
  5.2134633E-01;  9.9999998E-03; -2.7000025E-01;5621; -5.2630040E-03;  0.0000000E+00;  7.3456881E-04;  9.9854303E+02;  1.0001041E-01; -1.2070770E+03;3;  9.3983114E-01;  0.0000000E+00;  2.8160724E-01;0; -5.2180956E-03;  3.9860785E+04;  0.0000000E+00; -1.4934416E-01;  4.0000000E+04;  0.0000000E+00;  4.0014246E+04; -2.3042697E-03;  0.0000000E+00; -2.9138259E-03;  1.9538867E+03;
  5.2136314E-01;  9.9999998E-03; -2.6000202E-01;5622; -5.3898529E-03;  0.0000000E+00;  6.9429685E-04;  9.9868103E+02;  1.0001060E-01; -1.0927593E+03;3;  9.5729393E-01;  0.0000000E+00;  2.8332844E-01;0; -5.4129753E-03;  3.9873262E+04;  0.0000000E+00; -1.3904731E-01;  4.0000000E+04;  0.0000000E+00;  4.0012984E+04; -2.5627541E-03;  0.0000000E+00; -2.8502210E-03;  1.7454136E+03;
  5.2137357E-01;  9.9999998E-03; -2.5000346E-01;5623; -5.5185268E-03;  0.0000000E+00;  6.5507414E-04;  9.9883698E+02;  1.0001060E-01; -9.6352832E+02;3;  9.7245473E-01;  0.0000000E+00;  2.8479502E-01;0; -5.6375042E-03;  3.9887266E+04;  0.0000000E+00; -1.0907683E-01;  4.0000000E+04;  0.0000000E+00;  4.0011371E+04; -2.8348975E-03;  0.0000000E+00; -2.8026067E-03;  1.5216299E+03;
  5.2137315E-01;  9.9999998E-03; -2.4000414E-01;5624; -5.6490386E-03;  0.0000000E+00;  6.2050635E-04;  9.9900452E+02;  1.0001048E-01; -8.2471741E+02;3;  9.8945969E-01;  0.0000000E+00;  2.8537717E-01;0; -5.8974745E-03;  3.9902438E+04;  0.0000000E+00; -6.9142036E-02;  4.0000000E+04;  0.0000000E+00;  4.0009895E+04; -3.1176258E-03;  0.0000000E+00; -2.7798486E-03;  1.2921899E+03;
  5.2136546E-01;  9.9999998E-03; -2.3000532E-01;5625; -5.7812529E-03;  0.0000000E+00;  5.9759617E-04;  9.9917987E+02;  1.0001051E-01; -6.7943756E+02;3;  1.0071580E+00;  0.0000000E+00;  2.8427216E-01;0; -6.1876518E-03;  3.9918645E+04;  0.0000000E+00; -2.8056525E-02;  4.0000000E+04;  0.0000000E+00;  4.0007355E+04; -3.4066308E-03;  0.0000000E+00; -2.7810209E-03;  9.9551453E+02;
  5.2135664E-01;  9.9999998E-03; -2.2000554E-01;5626; -5.9124921E-03;  0.0000000E+00;  5.7397271E-04;  9.9935620E+02;  1.0001040E-01; -5.3336761E+02;3;  1.0243040E+00;  0.0000000E+00;  2.8260371E-01;0; -6.4460691E-03;  3.9935312E+04;  0.0000000E+00;  8.1234891E-03;  4.0000000E+04;  0.0000000E+00;  4.0004832E+04; -3.6969548E-03;  0.0000000E+00; -2.7491145E-03;  6.9771265E+02;
  5.2134645E-01;  9.9999998E-03; -2.1000226E-01;5627; -6.0410360E-03;  0.0000000E+00;  5.4912711E-04;  9.9953650E+02;  1.0001054E-01; -3.8398914E+02;3;  1.0443218E+00;  0.0000000E+00;  2.7829134E-01;0; -6.6859075E-03;  3.9951512E+04;  0.0000000E+00;  3.5300486E-02;  4.0000000E+04;  0.0000000E+00;  4.0002969E+04; -3.9834953E-03;  0.0000000E+00; -2.7024122E-03;  4.2168738E+02;
  5.2133673E-01;  9.9999998E-03; -1.9999667E-01;5628; -6.1657382E-03;  0.0000000E+00;  5.2544312E-04;  9.9970245E+02;  1.0001054E-01; -2.4651155E+02;3;  1.0649465E+00;  0.0000000E+00;  2.7241060E-01;0; -6.9167935E-03;  3.9966965E+04;  0.0000000E+00;  5.0351504E-02;  4.0000000E+04;  0.0000000E+00;  4.0000652E+04; -4.2609703E-03;  0.0000000E+00; -2.6558232E-03;  1.4239771E+02;
  5.2132982E-01;  9.9999998E-03; -1.8999076E-01;5629; -6.2852078E-03;  0.0000000E+00;  5.0134113E-04;  9.9984723E+02;  1.0001057E-01; -1.2656432E+02;3;  1.0859271E+00;  0.0000000E+00;  2.6550153E-01;0; -7.1398811E-03;  3.9980879E+04;  0.0000000E+00;  5.1544022E-02;  4.0000000E+04;  0.0000000E+00;  3.9998508E+04; -4.5246719E-03;  0.0000000E+00; -2.6152094E-03;  1.9410268E+02;
  5.2132696E-01;  9.9999998E-03; -1.7998521E-01;5630; -6.3985698E-03;  0.0000000E+00;  4.7639592E-04;  9.9996832E+02;  1.0001040E-01; -2.6221481E+01;3;  1.1065953E+00;  0.0000000E+00;  2.5745112E-01;0; -7.3572583E-03;  3.9992836E+04;  0.0000000E+00;  3.8803685E-02;  4.0000000E+04;  0.0000000E+00;  3.9996465E+04; -4.7710664E-03;  0.0000000E+00; -2.5861918E-03;  4.5191284E+02;
  5.2132851E-01;  9.9999998E-03; -1.6998051E-01;5631; -6.5050600E-03;  0.0000000E+00;  4.5063757E-04;  1.0000660E+03;  1.0001042E-01;  5.4714500E+01;3;  1.1272303E+00;  0.0000000E+00;  2.4810730E-01;0; -7.5703631E-03;  4.0002199E+04;  0.0000000E+00;  1.4022848E-02;  4.0000000E+04;  0.0000000E+00;  3.9994910E+04; -4.9982802E-03;  0.0000000E+00; -2.5720829E-03;  6.6097064E+02;
  5.2133441E-01;  9.9999998E-03; -1.5997680E-01;5632; -6.6042761E-03;  0.0000000E+00;  4.2413655E-04;  1.0001406E+03;  1.0001034E-01;  1.1644115E+02;3;  1.1471978E+00;  0.0000000E+00;  2.3768517E-01;0; -7.7801174E-03;  4.0008953E+04;  0.0000000E+00; -1.8982382E-02;  4.0000000E+04;  0.0000000E+00;  3.9993492E+04; -5.2062445E-03;  0.0000000E+00; -2.5738729E-03;  8.0330237E+02;
  5.2134466E-01;  9.9999998E-03; -1.4997414E-01;5633; -6.6961017E-03;  0.0000000E+00;  3.9686184E-04;  1.0001903E+03;  1.0001054E-01;  1.5762517E+02;3;  1.1658918E+00;  0.0000000E+00;  2.2666501E-01;0; -7.9869386E-03;  4.0013473E+04;  0.0000000E+00; -5.5138309E-02;  4.0000000E+04;  0.0000000E+00;  3.9992832E+04; -5.3964425E-03;  0.0000000E+00; -2.5904956E-03;  8.7679016E+02;
  5.2135921E-01;  9.9999998E-03; -1.3997266E-01;5634; -6.7807147E-03;  0.0000000E+00;  3.6883427E-04;  1.0002211E+03;  1.0001052E-01;  1.8310593E+02;3;  1.1835415E+00;  0.0000000E+00;  2.1493164E-01;0; -8.1903292E-03;  4.0015727E+04;  0.0000000E+00; -8.9332685E-02;  4.0000000E+04;  0.0000000E+00;  3.9993121E+04; -5.5713402E-03;  0.0000000E+00; -2.6189892E-03;  8.8775476E+02;
  5.2137703E-01;  9.9999998E-03; -1.2997234E-01;5635; -6.8586264E-03;  0.0000000E+00;  3.4028501E-04;  1.0002379E+03;  1.0001041E-01;  1.9713023E+02;3;  1.2001953E+00;  0.0000000E+00;  2.0242915E-01;0; -8.3886981E-03;  4.0016516E+04;  0.0000000E+00; -1.1765440E-01;  4.0000000E+04;  0.0000000E+00;  3.9993590E+04; -5.7336534E-03;  0.0000000E+00; -2.6550442E-03;  8.4793121E+02;
  5.2139652E-01;  9.9999998E-03; -1.1997317E-01;5636; -6.9305766E-03;  0.0000000E+00;  3.1159478E-04;  1.0002432E+03;  1.0001054E-01;  2.0147578E+02;3;  1.2158662E+00;  0.0000000E+00;  1.8922593E-01;0; -8.5800728E-03;  4.0016035E+04;  0.0000000E+00; -1.3767682E-01;  4.0000000E+04;  0.0000000E+00;  3.9994395E+04; -5.8858893E-03;  0.0000000E+00; -2.6941837E-03;  7.7175146E+02;
  5.2141589E-01;  9.9999998E-03; -1.0997502E-01;5637; -6.9973916E-03;  0.0000000E+00;  2.8313693E-04;  1.0002385E+03;  1.0001040E-01;  1.9752528E+02;3;  1.2304596E+00;  0.0000000E+00;  1.7540920E-01;0; -8.7629268E-03;  4.0015082E+04;  0.0000000E+00; -1.4819218E-01;  4.0000000E+04;  0.0000000E+00;  3.9995164E+04; -6.0300459E-03;  0.0000000E+00; -2.7328811E-03;  6.7465424E+02;
  5.3132343E-01;  9.9999998E-03; -2.6999840E-01;5682; -5.2993093E-03;  0.0000000E+00;  7.9668436E-04;  9.9840698E+02;  1.0001741E-01; -1.3197651E+03;3;  9.5389867E-01;  0.0000000E+00;  2.6950717E-01;0; -4.9414253E-03;  3.9842477E+04;  0.0000000E+00; -1.8018930E-01;  4.0000000E+04;  0.0000000E+00;  4.0015953E+04; -1.9623390E-03;  0.0000000E+00; -2.9790862E-03;  2.1589861E+03;
  5.3134239E-01;  9.9999998E-03; -2.5999996E-01;5683; -5.4279282E-03;  0.0000000E+00;  7.5348921E-04;  9.9855737E+02;  1.0001738E-01; -1.1951760E+03;3;  9.7054005E-01;  0.0000000E+00;  2.7217475E-01;0; -5.1571066E-03;  3.9856574E+04;  0.0000000E+00; -1.6652264E-01;  4.0000000E+04;  0.0000000E+00;  4.0014258E+04; -2.2358450E-03;  0.0000000E+00; -2.9212618E-03;  1.9402732E+03;
  5.3135228E-01;  9.9999998E-03; -2.5000131E-01;5684; -5.5587385E-03;  0.0000000E+00;  7.1408198E-04;  9.9872650E+02;  1.0001735E-01; -1.0550813E+03;3;  9.8872751E-01;  0.0000000E+00;  2.7392718E-01;0; -5.4275980E-03;  3.9871711E+04;  0.0000000E+00; -1.2746111E-01;  4.0000000E+04;  0.0000000E+00;  4.0012680E+04; -2.5223014E-03;  0.0000000E+00; -2.9052969E-03;  1.6985006E+03;
  5.3134942E-01;  9.9999998E-03; -2.4000211E-01;5685; -5.6913891E-03;  0.0000000E+00;  6.7907781E-04;  9.9891290E+02;  1.0001748E-01; -9.0061652E+02;3;  1.0085859E+00;  0.0000000E+00;  2.7382782E-01;0; -5.7239369E-03;  3.9888141E+04;  0.0000000E+00; -7.7634640E-02;  4.0000000E+04;  0.0000000E+00;  4.0010680E+04; -2.8183383E-03;  0.0000000E+00; -2.9055986E-03;  1.4454706E+03;
  5.3133881E-01;  9.9999998E-03; -2.3000349E-01;5686; -5.8256993E-03;  0.0000000E+00;  6.5576809E-04;  9.9910126E+02;  1.0001731E-01; -7.4457153E+02;3;  1.0259718E+00;  0.0000000E+00;  2.7392155E-01;0; -6.0434099E-03;  3.9905512E+04;  0.0000000E+00; -2.8000312E-02;  4.0000000E+04;  0.0000000E+00;  4.0008211E+04; -3.1192936E-03;  0.0000000E+00; -2.9241166E-03;  1.1349120E+03;
  5.3132653E-01;  9.9999998E-03; -2.2000577E-01;5687; -5.9585120E-03;  0.0000000E+00;  6.3342339E-04;  9.9929120E+02;  1.0001730E-01; -5.8724268E+02;3;  1.0464519E+00;  0.0000000E+00;  2.7218723E-01;0; -6.3289041E-03;  3.9923504E+04;  0.0000000E+00;  1.5135432E-02;  4.0000000E+04;  0.0000000E+00;  4.0005777E+04; -3.4200395E-03;  0.0000000E+00; -2.9088643E-03;  7.9246594E+02;
  5.3131503E-01;  9.9999998E-03; -2.1000619E-01;5688; -6.0881241E-03;  0.0000000E+00;  6.0830556E-04;  9.9948212E+02;  1.0001735E-01; -4.2907428E+02;3;  1.0677319E+00;  0.0000000E+00;  2.6821500E-01;0; -6.5872944E-03;  3.9940824E+04;  0.0000000E+00;  4.7791012E-02;  4.0000000E+04;  0.0000000E+00;  4.0003137E+04; -3.7153135E-03;  0.0000000E+00; -2.8719809E-03;  4.8113504E+02;
  5.3130627E-01;  9.9999998E-03; -2.0000337E-01;5689; -6.2135351E-03;  0.0000000E+00;  5.8315130E-04;  9.9966217E+02;  1.0001750E-01; -2.7989331E+02;3;  1.0902557E+00;  0.0000000E+00;  2.6291364E-01;0; -6.8335691E-03;  3.9957492E+04;  0.0000000E+00;  6.7163303E-02;  4.0000000E+04;  0.0000000E+00;  4.0001090E+04; -3.9998847E-03;  0.0000000E+00; -2.8336847E-03;  1.9896982E+02;
  5.3130162E-01;  9.9999998E-03; -1.8999861E-01;5690; -6.3337968E-03;  0.0000000E+00;  5.5802573E-04;  9.9982129E+02;  1.0001754E-01; -1.4804520E+02;3;  1.1129879E+00;  0.0000000E+00;  2.5631392E-01;0; -7.0715370E-03;  3.9972203E+04;  0.0000000E+00;  7.1703650E-02;  4.0000000E+04;  0.0000000E+00;  3.9998648E+04; -4.2690844E-03;  0.0000000E+00; -2.8024523E-03;  1.6300728E+02;
  5.3130174E-01;  9.9999998E-03; -1.7999326E-01;5691; -6.4478545E-03;  0.0000000E+00;  5.3214293E-04;  9.9995392E+02;  1.0001744E-01; -3.8171761E+01;3;  1.1363944E+00;  0.0000000E+00;  2.4804553E-01;0; -7.3031820E-03;  3.9984840E+04;  0.0000000E+00;  6.1330967E-02;  4.0000000E+04;  0.0000000E+00;  3.9996832E+04; -4.5194281E-03;  0.0000000E+00; -2.7837537E-03;  4.1293130E+02;
  5.3130686E-01;  9.9999998E-03; -1.6998805E-01;5692; -6.5552178E-03;  0.0000000E+00;  5.0534471E-04;  1.0000591E+03;  1.0001736E-01;  4.8986267E+01;3;  1.1591367E+00;  0.0000000E+00;  2.3875158E-01;0; -7.5301034E-03;  3.9995027E+04;  0.0000000E+00;  3.7810922E-02;  4.0000000E+04;  0.0000000E+00;  3.9994895E+04; -4.7491319E-03;  0.0000000E+00; -2.7809716E-03;  6.3308502E+02;
  5.3131646E-01;  9.9999998E-03; -1.5998340E-01;5693; -6.6555394E-03;  0.0000000E+00;  4.7760503E-04;  1.0001335E+03;  1.0001750E-01;  1.1061416E+02;3;  1.1807414E+00;  0.0000000E+00;  2.2872636E-01;0; -7.7533326E-03;  4.0002129E+04;  0.0000000E+00;  4.8283851E-03;  4.0000000E+04;  0.0000000E+00;  3.9993613E+04; -4.9582953E-03;  0.0000000E+00; -2.7950373E-03;  7.9039532E+02;
  5.3132993E-01;  9.9999998E-03; -1.4997976E-01;5694; -6.7486996E-03;  0.0000000E+00;  4.4885586E-04;  1.0001849E+03;  1.0001726E-01;  1.5318085E+02;3;  1.2011318E+00;  0.0000000E+00;  2.1798725E-01;0; -7.9733646E-03;  4.0006676E+04;  0.0000000E+00; -3.2546930E-02;  4.0000000E+04;  0.0000000E+00;  3.9992812E+04; -5.1487503E-03;  0.0000000E+00; -2.8246143E-03;  8.7703967E+02;
  5.3134602E-01;  9.9999998E-03; -1.3997751E-01;5695; -6.8347557E-03;  0.0000000E+00;  4.1904915E-04;  1.0002110E+03;  1.0001726E-01;  1.7480988E+02;3;  1.2201333E+00;  0.0000000E+00;  2.0679383E-01;0; -8.1897033E-03;  4.0008789E+04;  0.0000000E+00; -6.9131404E-02;  4.0000000E+04;  0.0000000E+00;  3.9992875E+04; -5.3233467E-03;  0.0000000E+00; -2.8663564E-03;  8.9650159E+02;
  5.3136349E-01;  9.9999998E-03; -1.2997679E-01;5696; -6.9141248E-03;  0.0000000E+00;  3.8839926E-04;  1.0002220E+03;  1.0001732E-01;  1.8389603E+02;3;  1.2380546E+00;  0.0000000E+00;  1.9487463E-01;0; -8.4007839E-03;  4.0009121E+04;  0.0000000E+00; -1.0089574E-01;  4.0000000E+04;  0.0000000E+00;  3.9993188E+04; -5.4851333E-03;  0.0000000E+00; -2.9156506E-03;  8.5999774E+02;
  5.3138077E-01;  9.9999998E-03; -1.1997741E-01;5697; -6.9874870E-03;  0.0000000E+00;  3.5734093E-04;  1.0002203E+03;  1.0001743E-01;  1.8251335E+02;3;  1.2549253E+00;  0.0000000E+00;  1.8225390E-01;0; -8.6045433E-03;  4.0008344E+04;  0.0000000E+00; -1.2514426E-01;  4.0000000E+04;  0.0000000E+00;  3.9993996E+04; -5.6367512E-03;  0.0000000E+00; -2.9677923E-03;  7.8318414E+02;
  5.3139651E-01;  9.9999998E-03; -1.0997930E-01;5698; -7.0556067E-03;  0.0000000E+00;  3.2631063E-04;  1.0002112E+03;  1.0001746E-01;  1.7500740E+02;3;  1.2706064E+00;  0.0000000E+00;  1.6902108E-01;0; -8.7993462E-03;  4.0006762E+04;  0.0000000E+00; -1.4023076E-01;  4.0000000E+04;  0.0000000E+00;  3.9994770E+04; -5.7802433E-03;  0.0000000E+00; -3.0191028E-03;  6.8324182E+02;
  5.4133230E-01;  9.9999998E-03; -2.6999718E-01;5743; -5.3352132E-03;  0.0000000E+00;  8.6348812E-04;  9.9833374E+02;  1.0002949E-01; -1.3804548E+03;3;  9.6479315E-01;  0.0000000E+00;  2.5611508E-01;0; -4.6463404E-03;  3.9826203E+04;  0.0000000E+00; -1.9756986E-01;  4.0000000E+04;  0.0000000E+00;  4.0016801E+04; -1.5901646E-03;  0.0000000E+00; -3.0561755E-03;  2.2690251E+03;
  5.4134977E-01;  9.9999998E-03; -2.5999871E-01;5744; -5.4654591E-03;  0.0000000E+00;  8.1837125E-04;  9.9849786E+02;  1.0002950E-01; -1.2445081E+03;3;  9.8336703E-01;  0.0000000E+00;  2.5990668E-01;0; -4.8937481E-03;  3.9840902E+04;  0.0000000E+00; -1.8953997E-01;  4.0000000E+04;  0.0000000E+00;  4.0014672E+04; -1.8831996E-03;  0.0000000E+00; -3.0105487E-03;  2.0347087E+03;
  5.4135579E-01;  9.9999998E-03; -2.5000030E-01;5745; -5.5980934E-03;  0.0000000E+00;  7.7813544E-04;  9.9868066E+02;  1.0002951E-01; -1.0930555E+03;3;  1.0052024E+00;  0.0000000E+00;  2.6076680E-01;0; -5.2060336E-03;  3.9857305E+04;  0.0000000E+00; -1.4748931E-01;  4.0000000E+04;  0.0000000E+00;  4.0012984E+04; -2.1882157E-03;  0.0000000E+00; -3.0178181E-03;  1.7723237E+03;
  5.4134494E-01;  9.9999998E-03; -2.4000196E-01;5746; -5.7329186E-03;  0.0000000E+00;  7.4328162E-04;  9.9887854E+02;  1.0002956E-01; -9.2910950E+02;3;  1.0237031E+00;  0.0000000E+00;  2.6228085E-01;0; -5.5429451E-03;  3.9875082E+04;  0.0000000E+00; -9.1859274E-02;  4.0000000E+04;  0.0000000E+00;  4.0010918E+04; -2.5014007E-03;  0.0000000E+00; -3.0415442E-03;  1.4938024E+03;
  5.4132485E-01;  9.9999998E-03; -2.3000497E-01;5747; -5.8687939E-03;  0.0000000E+00;  7.1822759E-04;  9.9908075E+02;  1.0002951E-01; -7.6155872E+02;3;  1.0452129E+00;  0.0000000E+00;  2.6234576E-01;0; -5.8890395E-03;  3.9893422E+04;  0.0000000E+00; -3.6967009E-02;  4.0000000E+04;  0.0000000E+00;  4.0008258E+04; -2.8176960E-03;  0.0000000E+00; -3.0713435E-03;  1.1650815E+03;
  5.4130334E-01;  9.9999998E-03; -2.2001094E-01;5748; -6.0029416E-03;  0.0000000E+00;  6.9541257E-04;  9.9928033E+02;  1.0002942E-01; -5.9623004E+02;3;  1.0661734E+00;  0.0000000E+00;  2.6095545E-01;0; -6.2010996E-03;  3.9912195E+04;  0.0000000E+00;  1.0526296E-02;  4.0000000E+04;  0.0000000E+00;  4.0005438E+04; -3.1317554E-03;  0.0000000E+00; -3.0693440E-03;  7.9467725E+02;
  5.4128575E-01;  9.9999998E-03; -2.1001627E-01;5749; -6.1332807E-03;  0.0000000E+00;  6.6843472E-04;  9.9948334E+02;  1.0002949E-01; -4.2803726E+02;3;  1.0895166E+00;  0.0000000E+00;  2.5703397E-01;0; -6.4801015E-03;  3.9930723E+04;  0.0000000E+00;  4.7005787E-02;  4.0000000E+04;  0.0000000E+00;  4.0003016E+04; -3.4382157E-03;  0.0000000E+00; -3.0418860E-03;  4.8182657E+02;
  5.4127401E-01;  9.9999998E-03; -2.0001656E-01;5750; -6.2593641E-03;  0.0000000E+00;  6.4175838E-04;  9.9967743E+02;  1.0002949E-01; -2.6725171E+02;3;  1.1151973E+00;  0.0000000E+00;  2.5154966E-01;0; -6.7457156E-03;  3.9948039E+04;  0.0000000E+00;  7.0193052E-02;  4.0000000E+04;  0.0000000E+00;  4.0001188E+04; -3.7319292E-03;  0.0000000E+00; -3.0137864E-03;  2.3009085E+02;
  5.4126918E-01;  9.9999998E-03; -1.9001305E-01;5751; -6.3801305E-03;  0.0000000E+00;  6.1615586E-04;  9.9984814E+02;  1.0002939E-01; -1.2582360E+02;3;  1.1405835E+00;  0.0000000E+00;  2.4504972E-01;0; -7.0019709E-03;  3.9963852E+04;  0.0000000E+00;  7.8962334E-02;  4.0000000E+04;  0.0000000E+00;  3.9999238E+04; -4.0083360E-03;  0.0000000E+00; -2.9936351E-03;  1.2999452E+02;
  5.4127145E-01;  9.9999998E-03; -1.8000787E-01;5752; -6.4947908E-03;  0.0000000E+00;  5.9006846E-04;  9.9999030E+02;  1.0002954E-01; -8.0491552E+00;3;  1.1659610E+00;  0.0000000E+00;  2.3706008E-01;0; -7.2506894E-03;  3.9976961E+04;  0.0000000E+00;  7.3470533E-02;  4.0000000E+04;  0.0000000E+00;  3.9997125E+04; -4.2640786E-03;  0.0000000E+00; -2.9866109E-03;  3.5077756E+02;
  5.4127997E-01;  9.9999998E-03; -1.7000222E-01;5753; -6.6029173E-03;  0.0000000E+00;  5.6290202E-04;  1.0000986E+03;  1.0002955E-01;  8.1676704E+01;3;  1.1906086E+00;  0.0000000E+00;  2.2818540E-01;0; -7.4939183E-03;  3.9987543E+04;  0.0000000E+00;  5.5403750E-02;  4.0000000E+04;  0.0000000E+00;  3.9995129E+04; -4.4975015E-03;  0.0000000E+00; -2.9964168E-03;  5.7613226E+02;
  5.4129320E-01;  9.9999998E-03; -1.5999690E-01;5754; -6.7043304E-03;  0.0000000E+00;  5.3457532E-04;  1.0001780E+03;  1.0002933E-01;  1.4745262E+02;3;  1.2142926E+00;  0.0000000E+00;  2.1813919E-01;0; -7.7329106E-03;  3.9994996E+04;  0.0000000E+00;  2.8017221E-02;  4.0000000E+04;  0.0000000E+00;  3.9993828E+04; -4.7088587E-03;  0.0000000E+00; -3.0240519E-03;  7.4897131E+02;
  5.4130960E-01;  9.9999998E-03; -1.4999253E-01;5755; -6.7988299E-03;  0.0000000E+00;  5.0495280E-04;  1.0002260E+03;  1.0002962E-01;  1.8725397E+02;3;  1.2363232E+00;  0.0000000E+00;  2.0781595E-01;0; -7.9681464E-03;  3.9999594E+04;  0.0000000E+00; -4.2919540E-03;  4.0000000E+04;  0.0000000E+00;  3.9992879E+04; -4.9002501E-03;  0.0000000E+00; -3.0678958E-03;  8.5341748E+02;
  5.4132706E-01;  9.9999998E-03; -1.3998969E-01;5756; -6.8863896E-03;  0.0000000E+00;  4.7386126E-04;  1.0002528E+03;  1.0002943E-01;  2.0947556E+02;3;  1.2566122E+00;  0.0000000E+00;  1.9735995E-01;0; -8.1991004E-03;  4.0001590E+04;  0.0000000E+00; -3.7084382E-02;  4.0000000E+04;  0.0000000E+00;  3.9992945E+04; -5.0748764E-03;  0.0000000E+00; -3.1242243E-03;  8.8836047E+02;
  5.4134423E-01;  9.9999998E-03; -1.2998858E-01;5757; -6.9672978E-03;  0.0000000E+00;  4.4145601E-04;  1.0002512E+03;  1.0002955E-01;  2.0809288E+02;3;  1.2758285E+00;  0.0000000E+00;  1.8614013E-01;0; -8.4242523E-03;  4.0001344E+04;  0.0000000E+00; -6.6929497E-02;  4.0000000E+04;  0.0000000E+00;  3.9993188E+04; -5.2361619E-03;  0.0000000E+00; -3.1880904E-03;  8.6332281E+02;
  5.4135942E-01;  9.9999998E-03; -1.1998902E-01;5758; -7.0422329E-03;  0.0000000E+00;  4.0821568E-04;  1.0002382E+03;  1.0002952E-01;  1.9732776E+02;3;  1.2938985E+00;  0.0000000E+00;  1.7420807E-01;0; -8.6415503E-03;  3.9999805E+04;  0.0000000E+00; -9.1378167E-02;  4.0000000E+04;  0.0000000E+00;  3.9993699E+04; -5.3869952E-03;  0.0000000E+00; -3.2545552E-03;  7.9405774E+02;
  5.4137164E-01;  9.9999998E-03; -1.0999064E-01;5759; -7.1118954E-03;  0.0000000E+00;  3.7463955E-04;  1.0002166E+03;  1.0002936E-01;  1.7945172E+02;3;  1.3106971E+00;  0.0000000E+00;  1.6165552E-01;0; -8.8493684E-03;  3.9996855E+04;  0.0000000E+00; -1.0866158E-01;  4.0000000E+04;  0.0000000E+00;  3.9994605E+04; -5.5295709E-03;  0.0000000E+00; -3.3197973E-03;  6.9858008E+02;
  5.5138373E-01;  9.9999998E-03; -2.6999685E-01;5804; -5.3649214E-03;  0.0000000E+00;  9.3623495E-04;  9.9835632E+02;  1.0004872E-01; -1.3617393E+03;3;  9.7556555E-01;  0.0000000E+00;  2.4074028E-01;0; -4.3468699E-03;  3.9812340E+04;  0.0000000E+00; -2.1731305E-01;  4.0000000E+04;  0.0000000E+00;  4.0016164E+04; -1.1888214E-03;  0.0000000E+00; -3.1580483E-03;  2.2394937E+03;
  5.5139756E-01;  9.9999998E-03; -2.5999838E-01;5805; -5.4970691E-03;  0.0000000E+00;  8.8911637E-04;  9.9852924E+02;  1.0004855E-01; -1.2184840E+03;3;  9.9688041E-01;  0.0000000E+00;  2.4447083E-01;0; -4.6242285E-03;  3.9827867E+04;  0.0000000E+00; -2.1412870E-01;  4.0000000E+04;  0.0000000E+00;  4.0014312E+04; -1.5059188E-03;  0.0000000E+00; -3.1183097E-03;  1.9936141E+03;
  5.5139637E-01;  9.9999998E-03; -2.5000051E-01;5806; -5.6321868E-03;  0.0000000E+00;  8.4934139E-04;  9.9871948E+02;  1.0004877E-01; -1.0609083E+03;3;  1.0173757E+00;  0.0000000E+00;  2.4713896E-01;0; -4.9862135E-03;  3.9845227E+04;  0.0000000E+00; -1.6915545E-01;  4.0000000E+04;  0.0000000E+00;  4.0012152E+04; -1.8336980E-03;  0.0000000E+00; -3.1525155E-03;  1.7092845E+03;
  5.5137318E-01;  9.9999998E-03; -2.4000379E-01;5807; -5.7693841E-03;  0.0000000E+00;  8.1474573E-04;  9.9892383E+02;  1.0004855E-01; -8.9157971E+02;3;  1.0403754E+00;  0.0000000E+00;  2.4841802E-01;0; -5.3629908E-03;  3.9863594E+04;  0.0000000E+00; -1.0904162E-01;  4.0000000E+04;  0.0000000E+00;  4.0010117E+04; -2.1677567E-03;  0.0000000E+00; -3.1952341E-03;  1.3987588E+03;
  5.5133772E-01;  9.9999998E-03; -2.3000936E-01;5808; -5.9066708E-03;  0.0000000E+00;  7.8501529E-04;  9.9913666E+02;  1.0004845E-01; -7.1523901E+02;3;  1.0631083E+00;  0.0000000E+00;  2.4795550E-01;0; -5.7260613E-03;  3.9882633E+04;  0.0000000E+00; -5.1448617E-02;  4.0000000E+04;  0.0000000E+00;  4.0007500E+04; -2.5027220E-03;  0.0000000E+00; -3.2233393E-03;  1.0629890E+03;
  5.5130261E-01;  9.9999998E-03; -2.2001965E-01;5809; -6.0423892E-03;  0.0000000E+00;  7.5901655E-04;  9.9934546E+02;  1.0004871E-01; -5.4225629E+02;3;  1.0886005E+00;  0.0000000E+00;  2.4543597E-01;0; -6.0627703E-03;  3.9901957E+04;  0.0000000E+00; -2.5523526E-03;  4.0000000E+04;  0.0000000E+00;  4.0004922E+04; -2.8327894E-03;  0.0000000E+00; -3.2299808E-03;  6.9701208E+02;
  5.5127472E-01;  9.9999998E-03; -2.1002974E-01;5810; -6.1741485E-03;  0.0000000E+00;  7.2932092E-04;  9.9955707E+02;  1.0004860E-01; -3.6695258E+02;3;  1.1137103E+00;  0.0000000E+00;  2.4239723E-01;0; -6.3661407E-03;  3.9920797E+04;  0.0000000E+00;  3.5431676E-02;  4.0000000E+04;  0.0000000E+00;  4.0002758E+04; -3.1526533E-03;  0.0000000E+00; -3.2134873E-03;  4.2372888E+02;
  5.5125600E-01;  9.9999998E-03; -2.0003285E-01;5811; -6.3010710E-03;  0.0000000E+00;  7.0122362E-04;  9.9975989E+02;  1.0004871E-01; -1.9890796E+02;3;  1.1400211E+00;  0.0000000E+00;  2.3802100E-01;0; -6.6553205E-03;  3.9938598E+04;  0.0000000E+00;  6.1077122E-02;  4.0000000E+04;  0.0000000E+00;  4.0001074E+04; -3.4573360E-03;  0.0000000E+00; -3.1979845E-03;  2.3240791E+02;
  5.5124772E-01;  9.9999998E-03; -1.9003011E-01;5812; -6.4227511E-03;  0.0000000E+00;  6.7558361E-04;  9.9994293E+02;  1.0004846E-01; -4.7257923E+01;3;  1.1678252E+00;  0.0000000E+00;  2.3177849E-01;0; -6.9332216E-03;  3.9954809E+04;  0.0000000E+00;  7.4005909E-02;  4.0000000E+04;  0.0000000E+00;  3.9999566E+04; -3.7422969E-03;  0.0000000E+00; -3.1909246E-03;  1.0414220E+02;
  5.5124915E-01;  9.9999998E-03; -1.8002476E-01;5813; -6.5383115E-03;  0.0000000E+00;  6.4985582E-04;  1.0000869E+03;  1.0004858E-01;  7.1997963E+01;3;  1.1955425E+00;  0.0000000E+00;  2.2404493E-01;0; -7.2015496E-03;  3.9968250E+04;  0.0000000E+00;  7.4924469E-02;  4.0000000E+04;  0.0000000E+00;  3.9997781E+04; -4.0044049E-03;  0.0000000E+00; -3.1971449E-03;  2.7463110E+02;
  5.5125880E-01;  9.9999998E-03; -1.7001851E-01;5814; -6.6475105E-03;  0.0000000E+00;  6.2281510E-04;  1.0001999E+03;  1.0004850E-01;  1.6562494E+02;3;  1.2224287E+00;  0.0000000E+00;  2.1518287E-01;0; -7.4631069E-03;  3.9978840E+04;  0.0000000E+00;  6.5628693E-02;  4.0000000E+04;  0.0000000E+00;  3.9995641E+04; -4.2422335E-03;  0.0000000E+00; -3.2208737E-03;  4.9895398E+02;
  5.5127406E-01;  9.9999998E-03; -1.6001250E-01;5815; -6.7502595E-03;  0.0000000E+00;  5.9438095E-04;  1.0002780E+03;  1.0004857E-01;  2.3031447E+02;3;  1.2478580E+00;  0.0000000E+00;  2.0565829E-01;0; -7.7196024E-03;  3.9986609E+04;  0.0000000E+00;  4.8802506E-02;  4.0000000E+04;  0.0000000E+00;  3.9994262E+04; -4.4562733E-03;  0.0000000E+00; -3.2633292E-03;  6.8606207E+02;
  5.5129206E-01;  9.9999998E-03; -1.5000755E-01;5816; -6.8462603E-03;  0.0000000E+00;  5.6428520E-04;  1.0003221E+03;  1.0004828E-01;  2.6685666E+02;3;  1.2712334E+00;  0.0000000E+00;  1.9617826E-01;0; -7.9714991E-03;  3.9991000E+04;  0.0000000E+00;  2.7602971E-02;  4.0000000E+04;  0.0000000E+00;  3.9993352E+04; -4.6488428E-03;  0.0000000E+00; -3.3226565E-03;  8.1071106E+02;
  5.5131042E-01;  9.9999998E-03; -1.4000423E-01;5817; -6.9353660E-03;  0.0000000E+00;  5.3214579E-04;  1.0003411E+03;  1.0004857E-01;  2.8265866E+02;3;  1.2928580E+00;  0.0000000E+00;  1.8661205E-01;0; -8.2181916E-03;  3.9992484E+04;  0.0000000E+00;  4.9150493E-03;  4.0000000E+04;  0.0000000E+00;  3.9993070E+04; -4.8234672E-03;  0.0000000E+00; -3.3947241E-03;  8.6638306E+02;
  5.5132771E-01;  9.9999998E-03; -1.3000275E-01;5818; -7.0178723E-03;  0.0000000E+00;  4.9811823E-04;  1.0003234E+03;  1.0004845E-01;  2.6794305E+02;3;  1.3133917E+00;  0.0000000E+00;  1.7621738E-01;0; -8.4581971E-03;  3.9991586E+04;  0.0000000E+00; -1.7173177E-02;  4.0000000E+04;  0.0000000E+00;  3.9993117E+04; -4.9839444E-03;  0.0000000E+00; -3.4742532E-03;  8.5970624E+02;
  5.5134213E-01;  9.9999998E-03; -1.2000290E-01;5819; -7.0945239E-03;  0.0000000E+00;  4.6272282E-04;  1.0002977E+03;  1.0004851E-01;  2.4661031E+02;3;  1.3327079E+00;  0.0000000E+00;  1.6507548E-01;0; -8.6895823E-03;  3.9988691E+04;  0.0000000E+00; -3.7097100E-02;  4.0000000E+04;  0.0000000E+00;  3.9993215E+04; -5.1334752E-03;  0.0000000E+00; -3.5561074E-03;  8.0562579E+02;
  5.5135322E-01;  9.9999998E-03; -1.1000410E-01;5820; -7.1659693E-03;  0.0000000E+00;  4.2652083E-04;  1.0002641E+03;  1.0004858E-01;  2.1875925E+02;3;  1.3506819E+00;  0.0000000E+00;  1.5329506E-01;0; -8.9107780E-03;  3.9984801E+04;  0.0000000E+00; -5.3425550E-02;  4.0000000E+04;  0.0000000E+00;  3.9994289E+04; -5.2744769E-03;  0.0000000E+00; -3.6363013E-03;  7.2187128E+02;
  5.6148857E-01;  9.9999998E-03; -2.6999751E-01;5865; -5.3819171E-03;  0.0000000E+00;  1.0149286E-03;  9.9848145E+02;  1.0007987E-01; -1.2580879E+03;3;  9.8886490E-01;  0.0000000E+00;  2.2130752E-01;0; -4.0471544E-03;  3.9798949E+04;  0.0000000E+00; -2.8779989E-01;  4.0000000E+04;  0.0000000E+00;  4.0014625E+04; -7.6417922E-04;  0.0000000E+00; -3.2829752E-03;  2.0737134E+03;
  5.6149888E-01;  9.9999998E-03; -2.5999898E-01;5866; -5.5171289E-03;  0.0000000E+00;  9.6695957E-04;  9.9865723E+02;  1.0007985E-01; -1.1124624E+03;3;  1.0119572E+00;  0.0000000E+00;  2.2657815E-01;0; -4.3633142E-03;  3.9814586E+04;  0.0000000E+00; -2.6578119E-01;  4.0000000E+04;  0.0000000E+00;  4.0012598E+04; -1.1091912E-03;  0.0000000E+00; -3.2541228E-03;  1.8151167E+03;
  5.6148380E-01;  9.9999998E-03; -2.5000176E-01;5867; -5.6559402E-03;  0.0000000E+00;  9.2780066E-04;  9.9884973E+02;  1.0007981E-01; -9.5296069E+02;3;  1.0332490E+00;  0.0000000E+00;  2.2892269E-01;0; -4.7736452E-03;  3.9832301E+04;  0.0000000E+00; -2.0018165E-01;  4.0000000E+04;  0.0000000E+00;  4.0010570E+04; -1.4634599E-03;  0.0000000E+00; -3.3101852E-03;  1.5029685E+03;
  5.6144392E-01;  9.9999998E-03; -2.4000701E-01;5868; -5.7965084E-03;  0.0000000E+00;  8.9330936E-04;  9.9905396E+02;  1.0007977E-01; -7.8378027E+02;3;  1.0593097E+00;  0.0000000E+00;  2.2905378E-01;0; -5.1874639E-03;  3.9850891E+04;  0.0000000E+00; -1.2858556E-01;  4.0000000E+04;  0.0000000E+00;  4.0007844E+04; -1.8215573E-03;  0.0000000E+00; -3.3659069E-03;  1.1581659E+03;
  5.6139237E-01;  9.9999998E-03; -2.3001541E-01;5869; -5.9364717E-03;  0.0000000E+00;  8.5712766E-04;  9.9926752E+02;  1.0007978E-01; -6.0684705E+02;3;  1.0832611E+00;  0.0000000E+00;  2.2988358E-01;0; -5.5609602E-03;  3.9869949E+04;  0.0000000E+00; -6.7604065E-02;  4.0000000E+04;  0.0000000E+00;  4.0005336E+04; -2.1776792E-03;  0.0000000E+00; -3.3832809E-03;  8.3282080E+02;
  5.6134224E-01;  9.9999998E-03; -2.2002918E-01;5870; -6.0745082E-03;  0.0000000E+00;  8.2436629E-04;  9.9948413E+02;  1.0008001E-01; -4.2739532E+02;3;  1.1083331E+00;  0.0000000E+00;  2.2874983E-01;0; -5.9171272E-03;  3.9889309E+04;  0.0000000E+00; -1.9104064E-02;  4.0000000E+04;  0.0000000E+00;  4.0003109E+04; -2.5258160E-03;  0.0000000E+00; -3.3913113E-03;  5.1715479E+02;
  5.6130075E-01;  9.9999998E-03; -2.1004267E-01;5871; -6.2079038E-03;  0.0000000E+00;  7.9060160E-04;  9.9970593E+02;  1.0007975E-01; -2.4364743E+02;3;  1.1370517E+00;  0.0000000E+00;  2.2575815E-01;0; -6.2481295E-03;  3.9908031E+04;  0.0000000E+00;  1.7958993E-02;  4.0000000E+04;  0.0000000E+00;  4.0001656E+04; -2.8607615E-03;  0.0000000E+00; -3.3873683E-03;  3.2023172E+02;
  5.6127107E-01;  9.9999998E-03; -2.0004746E-01;5872; -6.3367384E-03;  0.0000000E+00;  7.6144445E-04;  9.9991553E+02;  1.0007975E-01; -6.9973328E+01;3;  1.1660272E+00;  0.0000000E+00;  2.2154161E-01;0; -6.5654498E-03;  3.9925488E+04;  0.0000000E+00;  4.3999169E-02;  4.0000000E+04;  0.0000000E+00;  4.0000910E+04; -3.1775001E-03;  0.0000000E+00; -3.3879497E-03;  2.1021202E+02;
  5.6125432E-01;  9.9999998E-03; -1.9004485E-01;5873; -6.4603416E-03;  0.0000000E+00;  7.3649548E-04;  1.0000973E+03;  1.0007992E-01;  8.0590317E+01;3;  1.1966288E+00;  0.0000000E+00;  2.1481834E-01;0; -6.8682926E-03;  3.9941082E+04;  0.0000000E+00;  5.9982181E-02;  4.0000000E+04;  0.0000000E+00;  4.0000043E+04; -3.4716730E-03;  0.0000000E+00; -3.3966196E-03;  9.3219460E+01;
  5.6124979E-01;  9.9999998E-03; -1.8003884E-01;5874; -6.5777213E-03;  0.0000000E+00;  7.1149424E-04;  1.0002445E+03;  1.0007997E-01;  2.0256218E+02;3;  1.2255807E+00;  0.0000000E+00;  2.0835310E-01;0; -7.1583013E-03;  3.9954426E+04;  0.0000000E+00;  6.7526586E-02;  4.0000000E+04;  0.0000000E+00;  3.9998199E+04; -3.7403982E-03;  0.0000000E+00; -3.4179031E-03;  1.9659822E+02;
  5.6125593E-01;  9.9999998E-03; -1.7003173E-01;5875; -6.6886274E-03;  0.0000000E+00;  6.8480300E-04;  1.0003503E+03;  1.0007987E-01;  2.9026340E+02;3;  1.2542473E+00;  0.0000000E+00;  2.0001560E-01;0; -7.4395598E-03;  3.9964836E+04;  0.0000000E+00;  6.8763994E-02;  4.0000000E+04;  0.0000000E+00;  3.9996355E+04; -3.9825784E-03;  0.0000000E+00; -3.4569814E-03;  4.1397061E+02;
  5.6126982E-01;  9.9999998E-03; -1.6002475E-01;5876; -6.7931912E-03;  0.0000000E+00;  6.5647706E-04;  1.0004246E+03;  1.0007964E-01;  3.5169376E+02;3;  1.2811366E+00;  0.0000000E+00;  1.9136748E-01;0; -7.7145016E-03;  3.9971906E+04;  0.0000000E+00;  6.5765142E-02;  4.0000000E+04;  0.0000000E+00;  3.9994820E+04; -4.1990341E-03;  0.0000000E+00; -3.5154677E-03;  6.1196826E+02;
  5.6128877E-01;  9.9999998E-03; -1.5001887E-01;5877; -6.8908655E-03;  0.0000000E+00;  6.2592281E-04;  1.0004604E+03;  1.0007985E-01;  3.8152008E+02;3;  1.3057837E+00;  0.0000000E+00;  1.8309115E-01;0; -7.9837665E-03;  3.9976211E+04;  0.0000000E+00;  6.0102556E-02;  4.0000000E+04;  0.0000000E+00;  3.9993625E+04; -4.3923957E-03;  0.0000000E+00; -3.5913710E-03;  7.5659711E+02;
  5.6130928E-01;  9.9999998E-03; -1.4001489E-01;5878; -6.9815549E-03;  0.0000000E+00;  5.9262174E-04;  1.0004694E+03;  1.0007970E-01;  3.8882852E+02;3;  1.3287925E+00;  0.0000000E+00;  1.7455557E-01;0; -8.2466481E-03;  3.9977242E+04;  0.0000000E+00;  5.2596170E-02;  4.0000000E+04;  0.0000000E+00;  3.9992793E+04; -4.5664902E-03;  0.0000000E+00; -3.6801579E-03;  8.3578241E+02;
  5.6132865E-01;  9.9999998E-03; -1.3001296E-01;5879; -7.0657646E-03;  0.0000000E+00;  5.5683131E-04;  1.0004498E+03;  1.0007964E-01;  3.7263144E+02;3;  1.3506713E+00;  0.0000000E+00;  1.6509724E-01;0; -8.5016256E-03;  3.9975508E+04;  0.0000000E+00;  4.3403354E-02;  4.0000000E+04;  0.0000000E+00;  3.9993344E+04; -4.7254413E-03;  0.0000000E+00; -3.7761843E-03;  8.5283289E+02;
  5.6134510E-01;  9.9999998E-03; -1.2001265E-01;5880; -7.1441731E-03;  0.0000000E+00;  5.1910325E-04;  1.0004048E+03;  1.0007966E-01;  3.3539792E+02;3;  1.3712759E+00;  0.0000000E+00;  1.5483648E-01;0; -8.7469677E-03;  3.9971930E+04;  0.0000000E+00;  3.2550566E-02;  4.0000000E+04;  0.0000000E+00;  3.9993238E+04; -4.8728022E-03;  0.0000000E+00; -3.8741657E-03;  8.2045941E+02;
  5.6135798E-01;  9.9999998E-03; -1.1001317E-01;5881; -7.2174976E-03;  0.0000000E+00;  4.8005630E-04;  1.0003475E+03;  1.0007960E-01;  2.8789310E+02;3;  1.3904846E+00;  0.0000000E+00;  1.4391142E-01;0; -8.9811943E-03;  3.9966801E+04;  0.0000000E+00;  2.0617614E-02;  4.0000000E+04;  0.0000000E+00;  3.9993430E+04; -5.0112186E-03;  0.0000000E+00; -3.9699762E-03;  7.5510425E+02;
  5.7164758E-01;  9.9999998E-03; -2.6999918E-01;5926; -5.3815325E-03;  0.0000000E+00;  1.0999331E-03;  9.9869562E+02;  1.0013127E-01; -1.0806608E+03;3;  1.0052477E+00;  0.0000000E+00;  1.9868673E-01;0; -3.7591790E-03;  3.9777570E+04;  0.0000000E+00; -4.7255009E-01;  4.0000000E+04;  0.0000000E+00;  4.0012145E+04; -3.2409167E-04;  0.0000000E+00; -3.4350874E-03;  1.8383230E+03;
  5.7164741E-01;  9.9999998E-03; -2.6000035E-01;5927; -5.5211391E-03;  0.0000000E+00;  1.0511903E-03;  9.9886572E+02;  1.0013119E-01; -9.3972650E+02;3;  1.0338562E+00;  0.0000000E+00;  1.9999307E-01;0; -4.1130874E-03;  3.9793109E+04;  0.0000000E+00; -3.7282100E-01;  4.0000000E+04;  0.0000000E+00;  4.0010180E+04; -6.9993531E-04;  0.0000000E+00; -3.4131519E-03;  1.5453107E+03;
  5.7161570E-01;  9.9999998E-03; -2.5000349E-01;5928; -5.6660031E-03;  0.0000000E+00;  1.0125232E-03;  9.9905298E+02;  1.0013124E-01; -7.8457037E+02;3;  1.0546180E+00;  0.0000000E+00;  2.0384730E-01;0; -4.5675384E-03;  3.9810125E+04;  0.0000000E+00; -2.5270775E-01;  4.0000000E+04;  0.0000000E+00;  4.0007484E+04; -1.0829254E-03;  0.0000000E+00; -3.4846130E-03;  1.1958561E+03;
  5.7156181E-01;  9.9999998E-03; -2.4001035E-01;5929; -5.8120177E-03;  0.0000000E+00;  9.7667007E-04;  9.9925397E+02;  1.0013139E-01; -6.1805658E+02;3;  1.0768580E+00;  0.0000000E+00;  2.0788917E-01;0; -5.0090747E-03;  3.9828246E+04;  0.0000000E+00; -1.5416455E-01;  4.0000000E+04;  0.0000000E+00;  4.0004789E+04; -1.4668729E-03;  0.0000000E+00; -3.5422018E-03;  8.2071234E+02;
  5.7149696E-01;  9.9999998E-03; -2.3002043E-01;5930; -5.9546432E-03;  0.0000000E+00;  9.3059655E-04;  9.9946234E+02;  1.0013141E-01; -4.4541949E+02;3;  1.1065829E+00;  0.0000000E+00;  2.0810373E-01;0; -5.3848806E-03;  3.9846688E+04;  0.0000000E+00; -8.3642572E-02;  4.0000000E+04;  0.0000000E+00;  4.0002883E+04; -1.8460564E-03;  0.0000000E+00; -3.5388242E-03;  5.3684332E+02;
  5.7143098E-01;  9.9999998E-03; -2.2003482E-01;5931; -6.0959905E-03;  0.0000000E+00;  8.8911038E-04;  9.9967853E+02;  1.0013144E-01; -2.6631345E+02;3;  1.1330587E+00;  0.0000000E+00;  2.0672549E-01;0; -5.7628504E-03;  3.9865227E+04;  0.0000000E+00; -3.4602113E-02;  4.0000000E+04;  0.0000000E+00;  4.0001414E+04; -2.2137000E-03;  0.0000000E+00; -3.5491504E-03;  3.2163403E+02;
  5.7137358E-01;  9.9999998E-03; -2.1004882E-01;5932; -6.2333108E-03;  0.0000000E+00;  8.5292960E-04;  9.9989789E+02;  1.0013153E-01; -8.4590202E+01;3;  1.1631691E+00;  0.0000000E+00;  2.0358075E-01;0; -6.1295042E-03;  3.9883309E+04;  0.0000000E+00; -1.4735888E-04;  4.0000000E+04;  0.0000000E+00;  4.0000516E+04; -2.5644563E-03;  0.0000000E+00; -3.5650479E-03;  2.1866072E+02;
  5.7132924E-01;  9.9999998E-03; -2.0005383E-01;5933; -6.3659376E-03;  0.0000000E+00;  8.2391890E-04;  1.0001083E+03;  1.0013146E-01;  8.9775238E+01;3;  1.1933969E+00;  0.0000000E+00;  2.0104945E-01;0; -6.4793378E-03;  3.9900258E+04;  0.0000000E+00;  2.3958243E-02;  4.0000000E+04;  0.0000000E+00;  4.0000727E+04; -2.8934558E-03;  0.0000000E+00; -3.5858818E-03;  1.8377940E+02;
  5.7129967E-01;  9.9999998E-03; -1.9005089E-01;5934; -6.4929025E-03;  0.0000000E+00;  7.9968851E-04;  1.0002904E+03;  1.0013139E-01;  2.4058578E+02;3;  1.2244292E+00;  0.0000000E+00;  1.9640552E-01;0; -6.8093631E-03;  3.9915184E+04;  0.0000000E+00;  4.0935855E-02;  4.0000000E+04;  0.0000000E+00;  3.9999945E+04; -3.1966481E-03;  0.0000000E+00; -3.6127148E-03;  9.6806625E+01;
  5.7128531E-01;  9.9999998E-03; -1.8004422E-01;5935; -6.6131800E-03;  0.0000000E+00;  7.7534671E-04;  1.0004273E+03;  1.0013138E-01;  3.5406406E+02;3;  1.2557281E+00;  0.0000000E+00;  1.8978325E-01;0; -7.1225306E-03;  3.9927461E+04;  0.0000000E+00;  5.3784225E-02;  4.0000000E+04;  0.0000000E+00;  3.9998473E+04; -3.4714390E-03;  0.0000000E+00; -3.6510914E-03;  1.2711545E+02;
  5.7128406E-01;  9.9999998E-03; -1.7003639E-01;5936; -6.7268605E-03;  0.0000000E+00;  7.4914016E-04;  1.0005305E+03;  1.0013123E-01;  4.3949374E+02;3;  1.2858180E+00;  0.0000000E+00;  1.8245946E-01;0; -7.4242293E-03;  3.9937059E+04;  0.0000000E+00;  6.5175019E-02;  4.0000000E+04;  0.0000000E+00;  3.9996883E+04; -3.7171226E-03;  0.0000000E+00; -3.7071067E-03;  3.3411215E+02;
  5.7129377E-01;  9.9999998E-03; -1.6002865E-01;5937; -6.8335878E-03;  0.0000000E+00;  7.2064210E-04;  1.0005906E+03;  1.0013103E-01;  4.8927011E+02;3;  1.3140604E+00;  0.0000000E+00;  1.7509261E-01;0; -7.7178944E-03;  3.9943527E+04;  0.0000000E+00;  7.6652899E-02;  4.0000000E+04;  0.0000000E+00;  3.9995273E+04; -3.9350800E-03;  0.0000000E+00; -3.7828144E-03;  5.3845251E+02;
  5.7131112E-01;  9.9999998E-03; -1.5002215E-01;5938; -6.9329748E-03;  0.0000000E+00;  6.8902632E-04;  1.0006224E+03;  1.0013118E-01;  5.1563971E+02;3;  1.3397511E+00;  0.0000000E+00;  1.6869943E-01;0; -8.0045704E-03;  3.9946812E+04;  0.0000000E+00;  8.8164993E-02;  4.0000000E+04;  0.0000000E+00;  3.9994184E+04; -4.1283886E-03;  0.0000000E+00; -3.8761816E-03;  6.9981549E+02;
  5.7133293E-01;  9.9999998E-03; -1.4001763E-01;5939; -7.0251687E-03;  0.0000000E+00;  6.5403746E-04;  1.0006169E+03;  1.0013114E-01;  5.1109665E+02;3;  1.3642846E+00;  0.0000000E+00;  1.6124277E-01;0; -8.2834587E-03;  3.9947531E+04;  0.0000000E+00;  9.8356180E-02;  4.0000000E+04;  0.0000000E+00;  3.9993172E+04; -4.3011103E-03;  0.0000000E+00; -3.9823484E-03;  8.0207416E+02;
  5.7135671E-01;  9.9999998E-03; -1.3001506E-01;5940; -7.1109319E-03;  0.0000000E+00;  6.1603612E-04;  1.0005806E+03;  1.0013101E-01;  4.8097406E+02;3;  1.3876092E+00;  0.0000000E+00;  1.5278091E-01;0; -8.5530207E-03;  3.9945270E+04;  0.0000000E+00;  1.0519930E-01;  4.0000000E+04;  0.0000000E+00;  3.9992625E+04; -4.4576125E-03;  0.0000000E+00; -4.0954081E-03;  8.4497369E+02;
  5.7137948E-01;  9.9999998E-03; -1.2001397E-01;5941; -7.1911127E-03;  0.0000000E+00;  5.7559501E-04;  1.0005270E+03;  1.0013115E-01;  4.3662964E+02;3;  1.4095693E+00;  0.0000000E+00;  1.4347450E-01;0; -8.8116648E-03;  3.9940809E+04;  0.0000000E+00;  1.0681199E-01;  4.0000000E+04;  0.0000000E+00;  3.9992656E+04; -4.6017016E-03;  0.0000000E+00; -4.2099631E-03;  8.3814484E+02;
  5.7139993E-01;  9.9999998E-03; -1.1001343E-01;5942; -7.2663645E-03;  0.0000000E+00;  5.3337275E-04;  1.0004540E+03;  1.0013121E-01;  3.7618689E+02;3;  1.4300603E+00;  0.0000000E+00;  1.3346836E-01;0; -9.0580788E-03;  3.9934926E+04;  0.0000000E+00;  1.0239386E-01;  4.0000000E+04;  0.0000000E+00;  3.9993242E+04; -4.7363024E-03;  0.0000000E+00; -4.3217768E-03;  7.9565839E+02;
  5.8182597E-01;  9.9999998E-03; -2.7000144E-01;5987; -5.3579360E-03;  0.0000000E+00;  1.1919677E-03;  9.9892090E+02;  1.0021430E-01; -8.9399939E+02;3;  1.0431957E+00;  0.0000000E+00;  1.5952618E-01;0; -3.5090896E-03;  3.9732988E+04;  0.0000000E+00; -7.5198007E-01;  4.0000000E+04;  0.0000000E+00;  4.0008648E+04;  1.2278532E-04;  0.0000000E+00; -3.6318749E-03;  1.7233340E+03;
  5.8181649E-01;  9.9999998E-03; -2.6000187E-01;5988; -5.5083274E-03;  0.0000000E+00;  1.1453654E-03;  9.9908185E+02;  1.0021447E-01; -7.6066986E+02;3;  1.0620358E+00;  0.0000000E+00;  1.6881226E-01;0; -3.9128158E-03;  3.9747320E+04;  0.0000000E+00; -5.2789038E-01;  4.0000000E+04;  0.0000000E+00;  4.0006648E+04; -2.8332157E-04;  0.0000000E+00; -3.6294945E-03;  1.3247166E+03;
  5.8177733E-01;  9.9999998E-03; -2.5000450E-01;5989; -5.6618000E-03;  0.0000000E+00;  1.1056663E-03;  9.9925378E+02;  1.0021477E-01; -6.1820471E+02;3;  1.0793097E+00;  0.0000000E+00;  1.7658755E-01;0; -4.3850224E-03;  3.9763387E+04;  0.0000000E+00; -3.2956755E-01;  4.0000000E+04;  0.0000000E+00;  4.0004465E+04; -6.9487805E-04;  0.0000000E+00; -3.6901445E-03;  9.1453534E+02;
  5.8171171E-01;  9.9999998E-03; -2.4001127E-01;5990; -5.8142417E-03;  0.0000000E+00;  1.0628010E-03;  9.9944470E+02;  1.0021478E-01; -4.6003638E+02;3;  1.1012956E+00;  0.0000000E+00;  1.8094046E-01;0; -4.8206425E-03;  3.9780543E+04;  0.0000000E+00; -1.8752827E-01;  4.0000000E+04;  0.0000000E+00;  4.0001980E+04; -1.1052825E-03;  0.0000000E+00; -3.7153601E-03;  5.2648126E+02;
  5.8163202E-01;  9.9999998E-03; -2.3002051E-01;5991; -5.9607429E-03;  0.0000000E+00;  1.0043789E-03;  9.9964832E+02;  1.0021497E-01; -2.9134979E+02;3;  1.1320888E+00;  0.0000000E+00;  1.7864358E-01;0; -5.1953583E-03;  3.9798012E+04;  0.0000000E+00; -9.9379264E-02;  4.0000000E+04;  0.0000000E+00;  4.0000586E+04; -1.5085210E-03;  0.0000000E+00; -3.6868374E-03;  3.0111496E+02;
  5.8154857E-01;  9.9999998E-03; -2.2003233E-01;5992; -6.1074165E-03;  0.0000000E+00;  9.5574377E-04;  9.9986273E+02;  1.0021490E-01; -1.1372518E+02;3;  1.1604673E+00;  0.0000000E+00;  1.8008076E-01;0; -5.6043100E-03;  3.9815332E+04;  0.0000000E+00; -4.7449019E-02;  4.0000000E+04;  0.0000000E+00;  3.9999895E+04; -1.8962628E-03;  0.0000000E+00; -3.7080471E-03;  1.8771964E+02;
  5.8147365E-01;  9.9999998E-03; -2.1004499E-01;5993; -6.2513831E-03;  0.0000000E+00;  9.1939367E-04;  1.0000736E+03;  1.0021475E-01;  6.0936546E+01;3;  1.1892596E+00;  0.0000000E+00;  1.7993578E-01;0; -6.0127014E-03;  3.9832168E+04;  0.0000000E+00; -1.6193464E-02;  4.0000000E+04;  0.0000000E+00;  3.9999637E+04; -2.2628419E-03;  0.0000000E+00; -3.7498598E-03;  1.4661903E+02;
  5.8141285E-01;  9.9999998E-03; -2.0005046E-01;5994; -6.3899858E-03;  0.0000000E+00;  8.9139189E-04;  1.0002714E+03;  1.0021470E-01;  2.2488252E+02;3;  1.2207596E+00;  0.0000000E+00;  1.7705120E-01;0; -6.3975286E-03;  3.9847359E+04;  0.0000000E+00;  4.1739033E-03;  4.0000000E+04;  0.0000000E+00;  3.9999828E+04; -2.6037013E-03;  0.0000000E+00; -3.7938275E-03;  1.5119572E+02;
  5.8136892E-01;  9.9999998E-03; -1.9004840E-01;5995; -6.5217749E-03;  0.0000000E+00;  8.6744380E-04;  1.0004376E+03;  1.0021468E-01;  3.6255765E+02;3;  1.2528754E+00;  0.0000000E+00;  1.7402670E-01;0; -6.7557804E-03;  3.9861043E+04;  0.0000000E+00;  1.9878978E-02;  4.0000000E+04;  0.0000000E+00;  3.9999445E+04; -2.9151873E-03;  0.0000000E+00; -3.8405934E-03;  9.2263504E+01;
  5.8134222E-01;  9.9999998E-03; -1.8004265E-01;5996; -6.6461959E-03;  0.0000000E+00;  8.4305753E-04;  1.0005669E+03;  1.0021465E-01;  4.6961633E+02;3;  1.2854013E+00;  0.0000000E+00;  1.6865836E-01;0; -7.0928382E-03;  3.9872320E+04;  0.0000000E+00;  3.5541262E-02;  4.0000000E+04;  0.0000000E+00;  3.9998301E+04; -3.1950928E-03;  0.0000000E+00; -3.8977456E-03;  8.0182251E+01;
  5.8133155E-01;  9.9999998E-03; -1.7003565E-01;5997; -6.7630708E-03;  0.0000000E+00;  8.1647065E-04;  1.0006537E+03;  1.0021455E-01;  5.4161432E+02;3;  1.3169928E+00;  0.0000000E+00;  1.6244927E-01;0; -7.4154371E-03;  3.9880840E+04;  0.0000000E+00;  5.4504327E-02;  4.0000000E+04;  0.0000000E+00;  3.9996922E+04; -3.4432616E-03;  0.0000000E+00; -3.9721755E-03;  2.7490939E+02;
  5.8133417E-01;  9.9999998E-03; -1.6002856E-01;5998; -6.8719862E-03;  0.0000000E+00;  7.8662590E-04;  1.0007042E+03;  1.0021445E-01;  5.8339093E+02;3;  1.3455935E+00;  0.0000000E+00;  1.5829334E-01;0; -7.7278893E-03;  3.9886406E+04;  0.0000000E+00;  7.8064904E-02;  4.0000000E+04;  0.0000000E+00;  3.9995449E+04; -3.6617348E-03;  0.0000000E+00; -4.0661544E-03;  4.7787885E+02;
  5.8134717E-01;  9.9999998E-03; -1.5002237E-01;5999; -6.9728266E-03;  0.0000000E+00;  7.5283111E-04;  1.0007191E+03;  1.0021443E-01;  5.9573627E+02;3;  1.3728679E+00;  0.0000000E+00;  1.5322798E-01;0; -8.0317417E-03;  3.9889113E+04;  0.0000000E+00;  1.0494432E-01;  4.0000000E+04;  0.0000000E+00;  3.9994082E+04; -3.8540834E-03;  0.0000000E+00; -4.1776584E-03;  6.4889490E+02;
  5.8136749E-01;  9.9999998E-03; -1.4001782E-01;6000; -7.0663826E-03;  0.0000000E+00;  7.1527658E-04;  1.0007054E+03;  1.0021447E-01;  5.8447729E+02;3;  1.3992250E+00;  0.0000000E+00;  1.4675163E-01;0; -8.3261775E-03;  3.9888941E+04;  0.0000000E+00;  1.3190296E-01;  4.0000000E+04;  0.0000000E+00;  3.9993008E+04; -4.0246407E-03;  0.0000000E+00; -4.3015368E-03;  7.6916528E+02;
  5.8139330E-01;  9.9999998E-03; -1.3001476E-01;6001; -7.1535772E-03;  0.0000000E+00;  6.7435933E-04;  1.0006661E+03;  1.0021418E-01;  5.5178687E+02;3;  1.4240665E+00;  0.0000000E+00;  1.3931480E-01;0; -8.6096805E-03;  3.9886508E+04;  0.0000000E+00;  1.5489674E-01;  4.0000000E+04;  0.0000000E+00;  3.9992723E+04; -4.1779336E-03;  0.0000000E+00; -4.4317474E-03;  8.3477393E+02;
  5.8142340E-01;  9.9999998E-03; -1.2001259E-01;6002; -7.2353063E-03;  0.0000000E+00;  6.3065300E-04;  1.0006041E+03;  1.0021426E-01;  5.0052905E+02;3;  1.4473865E+00;  0.0000000E+00;  1.3099165E-01;0; -8.8808313E-03;  3.9881902E+04;  0.0000000E+00;  1.7015749E-01;  4.0000000E+04;  0.0000000E+00;  3.9992223E+04; -4.3179300E-03;  0.0000000E+00; -4.5629013E-03;  8.5194958E+02;
  5.8145487E-01;  9.9999998E-03; -1.1001071E-01;6003; -7.3124105E-03;  0.0000000E+00;  5.8484206E-04;  1.0005319E+03;  1.0021417E-01;  4.4067889E+02;3;  1.4691480E+00;  0.0000000E+00;  1.2195841E-01;0; -9.1384090E-03;  3.9875859E+04;  0.0000000E+00;  1.7528622E-01;  4.0000000E+04;  0.0000000E+00;  3.9992562E+04; -4.4476897E-03;  0.0000000E+00; -4.6907188E-03;  8.3177795E+02;
  5.9194726E-01;  9.9999998E-03; -2.7000380E-01;6048; -5.3107198E-03;  0.0000000E+00;  1.2860275E-03;  9.9905725E+02;  1.0034879E-01; -7.8106433E+02;3;  1.0953690E+00;  0.0000000E+00;  1.2054845E-01;0; -3.2471528E-03;  3.9640914E+04;  0.0000000E+00; -9.3683439E-01;  4.0000000E+04;  0.0000000E+00;  4.0006301E+04;  5.7124131E-04;  0.0000000E+00; -3.8183942E-03;  1.7381289E+03;
  5.9193259E-01;  9.9999998E-03; -2.6000258E-01;6049; -5.4789833E-03;  0.0000000E+00;  1.2437830E-03;  9.9920557E+02;  1.0034929E-01; -6.5815424E+02;3;  1.1016525E+00;  0.0000000E+00;  1.3035016E-01;0; -3.7201657E-03;  3.9654039E+04;  0.0000000E+00; -6.2307638E-01;  4.0000000E+04;  0.0000000E+00;  4.0004215E+04;  1.3860165E-04;  0.0000000E+00; -3.8587674E-03;  1.2312860E+03;
  5.9188843E-01;  9.9999998E-03; -2.5000337E-01;6050; -5.6451461E-03;  0.0000000E+00;  1.2033313E-03;  9.9935968E+02;  1.0034923E-01; -5.3050354E+02;3;  1.1123804E+00;  0.0000000E+00;  1.4124064E-01;0; -4.2055161E-03;  3.9668734E+04;  0.0000000E+00; -3.7202483E-01;  4.0000000E+04;  0.0000000E+00;  4.0001805E+04; -2.9912393E-04;  0.0000000E+00; -3.9063920E-03;  7.7031708E+02;
  5.9181702E-01;  9.9999998E-03; -2.4000780E-01;6051; -5.8061942E-03;  0.0000000E+00;  1.1530537E-03;  9.9953607E+02;  1.0034949E-01; -3.8433481E+02;3;  1.1338100E+00;  0.0000000E+00;  1.4703740E-01;0; -4.6288506E-03;  3.9684203E+04;  0.0000000E+00; -2.0382236E-01;  4.0000000E+04;  0.0000000E+00;  3.9999539E+04; -7.3458173E-04;  0.0000000E+00; -3.8942688E-03;  3.9136133E+02;
  5.9172744E-01;  9.9999998E-03; -2.3001337E-01;6052; -5.9584626E-03;  0.0000000E+00;  1.0840265E-03;  9.9973090E+02;  1.0034961E-01; -2.2295665E+02;3;  1.1616527E+00;  0.0000000E+00;  1.4952478E-01;0; -5.0050961E-03;  3.9700289E+04;  0.0000000E+00; -1.0692347E-01;  4.0000000E+04;  0.0000000E+00;  3.9998676E+04; -1.1612207E-03;  0.0000000E+00; -3.8438751E-03;  2.1261465E+02;
  5.9163064E-01;  9.9999998E-03; -2.2002217E-01;6053; -6.1140545E-03;  0.0000000E+00;  1.0345627E-03;  9.9993097E+02;  1.0034963E-01; -5.7183567E+01;3;  1.1898099E+00;  0.0000000E+00;  1.4859666E-01;0; -5.4554059E-03;  3.9716293E+04;  0.0000000E+00; -5.6539133E-02;  4.0000000E+04;  0.0000000E+00;  3.9998219E+04; -1.5681948E-03;  0.0000000E+00; -3.8872112E-03;  1.2350841E+02;
  5.9154302E-01;  9.9999998E-03; -2.1003644E-01;6054; -6.2671942E-03;  0.0000000E+00;  9.9953660E-04;  1.0001263E+03;  1.0034940E-01;  1.0468840E+02;3;  1.2153286E+00;  0.0000000E+00;  1.5308578E-01;0; -5.9019546E-03;  3.9731531E+04;  0.0000000E+00; -3.1046955E-02;  4.0000000E+04;  0.0000000E+00;  3.9997992E+04; -1.9499324E-03;  0.0000000E+00; -3.9520222E-03;  6.1402744E+01;
  5.9147084E-01;  9.9999998E-03; -2.0004582E-01;6055; -6.4125429E-03;  0.0000000E+00;  9.6942903E-04;  1.0003051E+03;  1.0034940E-01;  2.5273360E+02;3;  1.2475080E+00;  0.0000000E+00;  1.5154761E-01;0; -6.3167876E-03;  3.9745652E+04;  0.0000000E+00; -1.6336154E-02;  4.0000000E+04;  0.0000000E+00;  3.9998277E+04; -2.3024294E-03;  0.0000000E+00; -4.0143579E-03;  6.2554321E+01;
  5.9141594E-01;  9.9999998E-03; -1.9004743E-01;6056; -6.5497807E-03;  0.0000000E+00;  9.4282784E-04;  1.0004572E+03;  1.0034945E-01;  3.7875473E+02;3;  1.2808865E+00;  0.0000000E+00;  1.4847893E-01;0; -6.7021903E-03;  3.9757746E+04;  0.0000000E+00; -4.0058275E-03;  4.0000000E+04;  0.0000000E+00;  3.9998074E+04; -2.6219422E-03;  0.0000000E+00; -4.0802481E-03;  3.3266548E+01;
  5.9137899E-01;  9.9999998E-03; -1.8004452E-01;6057; -6.6785342E-03;  0.0000000E+00;  9.1637619E-04;  1.0005679E+03;  1.0034906E-01;  4.7050522E+02;3;  1.3143549E+00;  0.0000000E+00;  1.4516433E-01;0; -7.0637017E-03;  3.9767492E+04;  0.0000000E+00;  1.1545172E-02;  4.0000000E+04;  0.0000000E+00;  3.9997504E+04; -2.9066040E-03;  0.0000000E+00; -4.1570980E-03;  7.9673897E+01;
  5.9135962E-01;  9.9999998E-03; -1.7003942E-01;6058; -6.7983307E-03;  0.0000000E+00;  8.8721450E-04;  1.0006395E+03;  1.0034908E-01;  5.2986157E+02;3;  1.3451570E+00;  0.0000000E+00;  1.4366300E-01;0; -7.4080490E-03;  3.9774961E+04;  0.0000000E+00;  3.4080662E-02;  4.0000000E+04;  0.0000000E+00;  3.9996066E+04; -3.1569719E-03;  0.0000000E+00; -4.2510768E-03;  2.5164442E+02;
  5.9135544E-01;  9.9999998E-03; -1.6003327E-01;6059; -6.9089262E-03;  0.0000000E+00;  8.5399899E-04;  1.0006787E+03;  1.0034893E-01;  5.6225568E+02;3;  1.3758999E+00;  0.0000000E+00;  1.4077955E-01;0; -7.7399402E-03;  3.9779594E+04;  0.0000000E+00;  6.4909987E-02;  4.0000000E+04;  0.0000000E+00;  3.9994570E+04; -3.3756355E-03;  0.0000000E+00; -4.3643047E-03;  4.4011163E+02;
  5.9136426E-01;  9.9999998E-03; -1.5002717E-01;6060; -7.0110681E-03;  0.0000000E+00;  8.1672258E-04;  1.0006879E+03;  1.0034863E-01;  5.6995917E+02;3;  1.4052892E+00;  0.0000000E+00;  1.3669881E-01;0; -8.0610979E-03;  3.9781750E+04;  0.0000000E+00;  1.0220542E-01;  4.0000000E+04;  0.0000000E+00;  3.9993469E+04; -3.5666034E-03;  0.0000000E+00; -4.4944948E-03;  6.0926727E+02;
  5.9138495E-01;  9.9999998E-03; -1.4002168E-01;6061; -7.1057584E-03;  0.0000000E+00;  7.7559479E-04;  1.0006714E+03;  1.0034855E-01;  5.5632996E+02;3;  1.4334536E+00;  0.0000000E+00;  1.3121492E-01;0; -8.3710104E-03;  3.9781344E+04;  0.0000000E+00;  1.4161770E-01;  4.0000000E+04;  0.0000000E+00;  3.9992379E+04; -3.7346056E-03;  0.0000000E+00; -4.6364050E-03;  7.3727930E+02;
  5.9141582E-01;  9.9999998E-03; -1.3001682E-01;6062; -7.1941055E-03;  0.0000000E+00;  7.3097798E-04;  1.0006339E+03;  1.0034847E-01;  5.2521973E+02;3;  1.4599221E+00;  0.0000000E+00;  1.2471478E-01;0; -8.6682644E-03;  3.9778973E+04;  0.0000000E+00;  1.7771579E-01;  4.0000000E+04;  0.0000000E+00;  3.9991742E+04; -3.8843658E-03;  0.0000000E+00; -4.7838991E-03;  8.1653400E+02;
  5.9145492E-01;  9.9999998E-03; -1.2001237E-01;6063; -7.2770719E-03;  0.0000000E+00;  6.8341504E-04;  1.0005733E+03;  1.0034828E-01;  4.7494952E+02;3;  1.4846444E+00;  0.0000000E+00;  1.1738957E-01;0; -8.9515802E-03;  3.9774758E+04;  0.0000000E+00;  2.0522787E-01;  4.0000000E+04;  0.0000000E+00;  3.9991691E+04; -4.0199766E-03;  0.0000000E+00; -4.9316040E-03;  8.4998895E+02;
  5.9149802E-01;  9.9999998E-03; -1.1000849E-01;6064; -7.3556132E-03;  0.0000000E+00;  6.3358177E-04;  1.0005021E+03;  1.0034831E-01;  4.1598822E+02;3;  1.5076510E+00;  0.0000000E+00;  1.0938065E-01;0; -9.2197601E-03;  3.9769133E+04;  0.0000000E+00;  2.2031550E-01;  4.0000000E+04;  0.0000000E+00;  3.9991730E+04; -4.1445694E-03;  0.0000000E+00; -5.0751902E-03;  8.4597046E+02;
  6.0196722E-01;  9.9999998E-03; -2.7000597E-01;6109; -5.2436409E-03;  0.0000000E+00;  1.3715751E-03;  9.9901697E+02;  1.0056274E-01; -8.1444611E+02;3;  1.1687591E+00;  0.0000000E+00;  6.9287263E-02;0; -2.8553428E-03;  3.9471598E+04;  0.0000000E+00; -8.4581137E-01;  4.0000000E+04;  0.0000000E+00;  4.0005016E+04;  1.0280065E-03;  0.0000000E+00; -3.8833492E-03;  1.6739825E+03;
  6.0195041E-01;  9.9999998E-03; -2.6000202E-01;6110; -5.4387124E-03;  0.0000000E+00;  1.3378714E-03;  9.9914929E+02;  1.0056362E-01; -7.0481958E+02;3;  1.1501485E+00;  0.0000000E+00;  9.1983818E-02;0; -3.4541769E-03;  3.9483383E+04;  0.0000000E+00; -5.4654777E-01;  4.0000000E+04;  0.0000000E+00;  4.0003094E+04;  5.7403441E-04;  0.0000000E+00; -4.0282113E-03;  1.1952136E+03;
  6.0190558E-01;  9.9999998E-03; -2.4999923E-01;6111; -5.6197881E-03;  0.0000000E+00;  1.2951625E-03;  9.9929504E+02;  1.0056366E-01; -5.8403284E+02;3;  1.1547642E+00;  0.0000000E+00;  1.0578345E-01;0; -3.9549829E-03;  3.9496469E+04;  0.0000000E+00; -3.1806743E-01;  4.0000000E+04;  0.0000000E+00;  4.0000766E+04;  1.1287488E-04;  0.0000000E+00; -4.0678577E-03;  7.7173767E+02;
  6.0183221E-01;  9.9999998E-03; -2.3999840E-01;6112; -5.7914574E-03;  0.0000000E+00;  1.2392346E-03;  9.9945850E+02;  1.0056426E-01; -4.4862927E+02;3;  1.1713799E+00;  0.0000000E+00;  1.0959983E-01;0; -4.3886318E-03;  3.9510832E+04;  0.0000000E+00; -1.7161416E-01;  4.0000000E+04;  0.0000000E+00;  3.9999027E+04; -3.4586040E-04;  0.0000000E+00; -4.0427712E-03;  4.4740637E+02;
  6.0173827E-01;  9.9999998E-03; -2.2999693E-01;6113; -5.9544072E-03;  0.0000000E+00;  1.1701559E-03;  9.9963678E+02;  1.0056435E-01; -3.0092975E+02;3;  1.1934347E+00;  0.0000000E+00;  1.1575469E-01;0; -4.8073833E-03;  3.9525344E+04;  0.0000000E+00; -9.3601212E-02;  4.0000000E+04;  0.0000000E+00;  3.9998504E+04; -7.9389138E-04;  0.0000000E+00; -4.0134918E-03;  3.2783640E+02;
  6.0163540E-01;  9.9999998E-03; -2.2000235E-01;6114; -6.1227442E-03;  0.0000000E+00;  1.1294171E-03;  9.9981281E+02;  1.0056438E-01; -1.5510672E+02;3;  1.2144589E+00;  0.0000000E+00;  1.1938073E-01;0; -5.3124139E-03;  3.9539848E+04;  0.0000000E+00; -5.8915880E-02;  4.0000000E+04;  0.0000000E+00;  3.9997293E+04; -1.2189620E-03;  0.0000000E+00; -4.0934519E-03;  1.7642783E+02;
  6.0154355E-01;  9.9999998E-03; -2.1002105E-01;6115; -6.2853848E-03;  0.0000000E+00;  1.0967553E-03;  9.9997223E+02;  1.0056417E-01; -2.3011694E+01;3;  1.2385718E+00;  0.0000000E+00;  1.2655112E-01;0; -5.7902648E-03;  3.9554074E+04;  0.0000000E+00; -4.5946844E-02;  4.0000000E+04;  0.0000000E+00;  3.9995984E+04; -1.6159355E-03;  0.0000000E+00; -4.1743293E-03;  7.0022697E+01;
  6.0146743E-01;  9.9999998E-03; -2.0003773E-01;6116; -6.4369272E-03;  0.0000000E+00;  1.0605911E-03;  1.0001296E+03;  1.0056413E-01;  1.0735499E+02;3;  1.2727565E+00;  0.0000000E+00;  1.2329859E-01;0; -6.2285336E-03;  3.9566801E+04;  0.0000000E+00; -4.0306564E-02;  4.0000000E+04;  0.0000000E+00;  3.9995637E+04; -1.9807986E-03;  0.0000000E+00; -4.2477348E-03;  9.0019119E+01;
  6.0140824E-01;  9.9999998E-03; -1.9004543E-01;6117; -6.5792729E-03;  0.0000000E+00;  1.0275455E-03;  1.0002723E+03;  1.0056392E-01;  2.2557387E+02;3;  1.3060118E+00;  0.0000000E+00;  1.2415773E-01;0; -6.6397283E-03;  3.9578109E+04;  0.0000000E+00; -3.3929627E-02;  4.0000000E+04;  0.0000000E+00;  3.9995773E+04; -2.3092602E-03;  0.0000000E+00; -4.3304679E-03;  8.9025314E+01;
  6.0136676E-01;  9.9999998E-03; -1.8004633E-01;6118; -6.7116348E-03;  0.0000000E+00;  9.9531061E-04;  1.0003766E+03;  1.0056404E-01;  3.1199118E+02;3;  1.3393551E+00;  0.0000000E+00;  1.2470058E-01;0; -7.0269294E-03;  3.9586840E+04;  0.0000000E+00; -2.1689435E-02;  4.0000000E+04;  0.0000000E+00;  3.9995344E+04; -2.5997381E-03;  0.0000000E+00; -4.4271913E-03;  1.4548492E+02;
  6.0134369E-01;  9.9999998E-03; -1.7004304E-01;6119; -6.8336073E-03;  0.0000000E+00;  9.6069567E-04;  1.0004443E+03;  1.0056351E-01;  3.6808835E+02;3;  1.3718529E+00;  0.0000000E+00;  1.2461545E-01;0; -7.3949825E-03;  3.9593215E+04;  0.0000000E+00; -2.9763070E-04;  4.0000000E+04;  0.0000000E+00;  3.9994461E+04; -2.8531770E-03;  0.0000000E+00; -4.5418055E-03;  2.7205966E+02;
  6.0133892E-01;  9.9999998E-03; -1.6003706E-01;6120; -6.9455681E-03;  0.0000000E+00;  9.2247583E-04;  1.0004756E+03;  1.0056325E-01;  3.9406293E+02;3;  1.4046074E+00;  0.0000000E+00;  1.2284728E-01;0; -7.7480208E-03;  3.9597312E+04;  0.0000000E+00;  3.1501736E-02;  4.0000000E+04;  0.0000000E+00;  3.9993434E+04; -3.0726630E-03;  0.0000000E+00; -4.6753576E-03;  4.3122382E+02;
  6.0135126E-01;  9.9999998E-03; -1.5002961E-01;6121; -7.0487051E-03;  0.0000000E+00;  8.8050036E-04;  1.0004821E+03;  1.0056295E-01;  3.9939612E+02;3;  1.4366381E+00;  0.0000000E+00;  1.1940961E-01;0; -8.0877757E-03;  3.9599289E+04;  0.0000000E+00;  7.2027326E-02;  4.0000000E+04;  0.0000000E+00;  3.9991828E+04; -3.2627012E-03;  0.0000000E+00; -4.8250747E-03;  5.8435101E+02;
  6.0137892E-01;  9.9999998E-03; -1.4002207E-01;6122; -7.1442197E-03;  0.0000000E+00;  8.3486066E-04;  1.0004676E+03;  1.0056274E-01;  3.8734708E+02;3;  1.4670827E+00;  0.0000000E+00;  1.1459100E-01;0; -8.4141176E-03;  3.9599008E+04;  0.0000000E+00;  1.1688787E-01;  4.0000000E+04;  0.0000000E+00;  3.9990961E+04; -3.4285644E-03;  0.0000000E+00; -4.9855527E-03;  7.0573798E+02;
  6.0141802E-01;  9.9999998E-03; -1.3001558E-01;6123; -7.2332998E-03;  0.0000000E+00;  7.8583939E-04;  1.0004330E+03;  1.0056226E-01;  3.5880466E+02;3;  1.4952458E+00;  0.0000000E+00;  1.0891671E-01;0; -8.7258834E-03;  3.9597344E+04;  0.0000000E+00;  1.6036536E-01;  4.0000000E+04;  0.0000000E+00;  3.9990621E+04; -3.5753504E-03;  0.0000000E+00; -5.1505328E-03;  7.8469336E+02;
  6.0146338E-01;  9.9999998E-03; -1.2001082E-01;6124; -7.3170522E-03;  0.0000000E+00;  7.3390093E-04;  1.0003840E+03;  1.0056242E-01;  3.1821323E+02;3;  1.5212728E+00;  0.0000000E+00;  1.0262307E-01;0; -9.0218978E-03;  3.9594023E+04;  0.0000000E+00;  1.9653082E-01;  4.0000000E+04;  0.0000000E+00;  3.9990191E+04; -3.7072871E-03;  0.0000000E+00; -5.3146109E-03;  8.2178778E+02;
  6.0151017E-01;  9.9999998E-03; -1.1000789E-01;6125; -7.3965248E-03;  0.0000000E+00;  6.7968143E-04;  1.0003297E+03;  1.0056213E-01;  2.7307870E+02;3;  1.5454206E+00;  0.0000000E+00;  9.5714711E-02;0; -9.3009584E-03;  3.9590031E+04;  0.0000000E+00;  2.2057503E-01;  4.0000000E+04;  0.0000000E+00;  3.9990523E+04; -3.8275344E-03;  0.0000000E+00; -5.4734242E-03;  8.2376538E+02;
  6.1191976E-01;  9.9999998E-03; -2.7000904E-01;6170; -5.1807933E-03;  0.0000000E+00;  1.4521679E-03;  9.9879144E+02;  1.0089727E-01; -1.0012556E+03;3;  1.2395061E+00;  0.0000000E+00;  2.3707174E-02;0; -2.3437880E-03;  3.9193926E+04;  0.0000000E+00; -5.3914499E-01;  4.0000000E+04;  0.0000000E+00;  4.0005016E+04;  1.5205732E-03;  0.0000000E+00; -3.8643612E-03;  1.6795369E+03;
  6.1190051E-01;  9.9999998E-03; -2.6000142E-01;6171; -5.4023750E-03;  0.0000000E+00;  1.4252220E-03;  9.9891351E+02;  1.0089819E-01; -9.0012268E+02;3;  1.2052505E+00;  0.0000000E+00;  4.9240667E-02;0; -3.0736965E-03;  3.9204539E+04;  0.0000000E+00; -3.2858193E-01;  4.0000000E+04;  0.0000000E+00;  4.0003277E+04;  1.0451708E-03;  0.0000000E+00; -4.1188672E-03;  1.3348011E+03;
  6.1185563E-01;  9.9999998E-03; -2.4999331E-01;6172; -5.5996324E-03;  0.0000000E+00;  1.3820446E-03;  9.9904761E+02;  1.0089882E-01; -7.8901471E+02;3;  1.1923462E+00;  0.0000000E+00;  6.9528088E-02;0; -3.6213628E-03;  3.9216273E+04;  0.0000000E+00; -1.7793776E-01;  4.0000000E+04;  0.0000000E+00;  4.0001324E+04;  5.6093495E-04;  0.0000000E+00; -4.1822977E-03;  1.0316970E+03;
  6.1178553E-01;  9.9999998E-03; -2.3998450E-01;6173; -5.7811704E-03;  0.0000000E+00;  1.3215820E-03;  9.9920532E+02;  1.0089970E-01; -6.5835175E+02;3;  1.2085634E+00;  0.0000000E+00;  7.2744288E-02;0; -4.0842919E-03;  3.9229578E+04;  0.0000000E+00; -9.2963539E-02;  4.0000000E+04;  0.0000000E+00;  3.9999953E+04;  7.8815778E-05;  0.0000000E+00; -4.1631078E-03;  8.1636652E+02;
  6.1169261E-01;  9.9999998E-03; -2.2997203E-01;6174; -5.9556467E-03;  0.0000000E+00;  1.2559581E-03;  9.9938159E+02;  1.0089993E-01; -5.1233118E+02;3;  1.2272735E+00;  0.0000000E+00;  7.5593874E-02;0; -4.5668371E-03;  3.9243109E+04;  0.0000000E+00; -5.8211431E-02;  4.0000000E+04;  0.0000000E+00;  3.9999695E+04; -3.9091409E-04;  0.0000000E+00; -4.1759228E-03;  7.6295337E+02;
  6.1159033E-01;  9.9999998E-03; -2.1996915E-01;6175; -6.1378377E-03;  0.0000000E+00;  1.2317360E-03;  9.9952185E+02;  1.0089993E-01; -3.9613693E+02;3;  1.2371268E+00;  0.0000000E+00;  9.0538301E-02;0; -5.1461719E-03;  3.9256586E+04;  0.0000000E+00; -5.3597029E-02;  4.0000000E+04;  0.0000000E+00;  3.9997430E+04; -8.3517865E-04;  0.0000000E+00; -4.3109935E-03;  4.8849420E+02;
  6.1150092E-01;  9.9999998E-03; -2.0999029E-01;6176; -6.3086664E-03;  0.0000000E+00;  1.2037590E-03;  9.9965570E+02;  1.0090019E-01; -2.8522650E+02;3;  1.2607539E+00;  0.0000000E+00;  9.8107263E-02;0; -5.6579309E-03;  3.9270066E+04;  0.0000000E+00; -6.1243273E-02;  4.0000000E+04;  0.0000000E+00;  3.9993961E+04; -1.2493182E-03;  0.0000000E+00; -4.4086124E-03;  9.5390671E+01;
  6.1142731E-01;  9.9999998E-03; -2.0001434E-01;6177; -6.4658248E-03;  0.0000000E+00;  1.1612858E-03;  9.9979126E+02;  1.0089987E-01; -1.7293338E+02;3;  1.2932597E+00;  0.0000000E+00;  1.0057220E-01;0; -6.1195493E-03;  3.9282586E+04;  0.0000000E+00; -6.9426335E-02;  4.0000000E+04;  0.0000000E+00;  3.9992621E+04; -1.6285914E-03;  0.0000000E+00; -4.4909581E-03;  1.6884418E+02;
  6.1136895E-01;  9.9999998E-03; -1.9002868E-01;6178; -6.6119614E-03;  0.0000000E+00;  1.1190936E-03;  9.9991949E+02;  1.0089956E-01; -6.6714165E+01;3;  1.3278342E+00;  0.0000000E+00;  1.0296824E-01;0; -6.5579577E-03;  3.9292879E+04;  0.0000000E+00; -7.2409153E-02;  4.0000000E+04;  0.0000000E+00;  3.9992590E+04; -1.9685510E-03;  0.0000000E+00; -4.5894068E-03;  2.0604030E+02;
  6.1132729E-01;  9.9999998E-03; -1.8003429E-01;6179; -6.7469226E-03;  0.0000000E+00;  1.0784478E-03;  1.0000208E+03;  1.0089894E-01;  1.7184700E+01;3;  1.3618685E+00;  0.0000000E+00;  1.0457505E-01;0; -6.9739390E-03;  3.9301355E+04;  0.0000000E+00; -6.7137405E-02;  4.0000000E+04;  0.0000000E+00;  3.9992234E+04; -2.2674382E-03;  0.0000000E+00; -4.7065010E-03;  2.4988489E+02;
  6.1130428E-01;  9.9999998E-03; -1.7003396E-01;6180; -6.8704034E-03;  0.0000000E+00;  1.0366194E-03;  1.0000823E+03;  1.0089874E-01;  6.8146217E+01;3;  1.3968524E+00;  0.0000000E+00;  1.0545468E-01;0; -7.3691700E-03;  3.9307539E+04;  0.0000000E+00; -5.1856291E-02;  4.0000000E+04;  0.0000000E+00;  3.9991277E+04; -2.5263096E-03;  0.0000000E+00; -4.8428602E-03;  3.3975940E+02;
  6.1129999E-01;  9.9999998E-03; -1.6003017E-01;6181; -6.9832210E-03;  0.0000000E+00;  9.9205447E-04;  1.0001166E+03;  1.0089814E-01;  9.6589859E+01;3;  1.4326575E+00;  0.0000000E+00;  1.0401040E-01;0; -7.7464441E-03;  3.9311527E+04;  0.0000000E+00; -2.5875296E-02;  4.0000000E+04;  0.0000000E+00;  3.9990301E+04; -2.7487122E-03;  0.0000000E+00; -4.9977321E-03;  4.6213757E+02;
  6.1131316E-01;  9.9999998E-03; -1.5002513E-01;6182; -7.0868265E-03;  0.0000000E+00;  9.4438344E-04;  1.0001238E+03;  1.0089783E-01;  1.0251562E+02;3;  1.4675215E+00;  0.0000000E+00;  1.0099398E-01;0; -8.1074191E-03;  3.9313582E+04;  0.0000000E+00;  9.7520193E-03;  4.0000000E+04;  0.0000000E+00;  3.9989133E+04; -2.9398182E-03;  0.0000000E+00; -5.1676012E-03;  5.8528802E+02;
  6.1134070E-01;  9.9999998E-03; -1.4002067E-01;6183; -7.1827299E-03;  0.0000000E+00;  8.9351193E-04;  1.0001181E+03;  1.0089713E-01;  9.7873772E+01;3;  1.5003005E+00;  0.0000000E+00;  9.6685171E-02;0; -8.4523065E-03;  3.9314176E+04;  0.0000000E+00;  5.1740624E-02;  4.0000000E+04;  0.0000000E+00;  3.9988766E+04; -3.1054947E-03;  0.0000000E+00; -5.3468118E-03;  6.8370020E+02;
  6.1137819E-01;  9.9999998E-03; -1.3001792E-01;6184; -7.2721150E-03;  0.0000000E+00;  8.3958515E-04;  1.0000960E+03;  1.0089687E-01;  7.9503922E+01;3;  1.5300905E+00;  0.0000000E+00;  9.1801919E-02;0; -8.7804571E-03;  3.9313410E+04;  0.0000000E+00;  9.5367938E-02;  4.0000000E+04;  0.0000000E+00;  3.9988309E+04; -3.2512841E-03;  0.0000000E+00; -5.5291727E-03;  7.4548206E+02;
  6.1142105E-01;  9.9999998E-03; -1.2001702E-01;6185; -7.3560933E-03;  0.0000000E+00;  7.8294019E-04;  1.0000629E+03;  1.0089651E-01;  5.2146675E+01;3;  1.5571828E+00;  0.0000000E+00;  8.6649336E-02;0; -9.0909284E-03;  3.9311324E+04;  0.0000000E+00;  1.3516885E-01;  4.0000000E+04;  0.0000000E+00;  3.9988012E+04; -3.3815317E-03;  0.0000000E+00; -5.7093971E-03;  7.7022015E+02;
  6.1146528E-01;  9.9999998E-03; -1.1001740E-01;6186; -7.4357232E-03;  0.0000000E+00;  7.2412757E-04;  1.0000171E+03;  1.0089607E-01;  1.4123057E+01;3;  1.5822912E+00;  0.0000000E+00;  8.0957532E-02;0; -9.3825823E-03;  3.9308562E+04;  0.0000000E+00;  1.6607478E-01;  4.0000000E+04;  0.0000000E+00;  3.9988273E+04; -3.4993857E-03;  0.0000000E+00; -5.8831964E-03;  7.6450159E+02;
  6.2181783E-01;  9.9999998E-03; -2.7001506E-01;6231; -5.1566260E-03;  0.0000000E+00;  1.5399824E-03;  9.9845398E+02;  1.0140579E-01; -1.2808527E+03;3;  1.2795336E+00;  0.0000000E+00; -7.7920263E-03;0; -1.8199552E-03;  3.8777547E+04;  0.0000000E+00; -1.4580643E-01;  4.0000000E+04;  0.0000000E+00;  4.0005367E+04;  2.0839302E-03;  0.0000000E+00; -3.9038854E-03;  2.0082889E+03;
  6.2179983E-01;  9.9999998E-03; -2.6000351E-01;6232; -5.3920485E-03;  0.0000000E+00;  1.5121663E-03;  9.9857977E+02;  1.0140748E-01; -1.1766086E+03;3;  1.2374344E+00;  0.0000000E+00;  2.0315053E-02;0; -2.6052911E-03;  3.8787582E+04;  0.0000000E+00; -4.7437780E-02;  4.0000000E+04;  0.0000000E+00;  4.0003719E+04;  1.5789201E-03;  0.0000000E+00; -4.1842111E-03;  1.7671791E+03;
  6.2175912E-01;  9.9999998E-03; -2.4998955E-01;6233; -5.5985693E-03;  0.0000000E+00;  1.4658173E-03;  9.9871692E+02;  1.0140868E-01; -1.0630316E+03;3;  1.2256706E+00;  0.0000000E+00;  3.4726128E-02;0; -3.1961426E-03;  3.8798961E+04;  0.0000000E+00;  6.0772202E-03;  4.0000000E+04;  0.0000000E+00;  4.0002062E+04;  1.0662916E-03;  0.0000000E+00; -4.2624343E-03;  1.5470962E+03;
  6.2169558E-01;  9.9999998E-03; -2.3997174E-01;6234; -5.7889149E-03;  0.0000000E+00;  1.4042893E-03;  9.9888141E+02;  1.0140960E-01; -9.2673920E+02;3;  1.2385992E+00;  0.0000000E+00;  3.8117982E-02;0; -3.7183498E-03;  3.8811590E+04;  0.0000000E+00;  1.5660778E-02;  4.0000000E+04;  0.0000000E+00;  4.0001332E+04;  5.5718300E-04;  0.0000000E+00; -4.2755329E-03;  1.4067651E+03;
  6.2161016E-01;  9.9999998E-03; -2.2994623E-01;6235; -5.9738792E-03;  0.0000000E+00;  1.3472586E-03;  9.9905609E+02;  1.0141005E-01; -7.8200256E+02;3;  1.2506539E+00;  0.0000000E+00;  4.6779633E-02;0; -4.2863344E-03;  3.8824918E+04;  0.0000000E+00; -4.8585343E-03;  4.0000000E+04;  0.0000000E+00;  4.0000898E+04;  6.2284926E-05;  0.0000000E+00; -4.3486194E-03;  1.3887037E+03;
  6.2151361E-01;  9.9999998E-03; -2.1993178E-01;6236; -6.1646914E-03;  0.0000000E+00;  1.3358395E-03;  9.9919067E+02;  1.0141039E-01; -6.7049957E+02;3;  1.2496065E+00;  0.0000000E+00;  7.1226753E-02;0; -4.9352972E-03;  3.8838312E+04;  0.0000000E+00; -3.9730348E-02;  4.0000000E+04;  0.0000000E+00;  3.9997734E+04; -4.0594104E-04;  0.0000000E+00; -4.5293560E-03;  9.7042377E+02;
  6.2143099E-01;  9.9999998E-03; -2.0995060E-01;6237; -6.3404422E-03;  0.0000000E+00;  1.3140296E-03;  9.9928827E+02;  1.0141014E-01; -5.8966235E+02;3;  1.2781756E+00;  0.0000000E+00;  7.6524802E-02;0; -5.4884925E-03;  3.8851469E+04;  0.0000000E+00; -7.5053431E-02;  4.0000000E+04;  0.0000000E+00;  3.9992223E+04; -8.4141421E-04;  0.0000000E+00; -4.6470785E-03;  2.7816837E+02;
  6.2136239E-01;  9.9999998E-03; -1.9997993E-01;6238; -6.5011415E-03;  0.0000000E+00;  1.2659476E-03;  9.9940833E+02;  1.0140969E-01; -4.9020834E+02;3;  1.3116393E+00;  0.0000000E+00;  7.9646669E-02;0; -5.9787063E-03;  3.8863746E+04;  0.0000000E+00; -1.0245430E-01;  4.0000000E+04;  0.0000000E+00;  3.9989148E+04; -1.2389699E-03;  0.0000000E+00; -4.7397367E-03;  2.0012590E+02;
  6.2130666E-01;  9.9999998E-03; -1.9000161E-01;6239; -6.6493475E-03;  0.0000000E+00;  1.2142146E-03;  9.9952283E+02;  1.0140939E-01; -3.9534683E+02;3;  1.3462397E+00;  0.0000000E+00;  8.2654744E-02;0; -6.4487564E-03;  3.8874145E+04;  0.0000000E+00; -1.1897124E-01;  4.0000000E+04;  0.0000000E+00;  3.9988148E+04; -1.5943991E-03;  0.0000000E+00; -4.8543573E-03;  3.2025406E+02;
  6.2126452E-01;  9.9999998E-03; -1.8001410E-01;6240; -6.7854240E-03;  0.0000000E+00;  1.1642126E-03;  9.9962213E+02;  1.0140860E-01; -3.1307758E+02;3;  1.3828715E+00;  0.0000000E+00;  8.4934629E-02;0; -6.8982588E-03;  3.8883086E+04;  0.0000000E+00; -1.2460607E-01;  4.0000000E+04;  0.0000000E+00;  3.9987727E+04; -1.9057312E-03;  0.0000000E+00; -4.9925274E-03;  3.8412576E+02;
  6.2123895E-01;  9.9999998E-03; -1.7002006E-01;6241; -6.9095143E-03;  0.0000000E+00;  1.1143252E-03;  9.9968781E+02;  1.0140774E-01; -2.5865936E+02;3;  1.4191309E+00;  0.0000000E+00;  8.5956790E-02;0; -7.3254630E-03;  3.8889488E+04;  0.0000000E+00; -1.2022664E-01;  4.0000000E+04;  0.0000000E+00;  3.9986762E+04; -2.1739516E-03;  0.0000000E+00; -5.1515116E-03;  4.5697342E+02;
  6.2123048E-01;  9.9999998E-03; -1.6002224E-01;6242; -7.0224097E-03;  0.0000000E+00;  1.0628013E-03;  9.9972913E+02;  1.0140680E-01; -2.2443810E+02;3;  1.4576930E+00;  0.0000000E+00;  8.5260868E-02;0; -7.7314684E-03;  3.8894043E+04;  0.0000000E+00; -1.0643089E-01;  4.0000000E+04;  0.0000000E+00;  3.9986184E+04; -2.4029326E-03;  0.0000000E+00; -5.3285360E-03;  5.4612476E+02;
  6.2123823E-01;  9.9999998E-03; -1.5002294E-01;6243; -7.1258815E-03;  0.0000000E+00;  1.0089134E-03;  9.9974799E+02;  1.0140602E-01; -2.0878423E+02;3;  1.4967835E+00;  0.0000000E+00;  8.1986725E-02;0; -8.1177317E-03;  3.8896762E+04;  0.0000000E+00; -8.3549008E-02;  4.0000000E+04;  0.0000000E+00;  3.9985309E+04; -2.5984799E-03;  0.0000000E+00; -5.5192523E-03;  6.3329938E+02;
  6.2125999E-01;  9.9999998E-03; -1.4002381E-01;6244; -7.2217188E-03;  0.0000000E+00;  9.5246261E-04;  9.9974896E+02;  1.0140539E-01; -2.0799411E+02;3;  1.5330983E+00;  0.0000000E+00;  7.7409253E-02;0; -8.4848600E-03;  3.8898352E+04;  0.0000000E+00; -5.2696638E-02;  4.0000000E+04;  0.0000000E+00;  3.9984805E+04; -2.7670783E-03;  0.0000000E+00; -5.7177818E-03;  6.9789026E+02;
  6.2129229E-01;  9.9999998E-03; -1.3002525E-01;6245; -7.3111267E-03;  0.0000000E+00;  8.9348899E-04;  9.9974146E+02;  1.0140461E-01; -2.1421617E+02;3;  1.5643370E+00;  0.0000000E+00;  7.3260516E-02;0; -8.8328263E-03;  3.8898801E+04;  0.0000000E+00; -1.6363164E-02;  4.0000000E+04;  0.0000000E+00;  3.9984566E+04; -2.9147449E-03;  0.0000000E+00; -5.9180814E-03;  7.2828986E+02;
  6.2133092E-01;  9.9999998E-03; -1.2002714E-01;6246; -7.3949094E-03;  0.0000000E+00;  8.3204912E-04;  9.9972473E+02;  1.0140344E-01; -2.2804294E+02;3;  1.5922729E+00;  0.0000000E+00;  6.9372877E-02;0; -9.1610719E-03;  3.8898281E+04;  0.0000000E+00;  2.1530094E-02;  4.0000000E+04;  0.0000000E+00;  3.9984695E+04; -3.0460563E-03;  0.0000000E+00; -6.1150151E-03;  7.2427008E+02;
  6.2137121E-01;  9.9999998E-03; -1.1002927E-01;6247; -7.4742809E-03;  0.0000000E+00;  7.6859083E-04;  9.9970319E+02;  1.0140334E-01; -2.4591898E+02;3;  1.6182278E+00;  0.0000000E+00;  6.5051191E-02;0; -9.4684074E-03;  3.8897191E+04;  0.0000000E+00;  5.6432460E-02;  4.0000000E+04;  0.0000000E+00;  3.9984941E+04; -3.1641724E-03;  0.0000000E+00; -6.3042347E-03;  6.9379156E+02;
  6.3165110E-01;  9.9999998E-03; -2.7002722E-01;6292; -5.1801316E-03;  0.0000000E+00;  1.6407345E-03;  9.9817072E+02;  1.0214782E-01; -1.5155127E+03;3;  1.2930598E+00;  0.0000000E+00; -2.5156360E-02;0; -1.3325927E-03;  3.8197152E+04;  0.0000000E+00;  1.2103381E-01;  4.0000000E+04;  0.0000000E+00;  4.0004055E+04;  2.7366499E-03;  0.0000000E+00; -4.0692426E-03;  2.4494844E+03;
  6.3164002E-01;  9.9999998E-03; -2.6001242E-01;6293; -5.4154550E-03;  0.0000000E+00;  1.6060430E-03;  9.9831317E+02;  1.0215039E-01; -1.3974913E+03;3;  1.2578419E+00;  0.0000000E+00; -3.0804649E-03;0; -2.1043192E-03;  3.8207648E+04;  0.0000000E+00;  1.7057605E-01;  4.0000000E+04;  0.0000000E+00;  4.0001969E+04;  2.1894793E-03;  0.0000000E+00; -4.2937985E-03;  2.2293521E+03;
  6.3160914E-01;  9.9999998E-03; -2.4999370E-01;6294; -5.6253457E-03;  0.0000000E+00;  1.5561703E-03;  9.9846820E+02;  1.0215224E-01; -1.2690505E+03;3;  1.2457529E+00;  0.0000000E+00;  9.5999697E-03;0; -2.7324092E-03;  3.8219246E+04;  0.0000000E+00;  1.6944093E-01;  4.0000000E+04;  0.0000000E+00;  4.0000699E+04;  1.6391476E-03;  0.0000000E+00; -4.3715569E-03;  2.0322118E+03;
  6.3155842E-01;  9.9999998E-03; -2.3996828E-01;6295; -5.8199177E-03;  0.0000000E+00;  1.4937967E-03;  9.9864490E+02;  1.0215345E-01; -1.1226843E+03;3;  1.2482730E+00;  0.0000000E+00;  2.1376355E-02;0; -3.3125859E-03;  3.8232461E+04;  0.0000000E+00;  1.2566985E-01;  4.0000000E+04;  0.0000000E+00;  3.9999953E+04;  1.0955149E-03;  0.0000000E+00; -4.4081006E-03;  1.9300107E+03;
  6.3148582E-01;  9.9999998E-03; -2.2993270E-01;6296; -6.0099550E-03;  0.0000000E+00;  1.4427875E-03;  9.9883331E+02;  1.0215431E-01; -9.6658997E+02;3;  1.2580273E+00;  0.0000000E+00;  3.3746302E-02;0; -3.9591626E-03;  3.8246125E+04;  0.0000000E+00;  5.7894018E-02;  4.0000000E+04;  0.0000000E+00;  3.9999961E+04;  5.6870416E-04;  0.0000000E+00; -4.5278668E-03;  1.8936310E+03;
  6.3140219E-01;  9.9999998E-03; -2.1990860E-01;6297; -6.2025585E-03;  0.0000000E+00;  1.4397076E-03;  9.9896533E+02;  1.0215443E-01; -8.5721033E+02;3;  1.2646101E+00;  0.0000000E+00;  5.1818363E-02;0; -4.6754866E-03;  3.8260422E+04;  0.0000000E+00; -1.6049806E-02;  4.0000000E+04;  0.0000000E+00;  3.9995648E+04;  7.0087211E-05;  0.0000000E+00; -4.7455737E-03;  1.3458025E+03;
  6.3133138E-01;  9.9999998E-03; -2.0992291E-01;6298; -6.3811378E-03;  0.0000000E+00;  1.4220207E-03;  9.9905493E+02;  1.0215411E-01; -7.8299017E+02;3;  1.2925870E+00;  0.0000000E+00;  5.7818353E-02;0; -5.2753929E-03;  3.8274270E+04;  0.0000000E+00; -8.2326524E-02;  4.0000000E+04;  0.0000000E+00;  3.9988391E+04; -3.9195630E-04;  0.0000000E+00; -4.8834365E-03;  4.4242792E+02;
  6.3127112E-01;  9.9999998E-03; -1.9995436E-01;6299; -6.5420661E-03;  0.0000000E+00;  1.3693235E-03;  9.9916040E+02;  1.0215338E-01; -6.9558527E+02;3;  1.3269262E+00;  0.0000000E+00;  6.0541902E-02;0; -5.8024293E-03;  3.8287027E+04;  0.0000000E+00; -1.3350034E-01;  4.0000000E+04;  0.0000000E+00;  3.9983609E+04; -8.1274682E-04;  0.0000000E+00; -4.9896827E-03;  2.4461485E+02;
  6.3121974E-01;  9.9999998E-03; -1.8998164E-01;6300; -6.6903085E-03;  0.0000000E+00;  1.3091685E-03;  9.9928485E+02;  1.0215213E-01; -5.9247705E+02;3;  1.3630886E+00;  0.0000000E+00;  6.2764712E-02;0; -6.3106287E-03;  3.8298609E+04;  0.0000000E+00; -1.6807108E-01;  4.0000000E+04;  0.0000000E+00;  3.9982191E+04; -1.1882816E-03;  0.0000000E+00; -5.1223473E-03;  4.4950742E+02;
  6.3117909E-01;  9.9999998E-03; -1.8000031E-01;6301; -6.8261032E-03;  0.0000000E+00;  1.2507973E-03;  9.9938354E+02;  1.0215112E-01; -5.1070160E+02;3;  1.3994701E+00;  0.0000000E+00;  6.4615428E-02;0; -6.7993891E-03;  3.8308105E+04;  0.0000000E+00; -1.8878208E-01;  4.0000000E+04;  0.0000000E+00;  3.9981527E+04; -1.5166113E-03;  0.0000000E+00; -5.2827778E-03;  5.4339331E+02;
  6.3115174E-01;  9.9999998E-03; -1.7001234E-01;6302; -6.9495030E-03;  0.0000000E+00;  1.1933589E-03;  9.9946289E+02;  1.0214944E-01; -4.4497507E+02;3;  1.4408252E+00;  0.0000000E+00;  6.5451257E-02;0; -7.2641182E-03;  3.8315250E+04;  0.0000000E+00; -1.9955584E-01;  4.0000000E+04;  0.0000000E+00;  3.9980805E+04; -1.7986679E-03;  0.0000000E+00; -5.4654502E-03;  6.1176782E+02;
  6.3113993E-01;  9.9999998E-03; -1.6002017E-01;6303; -7.0616803E-03;  0.0000000E+00;  1.1350918E-03;  9.9951215E+02;  1.0214797E-01; -4.0418610E+02;3;  1.4800158E+00;  0.0000000E+00;  6.4950921E-02;0; -7.7043041E-03;  3.8320633E+04;  0.0000000E+00; -2.0289867E-01;  4.0000000E+04;  0.0000000E+00;  3.9980461E+04; -2.0384612E-03;  0.0000000E+00; -5.6658429E-03;  6.8036041E+02;
  6.3114375E-01;  9.9999998E-03; -1.5002574E-01;6304; -7.1640955E-03;  0.0000000E+00;  1.0749550E-03;  9.9954254E+02;  1.0214671E-01; -3.7900162E+02;3;  1.5246302E+00;  0.0000000E+00;  6.1663836E-02;0; -8.1210546E-03;  3.8324492E+04;  0.0000000E+00; -1.9870543E-01;  4.0000000E+04;  0.0000000E+00;  3.9979973E+04; -2.2423235E-03;  0.0000000E+00; -5.8787307E-03;  7.4107281E+02;
  6.3116235E-01;  9.9999998E-03; -1.4003016E-01;6305; -7.2596925E-03;  0.0000000E+00;  1.0130637E-03;  9.9955463E+02;  1.0214566E-01; -3.6897723E+02;3;  1.5661353E+00;  0.0000000E+00;  5.5955231E-02;0; -8.5153123E-03;  3.8327438E+04;  0.0000000E+00; -1.8544349E-01;  4.0000000E+04;  0.0000000E+00;  3.9979461E+04; -2.4173085E-03;  0.0000000E+00; -6.0980041E-03;  7.7699371E+02;
  6.3119423E-01;  9.9999998E-03; -1.3003381E-01;6306; -7.3491610E-03;  0.0000000E+00;  9.4929890E-04;  9.9956494E+02;  1.0214410E-01; -3.6043427E+02;3;  1.5980228E+00;  0.0000000E+00;  5.3019952E-02;0; -8.8877063E-03;  3.8329402E+04;  0.0000000E+00; -1.6251339E-01;  4.0000000E+04;  0.0000000E+00;  3.9979465E+04; -2.5699865E-03;  0.0000000E+00; -6.3177198E-03;  7.7637012E+02;
  6.3123745E-01;  9.9999998E-03; -1.2003633E-01;6307; -7.4326028E-03;  0.0000000E+00;  8.8322599E-04;  9.9956683E+02;  1.0214268E-01; -3.5885403E+02;3;  1.6265708E+00;  0.0000000E+00;  5.0622202E-02;0; -9.2381462E-03;  3.8330598E+04;  0.0000000E+00; -1.3147637E-01;  4.0000000E+04;  0.0000000E+00;  3.9979809E+04; -2.7052274E-03;  0.0000000E+00; -6.5329191E-03;  7.3835504E+02;
  6.3128871E-01;  9.9999998E-03; -1.1003737E-01;6308; -7.5114188E-03;  0.0000000E+00;  8.1522850E-04;  9.9957153E+02;  1.0214174E-01; -3.5495291E+02;3;  1.6532886E+00;  0.0000000E+00;  4.7872920E-02;0; -9.5655527E-03;  3.8331637E+04;  0.0000000E+00; -9.5733903E-02;  4.0000000E+04;  0.0000000E+00;  3.9980094E+04; -2.8262646E-03;  0.0000000E+00; -6.7392876E-03;  6.7207526E+02;
  6.4144808E-01;  9.9999998E-03; -2.7004856E-01;6353; -5.2352445E-03;  0.0000000E+00;  1.7542986E-03;  9.9811108E+02;  1.0317664E-01; -1.5649434E+03;3;  1.2864387E+00;  0.0000000E+00; -3.3585791E-02;0; -8.7662810E-04;  3.7438730E+04;  0.0000000E+00; -1.0454361E-01;  4.0000000E+04;  0.0000000E+00;  3.9998105E+04;  3.4768505E-03;  0.0000000E+00; -4.3534786E-03;  2.5841365E+03;
  6.4144653E-01;  9.9999998E-03; -2.6003221E-01;6354; -5.4615657E-03;  0.0000000E+00;  1.7084382E-03;  9.9828180E+02;  1.0317994E-01; -1.4235153E+03;3;  1.2538537E+00;  0.0000000E+00; -1.2108748E-02;0; -1.5797776E-03;  3.7449977E+04;  0.0000000E+00;  1.1155781E-01;  4.0000000E+04;  0.0000000E+00;  3.9996375E+04;  2.8742745E-03;  0.0000000E+00; -4.4540521E-03;  2.3463413E+03;
  6.4142925E-01;  9.9999998E-03; -2.5001121E-01;6355; -5.6674015E-03;  0.0000000E+00;  1.6512533E-03;  9.9846210E+02;  1.0318225E-01; -1.2741368E+03;3;  1.2470691E+00;  0.0000000E+00;  3.0562617E-03;0; -2.2168683E-03;  3.7463148E+04;  0.0000000E+00;  1.9774874E-01;  4.0000000E+04;  0.0000000E+00;  3.9995059E+04;  2.2746141E-03;  0.0000000E+00; -4.4914824E-03;  2.1684077E+03;
  6.4139575E-01;  9.9999998E-03; -2.3998256E-01;6356; -5.8615799E-03;  0.0000000E+00;  1.5865128E-03;  9.9866357E+02;  1.0318413E-01; -1.1072279E+03;3;  1.2514967E+00;  0.0000000E+00;  1.0483835E-02;0; -2.8574194E-03;  3.7477367E+04;  0.0000000E+00;  1.8301097E-01;  4.0000000E+04;  0.0000000E+00;  3.9994445E+04;  1.6868382E-03;  0.0000000E+00; -4.5442577E-03;  2.0784353E+03;
  6.4134300E-01;  9.9999998E-03; -2.2994407E-01;6357; -6.0543669E-03;  0.0000000E+00;  1.5427232E-03;  9.9887054E+02;  1.0318504E-01; -9.3572662E+02;3;  1.2574877E+00;  0.0000000E+00;  2.5214892E-02;0; -3.5946812E-03;  3.7492863E+04;  0.0000000E+00;  1.0961659E-01;  4.0000000E+04;  0.0000000E+00;  3.9993906E+04;  1.1199518E-03;  0.0000000E+00; -4.7146329E-03;  1.9806364E+03;
  6.4128065E-01;  9.9999998E-03; -2.1991690E-01;6358; -6.2457854E-03;  0.0000000E+00;  1.5408467E-03;  9.9902228E+02;  1.0318518E-01; -8.1000177E+02;3;  1.2781684E+00;  0.0000000E+00;  3.4564447E-02;0; -4.3703853E-03;  3.7508270E+04;  0.0000000E+00;  1.4568517E-02;  4.0000000E+04;  0.0000000E+00;  3.9988727E+04;  5.8452255E-04;  0.0000000E+00; -4.9549080E-03;  1.3603890E+03;
  6.4122719E-01;  9.9999998E-03; -2.0992534E-01;6359; -6.4228210E-03;  0.0000000E+00;  1.5210629E-03;  9.9912482E+02;  1.0318411E-01; -7.2506592E+02;3;  1.3079581E+00;  0.0000000E+00;  3.8186964E-02;0; -5.0204187E-03;  3.7523367E+04;  0.0000000E+00; -7.7051029E-02;  4.0000000E+04;  0.0000000E+00;  3.9981223E+04;  9.0001471E-05;  0.0000000E+00; -5.1104203E-03;  4.2421472E+02;
  6.4118004E-01;  9.9999998E-03; -1.9995299E-01;6360; -6.5818867E-03;  0.0000000E+00;  1.4654296E-03;  9.9924109E+02;  1.0318274E-01; -6.2872296E+02;3;  1.3412488E+00;  0.0000000E+00;  3.9850477E-02;0; -5.5959630E-03;  3.7537625E+04;  0.0000000E+00; -1.5213403E-01;  4.0000000E+04;  0.0000000E+00;  3.9976445E+04; -3.5892401E-04;  0.0000000E+00; -5.2370392E-03;  3.1815527E+02;
  6.4113992E-01;  9.9999998E-03; -1.8998051E-01;6361; -6.7280503E-03;  0.0000000E+00;  1.4003868E-03;  9.9937097E+02;  1.0318115E-01; -5.2112109E+02;3;  1.3774474E+00;  0.0000000E+00;  4.1793745E-02;0; -6.1506741E-03;  3.7550059E+04;  0.0000000E+00; -2.0751251E-01;  4.0000000E+04;  0.0000000E+00;  3.9974223E+04; -7.5870281E-04;  0.0000000E+00; -5.3919712E-03;  5.8509222E+02;
  6.4111298E-01;  9.9999998E-03; -1.8000065E-01;6362; -6.8627195E-03;  0.0000000E+00;  1.3366683E-03;  9.9948621E+02;  1.0317864E-01; -4.2566696E+02;3;  1.4175663E+00;  0.0000000E+00;  4.3418594E-02;0; -6.6845287E-03;  3.7560934E+04;  0.0000000E+00; -2.4646275E-01;  4.0000000E+04;  0.0000000E+00;  3.9973734E+04; -1.1075971E-03;  0.0000000E+00; -5.5769314E-03;  7.0308856E+02;
  6.4110839E-01;  9.9999998E-03; -1.7001161E-01;6363; -6.9852783E-03;  0.0000000E+00;  1.2736743E-03;  9.9957562E+02;  1.0317668E-01; -3.5159500E+02;3;  1.4555540E+00;  0.0000000E+00;  4.3689631E-02;0; -7.1920305E-03;  3.7569520E+04;  0.0000000E+00; -2.7530244E-01;  4.0000000E+04;  0.0000000E+00;  3.9973328E+04; -1.4065410E-03;  0.0000000E+00; -5.7854895E-03;  7.7429834E+02;
  6.4112473E-01;  9.9999998E-03; -1.6001518E-01;6364; -7.0959432E-03;  0.0000000E+00;  1.2098724E-03;  9.9964154E+02;  1.0317381E-01; -2.9697925E+02;3;  1.4992819E+00;  0.0000000E+00;  4.3045025E-02;0; -7.6719699E-03;  3.7576422E+04;  0.0000000E+00; -2.9856071E-01;  4.0000000E+04;  0.0000000E+00;  3.9973047E+04; -1.6599075E-03;  0.0000000E+00; -6.0120625E-03;  8.3818890E+02;
  6.4115369E-01;  9.9999998E-03; -1.5001608E-01;6365; -7.1969237E-03;  0.0000000E+00;  1.1442372E-03;  9.9968567E+02;  1.0317156E-01; -2.6043707E+02;3;  1.5484103E+00;  0.0000000E+00;  3.9833311E-02;0; -8.1249867E-03;  3.7581844E+04;  0.0000000E+00; -3.1626236E-01;  4.0000000E+04;  0.0000000E+00;  3.9972758E+04; -1.8746960E-03;  0.0000000E+00; -6.2502902E-03;  8.9131885E+02;
  6.4119202E-01;  9.9999998E-03; -1.4001644E-01;6366; -7.2921403E-03;  0.0000000E+00;  1.0774418E-03;  9.9971381E+02;  1.0316910E-01; -2.3712909E+02;3;  1.5996412E+00;  0.0000000E+00;  3.1560522E-02;0; -8.5521620E-03;  3.7585863E+04;  0.0000000E+00; -3.2451305E-01;  4.0000000E+04;  0.0000000E+00;  3.9972656E+04; -2.0587603E-03;  0.0000000E+00; -6.4934017E-03;  9.1698254E+02;
  6.4123875E-01;  9.9999998E-03; -1.3001642E-01;6367; -7.3819845E-03;  0.0000000E+00;  1.0094497E-03;  9.9973450E+02;  1.0316669E-01; -2.1994440E+02;3;  1.6313499E+00;  0.0000000E+00;  3.0644966E-02;0; -8.9545557E-03;  3.7589340E+04;  0.0000000E+00; -3.1929862E-01;  4.0000000E+04;  0.0000000E+00;  3.9972617E+04; -2.2192325E-03;  0.0000000E+00; -6.7353235E-03;  9.0220264E+02;
  6.4129198E-01;  9.9999998E-03; -1.2001598E-01;6368; -7.4651414E-03;  0.0000000E+00;  9.3896274E-04;  9.9975806E+02;  1.0316452E-01; -2.0043878E+02;3;  1.6603801E+00;  0.0000000E+00;  3.0096048E-02;0; -9.3324129E-03;  3.7591969E+04;  0.0000000E+00; -2.9924673E-01;  4.0000000E+04;  0.0000000E+00;  3.9973148E+04; -2.3613933E-03;  0.0000000E+00; -6.9710193E-03;  8.4426514E+02;
  6.4134818E-01;  9.9999998E-03; -1.1001531E-01;6369; -7.5432020E-03;  0.0000000E+00;  8.6644117E-04;  9.9977466E+02;  1.0316254E-01; -1.8671077E+02;3;  1.6877283E+00;  0.0000000E+00;  2.9221842E-02;0; -9.6847536E-03;  3.7594953E+04;  0.0000000E+00; -2.6601940E-01;  4.0000000E+04;  0.0000000E+00;  3.9973906E+04; -2.4887749E-03;  0.0000000E+00; -7.1959784E-03;  7.5103387E+02;
  6.5133458E-01;  9.9999998E-03; -1.1000074E-01;6430; -7.5623048E-03;  0.0000000E+00;  9.2307135E-04;  1.0002362E+03;  1.0449031E-01;  1.9564879E+02;3;  1.7205616E+00;  0.0000000E+00;  9.7082593E-03;0; -9.8282769E-03;  3.6678445E+04;  0.0000000E+00; -4.1977376E-01;  4.0000000E+04;  0.0000000E+00;  3.9965504E+04; -2.1623329E-03;  0.0000000E+00; -7.6659443E-03;  8.9833899E+02;
  6.5128106E-01;  9.9999998E-03; -1.2000196E-01;6429; -7.4847820E-03;  0.0000000E+00;  1.0000220E-03;  1.0002092E+03;  1.0449348E-01;  1.7332843E+02;3;  1.6922628E+00;  0.0000000E+00;  8.4341485E-03;0; -9.4470438E-03;  3.6674555E+04;  0.0000000E+00; -4.4679105E-01;  4.0000000E+04;  0.0000000E+00;  3.9964590E+04; -2.0258881E-03;  0.0000000E+00; -7.4211559E-03;  9.9792816E+02;
  6.5123326E-01;  9.9999998E-03; -1.3000302E-01;6428; -7.4017076E-03;  0.0000000E+00;  1.0746522E-03;  1.0001879E+03;  1.0449724E-01;  1.5564992E+02;3;  1.6625808E+00;  0.0000000E+00;  6.7626680E-03;0; -9.0378849E-03;  3.6671160E+04;  0.0000000E+00; -4.5270374E-01;  4.0000000E+04;  0.0000000E+00;  3.9964066E+04; -1.8740663E-03;  0.0000000E+00; -7.1638185E-03;  1.0556393E+03;
  6.5119505E-01;  9.9999998E-03; -1.4000373E-01;6427; -7.3114731E-03;  0.0000000E+00;  1.1463995E-03;  1.0001641E+03;  1.0450092E-01;  1.3589738E+02;3;  1.6281894E+00;  0.0000000E+00;  5.2207327E-03;0; -8.6015277E-03;  3.6666688E+04;  0.0000000E+00; -4.3798721E-01;  4.0000000E+04;  0.0000000E+00;  3.9963887E+04; -1.7028513E-03;  0.0000000E+00; -6.8986765E-03;  1.0659243E+03;
  6.5116948E-01;  9.9999998E-03; -1.5000379E-01;6426; -7.2154100E-03;  0.0000000E+00;  1.2165837E-03;  1.0001320E+03;  1.0450477E-01;  1.0933024E+02;3;  1.5724158E+00;  0.0000000E+00;  1.4280281E-02;0; -8.1374552E-03;  3.6661613E+04;  0.0000000E+00; -4.0705320E-01;  4.0000000E+04;  0.0000000E+00;  3.9963805E+04; -1.5064955E-03;  0.0000000E+00; -6.6309595E-03;  1.0338717E+03;
  6.5115798E-01;  9.9999998E-03; -1.6000275E-01;6425; -7.1153319E-03;  0.0000000E+00;  1.2865332E-03;  1.0000806E+03;  1.0450931E-01;  6.6763542E+01;3;  1.5202175E+00;  0.0000000E+00;  1.7418062E-02;0; -7.6444969E-03;  3.6655148E+04;  0.0000000E+00; -3.6708137E-01;  4.0000000E+04;  0.0000000E+00;  3.9963742E+04; -1.2774322E-03;  0.0000000E+00; -6.3670645E-03;  9.7264062E+02;
  6.5126556E-01;  9.9999998E-03; -2.7007997E-01;6414; -5.2823736E-03;  0.0000000E+00;  1.8697245E-03;  9.9829895E+02;  1.0452000E-01; -1.4092935E+03;3;  1.2778147E+00;  0.0000000E+00; -3.5329554E-02;0; -3.1946227E-04;  3.6501441E+04;  0.0000000E+00; -1.0869137E+00;  4.0000000E+04;  0.0000000E+00;  3.9987379E+04;  4.2931121E-03;  0.0000000E+00; -4.6125744E-03;  2.9143269E+03;
  6.5116018E-01;  9.9999998E-03; -1.7000020E-01;6424; -7.0055230E-03;  0.0000000E+00;  1.3546476E-03;  1.0000101E+03;  1.0451332E-01;  8.2960615E+00;3;  1.4783204E+00;  0.0000000E+00;  1.8572431E-02;0; -7.1210321E-03;  3.6647273E+04;  0.0000000E+00; -3.2353678E-01;  4.0000000E+04;  0.0000000E+00;  3.9964102E+04; -1.0068937E-03;  0.0000000E+00; -6.1141383E-03;  8.9415906E+02;
  6.5127206E-01;  9.9999998E-03; -2.6006392E-01;6415; -5.5001369E-03;  0.0000000E+00;  1.8126142E-03;  9.9849768E+02;  1.0452384E-01; -1.2446561E+03;3;  1.2555901E+00;  0.0000000E+00; -2.3078742E-02;0; -9.7491639E-04;  3.6514875E+04;  0.0000000E+00; -3.9074495E-01;  4.0000000E+04;  0.0000000E+00;  3.9985691E+04;  3.6225272E-03;  0.0000000E+00; -4.5974436E-03;  2.1961624E+03;
  6.5117401E-01;  9.9999998E-03; -1.7999500E-01;6423; -6.8840696E-03;  0.0000000E+00;  1.4207194E-03;  9.9991119E+02;  1.0451690E-01; -7.3578163E+01;3;  1.4333532E+00;  0.0000000E+00;  1.7485734E-02;0; -6.5662907E-03;  3.6637406E+04;  0.0000000E+00; -2.7587062E-01;  4.0000000E+04;  0.0000000E+00;  3.9964652E+04; -6.8756851E-04;  0.0000000E+00; -5.8787223E-03;  7.9646613E+02;
  6.5127420E-01;  9.9999998E-03; -2.5004399E-01;6416; -5.7018264E-03;  0.0000000E+00;  1.7501279E-03;  9.9871515E+02;  1.0452656E-01; -1.0644637E+03;3;  1.2501320E+00;  0.0000000E+00; -9.4485981E-03;0; -1.6530384E-03;  3.6529402E+04;  0.0000000E+00; -1.6274867E-03;  4.0000000E+04;  0.0000000E+00;  3.9984172E+04;  2.9616444E-03;  0.0000000E+00; -4.6146829E-03;  1.8804808E+03;
  6.5119523E-01;  9.9999998E-03; -1.8998624E-01;6422; -6.7505431E-03;  0.0000000E+00;  1.4860939E-03;  9.9978711E+02;  1.0452082E-01; -1.7639008E+02;3;  1.3946562E+00;  0.0000000E+00;  1.7214647E-02;0; -5.9812185E-03;  3.6625508E+04;  0.0000000E+00; -2.1794753E-01;  4.0000000E+04;  0.0000000E+00;  3.9965523E+04; -3.1489701E-04;  0.0000000E+00; -5.6663216E-03;  6.4850543E+02;
  6.5121573E-01;  9.9999998E-03; -1.9997458E-01;6421; -6.6056019E-03;  0.0000000E+00;  1.5508420E-03;  9.9964185E+02;  1.0452387E-01; -2.9673236E+02;3;  1.3595092E+00;  0.0000000E+00;  1.6102619E-02;0; -5.3696353E-03;  3.6611215E+04;  0.0000000E+00; -1.4296901E-01;  4.0000000E+04;  0.0000000E+00;  3.9967430E+04;  1.1258406E-04;  0.0000000E+00; -5.4822192E-03;  3.7811435E+02;
  6.5126580E-01;  9.9999998E-03; -2.4001752E-01;6417; -5.8940048E-03;  0.0000000E+00;  1.6850126E-03;  9.9894489E+02;  1.0452791E-01; -8.7414813E+02;3;  1.2600044E+00;  0.0000000E+00; -2.9858479E-03;0; -2.3734150E-03;  3.6545230E+04;  0.0000000E+00;  1.4188427E-01;  4.0000000E+04;  0.0000000E+00;  3.9983227E+04;  2.3188978E-03;  0.0000000E+00; -4.6923128E-03;  1.7599686E+03;
  6.5122503E-01;  9.9999998E-03; -2.0996508E-01;6420; -6.4492892E-03;  0.0000000E+00;  1.6096208E-03;  9.9948773E+02;  1.0452623E-01; -4.2438306E+02;3;  1.3249924E+00;  0.0000000E+00;  1.5866542E-02;0; -4.7340370E-03;  3.6595816E+04;  0.0000000E+00; -4.9341865E-02;  4.0000000E+04;  0.0000000E+00;  3.9971016E+04;  5.9340755E-04;  0.0000000E+00; -5.3274445E-03;  1.9308965E+02;
  6.5124649E-01;  9.9999998E-03; -2.2998568E-01;6418; -6.0884776E-03;  0.0000000E+00;  1.6509544E-03;  9.9916925E+02;  1.0452833E-01; -6.8827686E+02;3;  1.2691596E+00;  0.0000000E+00;  6.7834840E-03;0; -3.2168301E-03;  3.6562086E+04;  0.0000000E+00;  1.3329083E-01;  4.0000000E+04;  0.0000000E+00;  3.9981617E+04;  1.7029623E-03;  0.0000000E+00; -4.9197925E-03;  1.5453741E+03;
  6.5122700E-01;  9.9999998E-03; -2.1996562E-01;6419; -6.2775961E-03;  0.0000000E+00;  1.6435753E-03;  9.9934174E+02;  1.0452799E-01; -5.4536731E+02;3;  1.2928282E+00;  0.0000000E+00;  1.2995327E-02;0; -4.0406827E-03;  3.6579051E+04;  0.0000000E+00;  5.2112170E-02;  4.0000000E+04;  0.0000000E+00;  3.9976809E+04;  1.1247225E-03;  0.0000000E+00; -5.1654051E-03;  9.0301239E+02;
  6.6139001E-01;  9.9999998E-03; -1.0998006E-01;6491; -7.5675473E-03;  0.0000000E+00;  9.8695210E-04;  1.0006889E+03;  1.0611613E-01;  5.7074927E+02;3;  1.7518793E+00;  0.0000000E+00; -1.0586768E-02;0; -9.9980589E-03;  3.5591062E+04;  0.0000000E+00; -5.1967543E-01;  4.0000000E+04;  0.0000000E+00;  3.9955293E+04; -1.8391521E-03;  0.0000000E+00; -8.1589064E-03;  1.0315176E+03;
  6.6133893E-01;  9.9999998E-03; -1.1998269E-01;6490; -7.4899225E-03;  0.0000000E+00;  1.0683803E-03;  1.0006771E+03;  1.0612210E-01;  5.6097180E+02;3;  1.7218271E+00;  0.0000000E+00; -1.4184828E-02;0; -9.5845982E-03;  3.5587387E+04;  0.0000000E+00; -5.3618056E-01;  4.0000000E+04;  0.0000000E+00;  3.9954516E+04; -1.6922527E-03;  0.0000000E+00; -7.8923460E-03;  1.1214998E+03;
  6.6128999E-01;  9.9999998E-03; -1.2998670E-01;6489; -7.4063111E-03;  0.0000000E+00;  1.1469361E-03;  1.0006728E+03;  1.0612801E-01;  5.5741632E+02;3;  1.6912321E+00;  0.0000000E+00; -1.8366611E-02;0; -9.1409795E-03;  3.5583266E+04;  0.0000000E+00; -5.2536219E-01;  4.0000000E+04;  0.0000000E+00;  3.9953598E+04; -1.5300981E-03;  0.0000000E+00; -7.6108812E-03;  1.1642653E+03;
  6.6124755E-01;  9.9999998E-03; -1.3999163E-01;6488; -7.3148627E-03;  0.0000000E+00;  1.2218935E-03;  1.0006662E+03;  1.0613424E-01;  5.5188562E+02;3;  1.6588022E+00;  0.0000000E+00; -2.3016924E-02;0; -8.6676357E-03;  3.5579070E+04;  0.0000000E+00; -4.9009985E-01;  4.0000000E+04;  0.0000000E+00;  3.9953434E+04; -1.3480755E-03;  0.0000000E+00; -7.3195603E-03;  1.1570748E+03;
  6.6121536E-01;  9.9999998E-03; -1.4999695E-01;6487; -7.2147762E-03;  0.0000000E+00;  1.2932081E-03;  1.0006426E+03;  1.0614074E-01;  5.3242938E+02;3;  1.6173202E+00;  0.0000000E+00; -2.3610396E-02;0; -8.1635611E-03;  3.5573676E+04;  0.0000000E+00; -4.3774608E-01;  4.0000000E+04;  0.0000000E+00;  3.9953141E+04; -1.1395323E-03;  0.0000000E+00; -7.0240288E-03;  1.1071373E+03;
  6.6119576E-01;  9.9999998E-03; -1.6000240E-01;6486; -7.1116164E-03;  0.0000000E+00;  1.3648689E-03;  1.0005977E+03;  1.0614753E-01;  4.9519586E+02;3;  1.5528926E+00;  0.0000000E+00; -1.2440331E-02;0; -7.6281722E-03;  3.5566930E+04;  0.0000000E+00; -3.7769631E-01;  4.0000000E+04;  0.0000000E+00;  3.9953039E+04; -8.9690328E-04;  0.0000000E+00; -6.7312689E-03;  1.0270322E+03;
  6.6118968E-01;  9.9999998E-03; -1.7000778E-01;6485; -7.0008510E-03;  0.0000000E+00;  1.4347590E-03;  1.0005314E+03;  1.0615339E-01;  4.4028384E+02;3;  1.5064682E+00;  0.0000000E+00; -1.1587813E-02;0; -7.0597427E-03;  3.5558137E+04;  0.0000000E+00; -3.1587237E-01;  4.0000000E+04;  0.0000000E+00;  3.9953504E+04; -6.1056897E-04;  0.0000000E+00; -6.4491737E-03;  9.2543011E+02;
  6.6119689E-01;  9.9999998E-03; -1.8001235E-01;6484; -6.8794452E-03;  0.0000000E+00;  1.5020429E-03;  1.0004352E+03;  1.0615946E-01;  3.6058240E+02;3;  1.4584931E+00;  0.0000000E+00; -1.0859083E-02;0; -6.4565889E-03;  3.5547387E+04;  0.0000000E+00; -2.5101498E-01;  4.0000000E+04;  0.0000000E+00;  3.9954066E+04; -2.7194820E-04;  0.0000000E+00; -6.1846408E-03;  7.9962891E+02;
  6.6121501E-01;  9.9999998E-03; -1.9001663E-01;6483; -6.7460141E-03;  0.0000000E+00;  1.5660879E-03;  1.0003043E+03;  1.0616510E-01;  2.5204225E+02;3;  1.4190114E+00;  0.0000000E+00; -1.2251566E-02;0; -5.8174040E-03;  3.5534309E+04;  0.0000000E+00; -1.7685546E-01;  4.0000000E+04;  0.0000000E+00;  3.9955008E+04;  1.2490014E-04;  0.0000000E+00; -5.9423042E-03;  6.3408875E+02;
  6.6123992E-01;  9.9999998E-03; -2.0002174E-01;6482; -6.6012368E-03;  0.0000000E+00;  1.6281987E-03;  1.0001375E+03;  1.0617015E-01;  1.1387332E+02;3;  1.3824842E+00;  0.0000000E+00; -1.1422769E-02;0; -5.1420219E-03;  3.5519281E+04;  0.0000000E+00; -8.7808445E-02;  4.0000000E+04;  0.0000000E+00;  3.9956406E+04;  5.8297539E-04;  0.0000000E+00; -5.7249973E-03;  4.0462509E+02;
  6.6126704E-01;  9.9999998E-03; -2.1002877E-01;6481; -6.4459131E-03;  0.0000000E+00;  1.6881438E-03;  9.9994598E+02;  1.0617392E-01; -4.4739475E+01;3;  1.3473920E+00;  0.0000000E+00; -1.2295580E-02;0; -4.4323038E-03;  3.5501977E+04;  0.0000000E+00;  1.3276674E-02;  4.0000000E+04;  0.0000000E+00;  3.9958527E+04;  1.1022042E-03;  0.0000000E+00; -5.5345083E-03;  9.3113472E+01;
  6.6129231E-01;  9.9999998E-03; -2.2003762E-01;6480; -6.2786234E-03;  0.0000000E+00;  1.7400581E-03;  9.9973987E+02;  1.0617704E-01; -2.1550008E+02;3;  1.3141156E+00;  0.0000000E+00; -1.4035625E-02;0; -3.6814311E-03;  3.5483477E+04;  0.0000000E+00;  1.0634151E-01;  4.0000000E+04;  0.0000000E+00;  3.9961379E+04;  1.6801864E-03;  0.0000000E+00; -5.3616175E-03;  3.3938882E+02;
  6.6131324E-01;  9.9999998E-03; -2.3004887E-01;6479; -6.0956371E-03;  0.0000000E+00;  1.7687293E-03;  9.9952600E+02;  1.0617916E-01; -3.9268027E+02;3;  1.2885262E+00;  0.0000000E+00; -1.4800009E-02;0; -2.8306600E-03;  3.5464445E+04;  0.0000000E+00;  1.4348461E-01;  4.0000000E+04;  0.0000000E+00;  3.9965836E+04;  2.3123804E-03;  0.0000000E+00; -5.1430403E-03;  8.6842194E+02;
  6.6132820E-01;  9.9999998E-03; -2.4006811E-01;6478; -5.9005129E-03;  0.0000000E+00;  1.7940740E-03;  9.9929028E+02;  1.0617968E-01; -5.8798340E+02;3;  1.2818996E+00;  0.0000000E+00; -2.7973143E-02;0; -1.8756641E-03;  3.5446004E+04;  0.0000000E+00;  3.8387157E-02;  4.0000000E+04;  0.0000000E+00;  3.9968582E+04;  2.9910710E-03;  0.0000000E+00; -4.8667351E-03;  1.2341104E+03;
  6.6131860E-01;  9.9999998E-03; -2.5008845E-01;6477; -5.7083429E-03;  0.0000000E+00;  1.8537410E-03;  9.9903320E+02;  1.0617909E-01; -8.0096503E+02;3;  1.2743714E+00;  0.0000000E+00; -3.6899593E-02;0; -1.0293641E-03;  3.5428117E+04;  0.0000000E+00; -3.5066062E-01;  4.0000000E+04;  0.0000000E+00;  3.9970305E+04;  3.7027292E-03;  0.0000000E+00; -4.7320933E-03;  1.5924193E+03;
  6.6124773E-01;  9.9999998E-03; -2.7011967E-01;6475; -5.2926689E-03;  0.0000000E+00;  1.9866170E-03;  9.9857080E+02;  1.0617355E-01; -1.1840653E+03;3;  1.2925504E+00;  0.0000000E+00; -5.6927592E-02;0;  3.6340766E-04;  3.5397262E+04;  0.0000000E+00; -2.6294045E+00;  4.0000000E+04;  0.0000000E+00;  3.9974094E+04;  5.1876535E-03;  0.0000000E+00; -4.8242458E-03;  4.7081519E+03;
  6.6127688E-01;  9.9999998E-03; -2.6010546E-01;6476; -5.5095186E-03;  0.0000000E+00;  1.9214388E-03;  9.9880048E+02;  1.0617708E-01; -9.9379907E+02;3;  1.2712971E+00;  0.0000000E+00; -4.0202670E-02;0; -2.9155146E-04;  3.5412363E+04;  0.0000000E+00; -1.2104038E+00;  4.0000000E+04;  0.0000000E+00;  3.9972090E+04;  4.4370154E-03;  0.0000000E+00; -4.7285669E-03;  2.6362622E+03;
  6.7140162E-01;  9.9999998E-03; -2.7016452E-01;6536; -5.2485615E-03;  0.0000000E+00;  2.0998931E-03;  9.9870154E+02;  1.0811607E-01; -1.0757721E+03;3;  1.3442428E+00;  0.0000000E+00; -1.0215013E-01;0;  1.2475252E-03;  3.4149719E+04;  0.0000000E+00; -4.2776184E+00;  4.0000000E+04;  0.0000000E+00;  3.9960242E+04;  6.1626015E-03;  0.0000000E+00; -4.9150763E-03;  7.4055386E+03;
  6.7135555E-01;  9.9999998E-03; -2.6015228E-01;6537; -5.4789595E-03;  0.0000000E+00;  2.0322558E-03;  9.9896118E+02;  1.0811608E-01; -8.6061761E+02;3;  1.3178635E+00;  0.0000000E+00; -8.3352067E-02;0;  4.8194360E-04;  3.4168633E+04;  0.0000000E+00; -2.2555997E+00;  4.0000000E+04;  0.0000000E+00;  3.9957773E+04;  5.3100497E-03;  0.0000000E+00; -4.8281061E-03;  4.1425957E+03;
  6.7134607E-01;  9.9999998E-03; -2.5013909E-01;6538; -5.6767482E-03;  0.0000000E+00;  1.9599814E-03;  9.9922632E+02;  1.0811627E-01; -6.4096954E+02;3;  1.3222383E+00;  0.0000000E+00; -7.0425205E-02;0; -3.4947181E-04;  3.4187199E+04;  0.0000000E+00; -9.0784901E-01;  4.0000000E+04;  0.0000000E+00;  3.9955711E+04;  4.4839554E-03;  0.0000000E+00; -4.8334273E-03;  2.0159452E+03;
  6.7134649E-01;  9.9999998E-03; -2.4012564E-01;6539; -5.8709471E-03;  0.0000000E+00;  1.9057414E-03;  9.9949286E+02;  1.0811513E-01; -4.2013626E+02;3;  1.3262655E+00;  0.0000000E+00; -6.5936238E-02;0; -1.3448645E-03;  3.4205930E+04;  0.0000000E+00; -1.8566599E-01;  4.0000000E+04;  0.0000000E+00;  3.9953355E+04;  3.6892334E-03;  0.0000000E+00; -5.0340979E-03;  9.4367590E+02;
  6.7134845E-01;  9.9999998E-03; -2.3011872E-01;6540; -6.0680956E-03;  0.0000000E+00;  1.8844228E-03;  9.9973145E+02;  1.0811218E-01; -2.2251222E+02;3;  1.3251054E+00;  0.0000000E+00; -5.1713895E-02;0; -2.4138039E-03;  3.4225793E+04;  0.0000000E+00;  1.1048603E-01;  4.0000000E+04;  0.0000000E+00;  3.9949191E+04;  2.9368240E-03;  0.0000000E+00; -5.3506279E-03;  3.2669873E+02;
  6.7134994E-01;  9.9999998E-03; -2.2011615E-01;6541; -6.2450352E-03;  0.0000000E+00;  1.8335221E-03;  9.9996875E+02;  1.0810775E-01; -2.5875811E+01;3;  1.3518168E+00;  0.0000000E+00; -4.5740936E-02;0; -3.3052044E-03;  3.4246016E+04;  0.0000000E+00;  1.6604972E-01;  4.0000000E+04;  0.0000000E+00;  3.9946168E+04;  2.2432955E-03;  0.0000000E+00; -5.5485000E-03;  2.1640155E+02;
  6.7134756E-01;  9.9999998E-03; -2.1009825E-01;6542; -6.4114146E-03;  0.0000000E+00;  1.7635722E-03;  1.0002200E+03;  1.0810217E-01;  1.8231583E+02;3;  1.3874213E+00;  0.0000000E+00; -4.9404044E-02;0; -4.1271481E-03;  3.4265371E+04;  0.0000000E+00;  1.1097864E-01;  4.0000000E+04;  0.0000000E+00;  3.9945684E+04;  1.6130917E-03;  0.0000000E+00; -5.7402398E-03;  2.2492603E+02;
  6.7134225E-01;  9.9999998E-03; -2.0007168E-01;6543; -6.5702563E-03;  0.0000000E+00;  1.7038648E-03;  1.0004392E+03;  1.0809516E-01;  3.6384155E+02;3;  1.4181997E+00;  0.0000000E+00; -4.8049312E-02;0; -4.9224612E-03;  3.4283805E+04;  0.0000000E+00;  2.0858744E-02;  4.0000000E+04;  0.0000000E+00;  3.9945184E+04;  1.0511988E-03;  0.0000000E+00; -5.9736599E-03;  2.7000391E+02;
  6.7133546E-01;  9.9999998E-03; -1.9004729E-01;6544; -6.7175622E-03;  0.0000000E+00;  1.6458736E-03;  1.0006083E+03;  1.0808740E-01;  5.0398575E+02;3;  1.4543754E+00;  0.0000000E+00; -4.5431826E-02;0; -5.6677558E-03;  3.4300105E+04;  0.0000000E+00; -7.0324078E-02;  4.0000000E+04;  0.0000000E+00;  3.9944059E+04;  5.6102348E-04;  0.0000000E+00; -6.2287794E-03;  4.4996872E+02;
  6.7133063E-01;  9.9999998E-03; -1.8002753E-01;6545; -6.8530026E-03;  0.0000000E+00;  1.5839395E-03;  1.0007381E+03;  1.0807878E-01;  6.1153827E+02;3;  1.4997123E+00;  0.0000000E+00; -4.5422971E-02;0; -6.3634869E-03;  3.4313801E+04;  0.0000000E+00; -1.5308625E-01;  4.0000000E+04;  0.0000000E+00;  3.9942781E+04;  1.4060746E-04;  0.0000000E+00; -6.5040942E-03;  6.5005103E+02;
  6.7133069E-01;  9.9999998E-03; -1.7001157E-01;6546; -6.9770571E-03;  0.0000000E+00;  1.5174074E-03;  1.0008243E+03;  1.0807087E-01;  6.8294366E+02;3;  1.5452529E+00;  0.0000000E+00; -4.5282990E-02;0; -7.0154606E-03;  3.4325168E+04;  0.0000000E+00; -2.2984819E-01;  4.0000000E+04;  0.0000000E+00;  3.9941895E+04; -2.1535147E-04;  0.0000000E+00; -6.8001091E-03;  8.2176538E+02;
  6.7133868E-01;  9.9999998E-03; -1.5999818E-01;6547; -7.0925513E-03;  0.0000000E+00;  1.4477846E-03;  1.0008812E+03;  1.0806111E-01;  7.3005341E+02;3;  1.6056941E+00;  0.0000000E+00; -5.3595066E-02;0; -7.6290295E-03;  3.4334000E+04;  0.0000000E+00; -3.0551329E-01;  4.0000000E+04;  0.0000000E+00;  3.9941430E+04; -5.1567826E-04;  0.0000000E+00; -7.1133510E-03;  9.5880249E+02;
  6.7135501E-01;  9.9999998E-03; -1.4998664E-01;6548; -7.2049215E-03;  0.0000000E+00;  1.3784263E-03;  1.0008972E+03;  1.0805163E-01;  7.4328760E+02;3;  1.6568763E+00;  0.0000000E+00; -5.8399506E-02;0; -8.2079396E-03;  3.4340711E+04;  0.0000000E+00; -3.8115507E-01;  4.0000000E+04;  0.0000000E+00;  3.9941320E+04; -7.7119155E-04;  0.0000000E+00; -7.4367481E-03;  1.0641943E+03;
  6.7137831E-01;  9.9999998E-03; -1.3997683E-01;6549; -7.3083229E-03;  0.0000000E+00;  1.3053704E-03;  1.0008969E+03;  1.0804205E-01;  7.4299133E+02;3;  1.6891705E+00;  0.0000000E+00; -5.1123384E-02;0; -8.7519083E-03;  3.4345445E+04;  0.0000000E+00; -4.5104983E-01;  4.0000000E+04;  0.0000000E+00;  3.9941086E+04; -9.9024747E-04;  0.0000000E+00; -7.7616610E-03;  1.1358099E+03;
  6.7140538E-01;  9.9999998E-03; -1.2996916E-01;6550; -7.4017989E-03;  0.0000000E+00;  1.2271985E-03;  1.0008743E+03;  1.0803253E-01;  7.2432520E+02;3;  1.7205601E+00;  0.0000000E+00; -4.3725189E-02;0; -9.2624873E-03;  3.4349309E+04;  0.0000000E+00; -5.0480771E-01;  4.0000000E+04;  0.0000000E+00;  3.9941645E+04; -1.1821828E-03;  0.0000000E+00; -8.0803046E-03;  1.1647631E+03;
  6.7143363E-01;  9.9999998E-03; -1.1996414E-01;6551; -7.4869730E-03;  0.0000000E+00;  1.1445278E-03;  1.0008523E+03;  1.0802379E-01;  7.0615289E+02;3;  1.7520171E+00;  0.0000000E+00; -3.7044171E-02;0; -9.7412542E-03;  3.4352602E+04;  0.0000000E+00; -5.3314465E-01;  4.0000000E+04;  0.0000000E+00;  3.9942375E+04; -1.3546073E-03;  0.0000000E+00; -8.3866473E-03;  1.1434467E+03;
  6.7146033E-01;  9.9999998E-03; -1.0996193E-01;6552; -7.5659021E-03;  0.0000000E+00;  1.0582668E-03;  1.0008289E+03;  1.0801467E-01;  6.8669666E+02;3;  1.7824149E+00;  0.0000000E+00; -3.1060630E-02;0; -1.0188095E-02;  3.4355719E+04;  0.0000000E+00; -5.3110307E-01;  4.0000000E+04;  0.0000000E+00;  3.9943398E+04; -1.5126773E-03;  0.0000000E+00; -8.6754179E-03;  1.0723185E+03;
  6.8179166E-01;  9.9999998E-03; -2.7021301E-01;6597; -5.1403674E-03;  0.0000000E+00;  2.2057733E-03;  9.9862463E+02;  1.1035354E-01; -1.1394740E+03;3;  1.4290805E+00;  0.0000000E+00; -1.6026902E-01;0;  2.4261796E-03;  3.2780324E+04;  0.0000000E+00; -5.6023717E+00;  4.0000000E+04;  0.0000000E+00;  3.9947270E+04;  7.2389133E-03;  0.0000000E+00; -4.8127337E-03;  9.9905547E+03;
  6.8166566E-01;  9.9999998E-03; -2.6020190E-01;6598; -5.4047201E-03;  0.0000000E+00;  2.1400880E-03;  9.9889313E+02;  1.1034176E-01; -9.1701111E+02;3;  1.3936219E+00;  0.0000000E+00; -1.3651055E-01;0;  1.4487342E-03;  3.2805449E+04;  0.0000000E+00; -3.1789091E+00;  4.0000000E+04;  0.0000000E+00;  3.9944496E+04;  6.2691676E-03;  0.0000000E+00; -4.8204334E-03;  5.9016772E+03;
  6.8160903E-01;  9.9999998E-03; -2.5019112E-01;6599; -5.6155226E-03;  0.0000000E+00;  2.0703198E-03;  9.9915521E+02;  1.1033082E-01; -6.9988147E+02;3;  1.3812275E+00;  0.0000000E+00; -1.2203714E-01;0;  4.2826310E-04;  3.2829375E+04;  0.0000000E+00; -1.4342636E+00;  4.0000000E+04;  0.0000000E+00;  3.9941961E+04;  5.3370045E-03;  0.0000000E+00; -4.9087415E-03;  2.9659004E+03;
  6.8161726E-01;  9.9999998E-03; -2.4018253E-01;6600; -5.8158962E-03;  0.0000000E+00;  2.0224305E-03;  9.9940503E+02;  1.1032353E-01; -4.9292432E+02;3;  1.3843393E+00;  0.0000000E+00; -1.1200260E-01;0; -7.4353069E-04;  3.2850297E+04;  0.0000000E+00; -3.9959502E-01;  4.0000000E+04;  0.0000000E+00;  3.9939062E+04;  4.4466956E-03;  0.0000000E+00; -5.1902262E-03;  1.2271099E+03;
  6.8162316E-01;  9.9999998E-03; -2.3018461E-01;6601; -6.0158265E-03;  0.0000000E+00;  2.0008669E-03;  9.9963831E+02;  1.1031590E-01; -2.9964584E+02;3;  1.3925407E+00;  0.0000000E+00; -9.9239387E-02;0; -1.9374897E-03;  3.2871531E+04;  0.0000000E+00;  7.9447791E-02;  4.0000000E+04;  0.0000000E+00;  3.9934434E+04;  3.6063443E-03;  0.0000000E+00; -5.5438341E-03;  2.0787698E+02;
  6.8161422E-01;  9.9999998E-03; -2.2018693E-01;6602; -6.1894404E-03;  0.0000000E+00;  1.9286140E-03;  9.9989154E+02;  1.1030684E-01; -8.9874001E+01;3;  1.4136177E+00;  0.0000000E+00; -9.6125089E-02;0; -2.8978498E-03;  3.2893504E+04;  0.0000000E+00;  2.3676169E-01;  4.0000000E+04;  0.0000000E+00;  3.9932039E+04;  2.8373571E-03;  0.0000000E+00; -5.7352069E-03;  2.7774057E+02;
  6.8159080E-01;  9.9999998E-03; -2.1016072E-01;6603; -6.3578477E-03;  0.0000000E+00;  1.8440662E-03;  1.0001747E+03;  1.1029662E-01;  1.4468727E+02;3;  1.4407127E+00;  0.0000000E+00; -9.2881314E-02;0; -3.8151410E-03;  3.2914801E+04;  0.0000000E+00;  2.3761345E-01;  4.0000000E+04;  0.0000000E+00;  3.9933152E+04;  2.1416922E-03;  0.0000000E+00; -5.9568333E-03;  2.8119476E+02;
  6.8156451E-01;  9.9999998E-03; -2.0012037E-01;6604; -6.5241493E-03;  0.0000000E+00;  1.7842522E-03;  1.0004149E+03;  1.1028607E-01;  3.4369397E+02;3;  1.4756011E+00;  0.0000000E+00; -9.2639767E-02;0; -4.7099520E-03;  3.2934879E+04;  0.0000000E+00;  1.7748642E-01;  4.0000000E+04;  0.0000000E+00;  3.9933781E+04;  1.5263484E-03;  0.0000000E+00; -6.2363003E-03;  2.1005510E+02;
  6.8154025E-01;  9.9999998E-03; -1.9008422E-01;6605; -6.6788793E-03;  0.0000000E+00;  1.7302566E-03;  1.0005895E+03;  1.1027415E-01;  4.8838126E+02;3;  1.5115907E+00;  0.0000000E+00; -8.8821836E-02;0; -5.5342522E-03;  3.2952812E+04;  0.0000000E+00;  1.0018305E-01;  4.0000000E+04;  0.0000000E+00;  3.9932367E+04;  9.9718210E-04;  0.0000000E+00; -6.5314341E-03;  1.9212585E+02;
  6.8152052E-01;  9.9999998E-03; -1.8005498E-01;6606; -6.8195174E-03;  0.0000000E+00;  1.6703494E-03;  1.0007112E+03;  1.1026178E-01;  5.8921790E+02;3;  1.5488584E+00;  0.0000000E+00; -8.5845359E-02;0; -6.2899832E-03;  3.2968055E+04;  0.0000000E+00;  2.0637453E-02;  4.0000000E+04;  0.0000000E+00;  3.9930867E+04;  5.5125728E-04;  0.0000000E+00; -6.8412405E-03;  3.9262601E+02;
  6.8150663E-01;  9.9999998E-03; -1.7003161E-01;6607; -6.9507449E-03;  0.0000000E+00;  1.6059485E-03;  1.0007858E+03;  1.1024835E-01;  6.5104333E+02;3;  1.6048553E+00;  0.0000000E+00; -9.1450103E-02;0; -6.9919936E-03;  3.2980043E+04;  0.0000000E+00; -5.9340470E-02;  4.0000000E+04;  0.0000000E+00;  3.9929562E+04;  1.7808634E-04;  0.0000000E+00; -7.1700802E-03;  6.0331592E+02;
  6.8149942E-01;  9.9999998E-03; -1.6001275E-01;6608; -7.0780427E-03;  0.0000000E+00;  1.5407630E-03;  1.0008175E+03;  1.1023516E-01;  6.7731415E+02;3;  1.6589566E+00;  0.0000000E+00; -9.8859243E-02;0; -7.6507735E-03;  3.2989695E+04;  0.0000000E+00; -1.4158800E-01;  4.0000000E+04;  0.0000000E+00;  3.9928145E+04; -1.3525822E-04;  0.0000000E+00; -7.5155152E-03;  7.7166870E+02;
  6.8149841E-01;  9.9999998E-03; -1.4999658E-01;6609; -7.1966937E-03;  0.0000000E+00;  1.4720074E-03;  1.0008091E+03;  1.1022166E-01;  6.7040082E+02;3;  1.6858274E+00;  0.0000000E+00; -8.8731125E-02;0; -8.2696741E-03;  3.2996195E+04;  0.0000000E+00; -2.2581577E-01;  4.0000000E+04;  0.0000000E+00;  3.9927922E+04; -3.9924009E-04;  0.0000000E+00; -7.8704339E-03;  8.9688165E+02;
  6.8150115E-01;  9.9999998E-03; -1.3998292E-01;6610; -7.3032100E-03;  0.0000000E+00;  1.3966137E-03;  1.0007666E+03;  1.1020774E-01;  6.3514252E+02;3;  1.7162527E+00;  0.0000000E+00; -7.8167766E-02;0; -8.8507105E-03;  3.3000824E+04;  0.0000000E+00; -3.0659038E-01;  4.0000000E+04;  0.0000000E+00;  3.9927578E+04; -6.2516419E-04;  0.0000000E+00; -8.2255462E-03;  9.8267792E+02;
  6.8150526E-01;  9.9999998E-03; -1.2997243E-01;6611; -7.3994426E-03;  0.0000000E+00;  1.3149166E-03;  1.0007073E+03;  1.1019445E-01;  5.8605750E+02;3;  1.7479967E+00;  0.0000000E+00; -6.8279579E-02;0; -9.3965894E-03;  3.3003805E+04;  0.0000000E+00; -3.7401092E-01;  4.0000000E+04;  0.0000000E+00;  3.9928176E+04; -8.2428835E-04;  0.0000000E+00; -8.5723009E-03;  1.0261328E+03;
  6.8150884E-01;  9.9999998E-03; -1.1996537E-01;6612; -7.4873650E-03;  0.0000000E+00;  1.2277548E-03;  1.0006351E+03;  1.1018089E-01;  5.2620734E+02;3;  1.7795552E+00;  0.0000000E+00; -5.9388276E-02;0; -9.9095618E-03;  3.3006090E+04;  0.0000000E+00; -4.1837817E-01;  4.0000000E+04;  0.0000000E+00;  3.9928949E+04; -1.0051982E-03;  0.0000000E+00; -8.9043640E-03;  1.0222517E+03;
  6.8151057E-01;  9.9999998E-03; -1.0996164E-01;6613; -7.5687752E-03;  0.0000000E+00;  1.1362215E-03;  1.0005661E+03;  1.1016810E-01;  4.6902377E+02;3;  1.8110627E+00;  0.0000000E+00; -5.1298838E-02;0; -1.0389790E-02;  3.3008031E+04;  0.0000000E+00; -4.3370438E-01;  4.0000000E+04;  0.0000000E+00;  3.9929906E+04; -1.1734430E-03;  0.0000000E+00; -9.2163468E-03;  9.7148578E+02;
  6.9325233E-01;  9.9999998E-03; -2.7026820E-01;6658; -4.9853344E-03;  0.0000000E+00;  2.3284601E-03;  9.9842395E+02;  1.1302149E-01; -1.3057408E+03;3;  1.5385702E+00;  0.0000000E+00; -2.2712813E-01;0;  3.8752561E-03;  3.1250449E+04;  0.0000000E+00; -4.5535564E+00;  4.0000000E+04;  0.0000000E+00;  3.9932621E+04;  8.5411267E-03;  0.0000000E+00; -4.6658707E-03;  8.8594482E+03;
  6.9297856E-01;  9.9999998E-03; -2.6025626E-01;6659; -5.2892980E-03;  0.0000000E+00;  2.2638172E-03;  9.9864764E+02;  1.1297819E-01; -1.1204127E+03;3;  1.4924592E+00;  0.0000000E+00; -2.0185664E-01;0;  2.6440979E-03;  3.1288342E+04;  0.0000000E+00; -2.7079058E+00;  4.0000000E+04;  0.0000000E+00;  3.9930488E+04;  7.4276929E-03;  0.0000000E+00; -4.7835950E-03;  5.6060273E+03;
  6.9279176E-01;  9.9999998E-03; -2.5024581E-01;6660; -5.5256775E-03;  0.0000000E+00;  2.1982233E-03;  9.9888086E+02;  1.1294331E-01; -9.2718365E+02;3;  1.4757258E+00;  0.0000000E+00; -1.8184534E-01;0;  1.3708635E-03;  3.1322459E+04;  0.0000000E+00; -1.2424903E+00;  4.0000000E+04;  0.0000000E+00;  3.9928211E+04;  6.3582147E-03;  0.0000000E+00; -4.9873511E-03;  3.0522761E+03;
  6.9265622E-01;  9.9999998E-03; -2.4023975E-01;6661; -5.7434668E-03;  0.0000000E+00;  2.1545137E-03;  9.9912299E+02;  1.1291521E-01; -7.2659674E+02;3;  1.4678291E+00;  0.0000000E+00; -1.6140766E-01;0; -1.6845763E-05;  3.1353574E+04;  0.0000000E+00; -3.2499996E-01;  4.0000000E+04;  0.0000000E+00;  3.9925301E+04;  5.3374614E-03;  0.0000000E+00; -5.3543071E-03;  1.4401957E+03;
  6.9254667E-01;  9.9999998E-03; -2.3024650E-01;6662; -5.9501161E-03;  0.0000000E+00;  2.1267517E-03;  9.9934564E+02;  1.1288901E-01; -5.4210815E+02;3;  1.4621193E+00;  0.0000000E+00; -1.4462480E-01;0; -1.3546008E-03;  3.1383697E+04;  0.0000000E+00;  1.5335616E-01;  4.0000000E+04;  0.0000000E+00;  3.9920070E+04;  4.3822406E-03;  0.0000000E+00; -5.7368414E-03;  3.9994327E+02;
  6.9245028E-01;  9.9999998E-03; -2.2025768E-01;6663; -6.1244774E-03;  0.0000000E+00;  2.0438645E-03;  9.9959412E+02;  1.1286337E-01; -3.3628677E+02;3;  1.4965832E+00;  0.0000000E+00; -1.4933433E-01;0; -2.4395704E-03;  3.1412779E+04;  0.0000000E+00;  3.5213333E-01;  4.0000000E+04;  0.0000000E+00;  3.9917031E+04;  3.5153304E-03;  0.0000000E+00; -5.9549008E-03;  3.4437836E+02;
  6.9236428E-01;  9.9999998E-03; -2.1023583E-01;6664; -6.2993746E-03;  0.0000000E+00;  1.9472894E-03;  9.9988495E+02;  1.1284046E-01; -9.5305946E+01;3;  1.5276060E+00;  0.0000000E+00; -1.4958677E-01;0; -3.4743403E-03;  3.1439852E+04;  0.0000000E+00;  3.9768103E-01;  4.0000000E+04;  0.0000000E+00;  3.9919020E+04;  2.7357112E-03;  0.0000000E+00; -6.2100515E-03;  5.1262170E+02;
  6.9229668E-01;  9.9999998E-03; -2.0019230E-01;6665; -6.4776614E-03;  0.0000000E+00;  1.8835235E-03;  1.0001362E+03;  1.1282057E-01;  1.1288570E+02;3;  1.5441023E+00;  0.0000000E+00; -1.3781662E-01;0; -4.4808993E-03;  3.1463895E+04;  0.0000000E+00;  3.7346777E-01;  4.0000000E+04;  0.0000000E+00;  3.9920008E+04;  2.0523337E-03;  0.0000000E+00; -6.5332330E-03;  5.5163654E+02;
  6.9224757E-01;  9.9999998E-03; -1.9015156E-01;6666; -6.6428245E-03;  0.0000000E+00;  1.8295127E-03;  1.0003110E+03;  1.1280186E-01;  2.5767172E+02;3;  1.5765783E+00;  0.0000000E+00; -1.3727237E-01;0; -5.3962581E-03;  3.1484396E+04;  0.0000000E+00;  3.2137609E-01;  4.0000000E+04;  0.0000000E+00;  3.9918820E+04;  1.4740053E-03;  0.0000000E+00; -6.8702633E-03;  4.3219724E+02;
  6.9221181E-01;  9.9999998E-03; -1.8011931E-01;6667; -6.7941002E-03;  0.0000000E+00;  1.7718711E-03;  1.0004281E+03;  1.1278380E-01;  3.5465665E+02;3;  1.6183769E+00;  0.0000000E+00; -1.3627240E-01;0; -6.2230420E-03;  3.1501135E+04;  0.0000000E+00;  2.5737426E-01;  4.0000000E+04;  0.0000000E+00;  3.9916926E+04;  9.9558383E-04;  0.0000000E+00; -7.2186259E-03;  3.7328873E+02;
  6.9218576E-01;  9.9999998E-03; -1.7009343E-01;6668; -6.9396198E-03;  0.0000000E+00;  1.7125168E-03;  1.0004814E+03;  1.1276562E-01;  3.9890231E+02;3;  1.6634028E+00;  0.0000000E+00; -1.4316861E-01;0; -6.9819931E-03;  3.1514139E+04;  0.0000000E+00;  1.8559012E-01;  4.0000000E+04;  0.0000000E+00;  3.9915102E+04;  6.0198642E-04;  0.0000000E+00; -7.5839795E-03;  4.6776938E+02;
  6.9216740E-01;  9.9999998E-03; -1.6007225E-01;6669; -7.0754988E-03;  0.0000000E+00;  1.6495297E-03;  1.0004837E+03;  1.1274809E-01;  4.0077878E+02;3;  1.6851646E+00;  0.0000000E+00; -1.3097093E-01;0; -7.6853689E-03;  3.1523637E+04;  0.0000000E+00;  1.0720786E-01;  4.0000000E+04;  0.0000000E+00;  3.9913844E+04;  2.7924028E-04;  0.0000000E+00; -7.9646092E-03;  5.9848560E+02;
  6.9215560E-01;  9.9999998E-03; -1.5005420E-01;6670; -7.1975705E-03;  0.0000000E+00;  1.5789188E-03;  1.0004438E+03;  1.1273090E-01;  3.6769330E+02;3;  1.7101189E+00;  0.0000000E+00; -1.1758882E-01;0; -8.3420789E-03;  3.1529578E+04;  0.0000000E+00;  2.4471706E-02;  4.0000000E+04;  0.0000000E+00;  3.9912859E+04;  1.1714826E-05;  0.0000000E+00; -8.3537940E-03;  7.0212360E+02;
  6.9214749E-01;  9.9999998E-03; -1.4003858E-01;6671; -7.3074903E-03;  0.0000000E+00;  1.5003422E-03;  1.0003591E+03;  1.1271386E-01;  2.9747308E+02;3;  1.7397964E+00;  0.0000000E+00; -1.0452840E-01;0; -8.9583099E-03;  3.1532691E+04;  0.0000000E+00; -5.7692971E-02;  4.0000000E+04;  0.0000000E+00;  3.9912750E+04; -2.1667499E-04;  0.0000000E+00; -8.7416349E-03;  7.6714307E+02;
  6.9213951E-01;  9.9999998E-03; -1.3002557E-01;6672; -7.4072597E-03;  0.0000000E+00;  1.4143327E-03;  1.0002452E+03;  1.1269723E-01;  2.0315475E+02;3;  1.7712854E+00;  0.0000000E+00; -9.2560925E-02;0; -9.5382854E-03;  3.1534135E+04;  0.0000000E+00; -1.3134308E-01;  4.0000000E+04;  0.0000000E+00;  3.9912809E+04; -4.1934053E-04;  0.0000000E+00; -9.1189453E-03;  7.9277545E+02;
  6.9212782E-01;  9.9999998E-03; -1.2001533E-01;6673; -7.4987728E-03;  0.0000000E+00;  1.3218480E-03;  1.0001154E+03;  1.1267979E-01;  9.5602234E+01;3;  1.8052788E+00;  0.0000000E+00; -8.1707433E-02;0; -1.0085206E-02;  3.1534486E+04;  0.0000000E+00; -1.8810049E-01;  4.0000000E+04;  0.0000000E+00;  3.9913238E+04; -6.0615927E-04;  0.0000000E+00; -9.4790459E-03;  7.7972351E+02;
  6.9211113E-01;  9.9999998E-03; -1.1000793E-01;6674; -7.5837495E-03;  0.0000000E+00;  1.2241466E-03;  9.9999268E+02;  1.1266281E-01; -6.0739021E+00;3;  1.8389250E+00;  0.0000000E+00; -7.1834862E-02;0; -1.0599542E-02;  3.1535039E+04;  0.0000000E+00; -2.2217898E-01;  4.0000000E+04;  0.0000000E+00;  3.9914309E+04; -7.8307901E-04;  0.0000000E+00; -9.8164631E-03;  7.3242340E+02;
  7.0578623E-01;  9.9999998E-03; -2.7033728E-01;6719; -4.7085532E-03;  0.0000000E+00;  2.4495104E-03;  9.9857141E+02;  1.1626185E-01; -1.1835714E+03;3;  1.7030004E+00;  0.0000000E+00; -3.1133533E-01;0;  5.9729228E-03;  2.9562912E+04;  0.0000000E+00; -2.9500089E+00;  4.0000000E+04;  0.0000000E+00;  3.9911516E+04;  1.0190732E-02;  0.0000000E+00; -4.2178091E-03;  6.6630078E+03;
  7.0542878E-01;  9.9999998E-03; -2.6032427E-01;6720; -5.0752503E-03;  0.0000000E+00;  2.3962590E-03;  9.9870428E+02;  1.1619013E-01; -1.0734510E+03;3;  1.6387398E+00;  0.0000000E+00; -2.8016323E-01;0;  4.3060053E-03;  2.9606990E+04;  0.0000000E+00; -1.6739475E+00;  4.0000000E+04;  0.0000000E+00;  3.9910211E+04;  8.9133773E-03;  0.0000000E+00; -4.6073720E-03;  4.2644980E+03;
  7.0513916E-01;  9.9999998E-03; -2.5031343E-01;6721; -5.3648693E-03;  0.0000000E+00;  2.3390288E-03;  9.9885736E+02;  1.1612611E-01; -9.4663983E+02;3;  1.6024424E+00;  0.0000000E+00; -2.5537050E-01;0;  2.6763906E-03;  2.9648898E+04;  0.0000000E+00; -6.3161230E-01;  4.0000000E+04;  0.0000000E+00;  3.9908742E+04;  7.6774093E-03;  0.0000000E+00; -5.0010188E-03;  2.3594880E+03;
  7.0492977E-01;  9.9999998E-03; -2.4030823E-01;6722; -5.6195883E-03;  0.0000000E+00;  2.2970166E-03;  9.9903461E+02;  1.1607354E-01; -7.9982916E+02;3;  1.5825456E+00;  0.0000000E+00; -2.3027253E-01;0;  1.0274695E-03;  2.9686213E+04;  0.0000000E+00;  5.4157939E-02;  4.0000000E+04;  0.0000000E+00;  3.9906246E+04;  6.5012588E-03;  0.0000000E+00; -5.4737893E-03;  1.1560084E+03;
  7.0474702E-01;  9.9999998E-03; -2.3031715E-01;6723; -5.8528874E-03;  0.0000000E+00;  2.2653432E-03;  9.9920795E+02;  1.1602541E-01; -6.5617889E+02;3;  1.5681355E+00;  0.0000000E+00; -2.0729387E-01;0; -5.2251015E-04;  2.9722670E+04;  0.0000000E+00;  4.1258988E-01;  4.0000000E+04;  0.0000000E+00;  3.9901754E+04;  5.4012719E-03;  0.0000000E+00; -5.9237820E-03;  4.8988568E+02;
  7.0458925E-01;  9.9999998E-03; -2.2034907E-01;6724; -6.0534808E-03;  0.0000000E+00;  2.2041753E-03;  9.9938434E+02;  1.1598013E-01; -5.1005960E+02;3;  1.5763427E+00;  0.0000000E+00; -1.9505298E-01;0; -1.8492816E-03;  2.9757633E+04;  0.0000000E+00;  5.6663620E-01;  4.0000000E+04;  0.0000000E+00;  3.9896781E+04;  4.4033821E-03;  0.0000000E+00; -6.2526637E-03;  6.5129608E+02;
  7.0444173E-01;  9.9999998E-03; -2.1036704E-01;6725; -6.2345746E-03;  0.0000000E+00;  2.0983268E-03;  9.9963135E+02;  1.1593700E-01; -3.0542343E+02;3;  1.6105298E+00;  0.0000000E+00; -2.0245782E-01;0; -3.0227914E-03;  2.9791643E+04;  0.0000000E+00;  6.0797834E-01;  4.0000000E+04;  0.0000000E+00;  3.9897160E+04;  3.5163849E-03;  0.0000000E+00; -6.5391762E-03;  7.9811414E+02;
  7.0432431E-01;  9.9999998E-03; -2.0034842E-01;6726; -6.4243441E-03;  0.0000000E+00;  2.0176820E-03;  9.9989600E+02;  1.1590143E-01; -8.6170395E+01;3;  1.6285850E+00;  0.0000000E+00; -1.9784166E-01;0; -4.1537685E-03;  2.9820980E+04;  0.0000000E+00;  5.9775960E-01;  4.0000000E+04;  0.0000000E+00;  3.9899500E+04;  2.7428877E-03;  0.0000000E+00; -6.8966560E-03;  7.9510986E+02;
  7.0424080E-01;  9.9999998E-03; -1.9031647E-01;6727; -6.6093854E-03;  0.0000000E+00;  1.9597218E-03;  1.0000818E+03;  1.1587207E-01;  6.7751167E+01;3;  1.6583462E+00;  0.0000000E+00; -1.9880436E-01;0; -5.1880656E-03;  2.9845174E+04;  0.0000000E+00;  5.6555945E-01;  4.0000000E+04;  0.0000000E+00;  3.9899914E+04;  2.0925584E-03;  0.0000000E+00; -7.2806240E-03;  7.8583502E+02;
  7.0418000E-01;  9.9999998E-03; -1.8028742E-01;6728; -6.7820251E-03;  0.0000000E+00;  1.9064583E-03;  1.0002051E+03;  1.1584578E-01;  1.6997049E+02;3;  1.6791897E+00;  0.0000000E+00; -1.9147600E-01;0; -6.1120624E-03;  2.9864896E+04;  0.0000000E+00;  5.2183795E-01;  4.0000000E+04;  0.0000000E+00;  3.9899121E+04;  1.5630717E-03;  0.0000000E+00; -7.6751341E-03;  7.5238385E+02;
  7.0414275E-01;  9.9999998E-03; -1.7026377E-01;6729; -6.9388282E-03;  0.0000000E+00;  1.8486652E-03;  1.0002635E+03;  1.1582267E-01;  2.1826541E+02;3;  1.6904328E+00;  0.0000000E+00; -1.7762604E-01;0; -6.9418643E-03;  2.9879055E+04;  0.0000000E+00;  4.6881557E-01;  4.0000000E+04;  0.0000000E+00;  3.9897535E+04;  1.1415408E-03;  0.0000000E+00; -8.0834050E-03;  7.4868420E+02;
  7.0412439E-01;  9.9999998E-03; -1.6024509E-01;6730; -7.0791091E-03;  0.0000000E+00;  1.7829458E-03;  1.0002443E+03;  1.1580241E-01;  2.0246339E+02;3;  1.7080041E+00;  0.0000000E+00; -1.6113561E-01;0; -7.6978910E-03;  2.9887943E+04;  0.0000000E+00;  4.0769362E-01;  4.0000000E+04;  0.0000000E+00;  3.9896188E+04;  8.0735917E-04;  0.0000000E+00; -8.5052503E-03;  7.7923602E+02;
  7.0412219E-01;  9.9999998E-03; -1.5022942E-01;6731; -7.2048251E-03;  0.0000000E+00;  1.7083578E-03;  1.0001711E+03;  1.1578504E-01;  1.4182314E+02;3;  1.7319202E+00;  0.0000000E+00; -1.4571388E-01;0; -8.3969161E-03;  2.9891623E+04;  0.0000000E+00;  3.4126684E-01;  4.0000000E+04;  0.0000000E+00;  3.9895027E+04;  5.3721527E-04;  0.0000000E+00; -8.9341309E-03;  8.1041803E+02;
  7.0413327E-01;  9.9999998E-03; -1.4021511E-01;6732; -7.3184920E-03;  0.0000000E+00;  1.6249045E-03;  1.0000417E+03;  1.1577030E-01;  3.4566921E+01;3;  1.7630813E+00;  0.0000000E+00; -1.3112836E-01;0; -9.0502901E-03;  2.9890945E+04;  0.0000000E+00;  2.7304393E-01;  4.0000000E+04;  0.0000000E+00;  3.9894648E+04;  3.0966662E-04;  0.0000000E+00; -9.3599567E-03;  8.1210229E+02;
  7.0415211E-01;  9.9999998E-03; -1.3020170E-01;6733; -7.4224612E-03;  0.0000000E+00;  1.5330961E-03;  9.9987976E+02;  1.1575778E-01; -9.9602112E+01;3;  1.7974236E+00;  0.0000000E+00; -1.1761389E-01;0; -9.6656317E-03;  2.9886797E+04;  0.0000000E+00;  2.0709899E-01;  4.0000000E+04;  0.0000000E+00;  3.9894449E+04;  1.0764172E-04;  0.0000000E+00; -9.7732730E-03;  7.7290112E+02;
  7.0417321E-01;  9.9999998E-03; -1.2018879E-01;6734; -7.5185550E-03;  0.0000000E+00;  1.4339251E-03;  9.9969440E+02;  1.1574624E-01; -2.5317801E+02;3;  1.8322048E+00;  0.0000000E+00; -1.0565124E-01;0; -1.0248177E-02;  2.9880857E+04;  0.0000000E+00;  1.4810342E-01;  4.0000000E+04;  0.0000000E+00;  3.9894859E+04; -8.0611564E-05;  0.0000000E+00; -1.0167565E-02;  6.9759631E+02;
  7.0419043E-01;  9.9999998E-03; -1.1017650E-01;6735; -7.6083234E-03;  0.0000000E+00;  1.3287452E-03;  9.9950256E+02;  1.1573510E-01; -4.1213647E+02;3;  1.8673027E+00;  0.0000000E+00; -9.4036698E-02;0; -1.0799401E-02;  2.9874604E+04;  0.0000000E+00;  9.9634178E-02;  4.0000000E+04;  0.0000000E+00;  3.9895348E+04; -2.6221323E-04;  0.0000000E+00; -1.0537188E-02;  5.9932391E+02;
  7.1790379E-01;  9.9999998E-03; -2.7041081E-01;6780; -4.3954123E-03;  0.0000000E+00;  2.5594104E-03;  9.9890350E+02;  1.1973206E-01; -9.0841870E+02;3;  1.8543380E+00;  0.0000000E+00; -3.8932857E-01;0;  8.5353144E-03;  2.7915166E+04;  0.0000000E+00; -3.3988698E+00;  4.0000000E+04;  0.0000000E+00;  3.9887352E+04;  1.2098906E-02;  0.0000000E+00; -3.5635913E-03;  7.8070449E+03;
  7.1776861E-01;  9.9999998E-03; -2.6039863E-01;6781; -4.8353458E-03;  0.0000000E+00;  2.5343674E-03;  9.9899768E+02;  1.1970442E-01; -8.3039618E+02;3;  1.7758973E+00;  0.0000000E+00; -3.5003462E-01;0;  6.3057677E-03;  2.7933354E+04;  0.0000000E+00; -1.7935342E+00;  4.0000000E+04;  0.0000000E+00;  3.9886367E+04;  1.0694177E-02;  0.0000000E+00; -4.3884092E-03;  4.6378701E+03;
  7.1756530E-01;  9.9999998E-03; -2.5038838E-01;6782; -5.1870113E-03;  0.0000000E+00;  2.4933948E-03;  9.9909503E+02;  1.1964690E-01; -7.4975653E+02;3;  1.7221690E+00;  0.0000000E+00; -3.2035613E-01;0;  4.2804722E-03;  2.7966271E+04;  0.0000000E+00; -6.1846286E-01;  4.0000000E+04;  0.0000000E+00;  3.9885184E+04;  9.3036098E-03;  0.0000000E+00; -5.0231377E-03;  2.3089253E+03;
  7.1738577E-01;  9.9999998E-03; -2.4038407E-01;6783; -5.4848394E-03;  0.0000000E+00;  2.4503826E-03;  9.9922333E+02;  1.1959382E-01; -6.4343854E+02;3;  1.6914124E+00;  0.0000000E+00; -2.9346204E-01;0;  2.3792991E-03;  2.7999031E+04;  0.0000000E+00;  1.0526138E-01;  4.0000000E+04;  0.0000000E+00;  3.9883273E+04;  7.9678437E-03;  0.0000000E+00; -5.5885445E-03;  8.8120880E+02;
  7.1723312E-01;  9.9999998E-03; -2.3039210E-01;6784; -5.7423343E-03;  0.0000000E+00;  2.3989563E-03;  9.9938434E+02;  1.1954912E-01; -5.1005960E+02;3;  1.6691871E+00;  0.0000000E+00; -2.6959708E-01;0;  6.4753462E-04;  2.8029551E+04;  0.0000000E+00;  4.8957872E-01;  4.0000000E+04;  0.0000000E+00;  3.9879984E+04;  6.7152195E-03;  0.0000000E+00; -6.0676849E-03;  3.3506003E+02;
  7.1709418E-01;  9.9999998E-03; -2.2042812E-01;6785; -5.9731402E-03;  0.0000000E+00;  2.3444160E-03;  9.9955115E+02;  1.1950796E-01; -3.7184131E+02;3;  1.6696403E+00;  0.0000000E+00; -2.5484040E-01;0; -9.3947817E-04;  2.8059979E+04;  0.0000000E+00;  6.6590321E-01;  4.0000000E+04;  0.0000000E+00;  3.9875395E+04;  5.5696731E-03;  0.0000000E+00; -6.5091513E-03;  7.9167584E+02;
  7.1696883E-01;  9.9999998E-03; -2.1047205E-01;6786; -6.1817598E-03;  0.0000000E+00;  2.2567797E-03;  9.9976886E+02;  1.1946791E-01; -1.9150075E+02;3;  1.6878340E+00;  0.0000000E+00; -2.5500390E-01;0; -2.3449068E-03;  2.8089922E+04;  0.0000000E+00;  7.3034954E-01;  4.0000000E+04;  0.0000000E+00;  3.9874133E+04;  4.5504523E-03;  0.0000000E+00; -6.8953591E-03;  1.0634160E+03;
  7.1685231E-01;  9.9999998E-03; -2.0047978E-01;6787; -6.3937698E-03;  0.0000000E+00;  2.1801020E-03;  1.0000313E+03;  1.1942969E-01;  2.5974571E+01;3;  1.7050899E+00;  0.0000000E+00; -2.5784141E-01;0; -3.6529303E-03;  2.8118598E+04;  0.0000000E+00;  7.4136728E-01;  4.0000000E+04;  0.0000000E+00;  3.9877082E+04;  3.6626472E-03;  0.0000000E+00; -7.3155775E-03;  1.0228914E+03;
  7.1675831E-01;  9.9999998E-03; -1.9045973E-01;6788; -6.5979869E-03;  0.0000000E+00;  2.1237398E-03;  1.0002501E+03;  1.1939494E-01;  2.0720399E+02;3;  1.7005807E+00;  0.0000000E+00; -2.3986046E-01;0; -4.8355078E-03;  2.8143986E+04;  0.0000000E+00;  7.2957116E-01;  4.0000000E+04;  0.0000000E+00;  3.9879105E+04;  2.9190464E-03;  0.0000000E+00; -7.7545540E-03;  1.0284209E+03;
  7.1670061E-01;  9.9999998E-03; -1.8043119E-01;6789; -6.7796768E-03;  0.0000000E+00;  2.0681599E-03;  1.0003927E+03;  1.1936641E-01;  3.2532410E+02;3;  1.7052603E+00;  0.0000000E+00; -2.2089042E-01;0; -5.8787828E-03;  2.8163934E+04;  0.0000000E+00;  7.0725280E-01;  4.0000000E+04;  0.0000000E+00;  3.9879109E+04;  2.3219299E-03;  0.0000000E+00; -8.2007125E-03;  1.0470807E+03;
  7.1667910E-01;  9.9999998E-03; -1.7040437E-01;6790; -6.9407541E-03;  0.0000000E+00;  2.0053361E-03;  1.0004619E+03;  1.1934421E-01;  3.8260645E+02;3;  1.7133813E+00;  0.0000000E+00; -2.0263429E-01;0; -6.8018730E-03;  2.8177414E+04;  0.0000000E+00;  6.7801672E-01;  4.0000000E+04;  0.0000000E+00;  3.9877801E+04;  1.8565417E-03;  0.0000000E+00; -8.6584147E-03;  1.0758049E+03;
  7.1668905E-01;  9.9999998E-03; -1.6038226E-01;6791; -7.0839874E-03;  0.0000000E+00;  1.9332947E-03;  1.0004560E+03;  1.1932784E-01;  3.7776706E+02;3;  1.7276946E+00;  0.0000000E+00; -1.8604913E-01;0; -7.6286532E-03;  2.8184172E+04;  0.0000000E+00;  6.4370549E-01;  4.0000000E+04;  0.0000000E+00;  3.9876312E+04;  1.4983529E-03;  0.0000000E+00; -9.1270059E-03;  1.1265449E+03;
  7.1672499E-01;  9.9999998E-03; -1.5036522E-01;6792; -7.2123455E-03;  0.0000000E+00;  1.8516789E-03;  1.0003796E+03;  1.1931631E-01;  3.1446021E+02;3;  1.7555076E+00;  0.0000000E+00; -1.7017683E-01;0; -8.3809318E-03;  2.8184492E+04;  0.0000000E+00;  6.0667044E-01;  4.0000000E+04;  0.0000000E+00;  3.9875230E+04;  1.2183309E-03;  0.0000000E+00; -9.5992628E-03;  1.1777374E+03;
  7.1678185E-01;  9.9999998E-03; -1.4035071E-01;6793; -7.3292344E-03;  0.0000000E+00;  1.7606359E-03;  1.0002401E+03;  1.1931024E-01;  1.9890794E+02;3;  1.7880520E+00;  0.0000000E+00; -1.5589252E-01;0; -9.0763699E-03;  2.8179027E+04;  0.0000000E+00;  5.6812227E-01;  4.0000000E+04;  0.0000000E+00;  3.9874410E+04;  9.8884851E-04;  0.0000000E+00; -1.0065218E-02;  1.1992217E+03;
  7.1685213E-01;  9.9999998E-03; -1.3033646E-01;6794; -7.4368967E-03;  0.0000000E+00;  1.6607369E-03;  1.0000588E+03;  1.1930790E-01;  4.8689976E+01;3;  1.8236361E+00;  0.0000000E+00; -1.4189452E-01;0; -9.7282324E-03;  2.8169264E+04;  0.0000000E+00;  5.2707380E-01;  4.0000000E+04;  0.0000000E+00;  3.9874207E+04;  7.8789704E-04;  0.0000000E+00; -1.0516129E-02;  1.1744827E+03;
  7.1692640E-01;  9.9999998E-03; -1.2032182E-01;6795; -7.5368965E-03;  0.0000000E+00;  1.5529731E-03;  9.9985687E+02;  1.1930835E-01; -1.1856454E+02;3;  1.8581990E+00;  0.0000000E+00; -1.2943435E-01;0; -1.0345456E-02;  2.8157076E+04;  0.0000000E+00;  4.8222244E-01;  4.0000000E+04;  0.0000000E+00;  3.9874191E+04;  6.0061360E-04;  0.0000000E+00; -1.0946070E-02;  1.1045563E+03;
  7.1699578E-01;  9.9999998E-03; -1.1030634E-01;6796; -7.6308609E-03;  0.0000000E+00;  1.4387822E-03;  9.9964240E+02;  1.1930906E-01; -2.9628790E+02;3;  1.8976991E+00;  0.0000000E+00; -1.1729616E-01;0; -1.0931809E-02;  2.8144008E+04;  0.0000000E+00;  4.3274972E-01;  4.0000000E+04;  0.0000000E+00;  3.9874555E+04;  4.1803136E-04;  0.0000000E+00; -1.1349840E-02;  9.9983405E+02;
  7.2936535E-01;  9.9999998E-03; -2.7047738E-01;6841; -4.2442847E-03;  0.0000000E+00;  2.7192193E-03;  9.9878400E+02;  1.2324644E-01; -1.0074282E+03;3;  1.9312028E+00;  0.0000000E+00; -4.3098429E-01;0;  1.0825203E-02;  2.6356291E+04;  0.0000000E+00; -3.5361104E+00;  4.0000000E+04;  0.0000000E+00;  3.9869086E+04;  1.4301777E-02;  0.0000000E+00; -3.4765743E-03;  8.3168564E+03;
  7.2935909E-01;  9.9999998E-03; -2.6046392E-01;6842; -4.7091832E-03;  0.0000000E+00;  2.7040134E-03;  9.9889642E+02;  1.2325583E-01; -9.1429504E+02;3;  1.8563869E+00;  0.0000000E+00; -3.9492565E-01;0;  8.3132368E-03;  2.6359195E+04;  0.0000000E+00; -2.0583684E+00;  4.0000000E+04;  0.0000000E+00;  3.9867582E+04;  1.2763374E-02;  0.0000000E+00; -4.4501382E-03;  5.3174751E+03;
  7.2935510E-01;  9.9999998E-03; -2.5045243E-01;6843; -5.0989348E-03;  0.0000000E+00;  2.6753219E-03;  9.9902167E+02;  1.2325773E-01; -8.1054492E+02;3;  1.7942601E+00;  0.0000000E+00; -3.5668078E-01;0;  6.0286503E-03;  2.6366771E+04;  0.0000000E+00; -8.9313787E-01;  4.0000000E+04;  0.0000000E+00;  3.9865816E+04;  1.1239497E-02;  0.0000000E+00; -5.2108467E-03;  2.9392717E+03;
  7.2934318E-01;  9.9999998E-03; -2.4044488E-01;6844; -5.4208254E-03;  0.0000000E+00;  2.6240447E-03;  9.9918500E+02;  1.2325601E-01; -6.7519073E+02;3;  1.7496113E+00;  0.0000000E+00; -3.2625404E-01;0;  3.9820801E-03;  2.6377477E+04;  0.0000000E+00; -1.1782356E-01;  4.0000000E+04;  0.0000000E+00;  3.9863500E+04;  9.7602429E-03;  0.0000000E+00; -5.7781627E-03;  1.3456112E+03;
  7.2931266E-01;  9.9999998E-03; -2.3044226E-01;6845; -5.6934701E-03;  0.0000000E+00;  2.5507358E-03;  9.9938300E+02;  1.2324937E-01; -5.1119537E+02;3;  1.7396362E+00;  0.0000000E+00; -3.1257725E-01;0;  2.0977161E-03;  2.6391992E+04;  0.0000000E+00;  3.3440262E-01;  4.0000000E+04;  0.0000000E+00;  3.9861812E+04;  8.3553037E-03;  0.0000000E+00; -6.2575876E-03;  5.2764032E+02;
  7.2925198E-01;  9.9999998E-03; -2.2046159E-01;6846; -5.9510572E-03;  0.0000000E+00;  2.5037641E-03;  9.9959131E+02;  1.2323270E-01; -3.3860770E+02;3;  1.7225230E+00;  0.0000000E+00; -3.0119967E-01;0;  2.4785427E-04;  2.6412016E+04;  0.0000000E+00;  5.7125890E-01;  4.0000000E+04;  0.0000000E+00;  3.9858051E+04;  7.0526167E-03;  0.0000000E+00; -6.8047624E-03;  4.3490384E+02;
  7.2917384E-01;  9.9999998E-03; -2.1050215E-01;6847; -6.1832652E-03;  0.0000000E+00;  2.4412642E-03;  9.9982977E+02;  1.2320594E-01; -1.4103304E+02;3;  1.7255807E+00;  0.0000000E+00; -2.9077148E-01;0; -1.4115241E-03;  2.6436039E+04;  0.0000000E+00;  6.8051714E-01;  4.0000000E+04;  0.0000000E+00;  3.9855590E+04;  5.8833011E-03;  0.0000000E+00; -7.2948253E-03;  8.0394403E+02;
  7.2907120E-01;  9.9999998E-03; -2.0052585E-01;6848; -6.4021619E-03;  0.0000000E+00;  2.3725335E-03;  1.0000906E+03;  1.2316862E-01;  7.5059601E+01;3;  1.7198505E+00;  0.0000000E+00; -2.7285311E-01;0; -2.9140329E-03;  2.6463568E+04;  0.0000000E+00;  7.2161794E-01;  4.0000000E+04;  0.0000000E+00;  3.9856297E+04;  4.8618438E-03;  0.0000000E+00; -7.7758767E-03;  9.3074170E+02;
  7.2894716E-01;  9.9999998E-03; -1.9051869E-01;6849; -6.6054342E-03;  0.0000000E+00;  2.3078416E-03;  1.0003314E+03;  1.2312219E-01;  2.7456012E+02;3;  1.7167686E+00;  0.0000000E+00; -2.5536737E-01;0; -4.2635784E-03;  2.6493865E+04;  0.0000000E+00;  7.3037314E-01;  4.0000000E+04;  0.0000000E+00;  3.9857773E+04;  4.0003550E-03;  0.0000000E+00; -8.2639335E-03;  9.9491473E+02;
  7.2883850E-01;  9.9999998E-03; -1.8049742E-01;6850; -6.7865942E-03;  0.0000000E+00;  2.2416748E-03;  1.0005093E+03;  1.2307692E-01;  4.2201273E+02;3;  1.7198849E+00;  0.0000000E+00; -2.3688674E-01;0; -5.4543037E-03;  2.6521662E+04;  0.0000000E+00;  7.2567350E-01;  4.0000000E+04;  0.0000000E+00;  3.9857824E+04;  3.3049562E-03;  0.0000000E+00; -8.7592602E-03;  1.0668170E+03;
  7.2876585E-01;  9.9999998E-03; -1.7046988E-01;6851; -6.9476604E-03;  0.0000000E+00;  2.1679916E-03;  1.0006002E+03;  1.2303496E-01;  4.9717108E+02;3;  1.7302176E+00;  0.0000000E+00; -2.2101952E-01;0; -6.5001817E-03;  2.6543510E+04;  0.0000000E+00;  7.1687591E-01;  4.0000000E+04;  0.0000000E+00;  3.9856980E+04;  2.7638830E-03;  0.0000000E+00; -9.2640650E-03;  1.1589243E+03;
  7.2874051E-01;  9.9999998E-03; -1.6044156E-01;6852; -7.0911101E-03;  0.0000000E+00;  2.0850017E-03;  1.0006188E+03;  1.2300463E-01;  5.1267682E+02;3;  1.7476506E+00;  0.0000000E+00; -2.0526591E-01;0; -7.4229361E-03;  2.6556998E+04;  0.0000000E+00;  7.0891315E-01;  4.0000000E+04;  0.0000000E+00;  3.9855434E+04;  2.3530077E-03;  0.0000000E+00; -9.7759441E-03;  1.2794376E+03;
  7.2875923E-01;  9.9999998E-03; -1.5041655E-01;6853; -7.2199730E-03;  0.0000000E+00;  1.9923479E-03;  1.0005672E+03;  1.2298504E-01;  4.6991260E+02;3;  1.7782481E+00;  0.0000000E+00; -1.9092801E-01;0; -8.2467683E-03;  2.6562184E+04;  0.0000000E+00;  7.0426065E-01;  4.0000000E+04;  0.0000000E+00;  3.9854551E+04;  2.0399806E-03;  0.0000000E+00; -1.0286748E-02;  1.4032919E+03;
  7.2881168E-01;  9.9999998E-03; -1.4039411E-01;6854; -7.3381420E-03;  0.0000000E+00;  1.8906519E-03;  1.0004495E+03;  1.2297407E-01;  3.7233511E+02;3;  1.8134463E+00;  0.0000000E+00; -1.7590274E-01;0; -8.9953169E-03;  2.6560242E+04;  0.0000000E+00;  7.0175219E-01;  4.0000000E+04;  0.0000000E+00;  3.9853652E+04;  1.7913659E-03;  0.0000000E+00; -1.0786682E-02;  1.4980726E+03;
  7.2888517E-01;  9.9999998E-03; -1.3037315E-01;6855; -7.4476087E-03;  0.0000000E+00;  1.7802634E-03;  1.0002925E+03;  1.2296840E-01;  2.4236349E+02;3;  1.8481094E+00;  0.0000000E+00; -1.6385180E-01;0; -9.6886680E-03;  2.6552938E+04;  0.0000000E+00;  6.9551504E-01;  4.0000000E+04;  0.0000000E+00;  3.9853645E+04;  1.5797082E-03;  0.0000000E+00; -1.1268376E-02;  1.5430858E+03;
  7.2896576E-01;  9.9999998E-03; -1.2035162E-01;6856; -7.5497692E-03;  0.0000000E+00;  1.6622309E-03;  1.0001023E+03;  1.2296730E-01;  8.4738335E+01;3;  1.8857396E+00;  0.0000000E+00; -1.5229002E-01;0; -1.0341428E-02;  2.6542496E+04;  0.0000000E+00;  6.7777199E-01;  4.0000000E+04;  0.0000000E+00;  3.9853789E+04;  1.3859353E-03;  0.0000000E+00; -1.1727364E-02;  1.5303657E+03;
  7.2904211E-01;  9.9999998E-03; -1.1032930E-01;6857; -7.6467185E-03;  0.0000000E+00;  1.5381416E-03;  9.9990839E+02;  1.2296819E-01; -7.5899086E+01;3;  1.9268308E+00;  0.0000000E+00; -1.4023368E-01;0; -1.0960762E-02;  2.6530977E+04;  0.0000000E+00;  6.4229941E-01;  4.0000000E+04;  0.0000000E+00;  3.9854223E+04;  1.1986011E-03;  0.0000000E+00; -1.2159363E-02;  1.4593773E+03;
  7.4130136E-01;  9.9999998E-03; -2.7054089E-01;6902; -4.2406474E-03;  0.0000000E+00;  2.9654491E-03;  9.9811786E+02;  1.2709929E-01; -1.5593138E+03;3;  1.9539083E+00;  0.0000000E+00; -4.3265423E-01;0;  1.2959965E-02;  2.4762771E+04;  0.0000000E+00; -1.6845800E+00;  4.0000000E+04;  0.0000000E+00;  3.9855723E+04;  1.7156051E-02;  0.0000000E+00; -4.1960869E-03;  5.0254155E+03;
  7.4126661E-01;  9.9999998E-03; -2.6052287E-01;6903; -4.6976963E-03;  0.0000000E+00;  2.9376389E-03;  9.9828638E+02;  1.2709917E-01; -1.4197128E+03;3;  1.8818163E+00;  0.0000000E+00; -3.9579844E-01;0;  1.0471547E-02;  2.4772043E+04;  0.0000000E+00; -1.2056131E+00;  4.0000000E+04;  0.0000000E+00;  3.9853848E+04;  1.5423307E-02;  0.0000000E+00; -4.9517602E-03;  4.0482722E+03;
  7.4125141E-01;  9.9999998E-03; -2.5050470E-01;6904; -5.0972677E-03;  0.0000000E+00;  2.8981094E-03;  9.9846680E+02;  1.2709978E-01; -1.2702356E+03;3;  1.8157192E+00;  0.0000000E+00; -3.5992765E-01;0;  8.1137614E-03;  2.4782934E+04;  0.0000000E+00; -6.5878433E-01;  4.0000000E+04;  0.0000000E+00;  3.9851391E+04;  1.3706563E-02;  0.0000000E+00; -5.5928016E-03;  2.9586436E+03;
  7.4123383E-01;  9.9999998E-03; -2.4048559E-01;6905; -5.4287468E-03;  0.0000000E+00;  2.8299731E-03;  9.9867706E+02;  1.2709661E-01; -1.0960183E+03;3;  1.7708665E+00;  0.0000000E+00; -3.3387455E-01;0;  5.9516230E-03;  2.4796818E+04;  0.0000000E+00; -1.8382978E-01;  4.0000000E+04;  0.0000000E+00;  3.9849379E+04;  1.2032554E-02;  0.0000000E+00; -6.0809306E-03;  2.0715542E+03;
  7.4121803E-01;  9.9999998E-03; -2.3045985E-01;6906; -5.7124295E-03;  0.0000000E+00;  2.7382770E-03;  9.9893964E+02;  1.2709397E-01; -8.7849359E+02;3;  1.7600595E+00;  0.0000000E+00; -3.3032700E-01;0;  3.8890583E-03;  2.4811646E+04;  0.0000000E+00;  1.6140182E-01;  4.0000000E+04;  0.0000000E+00;  3.9849320E+04;  1.0434535E-02;  0.0000000E+00; -6.5454771E-03;  1.6593610E+03;
  7.4118823E-01;  9.9999998E-03; -2.2044151E-01;6907; -5.9799110E-03;  0.0000000E+00;  2.6915472E-03;  9.9920422E+02;  1.2708713E-01; -6.5928992E+02;3;  1.7352191E+00;  0.0000000E+00; -3.1213251E-01;0;  1.7850427E-03;  2.4829168E+04;  0.0000000E+00;  3.8000783E-01;  4.0000000E+04;  0.0000000E+00;  3.9846520E+04;  8.9439303E-03;  0.0000000E+00; -7.1588876E-03;  1.2327770E+03;
  7.4113822E-01;  9.9999998E-03; -2.1045326E-01;6908; -6.2174350E-03;  0.0000000E+00;  2.6484691E-03;  9.9944202E+02;  1.2706958E-01; -4.6225848E+02;3;  1.7277992E+00;  0.0000000E+00; -2.9542744E-01;0; -1.4011329E-04;  2.4850525E+04;  0.0000000E+00;  5.0243956E-01;  4.0000000E+04;  0.0000000E+00;  3.9841273E+04;  7.5955912E-03;  0.0000000E+00; -7.7357045E-03;  6.5556750E+02;
  7.4108076E-01;  9.9999998E-03; -2.0047958E-01;6909; -6.4309617E-03;  0.0000000E+00;  2.5837575E-03;  9.9969824E+02;  1.2704642E-01; -2.5001761E+02;3;  1.7216177E+00;  0.0000000E+00; -2.7749348E-01;0; -1.8586917E-03;  2.4873893E+04;  0.0000000E+00;  5.5969214E-01;  4.0000000E+04;  0.0000000E+00;  3.9837992E+04;  6.4140977E-03;  0.0000000E+00; -8.2727894E-03;  5.3947040E+02;
  7.4100363E-01;  9.9999998E-03; -1.9049433E-01;6910; -6.6258009E-03;  0.0000000E+00;  2.5085262E-03;  9.9994232E+02;  1.2701201E-01; -4.7801113E+01;3;  1.7257911E+00;  0.0000000E+00; -2.6275596E-01;0; -3.4018555E-03;  2.4899887E+04;  0.0000000E+00;  5.7810289E-01;  4.0000000E+04;  0.0000000E+00;  3.9836566E+04;  5.4091052E-03;  0.0000000E+00; -8.8109607E-03;  6.6493127E+02;
  7.4091828E-01;  9.9999998E-03; -1.8049048E-01;6911; -6.8012392E-03;  0.0000000E+00;  2.4277116E-03;  1.0001454E+03;  1.2696826E-01;  1.2049041E+02;3;  1.7328362E+00;  0.0000000E+00; -2.4897538E-01;0; -4.7732182E-03;  2.4926678E+04;  0.0000000E+00;  5.7933468E-01;  4.0000000E+04;  0.0000000E+00;  3.9835414E+04;  4.5854207E-03;  0.0000000E+00; -9.3586389E-03;  8.0042780E+02;
  7.4086356E-01;  9.9999998E-03; -1.7048125E-01;6912; -6.9576441E-03;  0.0000000E+00;  2.3395668E-03;  1.0002929E+03;  1.2692876E-01;  2.4265979E+02;3;  1.7483573E+00;  0.0000000E+00; -2.3470192E-01;0; -5.9764227E-03;  2.4948836E+04;  0.0000000E+00;  5.7944930E-01;  4.0000000E+04;  0.0000000E+00;  3.9834477E+04;  3.9377846E-03;  0.0000000E+00; -9.9142073E-03;  9.6748920E+02;
  7.4083811E-01;  9.9999998E-03; -1.6046786E-01;6913; -7.0975521E-03;  0.0000000E+00;  2.2423933E-03;  1.0003582E+03;  1.2689398E-01;  2.9678171E+02;3;  1.7722065E+00;  0.0000000E+00; -2.2048853E-01;0; -7.0291590E-03;  2.4965381E+04;  0.0000000E+00;  5.8938777E-01;  4.0000000E+04;  0.0000000E+00;  3.9833316E+04;  3.4417184E-03;  0.0000000E+00; -1.0470877E-02;  1.1631136E+03;
  7.4084169E-01;  9.9999998E-03; -1.5045121E-01;6914; -7.2240732E-03;  0.0000000E+00;  2.1360661E-03;  1.0003552E+03;  1.2686396E-01;  2.9431265E+02;3;  1.8068864E+00;  0.0000000E+00; -2.0928809E-01;0; -7.9547344E-03;  2.4976055E+04;  0.0000000E+00;  6.1336625E-01;  4.0000000E+04;  0.0000000E+00;  3.9832527E+04;  3.0643989E-03;  0.0000000E+00; -1.1019133E-02;  1.3603433E+03;
  7.4087507E-01;  9.9999998E-03; -1.4043061E-01;6915; -7.3399954E-03;  0.0000000E+00;  2.0211246E-03;  1.0002913E+03;  1.2684186E-01;  2.4127711E+02;3;  1.8403666E+00;  0.0000000E+00; -1.9772169E-01;0; -8.7799616E-03;  2.4980488E+04;  0.0000000E+00;  6.4774764E-01;  4.0000000E+04;  0.0000000E+00;  3.9832094E+04;  2.7704125E-03;  0.0000000E+00; -1.1550374E-02;  1.5314843E+03;
  7.4093324E-01;  9.9999998E-03; -1.3040510E-01;6916; -7.4481820E-03;  0.0000000E+00;  1.8984441E-03;  1.0001877E+03;  1.2682652E-01;  1.5555115E+02;3;  1.8747804E+00;  0.0000000E+00; -1.8516392E-01;0; -9.5316879E-03;  2.4979363E+04;  0.0000000E+00;  6.8180025E-01;  4.0000000E+04;  0.0000000E+00;  3.9832363E+04;  2.5281424E-03;  0.0000000E+00; -1.2059830E-02;  1.6563916E+03;
  7.4100637E-01;  9.9999998E-03; -1.2037680E-01;6917; -7.5506293E-03;  0.0000000E+00;  1.7690662E-03;  1.0000527E+03;  1.2681894E-01;  4.3653084E+01;3;  1.9194888E+00;  0.0000000E+00; -1.7427489E-01;0; -1.0230945E-02;  2.4974008E+04;  0.0000000E+00;  7.0121849E-01;  4.0000000E+04;  0.0000000E+00;  3.9832980E+04;  2.3145834E-03;  0.0000000E+00; -1.2545529E-02;  1.7182286E+03;
  7.4108464E-01;  9.9999998E-03; -1.1034720E-01;6918; -7.6498911E-03;  0.0000000E+00;  1.6344775E-03;  9.9991974E+02;  1.2681650E-01; -6.6516632E+01;3;  1.9671832E+00;  0.0000000E+00; -1.6243356E-01;0; -1.0889526E-02;  2.4966553E+04;  0.0000000E+00;  6.9393015E-01;  4.0000000E+04;  0.0000000E+00;  3.9833707E+04;  2.1153716E-03;  0.0000000E+00; -1.3004897E-02;  1.7033567E+03;
  7.5397742E-01;  9.9999998E-03; -2.7060786E-01;6963; -4.2713024E-03;  0.0000000E+00;  3.2543624E-03;  9.9731964E+02;  1.3134730E-01; -2.2206284E+03;3;  1.9710727E+00;  0.0000000E+00; -4.2437989E-01;0;  1.5727147E-02;  2.3161537E+04;  0.0000000E+00;  1.0681996E+00;  4.0000000E+04;  0.0000000E+00;  3.9842270E+04;  2.0870972E-02;  0.0000000E+00; -5.1438254E-03;  4.3056895E+03;
  7.5410420E-01;  9.9999998E-03; -2.6058561E-01;6964; -4.7279126E-03;  0.0000000E+00;  3.2184804E-03;  9.9757825E+02;  1.3139151E-01; -2.0063629E+03;3;  1.8955069E+00;  0.0000000E+00; -3.8707322E-01;0;  1.3313822E-02;  2.3159830E+04;  0.0000000E+00;  2.0432141E-01;  4.0000000E+04;  0.0000000E+00;  3.9839164E+04;  1.8960888E-02;  0.0000000E+00; -5.6470660E-03;  3.3091221E+03;
  7.5428379E-01;  9.9999998E-03; -2.5056100E-01;6965; -5.1293564E-03;  0.0000000E+00;  3.1690714E-03;  9.9785034E+02;  1.3144511E-01; -1.7809371E+03;3;  1.8298978E+00;  0.0000000E+00; -3.5470539E-01;0;  1.0952756E-02;  2.3156527E+04;  0.0000000E+00; -1.1759156E-01;  4.0000000E+04;  0.0000000E+00;  3.9835836E+04;  1.7064597E-02;  0.0000000E+00; -6.1118412E-03;  3.0238870E+03;
  7.5436562E-01;  9.9999998E-03; -2.4053031E-01;6966; -5.4674819E-03;  0.0000000E+00;  3.0883679E-03;  9.9813715E+02;  1.3146858E-01; -1.5433636E+03;3;  1.7826536E+00;  0.0000000E+00; -3.2875532E-01;0;  8.6625870E-03;  2.3164311E+04;  0.0000000E+00; -9.4949305E-02;  4.0000000E+04;  0.0000000E+00;  3.9833621E+04;  1.5171282E-02;  0.0000000E+00; -6.5086950E-03;  2.7478721E+03;
  7.5431556E-01;  9.9999998E-03; -2.3048395E-01;6967; -5.7574292E-03;  0.0000000E+00;  2.9868418E-03;  9.9844763E+02;  1.3145687E-01; -1.2860870E+03;3;  1.7568651E+00;  0.0000000E+00; -3.2276326E-01;0;  6.3477536E-03;  2.3184234E+04;  0.0000000E+00;  4.8395231E-02;  4.0000000E+04;  0.0000000E+00;  3.9833305E+04;  1.3313336E-02;  0.0000000E+00; -6.9655827E-03;  2.6199751E+03;
  7.5421119E-01;  9.9999998E-03; -2.2043246E-01;6968; -6.0225702E-03;  0.0000000E+00;  2.9320312E-03;  9.9874414E+02;  1.3142803E-01; -1.0404644E+03;3;  1.7384809E+00;  0.0000000E+00; -3.0881986E-01;0;  3.9465018E-03;  2.3210207E+04;  0.0000000E+00;  1.9328797E-01;  4.0000000E+04;  0.0000000E+00;  3.9830605E+04;  1.1556528E-02;  0.0000000E+00; -7.6100258E-03;  2.2150471E+03;
  7.5408584E-01;  9.9999998E-03; -2.1040829E-01;6969; -6.2584965E-03;  0.0000000E+00;  2.8900483E-03;  9.9898077E+02;  1.3138728E-01; -8.4442047E+02;3;  1.7271717E+00;  0.0000000E+00; -2.9522032E-01;0;  1.7064242E-03;  2.3240057E+04;  0.0000000E+00;  2.9349652E-01;  4.0000000E+04;  0.0000000E+00;  3.9824125E+04;  9.9512255E-03;  0.0000000E+00; -8.2448013E-03;  1.3039292E+03;
  7.5394982E-01;  9.9999998E-03; -2.0041327E-01;6970; -6.4650658E-03;  0.0000000E+00;  2.8191400E-03;  9.9920880E+02;  1.3133949E-01; -6.5548761E+02;3;  1.7275513E+00;  0.0000000E+00; -2.8066853E-01;0; -3.0558091E-04;  2.3272074E+04;  0.0000000E+00;  3.3956009E-01;  4.0000000E+04;  0.0000000E+00;  3.9817699E+04;  8.5283928E-03;  0.0000000E+00; -8.8339737E-03;  4.4099146E+02;
  7.5380170E-01;  9.9999998E-03; -1.9042882E-01;6971; -6.6500721E-03;  0.0000000E+00;  2.7285954E-03;  9.9943536E+02;  1.3128249E-01; -4.6778922E+02;3;  1.7393200E+00;  0.0000000E+00; -2.7129990E-01;0; -2.1195877E-03;  2.3305062E+04;  0.0000000E+00;  3.4339213E-01;  4.0000000E+04;  0.0000000E+00;  3.9813559E+04;  7.3042857E-03;  0.0000000E+00; -9.4238734E-03;  1.7833786E+02;
  7.5365752E-01;  9.9999998E-03; -1.8043928E-01;6972; -6.8166400E-03;  0.0000000E+00;  2.6295483E-03;  9.9962921E+02;  1.3122162E-01; -3.0720117E+02;3;  1.7530413E+00;  0.0000000E+00; -2.5829259E-01;0; -3.7386841E-03;  2.3336922E+04;  0.0000000E+00;  3.2695878E-01;  4.0000000E+04;  0.0000000E+00;  3.9811410E+04;  6.2863152E-03;  0.0000000E+00; -1.0024999E-02;  4.9662823E+02;
  7.5354207E-01;  9.9999998E-03; -1.7044574E-01;6973; -6.9642803E-03;  0.0000000E+00;  2.5228257E-03;  9.9977997E+02;  1.3116391E-01; -1.8231581E+02;3;  1.7732882E+00;  0.0000000E+00; -2.4649312E-01;0; -5.1610335E-03;  2.3364426E+04;  0.0000000E+00;  3.1372049E-01;  4.0000000E+04;  0.0000000E+00;  3.9810160E+04;  5.4700975E-03;  0.0000000E+00; -1.0631131E-02;  7.3675885E+02;
  7.5347376E-01;  9.9999998E-03; -1.6044700E-01;6974; -7.0960401E-03;  0.0000000E+00;  2.4084460E-03;  9.9987402E+02;  1.3111445E-01; -1.0439211E+02;3;  1.8028307E+00;  0.0000000E+00; -2.3730423E-01;0; -6.3976031E-03;  2.3385480E+04;  0.0000000E+00;  3.2154316E-01;  4.0000000E+04;  0.0000000E+00;  3.9809363E+04;  4.8354268E-03;  0.0000000E+00; -1.1233030E-02;  9.3733051E+02;
  7.5349104E-01;  9.9999998E-03; -1.5044090E-01;6975; -7.2156982E-03;  0.0000000E+00;  2.2873152E-03;  9.9992072E+02;  1.3108554E-01; -6.5677147E+01;3;  1.8410710E+00;  0.0000000E+00; -2.2943144E-01;0; -7.4690175E-03;  2.3396324E+04;  0.0000000E+00;  3.5714358E-01;  4.0000000E+04;  0.0000000E+00;  3.9808863E+04;  4.3535125E-03;  0.0000000E+00; -1.1822530E-02;  1.1196237E+03;
  7.5357682E-01;  9.9999998E-03; -1.4042990E-01;6976; -7.3250500E-03;  0.0000000E+00;  2.1584488E-03;  9.9993152E+02;  1.3107625E-01; -5.6739132E+01;3;  1.8818796E+00;  0.0000000E+00; -2.1938953E-01;0; -8.4063876E-03;  2.3398490E+04;  0.0000000E+00;  4.1603032E-01;  4.0000000E+04;  0.0000000E+00;  3.9808734E+04;  3.9845291E-03;  0.0000000E+00; -1.2390916E-02;  1.2894498E+03;
  7.5368875E-01;  9.9999998E-03; -1.3041553E-01;6977; -7.4277436E-03;  0.0000000E+00;  2.0222000E-03;  9.9990741E+02;  1.3107230E-01; -7.6689186E+01;3;  1.9324583E+00;  0.0000000E+00; -2.0879506E-01;0; -9.2439689E-03;  2.3396055E+04;  0.0000000E+00;  4.8411998E-01;  4.0000000E+04;  0.0000000E+00;  3.9809434E+04;  3.6895510E-03;  0.0000000E+00; -1.2933520E-02;  1.4432915E+03;
  7.5381404E-01;  9.9999998E-03; -1.2039850E-01;6978; -7.5285775E-03;  0.0000000E+00;  1.8809976E-03;  9.9986554E+02;  1.3107395E-01; -1.1140425E+02;3;  1.9724599E+00;  0.0000000E+00; -2.0127822E-01;0; -1.0009624E-02;  2.3390342E+04;  0.0000000E+00;  5.4134041E-01;  4.0000000E+04;  0.0000000E+00;  3.9810172E+04;  3.4416425E-03;  0.0000000E+00; -1.3451267E-02;  1.5589753E+03;
  7.5393802E-01;  9.9999998E-03; -1.1037685E-01;6979; -7.6288222E-03;  0.0000000E+00;  1.7363508E-03;  9.9982147E+02;  1.3107868E-01; -1.4789703E+02;3;  2.0172932E+00;  0.0000000E+00; -1.9722393E-01;0; -1.0720879E-02;  2.3383262E+04;  0.0000000E+00;  5.6989193E-01;  4.0000000E+04;  0.0000000E+00;  3.9811453E+04;  3.2226965E-03;  0.0000000E+00; -1.3943575E-02;  1.6052411E+03;
  7.6775599E-01;  9.9999998E-03; -2.7069160E-01;7024; -4.2591072E-03;  0.0000000E+00;  3.5645408E-03;  9.9720782E+02;  1.3612583E-01; -2.3132678E+03;3;  2.0001054E+00;  0.0000000E+00; -4.1566995E-01;0;  1.9546341E-02;  2.1570238E+04;  0.0000000E+00;  2.2377920E+00;  4.0000000E+04;  0.0000000E+00;  3.9819242E+04;  2.5514239E-02;  0.0000000E+00; -5.9678992E-03;  7.2832524E+03;
  7.6788628E-01;  9.9999998E-03; -2.6066732E-01;7025; -4.7400882E-03;  0.0000000E+00;  3.5229870E-03;  9.9752960E+02;  1.3617751E-01; -2.0466580E+03;3;  1.9157776E+00;  0.0000000E+00; -3.7795311E-01;0;  1.7087057E-02;  2.1570416E+04;  0.0000000E+00;  7.1589983E-01;  4.0000000E+04;  0.0000000E+00;  3.9815410E+04;  2.3377730E-02;  0.0000000E+00; -6.2906719E-03;  3.9593633E+03;
  7.6810539E-01;  9.9999998E-03; -2.5064090E-01;7026; -5.1532844E-03;  0.0000000E+00;  3.4624315E-03;  9.9788562E+02;  1.3625185E-01; -1.7517034E+03;3;  1.8429239E+00;  0.0000000E+00; -3.4654519E-01;0;  1.4642878E-02;  2.1565082E+04;  0.0000000E+00; -5.7610045E-03;  4.0000000E+04;  0.0000000E+00;  3.9811402E+04;  2.1244450E-02;  0.0000000E+00; -6.6015716E-03;  2.9076677E+03;
  7.6820129E-01;  9.9999998E-03; -2.4060673E-01;7027; -5.4983986E-03;  0.0000000E+00;  3.3737258E-03;  9.9820776E+02;  1.3629137E-01; -1.4848468E+03;3;  1.7901161E+00;  0.0000000E+00; -3.2570243E-01;0;  1.2134166E-02;  2.1569934E+04;  0.0000000E+00; -1.5898144E-01;  4.0000000E+04;  0.0000000E+00;  3.9808508E+04;  1.9084135E-02;  0.0000000E+00; -6.9499682E-03;  2.6698315E+03;
  7.6813817E-01;  9.9999998E-03; -2.3055515E-01;7028; -5.7929885E-03;  0.0000000E+00;  3.2669364E-03;  9.9852429E+02;  1.3628122E-01; -1.2225826E+03;3;  1.7666523E+00;  0.0000000E+00; -3.1988171E-01;0;  9.5154848E-03;  2.1588869E+04;  0.0000000E+00; -7.3575892E-02;  4.0000000E+04;  0.0000000E+00;  3.9807992E+04;  1.6935645E-02;  0.0000000E+00; -7.4201603E-03;  2.5579778E+03;
  7.6799661E-01;  9.9999998E-03; -2.2048420E-01;7029; -6.0571702E-03;  0.0000000E+00;  3.1919479E-03;  9.9881659E+02;  1.3624436E-01; -9.8041663E+02;3;  1.7464664E+00;  0.0000000E+00; -3.0775094E-01;0;  6.7967344E-03;  2.1615869E+04;  0.0000000E+00;  5.5330049E-02;  4.0000000E+04;  0.0000000E+00;  3.9806797E+04;  1.4874054E-02;  0.0000000E+00; -8.0773197E-03;  2.3151570E+03;
  7.6780742E-01;  9.9999998E-03; -2.1042189E-01;7030; -6.2897573E-03;  0.0000000E+00;  3.1352199E-03;  9.9904187E+02;  1.3618807E-01; -7.9380463E+02;3;  1.7337430E+00;  0.0000000E+00; -2.9489228E-01;0;  4.1892631E-03;  2.1648479E+04;  0.0000000E+00;  1.4181545E-01;  4.0000000E+04;  0.0000000E+00;  3.9801336E+04;  1.2956878E-02;  0.0000000E+00; -8.7676151E-03;  1.5669589E+03;
  7.6762938E-01;  9.9999998E-03; -2.0038904E-01;7031; -6.4904983E-03;  0.0000000E+00;  3.0561034E-03;  9.9922528E+02;  1.3612954E-01; -6.4185834E+02;3;  1.7466927E+00;  0.0000000E+00; -2.9142973E-01;0;  1.8086229E-03;  2.1680977E+04;  0.0000000E+00;  1.6188903E-01;  4.0000000E+04;  0.0000000E+00;  3.9794238E+04;  1.1237507E-02;  0.0000000E+00; -9.4288839E-03;  6.6594226E+02;
  7.6746726E-01;  9.9999998E-03; -1.9038048E-01;7032; -6.6676098E-03;  0.0000000E+00;  2.9557541E-03;  9.9940076E+02;  1.3606837E-01; -4.9647974E+02;3;  1.7572852E+00;  0.0000000E+00; -2.8400853E-01;0; -3.5003293E-04;  2.1712262E+04;  0.0000000E+00;  1.2641093E-01;  4.0000000E+04;  0.0000000E+00;  3.9788672E+04;  9.7400639E-03;  0.0000000E+00; -1.0090097E-02;  4.2595557E+02;
  7.6733005E-01;  9.9999998E-03; -1.8037535E-01;7033; -6.8203937E-03;  0.0000000E+00;  2.8408265E-03;  9.9955786E+02;  1.3600737E-01; -3.6631061E+02;3;  1.7789699E+00;  0.0000000E+00; -2.7282828E-01;0; -2.2863783E-03;  2.1740818E+04;  0.0000000E+00;  6.3291661E-02;  4.0000000E+04;  0.0000000E+00;  3.9785406E+04;  8.4731504E-03;  0.0000000E+00; -1.0759529E-02;  7.8387054E+02;
  7.6724434E-01;  9.9999998E-03; -1.7036729E-01;7034; -6.9531472E-03;  0.0000000E+00;  2.7169897E-03;  9.9968506E+02;  1.3595594E-01; -2.6093088E+02;3;  1.8159683E+00;  0.0000000E+00; -2.6696938E-01;0; -3.9938902E-03;  2.1763869E+04;  0.0000000E+00;  5.5392021E-03;  4.0000000E+04;  0.0000000E+00;  3.9783477E+04;  7.4368995E-03;  0.0000000E+00; -1.1430790E-02;  1.0173737E+03;
  7.6723701E-01;  9.9999998E-03; -1.6034991E-01;7035; -7.0714108E-03;  0.0000000E+00;  2.5871703E-03;  9.9978510E+02;  1.3592215E-01; -1.7806903E+02;3;  1.8600197E+00;  0.0000000E+00; -2.5901926E-01;0; -5.4774093E-03;  2.1778371E+04;  0.0000000E+00; -2.0936958E-02;  4.0000000E+04;  0.0000000E+00;  3.9782867E+04;  6.6157044E-03;  0.0000000E+00; -1.2093114E-02;  1.1075665E+03;
  7.6724780E-01;  9.9999998E-03; -1.5033054E-01;7036; -7.1764970E-03;  0.0000000E+00;  2.4490105E-03;  9.9983374E+02;  1.3588914E-01; -1.3772449E+02;3;  1.9059823E+00;  0.0000000E+00; -2.5224701E-01;0; -6.7591751E-03;  2.1789580E+04;  0.0000000E+00; -3.1415841E-03;  4.0000000E+04;  0.0000000E+00;  3.9782672E+04;  5.9713060E-03;  0.0000000E+00; -1.2730481E-02;  1.0912070E+03;
  7.6727134E-01;  9.9999998E-03; -1.4030755E-01;7037; -7.2721732E-03;  0.0000000E+00;  2.3032469E-03;  9.9984839E+02;  1.3585576E-01; -1.2562607E+02;3;  1.9646200E+00;  0.0000000E+00; -2.4953225E-01;0; -7.8676976E-03;  2.1798104E+04;  0.0000000E+00;  5.5539325E-02;  4.0000000E+04;  0.0000000E+00;  3.9783379E+04;  5.4678172E-03;  0.0000000E+00; -1.3335515E-02;  1.0295959E+03;
  7.6732445E-01;  9.9999998E-03; -1.3028094E-01;7038; -7.3673483E-03;  0.0000000E+00;  2.1536432E-03;  9.9984619E+02;  1.3582963E-01; -1.2740379E+02;3;  2.0171607E+00;  0.0000000E+00; -2.4390896E-01;0; -8.8378144E-03;  2.1802719E+04;  0.0000000E+00;  1.3764769E-01;  4.0000000E+04;  0.0000000E+00;  3.9784484E+04;  5.0724251E-03;  0.0000000E+00; -1.3910240E-02;  9.9686200E+02;
  7.6748937E-01;  9.9999998E-03; -1.2024912E-01;7039; -7.4660368E-03;  0.0000000E+00;  2.0023293E-03;  9.9987665E+02;  1.3584030E-01; -1.0221932E+02;3;  2.0759161E+00;  0.0000000E+00; -2.4408655E-01;0; -9.7017419E-03;  2.1795818E+04;  0.0000000E+00;  2.1711387E-01;  4.0000000E+04;  0.0000000E+00;  3.9786094E+04;  4.7644982E-03;  0.0000000E+00; -1.4466240E-02;  1.0182172E+03;
  7.6770622E-01;  9.9999998E-03; -1.1021189E-01;7040; -7.5691799E-03;  0.0000000E+00;  1.8498355E-03;  9.9992261E+02;  1.3587174E-01; -6.4096947E+01;3;  2.1222394E+00;  0.0000000E+00; -2.3639372E-01;0; -1.0486137E-02;  2.1783053E+04;  0.0000000E+00;  2.7326423E-01;  4.0000000E+04;  0.0000000E+00;  3.9787570E+04;  4.5163813E-03;  0.0000000E+00; -1.5002518E-02;  1.0542313E+03;
  7.8258032E-01;  9.9999998E-03; -2.7079633E-01;7085; -4.1306820E-03;  0.0000000E+00;  3.8881693E-03;  9.9805341E+02;  1.4155322E-01; -1.6126951E+03;3;  2.0869827E+00;  0.0000000E+00; -4.1822025E-01;0;  2.4067087E-02;  1.9988281E+04;  0.0000000E+00;  1.3856404E+00;  4.0000000E+04;  0.0000000E+00;  3.9783223E+04;  3.0620139E-02;  0.0000000E+00; -6.5530515E-03;  6.2249409E+03;
  7.8259361E-01;  9.9999998E-03; -2.6077282E-01;7086; -4.6776277E-03;  0.0000000E+00;  3.8416602E-03;  9.9836920E+02;  1.4157403E-01; -1.3510728E+03;3;  1.9773588E+00;  0.0000000E+00; -3.7996286E-01;0;  2.1521581E-02;  1.9997510E+04;  0.0000000E+00;  1.8893914E-01;  4.0000000E+04;  0.0000000E+00;  3.9779801E+04;  2.8285334E-02;  0.0000000E+00; -6.7637525E-03;  2.7282651E+03;
  7.8276080E-01;  9.9999998E-03; -2.5074953E-01;7087; -5.1235133E-03;  0.0000000E+00;  3.7727857E-03;  9.9873016E+02;  1.4163868E-01; -1.0520195E+03;3;  1.8852315E+00;  0.0000000E+00; -3.5114080E-01;0;  1.8931486E-02;  1.9996770E+04;  0.0000000E+00; -2.9450530E-01;  4.0000000E+04;  0.0000000E+00;  3.9775672E+04;  2.5922332E-02;  0.0000000E+00; -6.9908467E-03;  1.7548510E+03;
  7.8285605E-01;  9.9999998E-03; -2.4072240E-01;7088; -5.4913010E-03;  0.0000000E+00;  3.6810965E-03;  9.9905859E+02;  1.4168164E-01; -7.7992853E+02;3;  1.8200464E+00;  0.0000000E+00; -3.2860377E-01;0;  1.6170539E-02;  2.0001234E+04;  0.0000000E+00; -2.8891757E-01;  4.0000000E+04;  0.0000000E+00;  3.9772336E+04;  2.3515455E-02;  0.0000000E+00; -7.3449160E-03;  1.5688132E+03;
  7.8276074E-01;  9.9999998E-03; -2.3068488E-01;7089; -5.7964143E-03;  0.0000000E+00;  3.5742437E-03;  9.9933655E+02;  1.4166144E-01; -5.4966345E+02;3;  1.7835058E+00;  0.0000000E+00; -3.1608558E-01;0;  1.3220033E-02;  2.0021416E+04;  0.0000000E+00; -1.1320262E-01;  4.0000000E+04;  0.0000000E+00;  3.9771102E+04;  2.1085650E-02;  0.0000000E+00; -7.8656171E-03;  1.3133900E+03;
  7.8255272E-01;  9.9999998E-03; -2.2061957E-01;7090; -6.0544484E-03;  0.0000000E+00;  3.4556990E-03;  9.9960156E+02;  1.4160043E-01; -3.3011411E+02;3;  1.7718322E+00;  0.0000000E+00; -3.1891948E-01;0;  1.0205452E-02;  2.0052066E+04;  0.0000000E+00;  4.4833425E-02;  4.0000000E+04;  0.0000000E+00;  3.9771836E+04;  1.8711302E-02;  0.0000000E+00; -8.5058501E-03;  1.2562336E+03;
  7.8228587E-01;  9.9999998E-03; -2.1053247E-01;7091; -6.2855040E-03;  0.0000000E+00;  3.3705770E-03;  9.9980731E+02;  1.4151695E-01; -1.5964980E+02;3;  1.7691606E+00;  0.0000000E+00; -3.1749597E-01;0;  7.1984855E-03;  2.0088092E+04;  0.0000000E+00;  1.1924039E-01;  4.0000000E+04;  0.0000000E+00;  3.9771102E+04;  1.6465293E-02;  0.0000000E+00; -9.2668077E-03;  1.0405159E+03;
  7.8203166E-01;  9.9999998E-03; -2.0046373E-01;7092; -6.4837099E-03;  0.0000000E+00;  3.2852588E-03;  9.9994495E+02;  1.4143313E-01; -4.5628334E+01;3;  1.7763246E+00;  0.0000000E+00; -3.0779997E-01;0;  4.3882858E-03;  2.0123576E+04;  0.0000000E+00;  1.0029251E-01;  4.0000000E+04;  0.0000000E+00;  3.9766516E+04;  1.4416554E-02;  0.0000000E+00; -1.0028268E-02;  5.2685199E+02;
  7.8183639E-01;  9.9999998E-03; -1.9042102E-01;7093; -6.6473209E-03;  0.0000000E+00;  3.1755029E-03;  1.0000541E+03;  1.4136027E-01;  4.4838234E+01;3;  1.7922062E+00;  0.0000000E+00; -2.9729939E-01;0;  1.8270006E-03;  2.0154121E+04;  0.0000000E+00;  9.3387598E-03;  4.0000000E+04;  0.0000000E+00;  3.9761160E+04;  1.2606462E-02;  0.0000000E+00; -1.0779462E-02;  7.4025891E+02;
  7.8171581E-01;  9.9999998E-03; -1.8038218E-01;7094; -6.7826267E-03;  0.0000000E+00;  3.0474425E-03;  1.0001539E+03;  1.4130555E-01;  1.2750256E+02;3;  1.8316092E+00;  0.0000000E+00; -2.9986879E-01;0; -4.8160739E-04;  2.0177695E+04;  0.0000000E+00; -1.1645271E-01;  4.0000000E+04;  0.0000000E+00;  3.9757742E+04;  1.1051305E-02;  0.0000000E+00; -1.1532912E-02;  1.2299061E+03;
  7.8167892E-01;  9.9999998E-03; -1.7034353E-01;7095; -6.8950811E-03;  0.0000000E+00;  2.9128285E-03;  1.0002402E+03;  1.4127007E-01;  1.9900670E+02;3;  1.8959879E+00;  0.0000000E+00; -2.9880619E-01;0; -2.5285231E-03;  2.0193262E+04;  0.0000000E+00; -2.3675153E-01;  4.0000000E+04;  0.0000000E+00;  3.9755461E+04;  9.7538959E-03;  0.0000000E+00; -1.2282419E-02;  1.5595592E+03;
  7.8170073E-01;  9.9999998E-03; -1.6030914E-01;7096; -6.9843442E-03;  0.0000000E+00;  2.7690963E-03;  1.0002973E+03;  1.4124726E-01;  2.4631400E+02;3;  1.9676460E+00;  0.0000000E+00; -2.9205939E-01;0; -4.3159109E-03;  2.0202582E+04;  0.0000000E+00; -3.1928137E-01;  4.0000000E+04;  0.0000000E+00;  3.9754656E+04;  8.6969277E-03;  0.0000000E+00; -1.3012839E-02;  1.6849604E+03;
  7.8175968E-01;  9.9999998E-03; -1.5027781E-01;7097; -7.0622968E-03;  0.0000000E+00;  2.6173338E-03;  1.0003317E+03;  1.4123185E-01;  2.7485641E+02;3;  2.0582912E+00;  0.0000000E+00; -2.8640440E-01;0; -5.8576008E-03;  2.0207273E+04;  0.0000000E+00; -3.4764448E-01;  4.0000000E+04;  0.0000000E+00;  3.9755180E+04;  7.8538833E-03;  0.0000000E+00; -1.3711484E-02;  1.6125116E+03;
  7.8183812E-01;  9.9999998E-03; -1.4024086E-01;7098; -7.1423240E-03;  0.0000000E+00;  2.4615172E-03;  1.0003458E+03;  1.4121765E-01;  2.8651041E+02;3;  2.1368995E+00;  0.0000000E+00; -2.9172587E-01;0; -7.1807499E-03;  2.0208734E+04;  0.0000000E+00; -3.2336828E-01;  4.0000000E+04;  0.0000000E+00;  3.9756156E+04;  7.1913456E-03;  0.0000000E+00; -1.4372095E-02;  1.3826661E+03;
  7.8192550E-01;  9.9999998E-03; -1.3019805E-01;7099; -7.2349682E-03;  0.0000000E+00;  2.3048578E-03;  1.0003494E+03;  1.4120556E-01;  2.8947327E+02;3;  2.2157974E+00;  0.0000000E+00; -2.9867351E-01;0; -8.3213244E-03;  2.0208330E+04;  0.0000000E+00; -2.6215202E-01;  4.0000000E+04;  0.0000000E+00;  3.9758266E+04;  6.6758655E-03;  0.0000000E+00; -1.4997190E-02;  1.0543226E+03;
  7.8201264E-01;  9.9999998E-03; -1.2015274E-01;7100; -7.3391818E-03;  0.0000000E+00;  2.1474157E-03;  1.0003585E+03;  1.4119275E-01;  2.9697922E+02;3;  2.2698877E+00;  0.0000000E+00; -2.9439339E-01;0; -9.3174940E-03;  2.0207098E+04;  0.0000000E+00; -1.8624729E-01;  4.0000000E+04;  0.0000000E+00;  3.9760387E+04;  6.2764268E-03;  0.0000000E+00; -1.5593921E-02;  6.9599402E+02;
  7.8207910E-01;  9.9999998E-03; -1.1010791E-01;7101; -7.4510528E-03;  0.0000000E+00;  1.9880531E-03;  1.0003801E+03;  1.4117579E-01;  3.1495404E+02;3;  2.2985106E+00;  0.0000000E+00; -2.8661650E-01;0; -1.0199027E-02;  2.0206850E+04;  0.0000000E+00; -1.1605901E-01;  4.0000000E+04;  0.0000000E+00;  3.9762332E+04;  5.9661828E-03;  0.0000000E+00; -1.6165210E-02;  3.8025369E+02;
  7.9826200E-01;  9.9999998E-03; -2.7091080E-01;7146; -3.5193446E-03;  0.0000000E+00;  4.1715065E-03;  9.9909296E+02;  1.4760318E-01; -7.5148486E+02;3;  2.3831570E+00;  0.0000000E+00; -4.7853175E-01;0;  2.8678315E-02;  1.8422424E+04;  0.0000000E+00;  4.3537870E-01;  4.0000000E+04;  0.0000000E+00;  3.9742844E+04;  3.4962151E-02;  0.0000000E+00; -6.2838364E-03;  4.1157310E+03;
  7.9812324E-01;  9.9999998E-03; -2.6088899E-01;7147; -4.2724954E-03;  0.0000000E+00;  4.1389819E-03;  9.9936896E+02;  1.4757507E-01; -5.2279999E+02;3;  2.1758471E+00;  0.0000000E+00; -4.2795694E-01;0;  2.5919966E-02;  1.8441471E+04;  0.0000000E+00; -2.0239796E-01;  4.0000000E+04;  0.0000000E+00;  3.9739988E+04;  3.2658029E-02;  0.0000000E+00; -6.7380620E-03;  1.2147207E+03;
  7.9809749E-01;  9.9999998E-03; -2.5086936E-01;7148; -4.8382194E-03;  0.0000000E+00;  4.0694531E-03;  9.9967291E+02;  1.4758663E-01; -2.7100467E+02;3;  2.0483234E+00;  0.0000000E+00; -3.9942554E-01;0;  2.3130257E-02;  1.8452672E+04;  0.0000000E+00; -3.3970711E-01;  4.0000000E+04;  0.0000000E+00;  3.9736539E+04;  3.0205516E-02;  0.0000000E+00; -7.0752599E-03;  4.3587244E+02;
  7.9798788E-01;  9.9999998E-03; -2.4085063E-01;7149; -5.2950368E-03;  0.0000000E+00;  3.9812615E-03;  9.9994446E+02;  1.4756992E-01; -4.6023388E+01;3;  1.9528399E+00;  0.0000000E+00; -3.7331486E-01;0;  2.0082252E-02;  1.8470098E+04;  0.0000000E+00; -1.9638848E-01;  4.0000000E+04;  0.0000000E+00;  3.9733895E+04;  2.7650056E-02;  0.0000000E+00; -7.5678043E-03;  4.5733408E+02;
  7.9780149E-01;  9.9999998E-03; -2.3083884E-01;7150; -5.6730313E-03;  0.0000000E+00;  3.9051026E-03;  1.0001544E+03;  1.4752582E-01;  1.2789761E+02;3;  1.8773768E+00;  0.0000000E+00; -3.4982577E-01;0;  1.6778391E-02;  1.8493672E+04;  0.0000000E+00; -8.0429865E-03;  4.0000000E+04;  0.0000000E+00;  3.9730445E+04;  2.5065256E-02;  0.0000000E+00; -8.2868664E-03;  5.9358173E+02;
  7.9751998E-01;  9.9999998E-03; -2.2082634E-01;7151; -5.9623499E-03;  0.0000000E+00;  3.7848505E-03;  1.0003409E+03;  1.4744078E-01;  2.8246112E+02;3;  1.8442434E+00;  0.0000000E+00; -3.4089020E-01;0;  1.3510068E-02;  1.8526576E+04;  0.0000000E+00;  1.1871841E-01;  4.0000000E+04;  0.0000000E+00;  3.9728980E+04;  2.2502897E-02;  0.0000000E+00; -8.9928294E-03;  8.1468329E+02;
  7.9715520E-01;  9.9999998E-03; -2.1077599E-01;7152; -6.1853095E-03;  0.0000000E+00;  3.6366004E-03;  1.0005325E+03;  1.4732142E-01;  4.4117267E+02;3;  1.8449373E+00;  0.0000000E+00; -3.3637190E-01;0;  1.0260083E-02;  1.8567150E+04;  0.0000000E+00;  1.4592728E-01;  4.0000000E+04;  0.0000000E+00;  3.9731430E+04;  2.0020995E-02;  0.0000000E+00; -9.7609125E-03;  5.9232977E+02;
  7.9676241E-01;  9.9999998E-03; -2.0070077E-01;7153; -6.3687162E-03;  0.0000000E+00;  3.5054940E-03;  1.0006582E+03;  1.4718838E-01;  5.4526849E+02;3;  1.8775743E+00;  0.0000000E+00; -3.3694050E-01;0;  7.0917467E-03;  1.8609916E+04;  0.0000000E+00;  7.9432443E-02;  4.0000000E+04;  0.0000000E+00;  3.9732453E+04;  1.7694734E-02;  0.0000000E+00; -1.0602987E-02;  6.0044916E+02;
  7.9641968E-01;  9.9999998E-03; -1.9062820E-01;7154; -6.5211453E-03;  0.0000000E+00;  3.3819226E-03;  1.0007261E+03;  1.4706442E-01;  6.0156317E+02;3;  1.9253207E+00;  0.0000000E+00; -3.4552485E-01;0;  4.1350042E-03;  1.8648838E+04;  0.0000000E+00; -5.4721385E-02;  4.0000000E+04;  0.0000000E+00;  3.9731074E+04;  1.5592129E-02;  0.0000000E+00; -1.1457125E-02;  9.7759949E+02;
  7.9616785E-01;  9.9999998E-03; -1.8055509E-01;7155; -6.6317730E-03;  0.0000000E+00;  3.2456333E-03;  1.0007585E+03;  1.4696394E-01;  6.2842664E+02;3;  1.9877695E+00;  0.0000000E+00; -3.4414858E-01;0;  1.4456352E-03;  1.8680482E+04;  0.0000000E+00; -2.2225210E-01;  4.0000000E+04;  0.0000000E+00;  3.9729137E+04;  1.3748078E-02;  0.0000000E+00; -1.2302442E-02;  1.4455027E+03;
  7.9602963E-01;  9.9999998E-03; -1.7048793E-01;7156; -6.7055537E-03;  0.0000000E+00;  3.0969824E-03;  1.0007653E+03;  1.4689316E-01;  6.3405609E+02;3;  2.0762453E+00;  0.0000000E+00; -3.3904201E-01;0; -9.5171575E-04;  1.8701865E+04;  0.0000000E+00; -3.8587514E-01;  4.0000000E+04;  0.0000000E+00;  3.9727832E+04;  1.2181207E-02;  0.0000000E+00; -1.3132922E-02;  1.8461669E+03;
  7.9599899E-01;  9.9999998E-03; -1.6042800E-01;7157; -6.7673395E-03;  0.0000000E+00;  2.9438883E-03;  1.0007491E+03;  1.4685601E-01;  6.2062439E+02;3;  2.1976676E+00;  0.0000000E+00; -3.4256002E-01;0; -3.0485038E-03;  1.8712922E+04;  0.0000000E+00; -5.1436293E-01;  4.0000000E+04;  0.0000000E+00;  3.9727285E+04;  1.0889483E-02;  0.0000000E+00; -1.3937986E-02;  2.0801326E+03;
  7.9604977E-01;  9.9999998E-03; -1.5037653E-01;7158; -6.8340427E-03;  0.0000000E+00;  2.7883104E-03;  1.0007191E+03;  1.4684173E-01;  5.9573621E+02;3;  2.3185201E+00;  0.0000000E+00; -3.5533640E-01;0; -4.8541101E-03;  1.8715057E+04;  0.0000000E+00; -5.9035230E-01;  4.0000000E+04;  0.0000000E+00;  3.9728008E+04;  9.8520843E-03;  0.0000000E+00; -1.4706194E-02;  2.1167410E+03;
  7.9614395E-01;  9.9999998E-03; -1.4033292E-01;7159; -6.9259247E-03;  0.0000000E+00;  2.6359719E-03;  1.0006819E+03;  1.4684117E-01;  5.6492224E+02;3;  2.4103751E+00;  0.0000000E+00; -3.5755911E-01;0; -6.3934401E-03;  1.8711947E+04;  0.0000000E+00; -6.1249012E-01;  4.0000000E+04;  0.0000000E+00;  3.9729473E+04;  9.0378998E-03;  0.0000000E+00; -1.5431340E-02;  1.9811641E+03;
  7.9624069E-01;  9.9999998E-03; -1.3028838E-01;7160; -7.0348475E-03;  0.0000000E+00;  2.4816990E-03;  1.0006324E+03;  1.4684059E-01;  5.2393573E+02;3;  2.4766726E+00;  0.0000000E+00; -3.5005203E-01;0; -7.7070501E-03;  1.8706746E+04;  0.0000000E+00; -5.9115320E-01;  4.0000000E+04;  0.0000000E+00;  3.9731449E+04;  8.4090643E-03;  0.0000000E+00; -1.6116114E-02;  1.7303705E+03;
  7.9630387E-01;  9.9999998E-03; -1.2023292E-01;7161; -7.1550519E-03;  0.0000000E+00;  2.3234827E-03;  1.0005757E+03;  1.4682902E-01;  4.7702350E+02;3;  2.5088544E+00;  0.0000000E+00; -3.4014544E-01;0; -8.8374661E-03;  1.8703301E+04;  0.0000000E+00; -5.4156065E-01;  4.0000000E+04;  0.0000000E+00;  3.9733770E+04;  7.9304194E-03;  0.0000000E+00; -1.6767886E-02;  1.4311263E+03;
  7.9631907E-01;  9.9999998E-03; -1.1018249E-01;7162; -7.2803926E-03;  0.0000000E+00;  2.1601880E-03;  1.0005203E+03;  1.4680086E-01;  4.3100012E+02;3;  2.5235729E+00;  0.0000000E+00; -3.2153651E-01;0; -9.8162871E-03;  1.8703268E+04;  0.0000000E+00; -4.7870749E-01;  4.0000000E+04;  0.0000000E+00;  3.9736129E+04;  7.5738584E-03;  0.0000000E+00; -1.7390145E-02;  1.1529636E+03;
  8.1278771E-01;  9.9999998E-03; -2.7100459E-01;7207; -1.6520860E-03;  0.0000000E+00;  4.2085201E-03;  9.9910876E+02;  1.5345527E-01; -7.3834943E+02;3;  3.3361683E+00;  0.0000000E+00; -6.9051659E-01;0;  3.3686850E-02;  1.7043600E+04;  0.0000000E+00;  1.2646434E+00;  4.0000000E+04;  0.0000000E+00;  3.9714312E+04;  3.6917023E-02;  0.0000000E+00; -3.2301727E-03;  5.3504639E+03;
  8.1285208E-01;  9.9999998E-03; -2.6098412E-01;7208; -2.8931357E-03;  0.0000000E+00;  4.2960146E-03;  9.9938678E+02;  1.5351753E-01; -5.0803497E+02;3;  2.9341850E+00;  0.0000000E+00; -5.8800465E-01;0;  2.9530188E-02;  1.7040725E+04;  0.0000000E+00;  6.1128831E-01;  4.0000000E+04;  0.0000000E+00;  3.9710754E+04;  3.4983151E-02;  0.0000000E+00; -5.4529621E-03;  2.6728528E+03;
  8.1293118E-01;  9.9999998E-03; -2.5096610E-01;7209; -3.8074655E-03;  0.0000000E+00;  4.2605633E-03;  9.9968323E+02;  1.5357992E-01; -2.6246170E+02;3;  2.6046112E+00;  0.0000000E+00; -5.2989948E-01;0;  2.6375238E-02;  1.7039271E+04;  0.0000000E+00;  3.5633880E-01;  4.0000000E+04;  0.0000000E+00;  3.9707121E+04;  3.2798085E-02;  0.0000000E+00; -6.4228475E-03;  1.3880065E+03;
  8.1279260E-01;  9.9999998E-03; -2.4095033E-01;7210; -4.5154206E-03;  0.0000000E+00;  4.1962285E-03;  9.9993835E+02;  1.5356342E-01; -5.1060280E+01;3;  2.3960369E+00;  0.0000000E+00; -4.8851418E-01;0;  2.3070447E-02;  1.7054840E+04;  0.0000000E+00;  3.0644745E-01;  4.0000000E+04;  0.0000000E+00;  3.9704465E+04;  3.0424770E-02;  0.0000000E+00; -7.3543228E-03;  1.0041774E+03;
  8.1253558E-01;  9.9999998E-03; -2.3094936E-01;7211; -5.0991280E-03;  0.0000000E+00;  4.1561201E-03;  1.0001259E+03;  1.5350179E-01;  1.0429333E+02;3;  2.2360301E+00;  0.0000000E+00; -4.4094160E-01;0;  1.9524235E-02;  1.7079545E+04;  0.0000000E+00;  2.8395548E-01;  4.0000000E+04;  0.0000000E+00;  3.9699746E+04;  2.7954640E-02;  0.0000000E+00; -8.4304046E-03;  1.1957480E+03;
  8.1220585E-01;  9.9999998E-03; -2.2096418E-01;7212; -5.5051809E-03;  0.0000000E+00;  4.0422929E-03;  1.0002839E+03;  1.5340520E-01;  2.3525259E+02;3;  2.1545894E+00;  0.0000000E+00; -4.2384925E-01;0;  1.6130641E-02;  1.7111801E+04;  0.0000000E+00;  2.3450759E-01;  4.0000000E+04;  0.0000000E+00;  3.9696652E+04;  2.5449844E-02;  0.0000000E+00; -9.3192030E-03;  1.5338376E+03;
  8.1180930E-01;  9.9999998E-03; -2.1095847E-01;7213; -5.7828785E-03;  0.0000000E+00;  3.8757510E-03;  1.0004575E+03;  1.5327969E-01;  3.7895221E+02;3;  2.1397219E+00;  0.0000000E+00; -4.2203593E-01;0;  1.2763074E-02;  1.7149885E+04;  0.0000000E+00;  1.4240496E-01;  4.0000000E+04;  0.0000000E+00;  3.9698336E+04;  2.2972867E-02;  0.0000000E+00; -1.0209793E-02;  1.3126416E+03;
  8.1137234E-01;  9.9999998E-03; -2.0092453E-01;7214; -5.9944335E-03;  0.0000000E+00;  3.7242642E-03;  1.0005879E+03;  1.5313540E-01;  4.8709729E+02;3;  2.1451898E+00;  0.0000000E+00; -4.0979972E-01;0;  9.4229383E-03;  1.7190715E+04;  0.0000000E+00;  1.2654880E-02;  4.0000000E+04;  0.0000000E+00;  3.9701305E+04;  2.0595035E-02;  0.0000000E+00; -1.1172096E-02;  9.9138379E+02;
  8.1093907E-01;  9.9999998E-03; -1.9087119E-01;7215; -6.1506750E-03;  0.0000000E+00;  3.5764126E-03;  1.0006494E+03;  1.5298584E-01;  5.3805884E+02;3;  2.2049055E+00;  0.0000000E+00; -4.0193158E-01;0;  6.2441416E-03;  1.7231010E+04;  0.0000000E+00; -1.4332940E-01;  4.0000000E+04;  0.0000000E+00;  3.9702668E+04;  1.8383121E-02;  0.0000000E+00; -1.2138980E-02;  9.7919745E+02;
  8.1056511E-01;  9.9999998E-03; -1.8079172E-01;7216; -6.2717563E-03;  0.0000000E+00;  3.4305356E-03;  1.0006467E+03;  1.5284875E-01;  5.3578729E+02;3;  2.3008323E+00;  0.0000000E+00; -4.1518331E-01;0;  3.3019707E-03;  1.7266617E+04;  0.0000000E+00; -3.1121933E-01;  4.0000000E+04;  0.0000000E+00;  3.9703141E+04;  1.6391955E-02;  0.0000000E+00; -1.3089985E-02;  1.2666383E+03;
  8.1027627E-01;  9.9999998E-03; -1.7070299E-01;7217; -6.3656280E-03;  0.0000000E+00;  3.2808513E-03;  1.0005887E+03;  1.5273291E-01;  4.8768988E+02;3;  2.3889799E+00;  0.0000000E+00; -4.0958887E-01;0;  6.4770039E-04;  1.7295148E+04;  0.0000000E+00; -4.7345126E-01;  4.0000000E+04;  0.0000000E+00;  3.9702562E+04;  1.4660344E-02;  0.0000000E+00; -1.4012643E-02;  1.6654224E+03;
  8.1011158E-01;  9.9999998E-03; -1.6061278E-01;7218; -6.4678877E-03;  0.0000000E+00;  3.1329233E-03;  1.0005071E+03;  1.5265664E-01;  4.2013623E+02;3;  2.5049210E+00;  0.0000000E+00; -4.2080462E-01;0; -1.6905069E-03;  1.7312811E+04;  0.0000000E+00; -6.1217630E-01;  4.0000000E+04;  0.0000000E+00;  3.9702273E+04;  1.3209839E-02;  0.0000000E+00; -1.4900346E-02;  2.0019888E+03;
  8.1008142E-01;  9.9999998E-03; -1.5053070E-01;7219; -6.5902588E-03;  0.0000000E+00;  2.9891734E-03;  1.0004092E+03;  1.5262416E-01;  3.3895334E+02;3;  2.5836577E+00;  0.0000000E+00; -4.1415352E-01;0; -3.7086811E-03;  1.7318361E+04;  0.0000000E+00; -7.1432179E-01;  4.0000000E+04;  0.0000000E+00;  3.9702652E+04;  1.2038009E-02;  0.0000000E+00; -1.5746690E-02;  2.2013992E+03;
  8.1015962E-01;  9.9999998E-03; -1.4045896E-01;7220; -6.7216284E-03;  0.0000000E+00;  2.8421457E-03;  1.0003126E+03;  1.5262903E-01;  2.5895563E+02;3;  2.6374848E+00;  0.0000000E+00; -4.0534922E-01;0; -5.4270411E-03;  1.7313723E+04;  0.0000000E+00; -7.7514786E-01;  4.0000000E+04;  0.0000000E+00;  3.9703992E+04;  1.1121462E-02;  0.0000000E+00; -1.6548503E-02;  2.2637759E+03;
  8.1027538E-01;  9.9999998E-03; -1.3039650E-01;7221; -6.8568760E-03;  0.0000000E+00;  2.6899120E-03;  1.0002139E+03;  1.5264326E-01;  1.7718016E+02;3;  2.6551244E+00;  0.0000000E+00; -3.8506681E-01;0; -6.8841130E-03;  1.7305516E+04;  0.0000000E+00; -7.9639441E-01;  4.0000000E+04;  0.0000000E+00;  3.9705844E+04;  1.0422349E-02;  0.0000000E+00; -1.7306462E-02;  2.2274495E+03;
  8.1037879E-01;  9.9999998E-03; -1.2034310E-01;7222; -6.9924761E-03;  0.0000000E+00;  2.5298980E-03;  1.0001161E+03;  1.5264978E-01;  9.6194801E+01;3;  2.6665094E+00;  0.0000000E+00; -3.6899078E-01;0; -8.1226481E-03;  1.7298141E+04;  0.0000000E+00; -7.8279245E-01;  4.0000000E+04;  0.0000000E+00;  3.9708016E+04;  9.9044060E-03;  0.0000000E+00; -1.8027054E-02;  2.1327732E+03;
  8.1048012E-01;  9.9999998E-03; -1.1030857E-01;7223; -7.1277311E-03;  0.0000000E+00;  2.3633854E-03;  1.0000259E+03;  1.5265469E-01;  2.1530254E+01;3;  2.6682508E+00;  0.0000000E+00; -3.4288612E-01;0; -9.1761900E-03;  1.7290775E+04;  0.0000000E+00; -7.4080765E-01;  4.0000000E+04;  0.0000000E+00;  3.9709824E+04;  9.5414752E-03;  0.0000000E+00; -1.8717665E-02;  2.0027979E+03;
  8.2505703E-01;  9.9999998E-03; -1.3041432E-01;7282; -6.7632799E-03;  0.0000000E+00;  2.9359523E-03;  9.9953882E+02;  1.5894723E-01; -3.8206323E+02;3;  2.7438495E+00;  0.0000000E+00; -4.0704781E-01;0; -5.5283392E-03;  1.5949938E+04;  0.0000000E+00; -8.7649447E-01;  4.0000000E+04;  0.0000000E+00;  3.9679844E+04;  1.3187676E-02;  0.0000000E+00; -1.8716015E-02;  2.3338286E+03;
  8.2512468E-01;  9.9999998E-03; -1.2035883E-01;7283; -6.9085984E-03;  0.0000000E+00;  2.7674988E-03;  9.9940253E+02;  1.5894783E-01; -4.9499832E+02;3;  2.7451010E+00;  0.0000000E+00; -3.7971133E-01;0; -6.8386290E-03;  1.5945471E+04;  0.0000000E+00; -8.9636821E-01;  4.0000000E+04;  0.0000000E+00;  3.9681582E+04;  1.2670057E-02;  0.0000000E+00; -1.9508686E-02;  2.4588167E+03;
  8.2507634E-01;  9.9999998E-03; -1.4049929E-01;7281; -6.6131339E-03;  0.0000000E+00;  3.0984178E-03;  9.9968524E+02;  1.5897886E-01; -2.6078271E+02;3;  2.7267001E+00;  0.0000000E+00; -4.2865285E-01;0; -3.9678784E-03;  1.5947754E+04;  0.0000000E+00; -8.2524908E-01;  4.0000000E+04;  0.0000000E+00;  3.9677980E+04;  1.3916434E-02;  0.0000000E+00; -1.7884312E-02;  2.1373545E+03;
  8.2511681E-01;  9.9999998E-03; -1.5059765E-01;7280; -6.4562107E-03;  0.0000000E+00;  3.2511000E-03;  9.9982617E+02;  1.5901160E-01; -1.4399591E+02;3;  2.7245526E+00;  0.0000000E+00; -4.5742375E-01;0; -2.1319147E-03;  1.5943733E+04;  0.0000000E+00; -7.5170690E-01;  4.0000000E+04;  0.0000000E+00;  3.9676953E+04;  1.4864454E-02;  0.0000000E+00; -1.6996369E-02;  1.8848325E+03;
  8.2514995E-01;  9.9999998E-03; -1.6069159E-01;7279; -6.2921247E-03;  0.0000000E+00;  3.3956876E-03;  9.9993768E+02;  1.5903653E-01; -5.1652855E+01;3;  2.6820679E+00;  0.0000000E+00; -4.6833327E-01;0; -5.3439289E-06;  1.5939446E+04;  0.0000000E+00; -6.6411310E-01;  4.0000000E+04;  0.0000000E+00;  3.9676785E+04;  1.6041633E-02;  0.0000000E+00; -1.6046977E-02;  1.5771376E+03;
  8.2529604E-01;  9.9999998E-03; -1.1033637E-01;7284; -7.0462273E-03;  0.0000000E+00;  2.5914591E-03;  9.9928491E+02;  1.5898904E-01; -5.9242767E+02;3;  2.7462716E+00;  0.0000000E+00; -3.5375676E-01;0; -7.9315277E-03;  1.5933062E+04;  0.0000000E+00; -8.7965328E-01;  4.0000000E+04;  0.0000000E+00;  3.9682352E+04;  1.2341761E-02;  0.0000000E+00; -2.0273289E-02;  2.4837856E+03;
  8.2522887E-01;  9.9999998E-03; -1.7077209E-01;7278; -6.1192373E-03;  0.0000000E+00;  3.5338034E-03;  1.0000315E+03;  1.5906896E-01;  2.6073334E+01;3;  2.6538095E+00;  0.0000000E+00; -4.8331344E-01;0;  2.4176957E-03;  1.5931155E+04;  0.0000000E+00; -5.6716692E-01;  4.0000000E+04;  0.0000000E+00;  3.9677711E+04;  1.7463941E-02;  0.0000000E+00; -1.5046245E-02;  1.2203854E+03;
  8.2537144E-01;  9.9999998E-03; -1.8084237E-01;7277; -5.9356070E-03;  0.0000000E+00;  3.6701115E-03;  1.0000770E+03;  1.5911849E-01;  6.3800659E+01;3;  2.5833170E+00;  0.0000000E+00; -4.9069557E-01;0;  5.1239952E-03;  1.5917863E+04;  0.0000000E+00; -4.5880479E-01;  4.0000000E+04;  0.0000000E+00;  3.9678863E+04;  1.9126030E-02;  0.0000000E+00; -1.4002034E-02;  8.3338812E+02;
  8.2559365E-01;  9.9999998E-03; -1.9090325E-01;7276; -5.7306839E-03;  0.0000000E+00;  3.8061743E-03;  1.0000696E+03;  1.5918867E-01;  5.7677376E+01;3;  2.5343630E+00;  0.0000000E+00; -4.8513159E-01;0;  8.0851847E-03;  1.5898373E+04;  0.0000000E+00; -3.3003259E-01;  4.0000000E+04;  0.0000000E+00;  3.9679520E+04;  2.1005813E-02;  0.0000000E+00; -1.2920628E-02;  4.4707916E+02;
  8.2591081E-01;  9.9999998E-03; -2.0093836E-01;7275; -5.4844422E-03;  0.0000000E+00;  3.9421176E-03;  1.0000051E+03;  1.5928806E-01;  4.2467933E+00;3;  2.5160944E+00;  0.0000000E+00; -4.9962100E-01;0;  1.1254215E-02;  1.5871347E+04;  0.0000000E+00; -1.6888316E-01;  4.0000000E+04;  0.0000000E+00;  3.9679715E+04;  2.3063008E-02;  0.0000000E+00; -1.1808793E-02;  2.1891631E+02;
  8.2622784E-01;  9.9999998E-03; -2.1096608E-01;7274; -5.1459414E-03;  0.0000000E+00;  4.0666568E-03;  9.9986780E+02;  1.5937988E-01; -1.0952776E+02;3;  2.5621071E+00;  0.0000000E+00; -5.1437217E-01;0;  1.4580308E-02;  1.5844237E+04;  0.0000000E+00;  3.9208237E-02;  4.0000000E+04;  0.0000000E+00;  3.9679836E+04;  2.5236880E-02;  0.0000000E+00; -1.0656573E-02;  6.6472253E+02;
  8.2642221E-01;  9.9999998E-03; -2.7108258E-01;7268; -8.6891028E-05;  0.0000000E+00;  4.2029778E-03;  9.9834528E+02;  1.5924133E-01; -1.3709241E+03;3;  4.0792532E+00;  0.0000000E+00; -8.7152052E-01;0;  3.7845410E-02;  1.5810138E+04;  0.0000000E+00;  2.0249660E+00;  4.0000000E+04;  0.0000000E+00;  3.9696133E+04;  3.7545625E-02;  0.0000000E+00;  2.9978677E-04;  5.9446792E+03;
  8.2646465E-01;  9.9999998E-03; -2.6105842E-01;7269; -1.3421868E-03;  0.0000000E+00;  4.3397075E-03;  9.9864069E+02;  1.5929127E-01; -1.1261903E+03;3;  3.7013080E+00;  0.0000000E+00; -7.6744819E-01;0;  3.2597464E-02;  1.5809965E+04;  0.0000000E+00;  1.6159425E+00;  4.0000000E+04;  0.0000000E+00;  3.9692301E+04;  3.5836007E-02;  0.0000000E+00; -3.2385446E-03;  4.7836538E+03;
  8.2648975E-01;  9.9999998E-03; -2.2099350E-01;7273; -4.7075721E-03;  0.0000000E+00;  4.1960631E-03;  9.9967139E+02;  1.5944397E-01; -2.7223920E+02;3;  2.6643474E+00;  0.0000000E+00; -5.4344749E-01;0;  1.7977305E-02;  1.5821320E+04;  0.0000000E+00;  3.0195525E-01;  4.0000000E+04;  0.0000000E+00;  3.9679352E+04;  2.7467836E-02;  0.0000000E+00; -9.4905300E-03;  1.3326605E+03;
  8.2659501E-01;  9.9999998E-03; -2.5103617E-01;7270; -2.4179928E-03;  0.0000000E+00;  4.3511838E-03;  9.9894995E+02;  1.5937358E-01; -8.6995062E+02;3;  3.3839681E+00;  0.0000000E+00; -6.9153732E-01;0;  2.8724181E-02;  1.5804354E+04;  0.0000000E+00;  1.2658609E+00;  4.0000000E+04;  0.0000000E+00;  3.9688910E+04;  3.3928212E-02;  0.0000000E+00; -5.2040308E-03;  3.8345181E+03;
  8.2660931E-01;  9.9999998E-03; -2.3100688E-01;7272; -4.1451161E-03;  0.0000000E+00;  4.3141856E-03;  9.9945172E+02;  1.5945144E-01; -4.5425873E+02;3;  2.8106098E+00;  0.0000000E+00; -5.6865197E-01;0;  2.1359196E-02;  1.5809335E+04;  0.0000000E+00;  6.1164832E-01;  4.0000000E+04;  0.0000000E+00;  3.9680500E+04;  2.9690178E-02;  0.0000000E+00; -8.3309822E-03;  2.1002258E+03;
  8.2662934E-01;  9.9999998E-03; -2.4101642E-01;7271; -3.3575683E-03;  0.0000000E+00;  4.3370291E-03;  9.9922589E+02;  1.5942051E-01; -6.4131512E+02;3;  3.0752921E+00;  0.0000000E+00; -6.2808269E-01;0;  2.5001975E-02;  1.5805289E+04;  0.0000000E+00;  9.4011480E-01;  4.0000000E+04;  0.0000000E+00;  3.9684875E+04;  3.1861223E-02;  0.0000000E+00; -6.8592490E-03;  2.9698889E+03;
  9.3883342E-01;  9.9999998E-03; -2.7178076E-01;7634;  2.3300212E-03;  0.0000000E+00;  8.6397873E-03;  9.9686218E+02;  2.1439682E-01; -2.5996299E+03;3;  5.6895437E+00;  0.0000000E+00; -6.5339780E-01;0;  8.3049282E-02;  8.7900938E+03;  0.0000000E+00; -4.9888426E-01;  4.0000000E+04;  0.0000000E+00;  3.9506395E+04;  9.9952362E-02;  0.0000000E+00; -1.6903080E-02;  5.1651211E+03;
  8.4203964E-01;  9.9999998E-03; -2.7116999E-01;7329;  6.3907687E-04;  0.0000000E+00;  4.5604240E-03;  9.9758075E+02;  1.6589199E-01; -2.0042888E+03;3;  4.5055895E+00;  0.0000000E+00; -9.2525738E-01;0;  3.7780412E-02;  1.4563618E+04;  0.0000000E+00;  2.2804904E+00;  4.0000000E+04;  0.0000000E+00;  3.9676652E+04;  3.7403550E-02;  0.0000000E+00;  3.7686172E-04;  5.5040669E+03;
  8.4166300E-01;  9.9999998E-03; -1.1056767E-01;7345; -7.0158071E-03;  0.0000000E+00;  2.8545908E-03;  9.9893750E+02;  1.6609991E-01; -8.8027136E+02;3;  2.8056953E+00;  0.0000000E+00; -3.6715683E-01;0; -5.2504539E-03;  1.4608732E+04;  0.0000000E+00; -8.8498390E-01;  4.0000000E+04;  0.0000000E+00;  3.9652551E+04;  1.6955035E-02;  0.0000000E+00; -2.2205489E-02;  2.4613613E+03;
  8.4205371E-01;  9.9999998E-03; -2.6114124E-01;7330; -5.2263745E-04;  0.0000000E+00;  4.6441290E-03;  9.9793884E+02;  1.6592348E-01; -1.7076060E+03;3;  4.1453190E+00;  0.0000000E+00; -8.1992400E-01;0;  3.3154741E-02;  1.4567794E+04;  0.0000000E+00;  2.1951542E+00;  4.0000000E+04;  0.0000000E+00;  3.9672480E+04;  3.5973188E-02;  0.0000000E+00; -2.8184461E-03;  6.0784546E+03;
  8.4160173E-01;  9.9999998E-03; -1.2057818E-01;7344; -6.8813981E-03;  0.0000000E+00;  3.0495401E-03;  9.9902008E+02;  1.6610283E-01; -8.1182886E+02;3;  2.8037808E+00;  0.0000000E+00; -3.9805329E-01;0; -4.1389335E-03;  1.4608358E+04;  0.0000000E+00; -8.8716382E-01;  4.0000000E+04;  0.0000000E+00;  3.9652043E+04;  1.7244348E-02;  0.0000000E+00; -2.1383282E-02;  2.3037039E+03;
  8.4211469E-01;  9.9999998E-03; -2.5111231E-01;7331; -1.5716427E-03;  0.0000000E+00;  4.6492880E-03;  9.9828943E+02;  1.6597581E-01; -1.4171943E+03;3;  3.8348877E+00;  0.0000000E+00; -7.6176006E-01;0;  2.9387336E-02;  1.4568421E+04;  0.0000000E+00;  1.7907102E+00;  4.0000000E+04;  0.0000000E+00;  3.9668695E+04;  3.4412649E-02;  0.0000000E+00; -5.0253128E-03;  5.6386313E+03;
  8.4202319E-01;  9.9999998E-03; -2.4108334E-01;7332; -2.5919951E-03;  0.0000000E+00;  4.6600904E-03;  9.9861450E+02;  1.6597667E-01; -1.1478687E+03;3;  3.5232921E+00;  0.0000000E+00; -6.6392380E-01;0;  2.5661163E-02;  1.4577715E+04;  0.0000000E+00;  1.2224867E+00;  4.0000000E+04;  0.0000000E+00;  3.9665062E+04;  3.2717038E-02;  0.0000000E+00; -7.0558749E-03;  4.4783677E+03;
  8.4141785E-01;  9.9999998E-03; -1.3060097E-01;7343; -6.7381761E-03;  0.0000000E+00;  3.2319920E-03;  9.9910577E+02;  1.6605876E-01; -7.4086786E+02;3;  2.8001800E+00;  0.0000000E+00; -4.2594260E-01;0; -2.8573330E-03;  1.4616396E+04;  0.0000000E+00; -8.5430562E-01;  4.0000000E+04;  0.0000000E+00;  3.9651211E+04;  1.7636796E-02;  0.0000000E+00; -2.0494130E-02;  2.0080442E+03;
  8.4053528E-01;  9.9999998E-03; -1.7072557E-01;7339; -6.0490463E-03;  0.0000000E+00;  3.8656520E-03;  9.9943787E+02;  1.6575202E-01; -4.6571518E+02;3;  2.7203460E+00;  0.0000000E+00; -5.0114709E-01;0;  4.6496484E-03;  1.4666165E+04;  0.0000000E+00; -7.1929526E-01;  4.0000000E+04;  0.0000000E+00;  3.9652020E+04;  2.0940574E-02;  0.0000000E+00; -1.6290925E-02;  8.8370776E+02;
  8.4056187E-01;  9.9999998E-03; -1.6070151E-01;7340; -6.2466087E-03;  0.0000000E+00;  3.7158383E-03;  9.9936444E+02;  1.6576836E-01; -5.2655298E+02;3;  2.7542872E+00;  0.0000000E+00; -4.9263912E-01;0;  2.3559388E-03;  1.4665515E+04;  0.0000000E+00; -7.2587556E-01;  4.0000000E+04;  0.0000000E+00;  3.9650867E+04;  1.9773306E-02;  0.0000000E+00; -1.7417368E-02;  1.0677864E+03;
  8.4076709E-01;  9.9999998E-03; -1.5067150E-01;7341; -6.4222063E-03;  0.0000000E+00;  3.5625077E-03;  9.9927606E+02;  1.6584438E-01; -5.9978546E+02;3;  2.7684948E+00;  0.0000000E+00; -4.6874130E-01;0;  3.4570880E-04;  1.4653484E+04;  0.0000000E+00; -7.5441891E-01;  4.0000000E+04;  0.0000000E+00;  3.9650348E+04;  1.8846707E-02;  0.0000000E+00; -1.8500999E-02;  1.3262848E+03;
  8.4108466E-01;  9.9999998E-03; -1.4063287E-01;7342; -6.5848813E-03;  0.0000000E+00;  3.4012287E-03;  9.9918762E+02;  1.6595395E-01; -6.7301794E+02;3;  2.7967799E+00;  0.0000000E+00; -4.5353845E-01;0; -1.3829414E-03;  1.4634905E+04;  0.0000000E+00; -8.0291837E-01;  4.0000000E+04;  0.0000000E+00;  3.9650551E+04;  1.8146854E-02;  0.0000000E+00; -1.9529795E-02;  1.6554526E+03;
  8.4186524E-01;  9.9999998E-03; -2.3105982E-01;7333; -3.4986245E-03;  0.0000000E+00;  4.6535553E-03;  9.9888562E+02;  1.6596627E-01; -9.2323309E+02;3;  3.2175906E+00;  0.0000000E+00; -5.9567046E-01;0;  2.2172336E-02;  1.4588403E+04;  0.0000000E+00;  6.2643594E-01;  4.0000000E+04;  0.0000000E+00;  3.9660781E+04;  3.0938270E-02;  0.0000000E+00; -8.7659350E-03;  2.9996687E+03;
  8.4066278E-01;  9.9999998E-03; -1.8075085E-01;7338; -5.8326493E-03;  0.0000000E+00;  4.0141605E-03;  9.9948730E+02;  1.6578287E-01; -4.2477808E+02;3;  2.7118361E+00;  0.0000000E+00; -5.2013510E-01;0;  7.1926834E-03;  1.4657075E+04;  0.0000000E+00; -7.1509206E-01;  4.0000000E+04;  0.0000000E+00;  3.9653836E+04;  2.2319155E-02;  0.0000000E+00; -1.5126471E-02;  7.6494598E+02;
  8.4165210E-01;  9.9999998E-03; -2.2100218E-01;7334; -4.2015631E-03;  0.0000000E+00;  4.5078211E-03;  9.9917798E+02;  1.6594751E-01; -6.8101770E+02;3;  3.0090294E+00;  0.0000000E+00; -5.7815981E-01;0;  1.9101797E-02;  1.4600375E+04;  0.0000000E+00;  1.0155509E-01;  4.0000000E+04;  0.0000000E+00;  3.9662832E+04;  2.9129900E-02;  0.0000000E+00; -1.0028103E-02;  1.9896642E+03;
  8.4088480E-01;  9.9999998E-03; -1.9078623E-01;7337; -5.5653914E-03;  0.0000000E+00;  4.1581490E-03;  9.9950372E+02;  1.6583627E-01; -4.1114883E+02;3;  2.7033746E+00;  0.0000000E+00; -5.1110536E-01;0;  9.9445954E-03;  1.4642731E+04;  0.0000000E+00; -6.7394841E-01;  4.0000000E+04;  0.0000000E+00;  3.9656777E+04;  2.3869181E-02;  0.0000000E+00; -1.3924586E-02;  7.7187018E+02;
  8.4114391E-01;  9.9999998E-03; -2.0082748E-01;7336; -5.2470663E-03;  0.0000000E+00;  4.2949398E-03;  9.9948553E+02;  1.6588798E-01; -4.2621014E+02;3;  2.7183480E+00;  0.0000000E+00; -5.2624810E-01;0;  1.2854445E-02;  1.4627274E+04;  0.0000000E+00; -5.4777944E-01;  4.0000000E+04;  0.0000000E+00;  3.9661676E+04;  2.5539996E-02;  0.0000000E+00; -1.2685551E-02;  1.1102545E+03;
  8.4139889E-01;  9.9999998E-03; -2.1090078E-01;7335; -4.8030978E-03;  0.0000000E+00;  4.3971222E-03;  9.9939734E+02;  1.6592231E-01; -4.9929449E+02;3;  2.8246975E+00;  0.0000000E+00; -5.4773659E-01;0;  1.5926184E-02;  1.4613539E+04;  0.0000000E+00; -2.9471576E-01;  4.0000000E+04;  0.0000000E+00;  3.9665102E+04;  2.7305540E-02;  0.0000000E+00; -1.1379356E-02;  1.6435463E+03;
  8.5983956E-01;  9.9999998E-03; -1.1075253E-01;7406; -6.9467598E-03;  0.0000000E+00;  3.1438246E-03;  9.9948169E+02;  1.7433594E-01; -4.2941992E+02;3;  2.8750672E+00;  0.0000000E+00; -3.7007394E-01;0;  1.5386939E-04;  1.3295691E+04;  0.0000000E+00; -7.8710318E-01;  4.0000000E+04;  0.0000000E+00;  3.9619246E+04;  2.4797468E-02;  0.0000000E+00; -2.4643598E-02;  1.9646896E+03;
  8.5979605E-01;  9.9999998E-03; -1.2079792E-01;7405; -6.8249763E-03;  0.0000000E+00;  3.3680333E-03;  9.9953418E+02;  1.7432036E-01; -3.8591498E+02;3;  2.8692360E+00;  0.0000000E+00; -4.0639099E-01;0;  1.2139939E-03;  1.3295475E+04;  0.0000000E+00; -7.9629326E-01;  4.0000000E+04;  0.0000000E+00;  3.9618672E+04;  2.4972929E-02;  0.0000000E+00; -2.3758935E-02;  1.7220239E+03;
  8.5958725E-01;  9.9999998E-03; -1.3083795E-01;7404; -6.6904118E-03;  0.0000000E+00;  3.5779199E-03;  9.9958698E+02;  1.7424037E-01; -3.4216315E+02;3;  2.8692105E+00;  0.0000000E+00; -4.3700087E-01;0;  2.3624748E-03;  1.3305411E+04;  0.0000000E+00; -7.8399986E-01;  4.0000000E+04;  0.0000000E+00;  3.9617910E+04;  2.5142960E-02;  0.0000000E+00; -2.2780485E-02;  1.3600238E+03;
  8.5938406E-01;  9.9999998E-03; -1.4089039E-01;7403; -6.5403329E-03;  0.0000000E+00;  3.7787338E-03;  9.9964624E+02;  1.7416176E-01; -2.9307809E+02;3;  2.8540711E+00;  0.0000000E+00; -4.5618537E-01;0;  3.6829729E-03;  1.3315436E+04;  0.0000000E+00; -7.7684760E-01;  4.0000000E+04;  0.0000000E+00;  3.9617418E+04;  2.5406260E-02;  0.0000000E+00; -2.1723287E-02;  1.0040078E+03;
  8.5922819E-01;  9.9999998E-03; -1.5093350E-01;7402; -6.3740024E-03;  0.0000000E+00;  3.9723245E-03;  9.9971307E+02;  1.7409930E-01; -2.3772165E+02;3;  2.8431544E+00;  0.0000000E+00; -4.7670689E-01;0;  5.2006319E-03;  1.3323245E+04;  0.0000000E+00; -8.0622506E-01;  4.0000000E+04;  0.0000000E+00;  3.9617086E+04;  2.5786178E-02;  0.0000000E+00; -2.0585546E-02;  7.7681781E+02;
  8.5913706E-01;  9.9999998E-03; -1.6096328E-01;7401; -6.1841356E-03;  0.0000000E+00;  4.1587870E-03;  9.9976941E+02;  1.7405508E-01; -1.9105630E+02;3;  2.8348832E+00;  0.0000000E+00; -4.8540613E-01;0;  6.9188811E-03;  1.3327636E+04;  0.0000000E+00; -8.9478856E-01;  4.0000000E+04;  0.0000000E+00;  3.9617441E+04;  2.6289556E-02;  0.0000000E+00; -1.9370675E-02;  7.3326562E+02;
  8.5910630E-01;  9.9999998E-03; -1.7098004E-01;7400; -5.9716627E-03;  0.0000000E+00;  4.3456834E-03;  9.9980914E+02;  1.7402804E-01; -1.5811897E+02;3;  2.8347671E+00;  0.0000000E+00; -4.9416450E-01;0;  8.8162441E-03;  1.3329176E+04;  0.0000000E+00; -1.0408871E+00;  4.0000000E+04;  0.0000000E+00;  3.9617965E+04;  2.6907763E-02;  0.0000000E+00; -1.8091518E-02;  9.0630237E+02;
  8.5909182E-01;  9.9999998E-03; -1.8099110E-01;7399; -5.7089296E-03;  0.0000000E+00;  4.5210952E-03;  9.9980713E+02;  1.7399713E-01; -1.5979794E+02;3;  2.8588839E+00;  0.0000000E+00; -5.1014185E-01;0;  1.0862296E-02;  1.3330592E+04;  0.0000000E+00; -1.2099100E+00;  4.0000000E+04;  0.0000000E+00;  3.9619430E+04;  2.7624607E-02;  0.0000000E+00; -1.6762311E-02;  1.2634608E+03;
  8.5905308E-01;  9.9999998E-03; -1.9100747E-01;7398; -5.3915195E-03;  0.0000000E+00;  4.6959510E-03;  9.9975543E+02;  1.7393865E-01; -2.0261154E+02;3;  2.8778119E+00;  0.0000000E+00; -4.7859865E-01;0;  1.3028375E-02;  1.3334558E+04;  0.0000000E+00; -1.3386736E+00;  4.0000000E+04;  0.0000000E+00;  3.9621051E+04;  2.8428314E-02;  0.0000000E+00; -1.5399939E-02;  1.6242992E+03;
  8.5892141E-01;  9.9999998E-03; -2.0102315E-01;7397; -5.0067347E-03;  0.0000000E+00;  4.8614470E-03;  9.9965363E+02;  1.7383802E-01; -2.8695483E+02;3;  2.9339619E+00;  0.0000000E+00; -4.8858795E-01;0;  1.5278375E-02;  1.3344216E+04;  0.0000000E+00; -1.3422161E+00;  4.0000000E+04;  0.0000000E+00;  3.9624113E+04;  2.9302645E-02;  0.0000000E+00; -1.4024271E-02;  1.7491227E+03;
  8.5875624E-01;  9.9999998E-03; -2.1105112E-01;7396; -4.5070485E-03;  0.0000000E+00;  4.9936692E-03;  9.9950079E+02;  1.7371981E-01; -4.1356851E+02;3;  3.0616984E+00;  0.0000000E+00; -5.1463902E-01;0;  1.7638471E-02;  1.3355741E+04;  0.0000000E+00; -1.1526220E+00;  4.0000000E+04;  0.0000000E+00;  3.9627945E+04;  3.0281913E-02;  0.0000000E+00; -1.2643441E-02;  1.5356428E+03;
  8.5859990E-01;  9.9999998E-03; -2.2110537E-01;7395; -3.8484226E-03;  0.0000000E+00;  5.1060449E-03;  9.9925378E+02;  1.7360167E-01; -6.1820471E+02;3;  3.2669492E+00;  0.0000000E+00; -5.4923153E-01;0;  2.0114731E-02;  1.3365959E+04;  0.0000000E+00; -7.3731464E-01;  4.0000000E+04;  0.0000000E+00;  3.9629629E+04;  3.1381834E-02;  0.0000000E+00; -1.1267102E-02;  1.0842465E+03;
  8.5846835E-01;  9.9999998E-03; -2.3114468E-01;7394; -3.0488123E-03;  0.0000000E+00;  5.1839170E-03;  9.9896680E+02;  1.7350204E-01; -8.5597571E+02;3;  3.5440912E+00;  0.0000000E+00; -5.9618992E-01;0;  2.2712247E-02;  1.3373204E+04;  0.0000000E+00; -1.2138379E-01;  4.0000000E+04;  0.0000000E+00;  3.9632031E+04;  3.2570109E-02;  0.0000000E+00; -9.8578613E-03;  1.8609996E+03;
  8.5836101E-01;  9.9999998E-03; -2.4117634E-01;7393; -2.1135793E-03;  0.0000000E+00;  5.1918845E-03;  9.9863599E+02;  1.7342499E-01; -1.1300420E+03;3;  3.8673484E+00;  0.0000000E+00; -6.7518055E-01;0;  2.5630690E-02;  1.3377270E+04;  0.0000000E+00;  6.0188323E-01;  4.0000000E+04;  0.0000000E+00;  3.9636426E+04;  3.3813912E-02;  0.0000000E+00; -8.1832232E-03;  3.3928503E+03;
  8.5831594E-01;  9.9999998E-03; -2.5120983E-01;7392; -1.1192554E-03;  0.0000000E+00;  5.1813205E-03;  9.9826056E+02;  1.7338832E-01; -1.4410950E+03;3;  4.1733465E+00;  0.0000000E+00; -7.5193101E-01;0;  2.8819850E-02;  1.3374808E+04;  0.0000000E+00;  1.2494088E+00;  4.0000000E+04;  0.0000000E+00;  3.9640445E+04;  3.5052646E-02;  0.0000000E+00; -6.2327958E-03;  4.4475449E+03;
  8.5833329E-01;  9.9999998E-03; -2.6124293E-01;7391; -1.3992807E-04;  0.0000000E+00;  5.2043614E-03;  9.9783832E+02;  1.7338814E-01; -1.7909122E+03;3;  4.4855447E+00;  0.0000000E+00; -8.1372517E-01;0;  3.1854175E-02;  1.3366129E+04;  0.0000000E+00;  1.5670626E+00;  4.0000000E+04;  0.0000000E+00;  3.9644473E+04;  3.6223732E-02;  0.0000000E+00; -4.3695555E-03;  4.2892236E+03;
  8.5856462E-01;  9.9999998E-03; -2.7127627E-01;7390;  8.5827574E-04;  0.0000000E+00;  5.2100765E-03;  9.9739172E+02;  1.7348425E-01; -2.1609263E+03;3;  4.7049727E+00;  0.0000000E+00; -8.5417706E-01;0;  3.5026349E-02;  1.3341609E+04;  0.0000000E+00;  1.3976536E+00;  4.0000000E+04;  0.0000000E+00;  3.9648879E+04;  3.7337348E-02;  0.0000000E+00; -2.3109987E-03;  3.6138760E+03;
  8.7729532E-01;  9.9999998E-03; -1.1075336E-01;7467; -6.7373244E-03;  0.0000000E+00;  3.4198130E-03;  9.9996655E+02;  1.8275844E-01; -2.7702919E+01;3;  3.0148709E+00;  0.0000000E+00; -3.7191954E-01;0;  8.3913598E-03;  1.2125341E+04;  0.0000000E+00; -6.2777561E-01;  4.0000000E+04;  0.0000000E+00;  3.9586520E+04;  3.5613239E-02;  0.0000000E+00; -2.7221879E-02;  1.0853297E+03;
  8.7737280E-01;  9.9999998E-03; -1.2080662E-01;7466; -6.6306931E-03;  0.0000000E+00;  3.6815214E-03;  1.0000230E+03;  1.8278958E-01;  1.9061188E+01;3;  3.0066137E+00;  0.0000000E+00; -4.0018722E-01;0;  9.4040167E-03;  1.2118070E+04;  0.0000000E+00; -6.5882164E-01;  4.0000000E+04;  0.0000000E+00;  3.9585059E+04;  3.5723910E-02;  0.0000000E+00; -2.6319893E-02;  8.3116614E+02;
  8.7736005E-01;  9.9999998E-03; -1.3086157E-01;7465; -6.5040416E-03;  0.0000000E+00;  3.9329901E-03;  1.0000870E+03;  1.8278068E-01;  7.2096718E+01;3;  3.0009775E+00;  0.0000000E+00; -4.1990051E-01;0;  1.0438852E-02;  1.2117041E+04;  0.0000000E+00; -6.8456775E-01;  4.0000000E+04;  0.0000000E+00;  3.9583605E+04;  3.5751376E-02;  0.0000000E+00; -2.5312524E-02;  5.7675079E+02;
  8.7727064E-01;  9.9999998E-03; -1.4091541E-01;7464; -6.3549681E-03;  0.0000000E+00;  4.1751685E-03;  1.0001676E+03;  1.8273625E-01;  1.3886026E+02;3;  3.0050499E+00;  0.0000000E+00; -4.4549829E-01;0;  1.1507098E-02;  1.2121418E+04;  0.0000000E+00; -7.3196888E-01;  4.0000000E+04;  0.0000000E+00;  3.9582047E+04;  3.5701126E-02;  0.0000000E+00; -2.4194028E-02;  5.6123779E+02;
  8.7713736E-01;  9.9999998E-03; -1.5096301E-01;7463; -6.1754980E-03;  0.0000000E+00;  4.4071181E-03;  1.0002526E+03;  1.8266727E-01;  2.0927802E+02;3;  3.0147836E+00;  0.0000000E+00; -4.6466705E-01;0;  1.2635557E-02;  1.2129386E+04;  0.0000000E+00; -8.3044660E-01;  4.0000000E+04;  0.0000000E+00;  3.9581059E+04;  3.5597261E-02;  0.0000000E+00; -2.2961704E-02;  6.8136688E+02;
  8.7700576E-01;  9.9999998E-03; -1.6099927E-01;7462; -5.9627998E-03;  0.0000000E+00;  4.6332302E-03;  1.0003297E+03;  1.8259618E-01;  2.7317743E+02;3;  3.0246468E+00;  0.0000000E+00; -4.7555578E-01;0;  1.3849797E-02;  1.2137766E+04;  0.0000000E+00; -9.9954128E-01;  4.0000000E+04;  0.0000000E+00;  3.9581074E+04;  3.5476226E-02;  0.0000000E+00; -2.1626430E-02;  7.7375598E+02;
  8.7693971E-01;  9.9999998E-03; -1.7102502E-01;7461; -5.7034059E-03;  0.0000000E+00;  4.8531452E-03;  1.0003790E+03;  1.8255143E-01;  3.1406516E+02;3;  3.0476353E+00;  0.0000000E+00; -4.7706386E-01;0;  1.5177818E-02;  1.2142683E+04;  0.0000000E+00; -1.2358342E+00;  4.0000000E+04;  0.0000000E+00;  3.9581492E+04;  3.5394087E-02;  0.0000000E+00; -2.0216269E-02;  1.0398097E+03;
  8.7693435E-01;  9.9999998E-03; -1.8104500E-01;7460; -5.3844014E-03;  0.0000000E+00;  5.0671170E-03;  1.0003925E+03;  1.8252826E-01;  3.2512659E+02;3;  3.0874534E+00;  0.0000000E+00; -4.7512510E-01;0;  1.6614942E-02;  1.2144343E+04;  0.0000000E+00; -1.5030861E+00;  4.0000000E+04;  0.0000000E+00;  3.9582516E+04;  3.5373624E-02;  0.0000000E+00; -1.8758683E-02;  1.6200907E+03;
  8.7694997E-01;  9.9999998E-03; -1.9106823E-01;7459; -4.9992315E-03;  0.0000000E+00;  5.2772742E-03;  1.0003449E+03;  1.8250385E-01;  2.8572031E+02;3;  3.1450911E+00;  0.0000000E+00; -4.4315368E-01;0;  1.8144278E-02;  1.2145366E+04;  0.0000000E+00; -1.7366174E+00;  4.0000000E+04;  0.0000000E+00;  3.9584254E+04;  3.5426240E-02;  0.0000000E+00; -1.7281963E-02;  2.2890208E+03;
  8.7696844E-01;  9.9999998E-03; -2.0110092E-01;7458; -4.5351069E-03;  0.0000000E+00;  5.4686842E-03;  1.0002354E+03;  1.8246844E-01;  1.9505620E+02;3;  3.2728646E+00;  0.0000000E+00; -4.6030122E-01;0;  1.9763121E-02;  1.2146623E+04;  0.0000000E+00; -1.8600447E+00;  4.0000000E+04;  0.0000000E+00;  3.9587082E+04;  3.5579614E-02;  0.0000000E+00; -1.5816493E-02;  2.7519587E+03;
  8.7697595E-01;  9.9999998E-03; -2.1114245E-01;7457; -3.9602127E-03;  0.0000000E+00;  5.6186593E-03;  1.0000505E+03;  1.8241771E-01;  4.1776592E+01;3;  3.4400699E+00;  0.0000000E+00; -4.8285535E-01;0;  2.1497101E-02;  1.2148396E+04;  0.0000000E+00; -1.8077009E+00;  4.0000000E+04;  0.0000000E+00;  3.9590680E+04;  3.5865564E-02;  0.0000000E+00; -1.4368462E-02;  2.8048423E+03;
  8.7696850E-01;  9.9999998E-03; -2.2120732E-01;7456; -3.2483395E-03;  0.0000000E+00;  5.7435841E-03;  9.9975751E+02;  1.8235521E-01; -2.0088319E+02;3;  3.6667597E+00;  0.0000000E+00; -5.3104919E-01;0;  2.3361340E-02;  1.2150312E+04;  0.0000000E+00; -1.5405731E+00;  4.0000000E+04;  0.0000000E+00;  3.9591957E+04;  3.6312714E-02;  0.0000000E+00; -1.2951375E-02;  2.3094460E+03;
  8.7689078E-01;  9.9999998E-03; -2.3125951E-01;7455; -2.4483493E-03;  0.0000000E+00;  5.8577890E-03;  9.9939496E+02;  1.8226907E-01; -5.0126974E+02;3;  3.9365540E+00;  0.0000000E+00; -5.7838601E-01;0;  2.5274232E-02;  1.2154916E+04;  0.0000000E+00; -1.0574253E+00;  4.0000000E+04;  0.0000000E+00;  3.9593371E+04;  3.6885150E-02;  0.0000000E+00; -1.1610919E-02;  1.4397732E+03;
  8.7672496E-01;  9.9999998E-03; -2.4129337E-01;7454; -1.5577577E-03;  0.0000000E+00;  5.8823437E-03;  9.9902069E+02;  1.8215969E-01; -8.1133502E+02;3;  4.2292790E+00;  0.0000000E+00; -6.5450269E-01;0;  2.7522808E-02;  1.2162599E+04;  0.0000000E+00; -4.3055591E-01;  4.0000000E+04;  0.0000000E+00;  3.9598367E+04;  3.7572302E-02;  0.0000000E+00; -1.0049494E-02;  1.3823251E+03;
  8.7659413E-01;  9.9999998E-03; -2.5132808E-01;7453; -6.2784867E-04;  0.0000000E+00;  5.8760601E-03;  9.9859644E+02;  1.8209074E-01; -1.1628312E+03;3;  4.5313239E+00;  0.0000000E+00; -7.3235297E-01;0;  3.0125942E-02;  1.2165188E+04;  0.0000000E+00;  1.4898099E-01;  4.0000000E+04;  0.0000000E+00;  3.9603504E+04;  3.8369544E-02;  0.0000000E+00; -8.2436008E-03;  2.0877263E+03;
  8.7686974E-01;  9.9999998E-03; -2.6136503E-01;7452;  2.7942928E-04;  0.0000000E+00;  5.9112967E-03;  9.9810748E+02;  1.8223773E-01; -1.5679061E+03;3;  4.7566900E+00;  0.0000000E+00; -7.8206253E-01;0;  3.2752283E-02;  1.2138225E+04;  0.0000000E+00;  4.2721844E-01;  4.0000000E+04;  0.0000000E+00;  3.9608098E+04;  3.9325275E-02;  0.0000000E+00; -6.5729925E-03;  2.7266948E+03;
  8.7731743E-01;  9.9999998E-03; -2.7140248E-01;7451;  1.1791725E-03;  0.0000000E+00;  5.9728650E-03;  9.9760651E+02;  1.8247740E-01; -1.9829561E+03;3;  5.0015826E+00;  0.0000000E+00; -8.2246625E-01;0;  3.5132069E-02;  1.2098249E+04;  0.0000000E+00;  4.4060194E-01;  4.0000000E+04;  0.0000000E+00;  3.9612195E+04;  4.0367059E-02;  0.0000000E+00; -5.2349912E-03;  4.4912842E+03;
  8.9624029E-01;  9.9999998E-03; -2.7153096E-01;7512;  1.7216777E-03;  0.0000000E+00;  6.7176060E-03;  9.9811816E+02;  1.9199100E-01; -1.5590669E+03;3;  5.3288240E+00;  0.0000000E+00; -8.0961657E-01;0;  4.2251457E-02;  1.0966244E+04;  0.0000000E+00; -4.4386557E-01;  4.0000000E+04;  0.0000000E+00;  3.9571203E+04;  4.9892005E-02;  0.0000000E+00; -7.6405490E-03;  6.2087827E+03;
  8.9573276E-01;  9.9999998E-03; -2.6149097E-01;7513;  8.8977732E-04;  0.0000000E+00;  6.6479519E-03;  9.9864203E+02;  1.9173323E-01; -1.1250546E+03;3;  5.1230011E+00;  0.0000000E+00; -7.7041692E-01;0;  3.9530549E-02;  1.1003502E+04;  0.0000000E+00; -2.6026621E-01;  4.0000000E+04;  0.0000000E+00;  3.9566844E+04;  4.8479576E-02;  0.0000000E+00; -8.9490255E-03;  3.0277622E+03;
  8.9517140E-01;  9.9999998E-03; -2.5145108E-01;7514;  5.4288834E-05;  0.0000000E+00;  6.6055614E-03;  9.9915991E+02;  1.9143374E-01; -6.9598029E+02;3;  4.8815575E+00;  0.0000000E+00; -7.1269870E-01;0;  3.6615361E-02;  1.1044041E+04;  0.0000000E+00; -3.3294946E-01;  4.0000000E+04;  0.0000000E+00;  3.9562246E+04;  4.7215126E-02;  0.0000000E+00; -1.0599766E-02;  1.3212935E+03;
  8.9517558E-01;  9.9999998E-03; -2.4141327E-01;7515; -7.9728849E-04;  0.0000000E+00;  6.5968088E-03;  9.9955969E+02;  1.9141844E-01; -3.6477979E+02;3;  4.6505070E+00;  0.0000000E+00; -6.4581257E-01;0;  3.4176338E-02;  1.1049304E+04;  0.0000000E+00; -6.7943275E-01;  4.0000000E+04;  0.0000000E+00;  3.9557066E+04;  4.6494827E-02;  0.0000000E+00; -1.2318489E-02;  7.0808319E+02;
  8.9534944E-01;  9.9999998E-03; -2.3137099E-01;7516; -1.6049307E-03;  0.0000000E+00;  6.5269968E-03;  9.9990009E+02;  1.9151023E-01; -8.2763084E+01;3;  4.3887601E+00;  0.0000000E+00; -5.7442397E-01;0;  3.2373957E-02;  1.1041942E+04;  0.0000000E+00; -1.1624398E+00;  4.0000000E+04;  0.0000000E+00;  3.9552938E+04;  4.6107654E-02;  0.0000000E+00; -1.3733698E-02;  1.3775546E+03;
  8.9544094E-01;  9.9999998E-03; -2.2129191E-01;7517; -2.3764139E-03;  0.0000000E+00;  6.3678944E-03;  1.0002505E+03;  1.9158123E-01;  2.0759904E+02;3;  4.1516051E+00;  0.0000000E+00; -5.3788739E-01;0;  3.0868255E-02;  1.1037398E+04;  0.0000000E+00; -1.5818034E+00;  4.0000000E+04;  0.0000000E+00;  3.9554883E+04;  4.5906052E-02;  0.0000000E+00; -1.5037798E-02;  2.3460991E+03;
  8.9543182E-01;  9.9999998E-03; -2.1119152E-01;7518; -3.1312837E-03;  0.0000000E+00;  6.2405779E-03;  1.0005112E+03;  1.9161187E-01;  4.2349417E+02;3;  3.9147689E+00;  0.0000000E+00; -4.8503527E-01;0;  2.9333381E-02;  1.1036864E+04;  0.0000000E+00; -1.8296499E+00;  4.0000000E+04;  0.0000000E+00;  3.9555340E+04;  4.5874257E-02;  0.0000000E+00; -1.6540876E-02;  2.8987136E+03;
  8.9541203E-01;  9.9999998E-03; -2.0112099E-01;7519; -3.7672671E-03;  0.0000000E+00;  6.0978788E-03;  1.0006359E+03;  1.9163433E-01;  5.2679987E+02;3;  3.7196443E+00;  0.0000000E+00; -4.4284576E-01;0;  2.8008837E-02;  1.1036235E+04;  0.0000000E+00; -1.8929300E+00;  4.0000000E+04;  0.0000000E+00;  3.9551250E+04;  4.6090610E-02;  0.0000000E+00; -1.8081773E-02;  2.8921453E+03;
  8.9540070E-01;  9.9999998E-03; -1.9107565E-01;7520; -4.2971661E-03;  0.0000000E+00;  5.9068380E-03;  1.0006711E+03;  1.9164902E-01;  5.5603363E+02;3;  3.6116915E+00;  0.0000000E+00; -4.6398458E-01;0;  2.6886286E-02;  1.1034758E+04;  0.0000000E+00; -1.7969168E+00;  4.0000000E+04;  0.0000000E+00;  3.9546969E+04;  4.6521865E-02;  0.0000000E+00; -1.9635579E-02;  2.5046230E+03;
  8.9541829E-01;  9.9999998E-03; -1.8105161E-01;7521; -4.7369152E-03;  0.0000000E+00;  5.6854105E-03;  1.0006408E+03;  1.9166999E-01;  5.3084912E+02;3;  3.4999859E+00;  0.0000000E+00; -4.4463137E-01;0;  2.5918486E-02;  1.1031582E+04;  0.0000000E+00; -1.5919576E+00;  4.0000000E+04;  0.0000000E+00;  3.9544207E+04;  4.7121577E-02;  0.0000000E+00; -2.1203091E-02;  1.9372494E+03;
  8.9547199E-01;  9.9999998E-03; -1.7102695E-01;7522; -5.1037865E-03;  0.0000000E+00;  5.4366556E-03;  1.0005663E+03;  1.9170292E-01;  4.6912250E+02;3;  3.4306688E+00;  0.0000000E+00; -4.4305146E-01;0;  2.5067445E-02;  1.1026433E+04;  0.0000000E+00; -1.3403646E+00;  4.0000000E+04;  0.0000000E+00;  3.9542668E+04;  4.7822639E-02;  0.0000000E+00; -2.2755194E-02;  1.4448521E+03;
  8.9551270E-01;  9.9999998E-03; -1.6097467E-01;7523; -5.4142028E-03;  0.0000000E+00;  5.1744375E-03;  1.0004481E+03;  1.9173066E-01;  3.7124872E+02;3;  3.3768394E+00;  0.0000000E+00; -4.3333703E-01;0;  2.4265772E-02;  1.1021742E+04;  0.0000000E+00; -1.0960129E+00;  4.0000000E+04;  0.0000000E+00;  3.9542914E+04;  4.8514925E-02;  0.0000000E+00; -2.4249153E-02;  1.2029672E+03;
  8.9563560E-01;  9.9999998E-03; -1.5091254E-01;7524; -5.6565483E-03;  0.0000000E+00;  4.9002222E-03;  1.0003228E+03;  1.9179848E-01;  2.6735043E+02;3;  3.3352535E+00;  0.0000000E+00; -4.1385564E-01;0;  2.3550523E-02;  1.1012942E+04;  0.0000000E+00; -8.9282215E-01;  4.0000000E+04;  0.0000000E+00;  3.9543562E+04;  4.9208734E-02;  0.0000000E+00; -2.5658211E-02;  1.1005378E+03;
  8.9582002E-01;  9.9999998E-03; -1.4084069E-01;7525; -5.8476538E-03;  0.0000000E+00;  4.6174866E-03;  1.0002045E+03;  1.9189313E-01;  1.6937791E+02;3;  3.3154163E+00;  0.0000000E+00; -4.0162361E-01;0;  2.2884497E-02;  1.1001821E+04;  0.0000000E+00; -7.3938709E-01;  4.0000000E+04;  0.0000000E+00;  3.9545305E+04;  4.9841404E-02;  0.0000000E+00; -2.6956907E-02;  9.2318707E+02;
  8.9601022E-01;  9.9999998E-03; -1.3076536E-01;7526; -5.9959115E-03;  0.0000000E+00;  4.3272688E-03;  1.0001114E+03;  1.9198896E-01;  9.2244301E+01;3;  3.2942400E+00;  0.0000000E+00; -3.7500882E-01;0;  2.2211708E-02;  1.0991441E+04;  0.0000000E+00; -6.2770760E-01;  4.0000000E+04;  0.0000000E+00;  3.9547195E+04;  5.0344359E-02;  0.0000000E+00; -2.8132651E-02;  6.3453198E+02;
  8.9615697E-01;  9.9999998E-03; -1.2069993E-01;7527; -6.1099809E-03;  0.0000000E+00;  4.0290039E-03;  1.0000302E+03;  1.9206555E-01;  2.4986946E+01;3;  3.2810559E+00;  0.0000000E+00; -3.5335246E-01;0;  2.1485494E-02;  1.0984501E+04;  0.0000000E+00; -5.4241115E-01;  4.0000000E+04;  0.0000000E+00;  3.9549273E+04;  5.0671231E-02;  0.0000000E+00; -2.9185737E-02;  3.1182532E+02;
  8.9621341E-01;  9.9999998E-03; -1.1065365E-01;7528; -6.2009436E-03;  0.0000000E+00;  3.7231490E-03;  9.9997327E+02;  1.9210176E-01; -2.2172211E+01;3;  3.2754605E+00;  0.0000000E+00; -3.3211151E-01;0;  2.0674370E-02;  1.0983104E+04;  0.0000000E+00; -4.6805787E-01;  4.0000000E+04;  0.0000000E+00;  3.9550977E+04;  5.0791249E-02;  0.0000000E+00; -3.0116878E-02;  5.7461239E+01;
  9.1670805E-01;  9.9999998E-03; -2.7165571E-01;7573;  2.0316020E-03;  0.0000000E+00;  7.6605799E-03;  9.9775372E+02;  2.0254900E-01; -1.8609843E+03;3;  5.5435162E+00;  0.0000000E+00; -7.5530285E-01;0;  5.7318278E-02;  9.8591426E+03;  0.0000000E+00; -5.0129551E-01;  4.0000000E+04;  0.0000000E+00;  3.9537293E+04;  6.9311231E-02;  0.0000000E+00; -1.1992954E-02;  4.3690981E+03;
  9.1625398E-01;  9.9999998E-03; -2.6161149E-01;7574;  1.2630351E-03;  0.0000000E+00;  7.6085096E-03;  9.9831622E+02;  2.0229708E-01; -1.3949728E+03;3;  5.3531489E+00;  0.0000000E+00; -7.1175128E-01;0;  5.3834148E-02;  9.8916045E+03;  0.0000000E+00; -4.5542845E-01;  4.0000000E+04;  0.0000000E+00;  3.9532148E+04;  6.7085721E-02;  0.0000000E+00; -1.3251574E-02;  2.8470398E+03;
  9.1581857E-01;  9.9999998E-03; -2.5156716E-01;7575;  4.8854406E-04;  0.0000000E+00;  7.5799502E-03;  9.9883289E+02;  2.0204093E-01; -9.6693555E+02;3;  5.1548777E+00;  0.0000000E+00; -6.4645618E-01;0;  5.0507575E-02;  9.9225635E+03;  0.0000000E+00; -5.2401328E-01;  4.0000000E+04;  0.0000000E+00;  3.9526426E+04;  6.5202914E-02;  0.0000000E+00; -1.4695339E-02;  1.7206849E+03;
  9.1573852E-01;  9.9999998E-03; -2.4152163E-01;7576; -2.4932800E-04;  0.0000000E+00;  7.5270436E-03;  9.9925800E+02;  2.0196849E-01; -6.1474799E+02;3;  4.9346151E+00;  0.0000000E+00; -5.7641172E-01;0;  4.8129145E-02;  9.9329082E+03;  0.0000000E+00; -7.0041209E-01;  4.0000000E+04;  0.0000000E+00;  3.9520641E+04;  6.4053901E-02;  0.0000000E+00; -1.5924755E-02;  1.0183423E+03;
  9.1582406E-01;  9.9999998E-03; -2.3146845E-01;7577; -9.2030363E-04;  0.0000000E+00;  7.4111647E-03;  9.9960126E+02;  2.0199654E-01; -3.3036099E+02;3;  4.7262511E+00;  0.0000000E+00; -5.2983910E-01;0;  4.6423271E-02;  9.9320830E+03;  0.0000000E+00; -9.3931240E-01;  4.0000000E+04;  0.0000000E+00;  3.9516062E+04;  6.3435681E-02;  0.0000000E+00; -1.7012410E-02;  1.0638258E+03;
  9.1576505E-01;  9.9999998E-03; -2.2137366E-01;7578; -1.5580318E-03;  0.0000000E+00;  7.1950788E-03;  9.9994104E+02;  2.0197153E-01; -4.8838120E+01;3;  4.5588970E+00;  0.0000000E+00; -4.8913556E-01;0;  4.4943620E-02;  9.9368672E+03;  0.0000000E+00; -1.1700873E+00;  4.0000000E+04;  0.0000000E+00;  3.9517941E+04;  6.3021116E-02;  0.0000000E+00; -1.8077496E-02;  1.5295951E+03;
  9.1556293E-01;  9.9999998E-03; -2.1125652E-01;7579; -2.2032990E-03;  0.0000000E+00;  7.0206132E-03;  1.0001852E+03;  2.0188989E-01;  1.5347713E+02;3;  4.4119811E+00;  0.0000000E+00; -4.5318970E-01;0;  4.3346040E-02;  9.9470059E+03;  0.0000000E+00; -1.3375024E+00;  4.0000000E+04;  0.0000000E+00;  3.9517793E+04;  6.2802777E-02;  0.0000000E+00; -1.9456735E-02;  1.7893406E+03;
  9.1522104E-01;  9.9999998E-03; -2.0117033E-01;7580; -2.7963198E-03;  0.0000000E+00;  6.8479492E-03;  1.0002631E+03;  2.0174253E-01;  2.1796913E+02;3;  4.2640591E+00;  0.0000000E+00; -4.5456749E-01;0;  4.1841798E-02;  9.9617891E+03;  0.0000000E+00; -1.4247637E+00;  4.0000000E+04;  0.0000000E+00;  3.9513527E+04;  6.2773071E-02;  0.0000000E+00; -2.0931272E-02;  1.7932455E+03;
  9.1481668E-01;  9.9999998E-03; -1.9110037E-01;7581; -3.3088161E-03;  0.0000000E+00;  6.6219261E-03;  1.0002400E+03;  2.0156506E-01;  1.9880917E+02;3;  4.1011267E+00;  0.0000000E+00; -4.2332950E-01;0;  4.0534876E-02;  9.9782002E+03;  0.0000000E+00; -1.4345975E+00;  4.0000000E+04;  0.0000000E+00;  3.9509148E+04;  6.2964089E-02;  0.0000000E+00; -2.2429213E-02;  1.7733505E+03;
  9.1456145E-01;  9.9999998E-03; -1.8104537E-01;7582; -3.7380243E-03;  0.0000000E+00;  6.3567092E-03;  1.0001624E+03;  2.0145521E-01;  1.3451471E+02;3;  4.0111785E+00;  0.0000000E+00; -3.9995366E-01;0;  3.9528027E-02;  9.9870537E+03;  0.0000000E+00; -1.3717761E+00;  4.0000000E+04;  0.0000000E+00;  3.9506246E+04;  6.3501380E-02;  0.0000000E+00; -2.3973353E-02;  1.6862310E+03;
  9.1446173E-01;  9.9999998E-03; -1.7098895E-01;7583; -4.0988885E-03;  0.0000000E+00;  6.0652317E-03;  1.0000447E+03;  2.0141892E-01;  3.7035988E+01;3;  3.9436374E+00;  0.0000000E+00; -4.0306309E-01;0;  3.8767859E-02;  9.9882178E+03;  0.0000000E+00; -1.2546736E+00;  4.0000000E+04;  0.0000000E+00;  3.9505148E+04;  6.4296223E-02;  0.0000000E+00; -2.5528362E-02;  1.5263635E+03;
  9.1449606E-01;  9.9999998E-03; -1.6092341E-01;7584; -4.3989834E-03;  0.0000000E+00;  5.7581025E-03;  9.9990729E+02;  2.0144808E-01; -7.6787949E+01;3;  3.8694074E+00;  0.0000000E+00; -3.7957320E-01;0;  3.8189344E-02;  9.9828594E+03;  0.0000000E+00; -1.1057581E+00;  4.0000000E+04;  0.0000000E+00;  3.9505602E+04;  6.5231681E-02;  0.0000000E+00; -2.7042335E-02;  1.3611324E+03;
  9.1464043E-01;  9.9999998E-03; -1.5085055E-01;7585; -4.6313275E-03;  0.0000000E+00;  5.4355855E-03;  9.9976239E+02;  2.0153262E-01; -1.9683392E+02;3;  3.8207033E+00;  0.0000000E+00; -3.6438674E-01;0;  3.7727512E-02;  9.9723545E+03;  0.0000000E+00; -9.4296288E-01;  4.0000000E+04;  0.0000000E+00;  3.9507133E+04;  6.6195548E-02;  0.0000000E+00; -2.8468033E-02;  1.2337202E+03;
  9.1486722E-01;  9.9999998E-03; -1.4077482E-01;7586; -4.8107523E-03;  0.0000000E+00;  5.1006367E-03;  9.9962946E+02;  2.0166172E-01; -3.0700363E+02;3;  3.7950635E+00;  0.0000000E+00; -3.5664454E-01;0;  3.7310563E-02;  9.9583867E+03;  0.0000000E+00; -7.7871943E-01;  4.0000000E+04;  0.0000000E+00;  3.9509277E+04;  6.7086637E-02;  0.0000000E+00; -2.9776072E-02;  1.1731340E+03;
  9.1512579E-01;  9.9999998E-03; -1.3069929E-01;7587; -4.9559153E-03;  0.0000000E+00;  4.7590639E-03;  9.9951495E+02;  2.0180783E-01; -4.0186514E+02;3;  3.7776206E+00;  0.0000000E+00; -3.3859888E-01;0;  3.6853734E-02;  9.9437158E+03;  0.0000000E+00; -6.2208998E-01;  4.0000000E+04;  0.0000000E+00;  3.9511500E+04;  6.7810766E-02;  0.0000000E+00; -3.0957032E-02;  1.1938182E+03;
  9.1536385E-01;  9.9999998E-03; -1.2062994E-01;7588; -5.0774375E-03;  0.0000000E+00;  4.4128257E-03;  9.9942285E+02;  2.0194417E-01; -4.7815927E+02;3;  3.7578356E+00;  0.0000000E+00; -3.1824404E-01;0;  3.6289912E-02;  9.9310000E+03;  0.0000000E+00; -4.8029307E-01;  4.0000000E+04;  0.0000000E+00;  3.9513387E+04;  6.8303764E-02;  0.0000000E+00; -3.2013852E-02;  1.2521246E+03;
  9.1553777E-01;  9.9999998E-03; -1.1057474E-01;7589; -5.1809968E-03;  0.0000000E+00;  4.0619657E-03;  9.9934760E+02;  2.0204930E-01; -5.4052789E+02;3;  3.7370484E+00;  0.0000000E+00; -3.0128366E-01;0;  3.5585910E-02;  9.9225322E+03;  0.0000000E+00; -3.5837638E-01;  4.0000000E+04;  0.0000000E+00;  3.9514750E+04;  6.8535209E-02;  0.0000000E+00; -3.2949299E-02;  1.2700582E+03;
  9.3828148E-01;  9.9999998E-03; -2.6173076E-01;7635;  1.5729765E-03;  0.0000000E+00;  8.6195106E-03;  9.9749249E+02;  2.1408853E-01; -2.0774226E+03;3;  5.4914808E+00;  0.0000000E+00; -5.7791042E-01;0;  7.8084648E-02;  8.8245703E+03;  0.0000000E+00; -6.2275970E-01;  4.0000000E+04;  0.0000000E+00;  3.9499020E+04;  9.6421428E-02;  0.0000000E+00; -1.8336784E-02;  3.4716704E+03;
  9.3790621E-01;  9.9999998E-03; -2.5168198E-01;7636;  8.3753484E-04;  0.0000000E+00;  8.5807061E-03;  9.9806970E+02;  2.1386153E-01; -1.5992139E+03;3;  5.2875695E+00;  0.0000000E+00; -5.1307344E-01;0;  7.4121177E-02;  8.8506416E+03;  0.0000000E+00; -5.4098272E-01;  4.0000000E+04;  0.0000000E+00;  3.9491328E+04;  9.3536176E-02;  0.0000000E+00; -1.9415002E-02;  2.3425493E+03;
  9.3804926E-01;  9.9999998E-03; -2.4163263E-01;7637;  2.2675037E-04;  0.0000000E+00;  8.4638372E-03;  9.9859564E+02;  2.1391046E-01; -1.1634731E+03;3;  5.1379929E+00;  0.0000000E+00; -4.9295190E-01;0;  7.1709163E-02;  8.8518350E+03;  0.0000000E+00; -3.3291435E-01;  4.0000000E+04;  0.0000000E+00;  3.9483660E+04;  9.1772996E-02;  0.0000000E+00; -2.0063831E-02;  1.4353732E+03;
  9.3803871E-01;  9.9999998E-03; -2.3157388E-01;7638; -3.1325498E-04;  0.0000000E+00;  8.2805110E-03;  9.9903070E+02;  2.1387824E-01; -8.0303894E+02;3;  4.9813561E+00;  0.0000000E+00; -4.5142412E-01;0;  6.9430895E-02;  8.8580439E+03;  0.0000000E+00; -1.4543045E-01;  4.0000000E+04;  0.0000000E+00;  3.9477770E+04;  9.0182588E-02;  0.0000000E+00; -2.0751694E-02;  1.5652540E+03;
  9.3777603E-01;  9.9999998E-03; -2.2147100E-01;7639; -7.4378785E-04;  0.0000000E+00;  7.9964763E-03;  9.9942535E+02;  2.1372281E-01; -4.7608527E+02;3;  4.8934894E+00;  0.0000000E+00; -4.3337563E-01;0;  6.7117006E-02;  8.8739727E+03;  0.0000000E+00; -6.1016578E-02;  4.0000000E+04;  0.0000000E+00;  3.9478547E+04;  8.8654555E-02;  0.0000000E+00; -2.1537548E-02;  2.2528687E+03;
  9.3732756E-01;  9.9999998E-03; -2.1133348E-01;7640; -1.2163782E-03;  0.0000000E+00;  7.7640302E-03;  9.9969513E+02;  2.1349463E-01; -2.5258543E+02;3;  4.8175902E+00;  0.0000000E+00; -4.2162281E-01;0;  6.4575128E-02;  8.8956201E+03;  0.0000000E+00; -9.3400598E-02;  4.0000000E+04;  0.0000000E+00;  3.9479828E+04;  8.7308474E-02;  0.0000000E+00; -2.2733346E-02;  2.5368984E+03;
  9.3683624E-01;  9.9999998E-03; -2.0123275E-01;7641; -1.6553191E-03;  0.0000000E+00;  7.5647370E-03;  9.9978070E+02;  2.1325412E-01; -1.8167386E+02;3;  4.7308674E+00;  0.0000000E+00; -3.9910451E-01;0;  6.2202014E-02;  8.9169844E+03;  0.0000000E+00; -2.1713553E-01;  4.0000000E+04;  0.0000000E+00;  3.9474840E+04;  8.6308435E-02;  0.0000000E+00; -2.4106421E-02;  2.3650554E+03;
  9.3639314E-01;  9.9999998E-03; -1.9115707E-01;7642; -2.0124766E-03;  0.0000000E+00;  7.3171095E-03;  9.9977283E+02;  2.1303785E-01; -1.8819220E+02;3;  4.6367412E+00;  0.0000000E+00; -3.8593003E-01;0;  6.0175940E-02;  8.9349199E+03;  0.0000000E+00; -3.9563733E-01;  4.0000000E+04;  0.0000000E+00;  3.9469898E+04;  8.5710585E-02;  0.0000000E+00; -2.5534647E-02;  2.1425432E+03;
  9.3609416E-01;  9.9999998E-03; -1.8109462E-01;7643; -2.2904973E-03;  0.0000000E+00;  7.0259650E-03;  9.9972089E+02;  2.1289772E-01; -2.3125270E+02;3;  4.5362921E+00;  0.0000000E+00; -3.6347857E-01;0;  5.8523998E-02;  8.9457334E+03;  0.0000000E+00; -5.8231491E-01;  4.0000000E+04;  0.0000000E+00;  3.9466871E+04;  8.5542522E-02;  0.0000000E+00; -2.7018527E-02;  1.9380438E+03;
  9.3595791E-01;  9.9999998E-03; -1.7103784E-01;7644; -2.5099849E-03;  0.0000000E+00;  6.7021013E-03;  9.9963922E+02;  2.1284074E-01; -2.9890509E+02;3;  4.4939847E+00;  0.0000000E+00; -3.2669005E-01;0;  5.7203688E-02;  8.9490078E+03;  0.0000000E+00; -7.3563862E-01;  4.0000000E+04;  0.0000000E+00;  3.9465945E+04;  8.5722938E-02;  0.0000000E+00; -2.8519249E-02;  1.7417537E+03;
  9.3595535E-01;  9.9999998E-03; -1.6098286E-01;7645; -2.7025375E-03;  0.0000000E+00;  6.3564018E-03;  9.9953815E+02;  2.1285442E-01; -3.8265582E+02;3;  4.5050273E+00;  0.0000000E+00; -3.1359062E-01;0;  5.6133017E-02;  8.9459248E+03;  0.0000000E+00; -8.2335937E-01;  4.0000000E+04;  0.0000000E+00;  3.9466434E+04;  8.6113334E-02;  0.0000000E+00; -2.9980315E-02;  1.5428113E+03;
  9.3607056E-01;  9.9999998E-03; -1.5092902E-01;7646; -2.8857614E-03;  0.0000000E+00;  5.9980149E-03;  9.9943634E+02;  2.1293572E-01; -4.6699911E+02;3;  4.4898314E+00;  0.0000000E+00; -3.0809131E-01;0;  5.5242192E-02;  8.9375557E+03;  0.0000000E+00; -8.2854623E-01;  4.0000000E+04;  0.0000000E+00;  3.9468137E+04;  8.6595677E-02;  0.0000000E+00; -3.1353485E-02;  1.3760190E+03;
  9.3630725E-01;  9.9999998E-03; -1.4087880E-01;7647; -3.0430560E-03;  0.0000000E+00;  5.6305886E-03;  9.9933490E+02;  2.1308316E-01; -5.5104608E+02;3;  4.4612584E+00;  0.0000000E+00; -2.8987658E-01;0;  5.4472212E-02;  8.9238750E+03;  0.0000000E+00; -7.5461626E-01;  4.0000000E+04;  0.0000000E+00;  3.9470562E+04;  8.7085307E-02;  0.0000000E+00; -3.2613095E-02;  1.3946959E+03;
  9.3664950E-01;  9.9999998E-03; -1.3083874E-01;7648; -3.1747371E-03;  0.0000000E+00;  5.2562314E-03;  9.9925061E+02;  2.1328987E-01; -6.2087128E+02;3;  4.4490390E+00;  0.0000000E+00; -2.5347352E-01;0;  5.3747270E-02;  8.9059746E+03;  0.0000000E+00; -6.2277901E-01;  4.0000000E+04;  0.0000000E+00;  3.9472816E+04;  8.7504022E-02;  0.0000000E+00; -3.3756752E-02;  1.6939596E+03;
  9.3702018E-01;  9.9999998E-03; -1.2080827E-01;7649; -3.2946686E-03;  0.0000000E+00;  4.8739575E-03;  9.9917700E+02;  2.1351278E-01; -6.8185718E+02;3;  4.4194140E+00;  0.0000000E+00; -2.3008746E-01;0;  5.2966975E-02;  8.8874463E+03;  0.0000000E+00; -4.6420905E-01;  4.0000000E+04;  0.0000000E+00;  3.9474395E+04;  8.7756649E-02;  0.0000000E+00; -3.4789674E-02;  2.1044546E+03;
  9.3733954E-01;  9.9999998E-03; -1.1078721E-01;7650; -3.4149785E-03;  0.0000000E+00;  4.4853021E-03;  9.9912531E+02;  2.1370988E-01; -7.2467084E+02;3;  4.3888583E+00;  0.0000000E+00; -2.1205775E-01;0;  5.2069213E-02;  8.8719629E+03;  0.0000000E+00; -3.1029075E-01;  4.0000000E+04;  0.0000000E+00;  3.9474938E+04;  8.7783992E-02;  0.0000000E+00; -3.5714779E-02;  2.4041782E+03;
  9.6191025E-01;  9.9999998E-03; -2.6186049E-01;7696;  2.1959704E-03;  0.0000000E+00;  9.5131304E-03;  9.9702045E+02;  2.2734883E-01; -2.4685225E+03;3;  5.6833162E+00;  0.0000000E+00; -5.2512437E-01;0;  1.0783933E-01;  7.8229980E+03;  0.0000000E+00; -7.8879774E-01;  4.0000000E+04;  0.0000000E+00;  3.9457688E+04;  1.3078313E-01;  0.0000000E+00; -2.2943797E-02;  4.3162026E+03;
  9.6157336E-01;  9.9999998E-03; -2.5180784E-01;7697;  1.4576947E-03;  0.0000000E+00;  9.3958834E-03;  9.9766547E+02;  2.2714178E-01; -1.9341178E+03;3;  5.4840965E+00;  0.0000000E+00; -4.6722218E-01;0;  1.0390747E-01;  7.8455801E+03;  0.0000000E+00; -2.5852570E-01;  4.0000000E+04;  0.0000000E+00;  3.9447918E+04;  1.2729794E-01;  0.0000000E+00; -2.3390476E-02;  2.7560198E+03;
  9.6175748E-01;  9.9999998E-03; -2.4175589E-01;7698;  9.0810907E-04;  0.0000000E+00;  9.1537507E-03;  9.9833588E+02;  2.2721927E-01; -1.3786769E+03;3;  5.3521485E+00;  0.0000000E+00; -4.4893232E-01;0;  1.0118553E-01;  7.8473984E+03;  0.0000000E+00;  5.3449386E-01;  4.0000000E+04;  0.0000000E+00;  3.9438934E+04;  1.2459868E-01;  0.0000000E+00; -2.3413155E-02;  3.7557930E+03;
  9.6172661E-01;  9.9999998E-03; -2.3169856E-01;7699;  4.8007735E-04;  0.0000000E+00;  8.8825561E-03;  9.9887555E+02;  2.2717871E-01; -9.3157843E+02;3;  5.2237773E+00;  0.0000000E+00; -4.2092144E-01;0;  9.7893298E-02;  7.8557490E+03;  0.0000000E+00;  1.2390922E+00;  4.0000000E+04;  0.0000000E+00;  3.9432672E+04;  1.2177487E-01;  0.0000000E+00; -2.3881573E-02;  6.6193491E+03;
  9.6135068E-01;  9.9999998E-03; -2.2159861E-01;7700;  2.8235823E-04;  0.0000000E+00;  8.5204095E-03;  9.9932971E+02;  2.2694761E-01; -5.5534222E+02;3;  5.1786132E+00;  0.0000000E+00; -4.1123652E-01;0;  9.4106928E-02;  7.8759780E+03;  0.0000000E+00;  1.6620861E+00;  4.0000000E+04;  0.0000000E+00;  3.9434328E+04;  1.1866755E-01;  0.0000000E+00; -2.4560625E-02;  9.0227549E+03;
  9.6063572E-01;  9.9999998E-03; -2.1145637E-01;7701;  1.2549690E-04;  0.0000000E+00;  8.2330033E-03;  9.9959558E+02;  2.2655092E-01; -3.3505222E+02;3;  5.1608725E+00;  0.0000000E+00; -3.9869457E-01;0;  8.9758739E-02;  7.9066235E+03;  0.0000000E+00;  1.7491485E+00;  4.0000000E+04;  0.0000000E+00;  3.9436762E+04;  1.1545148E-01;  0.0000000E+00; -2.5692735E-02;  1.0065047E+04;
  9.5985609E-01;  9.9999998E-03; -2.0133522E-01;7702; -6.6765264E-05;  0.0000000E+00;  7.9879304E-03;  9.9970532E+02;  2.2613300E-01; -2.4414120E+02;3;  5.1653633E+00;  0.0000000E+00; -3.6973339E-01;0;  8.5545570E-02;  7.9381890E+03;  0.0000000E+00;  1.5579311E+00;  4.0000000E+04;  0.0000000E+00;  3.9433879E+04;  1.1253663E-01;  0.0000000E+00; -2.6991064E-02;  9.8124863E+03;
  9.5921600E-01;  9.9999998E-03; -1.9123679E-01;7703; -2.3394451E-04;  0.0000000E+00;  7.7258106E-03;  9.9974011E+02;  2.2579321E-01; -2.1530252E+02;3;  5.2071209E+00;  0.0000000E+00; -3.7597460E-01;0;  8.1762016E-02;  7.9635068E+03;  0.0000000E+00;  1.1648999E+00;  4.0000000E+04;  0.0000000E+00;  3.9429695E+04;  1.1011643E-01;  0.0000000E+00; -2.8354414E-02;  8.5812207E+03;
  9.5876086E-01;  9.9999998E-03; -1.8115991E-01;7704; -3.1622860E-04;  0.0000000E+00;  7.4430387E-03;  9.9972736E+02;  2.2555958E-01; -2.2587012E+02;3;  5.2096157E+00;  0.0000000E+00; -3.5970503E-01;0;  7.8413703E-02;  7.9805762E+03;  0.0000000E+00;  6.5785539E-01;  4.0000000E+04;  0.0000000E+00;  3.9427434E+04;  1.0817512E-01;  0.0000000E+00; -2.9761421E-02;  6.7496885E+03;
  9.5851451E-01;  9.9999998E-03; -1.7109458E-01;7705; -3.3394428E-04;  0.0000000E+00;  7.1301637E-03;  9.9967719E+02;  2.2544582E-01; -2.6744919E+02;3;  5.2126193E+00;  0.0000000E+00; -3.2434863E-01;0;  7.5491183E-02;  7.9884126E+03;  0.0000000E+00;  1.4259897E-01;  4.0000000E+04;  0.0000000E+00;  3.9426680E+04;  1.0666730E-01;  0.0000000E+00; -3.1176111E-02;  4.8089595E+03;
  9.5845950E-01;  9.9999998E-03; -1.6103821E-01;7706; -3.1917563E-04;  0.0000000E+00;  6.7907670E-03;  9.9960321E+02;  2.2544096E-01; -3.2873138E+02;3;  5.2234855E+00;  0.0000000E+00; -3.0066603E-01;0;  7.2941087E-02;  7.9878350E+03;  0.0000000E+00; -2.8488889E-01;  4.0000000E+04;  0.0000000E+00;  3.9427324E+04;  1.0549339E-01;  0.0000000E+00; -3.2552302E-02;  3.2034639E+03;
  9.5855439E-01;  9.9999998E-03; -1.5098883E-01;7707; -3.0673141E-04;  0.0000000E+00;  6.4290017E-03;  9.9952386E+02;  2.2552197E-01; -3.9445792E+02;3;  5.2294540E+00;  0.0000000E+00; -2.7118039E-01;0;  7.0691988E-02;  7.9807642E+03;  0.0000000E+00; -5.6307119E-01;  4.0000000E+04;  0.0000000E+00;  3.9428848E+04;  1.0453786E-01;  0.0000000E+00; -3.3845872E-02;  2.1889065E+03;
  9.5875996E-01;  9.9999998E-03; -1.4095135E-01;7708; -3.1778548E-04;  0.0000000E+00;  6.0518929E-03;  9.9943982E+02;  2.2566670E-01; -4.6408557E+02;3;  5.2508368E+00;  0.0000000E+00; -2.4128599E-01;0;  6.8670690E-02;  7.9692461E+03;  0.0000000E+00; -6.7521614E-01;  4.0000000E+04;  0.0000000E+00;  3.9430957E+04;  1.0370244E-01;  0.0000000E+00; -3.5031751E-02;  1.8268478E+03;
  9.5905679E-01;  9.9999998E-03; -1.3092674E-01;7709; -3.6751601E-04;  0.0000000E+00;  5.6636729E-03;  9.9937421E+02;  2.2586304E-01; -5.1845441E+02;3;  5.2720838E+00;  0.0000000E+00; -2.1894872E-01;0;  6.6810243E-02;  7.9544570E+03;  0.0000000E+00; -6.4436632E-01;  4.0000000E+04;  0.0000000E+00;  3.9432480E+04;  1.0292269E-01;  0.0000000E+00; -3.6112443E-02;  2.0508679E+03;
  9.5937616E-01;  9.9999998E-03; -1.2090781E-01;7710; -4.7400538E-04;  0.0000000E+00;  5.2677644E-03;  9.9933813E+02;  2.2607064E-01; -5.4833008E+02;3;  5.2970552E+00;  0.0000000E+00; -1.9425687E-01;0;  6.5037645E-02;  7.9394165E+03;  0.0000000E+00; -5.1946706E-01;  4.0000000E+04;  0.0000000E+00;  3.9433457E+04;  1.0213807E-01;  0.0000000E+00; -3.7100427E-02;  2.5988970E+03;
  9.5964962E-01;  9.9999998E-03; -1.1088254E-01;7711; -6.3937507E-04;  0.0000000E+00;  4.8644138E-03;  9.9930450E+02;  2.2624746E-01; -5.7618115E+02;3;  5.3134279E+00;  0.0000000E+00; -1.7149836E-01;0;  6.3318223E-02;  7.9270015E+03;  0.0000000E+00; -3.5739303E-01;  4.0000000E+04;  0.0000000E+00;  3.9433059E+04;  1.0132308E-01;  0.0000000E+00; -3.8004864E-02;  3.1360483E+03;
  9.8621738E-01;  9.9999998E-03; -2.6200330E-01;7757;  6.1968924E-03;  0.0000000E+00;  1.0395019E-02;  9.9741351E+02;  2.4158233E-01; -2.1428525E+03;3;  7.1291032E+00;  0.0000000E+00; -5.4487807E-01;0;  1.2243323E-01;  6.9393042E+03;  0.0000000E+00; -9.1342813E-01;  4.0000000E+04;  0.0000000E+00;  3.9405910E+04;  1.5014449E-01;  0.0000000E+00; -2.7711254E-02;  3.5314771E+03;
  9.8576492E-01;  9.9999998E-03; -2.5194123E-01;7758;  4.2495853E-03;  0.0000000E+00;  1.0014981E-02;  9.9799243E+02;  2.4128719E-01; -1.6632119E+03;3;  6.4188881E+00;  0.0000000E+00; -5.0187981E-01;0;  1.2269789E-01;  6.9624087E+03;  0.0000000E+00;  8.4910057E-02;  4.0000000E+04;  0.0000000E+00;  3.9398906E+04;  1.4873189E-01;  0.0000000E+00; -2.6033999E-02;  2.5546240E+03;
  9.8559171E-01;  9.9999998E-03; -2.4187654E-01;7759;  3.0709601E-03;  0.0000000E+00;  9.5562777E-03;  9.9861322E+02;  2.4115974E-01; -1.1489056E+03;3;  5.9632759E+00;  0.0000000E+00; -4.8198202E-01;0;  1.2118639E-01;  6.9757676E+03;  0.0000000E+00;  1.2197801E+00;  4.0000000E+04;  0.0000000E+00;  3.9393102E+04;  1.4635557E-01;  0.0000000E+00; -2.5169179E-02;  5.3601792E+03;
  9.8518217E-01;  9.9999998E-03; -2.3180963E-01;7760;  2.4135888E-03;  0.0000000E+00;  9.1829170E-03;  9.9909290E+02;  2.4089551E-01; -7.5153418E+02;3;  5.7255702E+00;  0.0000000E+00; -4.9262053E-01;0;  1.1748473E-01;  6.9959331E+03;  0.0000000E+00;  2.1386976E+00;  4.0000000E+04;  0.0000000E+00;  3.9389387E+04;  1.4312777E-01;  0.0000000E+00; -2.5643034E-02;  9.6118535E+03;
  9.8457241E-01;  9.9999998E-03; -2.2172357E-01;7761;  2.1883061E-03;  0.0000000E+00;  8.8153621E-03;  9.9948132E+02;  2.4052031E-01; -4.2971619E+02;3;  5.6390791E+00;  0.0000000E+00; -4.8172936E-01;0;  1.1266842E-01;  7.0218657E+03;  0.0000000E+00;  2.7137997E+00;  4.0000000E+04;  0.0000000E+00;  3.9389297E+04;  1.3926324E-01;  0.0000000E+00; -2.6594818E-02;  1.3209289E+04;
  9.8378712E-01;  9.9999998E-03; -2.1163821E-01;7762;  2.1568625E-03;  0.0000000E+00;  8.5211759E-03;  9.9970258E+02;  2.4007264E-01; -2.4641275E+02;3;  5.6518707E+00;  0.0000000E+00; -4.7035542E-01;0;  1.0719775E-01;  7.0518135E+03;  0.0000000E+00;  2.9041817E+00;  4.0000000E+04;  0.0000000E+00;  3.9388184E+04;  1.3506900E-01;  0.0000000E+00; -2.7871249E-02;  1.5208057E+04;
  9.8305827E-01;  9.9999998E-03; -2.0158343E-01;7763;  2.2948065E-03;  0.0000000E+00;  8.2367100E-03;  9.9982715E+02;  2.3966977E-01; -1.4320581E+02;3;  5.7041845E+00;  0.0000000E+00; -4.5674828E-01;0;  1.0162940E-01;  7.0784731E+03;  0.0000000E+00;  2.7347908E+00;  4.0000000E+04;  0.0000000E+00;  3.9385473E+04;  1.3084345E-01;  0.0000000E+00; -2.9214047E-02;  1.5446044E+04;
  9.8231059E-01;  9.9999998E-03; -1.9151199E-01;7764;  2.5730703E-03;  0.0000000E+00;  7.9318453E-03;  9.9989264E+02;  2.3925562E-01; -8.8935745E+01;3;  5.8242679E+00;  0.0000000E+00; -4.2489401E-01;0;  9.6109472E-02;  7.1049438E+03;  0.0000000E+00;  2.2534280E+00;  4.0000000E+04;  0.0000000E+00;  3.9385148E+04;  1.2668408E-01;  0.0000000E+00; -3.0574610E-02;  1.3986960E+04;
  9.8163569E-01;  9.9999998E-03; -1.8142034E-01;7765;  2.8935682E-03;  0.0000000E+00;  7.6112817E-03;  9.9988531E+02;  2.3888750E-01; -9.5009644E+01;3;  5.9754486E+00;  0.0000000E+00; -3.8536140E-01;0;  9.0828747E-02;  7.1278467E+03;  0.0000000E+00;  1.5710994E+00;  4.0000000E+04;  0.0000000E+00;  3.9385422E+04;  1.2277333E-01;  0.0000000E+00; -3.1944580E-02;  1.1344534E+04;
  9.8114091E-01;  9.9999998E-03; -1.7131937E-01;7766;  3.1723641E-03;  0.0000000E+00;  7.2619887E-03;  9.9982770E+02;  2.3863174E-01; -1.4276137E+02;3;  6.1096702E+00;  0.0000000E+00; -3.6680913E-01;0;  8.5920557E-02;  7.1433564E+03;  0.0000000E+00;  8.2685411E-01;  4.0000000E+04;  0.0000000E+00;  3.9386168E+04;  1.1922105E-01;  0.0000000E+00; -3.3300493E-02;  8.2604727E+03;
  9.8085296E-01;  9.9999998E-03; -1.6121979E-01;7767;  3.3238491E-03;  0.0000000E+00;  6.8908450E-03;  9.9973328E+02;  2.3849915E-01; -2.2098137E+02;3;  6.2657528E+00;  0.0000000E+00; -3.4760502E-01;0;  8.1425220E-02;  7.1505874E+03;  0.0000000E+00;  1.5601785E-01;  4.0000000E+04;  0.0000000E+00;  3.9387359E+04;  1.1603419E-01;  0.0000000E+00; -3.4608964E-02;  5.4585029E+03;
  9.8077112E-01;  9.9999998E-03; -1.5112780E-01;7768;  3.3127689E-03;  0.0000000E+00;  6.5190466E-03;  9.9962366E+02;  2.3848854E-01; -3.1179361E+02;3;  6.3898449E+00;  0.0000000E+00; -3.8480511E-01;0;  7.7329472E-02;  7.1498423E+03;  0.0000000E+00; -3.4363902E-01;  4.0000000E+04;  0.0000000E+00;  3.9389121E+04;  1.1316890E-01;  0.0000000E+00; -3.5839424E-02;  3.4406418E+03;
  9.8090142E-01;  9.9999998E-03; -1.4104424E-01;7769;  3.2361406E-03;  0.0000000E+00;  6.1568865E-03;  9.9952777E+02;  2.3860632E-01; -3.9124814E+02;3;  6.3711238E+00;  0.0000000E+00; -3.6034015E-01;0;  7.3594630E-02;  7.1412490E+03;  0.0000000E+00; -6.3258159E-01;  4.0000000E+04;  0.0000000E+00;  3.9390738E+04;  1.1057577E-01;  0.0000000E+00; -3.6981143E-02;  2.3857781E+03;
  9.8123550E-01;  9.9999998E-03; -1.3096309E-01;7770;  3.1635959E-03;  0.0000000E+00;  5.7795532E-03;  9.9945581E+02;  2.3884131E-01; -4.5085138E+02;3;  6.3626184E+00;  0.0000000E+00; -3.3588600E-01;0;  7.0171393E-02;  7.1256406E+03;  0.0000000E+00; -7.2639859E-01;  4.0000000E+04;  0.0000000E+00;  3.9392074E+04;  1.0821595E-01;  0.0000000E+00; -3.8044557E-02;  2.1988477E+03;
  9.8165917E-01;  9.9999998E-03; -1.2089107E-01;7771;  3.0855956E-03;  0.0000000E+00;  5.3892210E-03;  9.9941553E+02;  2.3912510E-01; -4.8423315E+02;3;  6.3676810E+00;  0.0000000E+00; -3.0672309E-01;0;  6.7031667E-02;  7.1075190E+03;  0.0000000E+00; -6.7683488E-01;  4.0000000E+04;  0.0000000E+00;  3.9392332E+04;  1.0607298E-01;  0.0000000E+00; -3.9041314E-02;  2.5716560E+03;
  9.8210824E-01;  9.9999998E-03; -1.1083481E-01;7772;  2.9980750E-03;  0.0000000E+00;  4.9864631E-03;  9.9939874E+02;  2.3941459E-01; -4.9810928E+02;3;  6.3793197E+00;  0.0000000E+00; -2.7428943E-01;0;  6.4172342E-02;  7.0893042E+03;  0.0000000E+00; -5.5062592E-01;  4.0000000E+04;  0.0000000E+00;  3.9391430E+04;  1.0415408E-01;  0.0000000E+00; -3.9981741E-02;  3.1037695E+03;
  1.0058236E+00;  9.9999998E-03; -1.4104889E-01;7830;  7.2123189E-03;  0.0000000E+00;  5.9796995E-03;  9.9943164E+02;  2.5382406E-01; -4.7085077E+02;3;  7.5091195E+00;  0.0000000E+00; -4.7096089E-01;0;  6.5612912E-02;  6.3217310E+03;  0.0000000E+00; -6.1658877E-01;  4.0000000E+04;  0.0000000E+00;  3.9346648E+04;  1.0487387E-01;  0.0000000E+00; -3.9260954E-02;  2.9257898E+03;
  1.0058047E+00;  9.9999998E-03; -1.5118600E-01;7829;  7.3148254E-03;  0.0000000E+00;  6.3925013E-03;  9.9959814E+02;  2.5375408E-01; -3.3292877E+02;3;  7.4365335E+00;  0.0000000E+00; -4.8234370E-01;0;  7.0750006E-02;  6.3272871E+03;  0.0000000E+00; -3.2057899E-01;  4.0000000E+04;  0.0000000E+00;  3.9344938E+04;  1.0884260E-01;  0.0000000E+00; -3.8092591E-02;  4.1744932E+03;
  1.0059066E+00;  9.9999998E-03; -1.3092105E-01;7831;  6.9523626E-03;  0.0000000E+00;  5.6075328E-03;  9.9930133E+02;  2.5391522E-01; -5.7884772E+02;3;  7.5092511E+00;  0.0000000E+00; -4.6622953E-01;0;  6.0949977E-02;  6.3146841E+03;  0.0000000E+00; -7.6064533E-01;  4.0000000E+04;  0.0000000E+00;  3.9348516E+04;  1.0128671E-01;  0.0000000E+00; -4.0336732E-02;  2.3559407E+03;
  1.0058459E+00;  9.9999998E-03; -1.6131213E-01;7828;  7.2772428E-03;  0.0000000E+00;  6.8127806E-03;  9.9977319E+02;  2.5370869E-01; -1.8789587E+02;3;  7.4371481E+00;  0.0000000E+00; -4.9518853E-01;0;  7.6317236E-02;  6.3309961E+03;  0.0000000E+00;  1.3350180E-01;  4.0000000E+04;  0.0000000E+00;  3.9343363E+04;  1.1312476E-01;  0.0000000E+00; -3.6807518E-02;  6.1326597E+03;
  1.0061951E+00;  9.9999998E-03; -1.2082212E-01;7832;  6.7352680E-03;  0.0000000E+00;  5.2401605E-03;  9.9922205E+02;  2.5412270E-01; -6.4452484E+02;3;  7.4537849E+00;  0.0000000E+00; -4.3674418E-01;0;  5.6712341E-02;  6.3018252E+03;  0.0000000E+00; -7.8421646E-01;  4.0000000E+04;  0.0000000E+00;  3.9348750E+04;  9.8081104E-02;  0.0000000E+00; -4.1368764E-02;  2.2529480E+03;
  1.0060424E+00;  9.9999998E-03; -1.7141609E-01;7827;  7.2137774E-03;  0.0000000E+00;  7.2224257E-03;  9.9992963E+02;  2.5375369E-01; -5.8319324E+01;3;  7.4210448E+00;  0.0000000E+00; -5.1597297E-01;0;  8.2175180E-02;  6.3292222E+03;  0.0000000E+00;  7.0894337E-01;  4.0000000E+04;  0.0000000E+00;  3.9342785E+04;  1.1758908E-01;  0.0000000E+00; -3.5413895E-02;  8.5972480E+03;
  1.0064921E+00;  9.9999998E-03; -1.8151577E-01;7826;  7.1874675E-03;  0.0000000E+00;  7.6096887E-03;  1.0000458E+03;  2.5396422E-01;  3.7924843E+01;3;  7.3871517E+00;  0.0000000E+00; -5.4679012E-01;0;  8.8140801E-02;  6.3183428E+03;  0.0000000E+00;  1.3225018E+00;  4.0000000E+04;  0.0000000E+00;  3.9342035E+04;  1.2207167E-01;  0.0000000E+00; -3.3930872E-02;  1.1107270E+04;
  1.0067848E+00;  9.9999998E-03; -1.1076460E-01;7833;  6.6072359E-03;  0.0000000E+00;  4.8557622E-03;  9.9918060E+02;  2.5452000E-01; -6.7884485E+02;3;  7.4187632E+00;  0.0000000E+00; -4.0498847E-01;0;  5.2846316E-02;  6.2802559E+03;  0.0000000E+00; -7.3190850E-01;  4.0000000E+04;  0.0000000E+00;  3.9347734E+04;  9.5233053E-02;  0.0000000E+00; -4.2386737E-02;  2.3084937E+03;
  1.0070050E+00;  9.9999998E-03; -1.9159460E-01;7825;  7.2053978E-03;  0.0000000E+00;  7.9725245E-03;  1.0000901E+03;  2.5421661E-01;  7.4664536E+01;3;  7.3657603E+00;  0.0000000E+00; -5.6787992E-01;0;  9.4088405E-02;  6.3043252E+03;  0.0000000E+00;  1.8735490E+00;  4.0000000E+04;  0.0000000E+00;  3.9342082E+04;  1.2645128E-01;  0.0000000E+00; -3.2362878E-02;  1.3090727E+04;
  1.0075986E+00;  9.9999998E-03; -2.0166558E-01;7824;  7.4035516E-03;  0.0000000E+00;  8.3113210E-03;  1.0000450E+03;  2.5452822E-01;  3.7332268E+01;3;  7.4002376E+00;  0.0000000E+00; -5.9636700E-01;0;  9.9758461E-02;  6.2864453E+03;  0.0000000E+00;  2.2609799E+00;  4.0000000E+04;  0.0000000E+00;  3.9343328E+04;  1.3048290E-01;  0.0000000E+00; -3.0724434E-02;  1.4011192E+04;
  1.0082799E+00;  9.9999998E-03; -2.1173629E-01;7823;  7.9187676E-03;  0.0000000E+00;  8.6198878E-03;  9.9993475E+02;  2.5490865E-01; -5.4072533E+01;3;  7.5368767E+00;  0.0000000E+00; -6.1475229E-01;0;  1.0486419E-01;  6.2645044E+03;  0.0000000E+00;  2.4031353E+00;  4.0000000E+04;  0.0000000E+00;  3.9345891E+04;  1.3387614E-01;  0.0000000E+00; -2.9011954E-02;  1.3521598E+04;
  1.0090106E+00;  9.9999998E-03; -2.2183436E-01;7822;  8.8242637E-03;  0.0000000E+00;  8.8991607E-03;  9.9971594E+02;  2.5534040E-01; -2.3535132E+02;3;  7.7250538E+00;  0.0000000E+00; -6.6320741E-01;0;  1.0917523E-01;  6.2396621E+03;  0.0000000E+00;  2.2488019E+00;  4.0000000E+04;  0.0000000E+00;  3.9347008E+04;  1.3636503E-01;  0.0000000E+00; -2.7189801E-02;  1.1552643E+04;
  1.0097693E+00;  9.9999998E-03; -2.3193552E-01;7821;  1.0131561E-02;  0.0000000E+00;  9.2253517E-03;  9.9937201E+02;  2.5582644E-01; -5.2028149E+02;3;  8.0362301E+00;  0.0000000E+00; -7.0509976E-01;0;  1.1230761E-01;  6.2123306E+03;  0.0000000E+00;  1.7801547E+00;  4.0000000E+04;  0.0000000E+00;  3.9345203E+04;  1.3771060E-01;  0.0000000E+00; -2.5402995E-02;  8.3176504E+03;
  1.0103874E+00;  9.9999998E-03; -2.4201615E-01;7820;  1.1959301E-02;  0.0000000E+00;  9.5198182E-03;  9.9895728E+02;  2.5624380E-01; -8.6387659E+02;3;  8.4303513E+00;  0.0000000E+00; -7.2815537E-01;0;  1.1419734E-01;  6.1884507E+03;  0.0000000E+00;  1.0073400E+00;  4.0000000E+04;  0.0000000E+00;  3.9346348E+04;  1.3779011E-01;  0.0000000E+00; -2.3592772E-02;  4.5113823E+03;
  1.0108489E+00;  9.9999998E-03; -2.5209397E-01;7819;  1.4095969E-02;  0.0000000E+00;  9.8658977E-03;  9.9845990E+02;  2.5657123E-01; -1.2759636E+03;3;  8.7501307E+00;  0.0000000E+00; -7.8498632E-01;0;  1.1438008E-01;  6.1691152E+03;  0.0000000E+00; -1.6862014E-02;  4.0000000E+04;  0.0000000E+00;  3.9347543E+04;  1.3667974E-01;  0.0000000E+00; -2.2299659E-02;  1.6397434E+03;
  1.0113453E+00;  9.9999998E-03; -2.6216668E-01;7818;  1.6484348E-02;  0.0000000E+00;  1.0277773E-02;  9.9797925E+02;  2.5692320E-01; -1.6741744E+03;3;  9.0647459E+00;  0.0000000E+00; -8.3050364E-01;0;  1.1201730E-01;  6.1488491E+03;  0.0000000E+00; -1.1013824E+00;  4.0000000E+04;  0.0000000E+00;  3.9349996E+04;  1.3427339E-01;  0.0000000E+00; -2.2256093E-02;  1.7590881E+03;
  1.0338522E+00;  9.9999998E-03; -1.1082266E-01;7894;  8.0445223E-03;  0.0000000E+00;  5.2983342E-03;  9.9878748E+02;  2.7175477E-01; -1.0045638E+03;3;  7.5324707E+00;  0.0000000E+00; -8.7025262E-02;0;  4.2876225E-02;  5.5147778E+03;  0.0000000E+00; -6.2039191E-01;  4.0000000E+04;  0.0000000E+00;  3.9300984E+04;  8.9205272E-02;  0.0000000E+00; -4.6329048E-02;  1.7564526E+03;
  1.0333716E+00;  9.9999998E-03; -1.6130029E-01;7889;  1.0294395E-02;  0.0000000E+00;  7.1271863E-03;  9.9954407E+02;  2.7116022E-01; -3.7771756E+02;3;  8.0589743E+00;  0.0000000E+00; -2.7856149E-02;0;  6.1744727E-02;  5.5501460E+03;  0.0000000E+00; -5.7437241E-01;  4.0000000E+04;  0.0000000E+00;  3.9295191E+04;  1.0144053E-01;  0.0000000E+00; -3.9695807E-02;  4.6708989E+03;
  1.0335877E+00;  9.9999998E-03; -1.5121533E-01;7890;  9.8922476E-03;  0.0000000E+00;  6.7451680E-03;  9.9932318E+02;  2.7141127E-01; -5.6072467E+02;3;  7.8334122E+00;  0.0000000E+00;  4.7652163E-02;0;  5.7114575E-02;  5.5385762E+03;  0.0000000E+00; -6.7096061E-01;  4.0000000E+04;  0.0000000E+00;  3.9296391E+04;  9.8439150E-02;  0.0000000E+00; -4.1324575E-02;  3.8850679E+03;
  1.0333117E+00;  9.9999998E-03; -1.7140622E-01;7888;  1.0726309E-02;  0.0000000E+00;  7.5236307E-03;  9.9975916E+02;  2.7100098E-01; -1.9954984E+02;3;  8.2606573E+00;  0.0000000E+00; -1.0953628E-01;0;  6.6502482E-02;  5.5570269E+03;  0.0000000E+00; -4.2830130E-01;  4.0000000E+04;  0.0000000E+00;  3.9294512E+04;  1.0439187E-01;  0.0000000E+00; -3.7889391E-02;  5.4832251E+03;
  1.0339426E+00;  9.9999998E-03; -1.4113522E-01;7891;  9.3874289E-03;  0.0000000E+00;  6.3994839E-03;  9.9912054E+02;  2.7174011E-01; -7.2862109E+02;3;  7.7159972E+00;  0.0000000E+00;  3.6463797E-02;0;  5.2808434E-02;  5.5233330E+03;  0.0000000E+00; -7.1203053E-01;  4.0000000E+04;  0.0000000E+00;  3.9297812E+04;  9.5606476E-02;  0.0000000E+00; -4.2798042E-02;  3.2138223E+03;
  1.0341628E+00;  9.9999998E-03; -1.2093459E-01;7893;  8.4689585E-03;  0.0000000E+00;  5.6812717E-03;  9.9885602E+02;  2.7196631E-01; -9.4777533E+02;3;  7.5764132E+00;  0.0000000E+00; -4.9310151E-02;0;  4.5690291E-02;  5.5088794E+03;  0.0000000E+00; -6.7020798E-01;  4.0000000E+04;  0.0000000E+00;  3.9300484E+04;  9.0984613E-02;  0.0000000E+00; -4.5294322E-02;  2.1978179E+03;
  1.0332615E+00;  9.9999998E-03; -1.8152219E-01;7887;  1.1285884E-02;  0.0000000E+00;  7.9070767E-03;  9.9992780E+02;  2.7083954E-01; -5.9800755E+01;3;  8.3946257E+00;  0.0000000E+00; -1.3891250E-01;0;  7.1213067E-02;  5.5628008E+03;  0.0000000E+00; -2.4593930E-01;  4.0000000E+04;  0.0000000E+00;  3.9295371E+04;  1.0711098E-01;  0.0000000E+00; -3.5897914E-02;  6.2034634E+03;
  1.0332081E+00;  9.9999998E-03; -1.9164857E-01;7886;  1.2069846E-02;  0.0000000E+00;  8.2450286E-03;  1.0000044E+03;  2.7068356E-01;  3.6542163E+00;3;  8.5199327E+00;  0.0000000E+00; -1.4036316E-01;0;  7.5637877E-02;  5.5673281E+03;  0.0000000E+00; -5.1473785E-02;  4.0000000E+04;  0.0000000E+00;  3.9297449E+04;  1.0938363E-01;  0.0000000E+00; -3.3745755E-02;  6.7011538E+03;
  1.0341927E+00;  9.9999998E-03; -1.3104071E-01;7892;  8.9143580E-03;  0.0000000E+00;  6.0462183E-03;  9.9896368E+02;  2.7196309E-01; -8.5854327E+02;3;  7.6176424E+00;  0.0000000E+00; -7.6943887E-03;0;  4.8989587E-02;  5.5117222E+03;  0.0000000E+00; -7.0578849E-01;  4.0000000E+04;  0.0000000E+00;  3.9299543E+04;  9.3111880E-02;  0.0000000E+00; -4.4122294E-02;  2.6659949E+03;
  1.0333587E+00;  9.9999998E-03; -2.0177250E-01;7885;  1.3186565E-02;  0.0000000E+00;  8.5408138E-03;  9.9997510E+02;  2.7069023E-01; -2.0641384E+01;3;  8.6604986E+00;  0.0000000E+00; -1.4597753E-01;0;  7.9359829E-02;  5.5645098E+03;  0.0000000E+00;  1.0334697E-01;  4.0000000E+04;  0.0000000E+00;  3.9299340E+04;  1.1079985E-01;  0.0000000E+00; -3.1440023E-02;  6.7915249E+03;
  1.0336490E+00;  9.9999998E-03; -2.1187244E-01;7884;  1.4689635E-02;  0.0000000E+00;  8.7708449E-03;  9.9983978E+02;  2.7081475E-01; -1.3273694E+02;3;  8.7405968E+00;  0.0000000E+00; -1.1192075E-01;0;  8.2222193E-02;  5.5560659E+03;  0.0000000E+00;  1.8629105E-01;  4.0000000E+04;  0.0000000E+00;  3.9302160E+04;  1.1113688E-01;  0.0000000E+00; -2.8914679E-02;  6.4062573E+03;
  1.0341671E+00;  9.9999998E-03; -2.2197324E-01;7883;  1.6512631E-02;  0.0000000E+00;  8.9526856E-03;  9.9960706E+02;  2.7112269E-01; -3.2557092E+02;3;  8.3465881E+00;  0.0000000E+00;  9.9676527E-02;0;  8.4084511E-02;  5.5395098E+03;  0.0000000E+00;  1.5494651E-01;  4.0000000E+04;  0.0000000E+00;  3.9305078E+04;  1.1009237E-01;  0.0000000E+00; -2.6007859E-02;  5.5270186E+03;
  1.0348326E+00;  9.9999998E-03; -2.3208687E-01;7882;  1.8260397E-02;  0.0000000E+00;  9.2093181E-03;  9.9921704E+02;  2.7156866E-01; -6.4867279E+02;3;  6.4121842E+00;  0.0000000E+00;  6.0877091E-01;0;  8.4910214E-02;  5.5171582E+03;  0.0000000E+00; -1.3445037E-02;  4.0000000E+04;  0.0000000E+00;  3.9302961E+04;  1.0766552E-01;  0.0000000E+00; -2.2755302E-02;  4.1105791E+03;
  1.0354887E+00;  9.9999998E-03; -2.4217056E-01;7881;  1.9480474E-02;  0.0000000E+00;  9.4890622E-03;  9.9878650E+02;  2.7204636E-01; -1.0053539E+03;3;  3.8955827E+00;  0.0000000E+00;  8.9946884E-01;0;  8.4913068E-02;  5.4941611E+03;  0.0000000E+00; -3.3394155E-01;  4.0000000E+04;  0.0000000E+00;  3.9303789E+04;  1.0417107E-01;  0.0000000E+00; -1.9258000E-02;  2.5784324E+03;
  1.0361038E+00;  9.9999998E-03; -2.5225168E-01;7880;  2.0435177E-02;  0.0000000E+00;  9.8041007E-03;  9.9833453E+02;  2.7251616E-01; -1.3798123E+03;3;  2.7530663E+00;  0.0000000E+00;  8.7899405E-01;0;  8.3941095E-02;  5.4724658E+03;  0.0000000E+00; -8.2098055E-01;  4.0000000E+04;  0.0000000E+00;  3.9305043E+04;  9.9794924E-02;  0.0000000E+00; -1.5853832E-02;  1.7180433E+03;
  1.0365117E+00;  9.9999998E-03; -2.6233038E-01;7879;  2.1279858E-02;  0.0000000E+00;  1.0244123E-02;  9.9784753E+02;  2.7284783E-01; -1.7832576E+03;3;  2.3277423E+00;  0.0000000E+00;  7.8781331E-01;0;  8.1060939E-02;  5.4566113E+03;  0.0000000E+00; -1.4342579E+00;  4.0000000E+04;  0.0000000E+00;  3.9304988E+04;  9.5021173E-02;  0.0000000E+00; -1.3960232E-02;  2.0915906E+03;
  1.0618474E+00;  9.9999998E-03; -2.5241232E-01;7941;  2.0286266E-02;  0.0000000E+00;  1.1405602E-02;  9.9791028E+02;  2.8922209E-01; -1.7313082E+03;3;  1.3948443E+00;  0.0000000E+00;  1.4090103E+00;0;  3.9172404E-02;  4.8592690E+03;  0.0000000E+00; -1.9852825E+00;  4.0000000E+04;  0.0000000E+00;  3.9269355E+04;  5.5523038E-02;  0.0000000E+00; -1.6350634E-02;  3.0761560E+03;
  1.0613105E+00;  9.9999998E-03; -2.4234416E-01;7942;  1.9573502E-02;  0.0000000E+00;  1.1272460E-02;  9.9842914E+02;  2.8875276E-01; -1.3014441E+03;3;  1.9361691E+00;  0.0000000E+00;  1.4565846E+00;0;  4.3910298E-02;  4.8787266E+03;  0.0000000E+00; -2.0593326E+00;  4.0000000E+04;  0.0000000E+00;  3.9261992E+04;  6.3410573E-02;  0.0000000E+00; -1.9500274E-02;  2.3036440E+03;
  1.0608554E+00;  9.9999998E-03; -2.3227803E-01;7943;  1.8807931E-02;  0.0000000E+00;  1.1034956E-02;  9.9889453E+02;  2.8837797E-01; -9.1587494E+02;3;  2.6999474E+00;  0.0000000E+00;  1.5108876E+00;0;  4.8472971E-02;  4.8954150E+03;  0.0000000E+00; -2.1616647E+00;  4.0000000E+04;  0.0000000E+00;  3.9257273E+04;  7.0872486E-02;  0.0000000E+00; -2.2399515E-02;  2.0009540E+03;
  1.0624770E+00;  9.9999998E-03; -2.6249203E-01;7940;  2.0942627E-02;  0.0000000E+00;  1.1655186E-02;  9.9731250E+02;  2.8976682E-01; -2.2265532E+03;3;  9.8650789E-01;  0.0000000E+00;  1.2395096E+00;0;  3.2849047E-02;  4.8374316E+03;  0.0000000E+00; -1.9521712E+00;  4.0000000E+04;  0.0000000E+00;  3.9271645E+04;  4.7337867E-02;  0.0000000E+00; -1.4488821E-02;  4.4360352E+03;
  1.0604850E+00;  9.9999998E-03; -2.2217956E-01;7944;  1.7994134E-02;  0.0000000E+00;  1.0736228E-02;  9.9932446E+02;  2.8811157E-01; -5.5968762E+02;3;  3.5278618E+00;  0.0000000E+00;  1.5254415E+00;0;  5.2397989E-02;  4.9087515E+03;  0.0000000E+00; -2.2318597E+00;  4.0000000E+04;  0.0000000E+00;  3.9258121E+04;  7.7795573E-02;  0.0000000E+00; -2.5397586E-02;  2.1009370E+03;
  1.0602825E+00;  9.9999998E-03; -2.1210879E-01;7945;  1.7057085E-02;  0.0000000E+00;  1.0459268E-02;  9.9955652E+02;  2.8800994E-01; -3.6739685E+02;3;  4.8006444E+00;  0.0000000E+00;  1.4574846E+00;0;  5.5406101E-02;  4.9160317E+03;  0.0000000E+00; -2.2387688E+00;  4.0000000E+04;  0.0000000E+00;  3.9253953E+04;  8.3926231E-02;  0.0000000E+00; -2.8520130E-02;  2.0955596E+03;
  1.0602225E+00;  9.9999998E-03; -2.0204210E-01;7946;  1.5850335E-02;  0.0000000E+00;  1.0146913E-02;  9.9966333E+02;  2.8803805E-01; -2.7890558E+02;3;  6.2780890E+00;  0.0000000E+00;  1.2223334E+00;0;  5.7622943E-02;  4.9178857E+03;  0.0000000E+00; -2.1678693E+00;  4.0000000E+04;  0.0000000E+00;  3.9250855E+04;  8.9253068E-02;  0.0000000E+00; -3.1630125E-02;  2.5361987E+03;
  1.0602748E+00;  9.9999998E-03; -1.9194737E-01;7947;  1.4513185E-02;  0.0000000E+00;  9.8045049E-03;  9.9963922E+02;  2.8817761E-01; -2.9890500E+02;3;  7.2255445E+00;  0.0000000E+00;  1.0025486E+00;0;  5.9195165E-02;  4.9151562E+03;  0.0000000E+00; -2.0248456E+00;  4.0000000E+04;  0.0000000E+00;  3.9249145E+04;  9.3904883E-02;  0.0000000E+00; -3.4709718E-02;  3.2017031E+03;
  1.0604511E+00;  9.9999998E-03; -1.8183325E-01;7948;  1.3302281E-02;  0.0000000E+00;  9.4264569E-03;  9.9949664E+02;  2.8843358E-01; -4.1702505E+02;3;  7.5748320E+00;  0.0000000E+00;  8.7083328E-01;0;  6.0297742E-02;  4.9078423E+03;  0.0000000E+00; -1.8334278E+00;  4.0000000E+04;  0.0000000E+00;  3.9247645E+04;  9.8012902E-02;  0.0000000E+00; -3.7715159E-02;  3.8355598E+03;
  1.0609107E+00;  9.9999998E-03; -1.7171842E-01;7949;  1.2257690E-02;  0.0000000E+00;  9.0267686E-03;  9.9926697E+02;  2.8890446E-01; -6.0729120E+02;3;  7.6973991E+00;  0.0000000E+00;  7.6475394E-01;0;  6.1143979E-02;  4.8923438E+03;  0.0000000E+00; -1.6231987E+00;  4.0000000E+04;  0.0000000E+00;  3.9245969E+04;  1.0174942E-01;  0.0000000E+00; -4.0605441E-02;  4.2217153E+03;
  1.0616667E+00;  9.9999998E-03; -1.6160835E-01;7950;  1.1415987E-02;  0.0000000E+00;  8.6108884E-03;  9.9901129E+02;  2.8958610E-01; -8.1913696E+02;3;  7.7086878E+00;  0.0000000E+00;  7.1423978E-01;0;  6.2106289E-02;  4.8690649E+03;  0.0000000E+00; -1.4087517E+00;  4.0000000E+04;  0.0000000E+00;  3.9245367E+04;  1.0544622E-01;  0.0000000E+00; -4.3339930E-02;  4.2250112E+03;
  1.0635037E+00;  9.9999998E-03; -1.1098263E-01;7955;  8.6730151E-03;  0.0000000E+00;  6.2710801E-03;  9.9838214E+02;  2.9127285E-01; -1.3403566E+03;3;  7.6771531E+00;  0.0000000E+00;  2.5017989E-01;0;  6.7811757E-02;  4.8052334E+03;  0.0000000E+00; -3.4073520E-01;  4.0000000E+04;  0.0000000E+00;  3.9249531E+04;  1.2048416E-01;  0.0000000E+00; -5.2672405E-02;  1.9838839E+03;
  1.0623891E+00;  9.9999998E-03; -1.5148161E-01;7951;  1.0682620E-02;  0.0000000E+00;  8.1762150E-03;  9.9876770E+02;  2.9023317E-01; -1.0209583E+03;3;  7.7664719E+00;  0.0000000E+00;  6.1212850E-01;0;  6.3271374E-02;  4.8465879E+03;  0.0000000E+00; -1.1893080E+00;  4.0000000E+04;  0.0000000E+00;  3.9245691E+04;  1.0909846E-01;  0.0000000E+00; -4.5827080E-02;  3.8534629E+03;
  1.0629878E+00;  9.9999998E-03; -1.4135058E-01;7952;  1.0051019E-02;  0.0000000E+00;  7.7235308E-03;  9.9857458E+02;  2.9076111E-01; -1.1809043E+03;3;  7.7841091E+00;  0.0000000E+00;  5.1876312E-01;0;  6.4595290E-02;  4.8274595E+03;  0.0000000E+00; -9.7011566E-01;  4.0000000E+04;  0.0000000E+00;  3.9246773E+04;  1.1260319E-01;  0.0000000E+00; -4.8007898E-02;  3.2653281E+03;
  1.0635831E+00;  9.9999998E-03; -1.2110016E-01;7954;  9.0644732E-03;  0.0000000E+00;  6.7716041E-03;  9.9838708E+02;  2.9130855E-01; -1.3362579E+03;3;  7.7473807E+00;  0.0000000E+00;  3.2895955E-01;0;  6.7066848E-02;  4.8058438E+03;  0.0000000E+00; -5.3978556E-01;  4.0000000E+04;  0.0000000E+00;  3.9249258E+04;  1.1848187E-01;  0.0000000E+00; -5.1415015E-02;  2.2574724E+03;
  1.0633916E+00;  9.9999998E-03; -1.3122374E-01;7953;  9.5154550E-03;  0.0000000E+00;  7.2558285E-03;  9.9844574E+02;  2.9112703E-01; -1.2876667E+03;3;  7.7781024E+00;  0.0000000E+00;  4.1762909E-01;0;  6.5915927E-02;  4.8136997E+03;  0.0000000E+00; -7.5271225E-01;  4.0000000E+04;  0.0000000E+00;  3.9248039E+04;  1.1577994E-01;  0.0000000E+00; -4.9864005E-02;  2.6830847E+03;
  1.0910474E+00;  9.9999998E-03; -2.5260609E-01;8002;  1.9265270E-02;  0.0000000E+00;  1.3319695E-02;  9.9739966E+02;  3.0885571E-01; -2.1543079E+03;3;  4.3521294E-01;  0.0000000E+00;  9.8223686E-01;0;  1.7878003E-03;  4.2603877E+03;  0.0000000E+00; -3.3712459E+00;  4.0000000E+04;  0.0000000E+00;  3.9228316E+04;  1.7967256E-02;  0.0000000E+00; -1.6179455E-02;  5.1602031E+03;
  1.0916550E+00;  9.9999998E-03; -2.6267907E-01;8001;  1.9618450E-02;  0.0000000E+00;  1.3143347E-02;  9.9656683E+02;  3.0948088E-01; -2.8443125E+03;3; -1.1198000E-01;  0.0000000E+00;  6.1496162E-01;0; -6.8350029E-03;  4.2379937E+03;  0.0000000E+00; -2.9715407E+00;  4.0000000E+04;  0.0000000E+00;  3.9237332E+04;  5.9617520E-03;  0.0000000E+00; -1.2796755E-02;  8.2757314E+03;
  1.0904912E+00;  9.9999998E-03; -2.4254933E-01;8003;  1.8859688E-02;  0.0000000E+00;  1.3410288E-02;  9.9808661E+02;  3.0827972E-01; -1.5851886E+03;3;  1.0476379E+00;  0.0000000E+00;  1.1458327E+00;0;  1.1501210E-02;  4.2810537E+03;  0.0000000E+00; -3.5994399E+00;  4.0000000E+04;  0.0000000E+00;  3.9214812E+04;  3.0689547E-02;  0.0000000E+00; -1.9188337E-02;  2.5969651E+03;
  1.0900397E+00;  9.9999998E-03; -2.3249449E-01;8004;  1.8367268E-02;  0.0000000E+00;  1.3202671E-02;  9.9864905E+02;  3.0783543E-01; -1.1192268E+03;3;  1.8644695E+00;  0.0000000E+00;  1.2333676E+00;0;  2.2445718E-02;  4.2976860E+03;  0.0000000E+00; -3.7244191E+00;  4.0000000E+04;  0.0000000E+00;  3.9206383E+04;  4.3982871E-02;  0.0000000E+00; -2.1537153E-02;  1.5403947E+03;
  1.0897745E+00;  9.9999998E-03; -2.2239465E-01;8005;  1.7769802E-02;  0.0000000E+00;  1.2880174E-02;  9.9910773E+02;  3.0760959E-01; -7.3923779E+02;3;  2.5598702E+00;  0.0000000E+00;  1.3573303E+00;0;  3.3329323E-02;  4.3079829E+03;  0.0000000E+00; -3.7074912E+00;  4.0000000E+04;  0.0000000E+00;  3.9207668E+04;  5.7793327E-02;  0.0000000E+00; -2.4464006E-02;  2.0606599E+03;
  1.0896569E+00;  9.9999998E-03; -2.1231657E-01;8006;  1.7128993E-02;  0.0000000E+00;  1.2594513E-02;  9.9929285E+02;  3.0754671E-01; -5.8585956E+02;3;  3.5983629E+00;  0.0000000E+00;  1.3263485E+00;0;  4.3945324E-02;  4.3129092E+03;  0.0000000E+00; -3.5360448E+00;  4.0000000E+04;  0.0000000E+00;  3.9204020E+04;  7.2001003E-02;  0.0000000E+00; -2.8055679E-02;  2.5610220E+03;
  1.0896595E+00;  9.9999998E-03; -2.0226341E-01;8007;  1.6347848E-02;  0.0000000E+00;  1.2269023E-02;  9.9930212E+02;  3.0761340E-01; -5.7815607E+02;3;  5.0060039E+00;  0.0000000E+00;  1.1517127E+00;0;  5.4480702E-02;  4.3132925E+03;  0.0000000E+00; -3.2467263E+00;  4.0000000E+04;  0.0000000E+00;  3.9199418E+04;  8.6411543E-02;  0.0000000E+00; -3.1930842E-02;  3.5639771E+03;
  1.0899708E+00;  9.9999998E-03; -1.9219136E-01;8008;  1.5443048E-02;  0.0000000E+00;  1.1911099E-02;  9.9915802E+02;  3.0795157E-01; -6.9756000E+02;3;  6.1268063E+00;  0.0000000E+00;  9.9757254E-01;0;  6.5134063E-02;  4.3051812E+03;  0.0000000E+00; -2.8810883E+00;  4.0000000E+04;  0.0000000E+00;  3.9196387E+04;  1.0110544E-01;  0.0000000E+00; -3.5971373E-02;  4.7114199E+03;
  1.0904758E+00;  9.9999998E-03; -1.8210065E-01;8009;  1.4435044E-02;  0.0000000E+00;  1.1497961E-02;  9.9890259E+02;  3.0846280E-01; -9.0920819E+02;3;  6.9945278E+00;  0.0000000E+00;  8.8622969E-01;0;  7.5986087E-02;  4.2914448E+03;  0.0000000E+00; -2.4822636E+00;  4.0000000E+04;  0.0000000E+00;  3.9193387E+04;  1.1604670E-01;  0.0000000E+00; -4.0060606E-02;  5.5604512E+03;
  1.0911763E+00;  9.9999998E-03; -1.7199059E-01;8010;  1.3426705E-02;  0.0000000E+00;  1.1019513E-02;  9.9857550E+02;  3.0914071E-01; -1.1801632E+03;3;  7.4635987E+00;  0.0000000E+00;  8.3585173E-01;0;  8.7173119E-02;  4.2726572E+03;  0.0000000E+00; -2.0938997E+00;  4.0000000E+04;  0.0000000E+00;  3.9191059E+04;  1.3124676E-01;  0.0000000E+00; -4.4073641E-02;  5.7950068E+03;
  1.0920182E+00;  9.9999998E-03; -1.6185679E-01;8011;  1.2507094E-02;  0.0000000E+00;  1.0482008E-02;  9.9825476E+02;  3.0992323E-01; -1.4458839E+03;3;  7.7208390E+00;  0.0000000E+00;  7.9438788E-01;0;  9.8737121E-02;  4.2506919E+03;  0.0000000E+00; -1.7413493E+00;  4.0000000E+04;  0.0000000E+00;  3.9189367E+04;  1.4659876E-01;  0.0000000E+00; -4.7861632E-02;  5.3067354E+03;
  1.0928155E+00;  9.9999998E-03; -1.5170413E-01;8012;  1.1693908E-02;  0.0000000E+00;  9.8942704E-03;  9.9798169E+02;  3.1065720E-01; -1.6721489E+03;3;  7.8537197E+00;  0.0000000E+00;  7.3244750E-01;0;  1.1033439E-01;  4.2297578E+03;  0.0000000E+00; -1.4252176E+00;  4.0000000E+04;  0.0000000E+00;  3.9189051E+04;  1.6159049E-01;  0.0000000E+00; -5.1256098E-02;  4.2746362E+03;
  1.0938491E+00;  9.9999998E-03; -1.1119178E-01;8016;  9.4481977E-03;  0.0000000E+00;  7.2786896E-03;  9.9789764E+02;  3.1176689E-01; -1.7417766E+03;3;  7.7510643E+00;  0.0000000E+00;  4.9609292E-01;0;  1.4753829E-01;  4.1966191E+03;  0.0000000E+00; -2.3200174E-01;  4.0000000E+04;  0.0000000E+00;  3.9194156E+04;  2.0713893E-01;  0.0000000E+00; -5.9600633E-02;  2.0756064E+03;
  1.0934259E+00;  9.9999998E-03; -1.4154981E-01;8013;  1.0967980E-02;  0.0000000E+00;  9.2626186E-03;  9.9781946E+02;  3.1123698E-01; -1.8065155E+03;3;  7.8942742E+00;  0.0000000E+00;  6.6691023E-01;0;  1.2142718E-01;  4.2131094E+03;  0.0000000E+00; -1.1281177E+00;  4.0000000E+04;  0.0000000E+00;  3.9190234E+04;  1.7555977E-01;  0.0000000E+00; -5.4132592E-02;  3.1157395E+03;
  1.0939611E+00;  9.9999998E-03; -1.2129035E-01;8015;  9.8442715E-03;  0.0000000E+00;  7.9469113E-03;  9.9779779E+02;  3.1180906E-01; -1.8244902E+03;3;  7.8325028E+00;  0.0000000E+00;  5.4885685E-01;0;  1.4038841E-01;  4.1960552E+03;  0.0000000E+00; -5.2702326E-01;  4.0000000E+04;  0.0000000E+00;  3.9193664E+04;  1.9865394E-01;  0.0000000E+00; -5.8265526E-02;  1.9810160E+03;
  1.0938014E+00;  9.9999998E-03; -1.3140745E-01;8014;  1.0349018E-02;  0.0000000E+00;  8.6096264E-03;  9.9775970E+02;  3.1161663E-01; -1.8560449E+03;3;  7.8850360E+00;  0.0000000E+00;  6.0981494E-01;0;  1.3154501E-01;  4.2019648E+03;  0.0000000E+00; -8.3052880E-01;  4.0000000E+04;  0.0000000E+00;  3.9192074E+04;  1.8800172E-01;  0.0000000E+00; -5.6456715E-02;  2.2820474E+03;
  1.1234733E+00;  9.9999998E-03; -2.4278195E-01;8064;  1.7843384E-02;  0.0000000E+00;  1.5485468E-02;  9.9815381E+02;  3.3099705E-01; -1.5295353E+03;3; -9.0168530E-01;  0.0000000E+00;  7.5817025E-01;0; -7.3953830E-03;  3.7168506E+03;  0.0000000E+00; -3.9067740E+00;  4.0000000E+04;  0.0000000E+00;  3.9153707E+04;  1.5651185E-02;  0.0000000E+00; -2.3046568E-02;  5.0143022E+03;
  1.1243132E+00;  9.9999998E-03; -2.5283715E-01;8063;  1.7592190E-02;  0.0000000E+00;  1.5250853E-02;  9.9723114E+02;  3.3187920E-01; -2.2939573E+03;3; -1.9675372E+00;  0.0000000E+00; -9.8120734E-02;0; -2.4189187E-02;  3.6913552E+03;  0.0000000E+00; -4.1328049E+00;  4.0000000E+04;  0.0000000E+00;  3.9170344E+04; -2.3563069E-03;  0.0000000E+00; -2.1832880E-02;  9.1147812E+03;
  1.1228915E+00;  9.9999998E-03; -2.3271255E-01;8065;  1.7795546E-02;  0.0000000E+00;  1.5156428E-02;  9.9884467E+02;  3.3037955E-01; -9.5715704E+02;3;  3.8502023E-01;  0.0000000E+00;  1.1918930E+00;0;  1.1810970E-02;  3.7349771E+03;  0.0000000E+00; -3.6502826E+00;  4.0000000E+04;  0.0000000E+00;  3.9146691E+04;  3.5138663E-02;  0.0000000E+00; -2.3327693E-02;  2.3438647E+03;
  1.1225494E+00;  9.9999998E-03; -2.2259057E-01;8066;  1.7534310E-02;  0.0000000E+00;  1.4693990E-02;  9.9931458E+02;  3.3004874E-01; -5.6788452E+02;3;  1.5901344E+00;  0.0000000E+00;  1.2801453E+00;0;  3.1004336E-02;  3.7457727E+03;  0.0000000E+00; -3.3517661E+00;  4.0000000E+04;  0.0000000E+00;  3.9150375E+04;  5.6267522E-02;  0.0000000E+00; -2.5263187E-02;  1.3880693E+03;
  1.1252506E+00;  9.9999998E-03; -2.6290065E-01;8062;  1.7225552E-02;  0.0000000E+00;  1.4316494E-02;  9.9605432E+02;  3.3286148E-01; -3.2689407E+03;3; -2.5630043E+00;  0.0000000E+00; -1.0650419E+00;0; -3.4006748E-02;  3.6626194E+03;  0.0000000E+00; -4.1718330E+00;  4.0000000E+04;  0.0000000E+00;  3.9189176E+04; -1.8754696E-02;  0.0000000E+00; -1.5252052E-02;  1.3437896E+04;
  1.1223645E+00;  9.9999998E-03; -2.1248367E-01;8067;  1.7235108E-02;  0.0000000E+00;  1.4345190E-02;  9.9941876E+02;  3.2992473E-01; -4.8156607E+02;3;  2.8322740E+00;  0.0000000E+00;  1.1595814E+00;0;  5.0178356E-02;  3.7510063E+03;  0.0000000E+00; -3.0019567E+00;  4.0000000E+04;  0.0000000E+00;  3.9147270E+04;  7.8903496E-02;  0.0000000E+00; -2.8725140E-02;  1.9378268E+03;
  1.1223361E+00;  9.9999998E-03; -2.0241612E-01;8068;  1.6875956E-02;  0.0000000E+00;  1.3981110E-02;  9.9926257E+02;  3.2997870E-01; -6.1094501E+02;3;  4.2034698E+00;  0.0000000E+00;  9.7402251E-01;0;  6.9843471E-02;  3.7511514E+03;  0.0000000E+00; -2.6281796E+00;  4.0000000E+04;  0.0000000E+00;  3.9141309E+04;  1.0269702E-01;  0.0000000E+00; -3.2853551E-02;  3.4465894E+03;
  1.1264009E+00;  9.9999998E-03; -1.1130168E-01;8077;  1.3861941E-02;  0.0000000E+00;  8.1504909E-03;  9.9797937E+02;  3.3428270E-01; -1.6740741E+03;3;  7.3084984E+00;  0.0000000E+00;  9.7765666E-01;0;  2.4454775E-01;  3.6549041E+03;  0.0000000E+00; -2.4062704E-01;  4.0000000E+04;  0.0000000E+00;  3.9133711E+04;  3.0751291E-01;  0.0000000E+00; -6.2965162E-02;  1.9370626E+03;
  1.1226424E+00;  9.9999998E-03; -1.9233328E-01;8069;  1.6476665E-02;  0.0000000E+00;  1.3564483E-02;  9.9896735E+02;  3.3032998E-01; -8.5553040E+02;3;  5.2213984E+00;  0.0000000E+00;  8.3546263E-01;0;  9.0212256E-02;  3.7436626E+03;  0.0000000E+00; -2.2459574E+00;  4.0000000E+04;  0.0000000E+00;  3.9136332E+04;  1.2756087E-01;  0.0000000E+00; -3.7348609E-02;  4.8752295E+03;
  1.1231391E+00;  9.9999998E-03; -1.8221189E-01;8070;  1.6054951E-02;  0.0000000E+00;  1.3086434E-02;  9.9858325E+02;  3.3086202E-01; -1.1737433E+03;3;  6.0086336E+00;  0.0000000E+00;  8.1017464E-01;0;  1.1115945E-01;  3.7317065E+03;  0.0000000E+00; -1.8855302E+00;  4.0000000E+04;  0.0000000E+00;  3.9132887E+04;  1.5315166E-01;  0.0000000E+00; -4.1992210E-02;  5.7173945E+03;
  1.1269203E+00;  9.9999998E-03; -1.2138801E-01;8076;  1.4810462E-02;  0.0000000E+00;  8.9634592E-03;  9.9779895E+02;  3.3463681E-01; -1.8235018E+03;3;  7.4350872E+00;  0.0000000E+00;  1.0691658E+00;0;  2.3079181E-01;  3.6469355E+03;  0.0000000E+00; -4.6433806E-01;  4.0000000E+04;  0.0000000E+00;  3.9132320E+04;  2.9250005E-01;  0.0000000E+00; -6.1708249E-02;  1.7293506E+03;
  1.1238238E+00;  9.9999998E-03; -1.7205742E-01;8071;  1.5735276E-02;  0.0000000E+00;  1.2544109E-02;  9.9819122E+02;  3.3155906E-01; -1.4985238E+03;3;  6.4648380E+00;  0.0000000E+00;  9.0145749E-01;0;  1.3250607E-01;  3.7157898E+03;  0.0000000E+00; -1.5745391E+00;  4.0000000E+04;  0.0000000E+00;  3.9129480E+04;  1.7905690E-01;  0.0000000E+00; -4.6550818E-02;  5.7531875E+03;
  1.1246628E+00;  9.9999998E-03; -1.6188814E-01;8072;  1.5528500E-02;  0.0000000E+00;  1.1919385E-02;  9.9786737E+02;  3.3237830E-01; -1.7668616E+03;3;  6.8373303E+00;  0.0000000E+00;  9.1930693E-01;0;  1.5394633E-01;  3.6970859E+03;  0.0000000E+00; -1.3190898E+00;  4.0000000E+04;  0.0000000E+00;  3.9127750E+04;  2.0473073E-01;  0.0000000E+00; -5.0784405E-02;  5.0220117E+03;
  1.1268885E+00;  9.9999998E-03; -1.3148218E-01;8075;  1.5346891E-02;  0.0000000E+00;  9.7358255E-03;  9.9765875E+02;  3.3452651E-01; -1.9396959E+03;3;  7.4305625E+00;  0.0000000E+00;  1.0618991E+00;0;  2.1422704E-01;  3.6491746E+03;  0.0000000E+00; -6.8987191E-01;  4.0000000E+04;  0.0000000E+00;  3.9130488E+04;  2.7414820E-01;  0.0000000E+00; -5.9921160E-02;  1.9026963E+03;
  1.1255732E+00;  9.9999998E-03; -1.5172794E-01;8073;  1.5514007E-02;  0.0000000E+00;  1.1227738E-02;  9.9765662E+02;  3.3324629E-01; -1.9414242E+03;3;  7.1131191E+00;  0.0000000E+00;  1.0087389E+00;0;  1.7511439E-01;  3.6775276E+03;  0.0000000E+00; -1.1037016E+00;  4.0000000E+04;  0.0000000E+00;  3.9127594E+04;  2.2960086E-01;  0.0000000E+00; -5.4486465E-02;  3.8308066E+03;
  1.1263375E+00;  9.9999998E-03; -1.4159083E-01;8074;  1.5463397E-02;  0.0000000E+00;  1.0487098E-02;  9.9759406E+02;  3.3398107E-01; -1.9932745E+03;3;  7.3141971E+00;  0.0000000E+00;  9.8634529E-01;0;  1.9535987E-01;  3.6611238E+03;  0.0000000E+00; -9.0193385E-01;  4.0000000E+04;  0.0000000E+00;  3.9128797E+04;  2.5289515E-01;  0.0000000E+00; -5.7535280E-02;  2.6511855E+03;
  1.1593807E+00;  9.9999998E-03; -2.4304317E-01;8125;  1.7083485E-02;  0.0000000E+00;  1.5558639E-02;  9.9852991E+02;  3.5607576E-01; -1.2179385E+03;3; -4.9051108E+00;  0.0000000E+00;  4.6264606E+00;0; -3.7126981E-02;  3.2201970E+03;  0.0000000E+00; -2.1749771E+00;  4.0000000E+04;  0.0000000E+00;  3.9064512E+04; -6.1476287E-03;  0.0000000E+00; -3.0979354E-02;  6.8139077E+03;
  1.1589341E+00;  9.9999998E-03; -2.3295812E-01;8126;  1.8521152E-02;  0.0000000E+00;  1.5023094E-02;  9.9922186E+02;  3.5558486E-01; -6.4467194E+02;3; -8.8737040E+00;  0.0000000E+00;  5.5169363E+00;0; -1.2488282E-02;  3.2316917E+03;  0.0000000E+00; -1.6631441E+00;  4.0000000E+04;  0.0000000E+00;  3.9067500E+04;  1.4721445E-02;  0.0000000E+00; -2.7209727E-02;  4.3340347E+03;
  1.1609238E+00;  9.9999998E-03; -2.5311062E-01;8124;  1.5931286E-02;  0.0000000E+00;  1.5820365E-02;  9.9760217E+02;  3.5757369E-01; -1.9865573E+03;3; -5.5545917E+00;  0.0000000E+00;  3.3956249E+00;0; -6.3680768E-02;  3.1892200E+03;  0.0000000E+00; -2.9575117E+00;  4.0000000E+04;  0.0000000E+00;  3.9069652E+04; -2.5887424E-02;  0.0000000E+00; -3.7793342E-02;  1.0595574E+04;
  1.1586992E+00;  9.9999998E-03; -2.2281989E-01;8127;  2.0917945E-02;  0.0000000E+00;  1.4682584E-02;  9.9969470E+02;  3.5535097E-01; -2.5293063E+02;3; -9.1306429E+00;  0.0000000E+00;  5.7942581E+00;0;  1.0440022E-02;  3.2379106E+03;  0.0000000E+00; -1.3172680E+00;  4.0000000E+04;  0.0000000E+00;  3.9077160E+04;  3.7549809E-02;  0.0000000E+00; -2.7109787E-02;  2.1271807E+03;
  1.1585598E+00;  9.9999998E-03; -2.1266563E-01;8128;  2.3625068E-02;  0.0000000E+00;  1.4556779E-02;  9.9982239E+02;  3.5528097E-01; -1.4715605E+02;3; -8.5298090E+00;  0.0000000E+00;  6.2290483E+00;0;  3.2926288E-02;  3.2406692E+03;  0.0000000E+00; -1.0674518E+00;  4.0000000E+04;  0.0000000E+00;  3.9081461E+04;  6.1993700E-02;  0.0000000E+00; -2.9067412E-02;  4.9706671E+02;
  1.1641231E+00;  9.9999998E-03; -2.6317900E-01;8123;  1.4491855E-02;  0.0000000E+00;  1.5118523E-02;  9.9649591E+02;  3.6059088E-01; -2.9030725E+03;3; -6.4891067E+00;  0.0000000E+00;  2.6100621E+00;0; -8.6612746E-02;  3.1303044E+03;  0.0000000E+00; -4.1206031E+00;  4.0000000E+04;  0.0000000E+00;  3.9084297E+04; -4.5069080E-02;  0.0000000E+00; -4.1543663E-02;  1.6247271E+04;
  1.1585152E+00;  9.9999998E-03; -2.0253801E-01;8129;  2.6393492E-02;  0.0000000E+00;  1.4406229E-02;  9.9964636E+02;  3.5535285E-01; -2.9297882E+02;3; -7.6269174E+00;  0.0000000E+00;  6.5485120E+00;0;  5.5596072E-02;  3.2401748E+03;  0.0000000E+00; -8.7376368E-01;  4.0000000E+04;  0.0000000E+00;  3.9079066E+04;  8.7537363E-02;  0.0000000E+00; -3.1941291E-02;  1.4522588E+03;
  1.1620866E+00;  9.9999998E-03; -1.1144330E-01;8138;  4.7610965E-02;  0.0000000E+00;  8.0559533E-03;  9.9894659E+02;  3.5961017E-01; -8.7271436E+02;3;  5.8621831E+00;  0.0000000E+00;  6.6121292E+00;0;  2.3568553E-01;  3.1664141E+03;  0.0000000E+00; -1.8858072E-01;  4.0000000E+04;  0.0000000E+00;  3.9072160E+04;  2.9063043E-01;  0.0000000E+00; -5.4944906E-02;  1.9415233E+03;
  1.1585701E+00;  9.9999998E-03; -1.9241205E-01;8130;  2.9151555E-02;  0.0000000E+00;  1.4121098E-02;  9.9931958E+02;  3.5555217E-01; -5.6373608E+02;3; -6.5187860E+00;  0.0000000E+00;  6.9535737E+00;0;  7.8418091E-02;  3.2368403E+03;  0.0000000E+00; -7.1821755E-01;  4.0000000E+04;  0.0000000E+00;  3.9075477E+04;  1.1376461E-01;  0.0000000E+00; -3.5346515E-02;  2.8749062E+03;
  1.1587797E+00;  9.9999998E-03; -1.8226017E-01;8131;  3.1849988E-02;  0.0000000E+00;  1.3669738E-02;  9.9893951E+02;  3.5590285E-01; -8.7859076E+02;3; -5.1893792E+00;  0.0000000E+00;  7.2516799E+00;0;  1.0107738E-01;  3.2303894E+03;  0.0000000E+00; -5.9553486E-01;  4.0000000E+04;  0.0000000E+00;  3.9072484E+04;  1.4011368E-01;  0.0000000E+00; -3.9036304E-02;  3.8400300E+03;
  1.1625829E+00;  9.9999998E-03; -1.2153757E-01;8137;  4.6243154E-02;  0.0000000E+00;  8.8332472E-03;  9.9876398E+02;  3.5995552E-01; -1.0240183E+03;3;  4.3454318E+00;  0.0000000E+00;  6.8616834E+00;0;  2.1776347E-01;  3.1596875E+03;  0.0000000E+00; -2.4085385E-01;  4.0000000E+04;  0.0000000E+00;  3.9071750E+04;  2.7156508E-01;  0.0000000E+00; -5.3801615E-02;  2.1429341E+03;
  1.1592833E+00;  9.9999998E-03; -1.7209063E-01;8132;  3.4500811E-02;  0.0000000E+00;  1.3044207E-02;  9.9860535E+02;  3.5650578E-01; -1.1554219E+03;3; -3.8574777E+00;  0.0000000E+00;  7.4315529E+00;0;  1.2301505E-01;  3.2193398E+03;  0.0000000E+00; -5.0183970E-01;  4.0000000E+04;  0.0000000E+00;  3.9070008E+04;  1.6569343E-01;  0.0000000E+00; -4.2678382E-02;  4.2109575E+03;
  1.1626412E+00;  9.9999998E-03; -1.3163212E-01;8136;  4.4433892E-02;  0.0000000E+00;  9.6258940E-03;  9.9857111E+02;  3.5990858E-01; -1.1838159E+03;3;  2.6144762E+00;  0.0000000E+00;  7.0487700E+00;0;  1.9955681E-01;  3.1598149E+03;  0.0000000E+00; -2.9217970E-01;  4.0000000E+04;  0.0000000E+00;  3.9070199E+04;  2.5194460E-01;  0.0000000E+00; -5.2387793E-02;  2.4230376E+03;
  1.1601247E+00;  9.9999998E-03; -1.6193470E-01;8133;  3.7149567E-02;  0.0000000E+00;  1.2261864E-02;  9.9837683E+02;  3.5738668E-01; -1.3447495E+03;3; -2.3945227E+00;  0.0000000E+00;  7.4689875E+00;0;  1.4373170E-01;  3.2034985E+03;  0.0000000E+00; -4.3313578E-01;  4.0000000E+04;  0.0000000E+00;  3.9068879E+04;  1.8967041E-01;  0.0000000E+00; -4.5938715E-02;  4.0233999E+03;
  1.1611155E+00;  9.9999998E-03; -1.5181735E-01;8134;  3.9729100E-02;  0.0000000E+00;  1.1385544E-02;  9.9831598E+02;  3.5837659E-01; -1.3951677E+03;3; -8.3525491E-01;  0.0000000E+00;  7.3878675E+00;0;  1.6319597E-01;  3.1860002E+03;  0.0000000E+00; -3.8234082E-01;  4.0000000E+04;  0.0000000E+00;  3.9068234E+04;  2.1183024E-01;  0.0000000E+00; -4.8634268E-02;  3.4839534E+03;
  1.1620208E+00;  9.9999998E-03; -1.4172436E-01;8135;  4.2188004E-02;  0.0000000E+00;  1.0490440E-02;  9.9839514E+02;  3.5927233E-01; -1.3295895E+03;3;  8.8640058E-01;  0.0000000E+00;  7.2599511E+00;0;  1.8168542E-01;  3.1704646E+03;  0.0000000E+00; -3.3885530E-01;  4.0000000E+04;  0.0000000E+00;  3.9069195E+04;  2.3243360E-01;  0.0000000E+00; -5.0748181E-02;  2.8781929E+03;
  1.1974115E+00;  9.9999998E-03; -2.1270530E-01;8189;  2.4094302E-02;  0.0000000E+00;  7.5867325E-03;  9.9982275E+02;  3.8357559E-01; -1.4685954E+02;3; -9.5334454E+00;  0.0000000E+00;  3.5469153E+00;0; -3.1791009E-02;  2.7850698E+03;  0.0000000E+00;  4.7428644E-01;  4.0000000E+04;  0.0000000E+00;  3.9028980E+04; -1.3773556E-02;  0.0000000E+00; -1.8017454E-02;  3.4987205E+03;
  1.1974236E+00;  9.9999998E-03; -2.0252803E-01;8190;  2.7154725E-02;  0.0000000E+00;  7.5031514E-03;  9.9970593E+02;  3.8373849E-01; -2.4364661E+02;3; -8.2739277E+00;  0.0000000E+00;  3.6880448E+00;0; -1.6068850E-02;  2.7831465E+03;  0.0000000E+00;  4.0389055E-01;  4.0000000E+04;  0.0000000E+00;  3.9027844E+04;  3.5557712E-03;  0.0000000E+00; -1.9624621E-02;  4.1327378E+03;
  1.1974150E+00;  9.9999998E-03; -2.2289743E-01;8188;  2.1142317E-02;  0.0000000E+00;  7.7435449E-03;  9.9958069E+02;  3.8348493E-01; -3.4739639E+02;3; -1.0490348E+01;  0.0000000E+00;  3.4714818E+00;0; -4.7421657E-02;  2.7853181E+03;  0.0000000E+00;  4.3747309E-01;  4.0000000E+04;  0.0000000E+00;  3.9022980E+04; -3.0552173E-02;  0.0000000E+00; -1.6869484E-02;  1.9719365E+03;
  1.1975019E+00;  9.9999998E-03; -2.3305452E-01;8187;  1.8445686E-02;  0.0000000E+00;  8.0738142E-03;  9.9899451E+02;  3.8354301E-01; -8.3301062E+02;3; -1.0506638E+01;  0.0000000E+00;  3.5470581E+00;0; -6.3565202E-02;  2.7830928E+03;  0.0000000E+00;  1.7562689E-01;  4.0000000E+04;  0.0000000E+00;  3.9013410E+04; -4.6617847E-02;  0.0000000E+00; -1.6947353E-02;  8.9575592E+02;
  1.1975331E+00;  9.9999998E-03; -1.9236775E-01;8191;  3.0265827E-02;  0.0000000E+00;  7.3785177E-03;  9.9941095E+02;  3.8401440E-01; -4.8803394E+02;3; -6.8657441E+00;  0.0000000E+00;  3.8134468E+00;0; -4.0734932E-04;  2.7789727E+03;  0.0000000E+00;  3.0366284E-01;  4.0000000E+04;  0.0000000E+00;  3.9024453E+04;  2.0927547E-02;  0.0000000E+00; -2.1334896E-02;  4.4741504E+03;
  1.1977590E+00;  9.9999998E-03; -1.8221405E-01;8192;  3.3395581E-02;  0.0000000E+00;  7.1823364E-03;  9.9906702E+02;  3.8440055E-01; -7.7296320E+02;3; -5.2084641E+00;  0.0000000E+00;  3.9592240E+00;0;  1.4937961E-02;  2.7729272E+03;  0.0000000E+00;  2.0958553E-01;  4.0000000E+04;  0.0000000E+00;  3.9021438E+04;  3.7928320E-02;  0.0000000E+00; -2.2990359E-02;  4.7011777E+03;
  1.1982602E+00;  9.9999998E-03; -2.4315055E-01;8186;  1.6083835E-02;  0.0000000E+00;  8.2887076E-03;  9.9830139E+02;  3.8426545E-01; -1.4072639E+03;3; -1.0454995E+01;  0.0000000E+00;  3.2191081E+00;0; -8.1325844E-02;  2.7709451E+03;  0.0000000E+00; -4.4542590E-01;  4.0000000E+04;  0.0000000E+00;  3.9013586E+04; -6.2798917E-02;  0.0000000E+00; -1.8526923E-02;  4.5074868E+03;
  1.1981238E+00;  9.9999998E-03; -1.7206566E-01;8193;  3.6470078E-02;  0.0000000E+00;  6.9037257E-03;  9.9877582E+02;  3.8489515E-01; -1.0141901E+03;3; -3.4447057E+00;  0.0000000E+00;  4.0531802E+00;0;  2.9651329E-02;  2.7652646E+03;  0.0000000E+00;  1.3241921E-01;  4.0000000E+04;  0.0000000E+00;  3.9019781E+04;  5.4096390E-02;  0.0000000E+00; -2.4445061E-02;  4.7742651E+03;
  1.2004797E+00;  9.9999998E-03; -2.5325462E-01;8185;  1.3834991E-02;  0.0000000E+00;  8.3675906E-03;  9.9744501E+02;  3.8636291E-01; -2.1167722E+03;3; -1.0778017E+01;  0.0000000E+00;  2.5862041E+00;0; -1.0322312E-01;  2.7384539E+03;  0.0000000E+00; -1.5772750E+00;  4.0000000E+04;  0.0000000E+00;  3.9009508E+04; -8.0074474E-02;  0.0000000E+00; -2.3148641E-02;  9.3934717E+03;
  1.1989452E+00;  9.9999998E-03; -1.6195308E-01;8194;  3.9397512E-02;  0.0000000E+00;  6.4779930E-03;  9.9861401E+02;  3.8576922E-01; -1.1482599E+03;3; -1.5040976E+00;  0.0000000E+00;  4.0983458E+00;0;  4.2566638E-02;  2.7523191E+03;  0.0000000E+00;  7.5958356E-02;  4.0000000E+04;  0.0000000E+00;  3.9018922E+04;  6.7913346E-02;  0.0000000E+00; -2.5346708E-02;  4.6876978E+03;
  1.1996402E+00;  9.9999998E-03; -1.1150228E-01;8199;  5.0652355E-02;  0.0000000E+00;  4.2627621E-03;  9.9908752E+02;  3.8684359E-01; -7.5597601E+02;3;  7.3157916E+00;  0.0000000E+00;  3.7978742E+00;0;  1.0350314E-01;  2.7384980E+03;  0.0000000E+00; -2.0063578E-01;  4.0000000E+04;  0.0000000E+00;  3.9021840E+04;  1.3270071E-01;  0.0000000E+00; -2.9197574E-02;  2.4605962E+03;
  1.1999390E+00;  9.9999998E-03; -1.5187286E-01;8195;  4.2124782E-02;  0.0000000E+00;  5.9745754E-03;  9.9859784E+02;  3.8678008E-01; -1.1616421E+03;3;  4.8174119E-01;  0.0000000E+00;  4.0725832E+00;0;  5.4116014E-02;  2.7377888E+03;  0.0000000E+00;  2.9585300E-02;  4.0000000E+04;  0.0000000E+00;  3.9018934E+04;  7.9908714E-02;  0.0000000E+00; -2.5792699E-02;  4.4508623E+03;
  1.2001950E+00;  9.9999998E-03; -1.2159969E-01;8198;  4.8884291E-02;  0.0000000E+00;  4.6946965E-03;  9.9895154E+02;  3.8726231E-01; -8.6861432E+02;3;  5.8172760E+00;  0.0000000E+00;  3.9419887E+00;0;  9.1040663E-02;  2.7318372E+03;  0.0000000E+00; -1.3677090E-01;  4.0000000E+04;  0.0000000E+00;  3.9022203E+04;  1.1917646E-01;  0.0000000E+00; -2.8135797E-02;  3.0635925E+03;
  1.2007207E+00;  9.9999998E-03; -1.3169067E-01;8197;  4.6868000E-02;  0.0000000E+00;  5.0746296E-03;  9.9881506E+02;  3.8765940E-01; -9.8169714E+02;3;  4.2843051E+00;  0.0000000E+00;  3.9695075E+00;0;  7.7771500E-02;  2.7256697E+03;  0.0000000E+00; -7.3883645E-02;  4.0000000E+04;  0.0000000E+00;  3.9021379E+04;  1.0472238E-01;  0.0000000E+00; -2.6950885E-02;  3.6313010E+03;
  1.2006936E+00;  9.9999998E-03; -1.4178716E-01;8196;  4.4626333E-02;  0.0000000E+00;  5.4826005E-03;  9.9868878E+02;  3.8755658E-01; -1.0863358E+03;3;  2.5355835E+00;  0.0000000E+00;  4.0445690E+00;0;  6.5344155E-02;  2.7268738E+03;  0.0000000E+00; -1.8048411E-02;  4.0000000E+04;  0.0000000E+00;  3.9020227E+04;  9.1489345E-02;  0.0000000E+00; -2.6145194E-02;  4.0993076E+03;
  1.2049491E+00;  9.9999998E-03; -2.6337487E-01;8184;  1.1474035E-02;  0.0000000E+00;  8.1226127E-03;  9.9689417E+02;  3.9064208E-01; -2.5731028E+03;3; -1.1706738E+01;  0.0000000E+00;  1.5037414E+00;0; -1.3148673E-01;  2.6769167E+03;  0.0000000E+00; -3.4489582E+00;  4.0000000E+04;  0.0000000E+00;  3.8998441E+04; -9.9166214E-02;  0.0000000E+00; -3.2320514E-02;  1.5571509E+04;
  1.2381309E+00;  9.9999998E-03; -2.0250618E-01;8251;  2.4369562E-02;  0.0000000E+00; -9.0903440E-04;  9.9813318E+02;  4.1423118E-01; -1.5466134E+03;3; -8.5756340E+00;  0.0000000E+00; -6.4678866E-01;0; -6.1926540E-02;  2.3852268E+03;  0.0000000E+00;  1.1009082E+00;  4.0000000E+04;  0.0000000E+00;  3.8974449E+04; -6.4006858E-02;  0.0000000E+00;  2.0803183E-03;  1.0217861E+04;
  1.2381877E+00;  9.9999998E-03; -1.9236894E-01;8252;  2.7595937E-02;  0.0000000E+00; -1.0000813E-03;  9.9788214E+02;  4.1443616E-01; -1.7546062E+03;3; -7.2327228E+00;  0.0000000E+00; -8.4366286E-01;0; -5.0373897E-02;  2.3824802E+03;  0.0000000E+00;  8.0722594E-01;  4.0000000E+04;  0.0000000E+00;  3.8970004E+04; -5.4720148E-02;  0.0000000E+00;  4.3462496E-03;  9.0932617E+03;
  1.2383271E+00;  9.9999998E-03; -2.1269476E-01;8250;  2.1175014E-02;  0.0000000E+00; -8.8803133E-04;  9.9819867E+02;  4.1427025E-01; -1.4923436E+03;3; -9.8649826E+00;  0.0000000E+00; -5.3392994E-01;0; -7.3795490E-02;  2.3844695E+03;  0.0000000E+00;  1.3299642E+00;  4.0000000E+04;  0.0000000E+00;  3.8976980E+04; -7.3817320E-02;  0.0000000E+00;  2.1831291E-05;  1.0663633E+04;
  1.2385118E+00;  9.9999998E-03; -1.8225436E-01;8253;  3.0863164E-02;  0.0000000E+00; -1.0937063E-03;  9.9760571E+02;  4.1489249E-01; -1.9835859E+03;3; -5.6246328E+00;  0.0000000E+00; -9.7372472E-01;0; -3.9246075E-02;  2.3765120E+03;  0.0000000E+00;  5.2014256E-01;  4.0000000E+04;  0.0000000E+00;  3.8967547E+04; -4.6160571E-02;  0.0000000E+00;  6.9144946E-03;  7.8390171E+03;
  1.2390389E+00;  9.9999998E-03; -1.7214546E-01;8254;  3.4102019E-02;  0.0000000E+00; -1.1717431E-03;  9.9736249E+02;  4.1552272E-01; -2.1851096E+03;3; -3.8901882E+00;  0.0000000E+00; -1.0501146E+00;0; -2.8758734E-02;  2.3684263E+03;  0.0000000E+00;  2.7509120E-01;  4.0000000E+04;  0.0000000E+00;  3.8967137E+04; -3.8513683E-02;  0.0000000E+00;  9.7549492E-03;  6.6859390E+03;
  1.2385781E+00;  9.9999998E-03; -2.2291738E-01;8249;  1.8063899E-02;  0.0000000E+00; -8.3693833E-04;  9.9785730E+02;  4.1440755E-01; -1.7751981E+03;3; -1.1041512E+01;  0.0000000E+00; -4.7268096E-01;0; -8.6266503E-02;  2.3819534E+03;  0.0000000E+00;  1.3705336E+00;  4.0000000E+04;  0.0000000E+00;  3.8972660E+04; -8.4079616E-02;  0.0000000E+00; -2.1868867E-03;  9.4092861E+03;
  1.2394719E+00;  9.9999998E-03; -1.6202974E-01;8255;  3.7309233E-02;  0.0000000E+00; -1.1328439E-03;  9.9720734E+02;  4.1604060E-01; -2.3136484E+03;3; -2.0113058E+00;  0.0000000E+00; -9.2503083E-01;0; -1.9360851E-02;  2.3617209E+03;  0.0000000E+00;  8.1086479E-02;  4.0000000E+04;  0.0000000E+00;  3.8968938E+04; -3.1792626E-02;  0.0000000E+00;  1.2431774E-02;  5.7806846E+03;
  1.2399526E+00;  9.9999998E-03; -1.5192433E-01;8256;  4.0387928E-02;  0.0000000E+00; -1.0724117E-03;  9.9714001E+02;  4.1657752E-01; -2.3694487E+03;3; -1.8132992E-02;  0.0000000E+00; -6.7481756E-01;0; -1.1155130E-02;  2.3550339E+03;  0.0000000E+00; -7.5110734E-02;  4.0000000E+04;  0.0000000E+00;  3.8971152E+04; -2.6026845E-02;  0.0000000E+00;  1.4871715E-02;  5.2395425E+03;
  1.2405337E+00;  9.9999998E-03; -1.4182955E-01;8257;  4.3269720E-02;  0.0000000E+00; -1.0465307E-03;  9.9716937E+02;  4.1718972E-01; -2.3451038E+03;3;  2.1006334E+00;  0.0000000E+00; -3.8017976E-01;0; -4.3637250E-03;  2.3477800E+03;  0.0000000E+00; -2.0616060E-01;  4.0000000E+04;  0.0000000E+00;  3.8973531E+04; -2.1299373E-02;  0.0000000E+00;  1.6935648E-02;  5.0967651E+03;
  1.2390738E+00;  9.9999998E-03; -2.3309046E-01;8248;  1.5067116E-02;  0.0000000E+00; -7.6475833E-04;  9.9717834E+02;  4.1483843E-01; -2.3376970E+03;3; -1.2112260E+01;  0.0000000E+00; -4.8378554E-01;0; -9.9228397E-02;  2.3757542E+03;  0.0000000E+00;  1.0679204E+00;  4.0000000E+04;  0.0000000E+00;  3.8968172E+04; -9.4337180E-02;  0.0000000E+00; -4.8912149E-03;  6.1853931E+03;
  1.2406425E+00;  9.9999998E-03; -1.3173975E-01;8258;  4.5871697E-02;  0.0000000E+00; -1.0906118E-03;  9.9723700E+02;  4.1735098E-01; -2.2890562E+03;3;  4.3947821E+00;  0.0000000E+00;  7.8861400E-02;0;  7.1209297E-04;  2.3459524E+03;  0.0000000E+00; -3.1299555E-01;  4.0000000E+04;  0.0000000E+00;  3.8976184E+04; -1.7002730E-02;  0.0000000E+00;  1.7714823E-02;  5.1795698E+03;
  1.2406312E+00;  9.9999998E-03; -1.2163726E-01;8259;  4.8076686E-02;  0.0000000E+00; -1.2276911E-03;  9.9732288E+02;  4.1740626E-01; -2.2179475E+03;3;  6.2813559E+00;  0.0000000E+00;  7.2204478E-02;0;  4.3199416E-03;  2.3455981E+03;  0.0000000E+00; -3.9289629E-01;  4.0000000E+04;  0.0000000E+00;  3.8977297E+04; -1.3288883E-02;  0.0000000E+00;  1.7608825E-02;  5.2839351E+03;
  1.2406061E+00;  9.9999998E-03; -1.1151949E-01;8260;  4.9904745E-02;  0.0000000E+00; -1.3589452E-03;  9.9738586E+02;  4.1746929E-01; -2.1657520E+03;3;  7.9318676E+00;  0.0000000E+00; -3.1074703E-02;0;  6.5707108E-03;  2.3453977E+03;  0.0000000E+00; -4.3853754E-01;  4.0000000E+04;  0.0000000E+00;  3.8976816E+04; -1.0303606E-02;  0.0000000E+00;  1.6874317E-02;  5.2553916E+03;
  1.2403408E+00;  9.9999998E-03; -2.4318302E-01;8247;  1.2141889E-02;  0.0000000E+00; -1.2818484E-03;  9.9657233E+02;  4.1603884E-01; -2.8397534E+03;3; -1.3130874E+01;  0.0000000E+00; -7.0808709E-01;0; -1.0988735E-01;  2.3603694E+03;  0.0000000E+00;  2.6906413E-01;  4.0000000E+04;  0.0000000E+00;  3.8981996E+04; -1.0344943E-01;  0.0000000E+00; -6.4379112E-03;  5.6449604E+03;
  1.2427746E+00;  9.9999998E-03; -2.5329608E-01;8246;  9.0713734E-03;  0.0000000E+00; -2.6386478E-03;  9.9597327E+02;  4.1839257E-01; -3.3360317E+03;3; -1.4124606E+01;  0.0000000E+00; -1.6158326E+00;0; -1.1371614E-01;  2.3316797E+03;  0.0000000E+00; -1.1948162E+00;  4.0000000E+04;  0.0000000E+00;  3.8995605E+04; -1.0954808E-01;  0.0000000E+00; -4.1680560E-03;  1.1118597E+04;
  1.2472576E+00;  9.9999998E-03; -2.6345959E-01;8245;  5.3699063E-03;  0.0000000E+00; -4.1504600E-03;  9.9557983E+02;  4.2281881E-01; -3.6619937E+03;3; -1.5427382E+01;  0.0000000E+00; -2.5060792E+00;0; -1.0882084E-01;  2.2812520E+03;  0.0000000E+00; -3.5529804E+00;  4.0000000E+04;  0.0000000E+00;  3.8985477E+04; -1.0658985E-01;  0.0000000E+00; -2.2309942E-03;  1.7384381E+04;
  1.2812833E+00;  9.9999998E-03; -1.9249576E-01;8313;  2.2494737E-02;  0.0000000E+00; -1.2052280E-02;  9.9528003E+02;  4.4668901E-01; -3.9103616E+03;3; -7.9060464E+00;  0.0000000E+00; -6.9714680E+00;0;  2.2293739E-01;  2.0437031E+03;  0.0000000E+00;  8.4027779E-01;  4.0000000E+04;  0.0000000E+00;  3.8892676E+04;  1.6985482E-01;  0.0000000E+00;  5.3082574E-02;  9.4260430E+03;
  1.2811635E+00;  9.9999998E-03; -2.0263602E-01;8312;  1.8825075E-02;  0.0000000E+00; -1.1898568E-02;  9.9532001E+02;  4.4642243E-01; -3.8772271E+03;3; -9.4869556E+00;  0.0000000E+00; -6.8359795E+00;0;  2.3040512E-01;  2.0459711E+03;  0.0000000E+00;  1.2144339E+00;  4.0000000E+04;  0.0000000E+00;  3.8896148E+04;  1.8481189E-01;  0.0000000E+00;  4.5593236E-02;  1.1492422E+04;
  1.2818824E+00;  9.9999998E-03; -1.8240030E-01;8314;  2.6015827E-02;  0.0000000E+00; -1.2342219E-02;  9.9525787E+02;  4.4741628E-01; -3.9287310E+03;3; -6.1687250E+00;  0.0000000E+00; -7.1486087E+00;0;  2.1857820E-01;  2.0369899E+03;  0.0000000E+00;  4.3820354E-01;  4.0000000E+04;  0.0000000E+00;  3.8891738E+04;  1.5794663E-01;  0.0000000E+00;  6.0631569E-02;  7.0749990E+03;
  1.2815435E+00;  9.9999998E-03; -2.1283841E-01;8311;  1.5003287E-02;  0.0000000E+00; -1.1908243E-02;  9.9525464E+02;  4.4663939E-01; -3.9313977E+03;3; -1.0935550E+01;  0.0000000E+00; -6.7495618E+00;0;  2.4232748E-01;  2.0434435E+03;  0.0000000E+00;  1.4604886E+00;  4.0000000E+04;  0.0000000E+00;  3.8898332E+04;  2.0424715E-01;  0.0000000E+00;  3.8080338E-02;  1.2478971E+04;
  1.2825668E+00;  9.9999998E-03; -1.7230676E-01;8315;  2.9437052E-02;  0.0000000E+00; -1.2623002E-02;  9.9526263E+02;  4.4821620E-01; -3.9247803E+03;3; -4.4936562E+00;  0.0000000E+00; -7.4604783E+00;0;  2.1183357E-01;  2.0295551E+03;  0.0000000E+00;  7.6945618E-02;  4.0000000E+04;  0.0000000E+00;  3.8893613E+04;  1.4429915E-01;  0.0000000E+00;  6.7534409E-02;  5.1444780E+03;
  1.2829095E+00;  9.9999998E-03; -1.6217606E-01;8316;  3.2791734E-02;  0.0000000E+00; -1.2725377E-02;  9.9527661E+02;  4.4865307E-01; -3.9131750E+03;3; -2.5471635E+00;  0.0000000E+00; -7.7023368E+00;0;  1.9832096E-01;  2.0253281E+03;  0.0000000E+00; -2.1381949E-01;  4.0000000E+04;  0.0000000E+00;  3.8898051E+04;  1.2553854E-01;  0.0000000E+00;  7.2782420E-02;  4.3837197E+03;
  1.2821909E+00;  9.9999998E-03; -2.2308102E-01;8310;  1.1137443E-02;  0.0000000E+00; -1.1924889E-02;  9.9487415E+02;  4.4713092E-01; -4.2466436E+03;3; -1.2447314E+01;  0.0000000E+00; -6.7876163E+00;0;  2.5585470E-01;  2.0380028E+03;  0.0000000E+00;  1.4368197E+00;  4.0000000E+04;  0.0000000E+00;  3.8893277E+04;  2.2597675E-01;  0.0000000E+00;  2.9877944E-02;  1.1290427E+04;
  1.2833226E+00;  9.9999998E-03; -1.5202826E-01;8317;  3.5991620E-02;  0.0000000E+00; -1.2647120E-02;  9.9533936E+02;  4.4912067E-01; -3.8612263E+03;3; -7.2220361E-01;  0.0000000E+00; -8.3894911E+00;0;  1.8285868E-01;  2.0209015E+03;  0.0000000E+00; -4.3691126E-01;  4.0000000E+04;  0.0000000E+00;  3.8903719E+04;  1.0620829E-01;  0.0000000E+00;  7.6650374E-02;  4.9024648E+03;
  1.2839341E+00;  9.9999998E-03; -1.4189947E-01;8318;  3.9013516E-02;  0.0000000E+00; -1.2130183E-02;  9.9545807E+02;  4.4975778E-01; -3.7628596E+03;3;  1.2058098E+00;  0.0000000E+00; -9.1511545E+00;0;  1.6655853E-01;  2.0151438E+03;  0.0000000E+00; -5.9129518E-01;  4.0000000E+04;  0.0000000E+00;  3.8909738E+04;  8.7530337E-02;  0.0000000E+00;  7.9028197E-02;  5.9232310E+03;
  1.2830887E+00;  9.9999998E-03; -2.3327880E-01;8309;  7.3017566E-03;  0.0000000E+00; -1.1879342E-02;  9.9422083E+02;  4.4792175E-01; -4.7878560E+03;3; -1.3884961E+01;  0.0000000E+00; -6.8422837E+00;0;  2.7044916E-01;  2.0298142E+03;  0.0000000E+00;  9.8383754E-01;  4.0000000E+04;  0.0000000E+00;  3.8885973E+04;  2.5009391E-01;  0.0000000E+00;  2.0355269E-02;  7.3901182E+03;
  1.2843597E+00;  9.9999998E-03; -1.3179272E-01;8319;  4.1844375E-02;  0.0000000E+00; -1.0914935E-02;  9.9556726E+02;  4.5020899E-01; -3.6723938E+03;3;  3.1414533E+00;  0.0000000E+00; -9.6350002E+00;0;  1.4670813E-01;  2.0111638E+03;  0.0000000E+00; -6.7323482E-01;  4.0000000E+04;  0.0000000E+00;  3.8915410E+04;  6.7502387E-02;  0.0000000E+00;  7.9205751E-02;  6.8089443E+03;
  1.2845432E+00;  9.9999998E-03; -1.2168937E-01;8320;  4.4460543E-02;  0.0000000E+00; -8.7988768E-03;  9.9561121E+02;  4.5042986E-01; -3.6360002E+03;3;  5.0202136E+00;  0.0000000E+00; -8.6084690E+00;0;  1.2407906E-01;  2.0092852E+03;  0.0000000E+00; -6.8525225E-01;  4.0000000E+04;  0.0000000E+00;  3.8919746E+04;  4.6816800E-02;  0.0000000E+00;  7.7262267E-02;  7.3538867E+03;
  1.2844694E+00;  9.9999998E-03; -1.1158917E-01;8321;  4.6746165E-02;  0.0000000E+00; -6.7792716E-03;  9.9556335E+02;  4.5042321E-01; -3.6756531E+03;3;  7.1763577E+00;  0.0000000E+00; -6.6154757E+00;0;  9.9768303E-02;  2.0094840E+03;  0.0000000E+00; -6.3532770E-01;  4.0000000E+04;  0.0000000E+00;  3.8922047E+04;  2.6328890E-02;  0.0000000E+00;  7.3439412E-02;  7.5794912E+03;
  1.2846440E+00;  9.9999998E-03; -2.4338913E-01;8308;  3.4177881E-03;  0.0000000E+00; -1.2195250E-02;  9.9373474E+02;  4.4940266E-01; -5.1906040E+03;3; -1.5290754E+01;  0.0000000E+00; -7.0108514E+00;0;  2.9442436E-01;  2.0153076E+03;  0.0000000E+00; -4.9372878E-02;  4.0000000E+04;  0.0000000E+00;  3.8896824E+04;  2.8417689E-01;  0.0000000E+00;  1.0247476E-02;  4.2599756E+03;
  1.2873763E+00;  9.9999998E-03; -2.5350228E-01;8307; -7.6414552E-04;  0.0000000E+00; -1.3386730E-02;  9.9351801E+02;  4.5210373E-01; -5.3701489E+03;3; -1.6714254E+01;  0.0000000E+00; -7.2668276E+00;0;  3.4349391E-01;  1.9900493E+03;  0.0000000E+00; -1.8249778E+00;  4.0000000E+04;  0.0000000E+00;  3.8916738E+04;  3.4097543E-01;  0.0000000E+00;  2.5184748E-03;  1.0260063E+04;
  1.2922300E+00;  9.9999998E-03; -2.6367623E-01;8306; -5.6994748E-03;  0.0000000E+00; -1.5416050E-02;  9.9362305E+02;  4.5699686E-01; -5.2831353E+03;3; -1.8333796E+01;  0.0000000E+00; -7.9147115E+00;0;  4.4715568E-01;  1.9471361E+03;  0.0000000E+00; -4.6000896E+00;  4.0000000E+04;  0.0000000E+00;  3.8913727E+04;  4.4843838E-01;  0.0000000E+00; -1.2826875E-03;  1.8399076E+04;
  1.3273424E+00;  9.9999998E-03; -2.0285128E-01;8373;  1.3450956E-02;  0.0000000E+00; -2.8545260E-02;  1.0000442E+03;  4.7731742E-01;  3.6640076E+01;3; -1.0340434E+01;  0.0000000E+00; -1.4502315E+01;0;  1.1427362E+00;  1.8090138E+03;  0.0000000E+00;  2.7345393E-03;  4.0000000E+04;  0.0000000E+00;  3.8817219E+04;  1.0081959E+00;  0.0000000E+00;  1.3454032E-01;  4.8833657E+03;
  1.3276620E+00;  9.9999998E-03; -1.9270578E-01;8374;  1.7479191E-02;  0.0000000E+00; -2.8540419E-02;  1.0001116E+03;  4.7774464E-01;  9.2439644E+01;3; -8.5675726E+00;  0.0000000E+00; -1.5512674E+01;0;  1.0621947E+00;  1.8061810E+03;  0.0000000E+00; -2.0505309E-01;  4.0000000E+04;  0.0000000E+00;  3.8814469E+04;  9.2156547E-01;  0.0000000E+00;  1.4062925E-01;  3.2626433E+03;
  1.3276837E+00;  9.9999998E-03; -2.1306533E-01;8372;  9.2042740E-03;  0.0000000E+00; -2.8681906E-02;  1.0000496E+03;  4.7739989E-01;  4.1084286E+01;3; -1.2067404E+01;  0.0000000E+00; -1.4099456E+01;0;  1.2320529E+00;  1.8081008E+03;  0.0000000E+00;  9.2372648E-02;  4.0000000E+04;  0.0000000E+00;  3.8819051E+04;  1.1041116E+00;  0.0000000E+00;  1.2794140E-01;  5.8168970E+03;
  1.3285311E+00;  9.9999998E-03; -1.8259625E-01;8375;  2.1287983E-02;  0.0000000E+00; -2.8268782E-02;  1.0003086E+03;  4.7859609E-01;  2.5569034E+02;3; -6.6821556E+00;  0.0000000E+00; -1.7966671E+01;0;  9.8593330E-01;  1.8002427E+03;  0.0000000E+00; -4.3312979E-01;  4.0000000E+04;  0.0000000E+00;  3.8814504E+04;  8.4033513E-01;  0.0000000E+00;  1.4559820E-01;  1.9062301E+03;
  1.3284016E+00;  9.9999998E-03; -2.2334066E-01;8371;  4.7909156E-03;  0.0000000E+00; -2.8850190E-02;  9.9987012E+02;  4.7778437E-01; -1.0759932E+02;3; -1.3775084E+01;  0.0000000E+00; -1.3921896E+01;0;  1.3245579E+00;  1.8049795E+03;  0.0000000E+00; -4.7899656E-02;  4.0000000E+04;  0.0000000E+00;  3.8810160E+04;  1.2043290E+00;  0.0000000E+00;  1.2022892E-01;  5.1046348E+03;
  1.3294977E+00;  9.9999998E-03; -1.7246906E-01;8376;  2.4892865E-02;  0.0000000E+00; -2.7001927E-02;  1.0005141E+03;  4.7951096E-01;  4.2595288E+02;3; -4.8561449E+00;  0.0000000E+00; -2.0267591E+01;0;  9.0480661E-01;  1.7937427E+03;  0.0000000E+00; -6.0953218E-01;  4.0000000E+04;  0.0000000E+00;  3.8817602E+04;  7.5659072E-01;  0.0000000E+00;  1.4821592E-01;  2.0811445E+03;
  1.3301865E+00;  9.9999998E-03; -1.6229559E-01;8377;  2.8406914E-02;  0.0000000E+00; -2.4437418E-02;  1.0006390E+03;  4.8015815E-01;  5.2945349E+02;3; -3.5521829E+00;  0.0000000E+00; -2.1990906E+01;0;  8.1472743E-01;  1.7889391E+03;  0.0000000E+00; -7.1624422E-01;  4.0000000E+04;  0.0000000E+00;  3.8822340E+04;  6.6723710E-01;  0.0000000E+00;  1.4749029E-01;  3.1903687E+03;
  1.3295259E+00;  9.9999998E-03; -2.3358096E-01;8370;  2.9183380E-04;  0.0000000E+00; -2.8946560E-02;  9.9950787E+02;  4.7850862E-01; -4.0773163E+02;3; -1.5464639E+01;  0.0000000E+00; -1.3910994E+01;0;  1.4205109E+00;  1.7996541E+03;  0.0000000E+00; -5.4513258E-01;  4.0000000E+04;  0.0000000E+00;  3.8791410E+04;  1.3092816E+00;  0.0000000E+00;  1.1122931E-01;  2.9562991E+03;
  1.3306334E+00;  9.9999998E-03; -1.5209693E-01;8378;  3.1994760E-02;  0.0000000E+00; -2.0811975E-02;  1.0007025E+03;  4.8054382E-01;  5.8199384E+02;3; -2.2452717E+00;  0.0000000E+00; -2.1426390E+01;0;  7.1956360E-01;  1.7858081E+03;  0.0000000E+00; -7.6311809E-01;  4.0000000E+04;  0.0000000E+00;  3.8829242E+04;  5.7640183E-01;  0.0000000E+00;  1.4316179E-01;  4.3493643E+03;
  1.3310641E+00;  9.9999998E-03; -1.4192310E-01;8379;  3.5669483E-02;  0.0000000E+00; -1.6628576E-02;  1.0007445E+03;  4.8087707E-01;  6.1675726E+02;3; -4.3614554E-01;  0.0000000E+00; -1.9516859E+01;0;  6.2468708E-01;  1.7830309E+03;  0.0000000E+00; -7.5358641E-01;  4.0000000E+04;  0.0000000E+00;  3.8837523E+04;  4.8920622E-01;  0.0000000E+00;  1.3548085E-01;  5.4108257E+03;
  1.3312993E+00;  9.9999998E-03; -2.4371757E-01;8369; -4.2867037E-03;  0.0000000E+00; -2.9294338E-02;  9.9939337E+02;  4.7982174E-01; -5.0259048E+02;3; -1.7148237E+01;  0.0000000E+00; -1.3842516E+01;0;  1.5284227E+00;  1.7903650E+03;  0.0000000E+00; -1.5240498E+00;  4.0000000E+04;  0.0000000E+00;  3.8785527E+04;  1.4259995E+00;  0.0000000E+00;  1.0242322E-01;  2.5510007E+03;
  1.3315516E+00;  9.9999998E-03; -1.3180877E-01;8380;  3.9180838E-02;  0.0000000E+00; -1.2414047E-02;  1.0007650E+03;  4.8122838E-01;  6.3374396E+02;3;  1.6508827E+00;  0.0000000E+00; -1.6709440E+01;0;  5.3247643E-01;  1.7799915E+03;  0.0000000E+00; -6.9235039E-01;  4.0000000E+04;  0.0000000E+00;  3.8845953E+04;  4.0751901E-01;  0.0000000E+00;  1.2495739E-01;  6.3451489E+03;
  1.3342954E+00;  9.9999998E-03; -2.5383553E-01;8368; -9.0837451E-03;  0.0000000E+00; -3.0473294E-02;  9.9969794E+02;  4.8218855E-01; -2.5025798E+02;3; -1.8857759E+01;  0.0000000E+00; -1.3946547E+01;0;  1.6726916E+00;  1.7738125E+03;  0.0000000E+00; -3.1090155E+00;  4.0000000E+04;  0.0000000E+00;  3.8789734E+04;  1.5733540E+00;  0.0000000E+00;  9.9337593E-02;  8.3214229E+03;
  1.3320758E+00;  9.9999998E-03; -1.2172236E-01;8381;  4.2457022E-02;  0.0000000E+00; -8.4938481E-03;  1.0007133E+03;  4.8162666E-01;  5.9088190E+02;3;  4.1956763E+00;  0.0000000E+00; -1.3408341E+01;0;  4.4382089E-01;  1.7766500E+03;  0.0000000E+00; -5.8739549E-01;  4.0000000E+04;  0.0000000E+00;  3.8852680E+04;  3.3146927E-01;  0.0000000E+00;  1.1235162E-01;  7.1534941E+03;
  1.3323691E+00;  9.9999998E-03; -1.1162478E-01;8382;  4.4954918E-02;  0.0000000E+00; -5.7695503E-03;  1.0005295E+03;  4.8189145E-01;  4.3869247E+02;3;  6.9192476E+00;  0.0000000E+00; -9.8607893E+00;0;  3.5863096E-01;  1.7742092E+03;  0.0000000E+00; -4.5386150E-01;  4.0000000E+04;  0.0000000E+00;  3.8857562E+04;  2.5989875E-01;  0.0000000E+00;  9.8732203E-02;  7.8163882E+03;
  1.3387449E+00;  9.9999998E-03; -2.6400647E-01;8367; -1.3559423E-02;  0.0000000E+00; -3.1340595E-02;  1.0000784E+03;  4.8581147E-01;  6.4984001E+01;3; -2.0699852E+01;  0.0000000E+00; -1.4259396E+01;0;  1.8595871E+00;  1.7492611E+03;  0.0000000E+00; -5.4570532E+00;  4.0000000E+04;  0.0000000E+00;  3.8768973E+04;  1.7612841E+00;  0.0000000E+00;  9.8302953E-02;  1.9188750E+04;
  1.3777457E+00;  9.9999998E-03; -2.0312582E-01;8434;  1.4306593E-01;  0.0000000E+00; -1.4922678E-02;  1.0073950E+03;  4.8670992E-01;  6.1263340E+03;3;  1.4239427E+01;  0.0000000E+00; -3.2805489E+01;0;  1.6531582E+00;  1.7660878E+03;  0.0000000E+00; -8.2044196E-01;  4.0000000E+04;  0.0000000E+00;  3.8783543E+04;  1.4189302E+00;  0.0000000E+00;  2.3422800E-01;  2.4876621E+03;
  1.3781588E+00;  9.9999998E-03; -1.9300683E-01;8435;  1.3341291E-01;  0.0000000E+00; -9.1847880E-03;  1.0070395E+03;  4.8692954E-01;  5.8318369E+03;3;  1.6250330E+01;  0.0000000E+00; -2.6339270E+01;0;  1.4972662E+00;  1.7629762E+03;  0.0000000E+00; -8.0983639E-01;  4.0000000E+04;  0.0000000E+00;  3.8787742E+04;  1.2776206E+00;  0.0000000E+00;  2.1964565E-01;  3.3127207E+03;
  1.3778121E+00;  9.9999998E-03; -2.1328570E-01;8433;  1.5473220E-01;  0.0000000E+00; -2.5660427E-02;  1.0076158E+03;  4.8651865E-01;  6.3092334E+03;3;  1.1638348E+01;  0.0000000E+00; -4.2975239E+01;0;  1.8062642E+00;  1.7683031E+03;  0.0000000E+00; -8.5521793E-01;  4.0000000E+04;  0.0000000E+00;  3.8779355E+04;  1.5571715E+00;  0.0000000E+00;  2.4909265E-01;  1.6578342E+03;
  1.3790444E+00;  9.9999998E-03; -1.8290110E-01;8436;  1.2545599E-01;  0.0000000E+00; -6.0833003E-03;  1.0065458E+03;  4.8716581E-01;  5.4227793E+03;3;  1.8189014E+01;  0.0000000E+00; -2.1970287E+01;0;  1.3356686E+00;  1.7591049E+03;  0.0000000E+00; -7.6021564E-01;  4.0000000E+04;  0.0000000E+00;  3.8791613E+04;  1.1351883E+00;  0.0000000E+00;  2.0048022E-01;  4.0193088E+03;
  1.3783766E+00;  9.9999998E-03; -2.2350357E-01;8432;  1.6680576E-01;  0.0000000E+00; -4.3001506E-02;  1.0075991E+03;  4.8634243E-01;  6.2954043E+03;3;  9.2996359E+00;  0.0000000E+00; -5.5537392E+01;0;  1.9704905E+00;  1.7698248E+03;  0.0000000E+00; -1.0011938E+00;  4.0000000E+04;  0.0000000E+00;  3.8766707E+04;  1.6906365E+00;  0.0000000E+00;  2.7985388E-01;  9.4929510E+02;
  1.3803768E+00;  9.9999998E-03; -1.7279498E-01;8437;  1.1806650E-01;  0.0000000E+00; -4.1605355E-03;  1.0059009E+03;  4.8738950E-01;  4.8885947E+03;3;  1.9781036E+01;  0.0000000E+00; -1.9374466E+01;0;  1.1705892E+00;  1.7547928E+03;  0.0000000E+00; -6.3803512E-01;  4.0000000E+04;  0.0000000E+00;  3.8794742E+04;  9.9421906E-01;  0.0000000E+00;  1.7637008E-01;  4.4461899E+03;
  1.3791211E+00;  9.9999998E-03; -2.3374547E-01;8431;  1.7561366E-01;  0.0000000E+00; -5.8259577E-02;  1.0072309E+03;  4.8621276E-01;  5.9903384E+03;3;  2.8633742E+00;  0.0000000E+00; -4.8225719E+01;0;  2.1561637E+00;  1.7707546E+03;  0.0000000E+00; -1.3785509E+00;  4.0000000E+04;  0.0000000E+00;  3.8738410E+04;  1.8199521E+00;  0.0000000E+00;  3.3621153E-01;  4.4075898E+03;
  1.3817371E+00;  9.9999998E-03; -1.6263579E-01;8438;  1.0992526E-01;  0.0000000E+00; -2.6169764E-03;  1.0051244E+03;  4.8752040E-01;  4.2451846E+03;3;  2.1016397E+01;  0.0000000E+00; -1.7435158E+01;0;  1.0076578E+00;  1.7507008E+03;  0.0000000E+00; -4.5145050E-01;  4.0000000E+04;  0.0000000E+00;  3.8797039E+04;  8.5911441E-01;  0.0000000E+00;  1.4854342E-01;  4.6317407E+03;
  1.3801322E+00;  9.9999998E-03; -2.4392758E-01;8430;  1.8350758E-01;  0.0000000E+00; -6.0882974E-02;  1.0066403E+03;  4.8624113E-01;  5.5010894E+03;3; -1.0050060E+00;  0.0000000E+00; -4.1791431E+01;0;  2.3281279E+00;  1.7703282E+03;  0.0000000E+00; -2.1282423E+00;  4.0000000E+04;  0.0000000E+00;  3.8705746E+04;  1.9415048E+00;  0.0000000E+00;  3.8662297E-01;  9.7270918E+03;
  1.3826468E+00;  9.9999998E-03; -1.5240093E-01;8439;  1.0102382E-01;  0.0000000E+00; -1.4639013E-03;  1.0042995E+03;  4.8752564E-01;  3.5618799E+03;3;  2.1194603E+01;  0.0000000E+00; -1.5728069E+01;0;  8.5318267E-01;  1.7473115E+03;  0.0000000E+00; -2.3244895E-01;  4.0000000E+04;  0.0000000E+00;  3.8799535E+04;  7.3386520E-01;  0.0000000E+00;  1.1931746E-01;  4.8457979E+03;
  1.3821702E+00;  9.9999998E-03; -1.3194911E-01;8441;  8.3590612E-02;  0.0000000E+00; -8.8437024E-04;  1.0028649E+03;  4.8733869E-01;  2.3733367E+03;3;  2.1283840E+01;  0.0000000E+00; -1.1465905E+01;0;  5.8550429E-01;  1.7429280E+03;  0.0000000E+00;  1.5418915E-01;  4.0000000E+04;  0.0000000E+00;  3.8810258E+04;  5.1841468E-01;  0.0000000E+00;  6.7089632E-02;  6.2087271E+03;
  1.3825868E+00;  9.9999998E-03; -1.4214022E-01;8440;  9.1980048E-02;  0.0000000E+00; -9.6092402E-04;  1.0035540E+03;  4.8744351E-01;  2.9442517E+03;3;  2.1494488E+01;  0.0000000E+00; -1.3358646E+01;0;  7.1317923E-01;  1.7448943E+03;  0.0000000E+00; -2.1074854E-02;  4.0000000E+04;  0.0000000E+00;  3.8803746E+04;  6.2123758E-01;  0.0000000E+00;  9.1941670E-02;  5.3668804E+03;
  1.3821336E+00;  9.9999998E-03; -1.2182888E-01;8442;  7.6193258E-02;  0.0000000E+00; -7.5289962E-04;  1.0021459E+03;  4.8728335E-01;  1.7777311E+03;3;  2.1460165E+01;  0.0000000E+00; -1.0407432E+01;0;  4.6711731E-01;  1.7405468E+03;  0.0000000E+00;  2.8676057E-01;  4.0000000E+04;  0.0000000E+00;  3.8816453E+04;  4.2345953E-01;  0.0000000E+00;  4.3657769E-02;  7.1434517E+03;
  1.3824728E+00;  9.9999998E-03; -1.1172476E-01;8443;  6.9409162E-02;  0.0000000E+00; -4.9831648E-04;  1.0013720E+03;  4.8731270E-01;  1.1365980E+03;3;  2.1750307E+01;  0.0000000E+00; -9.6689177E+00;0;  3.5900456E-01;  1.7376116E+03;  0.0000000E+00;  3.7603718E-01;  4.0000000E+04;  0.0000000E+00;  3.8821348E+04;  3.3731848E-01;  0.0000000E+00;  2.1686085E-02;  7.9286904E+03;
  1.3819528E+00;  9.9999998E-03; -2.5403458E-01;8429;  1.9125850E-01;  0.0000000E+00; -6.1597556E-02;  1.0061052E+03;  4.8650149E-01;  5.0577593E+03;3; -2.8052971E-01;  0.0000000E+00; -3.7714001E+01;0;  2.4959989E+00;  1.7674697E+03;  0.0000000E+00; -3.3837295E+00;  4.0000000E+04;  0.0000000E+00;  3.8693156E+04;  2.0470467E+00;  0.0000000E+00;  4.4895214E-01;  1.5211165E+04;
  1.3859187E+00;  9.9999998E-03; -2.6413432E-01;8428;  1.9580401E-01;  0.0000000E+00; -5.9251875E-02;  1.0054835E+03;  4.8694345E-01;  4.5427251E+03;3;  9.9457598E+00;  0.0000000E+00; -3.0903347E+01;0;  2.6276436E+00;  1.7617596E+03;  0.0000000E+00; -5.2668896E+00;  4.0000000E+04;  0.0000000E+00;  3.8694402E+04;  2.1113837E+00;  0.0000000E+00;  5.1625979E-01;  2.3637863E+04;
  1.4240711E+00;  9.9999998E-03; -2.0288061E-01;8495;  1.9499901E-01;  0.0000000E+00;  1.6217992E-02;  1.0014548E+03;  4.6415699E-01;  1.2051781E+03;3;  6.0162457E+01;  0.0000000E+00; -3.2958374E+01;0;  9.8563170E-01;  1.9169766E+03;  0.0000000E+00; -3.8243845E-02;  4.0000000E+04;  0.0000000E+00;  3.8801699E+04;  7.8962189E-01;  0.0000000E+00;  1.9600983E-01;  5.3439580E+03;
  1.4240683E+00;  9.9999998E-03; -2.1303785E-01;8494;  2.0996238E-01;  0.0000000E+00;  1.5529039E-02;  1.0020427E+03;  4.6403545E-01;  1.6922266E+03;3;  6.2012844E+01;  0.0000000E+00; -3.4801151E+01;0;  1.0815105E+00;  1.9202510E+03;  0.0000000E+00; -6.8945023E-03;  4.0000000E+04;  0.0000000E+00;  3.8800484E+04;  8.4954715E-01;  0.0000000E+00;  2.3196338E-01;  5.2871455E+03;
  1.4247873E+00;  9.9999998E-03; -1.9276051E-01;8496;  1.8013357E-01;  0.0000000E+00;  1.7366957E-02;  1.0007039E+03;  4.6401906E-01;  5.8313422E+02;3;  5.7926254E+01;  0.0000000E+00; -3.1762749E+01;0;  8.8119745E-01;  1.9148472E+03;  0.0000000E+00; -1.0363437E-01;  4.0000000E+04;  0.0000000E+00;  3.8804113E+04;  7.2647202E-01;  0.0000000E+00;  1.5472540E-01;  5.6468770E+03;
  1.4245700E+00;  9.9999998E-03; -2.2323619E-01;8493;  2.2524083E-01;  0.0000000E+00;  1.4365818E-02;  1.0024702E+03;  4.6368092E-01;  2.0463522E+03;3;  6.4359512E+01;  0.0000000E+00; -3.8343292E+01;0;  1.1660745E+00;  1.9245703E+03;  0.0000000E+00; -1.1874120E-01;  4.0000000E+04;  0.0000000E+00;  3.8797848E+04;  9.0279770E-01;  0.0000000E+00;  2.6327688E-01;  5.4173833E+03;
  1.4262985E+00;  9.9999998E-03; -1.8269210E-01;8497;  1.6535123E-01;  0.0000000E+00;  1.9346008E-02;  9.9977661E+02;  4.6361086E-01; -1.8506197E+02;3;  5.5430965E+01;  0.0000000E+00; -3.0429434E+01;0;  7.7632546E-01;  1.9139164E+03;  0.0000000E+00; -1.3216019E-01;  4.0000000E+04;  0.0000000E+00;  3.8806441E+04;  6.6793334E-01;  0.0000000E+00;  1.0839210E-01;  6.0186348E+03;
  1.4255105E+00;  9.9999998E-03; -2.3345700E-01;8492;  2.4119477E-01;  0.0000000E+00;  1.1931978E-02;  1.0026912E+03;  4.6311232E-01;  2.2293379E+03;3;  6.7508362E+01;  0.0000000E+00; -4.4170406E+01;0;  1.2381232E+00;  1.9301807E+03;  0.0000000E+00; -5.2312934E-01;  4.0000000E+04;  0.0000000E+00;  3.8788680E+04;  9.4538033E-01;  0.0000000E+00;  2.9274279E-01;  6.1627915E+03;
  1.4268364E+00;  9.9999998E-03; -2.4364592E-01;8491;  2.5780851E-01;  0.0000000E+00;  8.5655078E-03;  1.0027733E+03;  4.6245024E-01;  2.2973735E+03;3;  7.1069580E+01;  0.0000000E+00; -4.7861027E+01;0;  1.2983332E+00;  1.9360897E+03;  0.0000000E+00; -1.4105241E+00;  4.0000000E+04;  0.0000000E+00;  3.8780137E+04;  9.7389561E-01;  0.0000000E+00;  3.2443756E-01;  9.4968535E+03;
  1.4286199E+00;  9.9999998E-03; -1.7268693E-01;8498;  1.5065722E-01;  0.0000000E+00;  2.2223556E-02;  9.9868988E+02;  4.6292064E-01; -1.0852847E+03;3;  5.2566010E+01;  0.0000000E+00; -2.8873644E+01;0;  6.8172365E-01;  1.9144000E+03;  0.0000000E+00; -8.9120291E-02;  4.0000000E+04;  0.0000000E+00;  3.8808035E+04;  6.2426257E-01;  0.0000000E+00;  5.7461072E-02;  6.2902075E+03;
  1.4286957E+00;  9.9999998E-03; -2.5379005E-01;8490;  2.7611130E-01;  0.0000000E+00; -9.2612999E-04;  1.0027889E+03;  4.6181673E-01;  2.3103030E+03;3;  7.3921516E+01;  0.0000000E+00; -5.5292599E+01;0;  1.3798518E+00;  1.9409008E+03;  0.0000000E+00; -2.9478519E+00;  4.0000000E+04;  0.0000000E+00;  3.8786426E+04;  9.8110706E-01;  0.0000000E+00;  3.9874473E-01;  1.5970123E+04;
  1.4307210E+00;  9.9999998E-03; -1.6258146E-01;8499;  1.3566084E-01;  0.0000000E+00;  2.4637463E-02;  9.9756549E+02;  4.6221945E-01; -2.0167067E+03;3;  4.9732113E+01;  0.0000000E+00; -2.7152269E+01;0;  6.1010981E-01;  1.9149838E+03;  0.0000000E+00;  2.3423592E-02;  4.0000000E+04;  0.0000000E+00;  3.8807438E+04;  6.0396606E-01;  0.0000000E+00;  6.1437381E-03;  6.2679858E+03;
  1.4315609E+00;  9.9999998E-03; -1.5230019E-01;8500;  1.2042666E-01;  0.0000000E+00;  2.5244018E-02;  9.9654028E+02;  4.6184787E-01; -2.8659670E+03;3;  4.6630905E+01;  0.0000000E+00; -2.5761711E+01;0;  5.5739915E-01;  1.9135304E+03;  0.0000000E+00;  1.8632978E-01;  4.0000000E+04;  0.0000000E+00;  3.8806758E+04;  5.9657270E-01;  0.0000000E+00; -3.9173555E-02;  6.1914585E+03;
  1.4314848E+00;  9.9999998E-03; -1.4198953E-01;8501;  1.0587556E-01;  0.0000000E+00;  2.4555827E-02;  9.9561560E+02;  4.6173620E-01; -3.6319834E+03;3;  4.2522984E+01;  0.0000000E+00; -2.4510283E+01;0;  5.1259273E-01;  1.9103846E+03;  0.0000000E+00;  3.5876223E-01;  4.0000000E+04;  0.0000000E+00;  3.8809184E+04;  5.8960366E-01;  0.0000000E+00; -7.7010952E-02;  6.5865317E+03;
  1.4305031E+00;  9.9999998E-03; -1.2159587E-01;8503;  8.2733952E-02;  0.0000000E+00;  2.2310123E-02;  9.9394806E+02;  4.6186733E-01; -5.0133774E+03;3;  3.5472980E+01;  0.0000000E+00; -2.2633556E+01;0;  4.3483561E-01;  1.9020813E+03;  0.0000000E+00;  5.8780497E-01;  4.0000000E+04;  0.0000000E+00;  3.8822055E+04;  5.6972623E-01;  0.0000000E+00; -1.3489063E-01;  8.5729102E+03;
  1.4309881E+00;  9.9999998E-03; -1.3174489E-01;8502;  9.3554482E-02;  0.0000000E+00;  2.3346204E-02;  9.9477454E+02;  4.6177495E-01; -4.3287280E+03;3;  3.7537167E+01;  0.0000000E+00; -2.4086651E+01;0;  4.7135660E-01;  1.9063633E+03;  0.0000000E+00;  4.9950567E-01;  4.0000000E+04;  0.0000000E+00;  3.8815086E+04;  5.7960474E-01;  0.0000000E+00; -1.0824814E-01;  7.4957988E+03;
  1.4304956E+00;  9.9999998E-03; -1.1148822E-01;8504;  7.2694279E-02;  0.0000000E+00;  2.1658888E-02;  9.9311707E+02;  4.6190804E-01; -5.7017261E+03;3;  3.2364017E+01;  0.0000000E+00; -2.0400736E+01;0;  4.0881330E-01;  1.8982811E+03;  0.0000000E+00;  6.2079328E-01;  4.0000000E+04;  0.0000000E+00;  3.8828426E+04;  5.6857818E-01;  0.0000000E+00; -1.5976490E-01;  9.4837852E+03;
  1.4321164E+00;  9.9999998E-03; -2.6392403E-01;8489;  2.9386601E-01;  0.0000000E+00; -2.3826234E-02;  1.0024553E+03;  4.6100798E-01;  2.0338846E+03;3;  7.0968010E+01;  0.0000000E+00; -3.8753056E+01;0;  1.5853024E+00;  1.9449084E+03;  0.0000000E+00; -5.1681828E+00;  4.0000000E+04;  0.0000000E+00;  3.8806258E+04;  9.3596196E-01;  0.0000000E+00;  6.4934039E-01;  2.4493027E+04;
  1.4690858E+00;  9.9999998E-03; -2.1312633E-01;8555;  2.0643966E-01;  0.0000000E+00;  7.7019222E-02;  9.9351758E+02;  4.3136600E-01; -5.3695049E+03;3;  6.2228497E+01;  0.0000000E+00; -2.5017546E+01;0;  8.1531191E-01;  2.1817415E+03;  0.0000000E+00;  5.8890188E-01;  4.0000000E+04;  0.0000000E+00;  3.8832648E+04;  7.2115880E-01;  0.0000000E+00;  9.4153099E-02;  8.9906152E+03;
  1.4694568E+00;  9.9999998E-03; -2.0300172E-01;8556;  1.9179684E-01;  0.0000000E+00;  7.6896928E-02;  9.9320850E+02;  4.3119767E-01; -5.6255396E+03;3;  5.9473850E+01;  0.0000000E+00; -2.4957581E+01;0;  8.8052875E-01;  2.1818992E+03;  0.0000000E+00;  5.7497084E-01;  4.0000000E+04;  0.0000000E+00;  3.8831445E+04;  8.4006858E-01;  0.0000000E+00;  4.0460158E-02;  8.4627227E+03;
  1.4695082E+00;  9.9999998E-03; -2.2328654E-01;8554;  2.2099338E-01;  0.0000000E+00;  7.8094169E-02;  9.9372015E+02;  4.3103129E-01; -5.2016841E+03;3;  6.3467785E+01;  0.0000000E+00; -2.4748737E+01;0;  7.6781672E-01;  2.1856096E+03;  0.0000000E+00;  4.4995478E-01;  4.0000000E+04;  0.0000000E+00;  3.8833500E+04;  6.2890917E-01;  0.0000000E+00;  1.3890754E-01;  9.8802793E+03;
  1.4706246E+00;  9.9999998E-03; -1.9291505E-01;8557;  1.7735820E-01;  0.0000000E+00;  7.7631824E-02;  9.9284619E+02;  4.3062344E-01; -5.9255986E+03;3;  5.7050835E+01;  0.0000000E+00; -2.3462801E+01;0;  9.7669888E-01;  2.1853218E+03;  0.0000000E+00;  5.2158284E-01;  4.0000000E+04;  0.0000000E+00;  3.8829305E+04;  9.9608004E-01;  0.0000000E+00; -1.9381147E-02;  8.0685825E+03;
  1.4704074E+00;  9.9999998E-03; -2.3348269E-01;8553;  2.3539394E-01;  0.0000000E+00;  7.9788193E-02;  9.9380609E+02;  4.3035555E-01; -5.1305259E+03;3;  6.4917648E+01;  0.0000000E+00; -2.5150919E+01;0;  7.2270977E-01;  2.1923352E+03;  0.0000000E+00; -1.2080665E-02;  4.0000000E+04;  0.0000000E+00;  3.8828707E+04;  5.5147892E-01;  0.0000000E+00;  1.7123088E-01;  1.1110094E+04;
  1.4723407E+00;  9.9999998E-03; -1.8285376E-01;8558;  1.6313019E-01;  0.0000000E+00;  7.8656957E-02;  9.9245618E+02;  4.2981181E-01; -6.2486025E+03;3;  5.3869984E+01;  0.0000000E+00; -2.2086050E+01;0;  1.1103415E+00;  2.1907668E+03;  0.0000000E+00;  5.0982225E-01;  4.0000000E+04;  0.0000000E+00;  3.8825156E+04;  1.1926749E+00;  0.0000000E+00; -8.2333334E-02;  7.5150293E+03;
  1.4742072E+00;  9.9999998E-03; -1.7276995E-01;8559;  1.4906678E-01;  0.0000000E+00;  7.9401590E-02;  9.9205365E+02;  4.2890921E-01; -6.5820161E+03;3;  5.0826897E+01;  0.0000000E+00; -2.0149935E+01;0;  1.2768352E+00;  2.1971013E+03;  0.0000000E+00;  5.8989006E-01;  4.0000000E+04;  0.0000000E+00;  3.8818207E+04;  1.4216435E+00;  0.0000000E+00; -1.4480835E-01;  6.6384258E+03;
  1.4717658E+00;  9.9999998E-03; -2.4365298E-01;8552;  2.4951446E-01;  0.0000000E+00;  8.2000688E-02;  9.9383051E+02;  4.2944369E-01; -5.1102627E+03;3;  6.6040527E+01;  0.0000000E+00; -2.5111994E+01;0;  6.6905802E-01;  2.2010525E+03;  0.0000000E+00; -1.0215811E+00;  4.0000000E+04;  0.0000000E+00;  3.8826914E+04;  4.8528063E-01;  0.0000000E+00;  1.8377738E-01;  1.4525410E+04;
  1.4757723E+00;  9.9999998E-03; -1.6260774E-01;8560;  1.3482842E-01;  0.0000000E+00;  7.9252675E-02;  9.9160724E+02;  4.2805365E-01; -6.9517188E+03;3;  4.9300880E+01;  0.0000000E+00; -1.7601824E+01;0;  1.4584465E+00;  2.2030269E+03;  0.0000000E+00;  7.5429189E-01;  4.0000000E+04;  0.0000000E+00;  3.8809547E+04;  1.6611679E+00;  0.0000000E+00; -2.0272131E-01;  5.5493623E+03;
  1.4736204E+00;  9.9999998E-03; -2.5377777E-01;8551;  2.6330727E-01;  0.0000000E+00;  8.3380930E-02;  9.9396906E+02;  4.2846963E-01; -4.9954453E+03;3;  6.8156044E+01;  0.0000000E+00; -2.6547968E+01;0;  6.0259831E-01;  2.2098591E+03;  0.0000000E+00; -2.7602811E+00;  4.0000000E+04;  0.0000000E+00;  3.8845020E+04;  4.2796710E-01;  0.0000000E+00;  1.7463118E-01;  2.1618361E+04;
  1.4769435E+00;  9.9999998E-03; -1.5237930E-01;8561;  1.2033016E-01;  0.0000000E+00;  7.8018904E-02;  9.9108014E+02;  4.2730647E-01; -7.3882744E+03;3;  4.7104000E+01;  0.0000000E+00; -1.5871008E+01;0;  1.6424463E+00;  2.2076924E+03;  0.0000000E+00;  9.6826816E-01;  4.0000000E+04;  0.0000000E+00;  3.8801930E+04;  1.8961242E+00;  0.0000000E+00; -2.5367793E-01;  4.6083740E+03;
  1.4762237E+00;  9.9999998E-03; -1.1156453E-01;8565;  7.1058951E-02;  0.0000000E+00;  6.1661493E-02;  9.8857001E+02;  4.2732647E-01; -9.4674307E+03;3;  3.0859222E+01;  0.0000000E+00; -1.0941262E+01;0;  2.1117511E+00;  2.1954507E+03;  0.0000000E+00;  1.3527514E+00;  4.0000000E+04;  0.0000000E+00;  3.8808488E+04;  2.4882581E+00;  0.0000000E+00; -3.7650701E-01;  5.8547505E+03;
  1.4767808E+00;  9.9999998E-03; -1.2168799E-01;8564;  8.1301518E-02;  0.0000000E+00;  6.6741094E-02;  9.8920227E+02;  4.2701590E-01; -8.9437412E+03;3;  3.4370632E+01;  0.0000000E+00; -1.1751848E+01;0;  2.0265307E+00;  2.2013965E+03;  0.0000000E+00;  1.3864726E+00;  4.0000000E+04;  0.0000000E+00;  3.8803625E+04;  2.3808985E+00;  0.0000000E+00; -3.5436773E-01;  5.0762866E+03;
  1.4775525E+00;  9.9999998E-03; -1.4211805E-01;8562;  1.0626962E-01;  0.0000000E+00;  7.5543351E-02;  9.9048804E+02;  4.2683014E-01; -7.8787036E+03;3;  4.2957096E+01;  0.0000000E+00; -1.4263754E+01;0;  1.8093649E+00;  2.2094377E+03;  0.0000000E+00;  1.1800913E+00;  4.0000000E+04;  0.0000000E+00;  3.8798340E+04;  2.1052189E+00;  0.0000000E+00; -2.9585397E-01;  4.1453154E+03;
  1.4773719E+00;  9.9999998E-03; -1.3187636E-01;8563;  9.3158454E-02;  0.0000000E+00;  7.1583852E-02;  9.8985413E+02;  4.2678738E-01; -8.4038096E+03;3;  3.8505699E+01;  0.0000000E+00; -1.2738774E+01;0;  1.9335963E+00;  2.2067612E+03;  0.0000000E+00;  1.3288387E+00;  4.0000000E+04;  0.0000000E+00;  3.8799293E+04;  2.2620816E+00;  0.0000000E+00; -3.2848540E-01;  4.3495098E+03;
  1.4764646E+00;  9.9999998E-03; -2.6388162E-01;8550;  2.7839723E-01;  0.0000000E+00;  7.5788103E-02;  9.9419885E+02;  4.2742160E-01; -4.8050762E+03;3;  7.1561203E+01;  0.0000000E+00; -3.3336479E+01;0;  5.9852231E-01;  2.2178767E+03;  0.0000000E+00; -5.1702900E+00;  4.0000000E+04;  0.0000000E+00;  3.8891738E+04;  3.8203484E-01;  0.0000000E+00;  2.1648748E-01;  3.1133406E+04;
  1.5119374E+00;  9.9999998E-03; -2.0323628E-01;8617;  1.8498713E-01;  0.0000000E+00;  1.2514128E-01;  9.8865338E+02;  3.9466169E-01; -9.3969492E+03;3;  6.3091385E+01;  0.0000000E+00; -9.9071741E+00;0;  2.6864631E+00;  2.5782905E+03;  0.0000000E+00;  1.2401972E+00;  4.0000000E+04;  0.0000000E+00;  3.8850660E+04;  2.8558266E+00;  0.0000000E+00; -1.6936360E-01;  9.5049932E+03;
  1.5119306E+00;  9.9999998E-03; -2.1333893E-01;8616;  1.9977894E-01;  0.0000000E+00;  1.2722026E-01;  9.8818207E+02;  3.9469245E-01; -9.7872617E+03;3;  6.6689690E+01;  0.0000000E+00; -1.0053828E+01;0;  2.4466591E+00;  2.5753420E+03;  0.0000000E+00;  1.1961008E+00;  4.0000000E+04;  0.0000000E+00;  3.8859008E+04;  2.5715449E+00;  0.0000000E+00; -1.2488569E-01;  1.1107479E+04;
  1.5125909E+00;  9.9999998E-03; -1.9313078E-01;8618;  1.7013288E-01;  0.0000000E+00;  1.2364934E-01;  9.8921130E+02;  3.9418674E-01; -8.9348311E+03;3;  5.9345211E+01;  0.0000000E+00; -9.5216970E+00;0;  2.9814303E+00;  2.5867400E+03;  0.0000000E+00;  1.2167395E+00;  4.0000000E+04;  0.0000000E+00;  3.8841156E+04;  3.2018239E+00;  0.0000000E+00; -2.2039364E-01;  8.0119805E+03;
  1.5124712E+00;  9.9999998E-03; -2.2346416E-01;8615;  2.1447216E-01;  0.0000000E+00;  1.2995145E-01;  9.8782025E+02;  3.9429206E-01; -1.0086862E+04;3;  7.0277061E+01;  0.0000000E+00; -1.0098161E+01;0;  2.2494183E+00;  2.5776692E+03;  0.0000000E+00;  9.6112114E-01;  4.0000000E+04;  0.0000000E+00;  3.8866883E+04;  2.3413200E+00;  0.0000000E+00; -9.1901846E-02;  1.3074767E+04;
  1.5134276E+00;  9.9999998E-03; -2.3363648E-01;8614;  2.2894563E-01;  0.0000000E+00;  1.3340551E-01;  9.8750244E+02;  3.9351839E-01; -1.0350008E+04;3;  7.1334709E+01;  0.0000000E+00; -9.7717686E+00;0;  2.0782380E+00;  2.5848210E+03;  0.0000000E+00;  3.2025871E-01;  4.0000000E+04;  0.0000000E+00;  3.8868184E+04;  2.1559091E+00;  0.0000000E+00; -7.7671126E-02;  1.5358991E+04;
  1.5139842E+00;  9.9999998E-03; -1.8304493E-01;8619;  1.5549731E-01;  0.0000000E+00;  1.2252054E-01;  9.8979456E+02;  3.9325565E-01; -8.4517500E+03;3;  5.5312737E+01;  0.0000000E+00; -8.5493631E+00;0;  3.3417099E+00;  2.6011333E+03;  0.0000000E+00;  1.1934155E+00;  4.0000000E+04;  0.0000000E+00;  3.8827738E+04;  3.6154997E+00;  0.0000000E+00; -2.7378997E-01;  6.1795737E+03;
  1.5147289E+00;  9.9999998E-03; -2.4381055E-01;8613;  2.4064864E-01;  0.0000000E+00;  1.3715281E-01;  9.8724005E+02;  3.9248779E-01; -1.0567221E+04;3;  5.9448154E+01;  0.0000000E+00; -1.3589648E+01;0;  1.9194857E+00;  2.5957856E+03;  0.0000000E+00; -1.0160102E+00;  4.0000000E+04;  0.0000000E+00;  3.8864012E+04;  2.0120232E+00;  0.0000000E+00; -9.2537545E-02;  1.9808023E+04;
  1.5158122E+00;  9.9999998E-03; -1.7297649E-01;8620;  1.4296037E-01;  0.0000000E+00;  1.2069321E-01;  9.9036066E+02;  3.9206588E-01; -7.9828218E+03;3;  3.4066872E+01;  0.0000000E+00; -3.0804875E+00;0;  3.7460036E+00;  2.6189536E+03;  0.0000000E+00;  1.2154951E+00;  4.0000000E+04;  0.0000000E+00;  3.8810430E+04;  4.0704446E+00;  0.0000000E+00; -3.2444093E-01;  3.9146621E+03;
  1.5163026E+00;  9.9999998E-03; -2.5395441E-01;8612;  2.5038648E-01;  0.0000000E+00;  1.3979426E-01;  9.8719543E+02;  3.9139575E-01; -1.0604095E+04;3;  5.9225616E+01;  0.0000000E+00; -1.9705452E+01;0;  1.7636365E+00;  2.6082280E+03;  0.0000000E+00; -3.2705507E+00;  4.0000000E+04;  0.0000000E+00;  3.8866066E+04;  1.9053048E+00;  0.0000000E+00; -1.4166829E-01;  2.8618072E+04;
  1.5176278E+00;  9.9999998E-03; -1.6288061E-01;8621;  1.5098415E-01;  0.0000000E+00;  1.1380218E-01;  9.9077991E+02;  3.9084700E-01; -7.6355283E+03;3; -5.3042583E+01;  0.0000000E+00;  1.0437861E+01;0;  4.1514111E+00;  2.6367742E+03;  0.0000000E+00;  1.2972026E+00;  4.0000000E+04;  0.0000000E+00;  3.8791762E+04;  4.5194788E+00;  0.0000000E+00; -3.6806783E-01;  1.3952333E+03;
  1.5188415E+00;  9.9999998E-03; -1.1182611E-01;8626;  1.5885648E-01;  0.0000000E+00;  8.4192179E-02;  9.8897369E+02;  3.8972145E-01; -9.1313008E+03;3; -1.4208107E+02;  0.0000000E+00;  8.1318674E+00;0;  5.4417133E+00;  2.6435120E+03;  0.0000000E+00;  1.6240093E+00;  4.0000000E+04;  0.0000000E+00;  3.8749297E+04;  5.9189410E+00;  0.0000000E+00; -4.7722793E-01;  4.0108967E+03;
  1.5191070E+00;  9.9999998E-03; -1.5270850E-01;8622;  1.7229654E-01;  0.0000000E+00;  1.0658777E-01;  9.9095349E+02;  3.8977396E-01; -7.4917197E+03;3; -8.5137619E+01;  0.0000000E+00;  1.1179200E+01;0;  4.5274100E+00;  2.6517935E+03;  0.0000000E+00;  1.4175494E+00;  4.0000000E+04;  0.0000000E+00;  3.8773949E+04;  4.9301295E+00;  0.0000000E+00; -4.0271947E-01;  1.0079383E+03;
  1.5194292E+00;  9.9999998E-03; -1.2196869E-01;8625;  1.7248212E-01;  0.0000000E+00;  9.0556927E-02;  9.8967285E+02;  3.8928452E-01; -8.5522666E+03;3; -1.2868219E+02;  0.0000000E+00;  9.1159658E+00;0;  5.2804456E+00;  2.6524377E+03;  0.0000000E+00;  1.6758922E+00;  4.0000000E+04;  0.0000000E+00;  3.8749191E+04;  5.7434878E+00;  0.0000000E+00; -4.6304229E-01;  4.0510605E+03;
  1.5198252E+00;  9.9999998E-03; -1.4244926E-01;8623;  1.8285671E-01;  0.0000000E+00;  1.0135811E-01;  9.9078741E+02;  3.8915756E-01; -7.6292534E+03;3; -1.0188965E+02;  0.0000000E+00;  1.1478459E+01;0;  4.8396416E+00;  2.6592620E+03;  0.0000000E+00;  1.5453563E+00;  4.0000000E+04;  0.0000000E+00;  3.8760406E+04;  5.2678919E+00;  0.0000000E+00; -4.2825016E-01;  2.8060073E+03;
  1.5198643E+00;  9.9999998E-03; -1.3218021E-01;8624;  1.8244858E-01;  0.0000000E+00;  9.6328601E-02;  9.9032739E+02;  3.8902673E-01; -8.0101670E+03;3; -1.1548002E+02;  0.0000000E+00;  1.0589753E+01;0;  5.0871310E+00;  2.6588418E+03;  0.0000000E+00;  1.6419342E+00;  4.0000000E+04;  0.0000000E+00;  3.8752473E+04;  5.5345025E+00;  0.0000000E+00; -4.4737142E-01;  3.7750471E+03;
  1.5184858E+00;  9.9999998E-03; -2.6406100E-01;8611;  2.5968164E-01;  0.0000000E+00;  1.3973139E-01;  9.8760535E+02;  3.9026788E-01; -1.0264498E+04;3;  6.4391754E+01;  0.0000000E+00; -2.2758692E+01;0;  1.6400998E+00;  2.6216855E+03;  0.0000000E+00; -6.3665943E+00;  4.0000000E+04;  0.0000000E+00;  3.8894211E+04;  1.8558873E+00;  0.0000000E+00; -2.1578749E-01;  4.0769102E+04;
  1.5496689E+00;  9.9999998E-03; -2.0340298E-01;8678;  2.7360192E-01;  0.0000000E+00;  1.2917545E-01;  9.8937054E+02;  3.5656646E-01; -8.8005049E+03;3; -1.2027352E+02;  0.0000000E+00;  3.0210634E+01;0;  5.3672962E+00;  3.1638711E+03;  0.0000000E+00;  1.9631385E+00;  4.0000000E+04;  0.0000000E+00;  3.8842254E+04;  5.6938162E+00;  0.0000000E+00; -3.2651982E-01;  5.9679297E+03;
  1.5501897E+00;  9.9999998E-03; -1.9328302E-01;8679;  3.1092465E-01;  0.0000000E+00;  1.2518534E-01;  9.9063086E+02;  3.5605827E-01; -7.7569873E+03;3; -1.3045486E+02;  0.0000000E+00;  3.1166489E+01;0;  5.6469975E+00;  3.1807646E+03;  0.0000000E+00;  1.9047316E+00;  4.0000000E+04;  0.0000000E+00;  3.8827605E+04;  5.9981723E+00;  0.0000000E+00; -3.5117465E-01;  3.7586221E+03;
  1.5499574E+00;  9.9999998E-03; -2.1350530E-01;8677;  2.4448645E-01;  0.0000000E+00;  1.3060968E-01;  9.8831873E+02;  3.5647011E-01; -9.6712861E+03;3; -1.0152941E+02;  0.0000000E+00;  3.2107609E+01;0;  5.1409788E+00;  3.1579302E+03;  0.0000000E+00;  1.8731364E+00;  4.0000000E+04;  0.0000000E+00;  3.8855480E+04;  5.4479251E+00;  0.0000000E+00; -3.0694640E-01;  8.2207842E+03;
  1.5513994E+00;  9.9999998E-03; -1.8316734E-01;8680;  3.5652941E-01;  0.0000000E+00;  1.1720362E-01;  9.9197809E+02;  3.5508966E-01; -6.6414824E+03;3; -1.3898260E+02;  0.0000000E+00;  3.2181999E+01;0;  5.9579306E+00;  3.2061902E+03;  0.0000000E+00;  1.8003709E+00;  4.0000000E+04;  0.0000000E+00;  3.8808301E+04;  6.3335638E+00;  0.0000000E+00; -3.7563345E-01;  1.2761897E+03;
  1.5509845E+00;  9.9999998E-03; -2.2361502E-01;8676;  2.2704665E-01;  0.0000000E+00;  1.3237001E-01;  9.8753821E+02;  3.5578588E-01; -1.0317399E+04;3; -5.2710766E+01;  0.0000000E+00;  4.0083092E+01;0;  4.9680958E+00;  3.1627229E+03;  0.0000000E+00;  1.4227418E+00;  4.0000000E+04;  0.0000000E+00;  3.8868332E+04;  5.2679262E+00;  0.0000000E+00; -2.9983020E-01;  1.1270310E+04;
  1.5530583E+00;  9.9999998E-03; -1.7306474E-01;8681;  4.0918219E-01;  0.0000000E+00;  1.0577248E-01;  9.9329602E+02;  3.5384634E-01; -5.5502573E+03;3; -1.4509938E+02;  0.0000000E+00;  3.2734234E+01;0;  6.2710624E+00;  3.2365708E+03;  0.0000000E+00;  1.6847376E+00;  4.0000000E+04;  0.0000000E+00;  3.8785184E+04;  6.6664057E+00;  0.0000000E+00; -3.9534351E-01;  2.2581045E+03;
  1.5525397E+00;  9.9999998E-03; -2.3376378E-01;8675;  2.2404076E-01;  0.0000000E+00;  1.3469343E-01;  9.8699811E+02;  3.5466337E-01; -1.0764420E+04;3;  6.9210777E+00;  0.0000000E+00;  4.2731724E+01;0;  4.8308005E+00;  3.1762969E+03;  0.0000000E+00;  2.7132106E-01;  4.0000000E+04;  0.0000000E+00;  3.8876137E+04;  5.1440830E+00;  0.0000000E+00; -3.1328264E-01;  1.6328607E+04;
  1.5547844E+00;  9.9999998E-03; -1.6293769E-01;8682;  4.6127281E-01;  0.0000000E+00;  9.3738660E-02;  9.9444025E+02;  3.5258210E-01; -4.6028589E+03;3; -1.4933763E+02;  0.0000000E+00;  3.2669949E+01;0;  6.5589843E+00;  3.2665928E+03;  0.0000000E+00;  1.5665579E+00;  4.0000000E+04;  0.0000000E+00;  3.8760977E+04;  6.9665298E+00;  0.0000000E+00; -4.0754569E-01;  5.3307378E+03;
  1.5542723E+00;  9.9999998E-03; -2.4393864E-01;8674;  2.2824197E-01;  0.0000000E+00;  1.3779210E-01;  9.8663837E+02;  3.5339627E-01; -1.1062031E+04;3;  3.3578056E+01;  0.0000000E+00;  4.3514481E+01;0;  4.6967077E+00;  3.1942297E+03;  0.0000000E+00; -1.9640262E+00;  4.0000000E+04;  0.0000000E+00;  3.8872812E+04;  5.0529909E+00;  0.0000000E+00; -3.5628325E-01;  2.6078982E+04;
  1.5561336E+00;  9.9999998E-03; -1.5274572E-01;8683;  5.0316733E-01;  0.0000000E+00;  8.4409244E-02;  9.9523547E+02;  3.5158822E-01; -3.9444250E+03;3; -1.5343854E+02;  0.0000000E+00;  3.1869852E+01;0;  6.8044171E+00;  3.2898369E+03;  0.0000000E+00;  1.4346337E+00;  4.0000000E+04;  0.0000000E+00;  3.8739559E+04;  7.2165456E+00;  0.0000000E+00; -4.1212851E-01;  8.1445557E+03;
  1.5557834E+00;  9.9999998E-03; -2.5411183E-01;8673;  2.3429768E-01;  0.0000000E+00;  1.4220785E-01;  9.8644525E+02;  3.5227865E-01; -1.1221730E+04;3;  4.7961803E+01;  0.0000000E+00;  4.2849991E+01;0;  4.5216918E+00;  3.2116182E+03;  0.0000000E+00; -5.4778309E+00;  4.0000000E+04;  0.0000000E+00;  3.8858902E+04;  4.9633431E+00;  0.0000000E+00; -4.4165140E-01;  4.2420406E+04;
  1.5569047E+00;  9.9999998E-03; -1.4249800E-01;8684;  5.3269184E-01;  0.0000000E+00;  7.8086518E-02;  9.9559338E+02;  3.5100782E-01; -3.6481245E+03;3; -1.5851033E+02;  0.0000000E+00;  3.0729593E+01;0;  7.0076165E+00;  3.3029238E+03;  0.0000000E+00;  1.2862892E+00;  4.0000000E+04;  0.0000000E+00;  3.8722625E+04;  7.4187179E+00;  0.0000000E+00; -4.1110119E-01;  1.0368479E+04;
  1.5568005E+00;  9.9999998E-03; -1.1189948E-01;8687;  5.7646358E-01;  0.0000000E+00;  6.4648457E-02;  9.9465826E+02;  3.5124195E-01; -4.4222539E+03;3; -1.8105472E+02;  0.0000000E+00;  2.5608974E+01;0;  7.4477391E+00;  3.2944473E+03;  0.0000000E+00;  8.8037044E-01;  4.0000000E+04;  0.0000000E+00;  3.8699656E+04;  7.8465281E+00;  0.0000000E+00; -3.9878911E-01;  1.3230692E+04;
  1.5567425E+00;  9.9999998E-03; -2.6426777E-01;8672;  2.4172637E-01;  0.0000000E+00;  1.4852712E-01;  9.8637189E+02;  3.5147434E-01; -1.1282357E+04;3;  6.0465015E+01;  0.0000000E+00;  4.1855690E+01;0;  4.2595377E+00;  3.2252488E+03;  0.0000000E+00; -9.9598799E+00;  4.0000000E+04;  0.0000000E+00;  3.8840469E+04;  4.8455219E+00;  0.0000000E+00; -5.8598411E-01;  6.2773055E+04;
  1.5571421E+00;  9.9999998E-03; -1.3225707E-01;8685;  5.5205095E-01;  0.0000000E+00;  7.3442981E-02;  9.9552826E+02;  3.5083777E-01; -3.7019995E+03;3; -1.6517288E+02;  0.0000000E+00;  2.9270538E+01;0;  7.1769629E+00;  3.3059956E+03;  0.0000000E+00;  1.1360862E+00;  4.0000000E+04;  0.0000000E+00;  3.8710922E+04;  7.5842414E+00;  0.0000000E+00; -4.0727845E-01;  1.1902143E+04;
  1.5570463E+00;  9.9999998E-03; -1.2205979E-01;8686;  5.6543571E-01;  0.0000000E+00;  6.9137812E-02;  9.9515540E+02;  3.5096020E-01; -4.0107051E+03;3; -1.7294252E+02;  0.0000000E+00;  2.7533440E+01;0;  7.3217316E+00;  3.3020227E+03;  0.0000000E+00;  9.9995697E-01;  4.0000000E+04;  0.0000000E+00;  3.8703402E+04;  7.7245584E+00;  0.0000000E+00; -4.0282699E-01;  1.2797098E+04;
  1.5836983E+00;  9.9999998E-03; -1.9333932E-01;8740;  6.5302080E-01;  0.0000000E+00;  6.1066121E-02;  9.9465393E+02;  3.1959397E-01; -4.4242427E+03;3; -1.6174117E+02;  0.0000000E+00;  5.4440811E+01;0;  6.9429679E+00;  3.9838660E+03;  0.0000000E+00;  2.3679245E+00;  4.0000000E+04;  0.0000000E+00;  3.8801238E+04;  7.2892346E+00;  0.0000000E+00; -3.4626693E-01;  2.4270544E+03;
  1.5838983E+00;  9.9999998E-03; -2.0348862E-01;8739;  6.2272847E-01;  0.0000000E+00;  6.1799552E-02;  9.9328546E+02;  3.1961572E-01; -5.5567241E+03;3; -1.6104893E+02;  0.0000000E+00;  5.4636681E+01;0;  6.8847413E+00;  3.9714700E+03;  0.0000000E+00;  2.3058929E+00;  4.0000000E+04;  0.0000000E+00;  3.8816965E+04;  7.2292895E+00;  0.0000000E+00; -3.4454817E-01;  1.9305203E+02;
  1.5843518E+00;  9.9999998E-03; -1.8315950E-01;8741;  6.9460070E-01;  0.0000000E+00;  5.7102907E-02;  9.9624396E+02;  3.1900594E-01; -3.1083606E+03;3; -1.6171492E+02;  0.0000000E+00;  5.4145840E+01;0;  6.9970608E+00;  4.0113181E+03;  0.0000000E+00;  2.2512245E+00;  4.0000000E+04;  0.0000000E+00;  3.8782543E+04;  7.3416615E+00;  0.0000000E+00; -3.4460047E-01;  4.9384458E+03;
  1.5850406E+00;  9.9999998E-03; -2.1357663E-01;8738;  6.0541511E-01;  0.0000000E+00;  6.1236039E-02;  9.9230756E+02;  3.1900477E-01; -6.3659102E+03;3; -1.5970988E+02;  0.0000000E+00;  5.4846958E+01;0;  6.8369656E+00;  3.9763320E+03;  0.0000000E+00;  1.8701726E+00;  4.0000000E+04;  0.0000000E+00;  3.8832684E+04;  7.1807227E+00;  0.0000000E+00; -3.4375733E-01;  2.9721914E+03;
  1.5856386E+00;  9.9999998E-03; -1.7298950E-01;8742;  7.4473387E-01;  0.0000000E+00;  4.9426682E-02;  9.9789142E+02;  3.1804022E-01; -1.7449374E+03;3; -1.5981668E+02;  0.0000000E+00;  5.3405468E+01;0;  7.0301528E+00;  4.0485774E+03;  0.0000000E+00;  2.0586095E+00;  4.0000000E+04;  0.0000000E+00;  3.8760715E+04;  7.3669133E+00;  0.0000000E+00; -3.3676058E-01;  7.8484751E+03;
  1.5871285E+00;  9.9999998E-03; -1.6281933E-01;8743;  7.9626769E-01;  0.0000000E+00;  4.0252320E-02;  9.9942963E+02;  3.1701183E-01; -4.7198331E+02;3; -1.5621860E+02;  0.0000000E+00;  5.2339386E+01;0;  7.0346537E+00;  4.0865828E+03;  0.0000000E+00;  1.8323038E+00;  4.0000000E+04;  0.0000000E+00;  3.8738793E+04;  7.3570209E+00;  0.0000000E+00; -3.2236713E-01;  1.0770380E+04;
  1.5870614E+00;  9.9999998E-03; -2.2362837E-01;8737;  6.0310233E-01;  0.0000000E+00;  6.1755937E-02;  9.9188910E+02;  3.1782582E-01; -6.7119458E+03;3; -1.5681743E+02;  0.0000000E+00;  5.5271790E+01;0;  6.8029866E+00;  3.9974390E+03;  0.0000000E+00;  7.3588187E-01;  4.0000000E+04;  0.0000000E+00;  3.8854176E+04;  7.1538711E+00;  0.0000000E+00; -3.5088432E-01;  9.1677764E+03;
  1.5883068E+00;  9.9999998E-03; -1.5261258E-01;8744;  8.4008127E-01;  0.0000000E+00;  3.2902926E-02;  1.0006479E+03;  3.1625488E-01;  5.3614301E+02;3; -1.5266765E+02;  0.0000000E+00;  5.1157467E+01;0;  7.0205293E+00;  4.1152290E+03;  0.0000000E+00;  1.5855359E+00;  4.0000000E+04;  0.0000000E+00;  3.8719949E+04;  7.3241415E+00;  0.0000000E+00; -3.0361217E-01;  1.3286625E+04;
  1.5890950E+00;  9.9999998E-03; -1.4240354E-01;8745;  8.7488675E-01;  0.0000000E+00;  2.7750285E-02;  1.0014524E+03;  3.1576514E-01;  1.2018905E+03;3; -1.5008076E+02;  0.0000000E+00;  5.0032471E+01;0;  6.9992752E+00;  4.1339307E+03;  0.0000000E+00;  1.3157958E+00;  4.0000000E+04;  0.0000000E+00;  3.8705531E+04;  7.2814579E+00;  0.0000000E+00; -2.8218251E-01;  1.5212386E+04;
  1.5896032E+00;  9.9999998E-03; -1.3221018E-01;8746;  9.0309894E-01;  0.0000000E+00;  2.3963429E-02;  1.0018594E+03;  3.1544861E-01;  1.5386506E+03;3; -1.4845282E+02;  0.0000000E+00;  4.8919941E+01;0;  6.9755754E+00;  4.1453726E+03;  0.0000000E+00;  1.0350485E+00;  4.0000000E+04;  0.0000000E+00;  3.8695234E+04;  7.2346458E+00;  0.0000000E+00; -2.5907046E-01;  1.6568969E+04;
  1.5899272E+00;  9.9999998E-03; -1.2204146E-01;8747;  9.2688334E-01;  0.0000000E+00;  2.0917589E-02;  1.0019528E+03;  3.1525776E-01;  1.6158794E+03;3; -1.4737740E+02;  0.0000000E+00;  4.7712021E+01;0;  6.9508443E+00;  4.1514893E+03;  0.0000000E+00;  7.7486414E-01;  4.0000000E+04;  0.0000000E+00;  3.8688594E+04;  7.1857648E+00;  0.0000000E+00; -2.3492047E-01;  1.7447219E+04;
  1.5900769E+00;  9.9999998E-03; -1.1189353E-01;8748;  9.4700652E-01;  0.0000000E+00;  1.8406540E-02;  1.0018213E+03;  3.1519860E-01;  1.5070715E+03;3; -1.4670648E+02;  0.0000000E+00;  4.6327381E+01;0;  6.9279699E+00;  4.1528301E+03;  0.0000000E+00;  5.6232685E-01;  4.0000000E+04;  0.0000000E+00;  3.8684449E+04;  7.1384673E+00;  0.0000000E+00; -2.1049744E-01;  1.7967305E+04;
  1.5895339E+00;  9.9999998E-03; -2.3372246E-01;8736;  6.1388135E-01;  0.0000000E+00;  6.4102456E-02;  9.9188434E+02;  3.1641153E-01; -6.7155996E+03;3; -1.5260962E+02;  0.0000000E+00;  5.5599178E+01;0;  6.7708988E+00;  4.0271836E+03;  0.0000000E+00; -1.5689806E+00;  4.0000000E+04;  0.0000000E+00;  3.8875852E+04;  7.1447935E+00;  0.0000000E+00; -3.7389475E-01;  2.0956104E+04;
  1.5904950E+00;  9.9999998E-03; -2.6432878E-01;8733;  5.2533144E-01;  0.0000000E+00;  7.8153290E-02;  9.9023071E+02;  3.1537479E-01; -8.0838022E+03;3; -1.5738312E+02;  0.0000000E+00;  5.3990852E+01;0;  6.5016060E+00;  4.0388093E+03;  0.0000000E+00; -1.5530027E+01;  4.0000000E+04;  0.0000000E+00;  3.8811078E+04;  7.0144939E+00;  0.0000000E+00; -5.1288790E-01;  9.0048328E+04;
  1.5915183E+00;  9.9999998E-03; -2.4391341E-01;8735;  6.2066936E-01;  0.0000000E+00;  6.5927617E-02;  9.9178668E+02;  3.1534031E-01; -6.7961924E+03;3; -1.5094318E+02;  0.0000000E+00;  5.5320496E+01;0;  6.7285476E+00;  4.0500979E+03;  0.0000000E+00; -5.4116116E+00;  4.0000000E+04;  0.0000000E+00;  3.8875219E+04;  7.1366105E+00;  0.0000000E+00; -4.0806311E-01;  4.0702875E+04;
  1.5920386E+00;  9.9999998E-03; -2.5413918E-01;8734;  5.9695107E-01;  0.0000000E+00;  6.7975603E-02;  9.9117340E+02;  3.1496468E-01; -7.3035791E+03;3; -1.5332059E+02;  0.0000000E+00;  5.4617008E+01;0;  6.6643229E+00;  4.0551438E+03;  0.0000000E+00; -1.0570204E+01;  4.0000000E+04;  0.0000000E+00;  3.8846031E+04;  7.1058416E+00;  0.0000000E+00; -4.4151869E-01;  6.7706664E+04;
  1.6134672E+00;  9.9999998E-03; -1.9336194E-01;8801;  9.4467157E-01;  0.0000000E+00; -1.2589433E-02;  9.9923560E+02;  2.8725135E-01; -6.3222919E+02;3; -1.3788747E+02;  0.0000000E+00;  5.1777390E+01;0;  6.4464064E+00;  4.9796108E+03;  0.0000000E+00;  2.2073143E+00;  4.0000000E+04;  0.0000000E+00;  3.8780289E+04;  6.7005744E+00;  0.0000000E+00; -2.5416818E-01;  7.5202993E+03;
  1.6136068E+00;  9.9999998E-03; -1.8316364E-01;8802;  9.7422183E-01;  0.0000000E+00; -1.3958684E-02;  1.0004908E+03;  2.8706160E-01;  4.0590695E+02;3; -1.3262148E+02;  0.0000000E+00;  5.1477444E+01;0;  6.3250446E+00;  4.9999854E+03;  0.0000000E+00;  2.1547155E+00;  4.0000000E+04;  0.0000000E+00;  3.8765074E+04;  6.5591145E+00;  0.0000000E+00; -2.3406960E-01;  9.3884951E+03;
  1.6143826E+00;  9.9999998E-03; -1.7295177E-01;8803;  1.0100912E+00;  0.0000000E+00; -1.7414216E-02;  1.0019146E+03;  2.8651461E-01;  1.5834688E+03;3; -1.2500033E+02;  0.0000000E+00;  5.0542477E+01;0;  6.1655064E+00;  5.0335630E+03;  0.0000000E+00;  1.9520264E+00;  4.0000000E+04;  0.0000000E+00;  3.8748422E+04;  6.3743486E+00;  0.0000000E+00; -2.0884220E-01;  1.1410547E+04;
  1.6142640E+00;  9.9999998E-03; -2.0349668E-01;8800;  9.2673516E-01;  0.0000000E+00; -1.2448502E-02;  9.9832245E+02;  2.8686139E-01; -1.3874250E+03;3; -1.4114006E+02;  0.0000000E+00;  5.1733059E+01;0;  6.5233912E+00;  4.9813994E+03;  0.0000000E+00;  1.9685022E+00;  4.0000000E+04;  0.0000000E+00;  3.8794211E+04;  6.7930884E+00;  0.0000000E+00; -2.6969707E-01;  5.4192031E+03;
  1.6154150E+00;  9.9999998E-03; -1.6274559E-01;8804;  1.0467428E+00;  0.0000000E+00; -2.2094538E-02;  1.0033050E+03;  2.8587988E-01;  2.7332605E+03;3; -1.1563967E+02;  0.0000000E+00;  4.9077946E+01;0;  5.9831266E+00;  5.0695288E+03;  0.0000000E+00;  1.7108251E+00;  4.0000000E+04;  0.0000000E+00;  3.8732535E+04;  6.1627536E+00;  0.0000000E+00; -1.7962691E-01;  1.3471998E+04;
  1.6164275E+00;  9.9999998E-03; -1.5254776E-01;8805;  1.0793058E+00;  0.0000000E+00; -2.6601573E-02;  1.0045249E+03;  2.8530064E-01;  3.7421116E+03;3; -1.0586253E+02;  0.0000000E+00;  4.7568111E+01;0;  5.7949753E+00;  5.1014424E+03;  0.0000000E+00;  1.4917979E+00;  4.0000000E+04;  0.0000000E+00;  3.8719023E+04;  5.9428949E+00;  0.0000000E+00; -1.4791989E-01;  1.5267506E+04;
  1.6161385E+00;  9.9999998E-03; -2.1354254E-01;8799;  9.2594171E-01;  0.0000000E+00; -1.2162669E-02;  9.9796783E+02;  2.8584352E-01; -1.6806014E+03;3; -1.4109875E+02;  0.0000000E+00;  5.2008686E+01;0;  6.5558076E+00;  5.0081426E+03;  0.0000000E+00;  1.2413763E+00;  4.0000000E+04;  0.0000000E+00;  3.8811656E+04;  6.8391643E+00;  0.0000000E+00; -2.8335652E-01;  3.9456948E+03;
  1.6173507E+00;  9.9999998E-03; -1.4236543E-01;8806;  1.1062784E+00;  0.0000000E+00; -3.0389896E-02;  1.0054720E+03;  2.8476122E-01;  4.5251631E+03;3; -9.6471184E+01;  0.0000000E+00;  4.6181133E+01;0;  5.6093888E+00;  5.1293433E+03;  0.0000000E+00;  1.2941501E+00;  4.0000000E+04;  0.0000000E+00;  3.8709242E+04;  5.7237182E+00;  0.0000000E+00; -1.1432914E-01;  1.6611898E+04;
  1.6181127E+00;  9.9999998E-03; -1.3219965E-01;8807;  1.1274998E+00;  0.0000000E+00; -3.3239815E-02;  1.0060950E+03;  2.8426912E-01;  5.0403516E+03;3; -8.8065559E+01;  0.0000000E+00;  4.5053192E+01;0;  5.4351931E+00;  5.1524312E+03;  0.0000000E+00;  1.0926853E+00;  4.0000000E+04;  0.0000000E+00;  3.8702750E+04;  5.5144539E+00;  0.0000000E+00; -7.9261050E-02;  1.7506717E+04;
  1.6186712E+00;  9.9999998E-03; -1.2205292E-01;8808;  1.1437380E+00;  0.0000000E+00; -3.5263237E-02;  1.0063815E+03;  2.8388053E-01;  5.2771602E+03;3; -8.0824265E+01;  0.0000000E+00;  4.4483376E+01;0;  5.2793555E+00;  5.1692930E+03;  0.0000000E+00;  8.8328582E-01;  4.0000000E+04;  0.0000000E+00;  3.8698668E+04;  5.3221712E+00;  0.0000000E+00; -4.2815592E-02;  1.8057707E+04;
  1.6188995E+00;  9.9999998E-03; -2.2355254E-01;8798;  9.4272208E-01;  0.0000000E+00; -1.1045553E-02;  9.9815295E+02;  2.8438902E-01; -1.5273818E+03;3; -1.3724623E+02;  0.0000000E+00;  5.1890495E+01;0;  6.5517883E+00;  5.0541079E+03;  0.0000000E+00; -3.5956353E-01;  4.0000000E+04;  0.0000000E+00;  3.8837199E+04;  6.8518186E+00;  0.0000000E+00; -3.0003038E-01;  1.1046037E+04;
  1.6193323E+00;  9.9999998E-03; -2.6429102E-01;8794;  8.4182495E-01;  0.0000000E+00;  8.4770592E-03;  9.9524445E+02;  2.8398311E-01; -3.9325117E+03;3; -1.6725798E+02;  0.0000000E+00;  5.5255703E+01;0;  6.8943148E+00;  5.0363638E+03;  0.0000000E+00; -1.7981300E+01;  4.0000000E+04;  0.0000000E+00;  3.8799543E+04;  7.2854748E+00;  0.0000000E+00; -3.9115992E-01;  9.7644734E+04;
  1.6190284E+00;  9.9999998E-03; -1.1191619E-01;8809;  1.1561267E+00;  0.0000000E+00; -3.6737200E-02;  1.0064091E+03;  2.8362033E-01;  5.2998799E+03;3; -7.4653847E+01;  0.0000000E+00;  4.4069893E+01;0;  5.1448536E+00;  5.1793677E+03;  0.0000000E+00;  6.7866719E-01;  4.0000000E+04;  0.0000000E+00;  3.8696199E+04;  5.1499920E+00;  0.0000000E+00; -5.1383190E-03;  1.8382896E+04;
  1.6215739E+00;  9.9999998E-03; -2.3367189E-01;8797;  9.6100610E-01;  0.0000000E+00; -1.1915366E-02;  9.9823419E+02;  2.8302145E-01; -1.4600894E+03;3; -1.3429228E+02;  0.0000000E+00;  5.2410564E+01;0;  6.5582924E+00;  5.0985337E+03;  0.0000000E+00; -3.4618108E+00;  4.0000000E+04;  0.0000000E+00;  3.8854184E+04;  6.8744545E+00;  0.0000000E+00; -3.1616223E-01;  2.8151086E+04;
  1.6223210E+00;  9.9999998E-03; -2.5410810E-01;8795;  9.2110306E-01;  0.0000000E+00; -7.4842093E-03;  9.9631250E+02;  2.8269392E-01; -3.0490437E+03;3; -1.4826425E+02;  0.0000000E+00;  5.2721886E+01;0;  6.7682271E+00;  5.0932295E+03;  0.0000000E+00; -1.4368390E+01;  4.0000000E+04;  0.0000000E+00;  3.8819207E+04;  7.1035299E+00;  0.0000000E+00; -3.3530295E-01;  8.6515812E+04;
  1.6229085E+00;  9.9999998E-03; -2.4389835E-01;8796;  9.5762581E-01;  0.0000000E+00; -1.3006823E-02;  9.9751349E+02;  2.8238299E-01; -2.0559719E+03;3; -1.3847552E+02;  0.0000000E+00;  5.1757023E+01;0;  6.6337962E+00;  5.1144097E+03;  0.0000000E+00; -8.4103518E+00;  4.0000000E+04;  0.0000000E+00;  3.8841871E+04;  6.9567142E+00;  0.0000000E+00; -3.2291785E-01;  5.5326465E+04;
  1.6397202E+00;  9.9999998E-03; -1.8306093E-01;8863;  1.1528277E+00;  0.0000000E+00; -6.1180189E-02;  1.0035389E+03;  2.5965297E-01;  2.9245232E+03;3; -7.8210251E+01;  0.0000000E+00;  3.9663589E+01;0;  4.8276854E+00;  6.1488511E+03;  0.0000000E+00;  1.6753715E+00;  4.0000000E+04;  0.0000000E+00;  3.8760871E+04;  4.9319062E+00;  0.0000000E+00; -1.0422090E-01;  1.1287016E+04;
  1.6400077E+00;  9.9999998E-03; -1.7284754E-01;8864;  1.1710269E+00;  0.0000000E+00; -6.2269960E-02;  1.0043645E+03;  2.5949562E-01;  3.6066790E+03;3; -6.7837891E+01;  0.0000000E+00;  3.9184166E+01;0;  4.6193032E+00;  6.1682539E+03;  0.0000000E+00;  1.5073525E+00;  4.0000000E+04;  0.0000000E+00;  3.8749402E+04;  4.6899004E+00;  0.0000000E+00; -7.0597172E-02;  1.2437650E+04;
  1.6400852E+00;  9.9999998E-03; -1.9325188E-01;8862;  1.1378046E+00;  0.0000000E+00; -6.0770791E-02;  1.0029277E+03;  2.5945383E-01;  2.4193208E+03;3; -8.5837807E+01;  0.0000000E+00;  3.9804798E+01;0;  4.9940228E+00;  6.1478501E+03;  0.0000000E+00;  1.6629364E+00;  4.0000000E+04;  0.0000000E+00;  3.8772023E+04;  5.1281061E+00;  0.0000000E+00; -1.3408315E-01;  9.9185107E+03;
  1.6406879E+00;  9.9999998E-03; -1.6263781E-01;8865;  1.1885873E+00;  0.0000000E+00; -6.3873038E-02;  1.0052872E+03;  2.5914291E-01;  4.3691372E+03;3; -5.5871075E+01;  0.0000000E+00;  3.8027420E+01;0;  4.3881803E+00;  6.1971479E+03;  0.0000000E+00;  1.2885530E+00;  4.0000000E+04;  0.0000000E+00;  3.8738379E+04;  4.4225931E+00;  0.0000000E+00; -3.4412749E-02;  1.3648532E+04;
  1.6415839E+00;  9.9999998E-03; -1.5243849E-01;8866;  1.2035584E+00;  0.0000000E+00; -6.5747932E-02;  1.0061793E+03;  2.5867626E-01;  5.1059990E+03;3; -4.3192875E+01;  0.0000000E+00;  3.6846050E+01;0;  4.1490364E+00;  6.2303276E+03;  0.0000000E+00;  1.1271487E+00;  4.0000000E+04;  0.0000000E+00;  3.8729770E+04;  4.1453881E+00;  0.0000000E+00;  3.6484383E-03;  1.4795546E+04;
  1.6413867E+00;  9.9999998E-03; -2.0337115E-01;8861;  1.1315162E+00;  0.0000000E+00; -6.0506456E-02;  1.0026838E+03;  2.5876638E-01;  2.2176565E+03;3; -8.9438477E+01;  0.0000000E+00;  3.9634445E+01;0;  5.0981908E+00;  6.1727344E+03;  0.0000000E+00;  1.3768358E+00;  4.0000000E+04;  0.0000000E+00;  3.8783359E+04;  5.2573977E+00;  0.0000000E+00; -1.5920696E-01;  8.0263232E+03;
  1.6425461E+00;  9.9999998E-03; -1.4225610E-01;8867;  1.2150588E+00;  0.0000000E+00; -6.7536905E-02;  1.0069449E+03;  2.5815475E-01;  5.7384785E+03;3; -3.0798323E+01;  0.0000000E+00;  3.5791367E+01;0;  3.9151690E+00;  6.2640239E+03;  0.0000000E+00;  1.0486777E+00;  4.0000000E+04;  0.0000000E+00;  3.8723336E+04;  3.8719022E+00;  0.0000000E+00;  4.3266837E-02;  1.5645467E+04;
  1.6434053E+00;  9.9999998E-03; -1.3209298E-01;8868;  1.2229043E+00;  0.0000000E+00; -6.8979077E-02;  1.0074889E+03;  2.5764757E-01;  6.1877271E+03;3; -1.9579391E+01;  0.0000000E+00;  3.4750401E+01;0;  3.7010875E+00;  6.2943027E+03;  0.0000000E+00;  1.0067914E+00;  4.0000000E+04;  0.0000000E+00;  3.8719629E+04;  3.6168499E+00;  0.0000000E+00;  8.4237613E-02;  1.6164436E+04;
  1.6442760E+00;  9.9999998E-03; -2.6420757E-01;8855;  1.0785502E+00;  0.0000000E+00; -4.2365622E-02;  9.9942572E+02;  2.5771454E-01; -4.7449625E+02;3; -1.2852039E+02;  0.0000000E+00;  4.8180092E+01;0;  6.0477943E+00;  6.1706406E+03;  0.0000000E+00; -1.4542111E+01;  4.0000000E+04;  0.0000000E+00;  3.8804844E+04;  6.3125615E+00;  0.0000000E+00; -2.6476708E-01;  7.6105547E+04;
  1.6436954E+00;  9.9999998E-03; -2.1340267E-01;8860;  1.1377845E+00;  0.0000000E+00; -5.9914704E-02;  1.0028304E+03;  2.5761276E-01;  2.3386047E+03;3; -8.8294960E+01;  0.0000000E+00;  3.9914757E+01;0;  5.1349201E+00;  6.2234307E+03;  0.0000000E+00;  6.6908091E-01;  4.0000000E+04;  0.0000000E+00;  3.8799855E+04;  5.3153992E+00;  0.0000000E+00; -1.8047900E-01;  6.8830239E+03;
  1.6441101E+00;  9.9999998E-03; -1.2195498E-01;8869;  1.2277118E+00;  0.0000000E+00; -7.0073552E-02;  1.0077751E+03;  2.5720197E-01;  6.4240376E+03;3; -1.0281476E+01;  0.0000000E+00;  3.3507893E+01;0;  3.5125692E+00;  6.3188745E+03;  0.0000000E+00;  9.4811469E-01;  4.0000000E+04;  0.0000000E+00;  3.8717543E+04;  3.3857093E+00;  0.0000000E+00;  1.2685987E-01;  1.6445025E+04;
  1.6446515E+00;  9.9999998E-03; -1.1182687E-01;8870;  1.2303438E+00;  0.0000000E+00; -7.0440024E-02;  1.0078252E+03;  2.5685507E-01;  6.4652632E+03;3; -3.4987826E+00;  0.0000000E+00;  2.8948378E+01;0;  3.3510189E+00;  6.3364028E+03;  0.0000000E+00;  8.4759384E-01;  4.0000000E+04;  0.0000000E+00;  3.8716301E+04;  3.1798630E+00;  0.0000000E+00;  1.7115587E-01;  1.6577057E+04;
  1.6464695E+00;  9.9999998E-03; -2.2344501E-01;8859;  1.1514466E+00;  0.0000000E+00; -5.9912577E-02;  1.0030324E+03;  2.5629067E-01;  2.5052705E+03;3; -8.4056511E+01;  0.0000000E+00;  4.0386078E+01;0;  5.1432247E+00;  6.2836782E+03;  0.0000000E+00; -9.2267209E-01;  4.0000000E+04;  0.0000000E+00;  3.8822113E+04;  5.3429446E+00;  0.0000000E+00; -1.9972007E-01;  1.3482720E+04;
  1.6474757E+00;  9.9999998E-03; -2.5400916E-01;8856;  1.1302087E+00;  0.0000000E+00; -5.6214295E-02;  1.0000187E+03;  2.5621220E-01;  1.5461544E+01;3; -1.0407587E+02;  0.0000000E+00;  4.2399532E+01;0;  5.7022014E+00;  6.2527393E+03;  0.0000000E+00; -1.3710969E+01;  4.0000000E+04;  0.0000000E+00;  3.8819094E+04;  5.9247313E+00;  0.0000000E+00; -2.2253007E-01;  7.8895969E+04;
  1.6485109E+00;  9.9999998E-03; -2.3360853E-01;8858;  1.1628021E+00;  0.0000000E+00; -6.2319282E-02;  1.0025404E+03;  2.5538272E-01;  2.0985403E+03;3; -8.2666939E+01;  0.0000000E+00;  3.9751675E+01;0;  5.2137465E+00;  6.3206812E+03;  0.0000000E+00; -4.1102781E+00;  4.0000000E+04;  0.0000000E+00;  3.8831453E+04;  5.4245639E+00;  0.0000000E+00; -2.1081750E-01;  3.0729939E+04;
  1.6489685E+00;  9.9999998E-03; -2.4381329E-01;8857;  1.1590323E+00;  0.0000000E+00; -6.2442303E-02;  1.0013083E+03;  2.5532392E-01;  1.0807614E+03;3; -8.8558464E+01;  0.0000000E+00;  4.0570198E+01;0;  5.4012957E+00;  6.3108750E+03;  0.0000000E+00; -9.0066757E+00;  4.0000000E+04;  0.0000000E+00;  3.8826836E+04;  5.6147475E+00;  0.0000000E+00; -2.1345206E-01;  5.6234207E+04;
  1.6633501E+00;  9.9999998E-03; -1.7278849E-01;8924;  1.2385153E+00;  0.0000000E+00; -8.4383763E-02;  1.0052918E+03;  2.3668034E-01;  4.3683423E+03;3; -1.0391094E+01;  0.0000000E+00;  2.6252409E+01;0;  3.1008530E+00;  7.4272734E+03;  0.0000000E+00;  1.0603722E+00;  4.0000000E+04;  0.0000000E+00;  3.8753879E+04;  3.0499277E+00;  0.0000000E+00;  5.0925195E-02;  1.1838372E+04;
  1.6633222E+00;  9.9999998E-03; -1.8298112E-01;8923;  1.2347981E+00;  0.0000000E+00; -8.4264822E-02;  1.0051218E+03;  2.3665000E-01;  4.2280220E+03;3; -1.9791042E+01;  0.0000000E+00;  2.5899605E+01;0;  3.2859445E+00;  7.4228115E+03;  0.0000000E+00;  1.2015795E+00;  4.0000000E+04;  0.0000000E+00;  3.8760965E+04;  3.2710819E+00;  0.0000000E+00;  1.4862510E-02;  1.1292187E+04;
  1.6638367E+00;  9.9999998E-03; -1.6259299E-01;8925;  1.2415936E+00;  0.0000000E+00; -8.4992796E-02;  1.0056321E+03;  2.3647662E-01;  4.6491694E+03;3; -1.3460180E+00;  0.0000000E+00;  2.5777756E+01;0;  2.8965011E+00;  7.4475791E+03;  0.0000000E+00;  8.3938682E-01;  4.0000000E+04;  0.0000000E+00;  3.8747242E+04;  2.8073943E+00;  0.0000000E+00;  8.9106791E-02;  1.2372845E+04;
  1.6639303E+00;  9.9999998E-03; -1.9316392E-01;8922;  1.2321482E+00;  0.0000000E+00; -8.5611522E-02;  1.0051564E+03;  2.3630217E-01;  4.2564194E+03;3; -2.7515097E+01;  0.0000000E+00;  2.6038559E+01;0;  3.4366493E+00;  7.4404282E+03;  0.0000000E+00;  1.1828995E+00;  4.0000000E+04;  0.0000000E+00;  3.8767086E+04;  3.4544110E+00;  0.0000000E+00; -1.7761737E-02;  1.0420349E+04;
  1.6645969E+00;  9.9999998E-03; -1.5238099E-01;8926;  1.2434022E+00;  0.0000000E+00; -8.5556991E-02;  1.0060500E+03;  2.3612931E-01;  4.9938662E+03;3;  5.9550056E+00;  0.0000000E+00;  2.4285789E+01;0;  2.6878850E+00;  7.4770620E+03;  0.0000000E+00;  6.7975712E-01;  4.0000000E+04;  0.0000000E+00;  3.8741781E+04;  2.5590711E+00;  0.0000000E+00;  1.2881392E-01;  1.3019671E+04;
  1.6654725E+00;  9.9999998E-03; -1.4216788E-01;8927;  1.2439647E+00;  0.0000000E+00; -8.5641831E-02;  1.0064899E+03;  2.3570818E-01;  5.3566997E+03;3;  1.1219539E+01;  0.0000000E+00;  2.0680525E+01;0;  2.4878373E+00;  7.5103877E+03;  0.0000000E+00;  6.5591031E-01;  4.0000000E+04;  0.0000000E+00;  3.8737676E+04;  2.3180592E+00;  0.0000000E+00;  1.6977800E-01;  1.3535923E+04;
  1.6654375E+00;  9.9999998E-03; -2.0328590E-01;8921;  1.2334657E+00;  0.0000000E+00; -8.9156330E-02;  1.0053746E+03;  2.3556286E-01;  4.4362271E+03;3; -3.1247847E+01;  0.0000000E+00;  2.7403696E+01;0;  3.5332732E+00;  7.4850791E+03;  0.0000000E+00;  1.0389982E+00;  4.0000000E+04;  0.0000000E+00;  3.8773523E+04;  3.5769362E+00;  0.0000000E+00; -4.3663140E-02;  9.3223252E+03;
  1.6670675E+00;  9.9999998E-03; -2.6414612E-01;8915;  1.2280036E+00;  0.0000000E+00; -8.3531074E-02;  1.0012972E+03;  2.3562181E-01;  1.0706338E+03;3; -6.8583084E+01;  0.0000000E+00;  3.7938290E+01;0;  4.7833171E+00;  7.4197515E+03;  0.0000000E+00; -9.5572920E+00;  4.0000000E+04;  0.0000000E+00;  3.8800035E+04;  4.8411880E+00;  0.0000000E+00; -5.7870675E-02;  5.0243422E+04;
  1.6663052E+00;  9.9999998E-03; -1.3197294E-01;8928;  1.2435731E+00;  0.0000000E+00; -8.4504373E-02;  1.0068455E+03;  2.3527217E-01;  5.6499478E+03;3;  1.4422389E+01;  0.0000000E+00;  1.6192730E+01;0;  2.3075914E+00;  7.5428877E+03;  0.0000000E+00;  7.2541231E-01;  4.0000000E+04;  0.0000000E+00;  3.8735230E+04;  2.0957181E+00;  0.0000000E+00;  2.1187335E-01;  1.3810278E+04;
  1.6670691E+00;  9.9999998E-03; -1.2181339E-01;8929;  1.2426301E+00;  0.0000000E+00; -8.1944659E-02;  1.0070753E+03;  2.3485577E-01;  5.8393906E+03;3;  1.6233475E+01;  0.0000000E+00;  1.3597798E+01;0;  2.1495895E+00;  7.5720591E+03;  0.0000000E+00;  8.0303246E-01;  4.0000000E+04;  0.0000000E+00;  3.8734305E+04;  1.8941656E+00;  0.0000000E+00;  2.5542384E-01;  1.3914452E+04;
  1.6677698E+00;  9.9999998E-03; -2.1334049E-01;8920;  1.2410779E+00;  0.0000000E+00; -9.2364922E-02;  1.0056157E+03;  2.3453525E-01;  4.6345698E+03;3; -2.9881939E+01;  0.0000000E+00;  3.0174189E+01;0;  3.5795951E+00;  7.5493467E+03;  0.0000000E+00;  6.9421899E-01;  4.0000000E+04;  0.0000000E+00;  3.8784094E+04;  3.6411061E+00;  0.0000000E+00; -6.1511129E-02;  8.5952998E+03;
  1.6677369E+00;  9.9999998E-03; -1.1167041E-01;8930;  1.2413825E+00;  0.0000000E+00; -7.8115076E-02;  1.0071295E+03;  2.3448683E-01;  5.8838330E+03;3;  1.7655415E+01;  0.0000000E+00;  1.1741076E+01;0;  2.0147827E+00;  7.5958184E+03;  0.0000000E+00;  8.2955146E-01;  4.0000000E+04;  0.0000000E+00;  3.8734059E+04;  1.7144184E+00;  0.0000000E+00;  3.0036417E-01;  1.3918007E+04;
  1.6697193E+00;  9.9999998E-03; -2.5393945E-01;8916;  1.2484887E+00;  0.0000000E+00; -9.1611236E-02;  1.0016043E+03;  2.3438117E-01;  1.3238713E+03;3; -4.7540833E+01;  0.0000000E+00;  3.3523098E+01;0;  4.3669338E+00;  7.5047749E+03;  0.0000000E+00; -1.0074935E+01;  4.0000000E+04;  0.0000000E+00;  3.8813316E+04;  4.4257951E+00;  0.0000000E+00; -5.8861334E-02;  5.6287656E+04;
  1.6701750E+00;  9.9999998E-03; -2.2341707E-01;8919;  1.2515234E+00;  0.0000000E+00; -9.5232591E-02;  1.0054155E+03;  2.3356065E-01;  4.4687559E+03;3; -2.6718342E+01;  0.0000000E+00;  3.0313047E+01;0;  3.6292737E+00;  7.6065596E+03;  0.0000000E+00; -4.3262342E-01;  4.0000000E+04;  0.0000000E+00;  3.8798848E+04;  3.7005785E+00;  0.0000000E+00; -7.1304716E-02;  1.2138697E+04;
  1.6714257E+00;  9.9999998E-03; -2.4375054E-01;8917;  1.2592468E+00;  0.0000000E+00; -9.6065342E-02;  1.0028109E+03;  2.3339272E-01;  2.3192422E+03;3; -3.2018044E+01;  0.0000000E+00;  3.0966179E+01;0;  4.0064015E+00;  7.5852612E+03;  0.0000000E+00; -7.1284442E+00;  4.0000000E+04;  0.0000000E+00;  3.8812039E+04;  4.0734339E+00;  0.0000000E+00; -6.7032509E-02;  4.3321293E+04;
  1.6715970E+00;  9.9999998E-03; -2.3357055E-01;8918;  1.2589080E+00;  0.0000000E+00; -9.6885711E-02;  1.0043518E+03;  2.3308206E-01;  3.5907109E+03;3; -2.5738491E+01;  0.0000000E+00;  3.0872339E+01;0;  3.7574041E+00;  7.6242319E+03;  0.0000000E+00; -3.1600718E+00;  4.0000000E+04;  0.0000000E+00;  3.8807773E+04;  3.8303695E+00;  0.0000000E+00; -7.2965279E-02;  2.4895799E+04;
  1.6849736E+00;  9.9999998E-03; -1.7277475E-01;8983;  1.2559671E+00;  0.0000000E+00; -9.9068604E-02;  1.0052324E+03;  2.1758787E-01;  4.3133999E+03;3;  1.4882772E+01;  0.0000000E+00;  1.6125183E+01;0;  1.9322864E+00;  8.7831650E+03;  0.0000000E+00;  7.2869402E-01;  4.0000000E+04;  0.0000000E+00;  3.8755938E+04;  1.7864196E+00;  0.0000000E+00;  1.4586677E-01;  1.0278175E+04;
  1.6851313E+00;  9.9999998E-03; -1.8293063E-01;8982;  1.2592263E+00;  0.0000000E+00; -1.0065228E-01;  1.0056335E+03;  2.1746428E-01;  4.6439282E+03;3;  1.2152554E+01;  0.0000000E+00;  1.8006783E+01;0;  2.0663857E+00;  8.7947217E+03;  0.0000000E+00;  8.6779094E-01;  4.0000000E+04;  0.0000000E+00;  3.8758637E+04;  1.9544535E+00;  0.0000000E+00;  1.1193224E-01;  1.0172307E+04;
  1.6852831E+00;  9.9999998E-03; -1.6260229E-01;8984;  1.2530636E+00;  0.0000000E+00; -9.6859246E-02;  1.0050127E+03;  2.1749811E-01;  4.1321919E+03;3;  1.7443407E+01;  0.0000000E+00;  1.3096132E+01;0;  1.7858732E+00;  8.7909160E+03;  0.0000000E+00;  5.0227624E-01;  4.0000000E+04;  0.0000000E+00;  3.8753102E+04;  1.6037322E+00;  0.0000000E+00;  1.8214089E-01;  1.0333428E+04;
  1.6859097E+00;  9.9999998E-03; -1.9306055E-01;8981;  1.2633386E+00;  0.0000000E+00; -1.0230269E-01;  1.0061464E+03;  2.1708503E-01;  5.0664868E+03;3;  9.4293470E+00;  0.0000000E+00;  1.8189428E+01;0;  2.1763327E+00;  8.8288701E+03;  0.0000000E+00;  9.7890770E-01;  4.0000000E+04;  0.0000000E+00;  3.8761266E+04;  2.0946631E+00;  0.0000000E+00;  8.1669569E-02;  9.8402217E+03;
  1.6858735E+00;  9.9999998E-03; -1.5238470E-01;8985;  1.2503203E+00;  0.0000000E+00; -9.3530871E-02;  1.0049637E+03;  2.1727405E-01;  4.0915237E+03;3;  1.9108505E+01;  0.0000000E+00;  1.0875603E+01;0;  1.6391170E+00;  8.8115068E+03;  0.0000000E+00;  3.0032840E-01;  4.0000000E+04;  0.0000000E+00;  3.8749977E+04;  1.4192449E+00;  0.0000000E+00;  2.1987213E-01;  1.0590760E+04;
  1.6866084E+00;  9.9999998E-03; -1.4213747E-01;8986;  1.2477788E+00;  0.0000000E+00; -8.9717679E-02;  1.0050488E+03;  2.1696827E-01;  4.1615508E+03;3;  2.0316109E+01;  0.0000000E+00;  1.0000713E+01;0;  1.5006828E+00;  8.8397021E+03;  0.0000000E+00;  2.4181809E-01;  4.0000000E+04;  0.0000000E+00;  3.8747816E+04;  1.2420074E+00;  0.0000000E+00;  2.5867546E-01;  1.0881026E+04;
  1.6876910E+00;  9.9999998E-03; -2.6410481E-01;8974;  1.2966880E+00;  0.0000000E+00; -1.0836370E-01;  1.0012781E+03;  2.1728213E-01;  1.0533441E+03;3; -1.5929111E+01;  0.0000000E+00;  2.5687202E+01;0;  3.5283751E+00;  8.7349775E+03;  0.0000000E+00; -4.2048674E+00;  4.0000000E+04;  0.0000000E+00;  3.8802477E+04;  3.4032009E+00;  0.0000000E+00;  1.2517440E-01;  2.3118596E+04;
  1.6874523E+00;  9.9999998E-03; -2.0313987E-01;8980;  1.2691330E+00;  0.0000000E+00; -1.0502253E-01;  1.0066200E+03;  2.1644004E-01;  5.4562480E+03;3;  8.3233566E+00;  0.0000000E+00;  1.6881729E+01;0;  2.2516255E+00;  8.8846387E+03;  0.0000000E+00;  1.2651683E+00;  4.0000000E+04;  0.0000000E+00;  3.8766016E+04;  2.1939318E+00;  0.0000000E+00;  5.7693735E-02;  9.1908164E+03;
  1.6873852E+00;  9.9999998E-03; -1.3189615E-01;8987;  1.2454121E+00;  0.0000000E+00; -8.5836962E-02;  1.0052030E+03;  2.1661508E-01;  4.2883442E+03;3;  2.1122421E+01;  0.0000000E+00;  9.5063848E+00;0;  1.3764963E+00;  8.8717422E+03;  0.0000000E+00;  3.2869354E-01;  4.0000000E+04;  0.0000000E+00;  3.8746109E+04;  1.0780332E+00;  0.0000000E+00;  2.9846311E-01;  1.0999599E+04;
  1.6881597E+00;  9.9999998E-03; -1.2168956E-01;8988;  1.2431781E+00;  0.0000000E+00; -8.1739381E-02;  1.0053514E+03;  2.1624462E-01;  4.4104053E+03;3;  2.1581530E+01;  0.0000000E+00;  9.0644808E+00;0;  1.2687929E+00;  8.9039912E+03;  0.0000000E+00;  4.7331128E-01;  4.0000000E+04;  0.0000000E+00;  3.8745398E+04;  9.2958283E-01;  0.0000000E+00;  3.3921009E-01;  1.0988026E+04;
  1.6888571E+00;  9.9999998E-03; -1.1152510E-01;8989;  1.2410860E+00;  0.0000000E+00; -7.7225648E-02;  1.0054212E+03;  2.1591310E-01;  4.4676353E+03;3;  2.1938736E+01;  0.0000000E+00;  8.4659901E+00;0;  1.1795654E+00;  8.9316123E+03;  0.0000000E+00;  5.9698188E-01;  4.0000000E+04;  0.0000000E+00;  3.8745324E+04;  7.9900473E-01;  0.0000000E+00;  3.8056076E-01;  1.0922029E+04;
  1.6895040E+00;  9.9999998E-03; -2.1319821E-01;8979;  1.2771332E+00;  0.0000000E+00; -1.0958560E-01;  1.0067236E+03;  2.1567847E-01;  5.5406416E+03;3;  8.6423531E+00;  0.0000000E+00;  1.4066482E+01;0;  2.3078713E+00;  8.9455098E+03;  0.0000000E+00;  1.6619507E+00;  4.0000000E+04;  0.0000000E+00;  3.8778195E+04;  2.2639070E+00;  0.0000000E+00;  4.3964300E-02;  7.7347573E+03;
  1.6898614E+00;  9.9999998E-03; -2.5388283E-01;8975;  1.2995782E+00;  0.0000000E+00; -1.1321280E-01;  1.0015403E+03;  2.1631238E-01;  1.2692787E+03;3; -3.5709126E+00;  0.0000000E+00;  2.1171904E+01;0;  3.1458054E+00;  8.8169570E+03;  0.0000000E+00; -4.6718702E+00;  4.0000000E+04;  0.0000000E+00;  3.8820109E+04;  3.0464520E+00;  0.0000000E+00;  9.9353284E-02;  2.7417777E+04;
  1.6913394E+00;  9.9999998E-03; -2.2331013E-01;8978;  1.2860918E+00;  0.0000000E+00; -1.1446106E-01;  1.0060265E+03;  2.1507336E-01;  4.9655181E+03;3;  9.1024294E+00;  0.0000000E+00;  1.4391706E+01;0;  2.3914950E+00;  8.9837559E+03;  0.0000000E+00;  1.3762161E+00;  4.0000000E+04;  0.0000000E+00;  3.8794535E+04;  2.3472662E+00;  0.0000000E+00;  4.4228800E-02;  6.3322993E+03;
  1.6915717E+00;  9.9999998E-03; -2.4367684E-01;8976;  1.2982631E+00;  0.0000000E+00; -1.1501461E-01;  1.0027139E+03;  2.1541679E-01;  2.2360808E+03;3;  3.7736278E+00;  0.0000000E+00;  1.8305216E+01;0;  2.7980478E+00;  8.9084082E+03;  0.0000000E+00; -3.1682224E+00;  4.0000000E+04;  0.0000000E+00;  3.8817082E+04;  2.7296863E+00;  0.0000000E+00;  6.8361446E-02;  2.2255102E+04;
  1.6921716E+00;  9.9999998E-03; -2.3348334E-01;8977;  1.2935870E+00;  0.0000000E+00; -1.1564887E-01;  1.0044636E+03;  2.1493456E-01;  3.6775754E+03;3;  8.0490313E+00;  0.0000000E+00;  1.7103710E+01;0;  2.5442433E+00;  8.9733457E+03;  0.0000000E+00; -5.0361300E-01;  4.0000000E+04;  0.0000000E+00;  3.8807012E+04;  2.4923804E+00;  0.0000000E+00;  5.1862866E-02;  1.1939971E+04;
  1.7053559E+00;  9.9999998E-03; -1.7277332E-01;9042;  1.2593498E+00;  0.0000000E+00; -1.0046915E-01;  1.0048552E+03;  2.0168254E-01;  3.9953064E+03;3;  2.2390507E+01;  0.0000000E+00;  6.0619793E+00;0;  1.1318574E+00;  1.0211565E+04;  0.0000000E+00;  5.2171028E-01;  4.0000000E+04;  0.0000000E+00;  3.8751504E+04;  9.2256218E-01;  0.0000000E+00;  2.0929523E-01;  8.4121699E+03;
  1.7054641E+00;  9.9999998E-03; -1.6264501E-01;9043;  1.2545111E+00;  0.0000000E+00; -9.7013734E-02;  1.0041772E+03;  2.0167497E-01;  3.4373896E+03;3;  2.3152874E+01;  0.0000000E+00;  6.2787066E+00;0;  1.0434055E+00;  1.0204301E+04;  0.0000000E+00;  2.9244360E-01;  4.0000000E+04;  0.0000000E+00;  3.8752691E+04;  8.0168110E-01;  0.0000000E+00;  2.4172439E-01;  8.0166108E+03;
  1.7056251E+00;  9.9999998E-03; -1.8287326E-01;9041;  1.2648551E+00;  0.0000000E+00; -1.0385907E-01;  1.0056500E+03;  2.0153913E-01;  4.6491953E+03;3;  2.2038380E+01;  0.0000000E+00;  5.1826863E+00;0;  1.2158844E+00;  1.0236560E+04;  0.0000000E+00;  7.6258522E-01;  4.0000000E+04;  0.0000000E+00;  3.8749777E+04;  1.0366964E+00;  0.0000000E+00;  1.7918801E-01;  8.8220986E+03;
  1.7066369E+00;  9.9999998E-03; -2.6409552E-01;9033;  1.3211401E+00;  0.0000000E+00; -1.1576932E-01;  1.0000244E+03;  2.0207444E-01;  2.0107334E+01;3;  1.3957237E+01;  0.0000000E+00;  1.1188390E+01;0;  2.4277854E+00;  1.0083104E+04;  0.0000000E+00;  9.2013621E-01;  4.0000000E+04;  0.0000000E+00;  3.8808980E+04;  2.2228973E+00;  0.0000000E+00;  2.0488800E-01;  2.1248857E+03;
  1.7058407E+00;  9.9999998E-03; -1.5245448E-01;9044;  1.2502321E+00;  0.0000000E+00; -9.2655860E-02;  1.0037027E+03;  2.0155199E-01;  3.0467529E+03;3;  2.3317629E+01;  0.0000000E+00;  6.0028186E+00;0;  9.5560873E-01;  1.0212131E+04;  0.0000000E+00;  5.8980018E-02;  4.0000000E+04;  0.0000000E+00;  3.8752465E+04;  6.7982280E-01;  0.0000000E+00;  2.7578589E-01;  7.8722949E+03;
  1.7064422E+00;  9.9999998E-03; -1.9294034E-01;9040;  1.2712328E+00;  0.0000000E+00; -1.0749087E-01;  1.0064162E+03;  2.0120785E-01;  5.2793105E+03;3;  2.1622478E+01;  0.0000000E+00;  4.1329579E+00;0;  1.2878726E+00;  1.0280325E+04;  0.0000000E+00;  1.2825892E+00;  4.0000000E+04;  0.0000000E+00;  3.8750109E+04;  1.1347053E+00;  0.0000000E+00;  1.5316720E-01;  9.0795195E+03;
  1.7063663E+00;  9.9999998E-03; -1.4219251E-01;9045;  1.2465861E+00;  0.0000000E+00; -8.7917924E-02;  1.0034384E+03;  2.0135444E-01;  2.8291311E+03;3;  2.3662010E+01;  0.0000000E+00;  6.5993853E+00;0;  8.7355804E-01;  1.0230673E+04;  0.0000000E+00; -6.8285644E-02;  4.0000000E+04;  0.0000000E+00;  3.8751320E+04;  5.6258792E-01;  0.0000000E+00;  3.1097013E-01;  7.9418833E+03;
  1.7069926E+00;  9.9999998E-03; -1.3191511E-01;9046;  1.2434572E+00;  0.0000000E+00; -8.3388664E-02;  1.0033555E+03;  2.0110106E-01;  2.7607834E+03;3;  2.3274916E+01;  0.0000000E+00;  7.0214238E+00;0;  8.0021214E-01;  1.0256954E+04;  0.0000000E+00; -3.2408118E-02;  4.0000000E+04;  0.0000000E+00;  3.8750391E+04;  4.5328394E-01;  0.0000000E+00;  3.4692824E-01;  7.9640786E+03;
  1.7078162E+00;  9.9999998E-03; -2.0299435E-01;9039;  1.2787120E+00;  0.0000000E+00; -1.1069200E-01;  1.0068665E+03;  2.0072275E-01;  5.6489839E+03;3;  2.1929745E+01;  0.0000000E+00;  5.5932570E+00;0;  1.3465252E+00;  1.0334979E+04;  0.0000000E+00;  2.4055383E+00;  4.0000000E+04;  0.0000000E+00;  3.8756871E+04;  1.2131345E+00;  0.0000000E+00;  1.3339071E-01;  9.3568164E+03;
  1.7076615E+00;  9.9999998E-03; -1.2167476E-01;9047;  1.2407446E+00;  0.0000000E+00; -7.8892015E-02;  1.0034017E+03;  2.0082399E-01;  2.7986453E+03;3;  2.3600393E+01;  0.0000000E+00;  7.0389380E+00;0;  7.3788023E-01;  1.0286473E+04;  0.0000000E+00;  1.1348943E-01;  4.0000000E+04;  0.0000000E+00;  3.8749695E+04;  3.5452348E-01;  0.0000000E+00;  3.8335672E-01;  7.8997339E+03;
  1.7085011E+00;  9.9999998E-03; -2.5386310E-01;9034;  1.3168421E+00;  0.0000000E+00; -1.1778477E-01;  1.0002057E+03;  2.0129147E-01;  1.6926125E+02;3;  1.8629126E+01;  0.0000000E+00;  8.1164179E+00;0;  2.1214654E+00;  1.0163273E+04;  0.0000000E+00;  1.4900763E+00;  4.0000000E+04;  0.0000000E+00;  3.8827398E+04;  1.9462340E+00;  0.0000000E+00;  1.7523153E-01;  1.5163120E+03;
  1.7082976E+00;  9.9999998E-03; -1.1148196E-01;9048;  1.2381921E+00;  0.0000000E+00; -7.4182026E-02;  1.0034752E+03;  2.0056465E-01;  2.8588694E+03;3;  2.4356148E+01;  0.0000000E+00;  6.8113918E+00;0;  6.8791187E-01;  1.0314127E+04;  0.0000000E+00;  2.8379923E-01;  4.0000000E+04;  0.0000000E+00;  3.8749363E+04;  2.6790205E-01;  0.0000000E+00;  4.2000982E-01;  7.8250752E+03;
  1.7094388E+00;  9.9999998E-03; -2.1308047E-01;9038;  1.2872335E+00;  0.0000000E+00; -1.1341471E-01;  1.0065838E+03;  2.0021167E-01;  5.4155278E+03;3;  2.2608238E+01;  0.0000000E+00;  5.4579768E+00;0;  1.4045252E+00;  1.0380468E+04;  0.0000000E+00;  3.9086275E+00;  4.0000000E+04;  0.0000000E+00;  3.8772160E+04;  1.2829030E+00;  0.0000000E+00;  1.2162226E-01;  1.0399389E+04;
  1.7102128E+00;  9.9999998E-03; -2.4364038E-01;9035;  1.3108610E+00;  0.0000000E+00; -1.1777017E-01;  1.0012776E+03;  2.0049220E-01;  1.0507776E+03;3;  2.1041651E+01;  0.0000000E+00;  6.1931772E+00;0;  1.8385327E+00;  1.0263038E+04;  0.0000000E+00;  1.9840440E+00;  4.0000000E+04;  0.0000000E+00;  3.8823340E+04;  1.6943830E+00;  0.0000000E+00;  1.4414971E-01;  1.6226354E+03;
  1.7107441E+00;  9.9999998E-03; -2.2323361E-01;9037;  1.2961079E+00;  0.0000000E+00; -1.1595824E-01;  1.0052707E+03;  1.9988406E-01;  4.3348340E+03;3;  2.3063190E+01;  0.0000000E+00;  4.9076190E+00;0;  1.4882596E+00;  1.0391793E+04;  0.0000000E+00;  4.6054597E+00;  4.0000000E+04;  0.0000000E+00;  3.8790836E+04;  1.3680918E+00;  0.0000000E+00;  1.2016772E-01;  1.0478067E+04;
  1.7111043E+00;  9.9999998E-03; -2.3343047E-01;9036;  1.3040068E+00;  0.0000000E+00; -1.1723014E-01;  1.0031856E+03;  1.9995295E-01;  2.6198762E+03;3;  2.2399303E+01;  0.0000000E+00;  4.9829855E+00;0;  1.6254475E+00;  1.0350607E+04;  0.0000000E+00;  3.5169625E+00;  4.0000000E+04;  0.0000000E+00;  3.8808090E+04;  1.4982102E+00;  0.0000000E+00;  1.2723729E-01;  6.3209331E+03;
  1.7241433E+00;  9.9999998E-03; -2.6413986E-01;9092;  1.3273717E+00;  0.0000000E+00; -1.1257258E-01;  9.9829272E+02;  1.8946497E-01; -1.4018541E+03;3;  2.5166002E+01;  0.0000000E+00;  2.8121850E+00;0;  1.5654576E+00;  1.1441463E+04;  0.0000000E+00;  6.0173821E+00;  4.0000000E+04;  0.0000000E+00;  3.8802363E+04;  1.3583554E+00;  0.0000000E+00;  2.0710218E-01;  2.2674971E+04;
  1.7244307E+00;  9.9999998E-03; -1.7276521E-01;9101;  1.2586614E+00;  0.0000000E+00; -9.7052827E-02;  1.0045303E+03;  1.8851683E-01;  3.7197661E+03;3;  2.5644190E+01;  0.0000000E+00;  7.3468560E-01;0;  6.4468592E-01;  1.1680396E+04;  0.0000000E+00;  5.0904065E-01;  4.0000000E+04;  0.0000000E+00;  3.8735586E+04;  4.0064868E-01;  0.0000000E+00;  2.4403724E-01;  6.9063701E+03;
  1.7244580E+00;  9.9999998E-03; -1.6269375E-01;9102;  1.2530624E+00;  0.0000000E+00; -9.3238354E-02;  1.0035788E+03;  1.8852663E-01;  2.9384707E+03;3;  2.5452421E+01;  0.0000000E+00;  2.1163619E+00;0;  5.9546459E-01;  1.1662246E+04;  0.0000000E+00;  2.0613195E-01;  4.0000000E+04;  0.0000000E+00;  3.8741512E+04;  3.2346538E-01;  0.0000000E+00;  2.7199918E-01;  5.9300723E+03;
  1.7246888E+00;  9.9999998E-03; -1.8280549E-01;9100;  1.2650698E+00;  0.0000000E+00; -1.0042604E-01;  1.0054915E+03;  1.8840548E-01;  4.5088247E+03;3;  2.6126394E+01;  0.0000000E+00;  5.1020002E-01;0;  6.9373643E-01;  1.1711509E+04;  0.0000000E+00;  1.1098841E+00;  4.0000000E+04;  0.0000000E+00;  3.8730457E+04;  4.7520941E-01;  0.0000000E+00;  2.1852702E-01;  8.0238643E+03;
  1.7246753E+00;  9.9999998E-03; -1.5256295E-01;9103;  1.2481707E+00;  0.0000000E+00; -8.9272626E-02;  1.0027648E+03;  1.8846586E-01;  2.2700771E+03;3;  2.5474695E+01;  0.0000000E+00;  3.7276735E+00;0;  5.4880250E-01;  1.1656753E+04;  0.0000000E+00; -3.3001900E-02;  4.0000000E+04;  0.0000000E+00;  3.8745484E+04;  2.4704151E-01;  0.0000000E+00;  3.0176097E-01;  5.2600898E+03;
  1.7249920E+00;  9.9999998E-03; -1.4234169E-01;9104;  1.2439556E+00;  0.0000000E+00; -8.4783487E-02;  1.0021741E+03;  1.8835323E-01;  1.7850176E+03;3;  2.4696594E+01;  0.0000000E+00;  4.5788126E+00;0;  5.0702375E-01;  1.1661770E+04;  0.0000000E+00; -2.0244728E-01;  4.0000000E+04;  0.0000000E+00;  3.8746809E+04;  1.7408153E-01;  0.0000000E+00;  3.3294222E-01;  4.9999917E+03;
  1.7253585E+00;  9.9999998E-03; -1.9283247E-01;9099;  1.2722883E+00;  0.0000000E+00; -1.0344233E-01;  1.0062421E+03;  1.8817987E-01;  5.1247002E+03;3;  2.6716459E+01;  0.0000000E+00;  2.2514300E-01;0;  7.3902643E-01;  1.1752588E+04;  0.0000000E+00;  2.4954844E+00;  4.0000000E+04;  0.0000000E+00;  3.8731211E+04;  5.4238659E-01;  0.0000000E+00;  1.9663981E-01;  9.7896045E+03;
  1.7259822E+00;  9.9999998E-03; -2.5390366E-01;9093;  1.3209819E+00;  0.0000000E+00; -1.1304902E-01;  9.9796149E+02;  1.8880668E-01; -1.6734631E+03;3;  2.7098850E+01;  0.0000000E+00;  1.3244176E+00;0;  1.3457230E+00;  1.1513911E+04;  0.0000000E+00;  7.0023289E+00;  4.0000000E+04;  0.0000000E+00;  3.8820824E+04;  1.1526448E+00;  0.0000000E+00;  1.9307831E-01;  2.4577523E+04;
  1.7253935E+00;  9.9999998E-03; -1.3206558E-01;9105;  1.2404741E+00;  0.0000000E+00; -8.0159090E-02;  1.0018206E+03;  1.8820679E-01;  1.4946443E+03;3;  2.4815012E+01;  0.0000000E+00;  5.0804315E+00;0;  4.7103161E-01;  1.1675632E+04;  0.0000000E+00; -2.3394191E-01;  4.0000000E+04;  0.0000000E+00;  3.8746805E+04;  1.0600334E-01;  0.0000000E+00;  3.6502826E-01;  4.9212344E+03;
  1.7264062E+00;  9.9999998E-03; -2.0289633E-01;9098;  1.2804127E+00;  0.0000000E+00; -1.0621940E-01;  1.0064241E+03;  1.8787222E-01;  5.2733970E+03;3;  2.7279509E+01;  0.0000000E+00;  3.3506066E-01;0;  7.8172088E-01;  1.1792381E+04;  0.0000000E+00;  5.0095730E+00;  4.0000000E+04;  0.0000000E+00;  3.8741719E+04;  6.0186857E-01;  0.0000000E+00;  1.7985234E-01;  1.4360717E+04;
  1.7258723E+00;  9.9999998E-03; -1.2179778E-01;9106;  1.2373530E+00;  0.0000000E+00; -7.5472638E-02;  1.0016796E+03;  1.8803641E-01;  1.3787769E+03;3;  2.5379976E+01;  0.0000000E+00;  5.5299020E+00;0;  4.4144461E-01;  1.1696021E+04;  0.0000000E+00; -1.3120462E-01;  4.0000000E+04;  0.0000000E+00;  3.8746262E+04;  4.3889940E-02;  0.0000000E+00;  3.9755467E-01;  4.8424990E+03;
  1.7263919E+00;  9.9999998E-03; -1.1155974E-01;9107;  1.2344227E+00;  0.0000000E+00; -7.0671625E-02;  1.0016765E+03;  1.8785219E-01;  1.3761351E+03;3;  2.5841560E+01;  0.0000000E+00;  5.7971401E+00;0;  4.1871101E-01;  1.1719591E+04;  0.0000000E+00;  3.3966828E-02;  4.0000000E+04;  0.0000000E+00;  3.8744914E+04; -1.1502605E-02;  0.0000000E+00;  4.3021360E-01;  4.7933447E+03;
  1.7276202E+00;  9.9999998E-03; -2.4367011E-01;9094;  1.3137814E+00;  0.0000000E+00; -1.1243969E-01;  9.9889185E+02;  1.8812260E-01; -9.0950635E+02;3;  2.8061918E+01;  0.0000000E+00; -4.3833621E-02;0;  1.1486580E+00;  1.1616135E+04;  0.0000000E+00;  7.7871971E+00;  4.0000000E+04;  0.0000000E+00;  3.8817688E+04;  9.7140229E-01;  0.0000000E+00;  1.7725573E-01;  2.5234031E+04;
  1.7276248E+00;  9.9999998E-03; -2.1303692E-01;9097;  1.2890433E+00;  0.0000000E+00; -1.0838155E-01;  1.0055816E+03;  1.8756954E-01;  4.5809897E+03;3;  2.7579979E+01;  0.0000000E+00; -3.9651030E-01;0;  8.2826209E-01;  1.1812599E+04;  0.0000000E+00;  8.0254946E+00;  4.0000000E+04;  0.0000000E+00;  3.8758504E+04;  6.5898472E-01;  0.0000000E+00;  1.6927736E-01;  2.1839617E+04;
  1.7286042E+00;  9.9999998E-03; -2.3344663E-01;9095;  1.3060181E+00;  0.0000000E+00; -1.1149619E-01;  1.0009639E+03;  1.8760489E-01;  7.9101282E+02;3;  2.8532845E+01;  0.0000000E+00; -7.3402369E-01;0;  9.9644572E-01;  1.1720544E+04;  0.0000000E+00;  9.0942774E+00;  4.0000000E+04;  0.0000000E+00;  3.8799613E+04;  8.2771546E-01;  0.0000000E+00;  1.6873024E-01;  2.6963154E+04;
  1.7285404E+00;  9.9999998E-03; -2.2323300E-01;9096;  1.2977291E+00;  0.0000000E+00; -1.1032271E-01;  1.0035502E+03;  1.8742943E-01;  2.9134497E+03;3;  2.8085159E+01;  0.0000000E+00; -1.2450198E+00;0;  8.9412576E-01;  1.1791862E+04;  0.0000000E+00;  9.7279549E+00;  4.0000000E+04;  0.0000000E+00;  3.8777750E+04;  7.2781396E-01;  0.0000000E+00;  1.6631180E-01;  2.7182939E+04;
  1.7404379E+00;  9.9999998E-03; -2.6424393E-01;9150;  1.3283615E+00;  0.0000000E+00; -1.0586923E-01;  9.9685669E+02;  1.7897886E-01; -2.5747563E+03;3;  2.8973736E+01;  0.0000000E+00; -1.2617704E+00;0;  9.5015049E-01;  1.2797754E+04;  0.0000000E+00;  1.1006513E+01;  4.0000000E+04;  0.0000000E+00;  3.8776535E+04;  7.6396430E-01;  0.0000000E+00;  1.8618618E-01;  3.9868855E+04;
  1.7422525E+00;  9.9999998E-03; -2.5400457E-01;9151;  1.3214560E+00;  0.0000000E+00; -1.0576613E-01;  9.9582520E+02;  1.7844675E-01; -3.4186431E+03;3;  3.0021538E+01;  0.0000000E+00; -2.0535550E+00;0;  8.0943680E-01;  1.2849472E+04;  0.0000000E+00;  1.3068172E+01;  4.0000000E+04;  0.0000000E+00;  3.8800590E+04;  6.1674303E-01;  0.0000000E+00;  1.9269378E-01;  4.5810508E+04;
  1.7422500E+00;  9.9999998E-03; -1.7271726E-01;9159;  1.2567141E+00;  0.0000000E+00; -9.0888172E-02;  1.0043864E+03;  1.7763558E-01;  3.5919146E+03;3;  2.7338017E+01;  0.0000000E+00; -5.4168576E-01;0;  3.5695058E-01;  1.3158748E+04;  0.0000000E+00;  9.5875925E-01;  4.0000000E+04;  0.0000000E+00;  3.8705727E+04;  9.9764690E-02;  0.0000000E+00;  2.5718588E-01;  6.4852920E+03;
  1.7422864E+00;  9.9999998E-03; -1.6270946E-01;9160;  1.2507592E+00;  0.0000000E+00; -8.7840609E-02;  1.0033278E+03;  1.7764021E-01;  2.7250586E+03;3;  2.6862946E+01;  0.0000000E+00;  4.3781322E-01;0;  3.3286023E-01;  1.3134423E+04;  0.0000000E+00;  3.4535408E-01;  4.0000000E+04;  0.0000000E+00;  3.8715219E+04;  5.2648649E-02;  0.0000000E+00;  2.8021160E-01;  4.6640977E+03;
  1.7424277E+00;  9.9999998E-03; -1.8270178E-01;9158;  1.2634983E+00;  0.0000000E+00; -9.3686752E-02;  1.0053181E+03;  1.7757855E-01;  4.3546582E+03;3;  2.8100771E+01;  0.0000000E+00; -1.0278344E+00;0;  3.8224572E-01;  1.3188003E+04;  0.0000000E+00;  2.3674607E+00;  4.0000000E+04;  0.0000000E+00;  3.8700465E+04;  1.4547950E-01;  0.0000000E+00;  2.3676622E-01;  9.2958564E+03;
  1.7424276E+00;  9.9999998E-03; -1.5265317E-01;9161;  1.2454921E+00;  0.0000000E+00; -8.4520094E-02;  1.0023022E+03;  1.7760691E-01;  1.8852192E+03;3;  2.6618343E+01;  0.0000000E+00;  1.8103912E+00;0;  3.1137055E-01;  1.3116983E+04;  0.0000000E+00;  3.5323523E-02;  4.0000000E+04;  0.0000000E+00;  3.8724395E+04;  5.8500366E-03;  0.0000000E+00;  3.0552050E-01;  3.3015581E+03;
  1.7428917E+00;  9.9999998E-03; -1.9271620E-01;9157;  1.2710441E+00;  0.0000000E+00; -9.6094087E-02;  1.0058646E+03;  1.7745346E-01;  4.8018330E+03;3;  2.8653666E+01;  0.0000000E+00; -1.8240818E+00;0;  4.0799740E-01;  1.3216529E+04;  0.0000000E+00;  5.2179866E+00;  4.0000000E+04;  0.0000000E+00;  3.8706477E+04;  1.8866614E-01;  0.0000000E+00;  2.1933126E-01;  1.5287479E+04;
  1.7426116E+00;  9.9999998E-03; -1.4251724E-01;9162;  1.2409749E+00;  0.0000000E+00; -8.0764510E-02;  1.0014371E+03;  1.7755312E-01;  1.1767970E+03;3;  2.6252726E+01;  0.0000000E+00;  2.7615275E+00;0;  2.9330546E-01;  1.3107214E+04;  0.0000000E+00; -1.6217043E-01;  4.0000000E+04;  0.0000000E+00;  3.8729887E+04; -3.9522365E-02;  0.0000000E+00;  3.3282781E-01;  2.5001887E+03;
  1.7428206E+00;  9.9999998E-03; -1.3229154E-01;9163;  1.2370046E+00;  0.0000000E+00; -7.6486416E-02;  1.0007991E+03;  1.7748608E-01;  6.5426221E+02;3;  2.6477804E+01;  0.0000000E+00;  3.4612927E+00;0;  2.7909848E-01;  1.3105169E+04;  0.0000000E+00; -2.5251409E-01;  4.0000000E+04;  0.0000000E+00;  3.8732141E+04; -8.2559466E-02;  0.0000000E+00;  3.6165795E-01;  2.1989338E+03;
  1.7430798E+00;  9.9999998E-03; -1.2202071E-01;9164;  1.2334554E+00;  0.0000000E+00; -7.1880147E-02;  1.0004106E+03;  1.7740794E-01;  3.3614465E+02;3;  2.6774548E+01;  0.0000000E+00;  4.0635796E+00;0;  2.6878658E-01;  1.3110686E+04;  0.0000000E+00; -2.1737602E-01;  4.0000000E+04;  0.0000000E+00;  3.8732199E+04; -1.2249196E-01;  0.0000000E+00;  3.9127854E-01;  2.0735435E+03;
  1.7438453E+00;  9.9999998E-03; -2.4376142E-01;9152;  1.3139700E+00;  0.0000000E+00; -1.0503421E-01;  9.9638611E+02;  1.7788103E-01; -2.9584866E+03;3;  3.0637342E+01;  0.0000000E+00; -2.6703825E+00;0;  6.8471807E-01;  1.2944189E+04;  0.0000000E+00;  1.4792441E+01;  4.0000000E+04;  0.0000000E+00;  3.8802246E+04;  4.9101114E-01;  0.0000000E+00;  1.9370693E-01;  4.9202254E+04;
  1.7436550E+00;  9.9999998E-03; -2.0283104E-01;9156;  1.2794358E+00;  0.0000000E+00; -9.8640144E-02;  1.0056061E+03;  1.7728670E-01;  4.5895142E+03;3;  2.9328087E+01;  0.0000000E+00; -2.6779704E+00;0;  4.3529880E-01;  1.3232741E+04;  0.0000000E+00;  9.6520824E+00;  4.0000000E+04;  0.0000000E+00;  3.8722719E+04;  2.2923721E-01;  0.0000000E+00;  2.0606159E-01;  2.6310875E+04;
  1.7434363E+00;  9.9999998E-03; -1.1175018E-01;9165;  1.2302352E+00;  0.0000000E+00; -6.7062959E-02;  1.0002340E+03;  1.7729916E-01;  1.9158273E+02;3;  2.6674288E+01;  0.0000000E+00;  4.5262794E+00;0;  2.6207945E-01;  1.3124414E+04;  0.0000000E+00; -9.7209722E-02;  4.0000000E+04;  0.0000000E+00;  3.8731195E+04; -1.5893313E-01;  0.0000000E+00;  4.2101258E-01;  2.0012302E+03;
  1.7445641E+00;  9.9999998E-03; -2.1304640E-01;9155;  1.2882822E+00;  0.0000000E+00; -1.0076816E-01;  1.0040374E+03;  1.7713998E-01;  3.3047546E+03;3;  2.9797142E+01;  0.0000000E+00; -3.3239830E+00;0;  4.6762156E-01;  1.3219705E+04;  0.0000000E+00;  1.4285347E+01;  4.0000000E+04;  0.0000000E+00;  3.8740605E+04;  2.6982754E-01;  0.0000000E+00;  1.9779404E-01;  3.9389062E+04;
  1.7449328E+00;  9.9999998E-03; -2.3352131E-01;9153;  1.3058598E+00;  0.0000000E+00; -1.0385171E-01;  9.9838458E+02;  1.7739670E-01; -1.3221858E+03;3;  3.1010294E+01;  0.0000000E+00; -3.0912759E+00;0;  5.8432829E-01;  1.3059570E+04;  0.0000000E+00;  1.6202114E+01;  4.0000000E+04;  0.0000000E+00;  3.8785402E+04;  3.9095691E-01;  0.0000000E+00;  1.9337139E-01;  5.0105648E+04;
  1.7451624E+00;  9.9999998E-03; -2.2328536E-01;9154;  1.2972171E+00;  0.0000000E+00; -1.0250477E-01;  1.0012953E+03;  1.7714068E-01;  1.0601638E+03;3;  3.0936281E+01;  0.0000000E+00; -3.2351017E+00;0;  5.1374507E-01;  1.3160978E+04;  0.0000000E+00;  1.6639284E+01;  4.0000000E+04;  0.0000000E+00;  3.8761238E+04;  3.1932616E-01;  0.0000000E+00;  1.9441892E-01;  4.7968738E+04;
  1.7557306E+00;  9.9999998E-03; -2.6440817E-01;9207;  1.3276750E+00;  0.0000000E+00; -9.8028526E-02;  9.9635706E+02;  1.7020783E-01; -2.9754553E+03;3;  3.0673168E+01;  0.0000000E+00; -2.6828823E+00;0;  5.3745043E-01;  1.4150990E+04;  0.0000000E+00;  1.5630450E+01;  4.0000000E+04;  0.0000000E+00;  3.8727789E+04;  3.7996021E-01;  0.0000000E+00;  1.5749022E-01;  5.1528883E+04;
  1.7575883E+00;  9.9999998E-03; -2.5416696E-01;9208;  1.3207402E+00;  0.0000000E+00; -9.7885586E-02;  9.9423456E+02;  1.6978729E-01; -4.7072339E+03;3;  3.1468660E+01;  0.0000000E+00; -3.1957009E+00;0;  4.6120101E-01;  1.4164943E+04;  0.0000000E+00;  1.8680378E+01;  4.0000000E+04;  0.0000000E+00;  3.8761902E+04;  2.7655005E-01;  0.0000000E+00;  1.8465097E-01;  6.1689801E+04;
  1.7592491E+00;  9.9999998E-03; -2.4391793E-01;9209;  1.3131050E+00;  0.0000000E+00; -9.7074315E-02;  9.9391583E+02;  1.6932401E-01; -4.9656538E+03;3;  3.1648193E+01;  0.0000000E+00; -3.7847338E+00;0;  3.8903677E-01;  1.4235360E+04;  0.0000000E+00;  2.1098528E+01;  4.0000000E+04;  0.0000000E+00;  3.8772223E+04;  1.8931161E-01;  0.0000000E+00;  1.9972515E-01;  6.7516727E+04;
  1.7590733E+00;  9.9999998E-03; -1.8254972E-01;9215;  1.2611551E+00;  0.0000000E+00; -8.5753322E-02;  1.0050408E+03;  1.6863060E-01;  4.1143423E+03;3;  2.8978548E+01;  0.0000000E+00; -1.6714650E+00;0;  2.0401263E-01;  1.4633886E+04;  0.0000000E+00;  5.1691475E+00;  4.0000000E+04;  0.0000000E+00;  3.8663266E+04; -3.7869103E-02;  0.0000000E+00;  2.4188174E-01;  1.5140745E+04;
  1.7590497E+00;  9.9999998E-03; -1.7258814E-01;9216;  1.2542713E+00;  0.0000000E+00; -8.3738610E-02;  1.0042778E+03;  1.6863731E-01;  3.4915557E+03;3;  2.8398039E+01;  0.0000000E+00; -8.1622308E-01;0;  1.9217494E-01;  1.4614955E+04;  0.0000000E+00;  2.3174160E+00;  4.0000000E+04;  0.0000000E+00;  3.8661215E+04; -6.5270126E-02;  0.0000000E+00;  2.5744507E-01;  8.6320723E+03;
  1.7591347E+00;  9.9999998E-03; -1.6264459E-01;9217;  1.2480907E+00;  0.0000000E+00; -8.1514001E-02;  1.0032813E+03;  1.6862372E-01;  2.6781877E+03;3;  2.8091972E+01;  0.0000000E+00; -1.3447455E-01;0;  1.8190035E-01;  1.4590568E+04;  0.0000000E+00;  9.4565922E-01;  4.0000000E+04;  0.0000000E+00;  3.8670918E+04; -9.3593337E-02;  0.0000000E+00;  2.7549368E-01;  5.0672300E+03;
  1.7593080E+00;  9.9999998E-03; -1.9261470E-01;9214;  1.2689154E+00;  0.0000000E+00; -8.7849952E-02;  1.0052710E+03;  1.6859367E-01;  4.3019058E+03;3;  2.9915564E+01;  0.0000000E+00; -2.6442010E+00;0;  2.1704105E-01;  1.4640938E+04;  0.0000000E+00;  1.0163053E+01;  4.0000000E+04;  0.0000000E+00;  3.8678910E+04; -1.1772049E-02;  0.0000000E+00;  2.2881310E-01;  2.7057951E+04;
  1.7592548E+00;  9.9999998E-03; -1.5266737E-01;9218;  1.2425330E+00;  0.0000000E+00; -7.8980759E-02;  1.0021995E+03;  1.6860110E-01;  1.7951733E+03;3;  2.7674946E+01;  0.0000000E+00;  4.5034963E-01;0;  1.7374678E-01;  1.4565225E+04;  0.0000000E+00;  3.2825220E-01;  4.0000000E+04;  0.0000000E+00;  3.8684160E+04; -1.2244417E-01;  0.0000000E+00;  2.9619095E-01;  2.6937905E+03;
  1.7593584E+00;  9.9999998E-03; -1.4262734E-01;9219;  1.2375939E+00;  0.0000000E+00; -7.5910188E-02;  1.0011641E+03;  1.6857980E-01;  9.5005518E+02;3;  2.7694862E+01;  0.0000000E+00;  1.2732804E+00;0;  1.6818501E-01;  1.4542083E+04;  0.0000000E+00;  2.3700928E-02;  4.0000000E+04;  0.0000000E+00;  3.8694980E+04; -1.5132277E-01;  0.0000000E+00;  3.1950778E-01;  1.0224097E+03;
  1.7594481E+00;  9.9999998E-03; -1.3249384E-01;9220;  1.2331842E+00;  0.0000000E+00; -7.2212175E-02;  1.0002832E+03;  1.6855770E-01;  2.3116093E+02;3;  2.7772284E+01;  0.0000000E+00;  2.1443663E+00;0;  1.6528119E-01;  1.4524250E+04;  0.0000000E+00; -1.3536505E-01;  4.0000000E+04;  0.0000000E+00;  3.8701871E+04; -1.7979537E-01;  0.0000000E+00;  3.4507656E-01;  3.8031390E+02;
  1.7598515E+00;  9.9999998E-03; -2.0284107E-01;9213;  1.2776204E+00;  0.0000000E+00; -9.0380281E-02;  1.0043757E+03;  1.6853525E-01;  3.5708071E+03;3;  3.0739302E+01;  0.0000000E+00; -3.8171105E+00;0;  2.3218995E-01;  1.4625870E+04;  0.0000000E+00;  1.6848465E+01;  4.0000000E+04;  0.0000000E+00;  3.8698461E+04;  1.2743967E-02;  0.0000000E+00;  2.1944599E-01;  4.4148984E+04;
  1.7595663E+00;  9.9999998E-03; -1.2226664E-01;9221;  1.2292262E+00;  0.0000000E+00; -6.8007961E-02;  9.9961389E+02;  1.6852634E-01; -3.1511398E+02;3;  2.7826260E+01;  0.0000000E+00;  2.6533673E+00;0;  1.6479939E-01;  1.4514793E+04;  0.0000000E+00; -1.8041731E-01;  4.0000000E+04;  0.0000000E+00;  3.8704688E+04; -2.0732492E-01;  0.0000000E+00;  3.7212431E-01;  7.4204413E+02;
  1.7597598E+00;  9.9999998E-03; -1.1199215E-01;9222;  1.2256736E+00;  0.0000000E+00; -6.3360900E-02;  9.9919702E+02;  1.6847646E-01; -6.5530011E+02;3;  2.8139221E+01;  0.0000000E+00;  2.9504364E+00;0;  1.6640654E-01;  1.4514856E+04;  0.0000000E+00; -1.3243890E-01;  4.0000000E+04;  0.0000000E+00;  3.8704727E+04; -2.3325676E-01;  0.0000000E+00;  3.9966330E-01;  8.1478241E+02;
  1.7604686E+00;  9.9999998E-03; -2.3366497E-01;9210;  1.3048304E+00;  0.0000000E+00; -9.5757499E-02;  9.9549445E+02;  1.6888924E-01; -3.6762905E+03;3;  3.2293301E+01;  0.0000000E+00; -4.1820273E+00;0;  3.2708713E-01;  1.4349098E+04;  0.0000000E+00;  2.3230377E+01;  4.0000000E+04;  0.0000000E+00;  3.8760281E+04;  1.2014694E-01;  0.0000000E+00;  2.0694019E-01;  7.0054656E+04;
  1.7605795E+00;  9.9999998E-03; -2.1313789E-01;9212;  1.2867287E+00;  0.0000000E+00; -9.2400983E-02;  1.0019125E+03;  1.6850053E-01;  1.5605281E+03;3;  3.1355709E+01;  0.0000000E+00; -4.3032045E+00;0;  2.5119704E-01;  1.4572923E+04;  0.0000000E+00;  2.2576504E+01;  4.0000000E+04;  0.0000000E+00;  3.8713660E+04;  3.7547044E-02;  0.0000000E+00;  2.1364999E-01;  6.0444723E+04;
  1.7609416E+00;  9.9999998E-03; -2.2340965E-01;9211;  1.2959312E+00;  0.0000000E+00; -9.4140381E-02;  9.9851178E+02;  1.6859560E-01; -1.2141642E+03;3;  3.2258205E+01;  0.0000000E+00; -4.2378163E+00;0;  2.8075954E-01;  1.4474021E+04;  0.0000000E+00;  2.4479534E+01;  4.0000000E+04;  0.0000000E+00;  3.8735730E+04;  7.0398800E-02;  0.0000000E+00;  2.1036074E-01;  6.8882992E+04;
  1.7702571E+00;  9.9999998E-03; -2.6462901E-01;9264;  1.3263080E+00;  0.0000000E+00; -9.0244427E-02;  9.9709705E+02;  1.6282795E-01; -2.3630662E+03;3;  3.1738003E+01;  0.0000000E+00; -3.2882960E+00;0;  2.7026761E-01;  1.5504745E+04;  0.0000000E+00;  1.8332661E+01;  4.0000000E+04;  0.0000000E+00;  3.8655020E+04;  1.4027409E-01;  0.0000000E+00;  1.2999350E-01;  5.4114172E+04;
  1.7721831E+00;  9.9999998E-03; -2.5439143E-01;9265;  1.3193644E+00;  0.0000000E+00; -8.9910395E-02;  9.9350220E+02;  1.6250834E-01; -5.2867476E+03;3;  3.2367737E+01;  0.0000000E+00; -3.4234667E+00;0;  2.3522276E-01;  1.5461083E+04;  0.0000000E+00;  2.2563540E+01;  4.0000000E+04;  0.0000000E+00;  3.8700141E+04;  6.4690083E-02;  0.0000000E+00;  1.7053267E-01;  6.9623969E+04;
  1.7739153E+00;  9.9999998E-03; -2.4414156E-01;9266;  1.3117474E+00;  0.0000000E+00; -8.9174077E-02;  9.9191119E+02;  1.6214561E-01; -6.5781943E+03;3;  3.2588696E+01;  0.0000000E+00; -3.9556558E+00;0;  2.0114926E-01;  1.5486788E+04;  0.0000000E+00;  2.5932449E+01;  4.0000000E+04;  0.0000000E+00;  3.8722590E+04;  2.2478441E-03;  0.0000000E+00;  1.9890141E-01;  7.9207078E+04;
  1.7746781E+00;  9.9999998E-03; -1.8241596E-01;9272;  1.2585773E+00;  0.0000000E+00; -7.7866800E-02;  1.0046355E+03;  1.6125816E-01;  3.7689746E+03;3;  2.9816580E+01;  0.0000000E+00; -1.7734147E+00;0;  9.6701965E-02;  1.6013567E+04;  0.0000000E+00;  1.0300386E+01;  4.0000000E+04;  0.0000000E+00;  3.8621695E+04; -1.4356463E-01;  0.0000000E+00;  2.4026659E-01;  2.6374512E+04;
  1.7747439E+00;  9.9999998E-03; -1.9261485E-01;9271;  1.2666117E+00;  0.0000000E+00; -7.9955161E-02;  1.0043946E+03;  1.6128463E-01;  3.5731191E+03;3;  3.0824978E+01;  0.0000000E+00; -2.9006472E+00;0;  1.0175303E-01;  1.5994185E+04;  0.0000000E+00;  1.8047592E+01;  4.0000000E+04;  0.0000000E+00;  3.8645734E+04; -1.2974219E-01;  0.0000000E+00;  2.3149522E-01;  4.4480961E+04;
  1.7748699E+00;  9.9999998E-03; -1.7240782E-01;9273;  1.2515156E+00;  0.0000000E+00; -7.6218352E-02;  1.0040880E+03;  1.6120785E-01;  3.3237146E+03;3;  2.9351116E+01;  0.0000000E+00; -1.0323982E+00;0;  9.2546344E-02;  1.6013877E+04;  0.0000000E+00;  5.2152286E+00;  4.0000000E+04;  0.0000000E+00;  3.8607074E+04; -1.5875992E-01;  0.0000000E+00;  2.5130627E-01;  1.4785021E+04;
  1.7751156E+00;  9.9999998E-03; -1.6248968E-01;9274;  1.2451196E+00;  0.0000000E+00; -7.4589998E-02;  1.0032406E+03;  1.6116017E-01;  2.6345249E+03;3;  2.8986246E+01;  0.0000000E+00; -4.5097932E-01;0;  8.9387342E-02;  1.5999906E+04;  0.0000000E+00;  2.4338191E+00;  4.0000000E+04;  0.0000000E+00;  3.8609098E+04; -1.7516808E-01;  0.0000000E+00;  2.6455542E-01;  8.1851992E+03;
  1.7752563E+00;  9.9999998E-03; -2.3388402E-01;9267;  1.3033979E+00;  0.0000000E+00; -8.7817907E-02;  9.9263422E+02;  1.6177730E-01; -5.9879717E+03;3;  3.3162243E+01;  0.0000000E+00; -4.3533211E+00;0;  1.6693851E-01;  1.5579812E+04;  0.0000000E+00;  2.9264938E+01;  4.0000000E+04;  0.0000000E+00;  3.8718312E+04; -4.6483643E-02;  0.0000000E+00;  2.1342216E-01;  8.5158227E+04;
  1.7752513E+00;  9.9999998E-03; -2.0297998E-01;9270;  1.2755482E+00;  0.0000000E+00; -8.2263157E-02;  1.0025681E+03;  1.6128416E-01;  2.0877520E+03;3;  3.1686529E+01;  0.0000000E+00; -3.8715181E+00;0;  1.0839114E-01;  1.5944142E+04;  0.0000000E+00;  2.6571693E+01;  4.0000000E+04;  0.0000000E+00;  3.8659641E+04; -1.1742495E-01;  0.0000000E+00;  2.2581609E-01;  6.5690156E+04;
  1.7753165E+00;  9.9999998E-03; -1.5257710E-01;9275;  1.2392815E+00;  0.0000000E+00; -7.2676405E-02;  1.0022371E+03;  1.6112286E-01;  1.8185977E+03;3;  2.8790747E+01;  0.0000000E+00; -6.9435567E-02;0;  8.7635279E-02;  1.5975726E+04;  0.0000000E+00;  1.0620970E+00;  4.0000000E+04;  0.0000000E+00;  3.8621715E+04; -1.9292110E-01;  0.0000000E+00;  2.8055638E-01;  4.2000708E+03;
  1.7754422E+00;  9.9999998E-03; -1.4261897E-01;9276;  1.2339406E+00;  0.0000000E+00; -7.0284471E-02;  1.0011674E+03;  1.6110042E-01;  9.4899860E+02;3;  2.8890251E+01;  0.0000000E+00;  1.4439347E-01;0;  8.7599933E-02;  1.5946452E+04;  0.0000000E+00;  4.0713590E-01;  4.0000000E+04;  0.0000000E+00;  3.8636969E+04; -2.1202657E-01;  0.0000000E+00;  2.9962650E-01;  1.5341293E+03;
  1.7754887E+00;  9.9999998E-03; -1.3258316E-01;9277;  1.2290840E+00;  0.0000000E+00; -6.7299806E-02;  1.0001373E+03;  1.6109109E-01;  1.1153714E+02;3;  2.9023378E+01;  0.0000000E+00;  5.9573954E-01;0;  8.9487821E-02;  1.5916525E+04;  0.0000000E+00;  8.4905989E-02;  4.0000000E+04;  0.0000000E+00;  3.8650004E+04; -2.3212266E-01;  0.0000000E+00;  3.2161048E-01;  7.2907898E+02;
  1.7755023E+00;  9.9999998E-03; -1.2244461E-01;9278;  1.2247120E+00;  0.0000000E+00; -6.3607030E-02;  9.9924341E+02;  1.6108820E-01; -6.1505090E+02;3;  2.9264145E+01;  0.0000000E+00;  1.0873251E+00;0;  9.3187034E-02;  1.5891236E+04;  0.0000000E+00; -6.8038307E-02;  4.0000000E+04;  0.0000000E+00;  3.8658250E+04; -2.5265616E-01;  0.0000000E+00;  3.4584320E-01;  1.7406984E+03;
  1.7755405E+00;  9.9999998E-03; -1.1221757E-01;9279;  1.2207724E+00;  0.0000000E+00; -5.9379492E-02;  9.9857031E+02;  1.6108383E-01; -1.1621598E+03;3;  2.9593031E+01;  0.0000000E+00;  1.4686346E+00;0;  9.8376602E-02;  1.5873970E+04;  0.0000000E+00; -1.1116175E-01;  4.0000000E+04;  0.0000000E+00;  3.8661820E+04; -2.7287698E-01;  0.0000000E+00;  3.7125358E-01;  2.3170056E+03;
  1.7758937E+00;  9.9999998E-03; -2.1332788E-01;9269;  1.2848856E+00;  0.0000000E+00; -8.4108956E-02;  9.9912701E+02;  1.6131712E-01; -7.0955237E+02;3;  3.2548458E+01;  0.0000000E+00; -4.3725581E+00;0;  1.1847506E-01;  1.5847759E+04;  0.0000000E+00;  3.1770496E+01;  4.0000000E+04;  0.0000000E+00;  3.8672445E+04; -1.0365248E-01;  0.0000000E+00;  2.2212754E-01;  8.1259367E+04;
  1.7759806E+00;  9.9999998E-03; -2.2361773E-01;9268;  1.2943082E+00;  0.0000000E+00; -8.5994124E-02;  9.9532654E+02;  1.6147590E-01; -3.7985276E+03;3;  3.3216255E+01;  0.0000000E+00; -4.3818035E+00;0;  1.3764125E-01;  1.5713715E+04;  0.0000000E+00;  3.1911329E+01;  4.0000000E+04;  0.0000000E+00;  3.8696277E+04; -8.1538297E-02;  0.0000000E+00;  2.1917956E-01;  8.6723094E+04;
  1.7842203E+00;  9.9999998E-03; -2.6490054E-01;9320;  1.3246356E+00;  0.0000000E+00; -8.2989097E-02;  9.9913397E+02;  1.5658918E-01; -7.0220392E+02;3;  3.2584702E+01;  0.0000000E+00; -3.3277681E+00;0;  1.0658509E-01;  1.6859533E+04;  0.0000000E+00;  1.6945665E+01;  4.0000000E+04;  0.0000000E+00;  3.8560609E+04; -1.4486838E-03;  0.0000000E+00;  1.0803378E-01;  4.4040578E+04;
  1.7861105E+00;  9.9999998E-03; -2.5467318E-01;9321;  1.3177911E+00;  0.0000000E+00; -8.2599886E-02;  9.9423572E+02;  1.5636545E-01; -4.6709395E+03;3;  3.3038273E+01;  0.0000000E+00; -3.4146872E+00;0;  9.9382609E-02;  1.6750617E+04;  0.0000000E+00;  2.4572802E+01;  4.0000000E+04;  0.0000000E+00;  3.8613910E+04; -5.8320265E-02;  0.0000000E+00;  1.5770288E-01;  6.9872133E+04;
  1.7878907E+00;  9.9999998E-03; -2.4442840E-01;9322;  1.3102804E+00;  0.0000000E+00; -8.2004927E-02;  9.9103375E+02;  1.5610352E-01; -7.2613506E+03;3;  3.3404224E+01;  0.0000000E+00; -3.8071480E+00;0;  9.1122776E-02;  1.6709299E+04;  0.0000000E+00;  2.9449308E+01;  4.0000000E+04;  0.0000000E+00;  3.8649359E+04; -1.0604936E-01;  0.0000000E+00;  1.9717214E-01;  8.4796625E+04;
  1.7893636E+00;  9.9999998E-03; -2.3417114E-01;9323;  1.3018378E+00;  0.0000000E+00; -8.0609143E-02;  9.9034027E+02;  1.5581127E-01; -7.8191006E+03;3;  3.3989552E+01;  0.0000000E+00; -4.2439322E+00;0;  7.3324755E-02;  1.6754145E+04;  0.0000000E+00;  3.3732147E+01;  4.0000000E+04;  0.0000000E+00;  3.8657219E+04; -1.4444551E-01;  0.0000000E+00;  2.1777026E-01;  9.4139273E+04;
  1.7895321E+00;  9.9999998E-03; -1.9277993E-01;9327;  1.2642711E+00;  0.0000000E+00; -7.2604656E-02;  1.0029755E+03;  1.5520729E-01;  2.4083682E+03;3;  3.1687414E+01;  0.0000000E+00; -2.8017056E+00;0;  3.0252561E-02;  1.7257703E+04;  0.0000000E+00;  2.8924763E+01;  4.0000000E+04;  0.0000000E+00;  3.8599711E+04; -2.0144452E-01;  0.0000000E+00;  2.3169708E-01;  6.5689039E+04;
  1.7894616E+00;  9.9999998E-03; -1.8238865E-01;9328;  1.2559137E+00;  0.0000000E+00; -7.0456311E-02;  1.0039860E+03;  1.5515092E-01;  3.2263828E+03;3;  3.0786594E+01;  0.0000000E+00; -1.8535657E+00;0;  2.9516175E-02;  1.7306113E+04;  0.0000000E+00;  1.8512482E+01;  4.0000000E+04;  0.0000000E+00;  3.8578203E+04; -2.0676367E-01;  0.0000000E+00;  2.3627985E-01;  4.2574039E+04;
  1.7903281E+00;  9.9999998E-03; -2.2390029E-01;9324;  1.2926152E+00;  0.0000000E+00; -7.8653403E-02;  9.9214099E+02;  1.5553297E-01; -6.3594253E+03;3;  3.4072639E+01;  0.0000000E+00; -4.3844285E+00;0;  5.3523242E-02;  1.6871592E+04;  0.0000000E+00;  3.7887745E+01;  4.0000000E+04;  0.0000000E+00;  3.8642121E+04; -1.7225786E-01;  0.0000000E+00;  2.2578110E-01;  9.9206312E+04;
  1.7901204E+00;  9.9999998E-03; -2.0324104E-01;9326;  1.2734137E+00;  0.0000000E+00; -7.4550666E-02;  9.9995557E+02;  1.5524368E-01; -3.5935040E+01;3;  3.2697212E+01;  0.0000000E+00; -3.8126180E+00;0;  3.1970531E-02;  1.7165459E+04;  0.0000000E+00;  3.7464973E+01;  4.0000000E+04;  0.0000000E+00;  3.8604188E+04; -1.9717972E-01;  0.0000000E+00;  2.2915025E-01;  8.6927438E+04;
  1.7898446E+00;  9.9999998E-03; -1.7224130E-01;9329;  1.2485603E+00;  0.0000000E+00; -6.8819880E-02;  1.0037139E+03;  1.5506069E-01;  3.0057043E+03;3;  3.0221956E+01;  0.0000000E+00; -1.1188734E+00;0;  2.9059350E-02;  1.7329699E+04;  0.0000000E+00;  1.0400521E+01;  4.0000000E+04;  0.0000000E+00;  3.8549156E+04; -2.1412812E-01;  0.0000000E+00;  2.4318747E-01;  2.5183480E+04;
  1.7905759E+00;  9.9999998E-03; -2.1360280E-01;9325;  1.2829736E+00;  0.0000000E+00; -7.6460697E-02;  9.9577960E+02;  1.5533258E-01; -3.4148420E+03;3;  3.3524246E+01;  0.0000000E+00; -4.3477201E+00;0;  3.8477093E-02;  1.7025029E+04;  0.0000000E+00;  4.0177868E+01;  4.0000000E+04;  0.0000000E+00;  3.8618668E+04; -1.8918076E-01;  0.0000000E+00;  2.2765785E-01;  9.8090242E+04;
  1.7903211E+00;  9.9999998E-03; -1.6227910E-01;9330;  1.2419093E+00;  0.0000000E+00; -6.7368083E-02;  1.0030183E+03;  1.5497147E-01;  2.4423547E+03;3;  3.0056314E+01;  0.0000000E+00; -9.9889404E-01;0;  2.8799087E-02;  1.7334049E+04;  0.0000000E+00;  5.3952127E+00;  4.0000000E+04;  0.0000000E+00;  3.8535688E+04; -2.2324356E-01;  0.0000000E+00;  2.5204265E-01;  1.4380094E+04;
  1.7906978E+00;  9.9999998E-03; -1.5238655E-01;9331;  1.2357565E+00;  0.0000000E+00; -6.5787122E-02;  1.0021633E+03;  1.5490624E-01;  1.7502946E+03;3;  3.0117903E+01;  0.0000000E+00; -9.8248893E-01;0;  2.9341623E-02;  1.7320777E+04;  0.0000000E+00;  2.6354587E+00;  4.0000000E+04;  0.0000000E+00;  3.8540016E+04; -2.3413487E-01;  0.0000000E+00;  2.6347649E-01;  7.9176528E+03;
  1.7909257E+00;  9.9999998E-03; -1.4248823E-01;9332;  1.2300456E+00;  0.0000000E+00; -6.3876286E-02;  1.0011838E+03;  1.5486850E-01;  9.5777893E+02;3;  3.0225208E+01;  0.0000000E+00; -8.5303110E-01;0;  3.1128496E-02;  1.7293713E+04;  0.0000000E+00;  1.2019211E+00;  4.0000000E+04;  0.0000000E+00;  3.8554887E+04; -2.4692616E-01;  0.0000000E+00;  2.7805465E-01;  3.7938135E+03;
  1.7910005E+00;  9.9999998E-03; -1.3253456E-01;9333;  1.2247778E+00;  0.0000000E+00; -6.1542708E-02;  1.0001766E+03;  1.5486164E-01;  1.4282893E+02;3;  3.0381578E+01;  0.0000000E+00; -6.3188511E-01;0;  3.4430206E-02;  1.7258258E+04;  0.0000000E+00;  4.7776511E-01;  4.0000000E+04;  0.0000000E+00;  3.8572637E+04; -2.6149330E-01;  0.0000000E+00;  2.9592350E-01;  1.2850565E+03;
  1.7909647E+00;  9.9999998E-03; -1.2249375E-01;9334;  1.2199849E+00;  0.0000000E+00; -5.8597717E-02;  9.9916577E+02;  1.5486793E-01; -6.7490155E+02;3;  3.0597513E+01;  0.0000000E+00; -2.9029423E-01;0;  3.9251417E-02;  1.7220777E+04;  0.0000000E+00;  1.1736977E-01;  4.0000000E+04;  0.0000000E+00;  3.8587426E+04; -2.7744192E-01;  0.0000000E+00;  3.1669334E-01;  1.7511469E+03;
  1.7908922E+00;  9.9999998E-03; -1.1235619E-01;9335;  1.2156725E+00;  0.0000000E+00; -5.4956205E-02;  9.9830225E+02;  1.5488674E-01; -1.3735621E+03;3;  3.0861765E+01;  0.0000000E+00;  1.5976617E-01;0;  4.5354724E-02;  1.7187607E+04;  0.0000000E+00; -4.8172235E-02;  4.0000000E+04;  0.0000000E+00;  3.8597668E+04; -2.9408365E-01;  0.0000000E+00;  3.3943838E-01;  2.8985425E+03;
  1.7978715E+00;  9.9999998E-03; -2.6521072E-01;9375;  1.3227736E+00;  0.0000000E+00; -7.6327026E-02;  1.0018057E+03;  1.5130523E-01;  1.4572679E+03;3;  3.3398411E+01;  0.0000000E+00; -3.2882013E+00;0;  1.3789602E-02;  1.8189711E+04;  0.0000000E+00;  9.9953146E+00;  4.0000000E+04;  0.0000000E+00;  3.8454027E+04; -7.8551076E-02;  0.0000000E+00;  9.2340678E-02;  2.0978955E+04;
  1.7995589E+00;  9.9999998E-03; -2.5500375E-01;9376;  1.3159894E+00;  0.0000000E+00; -7.5902328E-02;  9.9646942E+02;  1.5115671E-01; -2.8473267E+03;3;  3.3700993E+01;  0.0000000E+00; -3.2883990E+00;0;  2.0036250E-02;  1.8038717E+04;  0.0000000E+00;  2.2478910E+01;  4.0000000E+04;  0.0000000E+00;  3.8505340E+04; -1.2643366E-01;  0.0000000E+00;  1.4646991E-01;  5.8948902E+04;
  1.8013176E+00;  9.9999998E-03; -2.4477202E-01;9377;  1.3085148E+00;  0.0000000E+00; -7.5235203E-02;  9.9165424E+02;  1.5098813E-01; -6.7260659E+03;3;  3.4222042E+01;  0.0000000E+00; -3.4896278E+00;0;  2.4154946E-02;  1.7918270E+04;  0.0000000E+00;  3.0410692E+01;  4.0000000E+04;  0.0000000E+00;  3.8550668E+04; -1.6788161E-01;  0.0000000E+00;  1.9203655E-01;  8.1981430E+04;
  1.8028611E+00;  9.9999998E-03; -2.3452249E-01;9378;  1.3001525E+00;  0.0000000E+00; -7.4053213E-02;  9.8920624E+02;  1.5078253E-01; -8.6935547E+03;3;  3.4841778E+01;  0.0000000E+00; -3.9701872E+00;0;  1.8737495E-02;  1.7890248E+04;  0.0000000E+00;  3.6383530E+01;  4.0000000E+04;  0.0000000E+00;  3.8572188E+04; -2.0204845E-01;  0.0000000E+00;  2.2078595E-01;  9.6451609E+04;
  1.8036572E+00;  9.9999998E-03; -1.8258351E-01;9383;  1.2532670E+00;  0.0000000E+00; -6.3632689E-02;  1.0028831E+03;  1.5008160E-01;  2.3213496E+03;3;  3.1823008E+01;  0.0000000E+00; -1.9248643E+00;0; -1.8197477E-02;  1.8495176E+04;  0.0000000E+00;  3.0179131E+01;  4.0000000E+04;  0.0000000E+00;  3.8522398E+04; -2.5086758E-01;  0.0000000E+00;  2.3267010E-01;  6.2646645E+04;
  1.8040150E+00;  9.9999998E-03; -2.2425644E-01;9379;  1.2908924E+00;  0.0000000E+00; -7.2092012E-02;  9.8954022E+02;  1.5055726E-01; -8.4206006E+03;3;  3.4912239E+01;  0.0000000E+00; -4.3018131E+00;0;  4.0365607E-03;  1.7960350E+04;  0.0000000E+00;  4.2008759E+01;  4.0000000E+04;  0.0000000E+00;  3.8567270E+04; -2.2787073E-01;  0.0000000E+00;  2.3190729E-01;  1.0555005E+05;
  1.8039504E+00;  9.9999998E-03; -1.9313881E-01;9382;  1.2619499E+00;  0.0000000E+00; -6.5666325E-02;  1.0006243E+03;  1.5014158E-01;  5.0260260E+02;3;  3.2609428E+01;  0.0000000E+00; -2.7577016E+00;0; -1.9547373E-02;  1.8410506E+04;  0.0000000E+00;  4.1362511E+01;  4.0000000E+04;  0.0000000E+00;  3.8528027E+04; -2.5155532E-01;  0.0000000E+00;  2.3200795E-01;  8.6804422E+04;
  1.8040287E+00;  9.9999998E-03; -1.7221439E-01;9384;  1.2455112E+00;  0.0000000E+00; -6.1767172E-02;  1.0031673E+03;  1.4998506E-01;  2.5497842E+03;3;  3.1343349E+01;  0.0000000E+00; -1.5498959E+00;0; -1.6658783E-02;  1.8540164E+04;  0.0000000E+00;  1.8806797E+01;  4.0000000E+04;  0.0000000E+00;  3.8490453E+04; -2.5225690E-01;  0.0000000E+00;  2.3559812E-01;  3.9999645E+04;
  1.8046060E+00;  9.9999998E-03; -2.1396348E-01;9380;  1.2810737E+00;  0.0000000E+00; -6.9623336E-02;  9.9231073E+02;  1.5035114E-01; -6.1887236E+03;3;  3.4589508E+01;  0.0000000E+00; -4.2552271E+00;0; -1.1243969E-02;  1.8102734E+04;  0.0000000E+00;  4.6457333E+01;  4.0000000E+04;  0.0000000E+00;  3.8546977E+04; -2.4418336E-01;  0.0000000E+00;  2.3293939E-01;  1.0866273E+05;
  1.8045104E+00;  9.9999998E-03; -2.0361184E-01;9381;  1.2712864E+00;  0.0000000E+00; -6.7440085E-02;  9.9653198E+02;  1.5021169E-01; -2.7913567E+03;3;  3.3764664E+01;  0.0000000E+00; -3.6742136E+00;0; -1.8841997E-02;  1.8270426E+04;  0.0000000E+00;  4.7142235E+01;  4.0000000E+04;  0.0000000E+00;  3.8529484E+04; -2.5106692E-01;  0.0000000E+00;  2.3222493E-01;  1.0323412E+05;
  1.8047024E+00;  9.9999998E-03; -1.6211656E-01;9385;  1.2385149E+00;  0.0000000E+00; -6.0151704E-02;  1.0026344E+03;  1.4987475E-01;  2.1202144E+03;3;  3.1331308E+01;  0.0000000E+00; -1.5808389E+00;0; -1.5544161E-02;  1.8563916E+04;  0.0000000E+00;  1.0663616E+01;  4.0000000E+04;  0.0000000E+00;  3.8458582E+04; -2.5602242E-01;  0.0000000E+00;  2.4047826E-01;  2.4054746E+04;
  1.8053138E+00;  9.9999998E-03; -1.5217353E-01;9386;  1.2320365E+00;  0.0000000E+00; -5.8645785E-02;  1.0018925E+03;  1.4977783E-01;  1.5226848E+03;3;  3.1387566E+01;  0.0000000E+00; -1.6397080E+00;0; -1.4280662E-02;  1.8568375E+04;  0.0000000E+00;  5.6872878E+00;  4.0000000E+04;  0.0000000E+00;  3.8446715E+04; -2.6194513E-01;  0.0000000E+00;  2.4766447E-01;  1.4064932E+04;
  1.8057383E+00;  9.9999998E-03; -1.4227933E-01;9387;  1.2259921E+00;  0.0000000E+00; -5.7019074E-02;  1.0010878E+03;  1.4971471E-01;  8.7508789E+02;3;  3.1468138E+01;  0.0000000E+00; -1.6118046E+00;0; -1.2323201E-02;  1.8553912E+04;  0.0000000E+00;  2.8451109E+00;  4.0000000E+04;  0.0000000E+00;  3.8453477E+04; -2.7006447E-01;  0.0000000E+00;  2.5774127E-01;  7.7860698E+03;
  1.8059560E+00;  9.9999998E-03; -1.3237159E-01;9388;  1.2203796E+00;  0.0000000E+00; -5.5097755E-02;  1.0001879E+03;  1.4968392E-01;  1.5112457E+02;3;  3.1565962E+01;  0.0000000E+00; -1.5017040E+00;0; -9.2767179E-03;  1.8523812E+04;  0.0000000E+00;  1.2887629E+00;  4.0000000E+04;  0.0000000E+00;  3.8470395E+04; -2.8035289E-01;  0.0000000E+00;  2.7107617E-01;  3.6268528E+03;
  1.8059839E+00;  9.9999998E-03; -1.2240804E-01;9389;  1.2152194E+00;  0.0000000E+00; -5.2830409E-02;  9.9923376E+02;  1.4968067E-01; -6.1633362E+02;3;  3.1728369E+01;  0.0000000E+00; -1.3005807E+00;0; -4.9249530E-03;  1.8484139E+04;  0.0000000E+00;  4.7608089E-01;  4.0000000E+04;  0.0000000E+00;  3.8489906E+04; -2.9253557E-01;  0.0000000E+00;  2.8761062E-01;  1.3201798E+03;
  1.8058960E+00;  9.9999998E-03; -1.1236170E-01;9390;  1.2105447E+00;  0.0000000E+00; -4.9962062E-02;  9.9828973E+02;  1.4969365E-01; -1.3757864E+03;3;  3.1933140E+01;  0.0000000E+00; -1.0148745E+00;0;  6.8271160E-04;  1.8442416E+04;  0.0000000E+00;  8.1659332E-02;  4.0000000E+04;  0.0000000E+00;  3.8506910E+04; -3.0608153E-01;  0.0000000E+00;  3.0676425E-01;  2.2408899E+03;
  1.8114096E+00;  9.9999998E-03; -2.6554507E-01;9429;  1.3209684E+00;  0.0000000E+00; -7.0220657E-02;  1.0039021E+03;  1.4683394E-01;  3.1313030E+03;3;  3.4308334E+01;  0.0000000E+00; -3.3547697E+00;0; -2.8424345E-02;  1.9438592E+04;  0.0000000E+00;  2.2277129E+00;  4.0000000E+04;  0.0000000E+00;  3.8346578E+04; -1.1130358E-01;  0.0000000E+00;  8.2879230E-02;  1.0575230E+04;
  1.8127248E+00;  9.9999998E-03; -2.5537097E-01;9430;  1.3139650E+00;  0.0000000E+00; -6.9627881E-02;  9.9974597E+02;  1.4673392E-01; -2.0373248E+02;3;  3.4571964E+01;  0.0000000E+00; -3.2331607E+00;0; -2.3185670E-02;  1.9311137E+04;  0.0000000E+00;  1.4549332E+01;  4.0000000E+04;  0.0000000E+00;  3.8381922E+04; -1.5858322E-01;  0.0000000E+00;  1.3539755E-01;  3.5650711E+04;
  1.8143200E+00;  9.9999998E-03; -2.4516082E-01;9431;  1.3066123E+00;  0.0000000E+00; -6.9091961E-02;  9.9408337E+02;  1.4663771E-01; -4.7415288E+03;3;  3.5103771E+01;  0.0000000E+00; -3.3134451E+00;0; -1.1740223E-02;  1.9130461E+04;  0.0000000E+00;  2.7443125E+01;  4.0000000E+04;  0.0000000E+00;  3.8429113E+04; -1.9880839E-01;  0.0000000E+00;  1.8706816E-01;  6.9380727E+04;
  1.8158656E+00;  9.9999998E-03; -2.3492616E-01;9432;  1.2983346E+00;  0.0000000E+00; -6.8081245E-02;  9.8982111E+02;  1.4651705E-01; -8.1512202E+03;3;  3.5578754E+01;  0.0000000E+00; -3.6534622E+00;0; -1.0718539E-02;  1.9014875E+04;  0.0000000E+00;  3.6337334E+01;  4.0000000E+04;  0.0000000E+00;  3.8462254E+04; -2.3373048E-01;  0.0000000E+00;  2.2301194E-01;  9.0863242E+04;
  1.8171532E+00;  9.9999998E-03; -2.2467156E-01;9433;  1.2891042E+00;  0.0000000E+00; -6.6186294E-02;  9.8822656E+02;  1.4636068E-01; -9.4222002E+03;3;  3.5737556E+01;  0.0000000E+00; -4.0695095E+00;0; -2.3439988E-02;  1.9006588E+04;  0.0000000E+00;  4.3532337E+01;  4.0000000E+04;  0.0000000E+00;  3.8469664E+04; -2.6161790E-01;  0.0000000E+00;  2.3817791E-01;  1.0449061E+05;
  1.8176227E+00;  9.9999998E-03; -1.8304011E-01;9437;  1.2506911E+00;  0.0000000E+00; -5.7268593E-02;  1.0008409E+03;  1.4584903E-01;  6.7281073E+02;3;  3.2957584E+01;  0.0000000E+00; -2.2104661E+00;0; -5.5159599E-02;  1.9566246E+04;  0.0000000E+00;  4.3947865E+01;  4.0000000E+04;  0.0000000E+00;  3.8437215E+04; -2.8612995E-01;  0.0000000E+00;  2.3097035E-01;  8.3127539E+04;
  1.8176730E+00;  9.9999998E-03; -1.7244329E-01;9438;  1.2424906E+00;  0.0000000E+00; -5.5255067E-02;  1.0023250E+03;  1.4577274E-01;  1.8601503E+03;3;  3.2510601E+01;  0.0000000E+00; -1.9521633E+00;0; -5.2909061E-02;  1.9640283E+04;  0.0000000E+00;  3.1141605E+01;  4.0000000E+04;  0.0000000E+00;  3.8423180E+04; -2.8276399E-01;  0.0000000E+00;  2.2985493E-01;  5.8772574E+04;
  1.8180244E+00;  9.9999998E-03; -2.1439196E-01;9434;  1.2791615E+00;  0.0000000E+00; -6.3486062E-02;  9.8939990E+02;  1.4618438E-01; -8.4795000E+03;3;  3.5584915E+01;  0.0000000E+00; -4.2050543E+00;0; -4.1963786E-02;  1.9100490E+04;  0.0000000E+00;  4.9790035E+01;  4.0000000E+04;  0.0000000E+00;  3.8455695E+04; -2.8064838E-01;  0.0000000E+00;  2.3868459E-01;  1.1185974E+05;
  1.8180841E+00;  9.9999998E-03; -1.9363254E-01;9436;  1.2596185E+00;  0.0000000E+00; -5.9097294E-02;  9.9716321E+02;  1.4591683E-01; -2.2691904E+03;3;  3.3694183E+01;  0.0000000E+00; -2.8162551E+00;0; -5.6364179E-02;  1.9433520E+04;  0.0000000E+00;  5.2232704E+01;  4.0000000E+04;  0.0000000E+00;  3.8430062E+04; -2.9001498E-01;  0.0000000E+00;  2.3365080E-01;  1.0250144E+05;
  1.8183445E+00;  9.9999998E-03; -2.0406330E-01;9435;  1.2691538E+00;  0.0000000E+00; -6.0987178E-02;  9.9277319E+02;  1.4602646E-01; -5.7801470E+03;3;  3.4760109E+01;  0.0000000E+00; -3.5627003E+00;0; -5.3426787E-02;  1.9260521E+04;  0.0000000E+00;  5.3567398E+01;  4.0000000E+04;  0.0000000E+00;  3.8436812E+04; -2.8960952E-01;  0.0000000E+00;  2.3618273E-01;  1.1184702E+05;
  1.8183386E+00;  9.9999998E-03; -1.6210479E-01;9439;  1.2350694E+00;  0.0000000E+00; -5.3342119E-02;  1.0021457E+03;  1.4566155E-01;  1.7161335E+03;3;  3.2321232E+01;  0.0000000E+00; -1.8207875E+00;0; -5.1119894E-02;  1.9680473E+04;  0.0000000E+00;  1.9380957E+01;  4.0000000E+04;  0.0000000E+00;  3.8384379E+04; -2.8208089E-01;  0.0000000E+00;  2.3096099E-01;  3.7776984E+04;
  1.8191642E+00;  9.9999998E-03; -1.5201935E-01;9440;  1.2282592E+00;  0.0000000E+00; -5.1622473E-02;  1.0014818E+03;  1.4554839E-01;  1.1846595E+03;3;  3.2341312E+01;  0.0000000E+00; -1.8481281E+00;0; -4.9676508E-02;  1.9702812E+04;  0.0000000E+00;  1.1175554E+01;  4.0000000E+04;  0.0000000E+00;  3.8352828E+04; -2.8390250E-01;  0.0000000E+00;  2.3422599E-01;  2.3225195E+04;
  1.8198512E+00;  9.9999998E-03; -1.4206113E-01;9441;  1.2219143E+00;  0.0000000E+00; -5.0043583E-02;  1.0007951E+03;  1.4545718E-01;  6.3547247E+02;3;  3.2468945E+01;  0.0000000E+00; -2.0001848E+00;0; -4.7983527E-02;  1.9707311E+04;  0.0000000E+00;  6.0523376E+00;  4.0000000E+04;  0.0000000E+00;  3.8342461E+04; -2.8798759E-01;  0.0000000E+00;  2.4000406E-01;  1.3839712E+04;
  1.8203043E+00;  9.9999998E-03; -1.3213934E-01;9442;  1.2159982E+00;  0.0000000E+00; -4.8371091E-02;  1.0000721E+03;  1.4539577E-01;  5.7626942E+01;3;  3.2593822E+01;  0.0000000E+00; -2.0506771E+00;0; -4.5594275E-02;  1.9692961E+04;  0.0000000E+00;  3.0062187E+00;  4.0000000E+04;  0.0000000E+00;  3.8350598E+04; -2.9429215E-01;  0.0000000E+00;  2.4869788E-01;  7.7095259E+03;
  1.8205183E+00;  9.9999998E-03; -1.2220853E-01;9443;  1.2105275E+00;  0.0000000E+00; -4.6472017E-02;  9.9926324E+02;  1.4536525E-01; -5.8863495E+02;3;  3.2729340E+01;  0.0000000E+00; -2.0250642E+00;0; -4.2188257E-02;  1.9662619E+04;  0.0000000E+00;  1.2845744E+00;  4.0000000E+04;  0.0000000E+00;  3.8368652E+04; -3.0267778E-01;  0.0000000E+00;  2.6048952E-01;  3.5644141E+03;
  1.8205234E+00;  9.9999998E-03; -1.1223514E-01;9444;  1.2055395E+00;  0.0000000E+00; -4.4284012E-02;  9.9841827E+02;  1.4536467E-01; -1.2636974E+03;3;  3.2872200E+01;  0.0000000E+00; -1.8638910E+00;0; -3.7621200E-02;  1.9621789E+04;  0.0000000E+00;  3.8822460E-01;  4.0000000E+04;  0.0000000E+00;  3.8389344E+04; -3.1280521E-01;  0.0000000E+00;  2.7518401E-01;  1.2672373E+03;
  1.8247466E+00;  9.9999998E-03; -2.6589715E-01;9482;  1.3192974E+00;  0.0000000E+00; -6.4428829E-02;  1.0054271E+03;  1.4307083E-01;  4.3262285E+03;3;  3.5510952E+01;  0.0000000E+00; -3.6960080E+00;0; -3.7483856E-02;  2.0585043E+04;  0.0000000E+00;  5.8014350E+00;  4.0000000E+04;  0.0000000E+00;  3.8237043E+04; -1.1224703E-01;  0.0000000E+00;  7.4763179E-02;  2.0979611E+04;
  1.8258240E+00;  9.9999998E-03; -2.5575832E-01;9483;  1.3118078E+00;  0.0000000E+00; -6.3725024E-02;  1.0027750E+03;  1.4299054E-01;  2.2108416E+03;3;  3.5655914E+01;  0.0000000E+00; -3.3633687E+00;0; -4.0820971E-02;  2.0511807E+04;  0.0000000E+00;  3.8960044E+00;  4.0000000E+04;  0.0000000E+00;  3.8256488E+04; -1.6636743E-01;  0.0000000E+00;  1.2554646E-01;  8.2658691E+03;
  1.8271002E+00;  9.9999998E-03; -2.4558002E-01;9484;  1.3044314E+00;  0.0000000E+00; -6.3216880E-02;  9.9781622E+02;  1.4293242E-01; -1.7385466E+03;3;  3.6028866E+01;  0.0000000E+00; -3.2889388E+00;0; -3.0494392E-02;  2.0335527E+04;  0.0000000E+00;  1.8123173E+01;  4.0000000E+04;  0.0000000E+00;  3.8292422E+04; -2.0986193E-01;  0.0000000E+00;  1.7936754E-01;  4.5140816E+04;
  1.8285244E+00;  9.9999998E-03; -2.3536904E-01;9485;  1.2963060E+00;  0.0000000E+00; -6.2329605E-02;  9.9238586E+02;  1.4287634E-01; -6.0568145E+03;3;  3.6428585E+01;  0.0000000E+00; -3.5840275E+00;0; -2.6781529E-02;  2.0148469E+04;  0.0000000E+00;  3.1575785E+01;  4.0000000E+04;  0.0000000E+00;  3.8329105E+04; -2.4792455E-01;  0.0000000E+00;  2.2114302E-01;  7.5331250E+04;
  1.8298481E+00;  9.9999998E-03; -2.2513343E-01;9486;  1.2871587E+00;  0.0000000E+00; -6.0534868E-02;  9.8878131E+02;  1.4279293E-01; -8.9172910E+03;3;  3.6655029E+01;  0.0000000E+00; -3.9944372E+00;0; -3.9024353E-02;  2.0045857E+04;  0.0000000E+00;  4.1671070E+01;  4.0000000E+04;  0.0000000E+00;  3.8346762E+04; -2.8037730E-01;  0.0000000E+00;  2.4135295E-01;  9.5261508E+04;
  1.8308990E+00;  9.9999998E-03; -2.1487443E-01;9487;  1.2772142E+00;  0.0000000E+00; -5.7800606E-02;  9.8787628E+02;  1.4267299E-01; -9.6307324E+03;3;  3.6468029E+01;  0.0000000E+00; -4.0846319E+00;0; -6.0976401E-02;  2.0057027E+04;  0.0000000E+00;  5.0005222E+01;  4.0000000E+04;  0.0000000E+00;  3.8340852E+04; -3.0455872E-01;  0.0000000E+00;  2.4358232E-01;  1.0761791E+05;
  1.8311614E+00;  9.9999998E-03; -1.7299354E-01;9491;  1.2396406E+00;  0.0000000E+00; -4.9290478E-02;  1.0006301E+03;  1.4224324E-01;  5.0048819E+02;3;  3.3584766E+01;  0.0000000E+00; -2.2576520E+00;0; -8.4258080E-02;  2.0624961E+04;  0.0000000E+00;  4.6307106E+01;  4.0000000E+04;  0.0000000E+00;  3.8325539E+04; -3.1096822E-01;  0.0000000E+00;  2.2671014E-01;  7.8599516E+04;
  1.8315521E+00;  9.9999998E-03; -2.0457779E-01;9488;  1.2670679E+00;  0.0000000E+00; -5.5059131E-02;  9.8960156E+02;  1.4253654E-01; -8.2570381E+03;3;  3.5695412E+01;  0.0000000E+00; -3.5391212E+00;0; -7.7848211E-02;  2.0166650E+04;  0.0000000E+00;  5.6437798E+01;  4.0000000E+04;  0.0000000E+00;  3.8322504E+04; -3.1816342E-01;  0.0000000E+00;  2.4031521E-01;  1.1288355E+05;
  1.8314323E+00;  9.9999998E-03; -1.8367955E-01;9490;  1.2481852E+00;  0.0000000E+00; -5.1176853E-02;  9.9749896E+02;  1.4231400E-01; -1.9861055E+03;3;  3.3996475E+01;  0.0000000E+00; -2.4166541E+00;0; -8.6009026E-02;  2.0503498E+04;  0.0000000E+00;  5.6316589E+01;  4.0000000E+04;  0.0000000E+00;  3.8315410E+04; -3.1751615E-01;  0.0000000E+00;  2.3150712E-01;  9.8658602E+04;
  1.8317088E+00;  9.9999998E-03; -1.9420162E-01;9489;  1.2573116E+00;  0.0000000E+00; -5.2922294E-02;  9.9322662E+02;  1.4240776E-01; -5.3779766E+03;3;  3.4695938E+01;  0.0000000E+00; -2.7916028E+00;0; -8.5096315E-02;  2.0333896E+04;  0.0000000E+00;  5.9373665E+01;  4.0000000E+04;  0.0000000E+00;  3.8309930E+04; -3.2145846E-01;  0.0000000E+00;  2.3636214E-01;  1.1031287E+05;
  1.8314818E+00;  9.9999998E-03; -1.6237383E-01;9492;  1.2317713E+00;  0.0000000E+00; -4.7168326E-02;  1.0015215E+03;  1.4215823E-01;  1.2081943E+03;3;  3.3288097E+01;  0.0000000E+00; -2.1185763E+00;0; -8.2065821E-02;  2.0689184E+04;  0.0000000E+00;  3.2592697E+01;  4.0000000E+04;  0.0000000E+00;  3.8305223E+04; -3.0587712E-01;  0.0000000E+00;  2.2381130E-01;  5.5534555E+04;
  1.8323387E+00;  9.9999998E-03; -1.5203199E-01;9493;  1.2245829E+00;  0.0000000E+00; -4.5110073E-02;  1.0010766E+03;  1.4204814E-01;  8.5447076E+02;3;  3.3318745E+01;  0.0000000E+00; -2.2133110E+00;0; -8.0376044E-02;  2.0724221E+04;  0.0000000E+00;  2.0478487E+01;  4.0000000E+04;  0.0000000E+00;  3.8264934E+04; -3.0361542E-01;  0.0000000E+00;  2.2323938E-01;  3.6227848E+04;
  1.8332727E+00;  9.9999998E-03; -1.4191869E-01;9494;  1.2179319E+00;  0.0000000E+00; -4.3301523E-02;  1.0003933E+03;  1.4193657E-01;  3.1195941E+02;3;  3.3389759E+01;  0.0000000E+00; -2.2811108E+00;0; -7.8837007E-02;  2.0745662E+04;  0.0000000E+00;  1.1948061E+01;  4.0000000E+04;  0.0000000E+00;  3.8234664E+04; -3.0380747E-01;  0.0000000E+00;  2.2497046E-01;  2.2658543E+04;
  1.8340223E+00;  9.9999998E-03; -1.3191882E-01;9495;  1.2117356E+00;  0.0000000E+00; -4.1643977E-02;  9.9976147E+02;  1.4184812E-01; -1.8913135E+02;3;  3.3502705E+01;  0.0000000E+00; -2.4110925E+00;0; -7.6965943E-02;  2.0751428E+04;  0.0000000E+00;  6.4544873E+00;  4.0000000E+04;  0.0000000E+00;  3.8224820E+04; -3.0615097E-01;  0.0000000E+00;  2.2918503E-01;  1.3636438E+04;
  1.8345141E+00;  9.9999998E-03; -1.2196192E-01;9496;  1.2059890E+00;  0.0000000E+00; -3.9932765E-02;  9.9914026E+02;  1.4178868E-01; -6.8145990E+02;3;  3.3620132E+01;  0.0000000E+00; -2.4179699E+00;0; -7.4403301E-02;  2.0739740E+04;  0.0000000E+00;  3.0893610E+00;  4.0000000E+04;  0.0000000E+00;  3.8232098E+04; -3.1052864E-01;  0.0000000E+00;  2.3612534E-01;  7.6227437E+03;
  1.8347417E+00;  9.9999998E-03; -1.1200708E-01;9497;  1.2007217E+00;  0.0000000E+00; -3.8097609E-02;  9.9846918E+02;  1.4176127E-01; -1.2132186E+03;3;  3.3715626E+01;  0.0000000E+00; -2.4064348E+00;0; -7.0910186E-02;  2.0711721E+04;  0.0000000E+00;  1.1650999E+00;  4.0000000E+04;  0.0000000E+00;  3.8249785E+04; -3.1678402E-01;  0.0000000E+00;  2.4587384E-01;  3.5383010E+03;
  1.8388592E+00;  9.9999998E-03; -2.5615355E-01;9535;  1.3096782E+00;  0.0000000E+00; -5.7990126E-02;  1.0048474E+03;  1.3983798E-01;  3.8316179E+03;3;  3.6832531E+01;  0.0000000E+00; -3.7518816E+00;0; -3.9052330E-02;  2.1594480E+04;  0.0000000E+00;  4.3903193E+00;  4.0000000E+04;  0.0000000E+00;  3.8133258E+04; -1.5331578E-01;  0.0000000E+00;  1.1426345E-01;  1.2748144E+04;
  1.8398554E+00;  9.9999998E-03; -2.4601160E-01;9536;  1.3020310E+00;  0.0000000E+00; -5.7413824E-02;  1.0015853E+03;  1.3979280E-01;  1.2523237E+03;3;  3.7006920E+01;  0.0000000E+00; -3.5476882E+00;0; -3.6857545E-02;  2.1479238E+04;  0.0000000E+00;  4.8640614E+00;  4.0000000E+04;  0.0000000E+00;  3.8153367E+04; -2.0435809E-01;  0.0000000E+00;  1.6750054E-01;  1.4696688E+04;
  1.8410149E+00;  9.9999998E-03; -2.3583196E-01;9537;  1.2939881E+00;  0.0000000E+00; -5.6569014E-02;  9.9649481E+02;  1.3976833E-01; -2.7666875E+03;3;  3.7273808E+01;  0.0000000E+00; -3.6494493E+00;0; -3.5206333E-02;  2.1283758E+04;  0.0000000E+00;  1.9867868E+01;  4.0000000E+04;  0.0000000E+00;  3.8181938E+04; -2.4789599E-01;  0.0000000E+00;  2.1268965E-01;  4.8906211E+04;
  1.8422471E+00;  9.9999998E-03; -2.2562201E-01;9538;  1.2850474E+00;  0.0000000E+00; -5.4946322E-02;  9.9152020E+02;  1.3974093E-01; -6.6876274E+03;3;  3.7494190E+01;  0.0000000E+00; -3.9979839E+00;0; -4.7084898E-02;  2.1103328E+04;  0.0000000E+00;  3.4470608E+01;  4.0000000E+04;  0.0000000E+00;  3.8203371E+04; -2.8606692E-01;  0.0000000E+00;  2.3898202E-01;  7.6486352E+04;
  1.8433659E+00;  9.9999998E-03; -2.1538825E-01;9539;  1.2752099E+00;  0.0000000E+00; -5.2343875E-02;  9.8843903E+02;  1.3968439E-01; -9.1106133E+03;3;  3.7246128E+01;  0.0000000E+00; -3.9755168E+00;0; -7.1706116E-02;  2.1014129E+04;  0.0000000E+00;  4.6188313E+01;  4.0000000E+04;  0.0000000E+00;  3.8204383E+04; -3.1712469E-01;  0.0000000E+00;  2.4541858E-01;  9.5230312E+04;
  1.8442276E+00;  9.9999998E-03; -2.0512508E-01;9540;  1.2650133E+00;  0.0000000E+00; -4.9489327E-02;  9.8795825E+02;  1.3959508E-01; -9.4837812E+03;3;  3.6634251E+01;  0.0000000E+00; -3.5665579E+00;0; -9.4723731E-02;  2.1036684E+04;  0.0000000E+00;  5.5717812E+01;  4.0000000E+04;  0.0000000E+00;  3.8188746E+04; -3.3769313E-01;  0.0000000E+00;  2.4296939E-01;  1.0651252E+05;
  1.8446577E+00;  9.9999998E-03; -1.7376149E-01;9543;  1.2369679E+00;  0.0000000E+00; -4.3621354E-02;  9.9745190E+02;  1.3928548E-01; -2.0062122E+03;3;  3.4685772E+01;  0.0000000E+00; -2.6152551E+00;0; -1.1247228E-01;  2.1475775E+04;  0.0000000E+00;  6.0256908E+01;  4.0000000E+04;  0.0000000E+00;  3.8185012E+04; -3.3852193E-01;  0.0000000E+00;  2.2604965E-01;  9.3826961E+04;
  1.8446075E+00;  9.9999998E-03; -1.6300064E-01;9544;  1.2287215E+00;  0.0000000E+00; -4.1581444E-02;  1.0000562E+03;  1.3920927E-01;  4.4302486E+01;3;  3.4339108E+01;  0.0000000E+00; -2.4982176E+00;0; -1.1081158E-01;  2.1586238E+04;  0.0000000E+00;  4.9174458E+01;  4.0000000E+04;  0.0000000E+00;  3.8196969E+04; -3.3002406E-01;  0.0000000E+00;  2.1921249E-01;  7.4486820E+04;
  1.8447272E+00;  9.9999998E-03; -1.9480489E-01;9541;  1.2551290E+00;  0.0000000E+00; -4.7212418E-02;  9.8992065E+02;  1.3948405E-01; -7.9354351E+03;3;  3.5765186E+01;  0.0000000E+00; -3.0313900E+00;0; -1.0713577E-01;  2.1152270E+04;  0.0000000E+00;  6.2527927E+01;  4.0000000E+04;  0.0000000E+00;  3.8171352E+04; -3.4631255E-01;  0.0000000E+00;  2.3917678E-01;  1.1049400E+05;
  1.8448348E+00;  9.9999998E-03; -1.8437265E-01;9542;  1.2457850E+00;  0.0000000E+00; -4.5421015E-02;  9.9352490E+02;  1.3937503E-01; -5.0974404E+03;3;  3.5081799E+01;  0.0000000E+00; -2.7090716E+00;0; -1.1181167E-01;  2.1316238E+04;  0.0000000E+00;  6.4618065E+01;  4.0000000E+04;  0.0000000E+00;  3.8169125E+04; -3.4532604E-01;  0.0000000E+00;  2.3351437E-01;  1.0630648E+05;
  1.8057778E+00;  9.9999998E-03; -1.0222252E-01;9391;  1.2063599E+00;  0.0000000E+00; -4.6439771E-02;  9.9748077E+02;  1.4971840E-01; -2.0266218E+03;3;  3.2139740E+01;  0.0000000E+00; -6.0695326E-01;0;  7.2501600E-03;  1.8405020E+04;  0.0000000E+00; -8.5986733E-02;  4.0000000E+04;  0.0000000E+00;  3.8519164E+04; -3.2024443E-01;  0.0000000E+00;  3.2749459E-01;  3.5134927E+03;
  1.8451409E+00;  9.9999998E-03; -1.5234545E-01;9545;  1.2211114E+00;  0.0000000E+00; -3.9279655E-02;  1.0006023E+03;  1.3912351E-01;  4.7400787E+02;3;  3.4193161E+01;  0.0000000E+00; -2.4504809E+00;0; -1.0881765E-01;  2.1642369E+04;  0.0000000E+00;  3.4801273E+01;  4.0000000E+04;  0.0000000E+00;  3.8175570E+04; -3.2332081E-01;  0.0000000E+00;  2.1450315E-01;  5.3113242E+04;
  1.8461229E+00;  9.9999998E-03; -1.4196576E-01;9546;  1.2141160E+00;  0.0000000E+00; -3.7095752E-02;  1.0000444E+03;  1.3901845E-01;  3.4878723E+01;3;  3.4226425E+01;  0.0000000E+00; -2.5244088E+00;0; -1.0709561E-01;  2.1673492E+04;  0.0000000E+00;  2.2118719E+01;  4.0000000E+04;  0.0000000E+00;  3.8136039E+04; -3.1930599E-01;  0.0000000E+00;  2.1221037E-01;  3.5164754E+04;
  1.8471477E+00;  9.9999998E-03; -1.3180521E-01;9547;  1.2076561E+00;  0.0000000E+00; -3.5213944E-02;  9.9937964E+02;  1.3891560E-01; -4.8756564E+02;3;  3.4335323E+01;  0.0000000E+00; -2.6680532E+00;0; -1.0536948E-01;  2.1694834E+04;  0.0000000E+00;  1.2939761E+01;  4.0000000E+04;  0.0000000E+00;  3.8105281E+04; -3.1753984E-01;  0.0000000E+00;  2.1217036E-01;  2.2197238E+04;
  1.8479670E+00;  9.9999998E-03; -1.2176321E-01;9548;  1.2016643E+00;  0.0000000E+00; -3.3508778E-02;  9.9884210E+02;  1.3883264E-01; -9.0947089E+02;3;  3.4408840E+01;  0.0000000E+00; -2.6999562E+00;0; -1.0328427E-01;  2.1704166E+04;  0.0000000E+00;  6.8548479E+00;  4.0000000E+04;  0.0000000E+00;  3.8093516E+04; -3.1772995E-01;  0.0000000E+00;  2.1444568E-01;  1.3359909E+04;
  1.8485019E+00;  9.9999998E-03; -1.1177283E-01;9549;  1.1961563E+00;  0.0000000E+00; -3.1856246E-02;  9.9835040E+02;  1.3877627E-01; -1.2952015E+03;3;  3.4486614E+01;  0.0000000E+00; -2.6354880E+00;0; -1.0056078E-01;  2.1697459E+04;  0.0000000E+00;  3.0640643E+00;  4.0000000E+04;  0.0000000E+00;  3.8098109E+04; -3.1976774E-01;  0.0000000E+00;  2.1920696E-01;  7.4466621E+03;
  1.8526340E+00;  9.9999998E-03; -2.4644201E-01;9586;  1.2995259E+00;  0.0000000E+00; -5.1520810E-02;  1.0041768E+03;  1.3715193E-01;  3.2691855E+03;3;  3.8101025E+01;  0.0000000E+00; -4.1130571E+00;0; -3.3243686E-02;  2.2497521E+04;  0.0000000E+00;  2.8210552E+00;  4.0000000E+04;  0.0000000E+00;  3.8017355E+04; -1.8292029E-01;  0.0000000E+00;  1.4967661E-01;  6.9201162E+03;
  1.8535278E+00;  9.9999998E-03; -2.3629637E-01;9587;  1.2914281E+00;  0.0000000E+00; -5.0743300E-02;  1.0007244E+03;  1.3713197E-01;  5.6661115E+02;3;  3.8215290E+01;  0.0000000E+00; -4.0070949E+00;0; -3.6595806E-02;  2.2362002E+04;  0.0000000E+00;  3.8678684E+00;  4.0000000E+04;  0.0000000E+00;  3.8033957E+04; -2.3401570E-01;  0.0000000E+00;  1.9741990E-01;  1.6982959E+04;
  1.8545355E+00;  9.9999998E-03; -2.2611755E-01;9588;  1.2826706E+00;  0.0000000E+00; -4.9176484E-02;  9.9586578E+02;  1.3712968E-01; -3.2309783E+03;3;  3.8297291E+01;  0.0000000E+00; -4.1434755E+00;0; -5.1402479E-02;  2.2167799E+04;  0.0000000E+00;  1.9705910E+01;  4.0000000E+04;  0.0000000E+00;  3.8049477E+04; -2.7913174E-01;  0.0000000E+00;  2.2772926E-01;  4.7817645E+04;
  1.8555858E+00;  9.9999998E-03; -2.1591336E-01;9589;  1.2730327E+00;  0.0000000E+00; -4.6751503E-02;  9.9128680E+02;  1.3712144E-01; -6.8037603E+03;3;  3.8051777E+01;  0.0000000E+00; -4.0614133E+00;0; -7.8418717E-02;  2.1997395E+04;  0.0000000E+00;  3.6279057E+01;  4.0000000E+04;  0.0000000E+00;  3.8051980E+04; -3.1811616E-01;  0.0000000E+00;  2.3969744E-01;  7.3790203E+04;
  1.8565301E+00;  9.9999998E-03; -2.0568345E-01;9590;  1.2629834E+00;  0.0000000E+00; -4.4107113E-02;  9.8854822E+02;  1.3708766E-01; -8.9353477E+03;3;  3.7464470E+01;  0.0000000E+00; -3.7154930E+00;0; -1.0493486E-01;  2.1916564E+04;  0.0000000E+00;  5.0264668E+01;  4.0000000E+04;  0.0000000E+00;  3.8038441E+04; -3.4691122E-01;  0.0000000E+00;  2.4197637E-01;  9.2121406E+04;
  1.8572583E+00;  9.9999998E-03; -1.9541398E-01;9591;  1.2530096E+00;  0.0000000E+00; -4.1694675E-02;  9.8822113E+02;  1.3702014E-01; -9.1850801E+03;3;  3.6698105E+01;  0.0000000E+00; -3.2388370E+00;0; -1.2394318E-01;  2.1940883E+04;  0.0000000E+00;  6.1136089E+01;  4.0000000E+04;  0.0000000E+00;  3.8017223E+04; -3.6338463E-01;  0.0000000E+00;  2.3944145E-01;  1.0279618E+05;
  1.8577015E+00;  9.9999998E-03; -1.8506642E-01;9592;  1.2434760E+00;  0.0000000E+00; -3.9813373E-02;  9.9012549E+02;  1.3692726E-01; -7.6972446E+03;3;  3.6047722E+01;  0.0000000E+00; -2.8876770E+00;0; -1.3362831E-01;  2.2050275E+04;  0.0000000E+00;  6.8002876E+01;  4.0000000E+04;  0.0000000E+00;  3.8004824E+04; -3.6807710E-01;  0.0000000E+00;  2.3444879E-01;  1.0573484E+05;
  1.8578629E+00;  9.9999998E-03; -1.6389380E-01;9594;  1.2259184E+00;  0.0000000E+00; -3.6266904E-02;  9.9695123E+02;  1.3674130E-01; -2.3762202E+03;3;  3.5308868E+01;  0.0000000E+00; -2.7579134E+00;0; -1.3812409E-01;  2.2349039E+04;  0.0000000E+00;  6.4139603E+01;  4.0000000E+04;  0.0000000E+00;  3.8037480E+04; -3.5490540E-01;  0.0000000E+00;  2.1678130E-01;  8.8524578E+04;
  1.8578656E+00;  9.9999998E-03; -1.7457859E-01;9593;  1.2344358E+00;  0.0000000E+00; -3.8082425E-02;  9.9344342E+02;  1.3683090E-01; -5.1101865E+03;3;  3.5657909E+01;  0.0000000E+00; -2.8520222E+00;0; -1.3780339E-01;  2.2202129E+04;  0.0000000E+00;  6.9337936E+01;  4.0000000E+04;  0.0000000E+00;  3.8012773E+04; -3.6405605E-01;  0.0000000E+00;  2.2625266E-01;  1.0075321E+05;
  1.8580282E+00;  9.9999998E-03; -1.5307552E-01;9595;  1.2179593E+00;  0.0000000E+00; -3.4095455E-02;  9.9920416E+02;  1.3666257E-01; -6.2019403E+02;3;  3.5098461E+01;  0.0000000E+00; -2.7650685E+00;0; -1.3649870E-01;  2.2451025E+04;  0.0000000E+00;  5.2495720E+01;  4.0000000E+04;  0.0000000E+00;  3.8051941E+04; -3.4449232E-01;  0.0000000E+00;  2.0799361E-01;  7.0658117E+04;
  1.8586924E+00;  9.9999998E-03; -1.4237416E-01;9596;  1.2106060E+00;  0.0000000E+00; -3.1661112E-02;  9.9961444E+02;  1.3657893E-01; -3.0031503E+02;3;  3.5053833E+01;  0.0000000E+00; -2.7990706E+00;0; -1.3443583E-01;  2.2503061E+04;  0.0000000E+00;  3.7638973E+01;  4.0000000E+04;  0.0000000E+00;  3.8032898E+04; -3.3578208E-01;  0.0000000E+00;  2.0134625E-01;  5.1099062E+04;
  1.8597525E+00;  9.9999998E-03; -1.3193886E-01;9597;  1.2038437E+00;  0.0000000E+00; -2.9422743E-02;  9.9904883E+02;  1.3648383E-01; -7.4016583E+02;3;  3.5094383E+01;  0.0000000E+00; -2.8423178E+00;0; -1.3243404E-01;  2.2531508E+04;  0.0000000E+00;  2.4173159E+01;  4.0000000E+04;  0.0000000E+00;  3.7994781E+04; -3.2953945E-01;  0.0000000E+00;  1.9710541E-01;  3.4242062E+04;
  1.8608505E+00;  9.9999998E-03; -1.2172719E-01;9598;  1.1976255E+00;  0.0000000E+00; -2.7510179E-02;  9.9841095E+02;  1.3639101E-01; -1.2353845E+03;3;  3.5126781E+01;  0.0000000E+00; -2.8405907E+00;0; -1.3040648E-01;  2.2553055E+04;  0.0000000E+00;  1.4094827E+01;  4.0000000E+04;  0.0000000E+00;  3.7962898E+04; -3.2540566E-01;  0.0000000E+00;  1.9499917E-01;  2.1678773E+04;
  1.8617239E+00;  9.9999998E-03; -1.1164570E-01;9599;  1.1919197E+00;  0.0000000E+00; -2.5850680E-02;  9.9795770E+02;  1.3631432E-01; -1.5865404E+03;3;  3.5174973E+01;  0.0000000E+00; -2.8222461E+00;0; -1.2803826E-01;  2.2566727E+04;  0.0000000E+00;  7.2649240E+00;  4.0000000E+04;  0.0000000E+00;  3.7947434E+04; -3.2310036E-01;  0.0000000E+00;  1.9506210E-01;  1.2972792E+04;
  1.8661133E+00;  9.9999998E-03; -2.3675127E-01;9635;  1.2886734E+00;  0.0000000E+00; -4.4471148E-02;  1.0036232E+03;  1.3492294E-01;  2.8036543E+03;3;  3.9217667E+01;  0.0000000E+00; -4.6675825E+00;0; -3.5324350E-02;  2.3310104E+04;  0.0000000E+00;  8.1356019E-01;  4.0000000E+04;  0.0000000E+00;  3.7888117E+04; -2.0558150E-01;  0.0000000E+00;  1.7025715E-01;  3.6986331E+03;
  1.8668939E+00;  9.9999998E-03; -2.2660473E-01;9636;  1.2799945E+00;  0.0000000E+00; -4.3074176E-02;  1.0002482E+03;  1.3491619E-01;  1.9191299E+02;3;  3.9098488E+01;  0.0000000E+00; -4.4590936E+00;0; -5.3295106E-02;  2.3172416E+04;  0.0000000E+00;  1.1627527E+00;  4.0000000E+04;  0.0000000E+00;  3.7895176E+04; -2.5882488E-01;  0.0000000E+00;  2.0552978E-01;  1.5523358E+04;
  1.8677500E+00;  9.9999998E-03; -2.1643025E-01;9637;  1.2706457E+00;  0.0000000E+00; -4.0982287E-02;  9.9574994E+02;  1.3492759E-01; -3.2836809E+03;3;  3.8816833E+01;  0.0000000E+00; -4.2742996E+00;0; -8.1096828E-02;  2.2988900E+04;  0.0000000E+00;  1.8305801E+01;  4.0000000E+04;  0.0000000E+00;  3.7894453E+04; -3.0606017E-01;  0.0000000E+00;  2.2496334E-01;  4.3729109E+04;
  1.8686454E+00;  9.9999998E-03; -2.0623301E-01;9638;  1.2607602E+00;  0.0000000E+00; -3.8484946E-02;  9.9146790E+02;  1.3493347E-01; -6.5865337E+03;3;  3.8252964E+01;  0.0000000E+00; -3.8824029E+00;0; -1.1211629E-01;  2.2827574E+04;  0.0000000E+00;  3.7463581E+01;  4.0000000E+04;  0.0000000E+00;  3.7879227E+04; -3.4453627E-01;  0.0000000E+00;  2.3241998E-01;  6.8752789E+04;
  1.8694628E+00;  9.9999998E-03; -1.9600825E-01;9639;  1.2508405E+00;  0.0000000E+00; -3.6134645E-02;  9.8882770E+02;  1.3491470E-01; -8.6179746E+03;3;  3.7592613E+01;  0.0000000E+00; -3.5291593E+00;0; -1.3673040E-01;  2.2748230E+04;  0.0000000E+00;  5.3691277E+01;  4.0000000E+04;  0.0000000E+00;  3.7852914E+04; -3.7051263E-01;  0.0000000E+00;  2.3378223E-01;  8.6689391E+04;
  1.8701205E+00;  9.9999998E-03; -1.8573408E-01;9640;  1.2412018E+00;  0.0000000E+00; -3.4139622E-02;  9.8842755E+02;  1.3486587E-01; -8.9209863E+03;3;  3.7029629E+01;  0.0000000E+00; -3.2530649E+00;0; -1.5264833E-01;  2.2765330E+04;  0.0000000E+00;  6.5578415E+01;  4.0000000E+04;  0.0000000E+00;  3.7827898E+04; -3.8342541E-01;  0.0000000E+00;  2.3077708E-01;  9.6699000E+04;
  1.8705695E+00;  9.9999998E-03; -1.7536370E-01;9641;  1.2320194E+00;  0.0000000E+00; -3.2481741E-02;  9.9007117E+02;  1.3478792E-01; -7.6506455E+03;3;  3.6531601E+01;  0.0000000E+00; -3.0591366E+00;0; -1.6089256E-01;  2.2861623E+04;  0.0000000E+00;  7.2440369E+01;  4.0000000E+04;  0.0000000E+00;  3.7820270E+04; -3.8493171E-01;  0.0000000E+00;  2.2403915E-01;  9.9006469E+04;
  1.8708326E+00;  9.9999998E-03; -1.6483457E-01;9642;  1.2233173E+00;  0.0000000E+00; -3.0872028E-02;  9.9300842E+02;  1.3469756E-01; -5.3859688E+03;3;  3.6298607E+01;  0.0000000E+00; -3.0995119E+00;0; -1.6415364E-01;  2.2997955E+04;  0.0000000E+00;  7.3301796E+01;  4.0000000E+04;  0.0000000E+00;  3.7835734E+04; -3.7825468E-01;  0.0000000E+00;  2.1410105E-01;  9.3970023E+04;
  1.8710185E+00;  9.9999998E-03; -1.5410517E-01;9643;  1.2151247E+00;  0.0000000E+00; -2.9057557E-02;  9.9611523E+02;  1.3461277E-01; -2.9921174E+03;3;  3.6051994E+01;  0.0000000E+00; -3.0816076E+00;0; -1.6401307E-01;  2.3131125E+04;  0.0000000E+00;  6.7623573E+01;  4.0000000E+04;  0.0000000E+00;  3.7866184E+04; -3.6686233E-01;  0.0000000E+00;  2.0284925E-01;  8.2585594E+04;
  1.8713630E+00;  9.9999998E-03; -1.4325562E-01;9644;  1.2074832E+00;  0.0000000E+00; -2.6850503E-02;  9.9813129E+02;  1.3453315E-01; -1.4388325E+03;3;  3.5894985E+01;  0.0000000E+00; -3.0619938E+00;0; -1.6208236E-01;  2.3226617E+04;  0.0000000E+00;  5.5817249E+01;  4.0000000E+04;  0.0000000E+00;  3.7884465E+04; -3.5429427E-01;  0.0000000E+00;  1.9221191E-01;  6.6519422E+04;
  1.8720980E+00;  9.9999998E-03; -1.3251263E-01;9645;  1.2004365E+00;  0.0000000E+00; -2.4471931E-02;  9.9858093E+02;  1.3445765E-01; -1.0918286E+03;3;  3.5790749E+01;  0.0000000E+00; -2.9686692E+00;0; -1.5954208E-01;  2.3277180E+04;  0.0000000E+00;  4.0710369E+01;  4.0000000E+04;  0.0000000E+00;  3.7870406E+04; -3.4320757E-01;  0.0000000E+00;  1.8366548E-01;  4.8857480E+04;
  1.8731623E+00;  9.9999998E-03; -1.2201997E-01;9646;  1.1939809E+00;  0.0000000E+00; -2.2293780E-02;  9.9809564E+02;  1.3437784E-01; -1.4636721E+03;3;  3.5759010E+01;  0.0000000E+00; -2.8841372E+00;0; -1.5703760E-01;  2.3303688E+04;  0.0000000E+00;  2.6504660E+01;  4.0000000E+04;  0.0000000E+00;  3.7836008E+04; -3.3444405E-01;  0.0000000E+00;  1.7740645E-01;  3.3153297E+04;
  1.8742661E+00;  9.9999998E-03; -1.1175463E-01;9647;  1.1880927E+00;  0.0000000E+00; -2.0463858E-02;  9.9749750E+02;  1.3429868E-01; -1.9212563E+03;3;  3.5766930E+01;  0.0000000E+00; -2.8569512E+00;0; -1.5456349E-01;  2.3323908E+04;  0.0000000E+00;  1.5480152E+01;  4.0000000E+04;  0.0000000E+00;  3.7803402E+04; -3.2777688E-01;  0.0000000E+00;  1.7321339E-01;  2.1077309E+04;
  1.8784670E+00;  9.9999998E-03; -2.3718791E-01;9682;  1.2859186E+00;  0.0000000E+00; -3.7581999E-02;  1.0067969E+03;  1.3306275E-01;  5.1955938E+03;3;  4.0128712E+01;  0.0000000E+00; -5.3870635E+00;0; -3.5010174E-02;  2.4193705E+04;  0.0000000E+00;  3.2748863E+01;  4.0000000E+04;  0.0000000E+00;  3.7737934E+04; -1.6266224E-01;  0.0000000E+00;  1.2765206E-01;  5.9470645E+03;
  1.8793455E+00;  9.9999998E-03; -2.2707583E-01;9683;  1.2770084E+00;  0.0000000E+00; -3.6204234E-02;  1.0031959E+03;  1.3306986E-01;  2.4406443E+03;3;  3.9977104E+01;  0.0000000E+00; -5.0927320E+00;0; -5.8841884E-02;  2.4043537E+04;  0.0000000E+00; -1.1209071E+00;  4.0000000E+04;  0.0000000E+00;  3.7740336E+04; -2.2507709E-01;  0.0000000E+00;  1.6623521E-01;  2.4770752E+03;
  1.8800211E+00;  9.9999998E-03; -2.1693118E-01;9684;  1.2678202E+00;  0.0000000E+00; -3.4352876E-02;  1.0000408E+03;  1.3307522E-01;  3.1112450E+01;3;  3.9538139E+01;  0.0000000E+00; -4.5769515E+00;0; -8.8687807E-02;  2.3913672E+04;  0.0000000E+00; -2.3009605E+00;  4.0000000E+04;  0.0000000E+00;  3.7735527E+04; -2.8112692E-01;  0.0000000E+00;  1.9243911E-01;  1.2331888E+04;
  1.8807467E+00;  9.9999998E-03; -2.0676285E-01;9685;  1.2582445E+00;  0.0000000E+00; -3.2233614E-02;  9.9589142E+02;  1.3309203E-01; -3.1329316E+03;3;  3.9006966E+01;  0.0000000E+00; -4.1623030E+00;0; -1.2031655E-01;  2.3745826E+04;  0.0000000E+00;  1.5989607E+01;  4.0000000E+04;  0.0000000E+00;  3.7717348E+04; -3.2883123E-01;  0.0000000E+00;  2.0851468E-01;  3.7945781E+04;
  1.8815172E+00;  9.9999998E-03; -1.9657436E-01;9686;  1.2484807E+00;  0.0000000E+00; -3.0116411E-02;  9.9183508E+02;  1.3310552E-01; -6.2207593E+03;3;  3.8316349E+01;  0.0000000E+00; -3.6474829E+00;0; -1.4852449E-01;  2.3593930E+04;  0.0000000E+00;  3.7507900E+01;  4.0000000E+04;  0.0000000E+00;  3.7684648E+04; -3.6528555E-01;  0.0000000E+00;  2.1676105E-01;  6.1769238E+04;
  1.8822439E+00;  9.9999998E-03; -1.8635553E-01;9687;  1.2388577E+00;  0.0000000E+00; -2.8215567E-02;  9.8921515E+02;  1.3310017E-01; -8.2102578E+03;3;  3.7845428E+01;  0.0000000E+00; -3.4665117E+00;0; -1.6967879E-01;  2.3513691E+04;  0.0000000E+00;  5.5579514E+01;  4.0000000E+04;  0.0000000E+00;  3.7646875E+04; -3.8832435E-01;  0.0000000E+00;  2.1864556E-01;  7.8943078E+04;
  1.8828616E+00;  9.9999998E-03; -1.7607708E-01;9688;  1.2295723E+00;  0.0000000E+00; -2.6570981E-02;  9.8862750E+02;  1.3306223E-01; -8.6516748E+03;3;  3.7365395E+01;  0.0000000E+00; -3.1981745E+00;0; -1.8315712E-01;  2.3521172E+04;  0.0000000E+00;  6.8276947E+01;  4.0000000E+04;  0.0000000E+00;  3.7618871E+04; -3.9819053E-01;  0.0000000E+00;  2.1503341E-01;  8.8316852E+04;
  1.8833432E+00;  9.9999998E-03; -1.6569015E-01;9689;  1.2207870E+00;  0.0000000E+00; -2.5162153E-02;  9.8994049E+02;  1.3299832E-01; -7.6487070E+03;3;  3.7071884E+01;  0.0000000E+00; -3.1838906E+00;0; -1.8959086E-01;  2.3600770E+04;  0.0000000E+00;  7.5041252E+01;  4.0000000E+04;  0.0000000E+00;  3.7613449E+04; -3.9674419E-01;  0.0000000E+00;  2.0715334E-01;  9.0209258E+04;
  1.8837173E+00;  9.9999998E-03; -1.5513660E-01;9690;  1.2125009E+00;  0.0000000E+00; -2.3760434E-02;  9.9244525E+02;  1.3291883E-01; -5.7418096E+03;3;  3.6856010E+01;  0.0000000E+00; -3.2132654E+00;0; -1.9129054E-01;  2.3718010E+04;  0.0000000E+00;  7.5585831E+01;  4.0000000E+04;  0.0000000E+00;  3.7633957E+04; -3.8740769E-01;  0.0000000E+00;  1.9611715E-01;  8.5484719E+04;
  1.8840708E+00;  9.9999998E-03; -1.4439361E-01;9691;  1.2047170E+00;  0.0000000E+00; -2.2105170E-02;  9.9513580E+02;  1.3284023E-01; -3.6954490E+03;3;  3.6640327E+01;  0.0000000E+00; -3.1790018E+00;0; -1.9016108E-01;  2.3835477E+04;  0.0000000E+00;  6.9803459E+01;  4.0000000E+04;  0.0000000E+00;  3.7667648E+04; -3.7375703E-01;  0.0000000E+00;  1.8359596E-01;  7.5331094E+04;
  1.8845510E+00;  9.9999998E-03; -1.3354971E-01;9692;  1.1974672E+00;  0.0000000E+00; -2.0057227E-02;  9.9699139E+02;  1.3276905E-01; -2.2844570E+03;3;  3.6478043E+01;  0.0000000E+00; -3.1073620E+00;0; -1.8763801E-01;  2.3923777E+04;  0.0000000E+00;  5.8263920E+01;  4.0000000E+04;  0.0000000E+00;  3.7688828E+04; -3.5909122E-01;  0.0000000E+00;  1.7145321E-01;  6.1306664E+04;
  1.8852770E+00;  9.9999998E-03; -1.2278637E-01;9693;  1.1908101E+00;  0.0000000E+00; -1.7900331E-02;  9.9757336E+02;  1.3270210E-01; -1.8410299E+03;3;  3.6388805E+01;  0.0000000E+00; -3.0214095E+00;0; -1.8444040E-01;  2.3975350E+04;  0.0000000E+00;  4.3507462E+01;  4.0000000E+04;  0.0000000E+00;  3.7681328E+04; -3.4569138E-01;  0.0000000E+00;  1.6125098E-01;  4.5891512E+04;
  1.8862388E+00;  9.9999998E-03; -1.1224156E-01;9694;  1.1847352E+00;  0.0000000E+00; -1.5916198E-02;  9.9726385E+02;  1.3264009E-01; -2.0735637E+03;3;  3.6316090E+01;  0.0000000E+00; -2.8768885E+00;0; -1.8127878E-01;  2.4000891E+04;  0.0000000E+00;  2.9021944E+01;  4.0000000E+04;  0.0000000E+00;  3.7653258E+04; -3.3453998E-01;  0.0000000E+00;  1.5326120E-01;  3.1719955E+04;
  1.8915740E+00;  9.9999998E-03; -2.2751683E-01;9729;  1.2740690E+00;  0.0000000E+00; -2.8705474E-02;  1.0064994E+03;  1.3151751E-01;  4.8942837E+03;3;  4.0722527E+01;  0.0000000E+00; -5.7249684E+00;0; -6.6547558E-02;  2.4860309E+04;  0.0000000E+00;  3.7835854E+01;  4.0000000E+04;  0.0000000E+00;  3.7583293E+04; -1.7713651E-01;  0.0000000E+00;  1.1058895E-01;  8.8636885E+03;
  1.8923783E+00;  9.9999998E-03; -2.1740863E-01;9730;  1.2646981E+00;  0.0000000E+00; -2.6812822E-02;  1.0028732E+03;  1.3153802E-01;  2.1614639E+03;3;  4.0246632E+01;  0.0000000E+00; -5.1373510E+00;0; -1.0269438E-01;  2.4706162E+04;  0.0000000E+00; -2.0912399E+00;  4.0000000E+04;  0.0000000E+00;  3.7573320E+04; -2.4255756E-01;  0.0000000E+00;  1.3986318E-01;  2.7795569E+03;
  1.8929707E+00;  9.9999998E-03; -2.0726527E-01;9731;  1.2553332E+00;  0.0000000E+00; -2.5064168E-02;  9.9998566E+02;  1.3154668E-01; -1.0798479E+01;3;  3.9662079E+01;  0.0000000E+00; -4.5328178E+00;0; -1.3406201E-01;  2.4589766E+04;  0.0000000E+00; -6.0302024E+00;  4.0000000E+04;  0.0000000E+00;  3.7555598E+04; -2.9913619E-01;  0.0000000E+00;  1.6507418E-01;  8.4773877E+03;
  1.8935924E+00;  9.9999998E-03; -1.9710015E-01;9732;  1.2458411E+00;  0.0000000E+00; -2.3398146E-02;  9.9623950E+02;  1.3156474E-01; -2.8247219E+03;3;  3.9098965E+01;  0.0000000E+00; -4.0614052E+00;0; -1.6209340E-01;  2.4442439E+04;  0.0000000E+00;  1.2325098E+01;  4.0000000E+04;  0.0000000E+00;  3.7521559E+04; -3.4553018E-01;  0.0000000E+00;  1.8343678E-01;  3.0800223E+04;
  1.8942634E+00;  9.9999998E-03; -1.8691537E-01;9733;  1.2363505E+00;  0.0000000E+00; -2.1829890E-02;  9.9246442E+02;  1.3158450E-01; -5.6555928E+03;3;  3.8578720E+01;  0.0000000E+00; -3.6891696E+00;0; -1.8579121E-01;  2.4304059E+04;  0.0000000E+00;  3.5283688E+01;  4.0000000E+04;  0.0000000E+00;  3.7474074E+04; -3.7949434E-01;  0.0000000E+00;  1.9370313E-01;  5.2672102E+04;
  1.8949193E+00;  9.9999998E-03; -1.7669608E-01;9734;  1.2270597E+00;  0.0000000E+00; -2.0331915E-02;  9.8989709E+02;  1.3158552E-01; -7.5761392E+03;3;  3.8134068E+01;  0.0000000E+00; -3.3912041E+00;0; -2.0414716E-01;  2.4225715E+04;  0.0000000E+00;  5.4576157E+01;  4.0000000E+04;  0.0000000E+00;  3.7426637E+04; -3.9981425E-01;  0.0000000E+00;  1.9566709E-01;  6.8592141E+04;
  1.8955159E+00;  9.9999998E-03; -1.6640909E-01;9735;  1.2182305E+00;  0.0000000E+00; -1.9085167E-02;  9.8911639E+02;  1.3155738E-01; -8.1553774E+03;3;  3.7822990E+01;  0.0000000E+00; -3.3183589E+00;0; -2.1459828E-01;  2.4222893E+04;  0.0000000E+00;  6.7704025E+01;  4.0000000E+04;  0.0000000E+00;  3.7395285E+04; -4.0647826E-01;  0.0000000E+00;  1.9187997E-01;  7.7150125E+04;
  1.8960392E+00;  9.9999998E-03; -1.5600857E-01;9736;  1.2099178E+00;  0.0000000E+00; -1.8006396E-02;  9.9000934E+02;  1.3150755E-01; -7.4812085E+03;3;  3.7636448E+01;  0.0000000E+00; -3.3948522E+00;0; -2.1873836E-01;  2.4282883E+04;  0.0000000E+00;  7.4382065E+01;  4.0000000E+04;  0.0000000E+00;  3.7390062E+04; -4.0225551E-01;  0.0000000E+00;  1.8351714E-01;  7.8835727E+04;
  1.8965091E+00;  9.9999998E-03; -1.4545053E-01;9737;  1.2020924E+00;  0.0000000E+00; -1.6843749E-02;  9.9198950E+02;  1.3144067E-01; -5.9948140E+03;3;  3.7402496E+01;  0.0000000E+00; -3.3518381E+00;0; -2.1902242E-01;  2.4377750E+04;  0.0000000E+00;  7.4896973E+01;  4.0000000E+04;  0.0000000E+00;  3.7410145E+04; -3.9078295E-01;  0.0000000E+00;  1.7176053E-01;  7.4794836E+04;
  1.8969780E+00;  9.9999998E-03; -1.3472806E-01;9738;  1.1947789E+00;  0.0000000E+00; -1.5449698E-02;  9.9422009E+02;  1.3137162E-01; -4.3228862E+03;3;  3.7192680E+01;  0.0000000E+00; -3.2630630E+00;0; -2.1686044E-01;  2.4477154E+04;  0.0000000E+00;  6.9552582E+01;  4.0000000E+04;  0.0000000E+00;  3.7442066E+04; -3.7539506E-01;  0.0000000E+00;  1.5853462E-01;  6.6299289E+04;
  1.8975219E+00;  9.9999998E-03; -1.2391625E-01;9739;  1.1880016E+00;  0.0000000E+00; -1.3756592E-02;  9.9590552E+02;  1.3130979E-01; -3.0601528E+03;3;  3.7007950E+01;  0.0000000E+00; -3.1187086E+00;0; -2.1347928E-01;  2.4557623E+04;  0.0000000E+00;  5.9057377E+01;  4.0000000E+04;  0.0000000E+00;  3.7464434E+04; -3.5906640E-01;  0.0000000E+00;  1.4558712E-01;  5.4731551E+04;
  1.8981963E+00;  9.9999998E-03; -1.1315472E-01;9740;  1.1818022E+00;  0.0000000E+00; -1.1974445E-02;  9.9663293E+02;  1.3125479E-01; -2.5142700E+03;3;  3.6851128E+01;  0.0000000E+00; -2.9322548E+00;0; -2.0952722E-01;  2.4609021E+04;  0.0000000E+00;  4.5401852E+01;  4.0000000E+04;  0.0000000E+00;  3.7464055E+04; -3.4385917E-01;  0.0000000E+00;  1.3433194E-01;  4.1893617E+04;
  1.8990196E+00;  9.9999998E-03; -1.0256839E-01;9741;  1.1761802E+00;  0.0000000E+00; -1.0345034E-02;  9.9654834E+02;  1.3121392E-01; -2.5746260E+03;3;  3.6740967E+01;  0.0000000E+00; -2.7145650E+00;0; -2.0561537E-01;  2.4633109E+04;  0.0000000E+00;  3.1335588E+01;  4.0000000E+04;  0.0000000E+00;  3.7442949E+04; -3.3079541E-01;  0.0000000E+00;  1.2518004E-01;  2.9667611E+04;
  1.9044949E+00;  9.9999998E-03; -2.1784274E-01;9774;  1.2617507E+00;  0.0000000E+00; -1.8973542E-02;  1.0063173E+03;  1.3024111E-01;  4.6771416E+03;3;  4.0883224E+01;  0.0000000E+00; -5.5744662E+00;0; -1.1478796E-01;  2.5463186E+04;  0.0000000E+00;  4.5729778E+01;  4.0000000E+04;  0.0000000E+00;  3.7410219E+04; -1.8928537E-01;  0.0000000E+00;  7.4497409E-02;  1.2343897E+04;
  1.9052463E+00;  9.9999998E-03; -2.0773835E-01;9775;  1.2522109E+00;  0.0000000E+00; -1.7062582E-02;  1.0026203E+03;  1.3026385E-01;  1.9379475E+03;3;  4.0345680E+01;  0.0000000E+00; -4.9420900E+00;0; -1.5371934E-01;  2.5309238E+04;  0.0000000E+00; -1.0016069E+00;  4.0000000E+04;  0.0000000E+00;  3.7385164E+04; -2.5512043E-01;  0.0000000E+00;  1.0140108E-01;  3.2700532E+03;
  1.9057863E+00;  9.9999998E-03; -1.9759125E-01;9776;  1.2428685E+00;  0.0000000E+00; -1.5739743E-02;  1.0000455E+03;  1.3027990E-01;  3.3653145E+01;3;  3.9765667E+01;  0.0000000E+00; -4.4080682E+00;0; -1.8150903E-01;  2.5207953E+04;  0.0000000E+00; -9.7056179E+00;  4.0000000E+04;  0.0000000E+00;  3.7356215E+04; -3.1061199E-01;  0.0000000E+00;  1.2910296E-01;  4.6628882E+03;
  1.9063276E+00;  9.9999998E-03; -1.8741769E-01;9777;  1.2335215E+00;  0.0000000E+00; -1.4546498E-02;  9.9684729E+02;  1.3029552E-01; -2.3281121E+03;3;  3.9302361E+01;  0.0000000E+00; -4.0309453E+00;0; -2.0616174E-01;  2.5088430E+04;  0.0000000E+00;  6.6852798E+00;  4.0000000E+04;  0.0000000E+00;  3.7311664E+04; -3.5540959E-01;  0.0000000E+00;  1.4924785E-01;  2.2412744E+04;
  1.9069179E+00;  9.9999998E-03; -1.7722212E-01;9778;  1.2243441E+00;  0.0000000E+00; -1.3419165E-02;  9.9350323E+02;  1.3031216E-01; -4.7934575E+03;3;  3.8881950E+01;  0.0000000E+00; -3.7148354E+00;0; -2.2642048E-01;  2.4971533E+04;  0.0000000E+00;  2.9581032E+01;  4.0000000E+04;  0.0000000E+00;  3.7254730E+04; -3.8670176E-01;  0.0000000E+00;  1.6028129E-01;  4.1384430E+04;
  1.9075223E+00;  9.9999998E-03; -1.6698989E-01;9779;  1.2155604E+00;  0.0000000E+00; -1.2475322E-02;  9.9106006E+02;  1.3031782E-01; -6.5903105E+03;3;  3.8575813E+01;  0.0000000E+00; -3.5803640E+00;0; -2.3979753E-01;  2.4897848E+04;  0.0000000E+00;  4.9128326E+01;  4.0000000E+04;  0.0000000E+00;  3.7200508E+04; -4.0343106E-01;  0.0000000E+00;  1.6363353E-01;  5.5451480E+04;
  1.9081043E+00;  9.9999998E-03; -1.5668941E-01;9780;  1.2072419E+00;  0.0000000E+00; -1.1685875E-02;  9.9007574E+02;  1.3030075E-01; -7.3097544E+03;3;  3.8286705E+01;  0.0000000E+00; -3.4381478E+00;0; -2.4687639E-01;  2.4884842E+04;  0.0000000E+00;  6.2441410E+01;  4.0000000E+04;  0.0000000E+00;  3.7164363E+04; -4.0735623E-01;  0.0000000E+00;  1.6047984E-01;  6.3192391E+04;
  1.9086541E+00;  9.9999998E-03; -1.4628190E-01;9781;  1.1994388E+00;  0.0000000E+00; -1.0968698E-02;  9.9050128E+02;  1.3026401E-01; -6.9907344E+03;3;  3.8027790E+01;  0.0000000E+00; -3.3465130E+00;0; -2.4885398E-01;  2.4923918E+04;  0.0000000E+00;  6.9310555E+01;  4.0000000E+04;  0.0000000E+00;  3.7154672E+04; -4.0122831E-01;  0.0000000E+00;  1.5237433E-01;  6.5053102E+04;
  1.9091811E+00;  9.9999998E-03; -1.3573553E-01;9782;  1.1921527E+00;  0.0000000E+00; -1.0178436E-02;  9.9188971E+02;  1.3021177E-01; -5.9642925E+03;3;  3.7790470E+01;  0.0000000E+00; -3.2396750E+00;0; -2.4743032E-01;  2.4994182E+04;  0.0000000E+00;  7.0315735E+01;  4.0000000E+04;  0.0000000E+00;  3.7168918E+04; -3.8839057E-01;  0.0000000E+00;  1.4096025E-01;  6.2150105E+04;
  1.9097103E+00;  9.9999998E-03; -1.2504764E-01;9783;  1.1853716E+00;  0.0000000E+00; -9.1893030E-03;  9.9358911E+02;  1.3015355E-01; -4.7108931E+03;3;  3.7566990E+01;  0.0000000E+00; -3.1140392E+00;0; -2.4409249E-01;  2.5072994E+04;  0.0000000E+00;  6.6103119E+01;  4.0000000E+04;  0.0000000E+00;  3.7195574E+04; -3.7206769E-01;  0.0000000E+00;  1.2797520E-01;  5.5686746E+04;
  1.9102783E+00;  9.9999998E-03; -1.1428040E-01;9784;  1.1791229E+00;  0.0000000E+00; -7.9944925E-03;  9.9499078E+02;  1.3010353E-01; -3.6778218E+03;3;  3.7367317E+01;  0.0000000E+00; -2.9223642E+00;0; -2.3974402E-01;  2.5139732E+04;  0.0000000E+00;  5.7285854E+01;  4.0000000E+04;  0.0000000E+00;  3.7216355E+04; -3.5484272E-01;  0.0000000E+00;  1.1509870E-01;  4.6738152E+04;
  1.9109008E+00;  9.9999998E-03; -1.0354259E-01;9785;  1.1734394E+00;  0.0000000E+00; -6.7254459E-03;  9.9571436E+02;  1.3006198E-01; -3.1436345E+03;3;  3.7185905E+01;  0.0000000E+00; -2.6741178E+00;0; -2.3499513E-01;  2.5185303E+04;  0.0000000E+00;  4.5381397E+01;  4.0000000E+04;  0.0000000E+00;  3.7219340E+04; -3.3856937E-01;  0.0000000E+00;  1.0357425E-01;  3.6604980E+04;
  1.9172499E+00;  9.9999998E-03; -2.0815173E-01;9817;  1.2493804E+00;  0.0000000E+00; -9.1573074E-03;  1.0063452E+03;  1.2918584E-01;  4.6092002E+03;3;  4.0949390E+01;  0.0000000E+00; -5.4668379E+00;0; -1.6712555E-01;  2.6018551E+04;  0.0000000E+00;  5.8020164E+01;  4.0000000E+04;  0.0000000E+00;  3.7217562E+04; -1.9620252E-01;  0.0000000E+00;  2.9076962E-02;  1.6462688E+04;
  1.9179814E+00;  9.9999998E-03; -1.9804884E-01;9818;  1.2398604E+00;  0.0000000E+00; -7.5797969E-03;  1.0025031E+03;  1.2921783E-01;  1.8161780E+03;3;  4.0355232E+01;  0.0000000E+00; -4.7432971E+00;0; -2.0281202E-01;  2.5861713E+04;  0.0000000E+00;  3.8559935E+00;  4.0000000E+04;  0.0000000E+00;  3.7175203E+04; -2.6014507E-01;  0.0000000E+00;  5.7333052E-02;  3.3283416E+03;
  1.9184948E+00;  9.9999998E-03; -1.8788579E-01;9819;  1.2305419E+00;  0.0000000E+00; -6.5635978E-03;  1.0002441E+03;  1.2922898E-01;  1.7699219E+02;3;  3.9861168E+01;  0.0000000E+00; -4.1863952E+00;0; -2.2961318E-01;  2.5778676E+04;  0.0000000E+00; -1.2395459E+01;  4.0000000E+04;  0.0000000E+00;  3.7139770E+04; -3.1446844E-01;  0.0000000E+00;  8.4855251E-02;  2.7830588E+03;
  1.9189892E+00;  9.9999998E-03; -1.7768818E-01;9820;  1.2215027E+00;  0.0000000E+00; -5.8299336E-03;  9.9768616E+02;  1.2924191E-01; -1.6761191E+03;3;  3.9444721E+01;  0.0000000E+00; -3.7819476E+00;0; -2.4996769E-01;  2.5688859E+04;  0.0000000E+00; -1.2744640E+00;  4.0000000E+04;  0.0000000E+00;  3.7091680E+04; -3.5595939E-01;  0.0000000E+00;  1.0599170E-01;  1.3133830E+04;
  1.9195218E+00;  9.9999998E-03; -1.6746561E-01;9821;  1.2128136E+00;  0.0000000E+00; -5.2913441E-03;  9.9492340E+02;  1.2925614E-01; -3.6742441E+03;3;  3.9134457E+01;  0.0000000E+00; -3.5878913E+00;0; -2.6464194E-01;  2.5597809E+04;  0.0000000E+00;  1.9241438E+01;  4.0000000E+04;  0.0000000E+00;  3.7031484E+04; -3.8356256E-01;  0.0000000E+00;  1.1892061E-01;  2.8192344E+04;
  1.9200792E+00;  9.9999998E-03; -1.5720572E-01;9822;  1.2045554E+00;  0.0000000E+00; -4.9161115E-03;  9.9271881E+02;  1.2926060E-01; -5.2650894E+03;3;  3.8850082E+01;  0.0000000E+00; -3.4491496E+00;0; -2.7372602E-01;  2.5534555E+04;  0.0000000E+00;  3.8320045E+01;  4.0000000E+04;  0.0000000E+00;  3.6974211E+04; -3.9768165E-01;  0.0000000E+00;  1.2395563E-01;  4.0248852E+04;
  1.9206398E+00;  9.9999998E-03; -1.4688307E-01;9823;  1.1967757E+00;  0.0000000E+00; -4.6153218E-03;  9.9158252E+02;  1.2925221E-01; -6.0812046E+03;3;  3.8554058E+01;  0.0000000E+00; -3.2950323E+00;0; -2.7805260E-01;  2.5513984E+04;  0.0000000E+00;  5.1919907E+01;  4.0000000E+04;  0.0000000E+00;  3.6933387E+04; -4.0013424E-01;  0.0000000E+00;  1.2208164E-01;  4.7425898E+04;
  1.9211924E+00;  9.9999998E-03; -1.3646501E-01;9824;  1.1895097E+00;  0.0000000E+00; -4.3291510E-03;  9.9153888E+02;  1.2922466E-01; -6.1071968E+03;3;  3.8304867E+01;  0.0000000E+00; -3.1904364E+00;0; -2.7835095E-01;  2.5533240E+04;  0.0000000E+00;  5.9508350E+01;  4.0000000E+04;  0.0000000E+00;  3.6917219E+04; -3.9346808E-01;  0.0000000E+00;  1.1511714E-01;  4.9863238E+04;
  1.9217418E+00;  9.9999998E-03; -1.2592819E-01;9825;  1.1827627E+00;  0.0000000E+00; -3.9684265E-03;  9.9231317E+02;  1.2918992E-01; -5.5433232E+03;3;  3.8051025E+01;  0.0000000E+00; -3.0366185E+00;0; -2.7577457E-01;  2.5577531E+04;  0.0000000E+00;  6.1593987E+01;  4.0000000E+04;  0.0000000E+00;  3.6922938E+04; -3.8061896E-01;  0.0000000E+00;  1.0484440E-01;  4.8385996E+04;
  1.9222918E+00;  9.9999998E-03; -1.1527570E-01;9826;  1.1765373E+00;  0.0000000E+00; -3.4703230E-03;  9.9341107E+02;  1.2914880E-01; -4.7472500E+03;3;  3.7834927E+01;  0.0000000E+00; -2.8878810E+00;0; -2.7145803E-01;  2.5631078E+04;  0.0000000E+00;  5.8954327E+01;  4.0000000E+04;  0.0000000E+00;  3.6940145E+04; -3.6441356E-01;  0.0000000E+00;  9.2955537E-02;  4.4008598E+04;
  1.9228499E+00;  9.9999998E-03; -1.0455723E-01;9827;  1.1708492E+00;  0.0000000E+00; -2.8308386E-03;  9.9437122E+02;  1.2911016E-01; -4.0516995E+03;3;  3.7614803E+01;  0.0000000E+00; -2.6472297E+00;0; -2.6626140E-01;  2.5679143E+04;  0.0000000E+00;  5.2228775E+01;  4.0000000E+04;  0.0000000E+00;  3.6954500E+04; -3.4721130E-01;  0.0000000E+00;  8.0949888E-02;  3.7605176E+04;
  1.9305972E+00;  9.9999998E-03; -1.8831034E-01;9858;  1.2279172E+00;  0.0000000E+00;  1.1277301E-03;  1.0026602E+03;  1.2835491E-01;  1.8895494E+03;3;  4.0347748E+01;  0.0000000E+00; -4.2281666E+00;0; -2.4332118E-01;  2.6378500E+04;  0.0000000E+00;  1.5695947E+01;  4.0000000E+04;  0.0000000E+00;  3.6950320E+04; -2.5477692E-01;  0.0000000E+00;  1.1455737E-02;  4.4546270E+03;
  1.9311227E+00;  9.9999998E-03; -1.7812423E-01;9859;  1.2188717E+00;  0.0000000E+00;  1.6858613E-03;  1.0005427E+03;  1.2836623E-01;  3.8515274E+02;3;  3.9989510E+01;  0.0000000E+00; -3.8803937E+00;0; -2.6605317E-01;  2.6304170E+04;  0.0000000E+00; -1.1450949E+01;  4.0000000E+04;  0.0000000E+00;  3.6909844E+04; -3.0514982E-01;  0.0000000E+00;  3.9096642E-02;  4.0182256E+03;
  1.9315965E+00;  9.9999998E-03; -1.6788951E-01;9860;  1.2102183E+00;  0.0000000E+00;  1.9395786E-03;  9.9864496E+02;  1.2837562E-01; -9.6075586E+02;3;  3.9625900E+01;  0.0000000E+00; -3.5943995E+00;0; -2.8287852E-01;  2.6242283E+04;  0.0000000E+00; -9.5399389E+00;  4.0000000E+04;  0.0000000E+00;  3.6864734E+04; -3.4334391E-01;  0.0000000E+00;  6.0465381E-02;  4.9562085E+03;
  1.9320874E+00;  9.9999998E-03; -1.5762231E-01;9861;  1.2019796E+00;  0.0000000E+00;  1.9973963E-03;  9.9655902E+02;  1.2838119E-01; -2.4375632E+03;3;  3.9330303E+01;  0.0000000E+00; -3.3822994E+00;0; -2.9497623E-01;  2.6179729E+04;  0.0000000E+00;  5.9417577E+00;  4.0000000E+04;  0.0000000E+00;  3.6810051E+04; -3.6897492E-01;  0.0000000E+00;  7.3998690E-02;  1.5205298E+04;
  1.9326063E+00;  9.9999998E-03; -1.4731957E-01;9862;  1.1942024E+00;  0.0000000E+00;  1.9299146E-03;  9.9469745E+02;  1.2838635E-01; -3.7527742E+03;3;  3.9032051E+01;  0.0000000E+00; -3.1754775E+00;0; -3.0261517E-01;  2.6129178E+04;  0.0000000E+00;  2.3213297E+01;  4.0000000E+04;  0.0000000E+00;  3.6754590E+04; -3.8250735E-01;  0.0000000E+00;  7.9892188E-02;  2.4949170E+04;
  1.9331385E+00;  9.9999998E-03; -1.3696229E-01;9863;  1.1869326E+00;  0.0000000E+00;  1.8236269E-03;  9.9348444E+02;  1.2838025E-01; -4.6068208E+03;3;  3.8747204E+01;  0.0000000E+00; -2.9905739E+00;0; -3.0619752E-01;  2.6104789E+04;  0.0000000E+00;  3.6797184E+01;  4.0000000E+04;  0.0000000E+00;  3.6710953E+04; -3.8536319E-01;  0.0000000E+00;  7.9165675E-02;  3.1515398E+04;
  1.9336753E+00;  9.9999998E-03; -1.2652518E-01;9864;  1.1801832E+00;  0.0000000E+00;  1.7414582E-03;  9.9304694E+02;  1.2836559E-01; -4.9113574E+03;3;  3.8501274E+01;  0.0000000E+00; -2.8715746E+00;0; -3.0631402E-01;  2.6107039E+04;  0.0000000E+00;  4.5228043E+01;  4.0000000E+04;  0.0000000E+00;  3.6686590E+04; -3.7980649E-01;  0.0000000E+00;  7.3492467E-02;  3.4512215E+04;
  1.9342113E+00;  9.9999998E-03; -1.1599377E-01;9865;  1.1739707E+00;  0.0000000E+00;  1.7200854E-03;  9.9322192E+02;  1.2834284E-01; -4.7830615E+03;3;  3.8241245E+01;  0.0000000E+00; -2.7059155E+00;0; -3.0360505E-01;  2.6127994E+04;  0.0000000E+00;  4.8675320E+01;  4.0000000E+04;  0.0000000E+00;  3.6680258E+04; -3.6832479E-01;  0.0000000E+00;  6.4719729E-02;  3.4406039E+04;
  1.9347378E+00;  9.9999998E-03; -1.0537702E-01;9866;  1.1683105E+00;  0.0000000E+00;  1.7687422E-03;  9.9369434E+02;  1.2831636E-01; -4.4453911E+03;3;  3.7985409E+01;  0.0000000E+00; -2.5003052E+00;0; -2.9889721E-01;  2.6158346E+04;  0.0000000E+00;  4.7773613E+01;  4.0000000E+04;  0.0000000E+00;  3.6683367E+04; -3.5338569E-01;  0.0000000E+00;  5.4488488E-02;  3.1922703E+04;
  1.9430940E+00;  9.9999998E-03; -1.7849216E-01;9895;  1.2166309E+00;  0.0000000E+00;  8.6265532E-03;  1.0033113E+03;  1.2763821E-01;  2.2977759E+03;3;  4.0444687E+01;  0.0000000E+00; -3.8677824E+00;0; -2.7057877E-01;  2.6873701E+04;  0.0000000E+00;  3.8556553E+01;  4.0000000E+04;  0.0000000E+00;  3.6720441E+04; -2.3757058E-01;  0.0000000E+00; -3.3008188E-02;  9.4631904E+03;
  1.9436615E+00;  9.9999998E-03; -1.6828871E-01;9896;  1.2080001E+00;  0.0000000E+00;  8.7851640E-03;  1.0009783E+03;  1.2765676E-01;  6.7812256E+02;3;  4.0033554E+01;  0.0000000E+00; -3.4185305E+00;0; -2.8952324E-01;  2.6792762E+04;  0.0000000E+00; -1.8532752E+00;  4.0000000E+04;  0.0000000E+00;  3.6669449E+04; -2.8308338E-01;  0.0000000E+00; -6.4398600E-03;  4.0327952E+03;
  1.9441389E+00;  9.9999998E-03; -1.5801604E-01;9897;  1.1997759E+00;  0.0000000E+00;  8.5760392E-03;  9.9949280E+02;  1.2765962E-01; -3.5120801E+02;3;  3.9673779E+01;  0.0000000E+00; -3.0836613E+00;0; -3.0387995E-01;  2.6749285E+04;  0.0000000E+00; -1.3177018E+01;  4.0000000E+04;  0.0000000E+00;  3.6628785E+04; -3.1873274E-01;  0.0000000E+00;  1.4852797E-02;  3.2403857E+03;
  1.9446083E+00;  9.9999998E-03; -1.4769797E-01;9898;  1.1919700E+00;  0.0000000E+00;  8.2087126E-03;  9.9802771E+02;  1.2766258E-01; -1.3645212E+03;3;  3.9360680E+01;  0.0000000E+00; -2.8302100E+00;0; -3.1545824E-01;  2.6709877E+04;  0.0000000E+00; -6.5602670E+00;  4.0000000E+04;  0.0000000E+00;  3.6583879E+04; -3.4397352E-01;  0.0000000E+00;  2.8515289E-02;  5.1594185E+03;
  1.9450952E+00;  9.9999998E-03; -1.3734125E-01;9899;  1.1846530E+00;  0.0000000E+00;  7.7421805E-03;  9.9657782E+02;  1.2766485E-01; -2.3653210E+03;3;  3.9081745E+01;  0.0000000E+00; -2.6374509E+00;0; -3.2354835E-01;  2.6673316E+04;  0.0000000E+00;  6.3743882E+00;  4.0000000E+04;  0.0000000E+00;  3.6535656E+04; -3.5851440E-01;  0.0000000E+00;  3.4966063E-02;  1.1709996E+04;
  1.9455953E+00;  9.9999998E-03; -1.2693931E-01;9900;  1.1778749E+00;  0.0000000E+00;  7.2429487E-03;  9.9541418E+02;  1.2766458E-01; -3.1664197E+03;3;  3.8795662E+01;  0.0000000E+00; -2.4480712E+00;0; -3.2791200E-01;  2.6648852E+04;  0.0000000E+00;  1.8550318E+01;  4.0000000E+04;  0.0000000E+00;  3.6492082E+04; -3.6326087E-01;  0.0000000E+00;  3.5348866E-02;  1.7112611E+04;
  1.9460969E+00;  9.9999998E-03; -1.1647868E-01;9901;  1.1716683E+00;  0.0000000E+00;  6.7348564E-03;  9.9470282E+02;  1.2765750E-01; -3.6539595E+03;3;  3.8520931E+01;  0.0000000E+00; -2.2601161E+00;0; -3.2856622E-01;  2.6640336E+04;  0.0000000E+00;  2.7147392E+01;  4.0000000E+04;  0.0000000E+00;  3.6459562E+04; -3.5992730E-01;  0.0000000E+00;  3.1361073E-02;  2.0231641E+04;
  1.9465917E+00;  9.9999998E-03; -1.0594951E-01;9902;  1.1660171E+00;  0.0000000E+00;  6.2480746E-03;  9.9440143E+02;  1.2764503E-01; -3.8580149E+03;3;  3.8268391E+01;  0.0000000E+00; -2.0898182E+00;0; -3.2639456E-01;  2.6644498E+04;  0.0000000E+00;  3.1689192E+01;  4.0000000E+04;  0.0000000E+00;  3.6439684E+04; -3.5095057E-01;  0.0000000E+00;  2.4556005E-02;  2.1111357E+04;
  1.9554693E+00;  9.9999998E-03; -1.6857024E-01;9930;  1.2060100E+00;  0.0000000E+00;  1.4957619E-02;  1.0046427E+03;  1.2704478E-01;  3.1412671E+03;3;  4.0370342E+01;  0.0000000E+00; -3.2757566E+00;0; -2.8874758E-01;  2.7355562E+04;  0.0000000E+00;  7.4853073E+01;  4.0000000E+04;  0.0000000E+00;  3.6498672E+04; -2.1229064E-01;  0.0000000E+00; -7.6456942E-02;  1.7953463E+04;
  1.9560895E+00;  9.9999998E-03; -1.5836434E-01;9931;  1.1979711E+00;  0.0000000E+00;  1.4602455E-02;  1.0017131E+03;  1.2707227E-01;  1.1575939E+03;3;  4.0006027E+01;  0.0000000E+00; -2.8944705E+00;0; -3.0123353E-01;  2.7256615E+04;  0.0000000E+00;  2.1364136E+01;  4.0000000E+04;  0.0000000E+00;  3.6425691E+04; -2.5163704E-01;  0.0000000E+00; -4.9596474E-02;  5.6268677E+03;
  1.9565973E+00;  9.9999998E-03; -1.4807178E-01;9932;  1.1902411E+00;  0.0000000E+00;  1.4021685E-02;  1.0001428E+03;  1.2708151E-01;  9.6395256E+01;3;  3.9684685E+01;  0.0000000E+00; -2.6075788E+00;0; -3.1390339E-01;  2.7211498E+04;  0.0000000E+00; -5.8509521E+00;  4.0000000E+04;  0.0000000E+00;  3.6378883E+04; -2.8467718E-01;  0.0000000E+00; -2.9226204E-02;  3.9282097E+03;
  1.9570644E+00;  9.9999998E-03; -1.3771284E-01;9933;  1.1829263E+00;  0.0000000E+00;  1.3266788E-02;  9.9901746E+02;  1.2708287E-01; -6.6251782E+02;3;  3.9403793E+01;  0.0000000E+00; -2.4057188E+00;0; -3.2518998E-01;  2.7183691E+04;  0.0000000E+00; -1.2389610E+01;  4.0000000E+04;  0.0000000E+00;  3.6340359E+04; -3.0950451E-01;  0.0000000E+00; -1.5685461E-02;  3.0372427E+03;
  1.9575253E+00;  9.9999998E-03; -1.2730484E-01;9934;  1.1760930E+00;  0.0000000E+00;  1.2419012E-02;  9.9796704E+02;  1.2708463E-01; -1.3694591E+03;3;  3.9137463E+01;  0.0000000E+00; -2.2290173E+00;0; -3.3429584E-01;  2.7160006E+04;  0.0000000E+00; -7.7577343E+00;  4.0000000E+04;  0.0000000E+00;  3.6300938E+04; -3.2561481E-01;  0.0000000E+00; -8.6810160E-03;  2.9991753E+03;
  1.9579856E+00;  9.9999998E-03; -1.1685010E-01;9935;  1.1697967E+00;  0.0000000E+00;  1.1505714E-02;  9.9701526E+02;  1.2708285E-01; -2.0086537E+03;3;  3.8869797E+01;  0.0000000E+00; -2.0559409E+00;0; -3.4029317E-01;  2.7141291E+04;  0.0000000E+00;  5.0304925E-01;  4.0000000E+04;  0.0000000E+00;  3.6262840E+04; -3.3335075E-01;  0.0000000E+00; -6.9424124E-03;  6.0038970E+03;
  1.9584411E+00;  9.9999998E-03; -1.0635185E-01;9936;  1.1640705E+00;  0.0000000E+00;  1.0584651E-02;  9.9623682E+02;  1.2708090E-01; -2.5300312E+03;3;  3.8604885E+01;  0.0000000E+00; -1.8870374E+00;0; -3.4310639E-01;  2.7128730E+04;  0.0000000E+00;  7.9426522E+00;  4.0000000E+04;  0.0000000E+00;  3.6228785E+04; -3.3388892E-01;  0.0000000E+00; -9.2174709E-03;  8.5656006E+03;
  1.9683927E+00;  9.9999998E-03; -1.4832425E-01;9963;  1.1886899E+00;  0.0000000E+00;  1.9364038E-02;  1.0029897E+03;  1.2659009E-01;  1.9661483E+03;3;  3.9998692E+01;  0.0000000E+00; -2.5551028E+00;0; -3.0796477E-01;  2.7703633E+04;  0.0000000E+00;  6.0843910E+01;  4.0000000E+04;  0.0000000E+00;  3.6194312E+04; -2.1604444E-01;  0.0000000E+00; -9.1920339E-02;  1.3441119E+04;
  1.9689378E+00;  9.9999998E-03; -1.3803379E-01;9964;  1.1815672E+00;  0.0000000E+00;  1.8380856E-02;  1.0008853E+03;  1.2660664E-01;  5.8143915E+02;3;  3.9716431E+01;  0.0000000E+00; -2.3051386E+00;0; -3.1678227E-01;  2.7643873E+04;  0.0000000E+00;  1.8804880E+01;  4.0000000E+04;  0.0000000E+00;  3.6126969E+04; -2.4511482E-01;  0.0000000E+00; -7.1667455E-02;  5.0954390E+03;
  1.9694142E+00;  9.9999998E-03; -1.2765814E-01;9965;  1.1747905E+00;  0.0000000E+00;  1.7282009E-02;  9.9966376E+02;  1.2661268E-01; -2.2059857E+02;3;  3.9442730E+01;  0.0000000E+00; -2.0902464E+00;0; -3.2715952E-01;  2.7614656E+04;  0.0000000E+00; -3.2270720E+00;  4.0000000E+04;  0.0000000E+00;  3.6082207E+04; -2.6906511E-01;  0.0000000E+00; -5.8094405E-02;  3.4487778E+03;
  1.9698564E+00;  9.9999998E-03; -1.1721469E-01;9966;  1.1684663E+00;  0.0000000E+00;  1.6045080E-02;  9.9880737E+02;  1.2661335E-01; -7.8168610E+02;3;  3.9172668E+01;  0.0000000E+00; -1.8972390E+00;0; -3.3663031E-01;  2.7597143E+04;  0.0000000E+00; -1.0834990E+01;  4.0000000E+04;  0.0000000E+00;  3.6047398E+04; -2.8660026E-01;  0.0000000E+00; -5.0030064E-02;  3.1266184E+03;
  1.9702779E+00;  9.9999998E-03; -1.0671180E-01;9967;  1.1626381E+00;  0.0000000E+00;  1.4726896E-02;  9.9812372E+02;  1.2661220E-01; -1.2285929E+03;3;  3.8904251E+01;  0.0000000E+00; -1.7177575E+00;0; -3.4444872E-01;  2.7584898E+04;  0.0000000E+00; -1.0321218E+01;  4.0000000E+04;  0.0000000E+00;  3.6018289E+04; -2.9780173E-01;  0.0000000E+00; -4.6646975E-02;  2.2128535E+03;
  1.9811380E+00;  9.9999998E-03; -1.2785791E-01;9992;  1.1735046E+00;  0.0000000E+00;  2.1711905E-02;  1.0022173E+03;  1.2621288E-01;  1.4152937E+03;3;  3.9682789E+01;  0.0000000E+00; -2.0212617E+00;0; -3.1917530E-01;  2.8060146E+04;  0.0000000E+00;  6.2107090E+01;  4.0000000E+04;  0.0000000E+00;  3.5898684E+04; -2.0751825E-01;  0.0000000E+00; -1.1165705E-01;  1.2836834E+04;
  1.9816265E+00;  9.9999998E-03; -1.1749211E-01;9993;  1.1673930E+00;  0.0000000E+00;  2.0165568E-02;  1.0005139E+03;  1.2622617E-01;  3.2764389E+02;3;  3.9411316E+01;  0.0000000E+00; -1.7845330E+00;0; -3.2504475E-01;  2.8019021E+04;  0.0000000E+00;  2.6555851E+01;  4.0000000E+04;  0.0000000E+00;  3.5833047E+04; -2.2844937E-01;  0.0000000E+00; -9.6595369E-02;  6.1228672E+03;
  1.9820582E+00;  9.9999998E-03; -1.0704598E-01;9994;  1.1616404E+00;  0.0000000E+00;  1.8561274E-02;  9.9947351E+02;  1.2623443E-01; -3.3531372E+02;3;  3.9147022E+01;  0.0000000E+00; -1.5826087E+00;0; -3.3334637E-01;  2.7997209E+04;  0.0000000E+00;  5.3432145E+00;  4.0000000E+04;  0.0000000E+00;  3.5789020E+04; -2.4609755E-01;  0.0000000E+00; -8.7248810E-02;  3.3139766E+03;
  4.2075412E-03;  9.9999998E-03; -9.9966548E-02;2467;  6.5318431E-04;  0.0000000E+00; -1.0147021E-04;  9.8567297E+02;  1.0000000E-01; -1.1869689E+04;3;  8.0237892E+01;  0.0000000E+00;  1.0862263E+00;0; -1.7764227E-02;  3.8881371E+04;  0.0000000E+00; -1.7311009E-02;  4.0000000E+04;  0.0000000E+00;  3.9997277E+04; -1.8221293E-02;  0.0000000E+00;  4.5706509E-04;  8.2951685E+02;
  4.2033088E-03;  9.9999998E-03; -8.9964777E-02;2468;  6.5276830E-04;  0.0000000E+00; -9.4707626E-05;  9.8566602E+02;  1.0000000E-01; -1.1875417E+04;3;  8.0531525E+01;  0.0000000E+00;  6.8700218E-01;0; -1.7790092E-02;  3.8880441E+04;  0.0000000E+00; -1.0135366E-02;  4.0000000E+04;  0.0000000E+00;  3.9997715E+04; -1.8249536E-02;  0.0000000E+00;  4.5944392E-04;  8.8950195E+02;
  4.1930689E-03;  9.9999998E-03; -7.9965748E-02;2469;  6.4145261E-04;  0.0000000E+00; -8.9675734E-05;  9.8566614E+02;  1.0000000E-01; -1.1875318E+04;3;  8.0907784E+01;  0.0000000E+00;  3.7058461E-01;0; -1.7816659E-02;  3.8879742E+04;  0.0000000E+00; -6.0953726E-03;  4.0000000E+04;  0.0000000E+00;  3.9998348E+04; -1.8280055E-02;  0.0000000E+00;  4.6339561E-04;  9.5475006E+02;
  4.1782036E-03;  9.9999998E-03; -6.9969490E-02;2470;  6.2251772E-04;  0.0000000E+00; -8.5533182E-05;  9.8566797E+02;  1.0000000E-01; -1.1873837E+04;3;  8.1355576E+01;  0.0000000E+00;  1.3194980E-01;0; -1.7846424E-02;  3.8879477E+04;  0.0000000E+00; -3.7807079E-03;  4.0000000E+04;  0.0000000E+00;  3.9998746E+04; -1.8317183E-02;  0.0000000E+00;  4.7076002E-04;  1.0211133E+03;
  4.1602682E-03;  9.9999998E-03; -5.9975363E-02;2471;  5.9939700E-04;  0.0000000E+00; -8.1166509E-05;  9.8567822E+02;  1.0000000E-01; -1.1865344E+04;3;  8.1775040E+01;  0.0000000E+00; -3.4849849E-02;0; -1.7878938E-02;  3.8879551E+04;  0.0000000E+00; -2.3919684E-03;  4.0000000E+04;  0.0000000E+00;  3.9999195E+04; -1.8361699E-02;  0.0000000E+00;  4.8276014E-04;  1.0845824E+03;
  4.1414439E-03;  9.9999998E-03; -4.9982406E-02;2472;  5.7564845E-04;  0.0000000E+00; -7.5225420E-05;  9.8569019E+02;  1.0000000E-01; -1.1855418E+04;3;  8.2166756E+01;  0.0000000E+00; -1.3655597E-01;0; -1.7912257E-02;  3.8880125E+04;  0.0000000E+00; -1.5125885E-03;  4.0000000E+04;  0.0000000E+00;  3.9999543E+04; -1.8411703E-02;  0.0000000E+00;  4.9944670E-04;  1.1411797E+03;
  4.1233138E-03;  9.9999998E-03; -3.9989199E-02;2473;  5.5385439E-04;  0.0000000E+00; -6.6510809E-05;  9.8570685E+02;  1.0000000E-01; -1.1841591E+04;3;  8.2470238E+01;  0.0000000E+00; -1.8149409E-01;0; -1.7943628E-02;  3.8880902E+04;  0.0000000E+00; -9.2475413E-04;  4.0000000E+04;  0.0000000E+00;  4.0000086E+04; -1.8463083E-02;  0.0000000E+00;  5.1945401E-04;  1.1877882E+03;
  4.1075349E-03;  9.9999998E-03; -2.9994700E-02;2474;  5.3589692E-04;  0.0000000E+00; -5.4305972E-05;  9.8572357E+02;  1.0000000E-01; -1.1827765E+04;3;  8.2692207E+01;  0.0000000E+00; -1.7925639E-01;0; -1.7970562E-02;  3.8881742E+04;  0.0000000E+00; -5.1554176E-04;  4.0000000E+04;  0.0000000E+00;  4.0001277E+04; -1.8510751E-02;  0.0000000E+00;  5.4018904E-04;  1.2228334E+03;
  4.0953904E-03;  9.9999998E-03; -1.9998224E-02;2475;  5.2273809E-04;  0.0000000E+00; -3.8572140E-05;  9.8573810E+02;  1.0000000E-01; -1.1815715E+04;3;  8.2833908E+01;  0.0000000E+00; -1.4043662E-01;0; -1.7991031E-02;  3.8882465E+04;  0.0000000E+00; -2.3190935E-04;  4.0000000E+04;  0.0000000E+00;  4.0001586E+04; -1.8549407E-02;  0.0000000E+00;  5.5837707E-04;  1.2463583E+03;
  4.0878113E-03;  9.9999998E-03; -9.9997651E-03;2476;  5.1485427E-04;  0.0000000E+00; -2.0038498E-05;  9.8574579E+02;  1.0000000E-01; -1.1809345E+04;3;  8.2925758E+01;  0.0000000E+00; -7.6594979E-02;0; -1.8003834E-02;  3.8883121E+04;  0.0000000E+00; -5.8887807E-05;  4.0000000E+04;  0.0000000E+00;  4.0001027E+04; -1.8574672E-02;  0.0000000E+00;  5.7083764E-04;  1.2595480E+03;
  4.0852437E-03;  9.9999998E-03; -2.1403719E-10;2477;  5.1223248E-04;  0.0000000E+00; -3.1359366E-09;  9.8574817E+02;  1.0000000E-01; -1.1807370E+04;3;  8.2957367E+01;  0.0000000E+00;  1.2056878E-05;0; -1.8008171E-02;  3.8883402E+04;  0.0000000E+00; -2.4891555E-13;  4.0000000E+04;  0.0000000E+00;  4.0000977E+04; -1.8583441E-02;  0.0000000E+00;  5.7527126E-04;  1.2637445E+03;
  4.0878118E-03;  9.9999998E-03;  9.9997642E-03;2478;  5.1485060E-04;  0.0000000E+00;  2.0029034E-05;  9.8574579E+02;  1.0000000E-01; -1.1809345E+04;3;  8.2925659E+01;  0.0000000E+00;  7.6606192E-02;0; -1.8003827E-02;  3.8883121E+04;  0.0000000E+00; -5.8848698E-05;  4.0000000E+04;  0.0000000E+00;  4.0001027E+04; -1.8574666E-02;  0.0000000E+00;  5.7083904E-04;  1.2595576E+03;
  4.0953918E-03;  9.9999998E-03;  1.9998223E-02;2479;  5.2274048E-04;  0.0000000E+00;  3.8566017E-05;  9.8573810E+02;  1.0000000E-01; -1.1815715E+04;3;  8.2834015E+01;  0.0000000E+00;  1.4046432E-01;0; -1.7991047E-02;  3.8882473E+04;  0.0000000E+00; -2.3189142E-04;  4.0000000E+04;  0.0000000E+00;  4.0001586E+04; -1.8549427E-02;  0.0000000E+00;  5.5837998E-04;  1.2463666E+03;
  4.1075358E-03;  9.9999998E-03;  2.9994700E-02;2480;  5.3590705E-04;  0.0000000E+00;  5.4299668E-05;  9.8572363E+02;  1.0000000E-01; -1.1827715E+04;3;  8.2691864E+01;  0.0000000E+00;  1.7921109E-01;0; -1.7970541E-02;  3.8881746E+04;  0.0000000E+00; -5.1554671E-04;  4.0000000E+04;  0.0000000E+00;  4.0001277E+04; -1.8510735E-02;  0.0000000E+00;  5.4019387E-04;  1.2228397E+03;
  4.1233166E-03;  9.9999998E-03;  3.9989196E-02;2481;  5.5386766E-04;  0.0000000E+00;  6.6500907E-05;  9.8570679E+02;  1.0000000E-01; -1.1841641E+04;3;  8.2471123E+01;  0.0000000E+00;  1.8148932E-01;0; -1.7943637E-02;  3.8880906E+04;  0.0000000E+00; -9.2455419E-04;  4.0000000E+04;  0.0000000E+00;  4.0000086E+04; -1.8463098E-02;  0.0000000E+00;  5.1946059E-04;  1.1878064E+03;
  4.1414462E-03;  9.9999998E-03;  4.9982402E-02;2482;  5.7566044E-04;  0.0000000E+00;  7.5217242E-05;  9.8569019E+02;  1.0000000E-01; -1.1855418E+04;3;  8.2166985E+01;  0.0000000E+00;  1.3655905E-01;0; -1.7912252E-02;  3.8880125E+04;  0.0000000E+00; -1.5126038E-03;  4.0000000E+04;  0.0000000E+00;  3.9999543E+04; -1.8411705E-02;  0.0000000E+00;  4.9945404E-04;  1.1411981E+03;
  4.1602706E-03;  9.9999998E-03;  5.9975360E-02;2483;  5.9939758E-04;  0.0000000E+00;  8.1162521E-05;  9.8567822E+02;  1.0000000E-01; -1.1865344E+04;3;  8.1775139E+01;  0.0000000E+00;  3.4866638E-02;0; -1.7878942E-02;  3.8879539E+04;  0.0000000E+00; -2.3923549E-03;  4.0000000E+04;  0.0000000E+00;  3.9999195E+04; -1.8361710E-02;  0.0000000E+00;  4.8276802E-04;  1.0845934E+03;
  1.3591480E-02;  9.9999998E-03; -9.9977836E-02;2527; -1.8289160E-04;  0.0000000E+00; -6.4963795E-05;  9.8930542E+02;  1.0000000E-01; -8.8602432E+03;3;  4.2067162E+01;  0.0000000E+00;  5.4991049E-01;0; -1.9423308E-02;  3.9161324E+04;  0.0000000E+00; -2.3761088E-02;  4.0000000E+04;  0.0000000E+00;  3.9997508E+04; -1.9934600E-02;  0.0000000E+00;  5.1129243E-04;  5.2410345E+02;
  1.3590137E-02;  9.9999998E-03; -8.9976080E-02;2528; -1.8341866E-04;  0.0000000E+00; -6.1664985E-05;  9.8929614E+02;  1.0000000E-01; -8.8679463E+03;3;  4.2205193E+01;  0.0000000E+00;  2.2854406E-01;0; -1.9449962E-02;  3.9160000E+04;  0.0000000E+00; -1.4597639E-02;  4.0000000E+04;  0.0000000E+00;  3.9997633E+04; -1.9969745E-02;  0.0000000E+00;  5.1978300E-04;  5.5811334E+02;
  1.3583069E-02;  9.9999998E-03; -7.9976484E-02;2529; -1.9101879E-04;  0.0000000E+00; -5.9220460E-05;  9.8929211E+02;  1.0000000E-01; -8.8713047E+03;3;  4.2387897E+01;  0.0000000E+00; -2.7002094E-02;0; -1.9479292E-02;  3.9159168E+04;  0.0000000E+00; -9.3655922E-03;  4.0000000E+04;  0.0000000E+00;  3.9997270E+04; -2.0007137E-02;  0.0000000E+00;  5.2784488E-04;  5.9923364E+02;
  1.3571459E-02;  9.9999998E-03; -6.9979146E-02;2530; -2.0345133E-04;  0.0000000E+00; -5.7267294E-05;  9.8928461E+02;  1.0000000E-01; -8.8774775E+03;3;  4.2661385E+01;  0.0000000E+00; -2.1897486E-01;0; -1.9512815E-02;  3.9158000E+04;  0.0000000E+00; -6.2584230E-03;  4.0000000E+04;  0.0000000E+00;  3.9997391E+04; -2.0050669E-02;  0.0000000E+00;  5.3785444E-04;  6.4684497E+02;
  1.3556536E-02;  9.9999998E-03; -5.9983324E-02;2531; -2.1838528E-04;  0.0000000E+00; -5.4937616E-05;  9.8927917E+02;  1.0000000E-01; -8.8820205E+03;3;  4.2969723E+01;  0.0000000E+00; -3.4743425E-01;0; -1.9549061E-02;  3.9157633E+04;  0.0000000E+00; -4.2720526E-03;  4.0000000E+04;  0.0000000E+00;  3.9997867E+04; -2.0100737E-02;  0.0000000E+00;  5.5167731E-04;  6.9884894E+02;
  1.3540209E-02;  9.9999998E-03; -4.9988404E-02;2532; -2.3380901E-04;  0.0000000E+00; -5.1407591E-05;  9.8928516E+02;  1.0000000E-01; -8.8770332E+03;3;  4.3221085E+01;  0.0000000E+00; -4.1352189E-01;0; -1.9585244E-02;  3.9157297E+04;  0.0000000E+00; -2.8918020E-03;  4.0000000E+04;  0.0000000E+00;  3.9998707E+04; -2.0155145E-02;  0.0000000E+00;  5.6989962E-04;  7.5131195E+02;
  1.3524078E-02;  9.9999998E-03; -3.9993234E-02;2533; -2.4778096E-04;  0.0000000E+00; -4.5782992E-05;  9.8928906E+02;  1.0000000E-01; -8.8738232E+03;3;  4.3480129E+01;  0.0000000E+00; -4.1913468E-01;0; -1.9618383E-02;  3.9157504E+04;  0.0000000E+00; -1.8649757E-03;  4.0000000E+04;  0.0000000E+00;  3.9999277E+04; -2.0209838E-02;  0.0000000E+00;  5.9145479E-04;  7.9969257E+02;
  1.3509684E-02;  9.9999998E-03; -2.9997034E-02;2534; -2.5933958E-04;  0.0000000E+00; -3.7602982E-05;  9.8929901E+02;  1.0000000E-01; -8.8655762E+03;3;  4.3660934E+01;  0.0000000E+00; -3.6980635E-01;0; -1.9645976E-02;  3.9157793E+04;  0.0000000E+00; -1.0767720E-03;  4.0000000E+04;  0.0000000E+00;  4.0000059E+04; -2.0259749E-02;  0.0000000E+00;  6.1377394E-04;  8.3997449E+02;
  1.3498385E-02;  9.9999998E-03; -1.9999309E-02;2535; -2.6777998E-04;  0.0000000E+00; -2.6815822E-05;  9.8930786E+02;  1.0000000E-01; -8.8582188E+03;3;  4.3791634E+01;  0.0000000E+00; -2.7433148E-01;0; -1.9666420E-02;  3.9158145E+04;  0.0000000E+00; -4.9344002E-04;  4.0000000E+04;  0.0000000E+00;  4.0000531E+04; -2.0299818E-02;  0.0000000E+00;  6.3339819E-04;  8.6960577E+02;
  1.3491212E-02;  9.9999998E-03; -1.0000143E-02;2536; -2.7284957E-04;  0.0000000E+00; -1.3968159E-05;  9.8931293E+02;  1.0000000E-01; -8.8540215E+03;3;  4.3875832E+01;  0.0000000E+00; -1.4576812E-01;0; -1.9678906E-02;  3.9158512E+04;  0.0000000E+00; -1.2628568E-04;  4.0000000E+04;  0.0000000E+00;  4.0000938E+04; -2.0325784E-02;  0.0000000E+00;  6.4687757E-04;  8.8749927E+02;
  1.3488735E-02;  9.9999998E-03; -1.2764635E-10;2537; -2.7456196E-04;  0.0000000E+00; -1.8804467E-09;  9.8931647E+02;  1.0000000E-01; -8.8511074E+03;3;  4.3891575E+01;  0.0000000E+00;  1.8217755E-05;0; -1.9683074E-02;  3.9158641E+04;  0.0000000E+00;  6.5538585E-14;  4.0000000E+04;  0.0000000E+00;  4.0000934E+04; -2.0334754E-02;  0.0000000E+00;  6.5167906E-04;  8.9343567E+02;
  1.3491212E-02;  9.9999998E-03;  1.0000143E-02;2538; -2.7284972E-04;  0.0000000E+00;  1.3965237E-05;  9.8931293E+02;  1.0000000E-01; -8.8540215E+03;3;  4.3875870E+01;  0.0000000E+00;  1.4577575E-01;0; -1.9678909E-02;  3.9158516E+04;  0.0000000E+00; -1.2621975E-04;  4.0000000E+04;  0.0000000E+00;  4.0000941E+04; -2.0325787E-02;  0.0000000E+00;  6.4687832E-04;  8.8750598E+02;
  1.3498386E-02;  9.9999998E-03;  1.9999309E-02;2539; -2.6777317E-04;  0.0000000E+00;  2.6809545E-05;  9.8930786E+02;  1.0000000E-01; -8.8582188E+03;3;  4.3791698E+01;  0.0000000E+00;  2.7429304E-01;0; -1.9666418E-02;  3.9158148E+04;  0.0000000E+00; -4.9326418E-04;  4.0000000E+04;  0.0000000E+00;  4.0000531E+04; -2.0299820E-02;  0.0000000E+00;  6.3340185E-04;  8.6961505E+02;
  1.3509686E-02;  9.9999998E-03;  2.9997034E-02;2540; -2.5933448E-04;  0.0000000E+00;  3.7596081E-05;  9.8929901E+02;  1.0000000E-01; -8.8655762E+03;3;  4.3661007E+01;  0.0000000E+00;  3.6972889E-01;0; -1.9645967E-02;  3.9157789E+04;  0.0000000E+00; -1.0766245E-03;  4.0000000E+04;  0.0000000E+00;  4.0000059E+04; -2.0259745E-02;  0.0000000E+00;  6.1377801E-04;  8.3998444E+02;
  1.3524080E-02;  9.9999998E-03;  3.9993234E-02;2541; -2.4777785E-04;  0.0000000E+00;  4.5776265E-05;  9.8928906E+02;  1.0000000E-01; -8.8738232E+03;3;  4.3480125E+01;  0.0000000E+00;  4.1911399E-01;0; -1.9618399E-02;  3.9157504E+04;  0.0000000E+00; -1.8642752E-03;  4.0000000E+04;  0.0000000E+00;  3.9999277E+04; -2.0209862E-02;  0.0000000E+00;  5.9146172E-04;  7.9969421E+02;
  1.3540211E-02;  9.9999998E-03;  4.9988404E-02;2542; -2.3380607E-04;  0.0000000E+00;  5.1402789E-05;  9.8928516E+02;  1.0000000E-01; -8.8770332E+03;3;  4.3221134E+01;  0.0000000E+00;  4.1348952E-01;0; -1.9585259E-02;  3.9157309E+04;  0.0000000E+00; -2.8916409E-03;  4.0000000E+04;  0.0000000E+00;  3.9998707E+04; -2.0155167E-02;  0.0000000E+00;  5.6990713E-04;  7.5131995E+02;
  1.3556538E-02;  9.9999998E-03;  5.9983324E-02;2543; -2.1838307E-04;  0.0000000E+00;  5.4931821E-05;  9.8927917E+02;  1.0000000E-01; -8.8820205E+03;3;  4.2969666E+01;  0.0000000E+00;  3.4742126E-01;0; -1.9549061E-02;  3.9157637E+04;  0.0000000E+00; -4.2729517E-03;  4.0000000E+04;  0.0000000E+00;  3.9997867E+04; -2.0100746E-02;  0.0000000E+00;  5.5168546E-04;  6.9885254E+02;
  2.2969916E-02;  9.9999998E-03; -9.9982955E-02;2588; -7.9325313E-04;  0.0000000E+00; -6.8945345E-05;  9.9328003E+02;  1.0000000E-01; -5.5673486E+03;3;  3.1017942E+00;  0.0000000E+00;  4.7060958E-01;0; -2.0519242E-02;  3.9471910E+04;  0.0000000E+00; -2.9668592E-02;  4.0000000E+04;  0.0000000E+00;  3.9997305E+04; -2.1079600E-02;  0.0000000E+00;  5.6035764E-04;  2.2224283E+02;
  2.2971183E-02;  9.9999998E-03; -8.9983456E-02;2589; -7.9424935E-04;  0.0000000E+00; -6.4869477E-05;  9.9326227E+02;  1.0000000E-01; -5.5820645E+03;3;  3.1058450E+00;  0.0000000E+00;  2.0909710E-01;0; -2.0546401E-02;  3.9470684E+04;  0.0000000E+00; -1.9172052E-02;  4.0000000E+04;  0.0000000E+00;  3.9997340E+04; -2.1122202E-02;  0.0000000E+00;  5.7580124E-04;  2.2023621E+02;
  2.2967042E-02;  9.9999998E-03; -7.9985105E-02;2590; -8.0356339E-04;  0.0000000E+00; -6.2088089E-05;  9.9324347E+02;  1.0000000E-01; -5.5976689E+03;3;  3.1992331E+00;  0.0000000E+00;  4.9409381E-04;0; -2.0576349E-02;  3.9468766E+04;  0.0000000E+00; -1.2962795E-02;  4.0000000E+04;  0.0000000E+00;  3.9997949E+04; -2.1164555E-02;  0.0000000E+00;  5.8820657E-04;  2.2806805E+02;
  2.2958308E-02;  9.9999998E-03; -6.9987692E-02;2591; -8.1859232E-04;  0.0000000E+00; -6.0137379E-05;  9.9322357E+02;  1.0000000E-01; -5.6141621E+03;3;  3.3935416E+00;  0.0000000E+00; -1.5705815E-01;0; -2.0609979E-02;  3.9467527E+04;  0.0000000E+00; -9.0728039E-03;  4.0000000E+04;  0.0000000E+00;  3.9997668E+04; -2.1210572E-02;  0.0000000E+00;  6.0059316E-04;  2.4980063E+02;
  2.2946049E-02;  9.9999998E-03; -5.9990849E-02;2592; -8.3662238E-04;  0.0000000E+00; -5.8125446E-05;  9.9321271E+02;  1.0000000E-01; -5.6231494E+03;3;  3.6214931E+00;  0.0000000E+00; -2.6404044E-01;0; -2.0645317E-02;  3.9466336E+04;  0.0000000E+00; -6.4195357E-03;  4.0000000E+04;  0.0000000E+00;  3.9997766E+04; -2.1260923E-02;  0.0000000E+00;  6.1560591E-04;  2.8591724E+02;
  2.2931971E-02;  9.9999998E-03; -4.9994357E-02;2593; -8.5503055E-04;  0.0000000E+00; -5.4872755E-05;  9.9320996E+02;  1.0000000E-01; -5.6254214E+03;3;  3.8667340E+00;  0.0000000E+00; -3.2062179E-01;0; -2.0679420E-02;  3.9465441E+04;  0.0000000E+00; -4.4571054E-03;  4.0000000E+04;  0.0000000E+00;  3.9997918E+04; -2.1313950E-02;  0.0000000E+00;  6.3452980E-04;  3.3270432E+02;
  2.2917634E-02;  9.9999998E-03; -3.9997485E-02;2594; -8.7168044E-04;  0.0000000E+00; -4.9363967E-05;  9.9320776E+02;  1.0000000E-01; -5.6272480E+03;3;  4.1406479E+00;  0.0000000E+00; -3.2859111E-01;0; -2.0709563E-02;  3.9464969E+04;  0.0000000E+00; -2.9217817E-03;  4.0000000E+04;  0.0000000E+00;  3.9998883E+04; -2.1366311E-02;  0.0000000E+00;  6.5674871E-04;  3.8358377E+02;
  2.2904659E-02;  9.9999998E-03; -2.9999726E-02;2595; -8.8531227E-04;  0.0000000E+00; -4.0839728E-05;  9.9320831E+02;  1.0000000E-01; -5.6268037E+03;3;  4.3892417E+00;  0.0000000E+00; -2.9163879E-01;0; -2.0733733E-02;  3.9464727E+04;  0.0000000E+00; -1.7029261E-03;  4.0000000E+04;  0.0000000E+00;  3.9998934E+04; -2.1413578E-02;  0.0000000E+00;  6.7984586E-04;  4.3129034E+02;
  2.2894314E-02;  9.9999998E-03; -2.0000773E-02;2596; -8.9528528E-04;  0.0000000E+00; -2.9286293E-05;  9.9321350E+02;  1.0000000E-01; -5.6225078E+03;3;  4.5644989E+00;  0.0000000E+00; -2.1712464E-01;0; -2.0751005E-02;  3.9464750E+04;  0.0000000E+00; -7.8407192E-04;  4.0000000E+04;  0.0000000E+00;  3.9999645E+04; -2.1451280E-02;  0.0000000E+00;  7.0027512E-04;  4.6963934E+02;
  2.2887679E-02;  9.9999998E-03; -1.0000708E-02;2597; -9.0128579E-04;  0.0000000E+00; -1.5294157E-05;  9.9321747E+02;  1.0000000E-01; -5.6191992E+03;3;  4.6751037E+00;  0.0000000E+00; -1.1555100E-01;0; -2.0761246E-02;  3.9464906E+04;  0.0000000E+00; -2.0111195E-04;  4.0000000E+04;  0.0000000E+00;  3.9999852E+04; -2.1475617E-02;  0.0000000E+00;  7.1437185E-04;  4.9422949E+02;
  2.2885399E-02;  9.9999998E-03; -1.2115328E-10;2598; -9.0326922E-04;  0.0000000E+00; -2.0436837E-09;  9.9321814E+02;  1.0000000E-01; -5.6186558E+03;3;  4.7178736E+00;  0.0000000E+00; -6.5981130E-06;0; -2.0764593E-02;  3.9464699E+04;  0.0000000E+00;  1.0594748E-14;  4.0000000E+04;  0.0000000E+00;  4.0000105E+04; -2.1484001E-02;  0.0000000E+00;  7.1940734E-04;  5.0265021E+02;
  2.2887681E-02;  9.9999998E-03;  1.0000708E-02;2599; -9.0128375E-04;  0.0000000E+00;  1.5290016E-05;  9.9321747E+02;  1.0000000E-01; -5.6191992E+03;3;  4.6751256E+00;  0.0000000E+00;  1.1555141E-01;0; -2.0761251E-02;  3.9464906E+04;  0.0000000E+00; -2.0105147E-04;  4.0000000E+04;  0.0000000E+00;  3.9999852E+04; -2.1475624E-02;  0.0000000E+00;  7.1437313E-04;  4.9423187E+02;
  2.2894314E-02;  9.9999998E-03;  2.0000773E-02;2600; -8.9528412E-04;  0.0000000E+00;  2.9281862E-05;  9.9321350E+02;  1.0000000E-01; -5.6225078E+03;3;  4.5645485E+00;  0.0000000E+00;  2.1711248E-01;0; -2.0751009E-02;  3.9464750E+04;  0.0000000E+00; -7.8412093E-04;  4.0000000E+04;  0.0000000E+00;  3.9999645E+04; -2.1451287E-02;  0.0000000E+00;  7.0027809E-04;  4.6964706E+02;
  2.2904661E-02;  9.9999998E-03;  2.9999726E-02;2601; -8.8530796E-04;  0.0000000E+00;  4.0836145E-05;  9.9320819E+02;  1.0000000E-01; -5.6269023E+03;3;  4.3900609E+00;  0.0000000E+00;  2.9162267E-01;0; -2.0733733E-02;  3.9464727E+04;  0.0000000E+00; -1.7028453E-03;  4.0000000E+04;  0.0000000E+00;  3.9998934E+04; -2.1413583E-02;  0.0000000E+00;  6.7985064E-04;  4.3130975E+02;
  2.2917636E-02;  9.9999998E-03;  3.9997485E-02;2602; -8.7167800E-04;  0.0000000E+00;  4.9360075E-05;  9.9320776E+02;  1.0000000E-01; -5.6272480E+03;3;  4.1406827E+00;  0.0000000E+00;  3.2861069E-01;0; -2.0709559E-02;  3.9464969E+04;  0.0000000E+00; -2.9216346E-03;  4.0000000E+04;  0.0000000E+00;  3.9998883E+04; -2.1366313E-02;  0.0000000E+00;  6.5675389E-04;  3.8359024E+02;
  2.2931973E-02;  9.9999998E-03;  4.9994353E-02;2603; -8.5502648E-04;  0.0000000E+00;  5.4867091E-05;  9.9320996E+02;  1.0000000E-01; -5.6254214E+03;3;  3.8667805E+00;  0.0000000E+00;  3.2052425E-01;0; -2.0679440E-02;  3.9465453E+04;  0.0000000E+00; -4.4566481E-03;  4.0000000E+04;  0.0000000E+00;  3.9997918E+04; -2.1313976E-02;  0.0000000E+00;  6.3453708E-04;  3.3271252E+02;
  2.2946050E-02;  9.9999998E-03;  5.9990849E-02;2604; -8.3662092E-04;  0.0000000E+00;  5.8121357E-05;  9.9321277E+02;  1.0000000E-01; -5.6231001E+03;3;  3.6211231E+00;  0.0000000E+00;  2.6403049E-01;0; -2.0645332E-02;  3.9466340E+04;  0.0000000E+00; -6.4197122E-03;  4.0000000E+04;  0.0000000E+00;  3.9997766E+04; -2.1260945E-02;  0.0000000E+00;  6.1561394E-04;  2.8591812E+02;
  3.2400176E-02;  9.9999998E-03; -9.9989191E-02;2649; -1.3773892E-03;  0.0000000E+00; -7.2759001E-05;  9.9706494E+02;  1.0000000E-01; -2.4316350E+03;3; -2.5281471E+01;  0.0000000E+00;  3.8299173E-01;0; -2.0923262E-02;  3.9773070E+04;  0.0000000E+00; -3.3569958E-02;  4.0000000E+04;  0.0000000E+00;  3.9997637E+04; -2.1527214E-02;  0.0000000E+00;  6.0395157E-04;  6.2295776E+01;
  3.2403816E-02;  9.9999998E-03; -8.9991160E-02;2650; -1.3790990E-03;  0.0000000E+00; -6.7182322E-05;  9.9703705E+02;  1.0000000E-01; -2.4547454E+03;3; -2.5393364E+01;  0.0000000E+00;  1.7885272E-01;0; -2.0951392E-02;  3.9771562E+04;  0.0000000E+00; -2.2467077E-02;  4.0000000E+04;  0.0000000E+00;  3.9997730E+04; -2.1578036E-02;  0.0000000E+00;  6.2664342E-04;  8.6054916E+01;
  3.2402262E-02;  9.9999998E-03; -7.9993568E-02;2651; -1.3902680E-03;  0.0000000E+00; -6.3536791E-05;  9.9701276E+02;  1.0000000E-01; -2.4748931E+03;3; -2.5437517E+01;  0.0000000E+00;  1.5500263E-02;0; -2.0982746E-02;  3.9769328E+04;  0.0000000E+00; -1.5585268E-02;  4.0000000E+04;  0.0000000E+00;  3.9997406E+04; -2.1625917E-02;  0.0000000E+00;  6.4317149E-04;  1.1127060E+02;
  3.2396063E-02;  9.9999998E-03; -6.9996089E-02;2652; -1.4077959E-03;  0.0000000E+00; -6.1386672E-05;  9.9698444E+02;  1.0000000E-01; -2.4983491E+03;3; -2.5342155E+01;  0.0000000E+00; -1.0864840E-01;0; -2.1017149E-02;  3.9767094E+04;  0.0000000E+00; -1.1062691E-02;  4.0000000E+04;  0.0000000E+00;  3.9997055E+04; -2.1674454E-02;  0.0000000E+00;  6.5730495E-04;  1.1686400E+02;
  3.2386277E-02;  9.9999998E-03; -5.9998453E-02;2653; -1.4285293E-03;  0.0000000E+00; -5.9634640E-05;  9.9696124E+02;  1.0000000E-01; -2.5175583E+03;3; -2.5148611E+01;  0.0000000E+00; -1.9391124E-01;0; -2.1052001E-02;  3.9765305E+04;  0.0000000E+00; -7.8733899E-03;  4.0000000E+04;  0.0000000E+00;  3.9997926E+04; -2.1724621E-02;  0.0000000E+00;  6.7261938E-04;  9.6886635E+01;
  3.2374196E-02;  9.9999998E-03; -5.0000608E-02;2654; -1.4496291E-03;  0.0000000E+00; -5.6891320E-05;  9.9695166E+02;  1.0000000E-01; -2.5255088E+03;3; -2.4921835E+01;  0.0000000E+00; -2.4034461E-01;0; -2.1084115E-02;  3.9763941E+04;  0.0000000E+00; -5.4776748E-03;  4.0000000E+04;  0.0000000E+00;  3.9997719E+04; -2.1775361E-02;  0.0000000E+00;  6.9124665E-04;  5.4525070E+01;
  3.2361392E-02;  9.9999998E-03; -4.0002234E-02;2655; -1.4686777E-03;  0.0000000E+00; -5.1685431E-05;  9.9694513E+02;  1.0000000E-01; -2.5308914E+03;3; -2.4646336E+01;  0.0000000E+00; -2.4868947E-01;0; -2.1110877E-02;  3.9762977E+04;  0.0000000E+00; -3.5956453E-03;  4.0000000E+04;  0.0000000E+00;  3.9997664E+04; -2.1824040E-02;  0.0000000E+00;  7.1316224E-04;  5.6055460E+00;
  3.2349568E-02;  9.9999998E-03; -3.0003024E-02;2656; -1.4841951E-03;  0.0000000E+00; -4.3195239E-05;  9.9693933E+02;  1.0000000E-01; -2.5357307E+03;3; -2.4359459E+01;  0.0000000E+00; -2.2207908E-01;0; -2.1131041E-02;  3.9762402E+04;  0.0000000E+00; -2.0992362E-03;  4.0000000E+04;  0.0000000E+00;  3.9998648E+04; -2.1867260E-02;  0.0000000E+00;  7.3621928E-04;  6.0492851E+01;
  3.2340016E-02;  9.9999998E-03; -2.0002801E-02;2657; -1.4955258E-03;  0.0000000E+00; -3.1185315E-05;  9.9694116E+02;  1.0000000E-01; -2.5342000E+03;3; -2.4147331E+01;  0.0000000E+00; -1.6589762E-01;0; -2.1144491E-02;  3.9762129E+04;  0.0000000E+00; -9.6838229E-04;  4.0000000E+04;  0.0000000E+00;  3.9998578E+04; -2.1901337E-02;  0.0000000E+00;  7.5684750E-04;  1.1044712E+02;
  3.2333836E-02;  9.9999998E-03; -1.0001666E-02;2658; -1.5023232E-03;  0.0000000E+00; -1.6376860E-05;  9.9694342E+02;  1.0000000E-01; -2.5323235E+03;3; -2.4009808E+01;  0.0000000E+00; -8.8509843E-02;0; -2.1152018E-02;  3.9761992E+04;  0.0000000E+00; -2.4867474E-04;  4.0000000E+04;  0.0000000E+00;  3.9999180E+04; -2.1923214E-02;  0.0000000E+00;  7.7119691E-04;  1.4384094E+02;
  3.2331701E-02;  9.9999998E-03; -1.2265412E-10;2659; -1.5045754E-03;  0.0000000E+00; -1.7186950E-09;  9.9694427E+02;  1.0000000E-01; -2.5316321E+03;3; -2.3961529E+01;  0.0000000E+00;  3.9903107E-06;0; -2.1154417E-02;  3.9761777E+04;  0.0000000E+00;  4.1618068E-13;  4.0000000E+04;  0.0000000E+00;  3.9999234E+04; -2.1930762E-02;  0.0000000E+00;  7.7634415E-04;  1.5554506E+02;
  3.2333840E-02;  9.9999998E-03;  1.0001666E-02;2660; -1.5023223E-03;  0.0000000E+00;  1.6374088E-05;  9.9694330E+02;  1.0000000E-01; -2.5324221E+03;3; -2.4009161E+01;  0.0000000E+00;  8.8529974E-02;0; -2.1152012E-02;  3.9761992E+04;  0.0000000E+00; -2.4860888E-04;  4.0000000E+04;  0.0000000E+00;  3.9999180E+04; -2.1923210E-02;  0.0000000E+00;  7.7119831E-04;  1.4384454E+02;
  3.2340016E-02;  9.9999998E-03;  2.0002801E-02;2661; -1.4955259E-03;  0.0000000E+00;  3.1181324E-05;  9.9694128E+02;  1.0000000E-01; -2.5341011E+03;3; -2.4147928E+01;  0.0000000E+00;  1.6590509E-01;0; -2.1144504E-02;  3.9762125E+04;  0.0000000E+00; -9.6820702E-04;  4.0000000E+04;  0.0000000E+00;  3.9998578E+04; -2.1901354E-02;  0.0000000E+00;  7.5684959E-04;  1.1045143E+02;
  3.2349572E-02;  9.9999998E-03;  3.0003022E-02;2662; -1.4841923E-03;  0.0000000E+00;  4.3191736E-05;  9.9693927E+02;  1.0000000E-01; -2.5357800E+03;3; -2.4359119E+01;  0.0000000E+00;  2.2208333E-01;0; -2.1131039E-02;  3.9762398E+04;  0.0000000E+00; -2.0988546E-03;  4.0000000E+04;  0.0000000E+00;  3.9998648E+04; -2.1867260E-02;  0.0000000E+00;  7.3622202E-04;  6.0498035E+01;
  3.2361396E-02;  9.9999998E-03;  4.0002234E-02;2663; -1.4686743E-03;  0.0000000E+00;  5.1681560E-05;  9.9694507E+02;  1.0000000E-01; -2.5309407E+03;3; -2.4645994E+01;  0.0000000E+00;  2.4869728E-01;0; -2.1110909E-02;  3.9762984E+04;  0.0000000E+00; -3.5959214E-03;  4.0000000E+04;  0.0000000E+00;  3.9997660E+04; -2.1824077E-02;  0.0000000E+00;  7.1316765E-04;  5.6083531E+00;
  3.2374196E-02;  9.9999998E-03;  5.0000608E-02;2664; -1.4496241E-03;  0.0000000E+00;  5.6887249E-05;  9.9695166E+02;  1.0000000E-01; -2.5255088E+03;3; -2.4921795E+01;  0.0000000E+00;  2.4034308E-01;0; -2.1084107E-02;  3.9763941E+04;  0.0000000E+00; -5.4776450E-03;  4.0000000E+04;  0.0000000E+00;  3.9997719E+04; -2.1775361E-02;  0.0000000E+00;  6.9125323E-04;  5.4520569E+01;
  3.2386277E-02;  9.9999998E-03;  5.9998453E-02;2665; -1.4285237E-03;  0.0000000E+00;  5.9629805E-05;  9.9696130E+02;  1.0000000E-01; -2.5175090E+03;3; -2.5148872E+01;  0.0000000E+00;  1.9390813E-01;0; -2.1052007E-02;  3.9765309E+04;  0.0000000E+00; -7.8733023E-03;  4.0000000E+04;  0.0000000E+00;  3.9997926E+04; -2.1724634E-02;  0.0000000E+00;  6.7262771E-04;  9.6880127E+01;
  4.1906886E-02;  9.9999998E-03; -9.9998802E-02;2710; -1.8469092E-03;  0.0000000E+00; -7.7191529E-05;  1.0002386E+03;  1.0000000E-01;  1.9772281E+02;3; -4.0113811E+01;  0.0000000E+00;  2.9343757E-01;0; -2.0682754E-02;  4.0029336E+04;  0.0000000E+00; -3.3846676E-02;  4.0000000E+04;  0.0000000E+00;  3.9998312E+04; -2.1324208E-02;  0.0000000E+00;  6.4145349E-04;  2.1469562E+02;
  4.1912343E-02;  9.9999998E-03; -9.0000540E-02;2711; -1.8494093E-03;  0.0000000E+00; -6.9685761E-05;  1.0002039E+03;  1.0000000E-01;  1.6898288E+02;3; -4.0321022E+01;  0.0000000E+00;  1.4019011E-01;0; -2.0713381E-02;  4.0027027E+04;  0.0000000E+00; -2.2781122E-02;  4.0000000E+04;  0.0000000E+00;  3.9998055E+04; -2.1384550E-02;  0.0000000E+00;  6.7116856E-04;  2.9642148E+02;
  4.1913293E-02;  9.9999998E-03; -8.0002002E-02;2712; -1.8620947E-03;  0.0000000E+00; -6.4726213E-05;  1.0001611E+03;  1.0000000E-01;  1.3342833E+02;3; -4.0401325E+01;  0.0000000E+00;  1.7569013E-02;0; -2.0747639E-02;  4.0024715E+04;  0.0000000E+00; -1.5638206E-02;  4.0000000E+04;  0.0000000E+00;  3.9997820E+04; -2.1438858E-02;  0.0000000E+00;  6.9121888E-04;  3.6438116E+02;
  4.1909300E-02;  9.9999998E-03; -7.0003182E-02;2713; -1.8818249E-03;  0.0000000E+00; -6.1920335E-05;  1.0001293E+03;  1.0000000E-01;  1.0715746E+02;3; -4.0394875E+01;  0.0000000E+00; -7.5721227E-02;0; -2.0783976E-02;  4.0022078E+04;  0.0000000E+00; -1.0870303E-02;  4.0000000E+04;  0.0000000E+00;  3.9997543E+04; -2.1490205E-02;  0.0000000E+00;  7.0623012E-04;  3.9916284E+02;
  4.1901350E-02;  9.9999998E-03; -6.0004238E-02;2714; -1.9049976E-03;  0.0000000E+00; -6.0219161E-05;  1.0001052E+03;  1.0000000E-01;  8.7108650E+01;3; -4.0273064E+01;  0.0000000E+00; -1.4015476E-01;0; -2.0818997E-02;  4.0019891E+04;  0.0000000E+00; -7.5666602E-03;  4.0000000E+04;  0.0000000E+00;  3.9997145E+04; -2.1539822E-02;  0.0000000E+00;  7.2082510E-04;  3.9378098E+02;
  4.1890718E-02;  9.9999998E-03; -5.0005112E-02;2715; -1.9283704E-03;  0.0000000E+00; -5.7954010E-05;  1.0000877E+03;  1.0000000E-01;  7.2689301E+01;3; -4.0052071E+01;  0.0000000E+00; -1.7584288E-01;0; -2.0849224E-02;  4.0018230E+04;  0.0000000E+00; -5.1803947E-03;  4.0000000E+04;  0.0000000E+00;  3.9997922E+04; -2.1587335E-02;  0.0000000E+00;  7.3811004E-04;  3.5239633E+02;
  4.1879095E-02;  9.9999998E-03; -4.0005531E-02;2716; -1.9495140E-03;  0.0000000E+00; -5.3277570E-05;  1.0000781E+03;  1.0000000E-01;  6.4689529E+01;3; -3.9780418E+01;  0.0000000E+00; -1.8315782E-01;0; -2.0872332E-02;  4.0017020E+04;  0.0000000E+00; -3.3756357E-03;  4.0000000E+04;  0.0000000E+00;  3.9997996E+04; -2.1631101E-02;  0.0000000E+00;  7.5876992E-04;  2.8725577E+02;
  4.1868154E-02;  9.9999998E-03; -3.0005243E-02;2717; -1.9667982E-03;  0.0000000E+00; -4.5031094E-05;  1.0000737E+03;  1.0000000E-01;  6.1035313E+01;3; -3.9503548E+01;  0.0000000E+00; -1.6423492E-01;0; -2.0887839E-02;  4.0016164E+04;  0.0000000E+00; -1.9705766E-03;  4.0000000E+04;  0.0000000E+00;  3.9998961E+04; -2.1668848E-02;  0.0000000E+00;  7.8100822E-04;  2.1447679E+02;
  4.1859273E-02;  9.9999998E-03; -2.0004101E-02;2718; -1.9793848E-03;  0.0000000E+00; -3.2778524E-05;  1.0000740E+03;  1.0000000E-01;  6.1331600E+01;3; -3.9274441E+01;  0.0000000E+00; -1.2298541E-01;0; -2.0896854E-02;  4.0015637E+04;  0.0000000E+00; -9.1214344E-04;  4.0000000E+04;  0.0000000E+00;  3.9998984E+04; -2.1698138E-02;  0.0000000E+00;  8.0128381E-04;  1.4975343E+02;
  4.1853543E-02;  9.9999998E-03; -1.0002240E-02;2719; -1.9869213E-03;  0.0000000E+00; -1.7252254E-05;  1.0000729E+03;  1.0000000E-01;  6.0343971E+01;3; -3.9112267E+01;  0.0000000E+00; -6.5605432E-02;0; -2.0901129E-02;  4.0015121E+04;  0.0000000E+00; -2.3507111E-04;  4.0000000E+04;  0.0000000E+00;  3.9999273E+04; -2.1716695E-02;  0.0000000E+00;  8.1556651E-04;  1.0564584E+02;
  4.1851539E-02;  9.9999998E-03; -1.5925039E-10;2720; -1.9894482E-03;  0.0000000E+00; -1.5439828E-09;  1.0000750E+03;  1.0000000E-01;  6.2121700E+01;3; -3.9065983E+01;  0.0000000E+00;  5.8894266E-06;0; -2.0902354E-02;  4.0015059E+04;  0.0000000E+00; -4.3431534E-13;  4.0000000E+04;  0.0000000E+00;  3.9999266E+04; -2.1723075E-02;  0.0000000E+00;  8.2072138E-04;  9.0074974E+01;
  4.1853543E-02;  9.9999998E-03;  1.0002239E-02;2721; -1.9869241E-03;  0.0000000E+00;  1.7248864E-05;  1.0000728E+03;  1.0000000E-01;  6.0343971E+01;3; -3.9112244E+01;  0.0000000E+00;  6.5612167E-02;0; -2.0901127E-02;  4.0015117E+04;  0.0000000E+00; -2.3501263E-04;  4.0000000E+04;  0.0000000E+00;  3.9999273E+04; -2.1716693E-02;  0.0000000E+00;  8.1556680E-04;  1.0564307E+02;
  4.1859277E-02;  9.9999998E-03;  2.0004101E-02;2722; -1.9793876E-03;  0.0000000E+00;  3.2775741E-05;  1.0000740E+03;  1.0000000E-01;  6.1331600E+01;3; -3.9274479E+01;  0.0000000E+00;  1.2299464E-01;0; -2.0896867E-02;  4.0015641E+04;  0.0000000E+00; -9.1196765E-04;  4.0000000E+04;  0.0000000E+00;  3.9998984E+04; -2.1698153E-02;  0.0000000E+00;  8.0128625E-04;  1.4975278E+02;
  4.1868158E-02;  9.9999998E-03;  3.0005243E-02;2723; -1.9667980E-03;  0.0000000E+00;  4.5027420E-05;  1.0000737E+03;  1.0000000E-01;  6.1035313E+01;3; -3.9503426E+01;  0.0000000E+00;  1.6424717E-01;0; -2.0887854E-02;  4.0016164E+04;  0.0000000E+00; -1.9703903E-03;  4.0000000E+04;  0.0000000E+00;  3.9998961E+04; -2.1668864E-02;  0.0000000E+00;  7.8101101E-04;  2.1446587E+02;
  4.1879095E-02;  9.9999998E-03;  4.0005531E-02;2724; -1.9495068E-03;  0.0000000E+00;  5.3274718E-05;  1.0000781E+03;  1.0000000E-01;  6.4689529E+01;3; -3.9780327E+01;  0.0000000E+00;  1.8315907E-01;0; -2.0872347E-02;  4.0017020E+04;  0.0000000E+00; -3.3758115E-03;  4.0000000E+04;  0.0000000E+00;  3.9997992E+04; -2.1631122E-02;  0.0000000E+00;  7.5877394E-04;  2.8725241E+02;
  4.1890722E-02;  9.9999998E-03;  5.0005112E-02;2725; -1.9283681E-03;  0.0000000E+00;  5.7950361E-05;  1.0000877E+03;  1.0000000E-01;  7.2689301E+01;3; -4.0052055E+01;  0.0000000E+00;  1.7583714E-01;0; -2.0849213E-02;  4.0018227E+04;  0.0000000E+00; -5.1800068E-03;  4.0000000E+04;  0.0000000E+00;  3.9997926E+04; -2.1587327E-02;  0.0000000E+00;  7.3811441E-04;  3.5238733E+02;
  4.1901354E-02;  9.9999998E-03;  6.0004238E-02;2726; -1.9049919E-03;  0.0000000E+00;  6.0216455E-05;  1.0001052E+03;  1.0000000E-01;  8.7108650E+01;3; -4.0273071E+01;  0.0000000E+00;  1.4015348E-01;0; -2.0819023E-02;  4.0019902E+04;  0.0000000E+00; -7.5669792E-03;  4.0000000E+04;  0.0000000E+00;  3.9997145E+04; -2.1539856E-02;  0.0000000E+00;  7.2083197E-04;  3.9377585E+02;
  5.1504225E-02;  9.9999998E-03; -1.0001331E-01;2771; -2.1640877E-03;  0.0000000E+00; -8.2576618E-05;  1.0025172E+03;  1.0000000E-01;  2.0853730E+03;3; -4.2742470E+01;  0.0000000E+00;  2.1110009E-01;0; -1.9887555E-02;  4.0215508E+04;  0.0000000E+00; -2.9441278E-02;  4.0000000E+04;  0.0000000E+00;  3.9999926E+04; -2.0559303E-02;  0.0000000E+00;  6.7174714E-04;  2.6684100E+02;
  5.1511284E-02;  9.9999998E-03; -9.0012826E-02;2772; -2.1673373E-03;  0.0000000E+00; -7.1883333E-05;  1.0024752E+03;  1.0000000E-01;  2.0507075E+03;3; -4.2991623E+01;  0.0000000E+00;  1.0153768E-01;0; -1.9923085E-02;  4.0213133E+04;  0.0000000E+00; -1.8979598E-02;  4.0000000E+04;  0.0000000E+00;  3.9998633E+04; -2.0630920E-02;  0.0000000E+00;  7.0783490E-04;  3.9523663E+02;
  5.1513508E-02;  9.9999998E-03; -8.0011487E-02;2773; -2.1813861E-03;  0.0000000E+00; -6.4491658E-05;  1.0024269E+03;  1.0000000E-01;  2.0106097E+03;3; -4.3124310E+01;  0.0000000E+00;  1.4285498E-02;0; -1.9962315E-02;  4.0210453E+04;  0.0000000E+00; -1.2142414E-02;  4.0000000E+04;  0.0000000E+00;  3.9997781E+04; -2.0692874E-02;  0.0000000E+00;  7.3055993E-04;  5.0144254E+02;
  5.1510606E-02;  9.9999998E-03; -7.0009813E-02;2774; -2.2029460E-03;  0.0000000E+00; -6.0205501E-05;  1.0023904E+03;  1.0000000E-01;  1.9803884E+03;3; -4.3156776E+01;  0.0000000E+00; -5.1437449E-02;0; -2.0002127E-02;  4.0208070E+04;  0.0000000E+00; -7.7696983E-03;  4.0000000E+04;  0.0000000E+00;  3.9997805E+04; -2.0747617E-02;  0.0000000E+00;  7.4548944E-04;  5.6086450E+02;
  5.1503468E-02;  9.9999998E-03; -6.0008507E-02;2775; -2.2281131E-03;  0.0000000E+00; -5.8102760E-05;  1.0023622E+03;  1.0000000E-01;  1.9570804E+03;3; -4.3063904E+01;  0.0000000E+00; -9.7105235E-02;0; -2.0038191E-02;  4.0205664E+04;  0.0000000E+00; -5.0196061E-03;  4.0000000E+04;  0.0000000E+00;  3.9997621E+04; -2.0796565E-02;  0.0000000E+00;  7.5837411E-04;  5.6483112E+02;
  5.1493481E-02;  9.9999998E-03; -5.0007682E-02;2776; -2.2534325E-03;  0.0000000E+00; -5.6471272E-05;  1.0023438E+03;  1.0000000E-01;  1.9417722E+03;3; -4.2869625E+01;  0.0000000E+00; -1.2308571E-01;0; -2.0066740E-02;  4.0203797E+04;  0.0000000E+00; -3.2743057E-03;  4.0000000E+04;  0.0000000E+00;  3.9997770E+04; -2.0840107E-02;  0.0000000E+00;  7.7336706E-04;  5.1916833E+02;
  5.1482413E-02;  9.9999998E-03; -4.0006988E-02;2777; -2.2763035E-03;  0.0000000E+00; -5.3065989E-05;  1.0023349E+03;  1.0000000E-01;  1.9344639E+03;3; -4.2619488E+01;  0.0000000E+00; -1.2930915E-01;0; -2.0085931E-02;  4.0202188E+04;  0.0000000E+00; -2.0986104E-03;  4.0000000E+04;  0.0000000E+00;  3.9998410E+04; -2.0877860E-02;  0.0000000E+00;  7.9192937E-04;  4.4030298E+02;
  5.1471893E-02;  9.9999998E-03; -3.0005980E-02;2778; -2.2950356E-03;  0.0000000E+00; -4.5962061E-05;  1.0023343E+03;  1.0000000E-01;  1.9338712E+03;3; -4.2366058E+01;  0.0000000E+00; -1.1693607E-01;0; -2.0096252E-02;  4.0201508E+04;  0.0000000E+00; -1.2334237E-03;  4.0000000E+04;  0.0000000E+00;  3.9999383E+04; -2.0908931E-02;  0.0000000E+00;  8.1268017E-04;  3.4948563E+02;
  5.1463384E-02;  9.9999998E-03; -2.0004446E-02;2779; -2.3085959E-03;  0.0000000E+00; -3.4163721E-05;  1.0023362E+03;  1.0000000E-01;  1.9354514E+03;3; -4.2146027E+01;  0.0000000E+00; -8.8288777E-02;0; -2.0100135E-02;  4.0200836E+04;  0.0000000E+00; -5.8026443E-04;  4.0000000E+04;  0.0000000E+00;  3.9999562E+04; -2.0932272E-02;  0.0000000E+00;  8.3213591E-04;  2.6770129E+02;
  5.1457889E-02;  9.9999998E-03; -1.0002383E-02;2780; -2.3166901E-03;  0.0000000E+00; -1.8157762E-05;  1.0023365E+03;  1.0000000E-01;  1.9357477E+03;3; -4.1991570E+01;  0.0000000E+00; -4.7174852E-02;0; -2.0100731E-02;  4.0200465E+04;  0.0000000E+00; -1.5162569E-04;  4.0000000E+04;  0.0000000E+00;  3.9999766E+04; -2.0946816E-02;  0.0000000E+00;  8.4608421E-04;  2.1163506E+02;
  5.1455997E-02;  9.9999998E-03; -1.8390239E-10;2781; -2.3193923E-03;  0.0000000E+00; -1.4495404E-09;  1.0023385E+03;  1.0000000E-01;  1.9374266E+03;3; -4.1942875E+01;  0.0000000E+00;  8.7061426E-07;0; -2.0100597E-02;  4.0200398E+04;  0.0000000E+00; -8.6247833E-13;  4.0000000E+04;  0.0000000E+00;  4.0000227E+04; -2.0951759E-02;  0.0000000E+00;  8.5116149E-04;  1.9175639E+02;
  5.1457889E-02;  9.9999998E-03;  1.0002383E-02;2782; -2.3166919E-03;  0.0000000E+00;  1.8155306E-05;  1.0023365E+03;  1.0000000E-01;  1.9357477E+03;3; -4.1991566E+01;  0.0000000E+00;  4.7180101E-02;0; -2.0100743E-02;  4.0200465E+04;  0.0000000E+00; -1.5153366E-04;  4.0000000E+04;  0.0000000E+00;  3.9999766E+04; -2.0946827E-02;  0.0000000E+00;  8.4608485E-04;  2.1163631E+02;
  5.1463384E-02;  9.9999998E-03;  2.0004444E-02;2783; -2.3085971E-03;  0.0000000E+00;  3.4160999E-05;  1.0023362E+03;  1.0000000E-01;  1.9354514E+03;3; -4.2146061E+01;  0.0000000E+00;  8.8298723E-02;0; -2.0100160E-02;  4.0200836E+04;  0.0000000E+00; -5.8020843E-04;  4.0000000E+04;  0.0000000E+00;  3.9999562E+04; -2.0932296E-02;  0.0000000E+00;  8.3213748E-04;  2.6769556E+02;
  5.1471893E-02;  9.9999998E-03;  3.0005980E-02;2784; -2.2950366E-03;  0.0000000E+00;  4.5959441E-05;  1.0023342E+03;  1.0000000E-01;  1.9338712E+03;3; -4.2365646E+01;  0.0000000E+00;  1.1693869E-01;0; -2.0096261E-02;  4.0201512E+04;  0.0000000E+00; -1.2331984E-03;  4.0000000E+04;  0.0000000E+00;  3.9999383E+04; -2.0908944E-02;  0.0000000E+00;  8.1268238E-04;  3.4948495E+02;
  5.1482413E-02;  9.9999998E-03;  4.0006988E-02;2785; -2.2762993E-03;  0.0000000E+00;  5.3061947E-05;  1.0023350E+03;  1.0000000E-01;  1.9344639E+03;3; -4.2619457E+01;  0.0000000E+00;  1.2932028E-01;0; -2.0085946E-02;  4.0202191E+04;  0.0000000E+00; -2.0981971E-03;  4.0000000E+04;  0.0000000E+00;  3.9998414E+04; -2.0877877E-02;  0.0000000E+00;  7.9193100E-04;  4.4029016E+02;
  5.1493481E-02;  9.9999998E-03;  5.0007682E-02;2786; -2.2534307E-03;  0.0000000E+00;  5.6468969E-05;  1.0023438E+03;  1.0000000E-01;  1.9417722E+03;3; -4.2869659E+01;  0.0000000E+00;  1.2310111E-01;0; -2.0066764E-02;  4.0203797E+04;  0.0000000E+00; -3.2738217E-03;  4.0000000E+04;  0.0000000E+00;  3.9997770E+04; -2.0840134E-02;  0.0000000E+00;  7.7337044E-04;  5.1916718E+02;
  5.1503468E-02;  9.9999998E-03;  6.0008507E-02;2787; -2.2281157E-03;  0.0000000E+00;  5.8101057E-05;  1.0023622E+03;  1.0000000E-01;  1.9570804E+03;3; -4.3063900E+01;  0.0000000E+00;  9.7137854E-02;0; -2.0038204E-02;  4.0205668E+04;  0.0000000E+00; -5.0190706E-03;  4.0000000E+04;  0.0000000E+00;  3.9997621E+04; -2.0796582E-02;  0.0000000E+00;  7.5837760E-04;  5.6482587E+02;
  6.1200980E-02;  9.9999998E-03; -1.0003222E-01;2832; -2.3384932E-03;  0.0000000E+00; -8.3377803E-05;  1.0037902E+03;  1.0000000E-01;  3.1401582E+03;3; -3.7142029E+01;  0.0000000E+00;  1.4769742E-01;0; -1.8682655E-02;  4.0321105E+04;  0.0000000E+00; -2.0704711E-02;  4.0000000E+04;  0.0000000E+00;  4.0001441E+04; -1.9375637E-02;  0.0000000E+00;  6.9298130E-04;  1.8844044E+02;
  6.1207902E-02;  9.9999998E-03; -9.0027198E-02;2833; -2.3437066E-03;  0.0000000E+00; -6.5239692E-05;  1.0037406E+03;  1.0000000E-01;  3.0989741E+03;3; -3.7389191E+01;  0.0000000E+00;  7.6074980E-02;0; -1.8726202E-02;  4.0318836E+04;  0.0000000E+00; -1.1459016E-02;  4.0000000E+04;  0.0000000E+00;  3.9999844E+04; -1.9460775E-02;  0.0000000E+00;  7.3457271E-04;  3.5962119E+02;
  6.1210066E-02;  9.9999998E-03; -8.0021560E-02;2834; -2.3595165E-03;  0.0000000E+00; -5.3507152E-05;  1.0036978E+03;  1.0000000E-01;  3.0636169E+03;3; -3.7560364E+01;  0.0000000E+00;  1.8077347E-02;0; -1.8772746E-02;  4.0316016E+04;  0.0000000E+00; -5.6265364E-03;  4.0000000E+04;  0.0000000E+00;  3.9999371E+04; -1.9531857E-02;  0.0000000E+00;  7.5911154E-04;  4.9910144E+02;
  6.1207484E-02;  9.9999998E-03; -7.0016116E-02;2835; -2.3820545E-03;  0.0000000E+00; -4.8996393E-05;  1.0036620E+03;  1.0000000E-01;  3.0338894E+03;3; -3.7612362E+01;  0.0000000E+00; -2.7915008E-02;0; -1.8817626E-02;  4.0313602E+04;  0.0000000E+00; -2.3716479E-03;  4.0000000E+04;  0.0000000E+00;  3.9998316E+04; -1.9590765E-02;  0.0000000E+00;  7.7313988E-04;  5.7714789E+02;
  6.1200805E-02;  9.9999998E-03; -6.0011763E-02;2836; -2.4078044E-03;  0.0000000E+00; -4.9667560E-05;  1.0036395E+03;  1.0000000E-01;  3.0153220E+03;3; -3.7552437E+01;  0.0000000E+00; -6.1124168E-02;0; -1.8855512E-02;  4.0311441E+04;  0.0000000E+00; -8.3494157E-04;  4.0000000E+04;  0.0000000E+00;  3.9998027E+04; -1.9639064E-02;  0.0000000E+00;  7.8355137E-04;  5.8421277E+02;
  6.1191268E-02;  9.9999998E-03; -5.0008882E-02;2837; -2.4340323E-03;  0.0000000E+00; -5.1961080E-05;  1.0036271E+03;  1.0000000E-01;  3.0050508E+03;3; -3.7395954E+01;  0.0000000E+00; -8.0543779E-02;0; -1.8882465E-02;  4.0310102E+04;  0.0000000E+00; -2.7115078E-04;  4.0000000E+04;  0.0000000E+00;  3.9998543E+04; -1.9678012E-02;  0.0000000E+00;  7.9554599E-04;  5.2885675E+02;
  6.1180372E-02;  9.9999998E-03; -4.0007066E-02;2838; -2.4583149E-03;  0.0000000E+00; -5.2978845E-05;  1.0036226E+03;  1.0000000E-01;  3.0012979E+03;3; -3.7180798E+01;  0.0000000E+00; -8.7184668E-02;0; -1.8897332E-02;  4.0309047E+04;  0.0000000E+00; -1.3855034E-04;  4.0000000E+04;  0.0000000E+00;  3.9999410E+04; -1.9708700E-02;  0.0000000E+00;  8.1136846E-04;  4.3215936E+02;
  6.1169781E-02;  9.9999998E-03; -3.0005757E-02;2839; -2.4789574E-03;  0.0000000E+00; -4.9682647E-05;  1.0036211E+03;  1.0000000E-01;  3.0000139E+03;3; -3.6948467E+01;  0.0000000E+00; -8.1172690E-02;0; -1.8901866E-02;  4.0308383E+04;  0.0000000E+00; -1.1731571E-04;  4.0000000E+04;  0.0000000E+00;  4.0000066E+04; -1.9731952E-02;  0.0000000E+00;  8.3008641E-04;  3.2089255E+02;
  6.1161045E-02;  9.9999998E-03; -2.0004328E-02;2840; -2.4946849E-03;  0.0000000E+00; -3.9376471E-05;  1.0036260E+03;  1.0000000E-01;  3.0040632E+03;3; -3.6759357E+01;  0.0000000E+00; -6.2522806E-02;0; -1.8899981E-02;  4.0307930E+04;  0.0000000E+00; -7.9763115E-05;  4.0000000E+04;  0.0000000E+00;  4.0000695E+04; -1.9748293E-02;  0.0000000E+00;  8.4831228E-04;  2.2089171E+02;
  6.1155315E-02;  9.9999998E-03; -1.0002404E-02;2841; -2.5046393E-03;  0.0000000E+00; -2.2038630E-05;  1.0036329E+03;  1.0000000E-01;  3.0097915E+03;3; -3.6639820E+01;  0.0000000E+00; -3.3788841E-02;0; -1.8896302E-02;  4.0307711E+04;  0.0000000E+00; -2.5781173E-05;  4.0000000E+04;  0.0000000E+00;  4.0001504E+04; -1.9757986E-02;  0.0000000E+00;  8.6168369E-04;  1.5254271E+02;
  6.1153322E-02;  9.9999998E-03; -2.0756084E-10;2842; -2.5081241E-03;  0.0000000E+00; -1.9312880E-09;  1.0036341E+03;  1.0000000E-01;  3.0107791E+03;3; -3.6595310E+01;  0.0000000E+00;  4.1659632E-06;0; -1.8894579E-02;  4.0307484E+04;  0.0000000E+00; -5.0330047E-13;  4.0000000E+04;  0.0000000E+00;  4.0001582E+04; -1.9761182E-02;  0.0000000E+00;  8.6660252E-04;  1.2834712E+02;
  6.1155315E-02;  9.9999998E-03;  1.0002404E-02;2843; -2.5046407E-03;  0.0000000E+00;  2.2036191E-05;  1.0036329E+03;  1.0000000E-01;  3.0097915E+03;3; -3.6639839E+01;  0.0000000E+00;  3.3817071E-02;0; -1.8896298E-02;  4.0307715E+04;  0.0000000E+00; -2.5747939E-05;  4.0000000E+04;  0.0000000E+00;  4.0001504E+04; -1.9757982E-02;  0.0000000E+00;  8.6168404E-04;  1.5254317E+02;
  6.1161049E-02;  9.9999998E-03;  2.0004328E-02;2844; -2.4946784E-03;  0.0000000E+00;  3.9373863E-05;  1.0036260E+03;  1.0000000E-01;  3.0040632E+03;3; -3.6759247E+01;  0.0000000E+00;  6.2506557E-02;0; -1.8899987E-02;  4.0307930E+04;  0.0000000E+00; -7.9560952E-05;  4.0000000E+04;  0.0000000E+00;  4.0000695E+04; -1.9748300E-02;  0.0000000E+00;  8.4831292E-04;  2.2088083E+02;
  6.1169781E-02;  9.9999998E-03;  3.0005757E-02;2845; -2.4789581E-03;  0.0000000E+00;  4.9682480E-05;  1.0036211E+03;  1.0000000E-01;  3.0000139E+03;3; -3.6948540E+01;  0.0000000E+00;  8.1186920E-02;0; -1.8901883E-02;  4.0308383E+04;  0.0000000E+00; -1.1702377E-04;  4.0000000E+04;  0.0000000E+00;  4.0000066E+04; -1.9731969E-02;  0.0000000E+00;  8.3008595E-04;  3.2088611E+02;
  6.1180376E-02;  9.9999998E-03;  4.0007066E-02;2846; -2.4583153E-03;  0.0000000E+00;  5.2978798E-05;  1.0036226E+03;  1.0000000E-01;  3.0011990E+03;3; -3.7180855E+01;  0.0000000E+00;  8.7219685E-02;0; -1.8897355E-02;  4.0309047E+04;  0.0000000E+00; -1.3834327E-04;  4.0000000E+04;  0.0000000E+00;  3.9999410E+04; -1.9708725E-02;  0.0000000E+00;  8.1137009E-04;  4.3215521E+02;
  6.1191272E-02;  9.9999998E-03;  5.0008882E-02;2847; -2.4340255E-03;  0.0000000E+00;  5.1961026E-05;  1.0036272E+03;  1.0000000E-01;  3.0050508E+03;3; -3.7396206E+01;  0.0000000E+00;  8.0554001E-02;0; -1.8882476E-02;  4.0310109E+04;  0.0000000E+00; -2.7061120E-04;  4.0000000E+04;  0.0000000E+00;  3.9998543E+04; -1.9678023E-02;  0.0000000E+00;  7.9554599E-04;  5.2885168E+02;
  6.1200805E-02;  9.9999998E-03;  6.0011763E-02;2848; -2.4077997E-03;  0.0000000E+00;  4.9665865E-05;  1.0036395E+03;  1.0000000E-01;  3.0152234E+03;3; -3.7552002E+01;  0.0000000E+00;  6.1148323E-02;0; -1.8855516E-02;  4.0311445E+04;  0.0000000E+00; -8.3388103E-04;  4.0000000E+04;  0.0000000E+00;  3.9998027E+04; -1.9639071E-02;  0.0000000E+00;  7.8355428E-04;  5.8419824E+02;
  7.1007363E-02;  9.9999998E-03; -1.0005155E-01;2893; -2.4105557E-03;  0.0000000E+00; -7.9587255E-05;  1.0041262E+03;  1.0000000E-01;  3.4184712E+03;3; -2.7861629E+01;  0.0000000E+00;  9.7877875E-02;0; -1.7270578E-02;  4.0349273E+04;  0.0000000E+00; -9.9136420E-03;  4.0000000E+04;  0.0000000E+00;  4.0003520E+04; -1.7973140E-02;  0.0000000E+00;  7.0256239E-04;  2.8264986E+01;
  7.1012765E-02;  9.9999998E-03; -9.0041794E-02;2894; -2.4148587E-03;  0.0000000E+00; -5.4277945E-05;  1.0040786E+03;  1.0000000E-01;  3.3790649E+03;3; -2.8082970E+01;  0.0000000E+00;  5.3536866E-02;0; -1.7325502E-02;  4.0346871E+04;  0.0000000E+00; -2.5456392E-03;  4.0000000E+04;  0.0000000E+00;  4.0001805E+04; -1.8074322E-02;  0.0000000E+00;  7.4882014E-04;  1.8505251E+02;
  7.1014151E-02;  9.9999998E-03; -8.0031827E-02;2895; -2.4302979E-03;  0.0000000E+00; -4.1983600E-05;  1.0040373E+03;  1.0000000E-01;  3.3447942E+03;3; -2.8234674E+01;  0.0000000E+00;  1.5488234E-02;0; -1.7381541E-02;  4.0344562E+04;  0.0000000E+00;  1.6492623E-03;  4.0000000E+04;  0.0000000E+00;  4.0000559E+04; -1.8156122E-02;  0.0000000E+00;  7.7458133E-04;  3.5127872E+02;
  7.1011283E-02;  9.9999998E-03; -7.0022792E-02;2896; -2.4526943E-03;  0.0000000E+00; -3.8730253E-05;  1.0040087E+03;  1.0000000E-01;  3.3211899E+03;3; -2.8291380E+01;  0.0000000E+00; -1.4826464E-02;0; -1.7432429E-02;  4.0343137E+04;  0.0000000E+00;  3.3078161E-03;  4.0000000E+04;  0.0000000E+00;  3.9999750E+04; -1.8219732E-02;  0.0000000E+00;  7.8730338E-04;  4.4138550E+02;
  7.1004696E-02;  9.9999998E-03; -6.0015630E-02;2897; -2.4787684E-03;  0.0000000E+00; -4.1455041E-05;  1.0039960E+03;  1.0000000E-01;  3.3106223E+03;3; -2.8255106E+01;  0.0000000E+00; -3.6586527E-02;0; -1.7472172E-02;  4.0341926E+04;  0.0000000E+00;  3.3386364E-03;  4.0000000E+04;  0.0000000E+00;  3.9999766E+04; -1.8267078E-02;  0.0000000E+00;  7.9490640E-04;  4.4595660E+02;
  7.0995383E-02;  9.9999998E-03; -5.0010800E-02;2898; -2.5057057E-03;  0.0000000E+00; -4.6390145E-05;  1.0039930E+03;  1.0000000E-01;  3.3081533E+03;3; -2.8135344E+01;  0.0000000E+00; -4.9641434E-02;0; -1.7497111E-02;  4.0341121E+04;  0.0000000E+00;  2.5937622E-03;  4.0000000E+04;  0.0000000E+00;  4.0000172E+04; -1.8300653E-02;  0.0000000E+00;  8.0354122E-04;  3.7673080E+02;
  7.0984744E-02;  9.9999998E-03; -4.0008035E-02;2899; -2.5315217E-03;  0.0000000E+00; -5.0461163E-05;  1.0040004E+03;  1.0000000E-01;  3.3142766E+03;3; -2.7974287E+01;  0.0000000E+00; -5.5582814E-02;0; -1.7507076E-02;  4.0340566E+04;  0.0000000E+00;  1.6746756E-03;  4.0000000E+04;  0.0000000E+00;  4.0000488E+04; -1.8323282E-02;  0.0000000E+00;  8.1620523E-04;  2.5993643E+02;
  7.0974313E-02;  9.9999998E-03; -3.0006351E-02;2900; -2.5548199E-03;  0.0000000E+00; -5.0028240E-05;  1.0040079E+03;  1.0000000E-01;  3.3203999E+03;3; -2.7797844E+01;  0.0000000E+00; -5.2616309E-02;0; -1.7505230E-02;  4.0340246E+04;  0.0000000E+00;  8.9928228E-04;  4.0000000E+04;  0.0000000E+00;  4.0001980E+04; -1.8337671E-02;  0.0000000E+00;  8.3243992E-04;  1.2763768E+02;
  7.0965633E-02;  9.9999998E-03; -2.0004731E-02;2901; -2.5732643E-03;  0.0000000E+00; -4.1440555E-05;  1.0040195E+03;  1.0000000E-01;  3.3300786E+03;3; -2.7654032E+01;  0.0000000E+00; -4.1615449E-02;0; -1.7497156E-02;  4.0340078E+04;  0.0000000E+00;  3.7373800E-04;  4.0000000E+04;  0.0000000E+00;  4.0002977E+04; -1.8346187E-02;  0.0000000E+00;  8.4903120E-04;  1.0070242E+01;
  7.0959866E-02;  9.9999998E-03; -1.0002611E-02;2902; -2.5851745E-03;  0.0000000E+00; -2.4044486E-05;  1.0040278E+03;  1.0000000E-01;  3.3369919E+03;3; -2.7558210E+01;  0.0000000E+00; -2.2898620E-02;0; -1.7489007E-02;  4.0340082E+04;  0.0000000E+00;  8.8220797E-05;  4.0000000E+04;  0.0000000E+00;  4.0003754E+04; -1.8350547E-02;  0.0000000E+00;  8.6154079E-04;  6.9663559E+01;
  7.0957825E-02;  9.9999998E-03; -1.9038826E-10;2903; -2.5892996E-03;  0.0000000E+00; -1.6402641E-09;  1.0040306E+03;  1.0000000E-01;  3.3392637E+03;3; -2.7524746E+01;  0.0000000E+00; -1.0022609E-05;0; -1.7485686E-02;  4.0339953E+04;  0.0000000E+00; -4.5214513E-13;  4.0000000E+04;  0.0000000E+00;  4.0004012E+04; -1.8351888E-02;  0.0000000E+00;  8.6620345E-04;  9.7746452E+01;
  7.0959866E-02;  9.9999998E-03;  1.0002611E-02;2904; -2.5851757E-03;  0.0000000E+00;  2.4044270E-05;  1.0040278E+03;  1.0000000E-01;  3.3369919E+03;3; -2.7558197E+01;  0.0000000E+00;  2.2927361E-02;0; -1.7489007E-02;  4.0340086E+04;  0.0000000E+00;  8.8323424E-05;  4.0000000E+04;  0.0000000E+00;  4.0003754E+04; -1.8350547E-02;  0.0000000E+00;  8.6154038E-04;  6.9667007E+01;
  7.0965633E-02;  9.9999998E-03;  2.0004731E-02;2905; -2.5732636E-03;  0.0000000E+00;  4.1439984E-05;  1.0040195E+03;  1.0000000E-01;  3.3300786E+03;3; -2.7654039E+01;  0.0000000E+00;  4.1633602E-02;0; -1.7497171E-02;  4.0340082E+04;  0.0000000E+00;  3.7387092E-04;  4.0000000E+04;  0.0000000E+00;  4.0002980E+04; -1.8346200E-02;  0.0000000E+00;  8.4902922E-04;  1.0059681E+01;
  7.0974313E-02;  9.9999998E-03;  3.0006351E-02;2906; -2.5548213E-03;  0.0000000E+00;  5.0027924E-05;  1.0040079E+03;  1.0000000E-01;  3.3203999E+03;3; -2.7797878E+01;  0.0000000E+00;  5.2628852E-02;0; -1.7505264E-02;  4.0340246E+04;  0.0000000E+00;  8.9957885E-04;  4.0000000E+04;  0.0000000E+00;  4.0001980E+04; -1.8337701E-02;  0.0000000E+00;  8.3243690E-04;  1.2763319E+02;
  7.0984744E-02;  9.9999998E-03;  4.0008035E-02;2907; -2.5315208E-03;  0.0000000E+00;  5.0459475E-05;  1.0040004E+03;  1.0000000E-01;  3.3142766E+03;3; -2.7974245E+01;  0.0000000E+00;  5.5589527E-02;0; -1.7507102E-02;  4.0340566E+04;  0.0000000E+00;  1.6752805E-03;  4.0000000E+04;  0.0000000E+00;  4.0000488E+04; -1.8323306E-02;  0.0000000E+00;  8.1620365E-04;  2.5992383E+02;
  7.0995383E-02;  9.9999998E-03;  5.0010800E-02;2908; -2.5057041E-03;  0.0000000E+00;  4.6390418E-05;  1.0039930E+03;  1.0000000E-01;  3.3081533E+03;3; -2.8135330E+01;  0.0000000E+00;  4.9665365E-02;0; -1.7497139E-02;  4.0341125E+04;  0.0000000E+00;  2.5936272E-03;  4.0000000E+04;  0.0000000E+00;  4.0000172E+04; -1.8300679E-02;  0.0000000E+00;  8.0353947E-04;  3.7673001E+02;
  7.1004696E-02;  9.9999998E-03;  6.0015630E-02;2909; -2.4787686E-03;  0.0000000E+00;  4.1454619E-05;  1.0039960E+03;  1.0000000E-01;  3.3106223E+03;3; -2.8255325E+01;  0.0000000E+00;  3.6610477E-02;0; -1.7472185E-02;  4.0341926E+04;  0.0000000E+00;  3.3383926E-03;  4.0000000E+04;  0.0000000E+00;  3.9999762E+04; -1.8267091E-02;  0.0000000E+00;  7.9490687E-04;  4.4594479E+02;
  8.0930896E-02;  9.9999998E-03; -1.0006464E-01;2954; -2.4093394E-03;  0.0000000E+00; -8.2176128E-05;  1.0037171E+03;  1.0000000E-01;  3.0795178E+03;3; -1.8408360E+01;  0.0000000E+00;  5.7601560E-02;0; -1.5882667E-02;  4.0315062E+04;  0.0000000E+00; -9.3650416E-04;  4.0000000E+04;  0.0000000E+00;  4.0005930E+04; -1.6580351E-02;  0.0000000E+00;  6.9768290E-04;  3.5405148E+02;
  8.0935538E-02;  9.9999998E-03; -9.0050660E-02;2955; -2.4142673E-03;  0.0000000E+00; -5.4031283E-05;  1.0036705E+03;  1.0000000E-01;  3.0409016E+03;3; -1.8580490E+01;  0.0000000E+00;  3.0098328E-02;0; -1.5951121E-02;  4.0313027E+04;  0.0000000E+00;  4.0151281E-03;  4.0000000E+04;  0.0000000E+00;  4.0003957E+04; -1.6699171E-02;  0.0000000E+00;  7.4804982E-04;  1.1561536E+02;
  8.0936074E-02;  9.9999998E-03; -8.0037966E-02;2956; -2.4295694E-03;  0.0000000E+00; -4.1620991E-05;  1.0036408E+03;  1.0000000E-01;  3.0163098E+03;3; -1.8707794E+01;  0.0000000E+00;  7.1046189E-03;0; -1.6017595E-02;  4.0311910E+04;  0.0000000E+00;  6.3107065E-03;  4.0000000E+04;  0.0000000E+00;  4.0002637E+04; -1.6792528E-02;  0.0000000E+00;  7.7493314E-04;  7.1051186E+01;
  8.0932789E-02;  9.9999998E-03; -7.0027031E-02;2957; -2.4512832E-03;  0.0000000E+00; -4.0268842E-05;  1.0036308E+03;  1.0000000E-01;  3.0080137E+03;3; -1.8766817E+01;  0.0000000E+00; -1.1696674E-02;0; -1.6074535E-02;  4.0311383E+04;  0.0000000E+00;  6.4609889E-03;  4.0000000E+04;  0.0000000E+00;  4.0001266E+04; -1.6860994E-02;  0.0000000E+00;  7.8645896E-04;  1.6747525E+02;
  8.0926083E-02;  9.9999998E-03; -6.0018554E-02;2958; -2.4763651E-03;  0.0000000E+00; -4.5289198E-05;  1.0036314E+03;  1.0000000E-01;  3.0085076E+03;3; -1.8745317E+01;  0.0000000E+00; -2.5258325E-02;0; -1.6115613E-02;  4.0311340E+04;  0.0000000E+00;  5.3534694E-03;  4.0000000E+04;  0.0000000E+00;  4.0001441E+04; -1.6906990E-02;  0.0000000E+00;  7.9137692E-04;  1.6575017E+02;
  8.0917075E-02;  9.9999998E-03; -5.0013326E-02;2959; -2.5023778E-03;  0.0000000E+00; -5.2418938E-05;  1.0036445E+03;  1.0000000E-01;  3.0193713E+03;3; -1.8663830E+01;  0.0000000E+00; -3.3324458E-02;0; -1.6137794E-02;  4.0311457E+04;  0.0000000E+00;  3.8144204E-03;  4.0000000E+04;  0.0000000E+00;  4.0002113E+04; -1.6934432E-02;  0.0000000E+00;  7.9663907E-04;  8.1010521E+01;
  8.0906980E-02;  9.9999998E-03; -4.0010586E-02;2960; -2.5274390E-03;  0.0000000E+00; -5.7736754E-05;  1.0036639E+03;  1.0000000E-01;  3.0354697E+03;3; -1.8546232E+01;  0.0000000E+00; -3.6260381E-02;0; -1.6142068E-02;  4.0312020E+04;  0.0000000E+00;  2.3809113E-03;  4.0000000E+04;  0.0000000E+00;  4.0003449E+04; -1.6947996E-02;  0.0000000E+00;  8.0592773E-04;  5.5937897E+01;
  8.0897048E-02;  9.9999998E-03; -3.0009110E-02;2961; -2.5500760E-03;  0.0000000E+00; -5.7510155E-05;  1.0036836E+03;  1.0000000E-01;  3.0517656E+03;3; -1.8421083E+01;  0.0000000E+00; -3.3854939E-02;0; -1.6133254E-02;  4.0312270E+04;  0.0000000E+00;  1.2800014E-03;  4.0000000E+04;  0.0000000E+00;  4.0004168E+04; -1.6952541E-02;  0.0000000E+00;  8.1928680E-04;  2.0754807E+02;
  8.0888562E-02;  9.9999998E-03; -2.0007472E-02;2962; -2.5682510E-03;  0.0000000E+00; -4.8148846E-05;  1.0036974E+03;  1.0000000E-01;  3.0632219E+03;3; -1.8310612E+01;  0.0000000E+00; -2.6709462E-02;0; -1.6118582E-02;  4.0312418E+04;  0.0000000E+00;  5.4426695E-04;  4.0000000E+04;  0.0000000E+00;  4.0005434E+04; -1.6952379E-02;  0.0000000E+00;  8.3379552E-04;  3.4050687E+02;
  8.0882885E-02;  9.9999998E-03; -1.0004486E-02;2963; -2.5802068E-03;  0.0000000E+00; -2.8478749E-05;  1.0037089E+03;  1.0000000E-01;  3.0728020E+03;3; -1.8240194E+01;  0.0000000E+00; -1.5198370E-02;0; -1.6105816E-02;  4.0312516E+04;  0.0000000E+00;  1.3190914E-04;  4.0000000E+04;  0.0000000E+00;  4.0006031E+04; -1.6950913E-02;  0.0000000E+00;  8.4509648E-04;  4.2970801E+02;
  8.0880858E-02;  9.9999998E-03; -5.9693542E-11;2964; -2.5844180E-03;  0.0000000E+00; -7.2945516E-10;  1.0037138E+03;  1.0000000E-01;  3.0768513E+03;3; -1.8217104E+01;  0.0000000E+00; -1.1487509E-07;0; -1.6100783E-02;  4.0312508E+04;  0.0000000E+00;  6.1784865E-13;  4.0000000E+04;  0.0000000E+00;  4.0006605E+04; -1.6950153E-02;  0.0000000E+00;  8.4937003E-04;  4.6088696E+02;
  8.0882885E-02;  9.9999998E-03;  1.0004486E-02;2965; -2.5802061E-03;  0.0000000E+00;  2.8479993E-05;  1.0037089E+03;  1.0000000E-01;  3.0728020E+03;3; -1.8240225E+01;  0.0000000E+00;  1.5215427E-02;0; -1.6105814E-02;  4.0312516E+04;  0.0000000E+00;  1.3208279E-04;  4.0000000E+04;  0.0000000E+00;  4.0006031E+04; -1.6950909E-02;  0.0000000E+00;  8.4509491E-04;  4.2971417E+02;
  8.0888562E-02;  9.9999998E-03;  2.0007472E-02;2966; -2.5682531E-03;  0.0000000E+00;  4.8150585E-05;  1.0036974E+03;  1.0000000E-01;  3.0632219E+03;3; -1.8310621E+01;  0.0000000E+00;  2.6748890E-02;0; -1.6118599E-02;  4.0312418E+04;  0.0000000E+00;  5.4454588E-04;  4.0000000E+04;  0.0000000E+00;  4.0005434E+04; -1.6952392E-02;  0.0000000E+00;  8.3379284E-04;  3.4051328E+02;
  8.0897048E-02;  9.9999998E-03;  3.0009110E-02;2967; -2.5500744E-03;  0.0000000E+00;  5.7510268E-05;  1.0036836E+03;  1.0000000E-01;  3.0517656E+03;3; -1.8421062E+01;  0.0000000E+00;  3.3868451E-02;0; -1.6133262E-02;  4.0312270E+04;  0.0000000E+00;  1.2803675E-03;  4.0000000E+04;  0.0000000E+00;  4.0004168E+04; -1.6952544E-02;  0.0000000E+00;  8.1928319E-04;  2.0755208E+02;
  8.0906980E-02;  9.9999998E-03;  4.0010586E-02;2968; -2.5274402E-03;  0.0000000E+00;  5.7737252E-05;  1.0036640E+03;  1.0000000E-01;  3.0355684E+03;3; -1.8546392E+01;  0.0000000E+00;  3.6281511E-02;0; -1.6142093E-02;  4.0312023E+04;  0.0000000E+00;  2.3811883E-03;  4.0000000E+04;  0.0000000E+00;  4.0003449E+04; -1.6948016E-02;  0.0000000E+00;  8.0592354E-04;  5.5943913E+01;
  8.0917075E-02;  9.9999998E-03;  5.0013326E-02;2969; -2.5023788E-03;  0.0000000E+00;  5.2416999E-05;  1.0036444E+03;  1.0000000E-01;  3.0193713E+03;3; -1.8663836E+01;  0.0000000E+00;  3.3298466E-02;0; -1.6137816E-02;  4.0311449E+04;  0.0000000E+00;  3.8155729E-03;  4.0000000E+04;  0.0000000E+00;  4.0002113E+04; -1.6934451E-02;  0.0000000E+00;  7.9663441E-04;  8.0996185E+01;
  8.0926083E-02;  9.9999998E-03;  6.0018554E-02;2970; -2.4763651E-03;  0.0000000E+00;  4.5290166E-05;  1.0036313E+03;  1.0000000E-01;  3.0085076E+03;3; -1.8745171E+01;  0.0000000E+00;  2.5277415E-02;0; -1.6115647E-02;  4.0311344E+04;  0.0000000E+00;  5.3546061E-03;  4.0000000E+04;  0.0000000E+00;  4.0001441E+04; -1.6907020E-02;  0.0000000E+00;  7.9137355E-04;  1.6574789E+02;
  9.0988316E-02;  9.9999998E-03; -1.0006549E-01;3015; -2.3832221E-03;  0.0000000E+00; -8.3258230E-05;  1.0028374E+03;  1.0000000E-01;  2.3507483E+03;3; -1.0793508E+01;  0.0000000E+00;  3.0900517E-02;0; -1.4729773E-02;  4.0240273E+04;  0.0000000E+00;  1.8341196E-03;  4.0000000E+04;  0.0000000E+00;  4.0008305E+04; -1.5406145E-02;  0.0000000E+00;  6.7637197E-04;  7.7107013E+02;
  9.0998597E-02;  9.9999998E-03; -9.0048648E-02;3016; -2.3895395E-03;  0.0000000E+00; -5.6178997E-05;  1.0028085E+03;  1.0000000E-01;  2.3268477E+03;3; -1.0919620E+01;  0.0000000E+00;  1.4746225E-02;0; -1.4812420E-02;  4.0239812E+04;  0.0000000E+00;  4.2730649E-03;  4.0000000E+04;  0.0000000E+00;  4.0006113E+04; -1.5543016E-02;  0.0000000E+00;  7.3059578E-04;  5.1106131E+02;
  9.1002241E-02;  9.9999998E-03; -8.0034681E-02;3017; -2.4052772E-03;  0.0000000E+00; -4.5561112E-05;  1.0027957E+03;  1.0000000E-01;  2.3161814E+03;3; -1.1012718E+01;  0.0000000E+00;  8.3774095E-04;0; -1.4889071E-02;  4.0240211E+04;  0.0000000E+00;  5.0869659E-03;  4.0000000E+04;  0.0000000E+00;  4.0004453E+04; -1.5647970E-02;  0.0000000E+00;  7.5889920E-04;  3.1070044E+02;
  9.1000125E-02;  9.9999998E-03; -7.0023619E-02;3018; -2.4266993E-03;  0.0000000E+00; -4.7107289E-05;  1.0028012E+03;  1.0000000E-01;  2.3207246E+03;3; -1.1057838E+01;  0.0000000E+00; -1.0901874E-02;0; -1.4951272E-02;  4.0241430E+04;  0.0000000E+00;  4.5931055E-03;  4.0000000E+04;  0.0000000E+00;  4.0003801E+04; -1.5721017E-02;  0.0000000E+00;  7.6974562E-04;  2.1012303E+02;
  9.0993516E-02;  9.9999998E-03; -6.0016014E-02;3019; -2.4504641E-03;  0.0000000E+00; -5.4415301E-05;  1.0028211E+03;  1.0000000E-01;  2.3372178E+03;3; -1.1049630E+01;  0.0000000E+00; -1.8998126E-02;0; -1.4992762E-02;  4.0242758E+04;  0.0000000E+00;  3.4608636E-03;  4.0000000E+04;  0.0000000E+00;  4.0004160E+04; -1.5765201E-02;  0.0000000E+00;  7.7243900E-04;  2.1837907E+02;
  9.0984061E-02;  9.9999998E-03; -5.0012924E-02;3020; -2.4748142E-03;  0.0000000E+00; -6.2711137E-05;  1.0028520E+03;  1.0000000E-01;  2.3627974E+03;3; -1.0999767E+01;  0.0000000E+00; -2.3385670E-02;0; -1.5011329E-02;  4.0244125E+04;  0.0000000E+00;  2.2687437E-03;  4.0000000E+04;  0.0000000E+00;  4.0004680E+04; -1.5785884E-02;  0.0000000E+00;  7.7455462E-04;  3.1702765E+02;
  9.0973295E-02;  9.9999998E-03; -4.0013384E-02;3021; -2.4980956E-03;  0.0000000E+00; -6.7866029E-05;  1.0028867E+03;  1.0000000E-01;  2.3916360E+03;3; -1.0924872E+01;  0.0000000E+00; -2.4354294E-02;0; -1.5009341E-02;  4.0245238E+04;  0.0000000E+00;  1.3239129E-03;  4.0000000E+04;  0.0000000E+00;  4.0005871E+04; -1.5789725E-02;  0.0000000E+00;  7.8038441E-04;  4.7063696E+02;
  9.0962522E-02;  9.9999998E-03; -3.0014923E-02;3022; -2.5188299E-03;  0.0000000E+00; -6.6731787E-05;  1.0029180E+03;  1.0000000E-01;  2.4175120E+03;3; -1.0843421E+01;  0.0000000E+00; -2.2657471E-02;0; -1.4993249E-02;  4.0246527E+04;  0.0000000E+00;  6.8400567E-04;  4.0000000E+04;  0.0000000E+00;  4.0007523E+04; -1.5783768E-02;  0.0000000E+00;  7.9051999E-04;  6.3835608E+02;
  9.0953268E-02;  9.9999998E-03; -2.0014687E-02;3023; -2.5354910E-03;  0.0000000E+00; -5.5985671E-05;  1.0029382E+03;  1.0000000E-01;  2.4342029E+03;3; -1.0770461E+01;  0.0000000E+00; -1.7451447E-02;0; -1.4971907E-02;  4.0247000E+04;  0.0000000E+00;  2.8730140E-04;  4.0000000E+04;  0.0000000E+00;  4.0008891E+04; -1.5774380E-02;  0.0000000E+00;  8.0247346E-04;  7.8366742E+02;
  9.0947069E-02;  9.9999998E-03; -1.0010412E-02;3024; -2.5467714E-03;  0.0000000E+00; -3.3011136E-05;  1.0029542E+03;  1.0000000E-01;  2.4475356E+03;3; -1.0724986E+01;  0.0000000E+00; -9.8427609E-03;0; -1.4954481E-02;  4.0247273E+04;  0.0000000E+00;  6.9648777E-05;  4.0000000E+04;  0.0000000E+00;  4.0008898E+04; -1.5766647E-02;  0.0000000E+00;  8.1216538E-04;  8.8026135E+02;
  9.0944849E-02;  9.9999998E-03;  2.7382815E-10;3025; -2.5506495E-03;  0.0000000E+00; -3.3507888E-10;  1.0029608E+03;  1.0000000E-01;  2.4529678E+03;3; -1.0710485E+01;  0.0000000E+00;  4.1973758E-06;0; -1.4947804E-02;  4.0247539E+04;  0.0000000E+00;  4.7541615E-13;  4.0000000E+04;  0.0000000E+00;  4.0009184E+04; -1.5763698E-02;  0.0000000E+00;  8.1589475E-04;  9.1384521E+02;
  9.0947069E-02;  9.9999998E-03;  1.0010412E-02;3026; -2.5467724E-03;  0.0000000E+00;  3.3009914E-05;  1.0029542E+03;  1.0000000E-01;  2.4475356E+03;3; -1.0725001E+01;  0.0000000E+00;  9.8358840E-03;0; -1.4954493E-02;  4.0247273E+04;  0.0000000E+00;  6.9834154E-05;  4.0000000E+04;  0.0000000E+00;  4.0008898E+04; -1.5766658E-02;  0.0000000E+00;  8.1216474E-04;  8.8026361E+02;
  9.0953268E-02;  9.9999998E-03;  2.0014688E-02;3027; -2.5354926E-03;  0.0000000E+00;  5.5985172E-05;  1.0029381E+03;  1.0000000E-01;  2.4342029E+03;3; -1.0770384E+01;  0.0000000E+00;  1.7485930E-02;0; -1.4971917E-02;  4.0247008E+04;  0.0000000E+00;  2.8770074E-04;  4.0000000E+04;  0.0000000E+00;  4.0008891E+04; -1.5774386E-02;  0.0000000E+00;  8.0246979E-04;  7.8367645E+02;
  9.0962514E-02;  9.9999998E-03;  3.0014923E-02;3028; -2.5188297E-03;  0.0000000E+00;  6.6728484E-05;  1.0029180E+03;  1.0000000E-01;  2.4175120E+03;3; -1.0843420E+01;  0.0000000E+00;  2.2637473E-02;0; -1.4993276E-02;  4.0246523E+04;  0.0000000E+00;  6.8465696E-04;  4.0000000E+04;  0.0000000E+00;  4.0007523E+04; -1.5783790E-02;  0.0000000E+00;  7.9051498E-04;  6.3836456E+02;
  9.0973295E-02;  9.9999998E-03;  4.0013384E-02;3029; -2.4980963E-03;  0.0000000E+00;  6.7868175E-05;  1.0028867E+03;  1.0000000E-01;  2.3915374E+03;3; -1.0924817E+01;  0.0000000E+00;  2.4385381E-02;0; -1.5009377E-02;  4.0245230E+04;  0.0000000E+00;  1.3250797E-03;  4.0000000E+04;  0.0000000E+00;  4.0005875E+04; -1.5789757E-02;  0.0000000E+00;  7.8037981E-04;  4.7064682E+02;
  9.0984061E-02;  9.9999998E-03;  5.0012924E-02;3030; -2.4748142E-03;  0.0000000E+00;  6.2712803E-05;  1.0028521E+03;  1.0000000E-01;  2.3628962E+03;3; -1.0999785E+01;  0.0000000E+00;  2.3437731E-02;0; -1.5011361E-02;  4.0244121E+04;  0.0000000E+00;  2.2687814E-03;  4.0000000E+04;  0.0000000E+00;  4.0004680E+04; -1.5785908E-02;  0.0000000E+00;  7.7454763E-04;  3.1703366E+02;
  9.0993516E-02;  9.9999998E-03;  6.0016014E-02;3031; -2.4504643E-03;  0.0000000E+00;  5.4415868E-05;  1.0028211E+03;  1.0000000E-01;  2.3372178E+03;3; -1.1049642E+01;  0.0000000E+00;  1.8999649E-02;0; -1.4992790E-02;  4.0242754E+04;  0.0000000E+00;  3.4621279E-03;  4.0000000E+04;  0.0000000E+00;  4.0004160E+04; -1.5765224E-02;  0.0000000E+00;  7.7243376E-04;  2.1837910E+02;
  1.0126913E-01;  9.9999998E-03; -1.0003885E-01;3076; -2.3771271E-03;  0.0000000E+00; -7.7611410E-05;  1.0017864E+03;  1.0000000E-01;  1.4799581E+03;3; -5.5690665E+00;  0.0000000E+00;  1.5720943E-02;0; -1.3957625E-02;  4.0150422E+04;  0.0000000E+00; -4.8646270E-03;  4.0000000E+04;  0.0000000E+00;  4.0010680E+04; -1.4595397E-02;  0.0000000E+00;  6.3777203E-04;  1.2293036E+03;
  1.0128976E-01;  9.9999998E-03; -9.0020858E-02;3077; -2.3853332E-03;  0.0000000E+00; -5.2042054E-05;  1.0017807E+03;  1.0000000E-01;  1.4753163E+03;3; -5.6483173E+00;  0.0000000E+00;  7.6646446E-03;0; -1.4054943E-02;  4.0151641E+04;  0.0000000E+00; -4.2063147E-03;  4.0000000E+04;  0.0000000E+00;  4.0008527E+04; -1.4750727E-02;  0.0000000E+00;  6.9578498E-04;  9.5338324E+02;
  1.0130096E-01;  9.9999998E-03; -8.0000900E-02;3078; -2.4013224E-03;  0.0000000E+00; -4.2861338E-05;  1.0017910E+03;  1.0000000E-01;  1.4838099E+03;3; -5.7078915E+00;  0.0000000E+00;  4.5992074E-06;0; -1.4141006E-02;  4.0154121E+04;  0.0000000E+00; -3.5838501E-03;  4.0000000E+04;  0.0000000E+00;  4.0007195E+04; -1.4867009E-02;  0.0000000E+00;  7.2600256E-04;  7.4072925E+02;
  1.0130440E-01;  9.9999998E-03; -6.9982618E-02;3079; -2.4220548E-03;  0.0000000E+00; -4.5863388E-05;  1.0018217E+03;  1.0000000E-01;  1.5091919E+03;3; -5.7398233E+00;  0.0000000E+00; -6.7813480E-03;0; -1.4207160E-02;  4.0157008E+04;  0.0000000E+00; -3.1129520E-03;  4.0000000E+04;  0.0000000E+00;  4.0006875E+04; -1.4944016E-02;  0.0000000E+00;  7.3685631E-04;  6.3563660E+02;
  1.0130254E-01;  9.9999998E-03; -5.9974752E-02;3080; -2.4443720E-03;  0.0000000E+00; -5.4279346E-05;  1.0018611E+03;  1.0000000E-01;  1.5418823E+03;3; -5.7381186E+00;  0.0000000E+00; -1.1432378E-02;0; -1.4247664E-02;  4.0160051E+04;  0.0000000E+00; -2.6355046E-03;  4.0000000E+04;  0.0000000E+00;  4.0006836E+04; -1.4985587E-02;  0.0000000E+00;  7.3792238E-04;  6.4720911E+02;
  1.0129663E-01;  9.9999998E-03; -4.9979102E-02;3081; -2.4666979E-03;  0.0000000E+00; -6.2736479E-05;  1.0019099E+03;  1.0000000E-01;  1.5823750E+03;3; -5.7109828E+00;  0.0000000E+00; -1.3500500E-02;0; -1.4261465E-02;  4.0162816E+04;  0.0000000E+00; -2.0499702E-03;  4.0000000E+04;  0.0000000E+00;  4.0007660E+04; -1.4998706E-02;  0.0000000E+00;  7.3724129E-04;  7.5456500E+02;
  1.0128822E-01;  9.9999998E-03; -3.9989151E-02;3082; -2.4877281E-03;  0.0000000E+00; -6.7627392E-05;  1.0019542E+03;  1.0000000E-01;  1.6190160E+03;3; -5.6662803E+00;  0.0000000E+00; -1.3678877E-02;0; -1.4252558E-02;  4.0164707E+04;  0.0000000E+00; -1.3968255E-03;  4.0000000E+04;  0.0000000E+00;  4.0008707E+04; -1.4992202E-02;  0.0000000E+00;  7.3964352E-04;  9.1936444E+02;
  1.0127864E-01;  9.9999998E-03; -2.9999815E-02;3083; -2.5062659E-03;  0.0000000E+00; -6.5950182E-05;  1.0019946E+03;  1.0000000E-01;  1.6524965E+03;3; -5.6189485E+00;  0.0000000E+00; -1.2988413E-02;0; -1.4228975E-02;  4.0166352E+04;  0.0000000E+00; -7.9355808E-04;  4.0000000E+04;  0.0000000E+00;  4.0010426E+04; -1.4975262E-02;  0.0000000E+00;  7.4628659E-04;  1.0982656E+03;
  1.0126955E-01;  9.9999998E-03; -2.0007493E-02;3084; -2.5212711E-03;  0.0000000E+00; -5.5853296E-05;  1.0020214E+03;  1.0000000E-01;  1.6747180E+03;3; -5.5761137E+00;  0.0000000E+00; -1.0462663E-02;0; -1.4201060E-02;  4.0167375E+04;  0.0000000E+00; -3.4370134E-04;  4.0000000E+04;  0.0000000E+00;  4.0011395E+04; -1.4956307E-02;  0.0000000E+00;  7.5524661E-04;  1.2526486E+03;
  1.0126290E-01;  9.9999998E-03; -1.0009106E-02;3085; -2.5313944E-03;  0.0000000E+00; -3.3225162E-05;  1.0020406E+03;  1.0000000E-01;  1.6906189E+03;3; -5.5497994E+00;  0.0000000E+00; -6.3098143E-03;0; -1.4179173E-02;  4.0168031E+04;  0.0000000E+00; -8.3284438E-05;  4.0000000E+04;  0.0000000E+00;  4.0012172E+04; -1.4942098E-02;  0.0000000E+00;  7.6292566E-04;  1.3549352E+03;
  1.0126019E-01;  9.9999998E-03;  5.0632404E-10;3086; -2.5347827E-03;  0.0000000E+00; -5.4865484E-10;  1.0020466E+03;  1.0000000E-01;  1.6955570E+03;3; -5.5409107E+00;  0.0000000E+00; -4.7093999E-06;0; -1.4170946E-02;  4.0168203E+04;  0.0000000E+00;  2.0018444E-12;  4.0000000E+04;  0.0000000E+00;  4.0012492E+04; -1.4936895E-02;  0.0000000E+00;  7.6594920E-04;  1.3904080E+03;
  1.0126290E-01;  9.9999998E-03;  1.0009107E-02;3087; -2.5313955E-03;  0.0000000E+00;  3.3224784E-05;  1.0020406E+03;  1.0000000E-01;  1.6906189E+03;3; -5.5497937E+00;  0.0000000E+00;  6.3044531E-03;0; -1.4179182E-02;  4.0168031E+04;  0.0000000E+00; -8.3107378E-05;  4.0000000E+04;  0.0000000E+00;  4.0012172E+04; -1.4942105E-02;  0.0000000E+00;  7.6292298E-04;  1.3549337E+03;
  1.0126955E-01;  9.9999998E-03;  2.0007493E-02;3088; -2.5212718E-03;  0.0000000E+00;  5.5853725E-05;  1.0020214E+03;  1.0000000E-01;  1.6747180E+03;3; -5.5761089E+00;  0.0000000E+00;  1.0499724E-02;0; -1.4201075E-02;  4.0167379E+04;  0.0000000E+00; -3.4306516E-04;  4.0000000E+04;  0.0000000E+00;  4.0011395E+04; -1.4956317E-02;  0.0000000E+00;  7.5524161E-04;  1.2526565E+03;
  1.0127864E-01;  9.9999998E-03;  2.9999815E-02;3089; -2.5062680E-03;  0.0000000E+00;  6.5948261E-05;  1.0019946E+03;  1.0000000E-01;  1.6524965E+03;3; -5.6189537E+00;  0.0000000E+00;  1.2992445E-02;0; -1.4228991E-02;  4.0166352E+04;  0.0000000E+00; -7.9301366E-04;  4.0000000E+04;  0.0000000E+00;  4.0010426E+04; -1.4975271E-02;  0.0000000E+00;  7.4627972E-04;  1.0982734E+03;
  1.0128821E-01;  9.9999998E-03;  3.9989151E-02;3090; -2.4877300E-03;  0.0000000E+00;  6.7627807E-05;  1.0019542E+03;  1.0000000E-01;  1.6190160E+03;3; -5.6662893E+00;  0.0000000E+00;  1.3694184E-02;0; -1.4252570E-02;  4.0164703E+04;  0.0000000E+00; -1.3964161E-03;  4.0000000E+04;  0.0000000E+00;  4.0008711E+04; -1.4992206E-02;  0.0000000E+00;  7.3963648E-04;  9.1938379E+02;
  1.0129663E-01;  9.9999998E-03;  4.9979102E-02;3091; -2.4667003E-03;  0.0000000E+00;  6.2733649E-05;  1.0019099E+03;  1.0000000E-01;  1.5823750E+03;3; -5.7110090E+00;  0.0000000E+00;  1.3487313E-02;0; -1.4261498E-02;  4.0162820E+04;  0.0000000E+00; -2.0494855E-03;  4.0000000E+04;  0.0000000E+00;  4.0007660E+04; -1.4998732E-02;  0.0000000E+00;  7.3723373E-04;  7.5457819E+02;
  1.0130254E-01;  9.9999998E-03;  5.9974752E-02;3092; -2.4443753E-03;  0.0000000E+00;  5.4279717E-05;  1.0018610E+03;  1.0000000E-01;  1.5417836E+03;3; -5.7380772E+00;  0.0000000E+00;  1.1463478E-02;0; -1.4247687E-02;  4.0160055E+04;  0.0000000E+00; -2.6346142E-03;  4.0000000E+04;  0.0000000E+00;  4.0006836E+04; -1.4985602E-02;  0.0000000E+00;  7.3791598E-04;  6.4722089E+02;
  1.1168130E-01;  9.9999998E-03; -9.9986143E-02;3137; -2.4277319E-03;  0.0000000E+00; -6.6250563E-05;  1.0008422E+03;  1.0000000E-01;  6.9775806E+02;3; -2.4795692E+00;  0.0000000E+00;  1.1548168E-02;0; -1.3635886E-02;  4.0068387E+04;  0.0000000E+00; -2.1400515E-02;  4.0000000E+04;  0.0000000E+00;  4.0013703E+04; -1.4219134E-02;  0.0000000E+00;  5.8324845E-04;  1.6682688E+03;
  1.1179978E-01;  9.9999998E-03; -8.9963533E-02;3138; -2.4370328E-03;  0.0000000E+00; -4.2591659E-05;  1.0008627E+03;  1.0000000E-01;  7.1474524E+02;3; -2.5053267E+00;  0.0000000E+00;  6.8669813E-03;0; -1.3746511E-02;  4.0071625E+04;  0.0000000E+00; -2.0788360E-02;  4.0000000E+04;  0.0000000E+00;  4.0011602E+04; -1.4391030E-02;  0.0000000E+00;  6.4451923E-04;  1.3788529E+03;
  1.1189204E-01;  9.9999998E-03; -7.9943664E-02;3139; -2.4522403E-03;  0.0000000E+00; -3.4287295E-05;  1.0008962E+03;  1.0000000E-01;  7.4249750E+02;3; -2.5232728E+00;  0.0000000E+00;  2.6144313E-03;0; -1.3840191E-02;  4.0075641E+04;  0.0000000E+00; -1.8371899E-02;  4.0000000E+04;  0.0000000E+00;  4.0010211E+04; -1.4516911E-02;  0.0000000E+00;  6.7672011E-04;  1.1529904E+03;
  1.1194056E-01;  9.9999998E-03; -6.9940016E-02;3140; -2.4708160E-03;  0.0000000E+00; -3.5594359E-05;  1.0009461E+03;  1.0000000E-01;  7.8387909E+02;3; -2.5321496E+00;  0.0000000E+00; -9.7800337E-04;0; -1.3908662E-02;  4.0080359E+04;  0.0000000E+00; -1.5012391E-02;  4.0000000E+04;  0.0000000E+00;  4.0009477E+04; -1.4596741E-02;  0.0000000E+00;  6.8807846E-04;  1.0385006E+03;
  1.1195267E-01;  9.9999998E-03; -5.9946198E-02;3141; -2.4906914E-03;  0.0000000E+00; -4.2303986E-05;  1.0010042E+03;  1.0000000E-01;  8.3197644E+02;3; -2.5305729E+00;  0.0000000E+00; -3.7357782E-03;0; -1.3947174E-02;  4.0084914E+04;  0.0000000E+00; -1.1347181E-02;  4.0000000E+04;  0.0000000E+00;  4.0009512E+04; -1.4635351E-02;  0.0000000E+00;  6.8817643E-04;  1.0453827E+03;
  1.1194769E-01;  9.9999998E-03; -4.9956948E-02;3142; -2.5104058E-03;  0.0000000E+00; -4.9974369E-05;  1.0010629E+03;  1.0000000E-01;  8.8056769E+02;3; -2.5178330E+00;  0.0000000E+00; -5.2038049E-03;0; -1.3955891E-02;  4.0088672E+04;  0.0000000E+00; -7.8687230E-03;  4.0000000E+04;  0.0000000E+00;  4.0010223E+04; -1.4641117E-02;  0.0000000E+00;  6.8522588E-04;  1.1531788E+03;
  1.1193942E-01;  9.9999998E-03; -3.9969828E-02;3143; -2.5289571E-03;  0.0000000E+00; -5.4623739E-05;  1.0011138E+03;  1.0000000E-01;  9.2273932E+02;3; -2.4958191E+00;  0.0000000E+00; -6.1972793E-03;0; -1.3940137E-02;  4.0091398E+04;  0.0000000E+00; -4.9145762E-03;  4.0000000E+04;  0.0000000E+00;  4.0011379E+04; -1.4624602E-02;  0.0000000E+00;  6.8446482E-04;  1.3225479E+03;
  1.1193116E-01;  9.9999998E-03; -2.9982138E-02;3144; -2.5454173E-03;  0.0000000E+00; -5.3148720E-05;  1.0011600E+03;  1.0000000E-01;  9.6105927E+02;3; -2.4716899E+00;  0.0000000E+00; -6.4798370E-03;0; -1.3909412E-02;  4.0093301E+04;  0.0000000E+00; -2.6579832E-03;  4.0000000E+04;  0.0000000E+00;  4.0013133E+04; -1.4597024E-02;  0.0000000E+00;  6.8761205E-04;  1.5081198E+03;
  1.1192457E-01;  9.9999998E-03; -1.9992080E-02;3145; -2.5591988E-03;  0.0000000E+00; -4.3609009E-05;  1.0011967E+03;  1.0000000E-01;  9.9137939E+02;3; -2.4520082E+00;  0.0000000E+00; -5.6846272E-03;0; -1.3875443E-02;  4.0094797E+04;  0.0000000E+00; -1.1309801E-03;  4.0000000E+04;  0.0000000E+00;  4.0014488E+04; -1.4568815E-02;  0.0000000E+00;  6.9337152E-04;  1.6691305E+03;
  1.1192050E-01;  9.9999998E-03; -9.9985795E-03;3146; -2.5689949E-03;  0.0000000E+00; -2.6351106E-05;  1.0012160E+03;  1.0000000E-01;  1.0074777E+03;3; -2.4375670E+00;  0.0000000E+00; -4.5259055E-03;0; -1.3849540E-02;  4.0095637E+04;  0.0000000E+00; -2.7306841E-04;  4.0000000E+04;  0.0000000E+00;  4.0015191E+04; -1.4548326E-02;  0.0000000E+00;  6.9878658E-04;  1.7762268E+03;
  1.1191920E-01;  9.9999998E-03; -2.9041303E-10;3147; -2.5729088E-03;  0.0000000E+00; -5.2416166E-10;  1.0012227E+03;  1.0000000E-01;  1.0129096E+03;3; -2.4312897E+00;  0.0000000E+00; -1.1685500E-05;0; -1.3839907E-02;  4.0095902E+04;  0.0000000E+00;  2.7601777E-12;  4.0000000E+04;  0.0000000E+00;  4.0015543E+04; -1.4540892E-02;  0.0000000E+00;  7.0098467E-04;  1.8134608E+03;
  1.1192050E-01;  9.9999998E-03;  9.9985786E-03;3148; -2.5689951E-03;  0.0000000E+00;  2.6349702E-05;  1.0012160E+03;  1.0000000E-01;  1.0074777E+03;3; -2.4375672E+00;  0.0000000E+00;  4.5016855E-03;0; -1.3849546E-02;  4.0095633E+04;  0.0000000E+00; -2.7276803E-04;  4.0000000E+04;  0.0000000E+00;  4.0015191E+04; -1.4548330E-02;  0.0000000E+00;  6.9878303E-04;  1.7762271E+03;
  1.1192456E-01;  9.9999998E-03;  1.9992080E-02;3149; -2.5591995E-03;  0.0000000E+00;  4.3608121E-05;  1.0011967E+03;  1.0000000E-01;  9.9147815E+02;3; -2.4520285E+00;  0.0000000E+00;  5.6539173E-03;0; -1.3875455E-02;  4.0094793E+04;  0.0000000E+00; -1.1306843E-03;  4.0000000E+04;  0.0000000E+00;  4.0014488E+04; -1.4568821E-02;  0.0000000E+00;  6.9336582E-04;  1.6691440E+03;
  1.1193116E-01;  9.9999998E-03;  2.9982137E-02;3150; -2.5454189E-03;  0.0000000E+00;  5.3147116E-05;  1.0011600E+03;  1.0000000E-01;  9.6105927E+02;3; -2.4717078E+00;  0.0000000E+00;  6.4884964E-03;0; -1.3909445E-02;  4.0093301E+04;  0.0000000E+00; -2.6575343E-03;  4.0000000E+04;  0.0000000E+00;  4.0013133E+04; -1.4597050E-02;  0.0000000E+00;  6.8760471E-04;  1.5081217E+03;
  1.1193942E-01;  9.9999998E-03;  3.9969828E-02;3151; -2.5289583E-03;  0.0000000E+00;  5.4622880E-05;  1.0011138E+03;  1.0000000E-01;  9.2273932E+02;3; -2.4958363E+00;  0.0000000E+00;  6.1932052E-03;0; -1.3940166E-02;  4.0091402E+04;  0.0000000E+00; -4.9134060E-03;  4.0000000E+04;  0.0000000E+00;  4.0011379E+04; -1.4624622E-02;  0.0000000E+00;  6.8445608E-04;  1.3225713E+03;
  1.1194768E-01;  9.9999998E-03;  4.9956944E-02;3152; -2.5104072E-03;  0.0000000E+00;  4.9974555E-05;  1.0010629E+03;  1.0000000E-01;  8.8056769E+02;3; -2.5178459E+00;  0.0000000E+00;  5.1969467E-03;0; -1.3955932E-02;  4.0088668E+04;  0.0000000E+00; -7.8677973E-03;  4.0000000E+04;  0.0000000E+00;  4.0010223E+04; -1.4641149E-02;  0.0000000E+00;  6.8521668E-04;  1.1531968E+03;
  1.1195267E-01;  9.9999998E-03;  5.9946194E-02;3153; -2.4906935E-03;  0.0000000E+00;  4.2300115E-05;  1.0010042E+03;  1.0000000E-01;  8.3197644E+02;3; -2.5305870E+00;  0.0000000E+00;  3.7643500E-03;0; -1.3947197E-02;  4.0084914E+04;  0.0000000E+00; -1.1345724E-02;  4.0000000E+04;  0.0000000E+00;  4.0009512E+04; -1.4635365E-02;  0.0000000E+00;  6.8816746E-04;  1.0453887E+03;
  1.2199662E-01;  9.9999998E-03; -9.9946015E-02;3198; -2.5391902E-03;  0.0000000E+00; -6.1691469E-05;  1.0001905E+03;  1.0000000E-01;  1.5782269E+02;3; -8.8711828E-01;  0.0000000E+00;  1.2041293E-02;0; -1.3715460E-02;  4.0010438E+04;  0.0000000E+00; -4.3174263E-02;  4.0000000E+04;  0.0000000E+00;  4.0016422E+04; -1.4232682E-02;  0.0000000E+00;  5.1722216E-04;  2.0174791E+03;
  1.2197991E-01;  9.9999998E-03; -8.9944705E-02;3199; -2.5470594E-03;  0.0000000E+00; -3.9778530E-05;  1.0002391E+03;  1.0000000E-01;  1.9811786E+02;3; -9.1136265E-01;  0.0000000E+00;  9.4448226E-03;0; -1.3836970E-02;  4.0015863E+04;  0.0000000E+00; -3.9906643E-02;  4.0000000E+04;  0.0000000E+00;  4.0013695E+04; -1.4419745E-02;  0.0000000E+00;  5.8277551E-04;  1.7160809E+03;
  1.2195908E-01;  9.9999998E-03; -7.9942301E-02;3200; -2.5591131E-03;  0.0000000E+00; -2.8255781E-05;  1.0003011E+03;  1.0000000E-01;  2.4947443E+02;3; -9.3091047E-01;  0.0000000E+00;  7.2577139E-03;0; -1.3936064E-02;  4.0022590E+04;  0.0000000E+00; -3.3645805E-02;  4.0000000E+04;  0.0000000E+00;  4.0012902E+04; -1.4554288E-02;  0.0000000E+00;  6.1822427E-04;  1.4745917E+03;
  1.2193961E-01;  9.9999998E-03; -6.9942623E-02;3201; -2.5744534E-03;  0.0000000E+00; -2.6301364E-05;  1.0003667E+03;  1.0000000E-01;  3.0379388E+02;3; -9.4261646E-01;  0.0000000E+00;  4.7767144E-03;0; -1.4005280E-02;  4.0028695E+04;  0.0000000E+00; -2.6244927E-02;  4.0000000E+04;  0.0000000E+00;  4.0011469E+04; -1.4636573E-02;  0.0000000E+00;  6.3129334E-04;  1.3445010E+03;
  1.2192354E-01;  9.9999998E-03; -5.9946846E-02;3202; -2.5912628E-03;  0.0000000E+00; -2.9928311E-05;  1.0004380E+03;  1.0000000E-01;  3.6285394E+02;3; -9.4616807E-01;  0.0000000E+00;  3.3301481E-03;0; -1.4040926E-02;  4.0034164E+04;  0.0000000E+00; -1.9005232E-02;  4.0000000E+04;  0.0000000E+00;  4.0011246E+04; -1.4672372E-02;  0.0000000E+00;  6.3144736E-04;  1.3390760E+03;
  1.2191111E-01;  9.9999998E-03; -4.9954250E-02;3203; -2.6081721E-03;  0.0000000E+00; -3.4926867E-05;  1.0005007E+03;  1.0000000E-01;  4.1480307E+02;3; -9.4204980E-01;  0.0000000E+00;  1.8469923E-03;0; -1.4044493E-02;  4.0038434E+04;  0.0000000E+00; -1.2722951E-02;  4.0000000E+04;  0.0000000E+00;  4.0012234E+04; -1.4671646E-02;  0.0000000E+00;  6.2715233E-04;  1.4392131E+03;
  1.2190203E-01;  9.9999998E-03; -3.9963737E-02;3204; -2.6241397E-03;  0.0000000E+00; -3.7966085E-05;  1.0005576E+03;  1.0000000E-01;  4.6201163E+02;3; -9.3373626E-01;  0.0000000E+00;  9.4021863E-04;0; -1.4022593E-02;  4.0041492E+04;  0.0000000E+00; -7.7554034E-03;  4.0000000E+04;  0.0000000E+00;  4.0013113E+04; -1.4646665E-02;  0.0000000E+00;  6.2407140E-04;  1.6054723E+03;
  1.2189549E-01;  9.9999998E-03; -2.9974105E-02;3205; -2.6383814E-03;  0.0000000E+00; -3.6011119E-05;  1.0006020E+03;  1.0000000E-01;  4.9875131E+02;3; -9.2359835E-01;  0.0000000E+00;  1.9549835E-04;0; -1.3985893E-02;  4.0043531E+04;  0.0000000E+00; -4.1451706E-03;  4.0000000E+04;  0.0000000E+00;  4.0014617E+04; -1.4610323E-02;  0.0000000E+00;  6.2443007E-04;  1.7912751E+03;
  1.2189064E-01;  9.9999998E-03; -1.9984351E-02;3206; -2.6498495E-03;  0.0000000E+00; -2.8028109E-05;  1.0006354E+03;  1.0000000E-01;  5.2640485E+02;3; -9.1530800E-01;  0.0000000E+00;  3.1420679E-04;0; -1.3947012E-02;  4.0044598E+04;  0.0000000E+00; -1.7611118E-03;  4.0000000E+04;  0.0000000E+00;  4.0016027E+04; -1.4574531E-02;  0.0000000E+00;  6.2751968E-04;  1.9542368E+03;
  1.2188780E-01;  9.9999998E-03; -9.9934349E-03;3207; -2.6572850E-03;  0.0000000E+00; -1.5431680E-05;  1.0006555E+03;  1.0000000E-01;  5.4309576E+02;3; -9.0959322E-01;  0.0000000E+00;  2.9088592E-04;0; -1.3917917E-02;  4.0045402E+04;  0.0000000E+00; -4.2647540E-04;  4.0000000E+04;  0.0000000E+00;  4.0016859E+04; -1.4548904E-02;  0.0000000E+00;  6.3098717E-04;  2.0633425E+03;
  1.2188689E-01;  9.9999998E-03; -4.0171436E-10;3208; -2.6597739E-03;  0.0000000E+00; -1.2834384E-09;  1.0006614E+03;  1.0000000E-01;  5.4803387E+02;3; -9.0749520E-01;  0.0000000E+00; -1.4202497E-05;0; -1.3907197E-02;  4.0045559E+04;  0.0000000E+00;  1.2273639E-12;  4.0000000E+04;  0.0000000E+00;  4.0017129E+04; -1.4539666E-02;  0.0000000E+00;  6.3246943E-04;  2.1014065E+03;
  1.2188780E-01;  9.9999998E-03;  9.9934340E-03;3209; -2.6572857E-03;  0.0000000E+00;  1.5430360E-05;  1.0006555E+03;  1.0000000E-01;  5.4309576E+02;3; -9.0960056E-01;  0.0000000E+00; -3.1681824E-04;0; -1.3917929E-02;  4.0045402E+04;  0.0000000E+00; -4.2629649E-04;  4.0000000E+04;  0.0000000E+00;  4.0016859E+04; -1.4548915E-02;  0.0000000E+00;  6.3098472E-04;  2.0633442E+03;
  1.2189064E-01;  9.9999998E-03;  1.9984351E-02;3210; -2.6498509E-03;  0.0000000E+00;  2.8026299E-05;  1.0006354E+03;  1.0000000E-01;  5.2640485E+02;3; -9.1530943E-01;  0.0000000E+00; -3.2960199E-04;0; -1.3947019E-02;  4.0044594E+04;  0.0000000E+00; -1.7605613E-03;  4.0000000E+04;  0.0000000E+00;  4.0016027E+04; -1.4574533E-02;  0.0000000E+00;  6.2751438E-04;  1.9542458E+03;
  1.2189549E-01;  9.9999998E-03;  2.9974105E-02;3211; -2.6383831E-03;  0.0000000E+00;  3.6009013E-05;  1.0006020E+03;  1.0000000E-01;  4.9875131E+02;3; -9.2360950E-01;  0.0000000E+00; -2.1007923E-04;0; -1.3985916E-02;  4.0043531E+04;  0.0000000E+00; -4.1444995E-03;  4.0000000E+04;  0.0000000E+00;  4.0014617E+04; -1.4610339E-02;  0.0000000E+00;  6.2442326E-04;  1.7912894E+03;
  1.2190203E-01;  9.9999998E-03;  3.9963737E-02;3212; -2.6241418E-03;  0.0000000E+00;  3.7963709E-05;  1.0005576E+03;  1.0000000E-01;  4.6201163E+02;3; -9.3372947E-01;  0.0000000E+00; -9.5463439E-04;0; -1.4022640E-02;  4.0041488E+04;  0.0000000E+00; -7.7544702E-03;  4.0000000E+04;  0.0000000E+00;  4.0013113E+04; -1.4646702E-02;  0.0000000E+00;  6.2406174E-04;  1.6054854E+03;
  1.2191111E-01;  9.9999998E-03;  4.9954250E-02;3213; -2.6081747E-03;  0.0000000E+00;  3.4924786E-05;  1.0005006E+03;  1.0000000E-01;  4.1470432E+02;3; -9.4204795E-01;  0.0000000E+00; -1.8419313E-03;0; -1.4044527E-02;  4.0038430E+04;  0.0000000E+00; -1.2721870E-02;  4.0000000E+04;  0.0000000E+00;  4.0012234E+04; -1.4671671E-02;  0.0000000E+00;  6.2714418E-04;  1.4392219E+03;
  1.2192354E-01;  9.9999998E-03;  5.9946842E-02;3214; -2.5912649E-03;  0.0000000E+00;  2.9924227E-05;  1.0004380E+03;  1.0000000E-01;  3.6285394E+02;3; -9.4617194E-01;  0.0000000E+00; -3.3425079E-03;0; -1.4040972E-02;  4.0034164E+04;  0.0000000E+00; -1.9005002E-02;  4.0000000E+04;  0.0000000E+00;  4.0011246E+04; -1.4672411E-02;  0.0000000E+00;  6.3143898E-04;  1.3390881E+03;
  1.3190642E-01;  9.9999998E-03; -9.9942513E-02;3259; -2.7034467E-03;  0.0000000E+00; -5.8341589E-05;  9.9985999E+02;  1.0000000E-01; -1.1599672E+02;3; -1.7230135E-01;  0.0000000E+00;  9.0408865E-03;0; -1.4050186E-02;  3.9978715E+04;  0.0000000E+00; -6.0267270E-02;  4.0000000E+04;  0.0000000E+00;  4.0017668E+04; -1.4497010E-02;  0.0000000E+00;  4.4682415E-04;  2.2188452E+03;
  1.3187230E-01;  9.9999998E-03; -8.9939952E-02;3260; -2.7124186E-03;  0.0000000E+00; -3.8151702E-05;  9.9991211E+02;  1.0000000E-01; -7.2837448E+01;3; -1.8086720E-01;  0.0000000E+00;  9.2344126E-03;0; -1.4177927E-02;  3.9985230E+04;  0.0000000E+00; -5.2887272E-02;  4.0000000E+04;  0.0000000E+00;  4.0015805E+04; -1.4693419E-02;  0.0000000E+00;  5.1549188E-04;  1.9083851E+03;
  1.3183911E-01;  9.9999998E-03; -7.9935730E-02;3261; -2.7231255E-03;  0.0000000E+00; -2.4748411E-05;  9.9997742E+02;  1.0000000E-01; -1.8715521E+01;3; -1.8830302E-01;  0.0000000E+00;  8.7190848E-03;0; -1.4279108E-02;  3.9991887E+04;  0.0000000E+00; -4.2734604E-02;  4.0000000E+04;  0.0000000E+00;  4.0013938E+04; -1.4832609E-02;  0.0000000E+00;  5.5350107E-04;  1.6525181E+03;
  1.3181163E-01;  9.9999998E-03; -6.9933608E-02;3262; -2.7353396E-03;  0.0000000E+00; -1.9922210E-05;  1.0000438E+03;  1.0000000E-01;  3.6344650E+01;3; -1.9334859E-01;  0.0000000E+00;  7.4039851E-03;0; -1.4346916E-02;  3.9998199E+04;  0.0000000E+00; -3.2155436E-02;  4.0000000E+04;  0.0000000E+00;  4.0012672E+04; -1.4915148E-02;  0.0000000E+00;  5.6823151E-04;  1.5054209E+03;
  1.3179046E-01;  9.9999998E-03; -5.9935253E-02;3263; -2.7482833E-03;  0.0000000E+00; -2.0817361E-05;  1.0001091E+03;  1.0000000E-01;  9.0367813E+01;3; -1.9538441E-01;  0.0000000E+00;  6.4128623E-03;0; -1.4378631E-02;  4.0003488E+04;  0.0000000E+00; -2.2634979E-02;  4.0000000E+04;  0.0000000E+00;  4.0012082E+04; -1.4947597E-02;  0.0000000E+00;  5.6896667E-04;  1.4833445E+03;
  1.3177432E-01;  9.9999998E-03; -4.9940661E-02;3264; -2.7611270E-03;  0.0000000E+00; -2.4102112E-05;  1.0001697E+03;  1.0000000E-01;  1.4063800E+02;3; -1.9503392E-01;  0.0000000E+00;  5.3925049E-03;0; -1.4376747E-02;  4.0007371E+04;  0.0000000E+00; -1.4878834E-02;  4.0000000E+04;  0.0000000E+00;  4.0012695E+04; -1.4940940E-02;  0.0000000E+00;  5.6419201E-04;  1.5693665E+03;
  1.3176222E-01;  9.9999998E-03; -3.9949160E-02;3265; -2.7731380E-03;  0.0000000E+00; -2.6475196E-05;  1.0002213E+03;  1.0000000E-01;  1.8330345E+02;3; -1.9301850E-01;  0.0000000E+00;  4.5083696E-03;0; -1.4348964E-02;  4.0010238E+04;  0.0000000E+00; -9.0127261E-03;  4.0000000E+04;  0.0000000E+00;  4.0014051E+04; -1.4908732E-02;  0.0000000E+00;  5.5976730E-04;  1.7249719E+03;
  1.3175315E-01;  9.9999998E-03; -2.9960876E-02;3266; -2.7835970E-03;  0.0000000E+00; -2.5581125E-05;  1.0002623E+03;  1.0000000E-01;  2.1737657E+02;3; -1.9039874E-01;  0.0000000E+00;  3.4995007E-03;0; -1.4306851E-02;  4.0011848E+04;  0.0000000E+00; -4.8396690E-03;  4.0000000E+04;  0.0000000E+00;  4.0015344E+04; -1.4865126E-02;  0.0000000E+00;  5.5827457E-04;  1.9035417E+03;
  1.3174635E-01;  9.9999998E-03; -1.9974628E-02;3267; -2.7917973E-03;  0.0000000E+00; -2.0311309E-05;  1.0002897E+03;  1.0000000E-01;  2.3999321E+02;3; -1.8793827E-01;  0.0000000E+00;  2.3366555E-03;0; -1.4263739E-02;  4.0012859E+04;  0.0000000E+00; -2.0796224E-03;  4.0000000E+04;  0.0000000E+00;  4.0016711E+04; -1.4823209E-02;  0.0000000E+00;  5.5947056E-04;  2.0620310E+03;
  1.3174194E-01;  9.9999998E-03; -9.9882344E-03;3268; -2.7970814E-03;  0.0000000E+00; -1.1077620E-05;  1.0003073E+03;  1.0000000E-01;  2.5451132E+02;3; -1.8630129E-01;  0.0000000E+00;  1.2303356E-03;0; -1.4232011E-02;  4.0013098E+04;  0.0000000E+00; -5.0933857E-04;  4.0000000E+04;  0.0000000E+00;  4.0017508E+04; -1.4793523E-02;  0.0000000E+00;  5.6151242E-04;  2.1687517E+03;
  1.3174032E-01;  9.9999998E-03; -4.1479992E-10;3269; -2.7989640E-03;  0.0000000E+00; -7.2321632E-10;  1.0003122E+03;  1.0000000E-01;  2.5865936E+02;3; -1.8570210E-01;  0.0000000E+00; -1.6076228E-08;0; -1.4220365E-02;  4.0013262E+04;  0.0000000E+00;  2.4533999E-12;  4.0000000E+04;  0.0000000E+00;  4.0017609E+04; -1.4782826E-02;  0.0000000E+00;  5.6246150E-04;  2.2060789E+03;
  1.3174194E-01;  9.9999998E-03;  9.9882334E-03;3270; -2.7970821E-03;  0.0000000E+00;  1.1075919E-05;  1.0003072E+03;  1.0000000E-01;  2.5451132E+02;3; -1.8630050E-01;  0.0000000E+00; -1.2522426E-03;0; -1.4232015E-02;  4.0013098E+04;  0.0000000E+00; -5.0917047E-04;  4.0000000E+04;  0.0000000E+00;  4.0017508E+04; -1.4793525E-02;  0.0000000E+00;  5.6151010E-04;  2.1687585E+03;
  1.3174635E-01;  9.9999998E-03;  1.9974627E-02;3271; -2.7917987E-03;  0.0000000E+00;  2.0309384E-05;  1.0002897E+03;  1.0000000E-01;  2.3999321E+02;3; -1.8792631E-01;  0.0000000E+00; -2.3688511E-03;0; -1.4263742E-02;  4.0012855E+04;  0.0000000E+00; -2.0794796E-03;  4.0000000E+04;  0.0000000E+00;  4.0016711E+04; -1.4823208E-02;  0.0000000E+00;  5.5946579E-04;  2.0620427E+03;
  1.3175315E-01;  9.9999998E-03;  2.9960874E-02;3272; -2.7835991E-03;  0.0000000E+00;  2.5579826E-05;  1.0002623E+03;  1.0000000E-01;  2.1737657E+02;3; -1.9039011E-01;  0.0000000E+00; -3.5142717E-03;0; -1.4306867E-02;  4.0011852E+04;  0.0000000E+00; -4.8391698E-03;  4.0000000E+04;  0.0000000E+00;  4.0015344E+04; -1.4865135E-02;  0.0000000E+00;  5.5826735E-04;  1.9035537E+03;
  1.3176222E-01;  9.9999998E-03;  3.9949160E-02;3273; -2.7731396E-03;  0.0000000E+00;  2.6473806E-05;  1.0002213E+03;  1.0000000E-01;  1.8340222E+02;3; -1.9301490E-01;  0.0000000E+00; -4.5160521E-03;0; -1.4348987E-02;  4.0010238E+04;  0.0000000E+00; -9.0127047E-03;  4.0000000E+04;  0.0000000E+00;  4.0014051E+04; -1.4908746E-02;  0.0000000E+00;  5.5975869E-04;  1.7249874E+03;
  1.3177432E-01;  9.9999998E-03;  4.9940657E-02;3274; -2.7611293E-03;  0.0000000E+00;  2.4098925E-05;  1.0001697E+03;  1.0000000E-01;  1.4063800E+02;3; -1.9501954E-01;  0.0000000E+00; -5.3843562E-03;0; -1.4376792E-02;  4.0007371E+04;  0.0000000E+00; -1.4878761E-02;  4.0000000E+04;  0.0000000E+00;  4.0012695E+04; -1.4940975E-02;  0.0000000E+00;  5.6418340E-04;  1.5693796E+03;
  1.3179046E-01;  9.9999998E-03;  5.9935249E-02;3275; -2.7482859E-03;  0.0000000E+00;  2.0815842E-05;  1.0001091E+03;  1.0000000E-01;  9.0367813E+01;3; -1.9537534E-01;  0.0000000E+00; -6.3536726E-03;0; -1.4378672E-02;  4.0003480E+04;  0.0000000E+00; -2.2634439E-02;  4.0000000E+04;  0.0000000E+00;  4.0012082E+04; -1.4947631E-02;  0.0000000E+00;  5.6895922E-04;  1.4833513E+03;
  1.4176394E-01;  9.9999998E-03; -9.9935792E-02;3320; -2.9150757E-03;  0.0000000E+00; -4.4854274E-05;  9.9978082E+02;  1.0000000E-01; -1.8157512E+02;3;  1.0924800E-01;  0.0000000E+00;  9.9355550E-03;0; -1.4497330E-02;  3.9968598E+04;  0.0000000E+00; -6.6022485E-02;  4.0000000E+04;  0.0000000E+00;  4.0017980E+04; -1.4872491E-02;  0.0000000E+00;  3.7516101E-04;  2.2322307E+03;
  1.4172053E-01;  9.9999998E-03; -8.9930110E-02;3321; -2.9272144E-03;  0.0000000E+00; -2.8590031E-05;  9.9982239E+02;  1.0000000E-01; -1.4715633E+02;3;  1.0658873E-01;  0.0000000E+00;  9.6373539E-03;0; -1.4628378E-02;  3.9974312E+04;  0.0000000E+00; -5.4851811E-02;  4.0000000E+04;  0.0000000E+00;  4.0015500E+04; -1.5074178E-02;  0.0000000E+00;  4.4579947E-04;  1.9181724E+03;
  1.4168070E-01;  9.9999998E-03; -7.9922453E-02;3322; -2.9381444E-03;  0.0000000E+00; -1.7297640E-05;  9.9987708E+02;  1.0000000E-01; -1.0182428E+02;3;  1.0421626E-01;  0.0000000E+00;  9.1412123E-03;0; -1.4729613E-02;  3.9980227E+04;  0.0000000E+00; -4.2524263E-02;  4.0000000E+04;  0.0000000E+00;  4.0013391E+04; -1.5215371E-02;  0.0000000E+00;  4.8575821E-04;  1.6521989E+03;
  1.4164767E-01;  9.9999998E-03; -6.9917820E-02;3323; -2.9481007E-03;  0.0000000E+00; -1.2627871E-05;  9.9992957E+02;  1.0000000E-01; -5.8368721E+01;3;  1.0238102E-01;  0.0000000E+00;  8.2694208E-03;0; -1.4794778E-02;  3.9985531E+04;  0.0000000E+00; -3.1128688E-02;  4.0000000E+04;  0.0000000E+00;  4.0012004E+04; -1.5296941E-02;  0.0000000E+00;  5.0216308E-04;  1.4897367E+03;
  1.4162062E-01;  9.9999998E-03; -5.9918784E-02;3324; -2.9572481E-03;  0.0000000E+00; -1.3110977E-05;  9.9998431E+02;  1.0000000E-01; -1.2987287E+01;3;  1.0106875E-01;  0.0000000E+00;  7.3736808E-03;0; -1.4821940E-02;  3.9989961E+04;  0.0000000E+00; -2.1679223E-02;  4.0000000E+04;  0.0000000E+00;  4.0011309E+04; -1.5326007E-02;  0.0000000E+00;  5.0406717E-04;  1.4494014E+03;
  1.4159803E-01;  9.9999998E-03; -4.9926039E-02;3325; -2.9656121E-03;  0.0000000E+00; -1.6011991E-05;  1.0000300E+03;  1.0000000E-01;  2.4888186E+01;3;  1.0029299E-01;  0.0000000E+00;  6.4557805E-03;0; -1.4814555E-02;  3.9993062E+04;  0.0000000E+00; -1.4377852E-02;  4.0000000E+04;  0.0000000E+00;  4.0011852E+04; -1.5314369E-02;  0.0000000E+00;  4.9981422E-04;  1.5166239E+03;
  1.4158006E-01;  9.9999998E-03; -3.9938029E-02;3326; -2.9731186E-03;  0.0000000E+00; -1.8585886E-05;  1.0000671E+03;  1.0000000E-01;  5.5603367E+01;3;  9.9860512E-02;  0.0000000E+00;  5.4924032E-03;0; -1.4781249E-02;  3.9995031E+04;  0.0000000E+00; -8.9499056E-03;  4.0000000E+04;  0.0000000E+00;  4.0012895E+04; -1.5276506E-02;  0.0000000E+00;  4.9525645E-04;  1.6546837E+03;
  1.4156693E-01;  9.9999998E-03; -2.9953063E-02;3327; -2.9795521E-03;  0.0000000E+00; -1.8664443E-05;  1.0000995E+03;  1.0000000E-01;  8.2466805E+01;3;  9.9641122E-02;  0.0000000E+00;  4.2679901E-03;0; -1.4734412E-02;  3.9995848E+04;  0.0000000E+00; -4.9970159E-03;  4.0000000E+04;  0.0000000E+00;  4.0014363E+04; -1.5227537E-02;  0.0000000E+00;  4.9312535E-04;  1.8182445E+03;
  1.4155795E-01;  9.9999998E-03; -1.9969802E-02;3328; -2.9845797E-03;  0.0000000E+00; -1.5214892E-05;  1.0001180E+03;  1.0000000E-01;  9.7775009E+01;3;  9.9557847E-02;  0.0000000E+00;  2.9242211E-03;0; -1.4687773E-02;  3.9996086E+04;  0.0000000E+00; -2.2345167E-03;  4.0000000E+04;  0.0000000E+00;  4.0015707E+04; -1.5181244E-02;  0.0000000E+00;  4.9347110E-04;  1.9651095E+03;
  1.4155214E-01;  9.9999998E-03; -9.9860048E-03;3329; -2.9877981E-03;  0.0000000E+00; -8.4866952E-06;  1.0001315E+03;  1.0000000E-01;  1.0893519E+02;3;  9.9529132E-02;  0.0000000E+00;  1.3448837E-03;0; -1.4653848E-02;  3.9996273E+04;  0.0000000E+00; -5.6358427E-04;  4.0000000E+04;  0.0000000E+00;  4.0016164E+04; -1.5148655E-02;  0.0000000E+00;  4.9480610E-04;  2.0644014E+03;
  1.4155003E-01;  9.9999998E-03; -4.2906118E-10;3330; -2.9888975E-03;  0.0000000E+00; -1.2630974E-09;  1.0001326E+03;  1.0000000E-01;  1.0982405E+02;3;  9.9523239E-02;  0.0000000E+00; -4.2271181E-06;0; -1.4641483E-02;  3.9996203E+04;  0.0000000E+00;  7.1678438E-13;  4.0000000E+04;  0.0000000E+00;  4.0016379E+04; -1.5136965E-02;  0.0000000E+00;  4.9548160E-04;  2.0991233E+03;
  1.4155214E-01;  9.9999998E-03;  9.9860039E-03;3331; -2.9877988E-03;  0.0000000E+00;  8.4857438E-06;  1.0001315E+03;  1.0000000E-01;  1.0893519E+02;3;  9.9537030E-02;  0.0000000E+00; -1.3643751E-03;0; -1.4653849E-02;  3.9996277E+04;  0.0000000E+00; -5.6347309E-04;  4.0000000E+04;  0.0000000E+00;  4.0016164E+04; -1.5148654E-02;  0.0000000E+00;  4.9480383E-04;  2.0644021E+03;
  1.4155795E-01;  9.9999998E-03;  1.9969800E-02;3332; -2.9845808E-03;  0.0000000E+00;  1.5212842E-05;  1.0001180E+03;  1.0000000E-01;  9.7775009E+01;3;  9.9571735E-02;  0.0000000E+00; -2.9484024E-03;0; -1.4687781E-02;  3.9996086E+04;  0.0000000E+00; -2.2344743E-03;  4.0000000E+04;  0.0000000E+00;  4.0015707E+04; -1.5181248E-02;  0.0000000E+00;  4.9346656E-04;  1.9651144E+03;
  1.4156693E-01;  9.9999998E-03;  2.9953061E-02;3333; -2.9795545E-03;  0.0000000E+00;  1.8661916E-05;  1.0000995E+03;  1.0000000E-01;  8.2466805E+01;3;  9.9654660E-02;  0.0000000E+00; -4.2749974E-03;0; -1.4734432E-02;  3.9995844E+04;  0.0000000E+00; -4.9969107E-03;  4.0000000E+04;  0.0000000E+00;  4.0014363E+04; -1.5227552E-02;  0.0000000E+00;  4.9311988E-04;  1.8182518E+03;
  1.4158006E-01;  9.9999998E-03;  3.9938029E-02;3334; -2.9731209E-03;  0.0000000E+00;  1.8583682E-05;  1.0000671E+03;  1.0000000E-01;  5.5603367E+01;3;  9.9887520E-02;  0.0000000E+00; -5.4694968E-03;0; -1.4781273E-02;  3.9995035E+04;  0.0000000E+00; -8.9496896E-03;  4.0000000E+04;  0.0000000E+00;  4.0012895E+04; -1.5276522E-02;  0.0000000E+00;  4.9524970E-04;  1.6546927E+03;
  1.4159803E-01;  9.9999998E-03;  4.9926039E-02;3335; -2.9656142E-03;  0.0000000E+00;  1.6009326E-05;  1.0000300E+03;  1.0000000E-01;  2.4888186E+01;3;  1.0031018E-01;  0.0000000E+00; -6.4296201E-03;0; -1.4814583E-02;  3.9993059E+04;  0.0000000E+00; -1.4377275E-02;  4.0000000E+04;  0.0000000E+00;  4.0011855E+04; -1.5314391E-02;  0.0000000E+00;  4.9980829E-04;  1.5166256E+03;
  1.4162062E-01;  9.9999998E-03;  5.9918784E-02;3336; -2.9572500E-03;  0.0000000E+00;  1.3109580E-05;  9.9998431E+02;  1.0000000E-01; -1.2987287E+01;3;  1.0109727E-01;  0.0000000E+00; -7.3557538E-03;0; -1.4821952E-02;  3.9989961E+04;  0.0000000E+00; -2.1680072E-02;  4.0000000E+04;  0.0000000E+00;  4.0011309E+04; -1.5326015E-02;  0.0000000E+00;  5.0406234E-04;  1.4494082E+03;
  1.5136062E-01;  9.9999998E-03; -9.9867573E-03;3390; -3.2166548E-03;  0.0000000E+00; -6.5079789E-06;  1.0000737E+03;  1.0000000E-01;  6.1035313E+01;3;  1.8102627E-01;  0.0000000E+00;  1.6308981E-03;0; -1.5049772E-02;  3.9991324E+04;  0.0000000E+00; -7.0325425E-04;  4.0000000E+04;  0.0000000E+00;  4.0013445E+04; -1.5484738E-02;  0.0000000E+00;  4.3496542E-04;  1.7528270E+03;
  1.5135810E-01;  9.9999998E-03; -4.9254562E-10;3391; -3.2170061E-03;  0.0000000E+00; -1.3507578E-09;  1.0000746E+03;  1.0000000E-01;  6.1825413E+01;3;  1.8088873E-01;  0.0000000E+00; -4.9960104E-06;0; -1.5036879E-02;  3.9991180E+04;  0.0000000E+00;  4.3489447E-13;  4.0000000E+04;  0.0000000E+00;  4.0013441E+04; -1.5472540E-02;  0.0000000E+00;  4.3566077E-04;  1.7832151E+03;
  1.5136062E-01;  9.9999998E-03;  9.9867564E-03;3392; -3.2166555E-03;  0.0000000E+00;  6.5058248E-06;  1.0000737E+03;  1.0000000E-01;  6.1035313E+01;3;  1.8104519E-01;  0.0000000E+00; -1.6399114E-03;0; -1.5049778E-02;  3.9991324E+04;  0.0000000E+00; -7.0322532E-04;  4.0000000E+04;  0.0000000E+00;  4.0013445E+04; -1.5484741E-02;  0.0000000E+00;  4.3496335E-04;  1.7528296E+03;
  1.5136771E-01;  9.9999998E-03; -1.9971030E-02;3389; -3.2156219E-03;  0.0000000E+00; -1.1145952E-05;  1.0000690E+03;  1.0000000E-01;  5.7183567E+01;3;  1.8147713E-01;  0.0000000E+00;  3.2660018E-03;0; -1.5085341E-02;  3.9991645E+04;  0.0000000E+00; -2.6697561E-03;  4.0000000E+04;  0.0000000E+00;  4.0013035E+04; -1.5518855E-02;  0.0000000E+00;  4.3351395E-04;  1.6657002E+03;
  1.5136771E-01;  9.9999998E-03;  1.9971028E-02;3393; -3.2156229E-03;  0.0000000E+00;  1.1144378E-05;  1.0000690E+03;  1.0000000E-01;  5.7183567E+01;3;  1.8148409E-01;  0.0000000E+00; -3.2633187E-03;0; -1.5085346E-02;  3.9991645E+04;  0.0000000E+00; -2.6693072E-03;  4.0000000E+04;  0.0000000E+00;  4.0013035E+04; -1.5518856E-02;  0.0000000E+00;  4.3351043E-04;  1.6657090E+03;
  1.5137948E-01;  9.9999998E-03; -2.9954810E-02;3388; -3.2139828E-03;  0.0000000E+00; -1.2848666E-05;  1.0000578E+03;  1.0000000E-01;  4.7899879E+01;3;  1.8211292E-01;  0.0000000E+00;  4.7644111E-03;0; -1.5134778E-02;  3.9992094E+04;  0.0000000E+00; -5.5694371E-03;  4.0000000E+04;  0.0000000E+00;  4.0011949E+04; -1.5567591E-02;  0.0000000E+00;  4.3281307E-04;  1.5367559E+03;
  1.5137948E-01;  9.9999998E-03;  2.9954810E-02;3394; -3.2139842E-03;  0.0000000E+00;  1.2846244E-05;  1.0000578E+03;  1.0000000E-01;  4.7899879E+01;3;  1.8215938E-01;  0.0000000E+00; -4.7632866E-03;0; -1.5134784E-02;  3.9992094E+04;  0.0000000E+00; -5.5692703E-03;  4.0000000E+04;  0.0000000E+00;  4.0011949E+04; -1.5567593E-02;  0.0000000E+00;  4.3280871E-04;  1.5367656E+03;
  1.5139657E-01;  9.9999998E-03; -3.9940193E-02;3387; -3.2117961E-03;  0.0000000E+00; -1.1575553E-05;  1.0000453E+03;  1.0000000E-01;  3.7529804E+01;3;  1.8295127E-01;  0.0000000E+00;  6.1897007E-03;0; -1.5185480E-02;  3.9992051E+04;  0.0000000E+00; -9.1296891E-03;  4.0000000E+04;  0.0000000E+00;  4.0011012E+04; -1.5619690E-02;  0.0000000E+00;  4.3421000E-04;  1.3947145E+03;
  1.5139657E-01;  9.9999998E-03;  3.9940193E-02;3395; -3.2117974E-03;  0.0000000E+00;  1.1574042E-05;  1.0000453E+03;  1.0000000E-01;  3.7529804E+01;3;  1.8298477E-01;  0.0000000E+00; -6.1536697E-03;0; -1.5185520E-02;  3.9992051E+04;  0.0000000E+00; -9.1286479E-03;  4.0000000E+04;  0.0000000E+00;  4.0011012E+04; -1.5619726E-02;  0.0000000E+00;  4.3420552E-04;  1.3947167E+03;
  1.5141957E-01;  9.9999998E-03; -4.9928375E-02;3386; -3.2089716E-03;  0.0000000E+00; -8.3188997E-06;  1.0000233E+03;  1.0000000E-01;  1.9357477E+01;3;  1.8389268E-01;  0.0000000E+00;  7.3717432E-03;0; -1.5223444E-02;  3.9991219E+04;  0.0000000E+00; -1.3375184E-02;  4.0000000E+04;  0.0000000E+00;  4.0009926E+04; -1.5661037E-02;  0.0000000E+00;  4.3759329E-04;  1.2797195E+03;
  1.5141957E-01;  9.9999998E-03;  4.9928375E-02;3396; -3.2089727E-03;  0.0000000E+00;  8.3167006E-06;  1.0000233E+03;  1.0000000E-01;  1.9258715E+01;3;  1.8393445E-01;  0.0000000E+00; -7.3610460E-03;0; -1.5223453E-02;  3.9991219E+04;  0.0000000E+00; -1.3373992E-02;  4.0000000E+04;  0.0000000E+00;  4.0009926E+04; -1.5661042E-02;  0.0000000E+00;  4.3758933E-04;  1.2797229E+03;
  1.5144862E-01;  9.9999998E-03; -5.9919897E-02;3385; -3.2051818E-03;  0.0000000E+00; -4.9424048E-06;  9.9999359E+02;  1.0000000E-01; -5.3331823E+00;3;  1.8490180E-01;  0.0000000E+00;  8.4378375E-03;0; -1.5235947E-02;  3.9989441E+04;  0.0000000E+00; -1.8716346E-02;  4.0000000E+04;  0.0000000E+00;  4.0009703E+04; -1.5676251E-02;  0.0000000E+00;  4.4030347E-04;  1.2346603E+03;
  1.5144862E-01;  9.9999998E-03;  5.9919897E-02;3397; -3.2051853E-03;  0.0000000E+00;  4.9364030E-06;  9.9999359E+02;  1.0000000E-01; -5.3331823E+00;3;  1.8493675E-01;  0.0000000E+00; -8.4612835E-03;0; -1.5235961E-02;  3.9989438E+04;  0.0000000E+00; -1.8715765E-02;  4.0000000E+04;  0.0000000E+00;  4.0009703E+04; -1.5676262E-02;  0.0000000E+00;  4.4030068E-04;  1.2346605E+03;
  1.5148346E-01;  9.9999998E-03; -6.9915362E-02;3384; -3.1998125E-03;  0.0000000E+00; -3.8746448E-06;  9.9996210E+02;  1.0000000E-01; -3.1406519E+01;3;  1.8593380E-01;  0.0000000E+00;  9.5396349E-03;0; -1.5213691E-02;  3.9986680E+04;  0.0000000E+00; -2.5813637E-02;  4.0000000E+04;  0.0000000E+00;  4.0010328E+04; -1.5650403E-02;  0.0000000E+00;  4.3671238E-04;  1.2928959E+03;
  1.5152393E-01;  9.9999998E-03; -7.9915129E-02;3383; -3.1920527E-03;  0.0000000E+00; -7.5919056E-06;  9.9992944E+02;  1.0000000E-01; -5.8467484E+01;3;  1.8694423E-01;  0.0000000E+00;  1.0563853E-02;0; -1.5152440E-02;  3.9982887E+04;  0.0000000E+00; -3.5228595E-02;  4.0000000E+04;  0.0000000E+00;  4.0012320E+04; -1.5571245E-02;  0.0000000E+00;  4.1880491E-04;  1.4658584E+03;
  1.5156928E-01;  9.9999998E-03; -8.9918122E-02;3382; -3.1809744E-03;  0.0000000E+00; -1.7372267E-05;  9.9989825E+02;  1.0000000E-01; -8.4293915E+01;3;  1.8795760E-01;  0.0000000E+00;  1.1515518E-02;0; -1.5053279E-02;  3.9978348E+04;  0.0000000E+00; -4.6965685E-02;  4.0000000E+04;  0.0000000E+00;  4.0014410E+04; -1.5431115E-02;  0.0000000E+00;  3.7783640E-04;  1.7335170E+03;
  1.5161876E-01;  9.9999998E-03; -9.9922799E-02;3381; -3.1658376E-03;  0.0000000E+00; -3.1448097E-05;  9.9987500E+02;  1.0000000E-01; -1.0355263E+02;3;  1.8897210E-01;  0.0000000E+00;  1.1976260E-02;0; -1.4921935E-02;  3.9974406E+04;  0.0000000E+00; -5.9986096E-02;  4.0000000E+04;  0.0000000E+00;  4.0017012E+04; -1.5228716E-02;  0.0000000E+00;  3.0678045E-04;  2.0423439E+03;
  1.6153915E-01;  9.9999998E-03; -9.9950314E-02;3442; -3.4369950E-03;  0.0000000E+00; -2.1059226E-05;  1.0000576E+03;  1.0000000E-01;  4.7702354E+01;3;  2.0664190E-01;  0.0000000E+00;  1.4405623E-02;0; -1.5209567E-02;  3.9989199E+04;  0.0000000E+00; -4.7479950E-02;  4.0000000E+04;  0.0000000E+00;  4.0014312E+04; -1.5454652E-02;  0.0000000E+00;  2.4508467E-04;  1.6762552E+03;
  1.6149020E-01;  9.9999998E-03; -8.9949086E-02;3443; -3.4553162E-03;  0.0000000E+00; -7.9664887E-06;  1.0000583E+03;  1.0000000E-01;  4.8294930E+01;3;  2.0584393E-01;  0.0000000E+00;  1.3650134E-02;0; -1.5338079E-02;  3.9991582E+04;  0.0000000E+00; -3.5357453E-02;  4.0000000E+04;  0.0000000E+00;  4.0011902E+04; -1.5652955E-02;  0.0000000E+00;  3.1487536E-04;  1.3810624E+03;
  1.6144246E-01;  9.9999998E-03; -7.9948165E-02;3444; -3.4666285E-03;  0.0000000E+00;  4.0191330E-07;  1.0000641E+03;  1.0000000E-01;  5.3134300E+01;3;  2.0502141E-01;  0.0000000E+00;  1.2396974E-02;0; -1.5433231E-02;  3.9993816E+04;  0.0000000E+00; -2.6936861E-02;  4.0000000E+04;  0.0000000E+00;  4.0009559E+04; -1.5789097E-02;  0.0000000E+00;  3.5586592E-04;  1.1178820E+03;
  1.6139944E-01;  9.9999998E-03; -6.9949225E-02;3445; -3.4722439E-03;  0.0000000E+00;  3.2427959E-06;  1.0000720E+03;  1.0000000E-01;  5.9652634E+01;3;  2.0416008E-01;  0.0000000E+00;  1.1104315E-02;0; -1.5489831E-02;  3.9995680E+04;  0.0000000E+00; -2.1593353E-02;  4.0000000E+04;  0.0000000E+00;  4.0007758E+04; -1.5864832E-02;  0.0000000E+00;  3.7500128E-04;  9.3808698E+02;
  1.6136286E-01;  9.9999998E-03; -5.9952732E-02;3446; -3.4738295E-03;  0.0000000E+00;  1.6366114E-06;  1.0000862E+03;  1.0000000E-01;  7.1405388E+01;3;  2.0322800E-01;  0.0000000E+00;  9.7439000E-03;0; -1.5507351E-02;  3.9997125E+04;  0.0000000E+00; -1.8033477E-02;  4.0000000E+04;  0.0000000E+00;  4.0006762E+04; -1.5888056E-02;  0.0000000E+00;  3.8070537E-04;  8.6313013E+02;
  1.6133341E-01;  9.9999998E-03; -4.9958363E-02;3447; -3.4730018E-03;  0.0000000E+00; -2.2567931E-06;  1.0000944E+03;  1.0000000E-01;  7.8220009E+01;3;  2.0225565E-01;  0.0000000E+00;  8.4366389E-03;0; -1.5490538E-02;  3.9997434E+04;  0.0000000E+00; -1.4948696E-02;  4.0000000E+04;  0.0000000E+00;  4.0006938E+04; -1.5871063E-02;  0.0000000E+00;  3.8052545E-04;  8.8527966E+02;
  1.6131023E-01;  9.9999998E-03; -3.9965957E-02;3448; -3.4710441E-03;  0.0000000E+00; -6.1768287E-06;  1.0001000E+03;  1.0000000E-01;  8.2861855E+01;3;  2.0132004E-01;  0.0000000E+00;  7.0075411E-03;0; -1.5448971E-02;  3.9997191E+04;  0.0000000E+00; -1.1518524E-02;  4.0000000E+04;  0.0000000E+00;  4.0007355E+04; -1.5828619E-02;  0.0000000E+00;  3.7964823E-04;  9.7485583E+02;
  1.6129291E-01;  9.9999998E-03; -2.9975448E-02;3449; -3.4688674E-03;  0.0000000E+00; -8.3812274E-06;  1.0001030E+03;  1.0000000E-01;  8.5330917E+01;3;  2.0045868E-01;  0.0000000E+00;  5.4498594E-03;0; -1.5395566E-02;  3.9996355E+04;  0.0000000E+00; -7.6372949E-03;  4.0000000E+04;  0.0000000E+00;  4.0008176E+04; -1.5775967E-02;  0.0000000E+00;  3.8040162E-04;  1.0918729E+03;
  1.6128039E-01;  9.9999998E-03; -1.9985773E-02;3450; -3.4670171E-03;  0.0000000E+00; -7.8964413E-06;  1.0001043E+03;  1.0000000E-01;  8.6417313E+01;3;  1.9976979E-01;  0.0000000E+00;  3.7926249E-03;0; -1.5344310E-02;  3.9995488E+04;  0.0000000E+00; -3.8506482E-03;  4.0000000E+04;  0.0000000E+00;  4.0009094E+04; -1.5727011E-02;  0.0000000E+00;  3.8270207E-04;  1.1989081E+03;
  1.6127247E-01;  9.9999998E-03; -9.9948505E-03;3451; -3.4657982E-03;  0.0000000E+00; -4.7771287E-06;  1.0001031E+03;  1.0000000E-01;  8.5429680E+01;3;  1.9932207E-01;  0.0000000E+00;  1.9915802E-03;0; -1.5307718E-02;  3.9994812E+04;  0.0000000E+00; -1.0416065E-03;  4.0000000E+04;  0.0000000E+00;  4.0009766E+04; -1.5692843E-02;  0.0000000E+00;  3.8512479E-04;  1.2704800E+03;
  1.6126949E-01;  9.9999998E-03; -5.0695531E-10;3452; -3.4653691E-03;  0.0000000E+00; -1.1163542E-09;  1.0001033E+03;  1.0000000E-01;  8.5528442E+01;3;  1.9917409E-01;  0.0000000E+00;  4.8813536E-06;0; -1.5294461E-02;  3.9994512E+04;  0.0000000E+00; -1.6316382E-12;  4.0000000E+04;  0.0000000E+00;  4.0009848E+04; -1.5680606E-02;  0.0000000E+00;  3.8614494E-04;  1.2951240E+03;
  1.6127247E-01;  9.9999998E-03;  9.9948496E-03;3453; -3.4657989E-03;  0.0000000E+00;  4.7749650E-06;  1.0001030E+03;  1.0000000E-01;  8.5330917E+01;3;  1.9934878E-01;  0.0000000E+00; -1.9868363E-03;0; -1.5307720E-02;  3.9994816E+04;  0.0000000E+00; -1.0416580E-03;  4.0000000E+04;  0.0000000E+00;  4.0009766E+04; -1.5692843E-02;  0.0000000E+00;  3.8512339E-04;  1.2704838E+03;
  1.6128039E-01;  9.9999998E-03;  1.9985773E-02;3454; -3.4670185E-03;  0.0000000E+00;  7.8934590E-06;  1.0001043E+03;  1.0000000E-01;  8.6417313E+01;3;  1.9981243E-01;  0.0000000E+00; -3.7770930E-03;0; -1.5344310E-02;  3.9995488E+04;  0.0000000E+00; -3.8505516E-03;  4.0000000E+04;  0.0000000E+00;  4.0009094E+04; -1.5727010E-02;  0.0000000E+00;  3.8269986E-04;  1.1989176E+03;
  1.6129291E-01;  9.9999998E-03;  2.9975448E-02;3455; -3.4688686E-03;  0.0000000E+00;  8.3779005E-06;  1.0001030E+03;  1.0000000E-01;  8.5330917E+01;3;  2.0051433E-01;  0.0000000E+00; -5.4433690E-03;0; -1.5395561E-02;  3.9996352E+04;  0.0000000E+00; -7.6375292E-03;  4.0000000E+04;  0.0000000E+00;  4.0008176E+04; -1.5775960E-02;  0.0000000E+00;  3.8039871E-04;  1.0918821E+03;
  1.6131023E-01;  9.9999998E-03;  3.9965957E-02;3456; -3.4710453E-03;  0.0000000E+00;  6.1729424E-06;  1.0001000E+03;  1.0000000E-01;  8.2861855E+01;3;  2.0136818E-01;  0.0000000E+00; -6.9930791E-03;0; -1.5448982E-02;  3.9997191E+04;  0.0000000E+00; -1.1517455E-02;  4.0000000E+04;  0.0000000E+00;  4.0007355E+04; -1.5828628E-02;  0.0000000E+00;  3.7964617E-04;  9.7485388E+02;
  1.6133341E-01;  9.9999998E-03;  4.9958363E-02;3457; -3.4730036E-03;  0.0000000E+00;  2.2526478E-06;  1.0000944E+03;  1.0000000E-01;  7.8220009E+01;3;  2.0232144E-01;  0.0000000E+00; -8.4245615E-03;0; -1.5490539E-02;  3.9997434E+04;  0.0000000E+00; -1.4948873E-02;  4.0000000E+04;  0.0000000E+00;  4.0006938E+04; -1.5871063E-02;  0.0000000E+00;  3.8052379E-04;  8.8528546E+02;
  1.6136286E-01;  9.9999998E-03;  5.9952728E-02;3458; -3.4738320E-03;  0.0000000E+00; -1.6393384E-06;  1.0000862E+03;  1.0000000E-01;  7.1405388E+01;3;  2.0327307E-01;  0.0000000E+00; -9.7107850E-03;0; -1.5507353E-02;  3.9997125E+04;  0.0000000E+00; -1.8031953E-02;  4.0000000E+04;  0.0000000E+00;  4.0006766E+04; -1.5888060E-02;  0.0000000E+00;  3.8070572E-04;  8.6313293E+02;
  1.7147322E-01;  9.9999998E-03; -1.0001663E-01;3503; -3.7021753E-03;  0.0000000E+00; -1.4421735E-05;  1.0002356E+03;  1.0000000E-01;  1.9515497E+02;3;  2.2000739E-01;  0.0000000E+00;  1.7359653E-02;0; -1.5278324E-02;  4.0005891E+04;  0.0000000E+00; -3.5860013E-02;  4.0000000E+04;  0.0000000E+00;  4.0010426E+04; -1.5472063E-02;  0.0000000E+00;  1.9373951E-04;  1.1704951E+03;
  1.7141639E-01;  9.9999998E-03; -9.0016313E-02;3504; -3.7234798E-03;  0.0000000E+00; -1.6694654E-06;  1.0002162E+03;  1.0000000E-01;  1.7915543E+02;3;  2.1926898E-01;  0.0000000E+00;  1.6178910E-02;0; -1.5400636E-02;  4.0006176E+04;  0.0000000E+00; -2.7194472E-02;  4.0000000E+04;  0.0000000E+00;  4.0007723E+04; -1.5661180E-02;  0.0000000E+00;  2.6054375E-04;  8.9528845E+02;
  1.7136559E-01;  9.9999998E-03; -8.0014899E-02;3505; -3.7349041E-03;  0.0000000E+00;  6.0626930E-06;  1.0002082E+03;  1.0000000E-01;  1.7243956E+02;3;  2.1858060E-01;  0.0000000E+00;  1.4489409E-02;0; -1.5489659E-02;  4.0007027E+04;  0.0000000E+00; -2.3739800E-02;  4.0000000E+04;  0.0000000E+00;  4.0005609E+04; -1.5790164E-02;  0.0000000E+00;  3.0050488E-04;  6.4310156E+02;
  1.7132388E-01;  9.9999998E-03; -7.0012763E-02;3506; -3.7383407E-03;  0.0000000E+00;  8.0162054E-06;  1.0001978E+03;  1.0000000E-01;  1.6384721E+02;3;  2.1780834E-01;  0.0000000E+00;  1.2795414E-02;0; -1.5540674E-02;  4.0007531E+04;  0.0000000E+00; -2.3053324E-02;  4.0000000E+04;  0.0000000E+00;  4.0004086E+04; -1.5861226E-02;  0.0000000E+00;  3.2055157E-04;  4.6180298E+02;
  1.7129450E-01;  9.9999998E-03; -6.0010120E-02;3507; -3.7362836E-03;  0.0000000E+00;  5.7207985E-06;  1.0001949E+03;  1.0000000E-01;  1.6147691E+02;3;  2.1691486E-01;  0.0000000E+00;  1.1190016E-02;0; -1.5553423E-02;  4.0007777E+04;  0.0000000E+00; -2.2683049E-02;  4.0000000E+04;  0.0000000E+00;  4.0003039E+04; -1.5882149E-02;  0.0000000E+00;  3.2872643E-04;  3.7406308E+02;
  1.7128359E-01;  9.9999998E-03; -5.0008111E-02;3508; -3.7312254E-03;  0.0000000E+00;  1.3876077E-06;  1.0001932E+03;  1.0000000E-01;  1.6009424E+02;3;  2.1596819E-01;  0.0000000E+00;  9.5623266E-03;0; -1.5532825E-02;  4.0007430E+04;  0.0000000E+00; -2.0881413E-02;  4.0000000E+04;  0.0000000E+00;  4.0003141E+04; -1.5864776E-02;  0.0000000E+00;  3.3195087E-04;  3.7581015E+02;
  1.7129444E-01;  9.9999998E-03; -4.0008716E-02;3509; -3.7252225E-03;  0.0000000E+00; -2.9328930E-06;  1.0001904E+03;  1.0000000E-01;  1.5772394E+02;3;  2.1505323E-01;  0.0000000E+00;  7.9593239E-03;0; -1.5488466E-02;  4.0006629E+04;  0.0000000E+00; -1.7018201E-02;  4.0000000E+04;  0.0000000E+00;  4.0003316E+04; -1.5823212E-02;  0.0000000E+00;  3.3474559E-04;  4.4134906E+02;
  1.7131813E-01;  9.9999998E-03; -3.0011587E-02;3510; -3.7195636E-03;  0.0000000E+00; -5.6367335E-06;  1.0001879E+03;  1.0000000E-01;  1.5564992E+02;3;  2.1422051E-01;  0.0000000E+00;  6.2478436E-03;0; -1.5433220E-02;  4.0005668E+04;  0.0000000E+00; -1.1581673E-02;  4.0000000E+04;  0.0000000E+00;  4.0004117E+04; -1.5772117E-02;  0.0000000E+00;  3.3889673E-04;  5.3376752E+02;
  1.7133786E-01;  9.9999998E-03; -2.0013765E-02;3511; -3.7149065E-03;  0.0000000E+00; -5.8786104E-06;  1.0001810E+03;  1.0000000E-01;  1.5002045E+02;3;  2.1356812E-01;  0.0000000E+00;  4.3697106E-03;0; -1.5380953E-02;  4.0004484E+04;  0.0000000E+00; -5.8981548E-03;  4.0000000E+04;  0.0000000E+00;  4.0004387E+04; -1.5724879E-02;  0.0000000E+00;  3.4392500E-04;  6.1853101E+02;
  1.7134210E-01;  9.9999998E-03; -1.0011782E-02;3512; -3.7116793E-03;  0.0000000E+00; -3.6975771E-06;  1.0001766E+03;  1.0000000E-01;  1.4636623E+02;3;  2.1310772E-01;  0.0000000E+00;  2.2510034E-03;0; -1.5343989E-02;  4.0003676E+04;  0.0000000E+00; -1.6000042E-03;  4.0000000E+04;  0.0000000E+00;  4.0005160E+04; -1.5692113E-02;  0.0000000E+00;  3.4812413E-04;  6.7398926E+02;
  1.7134228E-01;  9.9999998E-03; -3.9384973E-10;3513; -3.7105321E-03;  0.0000000E+00; -1.1852632E-09;  1.0001735E+03;  1.0000000E-01;  1.4369965E+02;3;  2.1298009E-01;  0.0000000E+00;  1.3737112E-05;0; -1.5330663E-02;  4.0003398E+04;  0.0000000E+00;  4.2342432E-13;  4.0000000E+04;  0.0000000E+00;  4.0005293E+04; -1.5680421E-02;  0.0000000E+00;  3.4975825E-04;  6.9253247E+02;
  1.7134210E-01;  9.9999998E-03;  1.0011781E-02;3514; -3.7116795E-03;  0.0000000E+00;  3.6955576E-06;  1.0001767E+03;  1.0000000E-01;  1.4636623E+02;3;  2.1312757E-01;  0.0000000E+00; -2.2157868E-03;0; -1.5343984E-02;  4.0003680E+04;  0.0000000E+00; -1.6000530E-03;  4.0000000E+04;  0.0000000E+00;  4.0005160E+04; -1.5692107E-02;  0.0000000E+00;  3.4812352E-04;  6.7398749E+02;
  1.7133786E-01;  9.9999998E-03;  2.0013765E-02;3515; -3.7149091E-03;  0.0000000E+00;  5.8751634E-06;  1.0001811E+03;  1.0000000E-01;  1.5002045E+02;3;  2.1357939E-01;  0.0000000E+00; -4.3446016E-03;0; -1.5380960E-02;  4.0004484E+04;  0.0000000E+00; -5.8981571E-03;  4.0000000E+04;  0.0000000E+00;  4.0004387E+04; -1.5724884E-02;  0.0000000E+00;  3.4392421E-04;  6.1853497E+02;
  1.7131813E-01;  9.9999998E-03;  3.0011585E-02;3516; -3.7195669E-03;  0.0000000E+00;  5.6327517E-06;  1.0001879E+03;  1.0000000E-01;  1.5564992E+02;3;  2.1427751E-01;  0.0000000E+00; -6.2400615E-03;0; -1.5433232E-02;  4.0005664E+04;  0.0000000E+00; -1.1582328E-02;  4.0000000E+04;  0.0000000E+00;  4.0004117E+04; -1.5772128E-02;  0.0000000E+00;  3.3889583E-04;  5.3377032E+02;
  1.7129444E-01;  9.9999998E-03;  4.0008716E-02;3517; -3.7252246E-03;  0.0000000E+00;  2.9286466E-06;  1.0001902E+03;  1.0000000E-01;  1.5752641E+02;3;  2.1512134E-01;  0.0000000E+00; -7.9309009E-03;0; -1.5488461E-02;  4.0006621E+04;  0.0000000E+00; -1.7018043E-02;  4.0000000E+04;  0.0000000E+00;  4.0003316E+04; -1.5823206E-02;  0.0000000E+00;  3.3474553E-04;  4.4135263E+02;
  1.7128359E-01;  9.9999998E-03;  5.0008111E-02;3518; -3.7312289E-03;  0.0000000E+00; -1.3924101E-06;  1.0001932E+03;  1.0000000E-01;  1.5999547E+02;3;  2.1603242E-01;  0.0000000E+00; -9.5324563E-03;0; -1.5532820E-02;  4.0007426E+04;  0.0000000E+00; -2.0883499E-02;  4.0000000E+04;  0.0000000E+00;  4.0003141E+04; -1.5864771E-02;  0.0000000E+00;  3.3195168E-04;  3.7581262E+02;
  1.7129450E-01;  9.9999998E-03;  6.0010120E-02;3519; -3.7362862E-03;  0.0000000E+00; -5.7261436E-06;  1.0001949E+03;  1.0000000E-01;  1.6147691E+02;3;  2.1696258E-01;  0.0000000E+00; -1.1160349E-02;0; -1.5553421E-02;  4.0007770E+04;  0.0000000E+00; -2.2679513E-02;  4.0000000E+04;  0.0000000E+00;  4.0003043E+04; -1.5882151E-02;  0.0000000E+00;  3.2872974E-04;  3.7406784E+02;
  1.8138714E-01;  9.9999998E-03; -1.0006909E-01;3564; -3.9401455E-03;  0.0000000E+00; -6.2274798E-06;  1.0003430E+03;  1.0000000E-01;  2.8414011E+02;3;  2.3365372E-01;  0.0000000E+00;  2.1069510E-02;0; -1.5097529E-02;  4.0017680E+04;  0.0000000E+00; -2.7256835E-02;  4.0000000E+04;  0.0000000E+00;  4.0004977E+04; -1.5252847E-02;  0.0000000E+00;  1.5531891E-04;  5.6079675E+02;
  1.8134876E-01;  9.9999998E-03; -9.0068482E-02;3565; -3.9639743E-03;  0.0000000E+00;  4.7579815E-06;  1.0003130E+03;  1.0000000E-01;  2.5935068E+02;3;  2.3334745E-01;  0.0000000E+00;  1.8761218E-02;0; -1.5210013E-02;  4.0017277E+04;  0.0000000E+00; -2.3752760E-02;  4.0000000E+04;  0.0000000E+00;  4.0003238E+04; -1.5427132E-02;  0.0000000E+00;  2.1711929E-04;  3.1346030E+02;
  1.8133035E-01;  9.9999998E-03; -8.0066174E-02;3566; -3.9753364E-03;  0.0000000E+00;  1.0246365E-05;  1.0002911E+03;  1.0000000E-01;  2.4117836E+02;3;  2.3283608E-01;  0.0000000E+00;  1.6667994E-02;0; -1.5289973E-02;  4.0017398E+04;  0.0000000E+00; -2.5690367E-02;  4.0000000E+04;  0.0000000E+00;  4.0001086E+04; -1.5544762E-02;  0.0000000E+00;  2.5478861E-04;  8.7509491E+01;
  1.8133259E-01;  9.9999998E-03; -7.0061266E-02;3567; -3.9769560E-03;  0.0000000E+00;  1.0461456E-05;  1.0002845E+03;  1.0000000E-01;  2.3574641E+02;3;  2.3214866E-01;  0.0000000E+00;  1.4700912E-02;0; -1.5333109E-02;  4.0017574E+04;  0.0000000E+00; -2.9089244E-02;  4.0000000E+04;  0.0000000E+00;  3.9999605E+04; -1.5608354E-02;  0.0000000E+00;  2.7524540E-04;  1.0346052E+02;
  1.8135001E-01;  9.9999998E-03; -6.0053822E-02;3568; -3.9717988E-03;  0.0000000E+00;  7.1158611E-06;  1.0002742E+03;  1.0000000E-01;  2.2715407E+02;3;  2.3136388E-01;  0.0000000E+00;  1.2736193E-02;0; -1.5339669E-02;  4.0017562E+04;  0.0000000E+00; -3.0766580E-02;  4.0000000E+04;  0.0000000E+00;  3.9998555E+04; -1.5625788E-02;  0.0000000E+00;  2.8611932E-04;  1.9128082E+02;
  1.8137936E-01;  9.9999998E-03; -5.0046079E-02;3569; -3.9627696E-03;  0.0000000E+00;  2.2440363E-06;  1.0002751E+03;  1.0000000E-01;  2.2794417E+02;3;  2.3045538E-01;  0.0000000E+00;  1.1011728E-02;0; -1.5314681E-02;  4.0017355E+04;  0.0000000E+00; -2.8968187E-02;  4.0000000E+04;  0.0000000E+00;  3.9998613E+04; -1.5608299E-02;  0.0000000E+00;  2.9361769E-04;  1.9946564E+02;
  1.8141617E-01;  9.9999998E-03; -4.0041365E-02;3570; -3.9523481E-03;  0.0000000E+00; -2.3077396E-06;  1.0002730E+03;  1.0000000E-01;  2.2616644E+02;3;  2.2952265E-01;  0.0000000E+00;  9.0976441E-03;0; -1.5267698E-02;  4.0016758E+04;  0.0000000E+00; -2.3578910E-02;  4.0000000E+04;  0.0000000E+00;  3.9998871E+04; -1.5569101E-02;  0.0000000E+00;  3.0140305E-04;  1.4723848E+02;
  1.8145673E-01;  9.9999998E-03; -3.0041631E-02;3571; -3.9425138E-03;  0.0000000E+00; -5.1484662E-06;  1.0002711E+03;  1.0000000E-01;  2.2458624E+02;3;  2.2867736E-01;  0.0000000E+00;  7.0526712E-03;0; -1.5211117E-02;  4.0016043E+04;  0.0000000E+00; -1.5894178E-02;  4.0000000E+04;  0.0000000E+00;  3.9999445E+04; -1.5521508E-02;  0.0000000E+00;  3.1039151E-04;  6.9604218E+01;
  1.8149003E-01;  9.9999998E-03; -2.0041436E-02;3572; -3.9345548E-03;  0.0000000E+00; -5.5095893E-06;  1.0002684E+03;  1.0000000E-01;  2.2231470E+02;3;  2.2799070E-01;  0.0000000E+00;  4.8783296E-03;0; -1.5158420E-02;  4.0015184E+04;  0.0000000E+00; -8.0180271E-03;  4.0000000E+04;  0.0000000E+00;  4.0000066E+04; -1.5477802E-02;  0.0000000E+00;  3.1938113E-04;  1.2383474E+01;
  1.8151133E-01;  9.9999998E-03; -1.0030387E-02;3573; -3.9294022E-03;  0.0000000E+00; -3.4932909E-06;  1.0002612E+03;  1.0000000E-01;  2.1638895E+02;3;  2.2753607E-01;  0.0000000E+00;  2.5578537E-03;0; -1.5121327E-02;  4.0014512E+04;  0.0000000E+00; -2.1634051E-03;  4.0000000E+04;  0.0000000E+00;  4.0000258E+04; -1.5447470E-02;  0.0000000E+00;  3.2614314E-04;  4.7784462E+01;
  1.8152094E-01;  9.9999998E-03; -3.3049838E-10;3574; -3.9276648E-03;  0.0000000E+00; -1.5974444E-09;  1.0002617E+03;  1.0000000E-01;  2.1678400E+02;3;  2.2739588E-01;  0.0000000E+00;  2.4235886E-05;0; -1.5107894E-02;  4.0014250E+04;  0.0000000E+00; -7.1966001E-13;  4.0000000E+04;  0.0000000E+00;  4.0000645E+04; -1.5436559E-02;  0.0000000E+00;  3.2866420E-04;  6.1173199E+01;
  1.8151133E-01;  9.9999998E-03;  1.0030386E-02;3575; -3.9294017E-03;  0.0000000E+00;  3.4900306E-06;  1.0002612E+03;  1.0000000E-01;  2.1638895E+02;3;  2.2757334E-01;  0.0000000E+00; -2.5089360E-03;0; -1.5121326E-02;  4.0014512E+04;  0.0000000E+00; -2.1636176E-03;  4.0000000E+04;  0.0000000E+00;  4.0000258E+04; -1.5447469E-02;  0.0000000E+00;  3.2614361E-04;  4.7785706E+01;
  1.8149003E-01;  9.9999998E-03;  2.0041436E-02;3576; -3.9345566E-03;  0.0000000E+00;  5.5053583E-06;  1.0002684E+03;  1.0000000E-01;  2.2231470E+02;3;  2.2801797E-01;  0.0000000E+00; -4.8434529E-03;0; -1.5158416E-02;  4.0015184E+04;  0.0000000E+00; -8.0183251E-03;  4.0000000E+04;  0.0000000E+00;  4.0000066E+04; -1.5477797E-02;  0.0000000E+00;  3.1938124E-04;  1.2383645E+01;
  1.8145673E-01;  9.9999998E-03;  3.0041631E-02;3577; -3.9425157E-03;  0.0000000E+00;  5.1440143E-06;  1.0002711E+03;  1.0000000E-01;  2.2458624E+02;3;  2.2873133E-01;  0.0000000E+00; -7.0193075E-03;0; -1.5211113E-02;  4.0016047E+04;  0.0000000E+00; -1.5894817E-02;  4.0000000E+04;  0.0000000E+00;  3.9999445E+04; -1.5521506E-02;  0.0000000E+00;  3.1039267E-04;  6.9596962E+01;
  1.8141615E-01;  9.9999998E-03;  4.0041365E-02;3578; -3.9523495E-03;  0.0000000E+00;  2.3020261E-06;  1.0002730E+03;  1.0000000E-01;  2.2616644E+02;3;  2.2958709E-01;  0.0000000E+00; -9.0724174E-03;0; -1.5267698E-02;  4.0016758E+04;  0.0000000E+00; -2.3578854E-02;  4.0000000E+04;  0.0000000E+00;  3.9998871E+04; -1.5569104E-02;  0.0000000E+00;  3.0140550E-04;  1.4723471E+02;
  1.8137936E-01;  9.9999998E-03;  5.0046079E-02;3579; -3.9627748E-03;  0.0000000E+00; -2.2508571E-06;  1.0002751E+03;  1.0000000E-01;  2.2794417E+02;3;  2.3050985E-01;  0.0000000E+00; -1.1001202E-02;0; -1.5314675E-02;  4.0017352E+04;  0.0000000E+00; -2.8968994E-02;  4.0000000E+04;  0.0000000E+00;  3.9998613E+04; -1.5608296E-02;  0.0000000E+00;  2.9362118E-04;  1.9946010E+02;
  1.8135002E-01;  9.9999998E-03;  6.0053822E-02;3580; -3.9718035E-03;  0.0000000E+00; -7.1230133E-06;  1.0002742E+03;  1.0000000E-01;  2.2715407E+02;3;  2.3140483E-01;  0.0000000E+00; -1.2712500E-02;0; -1.5339653E-02;  4.0017562E+04;  0.0000000E+00; -3.0767594E-02;  4.0000000E+04;  0.0000000E+00;  3.9998555E+04; -1.5625779E-02;  0.0000000E+00;  2.8612549E-04;  1.9128152E+02;
  1.9134627E-01;  9.9999998E-03; -1.0009482E-01;3625; -4.1389270E-03;  0.0000000E+00;  3.3341567E-07;  1.0003415E+03;  1.0000000E-01;  2.8295496E+02;3;  2.4828680E-01;  0.0000000E+00;  2.3997486E-02;0; -1.4684507E-02;  4.0022242E+04;  0.0000000E+00; -1.6314257E-02;  4.0000000E+04;  0.0000000E+00;  3.9999480E+04; -1.4814831E-02;  0.0000000E+00;  1.3032441E-04;  9.4058220E+01;
  1.9135219E-01;  9.9999998E-03; -9.0091854E-02;3626; -4.1641523E-03;  0.0000000E+00;  7.9897836E-06;  1.0003188E+03;  1.0000000E-01;  2.6409131E+02;3;  2.4812979E-01;  0.0000000E+00;  2.1567084E-02;0; -1.4782722E-02;  4.0021965E+04;  0.0000000E+00; -1.8999193E-02;  4.0000000E+04;  0.0000000E+00;  3.9998055E+04; -1.4968070E-02;  0.0000000E+00;  1.8534849E-04;  3.0626508E+02;
  1.9137408E-01;  9.9999998E-03; -8.0087863E-02;3627; -4.1746423E-03;  0.0000000E+00;  1.0667070E-05;  1.0003082E+03;  1.0000000E-01;  2.5530142E+02;3;  2.4787198E-01;  0.0000000E+00;  1.9052574E-02;0; -1.4850635E-02;  4.0022590E+04;  0.0000000E+00; -2.5894975E-02;  4.0000000E+04;  0.0000000E+00;  3.9996277E+04; -1.5070439E-02;  0.0000000E+00;  2.1980439E-04;  5.0819064E+02;
  1.9140424E-01;  9.9999998E-03; -7.0082076E-02;3628; -4.1735466E-03;  0.0000000E+00;  9.0254343E-06;  1.0003060E+03;  1.0000000E-01;  2.5352370E+02;3;  2.4729343E-01;  0.0000000E+00;  1.6790576E-02;0; -1.4885058E-02;  4.0023410E+04;  0.0000000E+00; -3.2291658E-02;  4.0000000E+04;  0.0000000E+00;  3.9994945E+04; -1.5125616E-02;  0.0000000E+00;  2.4055739E-04;  6.6017401E+02;
  1.9143583E-01;  9.9999998E-03; -6.0073573E-02;3629; -4.1644168E-03;  0.0000000E+00;  4.7414192E-06;  1.0003116E+03;  1.0000000E-01;  2.5816553E+02;3;  2.4651411E-01;  0.0000000E+00;  1.4825745E-02;0; -1.4886493E-02;  4.0024176E+04;  0.0000000E+00; -3.5071660E-02;  4.0000000E+04;  0.0000000E+00;  3.9994082E+04; -1.5141129E-02;  0.0000000E+00;  2.5463663E-04;  7.3902283E+02;
  1.9146588E-01;  9.9999998E-03; -5.0064303E-02;3630; -4.1506952E-03;  0.0000000E+00; -4.2544050E-07;  1.0003208E+03;  1.0000000E-01;  2.6577026E+02;3;  2.4558523E-01;  0.0000000E+00;  1.2811286E-02;0; -1.4859769E-02;  4.0024840E+04;  0.0000000E+00; -3.2999862E-02;  4.0000000E+04;  0.0000000E+00;  3.9994363E+04; -1.5127059E-02;  0.0000000E+00;  2.6729054E-04;  7.4208453E+02;
  1.9149512E-01;  9.9999998E-03; -4.0056411E-02;3631; -4.1354648E-03;  0.0000000E+00; -4.8130191E-06;  1.0003278E+03;  1.0000000E-01;  2.7149850E+02;3;  2.4458812E-01;  0.0000000E+00;  1.0666586E-02;0; -1.4813513E-02;  4.0025020E+04;  0.0000000E+00; -2.6600333E-02;  4.0000000E+04;  0.0000000E+00;  3.9995035E+04; -1.5094599E-02;  0.0000000E+00;  2.8108622E-04;  6.8839679E+02;
  1.9153021E-01;  9.9999998E-03; -3.0054973E-02;3632; -4.1213431E-03;  0.0000000E+00; -7.2067405E-06;  1.0003315E+03;  1.0000000E-01;  2.7465891E+02;3;  2.4369426E-01;  0.0000000E+00;  8.2300790E-03;0; -1.4758759E-02;  4.0024895E+04;  0.0000000E+00; -1.7730970E-02;  4.0000000E+04;  0.0000000E+00;  3.9995648E+04; -1.5054661E-02;  0.0000000E+00;  2.9590202E-04;  6.1151117E+02;
  1.9156761E-01;  9.9999998E-03; -2.0054208E-02;3633; -4.1101505E-03;  0.0000000E+00; -6.9629309E-06;  1.0003348E+03;  1.0000000E-01;  2.7732550E+02;3;  2.4295248E-01;  0.0000000E+00;  5.6517259E-03;0; -1.4707762E-02;  4.0024855E+04;  0.0000000E+00; -8.8620409E-03;  4.0000000E+04;  0.0000000E+00;  3.9995629E+04; -1.5017450E-02;  0.0000000E+00;  3.0968769E-04;  5.4405182E+02;
  1.9159611E-01;  9.9999998E-03; -1.0039677E-02;3634; -4.1030045E-03;  0.0000000E+00; -4.2421643E-06;  1.0003343E+03;  1.0000000E-01;  2.7693045E+02;3;  2.4247572E-01;  0.0000000E+00;  2.9298814E-03;0; -1.4671801E-02;  4.0024547E+04;  0.0000000E+00; -2.3773396E-03;  4.0000000E+04;  0.0000000E+00;  3.9996562E+04; -1.4991402E-02;  0.0000000E+00;  3.1960127E-04;  5.0371759E+02;
  1.9160800E-01;  9.9999998E-03; -2.9330544E-10;3635; -4.1005700E-03;  0.0000000E+00; -1.9689235E-09;  1.0003372E+03;  1.0000000E-01;  2.7939951E+02;3;  2.4232332E-01;  0.0000000E+00;  3.1672309E-05;0; -1.4658786E-02;  4.0024562E+04;  0.0000000E+00; -9.0572753E-13;  4.0000000E+04;  0.0000000E+00;  3.9996660E+04; -1.4982013E-02;  0.0000000E+00;  3.2322700E-04;  4.9151233E+02;
  1.9159611E-01;  9.9999998E-03;  1.0039676E-02;3636; -4.1030059E-03;  0.0000000E+00;  4.2380684E-06;  1.0003342E+03;  1.0000000E-01;  2.7693045E+02;3;  2.4249303E-01;  0.0000000E+00; -2.8733029E-03;0; -1.4671804E-02;  4.0024547E+04;  0.0000000E+00; -2.3775853E-03;  4.0000000E+04;  0.0000000E+00;  3.9996562E+04; -1.4991406E-02;  0.0000000E+00;  3.1960203E-04;  5.0371445E+02;
  1.9156761E-01;  9.9999998E-03;  2.0054208E-02;3637; -4.1101519E-03;  0.0000000E+00;  6.9583662E-06;  1.0003348E+03;  1.0000000E-01;  2.7732550E+02;3;  2.4296293E-01;  0.0000000E+00; -5.5988533E-03;0; -1.4707765E-02;  4.0024855E+04;  0.0000000E+00; -8.8624591E-03;  4.0000000E+04;  0.0000000E+00;  3.9995629E+04; -1.5017454E-02;  0.0000000E+00;  3.0968912E-04;  5.4404956E+02;
  1.9153021E-01;  9.9999998E-03;  3.0054975E-02;3638; -4.1213455E-03;  0.0000000E+00;  7.2015705E-06;  1.0003315E+03;  1.0000000E-01;  2.7465891E+02;3;  2.4373464E-01;  0.0000000E+00; -8.1922552E-03;0; -1.4758750E-02;  4.0024898E+04;  0.0000000E+00; -1.7731402E-02;  4.0000000E+04;  0.0000000E+00;  3.9995652E+04; -1.5054654E-02;  0.0000000E+00;  2.9590444E-04;  6.1150592E+02;
  1.9149512E-01;  9.9999998E-03;  4.0056411E-02;3639; -4.1354671E-03;  0.0000000E+00;  4.8064167E-06;  1.0003277E+03;  1.0000000E-01;  2.7149850E+02;3;  2.4462722E-01;  0.0000000E+00; -1.0645890E-02;0; -1.4813493E-02;  4.0025016E+04;  0.0000000E+00; -2.6602313E-02;  4.0000000E+04;  0.0000000E+00;  3.9995035E+04; -1.5094584E-02;  0.0000000E+00;  2.8109047E-04;  6.8839093E+02;
  1.9146588E-01;  9.9999998E-03;  5.0064303E-02;3640; -4.1506989E-03;  0.0000000E+00;  4.1804944E-07;  1.0003208E+03;  1.0000000E-01;  2.6577026E+02;3;  2.4561539E-01;  0.0000000E+00; -1.2798698E-02;0; -1.4859747E-02;  4.0024840E+04;  0.0000000E+00; -3.3001319E-02;  4.0000000E+04;  0.0000000E+00;  3.9994363E+04; -1.5127043E-02;  0.0000000E+00;  2.6729636E-04;  7.4207288E+02;
  1.9143583E-01;  9.9999998E-03;  6.0073573E-02;3641; -4.1644229E-03;  0.0000000E+00; -4.7489270E-06;  1.0003117E+03;  1.0000000E-01;  2.5826431E+02;3;  2.4652554E-01;  0.0000000E+00; -1.4814235E-02;0; -1.4886461E-02;  4.0024168E+04;  0.0000000E+00; -3.5072699E-02;  4.0000000E+04;  0.0000000E+00;  3.9994082E+04; -1.5141106E-02;  0.0000000E+00;  2.5464504E-04;  7.3901685E+02;
  2.0136710E-01;  9.9999998E-03; -1.0010025E-01;3686; -4.2949100E-03;  0.0000000E+00;  2.1787246E-06;  1.0002472E+03;  1.0000000E-01;  2.0483371E+02;3;  2.6368216E-01;  0.0000000E+00;  2.7331408E-02;0; -1.4094982E-02;  4.0019715E+04;  0.0000000E+00;  5.7056700E-03;  4.0000000E+04;  0.0000000E+00;  3.9995047E+04; -1.4213268E-02;  0.0000000E+00;  1.1828521E-04;  7.0124939E+02;
  2.0140582E-01;  9.9999998E-03; -9.0092406E-02;3687; -4.3200101E-03;  0.0000000E+00;  6.3619427E-06;  1.0002498E+03;  1.0000000E-01;  2.0690773E+02;3;  2.6380971E-01;  0.0000000E+00;  2.4732433E-02;0; -1.4177651E-02;  4.0020949E+04;  0.0000000E+00; -3.6932377E-03;  4.0000000E+04;  0.0000000E+00;  3.9993125E+04; -1.4342925E-02;  0.0000000E+00;  1.6527342E-04;  8.7345117E+02;
  2.0145306E-01;  9.9999998E-03; -8.0083147E-02;3688; -4.3286593E-03;  0.0000000E+00;  6.3448342E-06;  1.0002601E+03;  1.0000000E-01;  2.1550008E+02;3;  2.6364407E-01;  0.0000000E+00;  2.2245588E-02;0; -1.4234065E-02;  4.0022891E+04;  0.0000000E+00; -1.5206837E-02;  4.0000000E+04;  0.0000000E+00;  3.9992008E+04; -1.4430000E-02;  0.0000000E+00;  1.9593429E-04;  1.0349722E+03;
  2.0150229E-01;  9.9999998E-03; -7.0071019E-02;3689; -4.3245624E-03;  0.0000000E+00;  3.1455488E-06;  1.0002760E+03;  1.0000000E-01;  2.2863551E+02;3;  2.6316339E-01;  0.0000000E+00;  1.9939151E-02;0; -1.4261412E-02;  4.0024945E+04;  0.0000000E+00; -2.4419824E-02;  4.0000000E+04;  0.0000000E+00;  3.9991008E+04; -1.4478323E-02;  0.0000000E+00;  2.1691179E-04;  1.1539606E+03;
  2.0154285E-01;  9.9999998E-03; -6.0055129E-02;3690; -4.3116286E-03;  0.0000000E+00; -1.8044010E-06;  1.0002932E+03;  1.0000000E-01;  2.4295609E+02;3;  2.6239198E-01;  0.0000000E+00;  1.7939702E-02;0; -1.4260500E-02;  4.0027051E+04;  0.0000000E+00; -2.8931193E-02;  4.0000000E+04;  0.0000000E+00;  3.9990566E+04; -1.4494972E-02;  0.0000000E+00;  2.3447226E-04;  1.2082231E+03;
  2.0156978E-01;  9.9999998E-03; -5.0037216E-02;3691; -4.2937119E-03;  0.0000000E+00; -6.9328344E-06;  1.0003190E+03;  1.0000000E-01;  2.6428882E+02;3;  2.6146361E-01;  0.0000000E+00;  1.5741052E-02;0; -1.4235638E-02;  4.0028711E+04;  0.0000000E+00; -2.8155202E-02;  4.0000000E+04;  0.0000000E+00;  3.9990793E+04; -1.4488407E-02;  0.0000000E+00;  2.5276933E-04;  1.1931516E+03;
  2.0158859E-01;  9.9999998E-03; -4.0021621E-02;3692; -4.2743534E-03;  0.0000000E+00; -1.0738270E-05;  1.0003384E+03;  1.0000000E-01;  2.8038715E+02;3;  2.6042908E-01;  0.0000000E+00;  1.3129767E-02;0; -1.4194060E-02;  4.0029902E+04;  0.0000000E+00; -2.2996049E-02;  4.0000000E+04;  0.0000000E+00;  3.9990668E+04; -1.4467217E-02;  0.0000000E+00;  2.7315709E-04;  1.1253735E+03;
  2.0161226E-01;  9.9999998E-03; -3.0015863E-02;3693; -4.2565656E-03;  0.0000000E+00; -1.2064246E-05;  1.0003557E+03;  1.0000000E-01;  2.9470770E+02;3;  2.5951234E-01;  0.0000000E+00;  1.0635554E-02;0; -1.4145034E-02;  4.0030438E+04;  0.0000000E+00; -1.5386332E-02;  4.0000000E+04;  0.0000000E+00;  3.9991871E+04; -1.4439414E-02;  0.0000000E+00;  2.9438027E-04;  1.0372922E+03;
  2.0163839E-01;  9.9999998E-03; -2.0016080E-02;3694; -4.2424519E-03;  0.0000000E+00; -1.0299790E-05;  1.0003647E+03;  1.0000000E-01;  3.0221368E+02;3;  2.5874493E-01;  0.0000000E+00;  7.3600439E-03;0; -1.4099427E-02;  4.0030934E+04;  0.0000000E+00; -7.6820678E-03;  4.0000000E+04;  0.0000000E+00;  3.9992684E+04; -1.4412872E-02;  0.0000000E+00;  3.1344465E-04;  9.6016101E+02;
  2.0165911E-01;  9.9999998E-03; -1.0013535E-02;3695; -4.2334357E-03;  0.0000000E+00; -5.8588071E-06;  1.0003734E+03;  1.0000000E-01;  3.0932458E+02;3;  2.5813210E-01;  0.0000000E+00;  3.5019720E-03;0; -1.4067295E-02;  4.0031094E+04;  0.0000000E+00; -2.0542061E-03;  4.0000000E+04;  0.0000000E+00;  3.9993109E+04; -1.4394095E-02;  0.0000000E+00;  3.2680031E-04;  9.1202460E+02;
  2.0166914E-01;  9.9999998E-03; -2.0948469E-10;3696; -4.2303763E-03;  0.0000000E+00; -2.3522879E-09;  1.0003765E+03;  1.0000000E-01;  3.1189243E+02;3;  2.5795507E-01;  0.0000000E+00;  3.2930031E-05;0; -1.4055572E-02;  4.0031113E+04;  0.0000000E+00; -5.9316609E-13;  4.0000000E+04;  0.0000000E+00;  3.9993137E+04; -1.4387191E-02;  0.0000000E+00;  3.3161961E-04;  8.9660382E+02;
  2.0165911E-01;  9.9999998E-03;  1.0013535E-02;3697; -4.2334381E-03;  0.0000000E+00;  5.8540481E-06;  1.0003735E+03;  1.0000000E-01;  3.0942334E+02;3;  2.5814858E-01;  0.0000000E+00; -3.4384590E-03;0; -1.4067292E-02;  4.0031094E+04;  0.0000000E+00; -2.0546324E-03;  4.0000000E+04;  0.0000000E+00;  3.9993109E+04; -1.4394093E-02;  0.0000000E+00;  3.2680135E-04;  9.1202118E+02;
  2.0163839E-01;  9.9999998E-03;  2.0016080E-02;3698; -4.2424537E-03;  0.0000000E+00;  1.0294693E-05;  1.0003647E+03;  1.0000000E-01;  3.0221368E+02;3;  2.5875834E-01;  0.0000000E+00; -7.3069814E-03;0; -1.4099413E-02;  4.0030934E+04;  0.0000000E+00; -7.6824930E-03;  4.0000000E+04;  0.0000000E+00;  3.9992684E+04; -1.4412859E-02;  0.0000000E+00;  3.1344697E-04;  9.6015472E+02;
  2.0161226E-01;  9.9999998E-03;  3.0015863E-02;3699; -4.2565679E-03;  0.0000000E+00;  1.2058497E-05;  1.0003557E+03;  1.0000000E-01;  2.9470770E+02;3;  2.5951129E-01;  0.0000000E+00; -1.0593669E-02;0; -1.4145009E-02;  4.0030438E+04;  0.0000000E+00; -1.5387090E-02;  4.0000000E+04;  0.0000000E+00;  3.9991871E+04; -1.4439393E-02;  0.0000000E+00;  2.9438394E-04;  1.0372799E+03;
  2.0158859E-01;  9.9999998E-03;  4.0021624E-02;3700; -4.2743562E-03;  0.0000000E+00;  1.0731322E-05;  1.0003384E+03;  1.0000000E-01;  2.8038715E+02;3;  2.6046559E-01;  0.0000000E+00; -1.3104022E-02;0; -1.4194065E-02;  4.0029906E+04;  0.0000000E+00; -2.2996215E-02;  4.0000000E+04;  0.0000000E+00;  3.9990668E+04; -1.4467227E-02;  0.0000000E+00;  2.7316235E-04;  1.1253700E+03;
  2.0156978E-01;  9.9999998E-03;  5.0037216E-02;3701; -4.2937170E-03;  0.0000000E+00;  6.9252455E-06;  1.0003190E+03;  1.0000000E-01;  2.6428882E+02;3;  2.6149899E-01;  0.0000000E+00; -1.5722584E-02;0; -1.4235621E-02;  4.0028715E+04;  0.0000000E+00; -2.8156593E-02;  4.0000000E+04;  0.0000000E+00;  3.9990793E+04; -1.4488398E-02;  0.0000000E+00;  2.5277724E-04;  1.1931456E+03;
  2.0154285E-01;  9.9999998E-03;  6.0055129E-02;3702; -4.3116333E-03;  0.0000000E+00;  1.7960274E-06;  1.0002933E+03;  1.0000000E-01;  2.4295609E+02;3;  2.6240730E-01;  0.0000000E+00; -1.7928805E-02;0; -1.4260468E-02;  4.0027051E+04;  0.0000000E+00; -2.8929472E-02;  4.0000000E+04;  0.0000000E+00;  3.9990570E+04; -1.4494951E-02;  0.0000000E+00;  2.3448256E-04;  1.2082162E+03;
  2.1151958E-01;  9.9999998E-03; -1.0005261E-01;3747; -4.4137905E-03;  0.0000000E+00; -1.3922908E-06;  1.0001044E+03;  1.0000000E-01;  8.6516075E+01;3;  2.8035864E-01;  0.0000000E+00;  3.0554563E-02;0; -1.3404453E-02;  4.0012586E+04;  0.0000000E+00;  4.3897789E-02;  4.0000000E+04;  0.0000000E+00;  3.9989926E+04; -1.3522521E-02;  0.0000000E+00;  1.1806768E-04;  1.2072791E+03;
  2.1158352E-01;  9.9999998E-03; -9.0035342E-02;3748; -4.4375798E-03;  0.0000000E+00; -4.1163642E-07;  1.0001358E+03;  1.0000000E-01;  1.1249065E+02;3;  2.8040060E-01;  0.0000000E+00;  2.8212963E-02;0; -1.3472843E-02;  4.0016004E+04;  0.0000000E+00;  2.6934363E-02;  4.0000000E+04;  0.0000000E+00;  3.9989145E+04; -1.3628913E-02;  0.0000000E+00;  1.5607009E-04;  1.3329370E+03;
  2.1162078E-01;  9.9999998E-03; -8.0024511E-02;3749; -4.4437679E-03;  0.0000000E+00; -2.4001504E-06;  1.0001733E+03;  1.0000000E-01;  1.4360088E+02;3;  2.8030029E-01;  0.0000000E+00;  2.5689337E-02;0; -1.3522234E-02;  4.0019762E+04;  0.0000000E+00;  1.0192256E-02;  4.0000000E+04;  0.0000000E+00;  3.9988121E+04; -1.3704740E-02;  0.0000000E+00;  1.8250568E-04;  1.4450841E+03;
  2.1163291E-01;  9.9999998E-03; -7.0015796E-02;3750; -4.4362708E-03;  0.0000000E+00; -6.7596093E-06;  1.0002050E+03;  1.0000000E-01;  1.6987173E+02;3;  2.7976093E-01;  0.0000000E+00;  2.3696447E-02;0; -1.3549602E-02;  4.0023066E+04;  0.0000000E+00; -3.0063987E-03;  4.0000000E+04;  0.0000000E+00;  3.9987613E+04; -1.3753266E-02;  0.0000000E+00;  2.0366452E-04;  1.5186814E+03;
  2.1162617E-01;  9.9999998E-03; -6.0004961E-02;3751; -4.4196318E-03;  0.0000000E+00; -1.2020364E-05;  1.0002413E+03;  1.0000000E-01;  1.9989558E+02;3;  2.7894762E-01;  0.0000000E+00;  2.1562470E-02;0; -1.3554126E-02;  4.0026016E+04;  0.0000000E+00; -1.1208267E-02;  4.0000000E+04;  0.0000000E+00;  3.9987457E+04; -1.3778943E-02;  0.0000000E+00;  2.2481676E-04;  1.5350466E+03;
  2.1160844E-01;  9.9999998E-03; -4.9992494E-02;3752; -4.3981071E-03;  0.0000000E+00; -1.6819273E-05;  1.0002720E+03;  1.0000000E-01;  2.2537634E+02;3;  2.7797416E-01;  0.0000000E+00;  1.9249178E-02;0; -1.3538227E-02;  4.0028391E+04;  0.0000000E+00; -1.4296811E-02;  4.0000000E+04;  0.0000000E+00;  3.9987824E+04; -1.3787090E-02;  0.0000000E+00;  2.4886231E-04;  1.4900054E+03;
  2.1159227E-01;  9.9999998E-03; -3.9983694E-02;3753; -4.3754908E-03;  0.0000000E+00; -1.9737341E-05;  1.0003016E+03;  1.0000000E-01;  2.4986948E+02;3;  2.7691135E-01;  0.0000000E+00;  1.6599480E-02;0; -1.3507194E-02;  4.0029703E+04;  0.0000000E+00; -1.3150396E-02;  4.0000000E+04;  0.0000000E+00;  3.9989074E+04; -1.3783094E-02;  0.0000000E+00;  2.7590035E-04;  1.3993943E+03;
  2.1158877E-01;  9.9999998E-03; -2.9984714E-02;3754; -4.3549207E-03;  0.0000000E+00; -1.9601157E-05;  1.0003222E+03;  1.0000000E-01;  2.6695541E+02;3;  2.7599812E-01;  0.0000000E+00;  1.3637051E-02;0; -1.3468569E-02;  4.0031031E+04;  0.0000000E+00; -9.3579311E-03;  4.0000000E+04;  0.0000000E+00;  3.9989613E+04; -1.3772135E-02;  0.0000000E+00;  3.0356535E-04;  1.2938679E+03;
  2.1159282E-01;  9.9999998E-03; -1.9990887E-02;3755; -4.3386547E-03;  0.0000000E+00; -1.5812508E-05;  1.0003396E+03;  1.0000000E-01;  2.8137476E+02;3;  2.7506784E-01;  0.0000000E+00;  9.6349725E-03;0; -1.3431969E-02;  4.0031562E+04;  0.0000000E+00; -4.8308573E-03;  4.0000000E+04;  0.0000000E+00;  3.9990445E+04; -1.3759901E-02;  0.0000000E+00;  3.2793210E-04;  1.2026437E+03;
  2.1159692E-01;  9.9999998E-03; -9.9965679E-03;3756; -4.3282658E-03;  0.0000000E+00; -8.8177685E-06;  1.0003470E+03;  1.0000000E-01;  2.8749805E+02;3;  2.7456036E-01;  0.0000000E+00;  5.8666281E-03;0; -1.3406064E-02;  4.0031840E+04;  0.0000000E+00; -1.3130194E-03;  4.0000000E+04;  0.0000000E+00;  3.9991070E+04; -1.3750813E-02;  0.0000000E+00;  3.4474870E-04;  1.1439896E+03;
  2.1159902E-01;  9.9999998E-03; -1.9591709E-10;3757; -4.3246821E-03;  0.0000000E+00; -2.8884632E-09;  1.0003502E+03;  1.0000000E-01;  2.9016464E+02;3;  2.7424863E-01;  0.0000000E+00;  3.2673503E-05;0; -1.3396674E-02;  4.0031852E+04;  0.0000000E+00; -9.4035511E-13;  4.0000000E+04;  0.0000000E+00;  3.9991164E+04; -1.3747436E-02;  0.0000000E+00;  3.5076219E-04;  1.1243030E+03;
  2.1159692E-01;  9.9999998E-03;  9.9965669E-03;3758; -4.3282681E-03;  0.0000000E+00;  8.8121442E-06;  1.0003470E+03;  1.0000000E-01;  2.8749805E+02;3;  2.7456111E-01;  0.0000000E+00; -5.8014197E-03;0; -1.3406060E-02;  4.0031844E+04;  0.0000000E+00; -1.3133242E-03;  4.0000000E+04;  0.0000000E+00;  3.9991070E+04; -1.3750809E-02;  0.0000000E+00;  3.4474974E-04;  1.1439814E+03;
  2.1159282E-01;  9.9999998E-03;  1.9990887E-02;3759; -4.3386575E-03;  0.0000000E+00;  1.5806952E-05;  1.0003396E+03;  1.0000000E-01;  2.8137476E+02;3;  2.7505821E-01;  0.0000000E+00; -9.5772622E-03;0; -1.3431960E-02;  4.0031559E+04;  0.0000000E+00; -4.8316251E-03;  4.0000000E+04;  0.0000000E+00;  3.9990445E+04; -1.3759895E-02;  0.0000000E+00;  3.2793506E-04;  1.2026425E+03;
  2.1158877E-01;  9.9999998E-03;  2.9984714E-02;3760; -4.3549240E-03;  0.0000000E+00;  1.9594856E-05;  1.0003223E+03;  1.0000000E-01;  2.6695541E+02;3;  2.7598810E-01;  0.0000000E+00; -1.3589033E-02;0; -1.3468571E-02;  4.0031031E+04;  0.0000000E+00; -9.3587004E-03;  4.0000000E+04;  0.0000000E+00;  3.9989613E+04; -1.3772140E-02;  0.0000000E+00;  3.0356945E-04;  1.2938655E+03;
  2.1159227E-01;  9.9999998E-03;  3.9983694E-02;3761; -4.3754936E-03;  0.0000000E+00;  1.9729840E-05;  1.0003016E+03;  1.0000000E-01;  2.4986948E+02;3;  2.7692449E-01;  0.0000000E+00; -1.6570657E-02;0; -1.3507173E-02;  4.0029703E+04;  0.0000000E+00; -1.3150657E-02;  4.0000000E+04;  0.0000000E+00;  3.9989078E+04; -1.3783081E-02;  0.0000000E+00;  2.7590670E-04;  1.3994001E+03;
  2.1160844E-01;  9.9999998E-03;  4.9992494E-02;3762; -4.3981122E-03;  0.0000000E+00;  1.6811100E-05;  1.0002722E+03;  1.0000000E-01;  2.2547510E+02;3;  2.7795732E-01;  0.0000000E+00; -1.9232607E-02;0; -1.3538223E-02;  4.0028387E+04;  0.0000000E+00; -1.4298266E-02;  4.0000000E+04;  0.0000000E+00;  3.9987824E+04; -1.3787094E-02;  0.0000000E+00;  2.4887075E-04;  1.4899989E+03;
  2.1162616E-01;  9.9999998E-03;  6.0004961E-02;3763; -4.4196364E-03;  0.0000000E+00;  1.2011885E-05;  1.0002413E+03;  1.0000000E-01;  1.9989558E+02;3;  2.7894780E-01;  0.0000000E+00; -2.1558244E-02;0; -1.3554112E-02;  4.0026016E+04;  0.0000000E+00; -1.1211324E-02;  4.0000000E+04;  0.0000000E+00;  3.9987453E+04; -1.3778941E-02;  0.0000000E+00;  2.2482839E-04;  1.5350422E+03;
  2.2163859E-01;  9.9999998E-03; -1.0000323E-01;3808; -4.5045656E-03;  0.0000000E+00; -8.7849221E-06;  9.9996039E+02;  1.0000000E-01; -3.2838577E+01;3;  2.9750797E-01;  0.0000000E+00;  3.4310713E-02;0; -1.2708887E-02;  4.0004574E+04;  0.0000000E+00;  9.3414977E-02;  4.0000000E+04;  0.0000000E+00;  3.9987520E+04; -1.2836142E-02;  0.0000000E+00;  1.2725503E-04;  1.5351149E+03;
  2.2164488E-01;  9.9999998E-03; -8.9998335E-02;3809; -4.5258617E-03;  0.0000000E+00; -9.9222925E-06;  1.0000156E+03;  1.0000000E-01;  1.2937905E+01;3;  2.9766461E-01;  0.0000000E+00;  3.1782169E-02;0; -1.2771612E-02;  4.0009410E+04;  0.0000000E+00;  6.7643277E-02;  4.0000000E+04;  0.0000000E+00;  3.9986484E+04; -1.2927576E-02;  0.0000000E+00;  1.5596377E-04;  1.6097340E+03;
  2.2163016E-01;  9.9999998E-03; -7.9997852E-02;3810; -4.5292894E-03;  0.0000000E+00; -1.3403961E-05;  1.0000667E+03;  1.0000000E-01;  5.5307079E+01;3;  2.9737416E-01;  0.0000000E+00;  2.9524945E-02;0; -1.2820599E-02;  4.0014203E+04;  0.0000000E+00;  4.4606250E-02;  4.0000000E+04;  0.0000000E+00;  3.9986191E+04; -1.2998689E-02;  0.0000000E+00;  1.7808996E-04;  1.6725236E+03;
  2.2160037E-01;  9.9999998E-03; -6.9996558E-02;3811; -4.5191748E-03;  0.0000000E+00; -1.8292136E-05;  1.0001099E+03;  1.0000000E-01;  9.1059151E+01;3;  2.9674563E-01;  0.0000000E+00;  2.7378481E-02;0; -1.2852312E-02;  4.0017902E+04;  0.0000000E+00;  2.6155036E-02;  4.0000000E+04;  0.0000000E+00;  3.9985883E+04; -1.3051606E-02;  0.0000000E+00;  1.9929327E-04;  1.7030792E+03;
  2.2156061E-01;  9.9999998E-03; -5.9991959E-02;3812; -4.5000799E-03;  0.0000000E+00; -2.3511941E-05;  1.0001479E+03;  1.0000000E-01;  1.2256444E+02;3;  2.9598472E-01;  0.0000000E+00;  2.5232542E-02;0; -1.2865369E-02;  4.0020852E+04;  0.0000000E+00;  1.2751421E-02;  4.0000000E+04;  0.0000000E+00;  3.9986309E+04; -1.3089146E-02;  0.0000000E+00;  2.2377697E-04;  1.6842206E+03;
  2.2151726E-01;  9.9999998E-03; -4.9984451E-02;3813; -4.4763796E-03;  0.0000000E+00; -2.7745464E-05;  1.0001799E+03;  1.0000000E-01;  1.4903282E+02;3;  2.9502144E-01;  0.0000000E+00;  2.2793438E-02;0; -1.2860980E-02;  4.0023082E+04;  0.0000000E+00;  4.1749734E-03;  4.0000000E+04;  0.0000000E+00;  3.9987059E+04; -1.3114202E-02;  0.0000000E+00;  2.5322233E-04;  1.6120728E+03;
  2.2148173E-01;  9.9999998E-03; -3.9981112E-02;3814; -4.4519878E-03;  0.0000000E+00; -2.9693145E-05;  1.0002016E+03;  1.0000000E-01;  1.6700763E+02;3;  2.9396623E-01;  0.0000000E+00;  1.9796131E-02;0; -1.2842833E-02;  4.0024395E+04;  0.0000000E+00; -2.5297055E-04;  4.0000000E+04;  0.0000000E+00;  3.9988234E+04; -1.3129369E-02;  0.0000000E+00;  2.8653649E-04;  1.5021246E+03;
  2.2146164E-01;  9.9999998E-03; -2.9986335E-02;3815; -4.4300021E-03;  0.0000000E+00; -2.8070137E-05;  1.0002237E+03;  1.0000000E-01;  1.8527872E+02;3;  2.9308513E-01;  0.0000000E+00;  1.6363407E-02;0; -1.2817029E-02;  4.0024984E+04;  0.0000000E+00; -1.6113119E-03;  4.0000000E+04;  0.0000000E+00;  3.9989000E+04; -1.3137327E-02;  0.0000000E+00;  3.2029726E-04;  1.3828879E+03;
  2.2145189E-01;  9.9999998E-03; -1.9994386E-02;3816; -4.4126785E-03;  0.0000000E+00; -2.2108019E-05;  1.0002348E+03;  1.0000000E-01;  1.9456239E+02;3;  2.9235759E-01;  0.0000000E+00;  1.2333319E-02;0; -1.2791192E-02;  4.0025312E+04;  0.0000000E+00; -1.2330896E-03;  4.0000000E+04;  0.0000000E+00;  3.9989773E+04; -1.3140893E-02;  0.0000000E+00;  3.4970007E-04;  1.2815505E+03;
  2.2144763E-01;  9.9999998E-03; -1.0000019E-02;3817; -4.4016344E-03;  0.0000000E+00; -1.2585344E-05;  1.0002455E+03;  1.0000000E-01;  2.0335228E+02;3;  2.9169261E-01;  0.0000000E+00;  6.2869145E-03;0; -1.2772392E-02;  4.0025473E+04;  0.0000000E+00; -3.9151037E-04;  4.0000000E+04;  0.0000000E+00;  3.9990398E+04; -1.3142221E-02;  0.0000000E+00;  3.6982915E-04;  1.2161610E+03;
  2.2144705E-01;  9.9999998E-03; -3.0965161E-10;3818; -4.3977830E-03;  0.0000000E+00; -3.2113721E-09;  1.0002452E+03;  1.0000000E-01;  2.0315475E+02;3;  2.9160690E-01;  0.0000000E+00;  2.7885037E-05;0; -1.2765471E-02;  4.0025617E+04;  0.0000000E+00;  5.4311276E-13;  4.0000000E+04;  0.0000000E+00;  3.9990547E+04; -1.3142471E-02;  0.0000000E+00;  3.7700008E-04;  1.1940181E+03;
  2.2144763E-01;  9.9999998E-03;  1.0000018E-02;3819; -4.4016349E-03;  0.0000000E+00;  1.2578913E-05;  1.0002454E+03;  1.0000000E-01;  2.0335228E+02;3;  2.9167306E-01;  0.0000000E+00; -6.2277783E-03;0; -1.2772378E-02;  4.0025473E+04;  0.0000000E+00; -3.9190333E-04;  4.0000000E+04;  0.0000000E+00;  3.9990398E+04; -1.3142209E-02;  0.0000000E+00;  3.6983070E-04;  1.2161586E+03;
  2.2145189E-01;  9.9999998E-03;  1.9994386E-02;3820; -4.4126804E-03;  0.0000000E+00;  2.2101478E-05;  1.0002349E+03;  1.0000000E-01;  1.9456239E+02;3;  2.9235926E-01;  0.0000000E+00; -1.2282164E-02;0; -1.2791192E-02;  4.0025312E+04;  0.0000000E+00; -1.2336212E-03;  4.0000000E+04;  0.0000000E+00;  3.9989773E+04; -1.3140896E-02;  0.0000000E+00;  3.4970374E-04;  1.2815481E+03;
  2.2146164E-01;  9.9999998E-03;  2.9986335E-02;3821; -4.4300067E-03;  0.0000000E+00;  2.8063287E-05;  1.0002237E+03;  1.0000000E-01;  1.8527872E+02;3;  2.9305390E-01;  0.0000000E+00; -1.6323818E-02;0; -1.2817013E-02;  4.0024988E+04;  0.0000000E+00; -1.6115193E-03;  4.0000000E+04;  0.0000000E+00;  3.9989000E+04; -1.3137315E-02;  0.0000000E+00;  3.2030206E-04;  1.3828809E+03;
  2.2148173E-01;  9.9999998E-03;  3.9981116E-02;3822; -4.4519925E-03;  0.0000000E+00;  2.9686480E-05;  1.0002016E+03;  1.0000000E-01;  1.6700763E+02;3;  2.9395920E-01;  0.0000000E+00; -1.9765481E-02;0; -1.2842815E-02;  4.0024398E+04;  0.0000000E+00; -2.5348959E-04;  4.0000000E+04;  0.0000000E+00;  3.9988234E+04; -1.3129358E-02;  0.0000000E+00;  2.8654328E-04;  1.5021115E+03;
  2.2151726E-01;  9.9999998E-03;  4.9984451E-02;3823; -4.4763852E-03;  0.0000000E+00;  2.7737613E-05;  1.0001799E+03;  1.0000000E-01;  1.4903282E+02;3;  2.9499155E-01;  0.0000000E+00; -2.2773091E-02;0; -1.2860959E-02;  4.0023078E+04;  0.0000000E+00;  4.1735107E-03;  4.0000000E+04;  0.0000000E+00;  3.9987066E+04; -1.3114191E-02;  0.0000000E+00;  2.5323153E-04;  1.6120620E+03;
  2.2156061E-01;  9.9999998E-03;  5.9991959E-02;3824; -4.5000836E-03;  0.0000000E+00;  2.3504157E-05;  1.0001479E+03;  1.0000000E-01;  1.2256444E+02;3;  2.9594252E-01;  0.0000000E+00; -2.5218023E-02;0; -1.2865337E-02;  4.0020852E+04;  0.0000000E+00;  1.2750827E-02;  4.0000000E+04;  0.0000000E+00;  3.9986305E+04; -1.3089125E-02;  0.0000000E+00;  2.2378887E-04;  1.6842186E+03;
  2.3162222E-01;  9.9999998E-03; -9.9991679E-02;3869; -4.5798882E-03;  0.0000000E+00; -1.7231094E-05;  9.9984613E+02;  1.0000000E-01; -1.2750256E+02;3;  3.1522292E-01;  0.0000000E+00;  3.8353205E-02;0; -1.2084722E-02;  3.9997539E+04;  0.0000000E+00;  1.4023347E-01;  4.0000000E+04;  0.0000000E+00;  3.9986246E+04; -1.2227559E-02;  0.0000000E+00;  1.4283753E-04;  1.6641292E+03;
  2.3158568E-01;  9.9999998E-03; -8.9996375E-02;3870; -4.5986380E-03;  0.0000000E+00; -1.9750298E-05;  9.9991351E+02;  1.0000000E-01; -7.1652298E+01;3;  3.1522334E-01;  0.0000000E+00;  3.5794865E-02;0; -1.2143886E-02;  4.0003031E+04;  0.0000000E+00;  1.0601057E-01;  4.0000000E+04;  0.0000000E+00;  3.9986066E+04; -1.2306500E-02;  0.0000000E+00;  1.6261467E-04;  1.7004370E+03;
  2.3154032E-01;  9.9999998E-03; -8.0002218E-02;3871; -4.5998744E-03;  0.0000000E+00; -2.3998569E-05;  9.9996429E+02;  1.0000000E-01; -2.9579411E+01;3;  3.1486890E-01;  0.0000000E+00;  3.3653039E-02;0; -1.2194389E-02;  4.0007402E+04;  0.0000000E+00;  7.7141121E-02;  4.0000000E+04;  0.0000000E+00;  3.9986160E+04; -1.2374969E-02;  0.0000000E+00;  1.8057993E-04;  1.7257950E+03;
  2.3148829E-01;  9.9999998E-03; -7.0004515E-02;3872; -4.5880331E-03;  0.0000000E+00; -2.9111359E-05;  1.0000016E+03;  1.0000000E-01;  1.2839143E+00;3;  3.1426448E-01;  0.0000000E+00;  3.1495087E-02;0; -1.2232644E-02;  4.0010492E+04;  0.0000000E+00;  5.3779036E-02;  4.0000000E+04;  0.0000000E+00;  3.9986203E+04; -1.2434356E-02;  0.0000000E+00;  2.0171196E-04;  1.7225964E+03;
  2.3143259E-01;  9.9999998E-03; -6.0001776E-02;3873; -4.5677465E-03;  0.0000000E+00; -3.3998567E-05;  1.0000283E+03;  1.0000000E-01;  2.3505508E+01;3;  3.1346118E-01;  0.0000000E+00;  2.9268008E-02;0; -1.2256516E-02;  4.0012355E+04;  0.0000000E+00;  3.5421785E-02;  4.0000000E+04;  0.0000000E+00;  3.9986574E+04; -1.2485683E-02;  0.0000000E+00;  2.2916638E-04;  1.6758981E+03;
  2.3137981E-01;  9.9999998E-03; -4.9995791E-02;3874; -4.5433468E-03;  0.0000000E+00; -3.7539128E-05;  1.0000444E+03;  1.0000000E-01;  3.6739700E+01;3;  3.1266132E-01;  0.0000000E+00;  2.6582673E-02;0; -1.2265920E-02;  4.0013160E+04;  0.0000000E+00;  2.1570086E-02;  4.0000000E+04;  0.0000000E+00;  3.9987156E+04; -1.2529378E-02;  0.0000000E+00;  2.6345855E-04;  1.5833175E+03;
  2.3134345E-01;  9.9999998E-03; -3.9993856E-02;3875; -4.5186975E-03;  0.0000000E+00; -3.8481030E-05;  1.0000565E+03;  1.0000000E-01;  4.6813492E+01;3;  3.1180352E-01;  0.0000000E+00;  2.3225602E-02;0; -1.2262703E-02;  4.0013469E+04;  0.0000000E+00;  1.1806253E-02;  4.0000000E+04;  0.0000000E+00;  3.9988402E+04; -1.2565107E-02;  0.0000000E+00;  3.0240411E-04;  1.4606622E+03;
  2.3134615E-01;  9.9999998E-03; -2.9997412E-02;3876; -4.4969041E-03;  0.0000000E+00; -3.5491590E-05;  1.0000652E+03;  1.0000000E-01;  5.4023163E+01;3;  3.1103516E-01;  0.0000000E+00;  1.9197473E-02;0; -1.2250170E-02;  4.0013422E+04;  0.0000000E+00;  5.5703218E-03;  4.0000000E+04;  0.0000000E+00;  3.9989309E+04; -1.2591850E-02;  0.0000000E+00;  3.4167987E-04;  1.3343795E+03;
  2.3136140E-01;  9.9999998E-03; -2.0001741E-02;3877; -4.4799349E-03;  0.0000000E+00; -2.7810507E-05;  1.0000726E+03;  1.0000000E-01;  6.0146446E+01;3;  3.1047967E-01;  0.0000000E+00;  1.4190223E-02;0; -1.2235158E-02;  4.0013180E+04;  0.0000000E+00;  2.0758214E-03;  4.0000000E+04;  0.0000000E+00;  3.9990199E+04; -1.2610825E-02;  0.0000000E+00;  3.7566657E-04;  1.2292695E+03;
  2.3137286E-01;  9.9999998E-03; -1.0003601E-02;3878; -4.4691358E-03;  0.0000000E+00; -1.5464928E-05;  1.0000753E+03;  1.0000000E-01;  6.2417988E+01;3;  3.0988169E-01;  0.0000000E+00;  7.2804242E-03;0; -1.2223546E-02;  4.0012848E+04;  0.0000000E+00;  4.5170006E-04;  4.0000000E+04;  0.0000000E+00;  3.9990371E+04; -1.2622353E-02;  0.0000000E+00;  3.9880618E-04;  1.1619138E+03;
  2.3137921E-01;  9.9999998E-03; -7.3731958E-11;3879; -4.4654934E-03;  0.0000000E+00; -3.3400314E-09;  1.0000771E+03;  1.0000000E-01;  6.3899426E+01;3;  3.1004453E-01;  0.0000000E+00;  2.1935848E-05;0; -1.2219114E-02;  4.0012777E+04;  0.0000000E+00; -8.4409324E-13;  4.0000000E+04;  0.0000000E+00;  3.9990512E+04; -1.2626145E-02;  0.0000000E+00;  4.0703089E-04;  1.1391083E+03;
  2.3137286E-01;  9.9999998E-03;  1.0003600E-02;3880; -4.4691367E-03;  0.0000000E+00;  1.5458456E-05;  1.0000753E+03;  1.0000000E-01;  6.2417988E+01;3;  3.0987552E-01;  0.0000000E+00; -7.2350963E-03;0; -1.2223545E-02;  4.0012848E+04;  0.0000000E+00;  4.5154890E-04;  4.0000000E+04;  0.0000000E+00;  3.9990371E+04; -1.2622352E-02;  0.0000000E+00;  3.9880737E-04;  1.1619071E+03;
  2.3136140E-01;  9.9999998E-03;  2.0001741E-02;3881; -4.4799363E-03;  0.0000000E+00;  2.7803861E-05;  1.0000726E+03;  1.0000000E-01;  6.0146446E+01;3;  3.1049064E-01;  0.0000000E+00; -1.4148870E-02;0; -1.2235140E-02;  4.0013180E+04;  0.0000000E+00;  2.0754656E-03;  4.0000000E+04;  0.0000000E+00;  3.9990199E+04; -1.2610810E-02;  0.0000000E+00;  3.7566916E-04;  1.2292645E+03;
  2.3134615E-01;  9.9999998E-03;  2.9997412E-02;3882; -4.4969064E-03;  0.0000000E+00;  3.5485042E-05;  1.0000652E+03;  1.0000000E-01;  5.4023163E+01;3;  3.1102899E-01;  0.0000000E+00; -1.9157305E-02;0; -1.2250159E-02;  4.0013426E+04;  0.0000000E+00;  5.5701640E-03;  4.0000000E+04;  0.0000000E+00;  3.9989309E+04; -1.2591843E-02;  0.0000000E+00;  3.4168444E-04;  1.3343726E+03;
  2.3134345E-01;  9.9999998E-03;  3.9993856E-02;3883; -4.5187017E-03;  0.0000000E+00;  3.8473241E-05;  1.0000565E+03;  1.0000000E-01;  4.6813492E+01;3;  3.1175968E-01;  0.0000000E+00; -2.3192788E-02;0; -1.2262695E-02;  4.0013473E+04;  0.0000000E+00;  1.1805541E-02;  4.0000000E+04;  0.0000000E+00;  3.9988402E+04; -1.2565105E-02;  0.0000000E+00;  3.0241063E-04;  1.4606482E+03;
  2.3137981E-01;  9.9999998E-03;  4.9995791E-02;3884; -4.5433510E-03;  0.0000000E+00;  3.7529600E-05;  1.0000444E+03;  1.0000000E-01;  3.6739700E+01;3;  3.1263185E-01;  0.0000000E+00; -2.6572570E-02;0; -1.2265905E-02;  4.0013160E+04;  0.0000000E+00;  2.1570561E-02;  4.0000000E+04;  0.0000000E+00;  3.9987156E+04; -1.2529372E-02;  0.0000000E+00;  2.6346717E-04;  1.5833127E+03;
  2.3143259E-01;  9.9999998E-03;  6.0001776E-02;3885; -4.5677517E-03;  0.0000000E+00;  3.3988861E-05;  1.0000283E+03;  1.0000000E-01;  2.3505508E+01;3;  3.1342575E-01;  0.0000000E+00; -2.9249696E-02;0; -1.2256496E-02;  4.0012355E+04;  0.0000000E+00;  3.5423703E-02;  4.0000000E+04;  0.0000000E+00;  3.9986574E+04; -1.2485674E-02;  0.0000000E+00;  2.2917784E-04;  1.6758981E+03;
  2.4154432E-01;  9.9999998E-03; -9.9995062E-02;3930; -4.6524033E-03;  0.0000000E+00; -2.3843073E-05;  9.9978754E+02;  1.0000000E-01; -1.7604440E+02;3;  3.3348432E-01;  0.0000000E+00;  4.2646457E-02;0; -1.1568600E-02;  3.9993426E+04;  0.0000000E+00;  1.6974604E-01;  4.0000000E+04;  0.0000000E+00;  3.9987137E+04; -1.1730937E-02;  0.0000000E+00;  1.6233687E-04;  1.6285929E+03;
  2.4148667E-01;  9.9999998E-03; -9.0003669E-02;3931; -4.6685357E-03;  0.0000000E+00; -2.7402488E-05;  9.9983960E+02;  1.0000000E-01; -1.3288513E+02;3;  3.3335689E-01;  0.0000000E+00;  4.0257048E-02;0; -1.1626191E-02;  3.9997867E+04;  0.0000000E+00;  1.2965468E-01;  4.0000000E+04;  0.0000000E+00;  3.9986645E+04; -1.1800188E-02;  0.0000000E+00;  1.7399676E-04;  1.6402659E+03;
  2.4142992E-01;  9.9999998E-03; -8.0011286E-02;3932; -4.6681599E-03;  0.0000000E+00; -3.2100412E-05;  9.9987366E+02;  1.0000000E-01; -1.0468840E+02;3;  3.3297133E-01;  0.0000000E+00;  3.8109772E-02;0; -1.1680530E-02;  4.0000836E+04;  0.0000000E+00;  9.7270943E-02;  4.0000000E+04;  0.0000000E+00;  3.9986617E+04; -1.1868728E-02;  0.0000000E+00;  1.8819841E-04;  1.6391315E+03;
  2.4138948E-01;  9.9999998E-03; -7.0013568E-02;3933; -4.6557793E-03;  0.0000000E+00; -3.7133988E-05;  9.9988770E+02;  1.0000000E-01; -9.3034409E+01;3;  3.3248958E-01;  0.0000000E+00;  3.5750620E-02;0; -1.1727056E-02;  4.0002004E+04;  0.0000000E+00;  7.1154058E-02;  4.0000000E+04;  0.0000000E+00;  3.9987172E+04; -1.1936289E-02;  0.0000000E+00;  2.0923349E-04;  1.6106317E+03;
  2.4136773E-01;  9.9999998E-03; -6.0007978E-02;3934; -4.6359128E-03;  0.0000000E+00; -4.1652700E-05;  9.9989185E+02;  1.0000000E-01; -8.9627098E+01;3;  3.3190399E-01;  0.0000000E+00;  3.3361901E-02;0; -1.1762836E-02;  4.0001984E+04;  0.0000000E+00;  4.9920332E-02;  4.0000000E+04;  0.0000000E+00;  3.9987363E+04; -1.2002102E-02;  0.0000000E+00;  2.3926613E-04;  1.5433536E+03;
  2.4134706E-01;  9.9999998E-03; -4.9998194E-02;3935; -4.6126260E-03;  0.0000000E+00; -4.4492459E-05;  9.9988965E+02;  1.0000000E-01; -9.1404823E+01;3;  3.3129954E-01;  0.0000000E+00;  3.0351650E-02;0; -1.1787458E-02;  4.0000832E+04;  0.0000000E+00;  3.2822840E-02;  4.0000000E+04;  0.0000000E+00;  3.9988426E+04; -1.2065176E-02;  0.0000000E+00;  2.7771801E-04;  1.4375667E+03;
  2.4133821E-01;  9.9999998E-03; -3.9994176E-02;3936; -4.5895195E-03;  0.0000000E+00; -4.4482986E-05;  9.9988263E+02;  1.0000000E-01; -9.7231819E+01;3;  3.3065909E-01;  0.0000000E+00;  2.6443953E-02;0; -1.1801063E-02;  3.9999668E+04;  0.0000000E+00;  1.9645190E-02;  4.0000000E+04;  0.0000000E+00;  3.9989531E+04; -1.2122472E-02;  0.0000000E+00;  3.2140905E-04;  1.3094418E+03;
  2.4133968E-01;  9.9999998E-03; -2.9996138E-02;3937; -4.5692795E-03;  0.0000000E+00; -4.0300609E-05;  9.9988080E+02;  1.0000000E-01; -9.8762642E+01;3;  3.3010873E-01;  0.0000000E+00;  2.1936009E-02;0; -1.1805996E-02;  3.9998371E+04;  0.0000000E+00;  1.0236650E-02;  4.0000000E+04;  0.0000000E+00;  3.9990312E+04; -1.2171145E-02;  0.0000000E+00;  3.6514833E-04;  1.1832380E+03;
  2.4134259E-01;  9.9999998E-03; -2.0000573E-02;3938; -4.5536472E-03;  0.0000000E+00; -3.1186471E-05;  9.9987384E+02;  1.0000000E-01; -1.0454025E+02;3;  3.2971892E-01;  0.0000000E+00;  1.5824076E-02;0; -1.1805807E-02;  3.9997367E+04;  0.0000000E+00;  4.2196540E-03;  4.0000000E+04;  0.0000000E+00;  3.9991258E+04; -1.2208512E-02;  0.0000000E+00;  4.0270461E-04;  1.0808325E+03;
  2.4134910E-01;  9.9999998E-03; -1.0003226E-02;3939; -4.5438269E-03;  0.0000000E+00; -1.7337034E-05;  9.9986969E+02;  1.0000000E-01; -1.0794756E+02;3;  3.2931086E-01;  0.0000000E+00;  8.2791196E-03;0; -1.1803797E-02;  3.9996395E+04;  0.0000000E+00;  9.9653320E-04;  4.0000000E+04;  0.0000000E+00;  3.9991566E+04; -1.2231950E-02;  0.0000000E+00;  4.2815320E-04;  1.0161292E+03;
  2.4135350E-01;  9.9999998E-03;  2.7813102E-10;3940; -4.5405230E-03;  0.0000000E+00; -3.2424252E-09;  9.9986780E+02;  1.0000000E-01; -1.0952776E+02;3;  3.2940474E-01;  0.0000000E+00;  2.0120260E-05;0; -1.1802743E-02;  3.9996266E+04;  0.0000000E+00; -1.6071161E-12;  4.0000000E+04;  0.0000000E+00;  3.9991715E+04; -1.2239916E-02;  0.0000000E+00;  4.3717332E-04;  9.9433978E+02;
  2.4134910E-01;  9.9999998E-03;  1.0003227E-02;3941; -4.5438278E-03;  0.0000000E+00;  1.7330512E-05;  9.9986963E+02;  1.0000000E-01; -1.0799695E+02;3;  3.2930440E-01;  0.0000000E+00; -8.2452483E-03;0; -1.1803799E-02;  3.9996395E+04;  0.0000000E+00;  9.9657860E-04;  4.0000000E+04;  0.0000000E+00;  3.9991566E+04; -1.2231953E-02;  0.0000000E+00;  4.2815375E-04;  1.0161264E+03;
  2.4134259E-01;  9.9999998E-03;  2.0000573E-02;3942; -4.5536491E-03;  0.0000000E+00;  3.1179679E-05;  9.9987384E+02;  1.0000000E-01; -1.0454025E+02;3;  3.2969406E-01;  0.0000000E+00; -1.5795141E-02;0; -1.1805796E-02;  3.9997367E+04;  0.0000000E+00;  4.2199194E-03;  4.0000000E+04;  0.0000000E+00;  3.9991258E+04; -1.2208503E-02;  0.0000000E+00;  4.0270702E-04;  1.0808206E+03;
  2.4133968E-01;  9.9999998E-03;  2.9996138E-02;3943; -4.5692818E-03;  0.0000000E+00;  4.0292820E-05;  9.9988080E+02;  1.0000000E-01; -9.8762642E+01;3;  3.3009496E-01;  0.0000000E+00; -2.1897960E-02;0; -1.1805981E-02;  3.9998371E+04;  0.0000000E+00;  1.0236495E-02;  4.0000000E+04;  0.0000000E+00;  3.9990312E+04; -1.2171133E-02;  0.0000000E+00;  3.6515191E-04;  1.1832274E+03;
  2.4133821E-01;  9.9999998E-03;  3.9994176E-02;3944; -4.5895246E-03;  0.0000000E+00;  4.4474651E-05;  9.9988263E+02;  1.0000000E-01; -9.7231819E+01;3;  3.3063108E-01;  0.0000000E+00; -2.6431574E-02;0; -1.1801054E-02;  3.9999676E+04;  0.0000000E+00;  1.9645086E-02;  4.0000000E+04;  0.0000000E+00;  3.9989535E+04; -1.2122469E-02;  0.0000000E+00;  3.2141493E-04;  1.3094395E+03;
  2.4134706E-01;  9.9999998E-03;  4.9998194E-02;3945; -4.6126293E-03;  0.0000000E+00;  4.4484954E-05;  9.9988977E+02;  1.0000000E-01; -9.1306061E+01;3;  3.3124539E-01;  0.0000000E+00; -3.0319037E-02;0; -1.1787451E-02;  4.0000836E+04;  0.0000000E+00;  3.2824326E-02;  4.0000000E+04;  0.0000000E+00;  3.9988426E+04; -1.2065177E-02;  0.0000000E+00;  2.7772595E-04;  1.4375590E+03;
  2.4136773E-01;  9.9999998E-03;  6.0007978E-02;3946; -4.6359184E-03;  0.0000000E+00;  4.1642354E-05;  9.9989178E+02;  1.0000000E-01; -8.9676476E+01;3;  3.3184433E-01;  0.0000000E+00; -3.3368845E-02;0; -1.1762805E-02;  4.0001988E+04;  0.0000000E+00;  4.9921185E-02;  4.0000000E+04;  0.0000000E+00;  3.9987363E+04; -1.2002083E-02;  0.0000000E+00;  2.3927695E-04;  1.5433545E+03;
  2.5152218E-01;  9.9999998E-03; -9.9993616E-02;3991; -4.7309548E-03;  0.0000000E+00; -2.7310158E-05;  9.9979114E+02;  1.0000000E-01; -1.7303215E+02;3;  3.5248068E-01;  0.0000000E+00;  4.7627404E-02;0; -1.1169820E-02;  3.9993863E+04;  0.0000000E+00;  1.7184564E-01;  4.0000000E+04;  0.0000000E+00;  3.9988547E+04; -1.1353641E-02;  0.0000000E+00;  1.8382072E-04;  1.4796454E+03;
  2.5146559E-01;  9.9999998E-03; -9.0002656E-02;3992; -4.7448301E-03;  0.0000000E+00; -3.1679163E-05;  9.9981049E+02;  1.0000000E-01; -1.5703259E+02;3;  3.5231838E-01;  0.0000000E+00;  4.5433160E-02;0; -1.1228624E-02;  3.9995711E+04;  0.0000000E+00;  1.3018553E-01;  4.0000000E+04;  0.0000000E+00;  3.9988184E+04; -1.1417198E-02;  0.0000000E+00;  1.8857417E-04;  1.4755167E+03;
  2.5142190E-01;  9.9999998E-03; -8.0008455E-02;3993; -4.7438205E-03;  0.0000000E+00; -3.6665366E-05;  9.9981226E+02;  1.0000000E-01; -1.5555116E+02;3;  3.5198489E-01;  0.0000000E+00;  4.2956606E-02;0; -1.1289493E-02;  3.9995855E+04;  0.0000000E+00;  9.8113112E-02;  4.0000000E+04;  0.0000000E+00;  3.9988215E+04; -1.1489155E-02;  0.0000000E+00;  1.9966123E-04;  1.4546102E+03;
  2.5138697E-01;  9.9999998E-03; -7.0008732E-02;3994; -4.7321492E-03;  0.0000000E+00; -4.1527535E-05;  9.9979572E+02;  1.0000000E-01; -1.6922978E+02;3;  3.5162008E-01;  0.0000000E+00;  4.0367708E-02;0; -1.1348256E-02;  3.9994176E+04;  0.0000000E+00;  7.2807312E-02;  4.0000000E+04;  0.0000000E+00;  3.9988672E+04; -1.1568878E-02;  0.0000000E+00;  2.2062192E-04;  1.4062625E+03;
  2.5135255E-01;  9.9999998E-03; -6.0004268E-02;3995; -4.7140168E-03;  0.0000000E+00; -4.5596538E-05;  9.9976941E+02;  1.0000000E-01; -1.9105632E+02;3;  3.5125107E-01;  0.0000000E+00;  3.7386771E-02;0; -1.1401287E-02;  3.9991785E+04;  0.0000000E+00;  5.2131269E-02;  4.0000000E+04;  0.0000000E+00;  3.9989262E+04; -1.1653905E-02;  0.0000000E+00;  2.5261738E-04;  1.3239137E+03;
  2.5134149E-01;  9.9999998E-03; -4.9998194E-02;3996; -4.6934634E-03;  0.0000000E+00; -4.7762504E-05;  9.9974249E+02;  1.0000000E-01; -2.1332730E+02;3;  3.5091865E-01;  0.0000000E+00;  3.3944011E-02;0; -1.1445176E-02;  3.9988867E+04;  0.0000000E+00;  3.5078108E-02;  4.0000000E+04;  0.0000000E+00;  3.9990133E+04; -1.1739308E-02;  0.0000000E+00;  2.9413245E-04;  1.2115140E+03;
  2.5135893E-01;  9.9999998E-03; -3.9994895E-02;3997; -4.6736859E-03;  0.0000000E+00; -4.6930709E-05;  9.9971741E+02;  1.0000000E-01; -2.3411684E+02;3;  3.5064861E-01;  0.0000000E+00;  2.9827723E-02;0; -1.1478484E-02;  3.9985637E+04;  0.0000000E+00;  2.1490037E-02;  4.0000000E+04;  0.0000000E+00;  3.9990977E+04; -1.1819694E-02;  0.0000000E+00;  3.4121049E-04;  1.0856666E+03;
  2.5137994E-01;  9.9999998E-03; -2.9995620E-02;3998; -4.6567232E-03;  0.0000000E+00; -4.1875748E-05;  9.9969501E+02;  1.0000000E-01; -2.5268420E+02;3;  3.5042110E-01;  0.0000000E+00;  2.4565358E-02;0; -1.1501964E-02;  3.9983121E+04;  0.0000000E+00;  1.1445827E-02;  4.0000000E+04;  0.0000000E+00;  3.9991855E+04; -1.1890000E-02;  0.0000000E+00;  3.8803567E-04;  9.6771118E+02;
  2.5140354E-01;  9.9999998E-03; -1.9997766E-02;3999; -4.6439106E-03;  0.0000000E+00; -3.2006272E-05;  9.9967932E+02;  1.0000000E-01; -2.6567151E+02;3;  3.5020173E-01;  0.0000000E+00;  1.7481539E-02;0; -1.1516744E-02;  3.9981105E+04;  0.0000000E+00;  4.8078862E-03;  4.0000000E+04;  0.0000000E+00;  3.9992605E+04; -1.1944755E-02;  0.0000000E+00;  4.2801074E-04;  8.7537897E+02;
  2.5142306E-01;  9.9999998E-03; -9.9994177E-03;4000; -4.6360111E-03;  0.0000000E+00; -1.7641289E-05;  9.9966791E+02;  1.0000000E-01; -2.7515271E+02;3;  3.5003936E-01;  0.0000000E+00;  9.2960903E-03;0; -1.1524576E-02;  3.9980020E+04;  0.0000000E+00;  1.1505767E-03;  4.0000000E+04;  0.0000000E+00;  3.9993164E+04; -1.1979543E-02;  0.0000000E+00;  4.5496656E-04;  8.1838422E+02;
  2.5143099E-01;  9.9999998E-03;  3.5817654E-10;4001; -4.6333489E-03;  0.0000000E+00; -2.7936304E-09;  9.9966437E+02;  1.0000000E-01; -2.7806622E+02;3;  3.5007608E-01;  0.0000000E+00;  1.5632280E-05;0; -1.1526953E-02;  3.9979613E+04;  0.0000000E+00; -1.5427373E-12;  4.0000000E+04;  0.0000000E+00;  3.9993172E+04; -1.1991442E-02;  0.0000000E+00;  4.6448922E-04;  7.9941260E+02;
  2.5142306E-01;  9.9999998E-03;  9.9994186E-03;4002; -4.6360125E-03;  0.0000000E+00;  1.7635646E-05;  9.9966791E+02;  1.0000000E-01; -2.7515271E+02;3;  3.5003257E-01;  0.0000000E+00; -9.2697218E-03;0; -1.1524576E-02;  3.9980020E+04;  0.0000000E+00;  1.1506147E-03;  4.0000000E+04;  0.0000000E+00;  3.9993164E+04; -1.1979543E-02;  0.0000000E+00;  4.5496688E-04;  8.1838031E+02;
  2.5140354E-01;  9.9999998E-03;  1.9997766E-02;4003; -4.6439129E-03;  0.0000000E+00;  3.2000247E-05;  9.9967932E+02;  1.0000000E-01; -2.6567151E+02;3;  3.5017478E-01;  0.0000000E+00; -1.7449494E-02;0; -1.1516748E-02;  3.9981117E+04;  0.0000000E+00;  4.8077917E-03;  4.0000000E+04;  0.0000000E+00;  3.9992609E+04; -1.1944760E-02;  0.0000000E+00;  4.2801161E-04;  8.7537274E+02;
  2.5137994E-01;  9.9999998E-03;  2.9995620E-02;4004; -4.6567251E-03;  0.0000000E+00;  4.1868370E-05;  9.9969495E+02;  1.0000000E-01; -2.5273360E+02;3;  3.5039115E-01;  0.0000000E+00; -2.4545055E-02;0; -1.1501954E-02;  3.9983121E+04;  0.0000000E+00;  1.1446296E-02;  4.0000000E+04;  0.0000000E+00;  3.9991855E+04; -1.1889992E-02;  0.0000000E+00;  3.8803834E-04;  9.6770209E+02;
  2.5135893E-01;  9.9999998E-03;  3.9994895E-02;4005; -4.6736910E-03;  0.0000000E+00;  4.6922996E-05;  9.9971747E+02;  1.0000000E-01; -2.3406746E+02;3;  3.5059470E-01;  0.0000000E+00; -2.9802663E-02;0; -1.1478489E-02;  3.9985645E+04;  0.0000000E+00;  2.1491250E-02;  4.0000000E+04;  0.0000000E+00;  3.9990977E+04; -1.1819704E-02;  0.0000000E+00;  3.4121421E-04;  1.0856545E+03;
  2.5134149E-01;  9.9999998E-03;  4.9998194E-02;4006; -4.6934676E-03;  0.0000000E+00;  4.7754547E-05;  9.9974237E+02;  1.0000000E-01; -2.1342606E+02;3;  3.5084960E-01;  0.0000000E+00; -3.3940066E-02;0; -1.1445160E-02;  3.9988863E+04;  0.0000000E+00;  3.5077117E-02;  4.0000000E+04;  0.0000000E+00;  3.9990133E+04; -1.1739299E-02;  0.0000000E+00;  2.9413882E-04;  1.2115083E+03;
  2.5135255E-01;  9.9999998E-03;  6.0004268E-02;4007; -4.7140219E-03;  0.0000000E+00;  4.5588189E-05;  9.9976947E+02;  1.0000000E-01; -1.9100694E+02;3;  3.5118988E-01;  0.0000000E+00; -3.7369698E-02;0; -1.1401284E-02;  3.9991785E+04;  0.0000000E+00;  5.2129716E-02;  4.0000000E+04;  0.0000000E+00;  3.9989262E+04; -1.1653910E-02;  0.0000000E+00;  2.5262625E-04;  1.3239119E+03;
  2.6150674E-01;  9.9999998E-03; -9.9990413E-02;4052; -4.8192604E-03;  0.0000000E+00; -2.7606931E-05;  9.9984827E+02;  1.0000000E-01; -1.2572484E+02;3;  3.7232384E-01;  0.0000000E+00;  5.3184293E-02;0; -1.0882536E-02;  3.9998281E+04;  0.0000000E+00;  1.4364922E-01;  4.0000000E+04;  0.0000000E+00;  3.9990035E+04; -1.1088016E-02;  0.0000000E+00;  2.0548009E-04;  1.2714969E+03;
  2.6144820E-01;  9.9999998E-03; -8.9998230E-02;4053; -4.8316582E-03;  0.0000000E+00; -3.2578209E-05;  9.9983582E+02;  1.0000000E-01; -1.3604553E+02;3;  3.7207541E-01;  0.0000000E+00;  5.0645314E-02;0; -1.0946357E-02;  3.9997004E+04;  0.0000000E+00;  1.0571259E-01;  4.0000000E+04;  0.0000000E+00;  3.9989969E+04; -1.1151316E-02;  0.0000000E+00;  2.0495888E-04;  1.2548680E+03;
  2.6141736E-01;  9.9999998E-03; -8.0003247E-02;4054; -4.8312652E-03;  0.0000000E+00; -3.7747719E-05;  9.9979926E+02;  1.0000000E-01; -1.6631628E+02;3;  3.7191063E-01;  0.0000000E+00;  4.7873501E-02;0; -1.1017105E-02;  3.9993781E+04;  0.0000000E+00;  7.8560703E-02;  4.0000000E+04;  0.0000000E+00;  3.9990277E+04; -1.1230910E-02;  0.0000000E+00;  2.1380540E-04;  1.2163473E+03;
  2.6140851E-01;  9.9999998E-03; -7.0002578E-02;4055; -4.8220707E-03;  0.0000000E+00; -4.2488584E-05;  9.9974695E+02;  1.0000000E-01; -2.0967308E+02;3;  3.7176383E-01;  0.0000000E+00;  4.5075137E-02;0; -1.1090131E-02;  3.9989211E+04;  0.0000000E+00;  5.8273304E-02;  4.0000000E+04;  0.0000000E+00;  3.9990613E+04; -1.1324909E-02;  0.0000000E+00;  2.3477673E-04;  1.1506508E+03;
  2.6140448E-01;  9.9999998E-03; -5.9997618E-02;4056; -4.8078145E-03;  0.0000000E+00; -4.6020199E-05;  9.9969153E+02;  1.0000000E-01; -2.5554832E+02;3;  3.7162620E-01;  0.0000000E+00;  4.1677665E-02;0; -1.1161028E-02;  3.9984266E+04;  0.0000000E+00;  4.2087685E-02;  4.0000000E+04;  0.0000000E+00;  3.9991027E+04; -1.1429142E-02;  0.0000000E+00;  2.6811374E-04;  1.0574445E+03;
  2.6141381E-01;  9.9999998E-03; -4.9990743E-02;4057; -4.7919415E-03;  0.0000000E+00; -4.7534544E-05;  9.9963898E+02;  1.0000000E-01; -2.9910266E+02;3;  3.7164325E-01;  0.0000000E+00;  3.7713654E-02;0; -1.1225437E-02;  3.9979141E+04;  0.0000000E+00;  2.8693343E-02;  4.0000000E+04;  0.0000000E+00;  3.9992113E+04; -1.1536907E-02;  0.0000000E+00;  3.1147097E-04;  9.4504431E+02;
  2.6142749E-01;  9.9999998E-03; -3.9987922E-02;4058; -4.7769137E-03;  0.0000000E+00; -4.5925921E-05;  9.9959320E+02;  1.0000000E-01; -3.3702750E+02;3;  3.7164524E-01;  0.0000000E+00;  3.2745928E-02;0; -1.1280196E-02;  3.9974641E+04;  0.0000000E+00;  1.7828884E-02;  4.0000000E+04;  0.0000000E+00;  3.9992957E+04; -1.1640467E-02;  0.0000000E+00;  3.6027140E-04;  8.2973395E+02;
  2.6143816E-01;  9.9999998E-03; -2.9990193E-02;4059; -4.7643431E-03;  0.0000000E+00; -4.0340550E-05;  9.9955646E+02;  1.0000000E-01; -3.6744641E+02;3;  3.7188894E-01;  0.0000000E+00;  2.6721453E-02;0; -1.1323339E-02;  3.9971156E+04;  0.0000000E+00;  9.6216286E-03;  4.0000000E+04;  0.0000000E+00;  3.9993492E+04; -1.1731753E-02;  0.0000000E+00;  4.0841379E-04;  7.2883899E+02;
  2.6144522E-01;  9.9999998E-03; -1.9994330E-02;4060; -4.7550807E-03;  0.0000000E+00; -3.0455400E-05;  9.9952936E+02;  1.0000000E-01; -3.8991489E+02;3;  3.7188873E-01;  0.0000000E+00;  1.9099455E-02;0; -1.1354022E-02;  3.9968301E+04;  0.0000000E+00;  4.0864218E-03;  4.0000000E+04;  0.0000000E+00;  3.9994133E+04; -1.1803242E-02;  0.0000000E+00;  4.4922033E-04;  6.5439990E+02;
  2.6144913E-01;  9.9999998E-03; -9.9977106E-03;4061; -4.7494322E-03;  0.0000000E+00; -1.6610851E-05;  9.9951306E+02;  1.0000000E-01; -4.0339600E+02;3;  3.7185591E-01;  0.0000000E+00;  1.0063281E-02;0; -1.1372210E-02;  3.9966652E+04;  0.0000000E+00;  9.8553207E-04;  4.0000000E+04;  0.0000000E+00;  3.9994418E+04; -1.1848807E-02;  0.0000000E+00;  4.7659763E-04;  6.1061017E+02;
  2.6145065E-01;  9.9999998E-03;  6.7909428E-10;4062; -4.7475649E-03;  0.0000000E+00; -2.2935349E-09;  9.9950726E+02;  1.0000000E-01; -4.0823538E+02;3;  3.7200224E-01;  0.0000000E+00;  3.0833280E-06;0; -1.1378213E-02;  3.9966020E+04;  0.0000000E+00; -1.8787853E-12;  4.0000000E+04;  0.0000000E+00;  3.9994605E+04; -1.1864457E-02;  0.0000000E+00;  4.8624407E-04;  5.9643964E+02;
  2.6144913E-01;  9.9999998E-03;  9.9977115E-03;4063; -4.7494336E-03;  0.0000000E+00;  1.6606589E-05;  9.9951306E+02;  1.0000000E-01; -4.0339600E+02;3;  3.7183097E-01;  0.0000000E+00; -1.0051058E-02;0; -1.1372213E-02;  3.9966652E+04;  0.0000000E+00;  9.8560413E-04;  4.0000000E+04;  0.0000000E+00;  3.9994414E+04; -1.1848811E-02;  0.0000000E+00;  4.7659749E-04;  6.1059882E+02;
  2.6144522E-01;  9.9999998E-03;  1.9994332E-02;4064; -4.7550830E-03;  0.0000000E+00;  3.0450217E-05;  9.9952936E+02;  1.0000000E-01; -3.8991489E+02;3;  3.7186146E-01;  0.0000000E+00; -1.9092042E-02;0; -1.1354025E-02;  3.9968301E+04;  0.0000000E+00;  4.0868889E-03;  4.0000000E+04;  0.0000000E+00;  3.9994133E+04; -1.1803245E-02;  0.0000000E+00;  4.4922050E-04;  6.5439142E+02;
  2.6143816E-01;  9.9999998E-03;  2.9990193E-02;4065; -4.7643450E-03;  0.0000000E+00;  4.0334475E-05;  9.9955640E+02;  1.0000000E-01; -3.6749579E+02;3;  3.7187168E-01;  0.0000000E+00; -2.6709152E-02;0; -1.1323337E-02;  3.9971156E+04;  0.0000000E+00;  9.6220672E-03;  4.0000000E+04;  0.0000000E+00;  3.9993492E+04; -1.1731752E-02;  0.0000000E+00;  4.0841449E-04;  7.2882654E+02;
  2.6142749E-01;  9.9999998E-03;  3.9987922E-02;4066; -4.7769165E-03;  0.0000000E+00;  4.5919573E-05;  9.9959320E+02;  1.0000000E-01; -3.3702750E+02;3;  3.7161186E-01;  0.0000000E+00; -3.2743387E-02;0; -1.1280188E-02;  3.9974641E+04;  0.0000000E+00;  1.7829124E-02;  4.0000000E+04;  0.0000000E+00;  3.9992957E+04; -1.1640462E-02;  0.0000000E+00;  3.6027347E-04;  8.2971558E+02;
  2.6141378E-01;  9.9999998E-03;  4.9990743E-02;4067; -4.7919443E-03;  0.0000000E+00;  4.7527832E-05;  9.9963898E+02;  1.0000000E-01; -2.9910266E+02;3;  3.7159199E-01;  0.0000000E+00; -3.7694279E-02;0; -1.1225427E-02;  3.9979141E+04;  0.0000000E+00;  2.8694078E-02;  4.0000000E+04;  0.0000000E+00;  3.9992113E+04; -1.1536902E-02;  0.0000000E+00;  3.1147548E-04;  9.4504700E+02;
  2.6140448E-01;  9.9999998E-03;  5.9997618E-02;4068; -4.8078191E-03;  0.0000000E+00;  4.6012388E-05;  9.9969153E+02;  1.0000000E-01; -2.5554832E+02;3;  3.7155578E-01;  0.0000000E+00; -4.1688729E-02;0; -1.1161039E-02;  3.9984266E+04;  0.0000000E+00;  4.2089563E-02;  4.0000000E+04;  0.0000000E+00;  3.9991027E+04; -1.1429159E-02;  0.0000000E+00;  2.6812061E-04;  1.0574453E+03;
  2.7151102E-01;  9.9999998E-03; -9.9991471E-02;4113; -4.9178908E-03;  0.0000000E+00; -2.6007239E-05;  9.9997400E+02;  1.0000000E-01; -2.1530254E+01;3;  3.9310366E-01;  0.0000000E+00;  5.9334546E-02;0; -1.0680522E-02;  4.0006785E+04;  0.0000000E+00;  9.0309866E-02;  4.0000000E+04;  0.0000000E+00;  3.9991363E+04; -1.0906599E-02;  0.0000000E+00;  2.2607794E-04;  1.0536432E+03;
  2.7147290E-01;  9.9999998E-03; -8.9995876E-02;4114; -4.9302708E-03;  0.0000000E+00; -3.1421896E-05;  9.9991174E+02;  1.0000000E-01; -7.3133736E+01;3;  3.9294863E-01;  0.0000000E+00;  5.6067977E-02;0; -1.0751697E-02;  4.0001922E+04;  0.0000000E+00;  6.1420757E-02;  4.0000000E+04;  0.0000000E+00;  3.9991703E+04; -1.0973948E-02;  0.0000000E+00;  2.2225041E-04;  1.0227307E+03;
  2.7145940E-01;  9.9999998E-03; -7.9996124E-02;4115; -4.9321293E-03;  0.0000000E+00; -3.6597139E-05;  9.9983453E+02;  1.0000000E-01; -1.3708255E+02;3;  3.9282098E-01;  0.0000000E+00;  5.3285178E-02;0; -1.0834170E-02;  3.9995355E+04;  0.0000000E+00;  4.3629952E-02;  4.0000000E+04;  0.0000000E+00;  3.9992070E+04; -1.1064066E-02;  0.0000000E+00;  2.2989613E-04;  9.6560431E+02;
  2.7145427E-01;  9.9999998E-03; -6.9992624E-02;4116; -4.9269618E-03;  0.0000000E+00; -4.0955289E-05;  9.9974847E+02;  1.0000000E-01; -2.0838918E+02;3;  3.9284456E-01;  0.0000000E+00;  4.9859069E-02;0; -1.0922951E-02;  3.9987941E+04;  0.0000000E+00;  3.2211643E-02;  4.0000000E+04;  0.0000000E+00;  3.9992930E+04; -1.1173895E-02;  0.0000000E+00;  2.5094359E-04;  8.8399054E+02;
  2.7144444E-01;  9.9999998E-03; -5.9990365E-02;4117; -4.9179737E-03;  0.0000000E+00; -4.3892560E-05;  9.9966815E+02;  1.0000000E-01; -2.7490579E+02;3;  3.9301753E-01;  0.0000000E+00;  4.6008989E-02;0; -1.1012520E-02;  3.9980840E+04;  0.0000000E+00;  2.3886383E-02;  4.0000000E+04;  0.0000000E+00;  3.9993711E+04; -1.1297320E-02;  0.0000000E+00;  2.8480071E-04;  7.8403015E+02;
  2.7142939E-01;  9.9999998E-03; -4.9990330E-02;4118; -4.9078586E-03;  0.0000000E+00; -4.4624892E-05;  9.9959210E+02;  1.0000000E-01; -3.3791638E+02;3;  3.9333266E-01;  0.0000000E+00;  4.1623823E-02;0; -1.1097264E-02;  3.9974008E+04;  0.0000000E+00;  1.6984582E-02;  4.0000000E+04;  0.0000000E+00;  3.9994465E+04; -1.1425749E-02;  0.0000000E+00;  3.2848550E-04;  6.7770300E+02;
  2.7141684E-01;  9.9999998E-03; -3.9992657E-02;4119; -4.8986101E-03;  0.0000000E+00; -4.2464570E-05;  9.9952808E+02;  1.0000000E-01; -3.9100128E+02;3;  3.9372739E-01;  0.0000000E+00;  3.5692003E-02;0; -1.1172191E-02;  3.9968426E+04;  0.0000000E+00;  1.1052281E-02;  4.0000000E+04;  0.0000000E+00;  3.9995105E+04; -1.1549369E-02;  0.0000000E+00;  3.7717860E-04;  5.8010767E+02;
  2.7141124E-01;  9.9999998E-03; -2.9996574E-02;4120; -4.8913341E-03;  0.0000000E+00; -3.6732501E-05;  9.9947943E+02;  1.0000000E-01; -4.3129645E+02;3;  3.9416561E-01;  0.0000000E+00;  2.8699676E-02;0; -1.1233403E-02;  3.9963680E+04;  0.0000000E+00;  6.2328996E-03;  4.0000000E+04;  0.0000000E+00;  3.9995598E+04; -1.1658221E-02;  0.0000000E+00;  4.2481819E-04;  5.0357510E+02;
  2.7141175E-01;  9.9999998E-03; -2.0000013E-02;4121; -4.8863804E-03;  0.0000000E+00; -2.7384503E-05;  9.9944299E+02;  1.0000000E-01; -4.6146844E+02;3;  3.9455646E-01;  0.0000000E+00;  2.0301515E-02;0; -1.1278407E-02;  3.9960383E+04;  0.0000000E+00;  2.7477376E-03;  4.0000000E+04;  0.0000000E+00;  3.9996043E+04; -1.1743342E-02;  0.0000000E+00;  4.6493486E-04;  4.5338116E+02;
  2.7141520E-01;  9.9999998E-03; -1.0001088E-02;4122; -4.8835538E-03;  0.0000000E+00; -1.4785861E-05;  9.9942236E+02;  1.0000000E-01; -4.7855435E+02;3;  3.9473936E-01;  0.0000000E+00;  1.0910106E-02;0; -1.1305825E-02;  3.9958461E+04;  0.0000000E+00;  6.7965232E-04;  4.0000000E+04;  0.0000000E+00;  3.9996266E+04; -1.1797555E-02;  0.0000000E+00;  4.9173000E-04;  4.2726337E+02;
  2.7141672E-01;  9.9999998E-03;  9.9080721E-10;4123; -4.8826737E-03;  0.0000000E+00; -1.7305791E-09;  9.9941528E+02;  1.0000000E-01; -4.8443076E+02;3;  3.9503625E-01;  0.0000000E+00; -1.5269823E-06;0; -1.1315023E-02;  3.9957789E+04;  0.0000000E+00; -1.6776766E-12;  4.0000000E+04;  0.0000000E+00;  3.9996348E+04; -1.1816172E-02;  0.0000000E+00;  5.0114893E-04;  4.1950012E+02;
  2.7141520E-01;  9.9999998E-03;  1.0001089E-02;4124; -4.8835548E-03;  0.0000000E+00;  1.4782880E-05;  9.9942236E+02;  1.0000000E-01; -4.7855435E+02;3;  3.9472449E-01;  0.0000000E+00; -1.0918123E-02;0; -1.1305831E-02;  3.9958457E+04;  0.0000000E+00;  6.7983818E-04;  4.0000000E+04;  0.0000000E+00;  3.9996266E+04; -1.1797561E-02;  0.0000000E+00;  4.9173005E-04;  4.2725604E+02;
  2.7141175E-01;  9.9999998E-03;  2.0000014E-02;4125; -4.8863827E-03;  0.0000000E+00;  2.7380289E-05;  9.9944299E+02;  1.0000000E-01; -4.6146844E+02;3;  3.9452931E-01;  0.0000000E+00; -2.0305349E-02;0; -1.1278417E-02;  3.9960387E+04;  0.0000000E+00;  2.7483914E-03;  4.0000000E+04;  0.0000000E+00;  3.9996043E+04; -1.1743351E-02;  0.0000000E+00;  4.6493424E-04;  4.5337000E+02;
  2.7141121E-01;  9.9999998E-03;  2.9996576E-02;4126; -4.8913374E-03;  0.0000000E+00;  3.6727779E-05;  9.9947943E+02;  1.0000000E-01; -4.3129645E+02;3;  3.9413711E-01;  0.0000000E+00; -2.8688382E-02;0; -1.1233406E-02;  3.9963680E+04;  0.0000000E+00;  6.2336689E-03;  4.0000000E+04;  0.0000000E+00;  3.9995598E+04; -1.1658224E-02;  0.0000000E+00;  4.2481784E-04;  5.0355466E+02;
  2.7141681E-01;  9.9999998E-03;  3.9992657E-02;4127; -4.8986138E-03;  0.0000000E+00;  4.2459280E-05;  9.9952814E+02;  1.0000000E-01; -3.9095190E+02;3;  3.9367661E-01;  0.0000000E+00; -3.5685342E-02;0; -1.1172201E-02;  3.9968426E+04;  0.0000000E+00;  1.1053207E-02;  4.0000000E+04;  0.0000000E+00;  3.9995105E+04; -1.1549380E-02;  0.0000000E+00;  3.7717939E-04;  5.8008612E+02;
  2.7142939E-01;  9.9999998E-03;  4.9990334E-02;4128; -4.9078623E-03;  0.0000000E+00;  4.4619272E-05;  9.9959210E+02;  1.0000000E-01; -3.3791638E+02;3;  3.9327899E-01;  0.0000000E+00; -4.1629583E-02;0; -1.1097264E-02;  3.9974012E+04;  0.0000000E+00;  1.6985251E-02;  4.0000000E+04;  0.0000000E+00;  3.9994465E+04; -1.1425751E-02;  0.0000000E+00;  3.2848786E-04;  6.7769318E+02;
  2.7144444E-01;  9.9999998E-03;  5.9990365E-02;4129; -4.9179769E-03;  0.0000000E+00;  4.3886619E-05;  9.9966803E+02;  1.0000000E-01; -2.7505396E+02;3;  3.9296582E-01;  0.0000000E+00; -4.6011530E-02;0; -1.1012517E-02;  3.9980836E+04;  0.0000000E+00;  2.3887791E-02;  4.0000000E+04;  0.0000000E+00;  3.9993707E+04; -1.1297322E-02;  0.0000000E+00;  2.8480502E-04;  7.8402637E+02;
  2.8149527E-01;  9.9999998E-03; -9.9992275E-02;4174; -5.0242450E-03;  0.0000000E+00; -2.4316379E-05;  1.0001115E+03;  1.0000000E-01;  9.2343071E+01;3;  4.1489419E-01;  0.0000000E+00;  6.5574735E-02;0; -1.0530028E-02;  4.0017195E+04;  0.0000000E+00;  2.3316270E-02;  4.0000000E+04;  0.0000000E+00;  3.9993496E+04; -1.0774541E-02;  0.0000000E+00;  2.4451310E-04;  8.6561108E+02;
  2.8146634E-01;  9.9999998E-03; -8.9991927E-02;4175; -5.0380481E-03;  0.0000000E+00; -2.9815894E-05;  1.0000145E+03;  1.0000000E-01;  1.2049042E+01;3;  4.1472164E-01;  0.0000000E+00;  6.2211093E-02;0; -1.0610039E-02;  4.0009086E+04;  0.0000000E+00;  7.8290114E-03;  4.0000000E+04;  0.0000000E+00;  3.9993422E+04; -1.0849519E-02;  0.0000000E+00;  2.3947966E-04;  8.1565277E+02;
  2.8144562E-01;  9.9999998E-03; -7.9992093E-02;4176; -5.0435006E-03;  0.0000000E+00; -3.4709778E-05;  9.9990411E+02;  1.0000000E-01; -7.9454544E+01;3;  4.1467354E-01;  0.0000000E+00;  5.8695421E-02;0; -1.0704449E-02;  3.9999977E+04;  0.0000000E+00;  2.6855026E-03;  4.0000000E+04;  0.0000000E+00;  3.9994031E+04; -1.0951456E-02;  0.0000000E+00;  2.4700601E-04;  7.3715961E+02;
  2.8142783E-01;  9.9999998E-03; -6.9993801E-02;4177; -5.0436771E-03;  0.0000000E+00; -3.8453731E-05;  9.9979425E+02;  1.0000000E-01; -1.7046431E+02;3;  4.1491610E-01;  0.0000000E+00;  5.4820888E-02;0; -1.0807750E-02;  3.9990246E+04;  0.0000000E+00;  2.5912828E-03;  4.0000000E+04;  0.0000000E+00;  3.9994598E+04; -1.1075938E-02;  0.0000000E+00;  2.6818804E-04;  6.3953552E+02;
  2.8141466E-01;  9.9999998E-03; -5.9995979E-02;4178; -5.0412989E-03;  0.0000000E+00; -4.0505427E-05;  9.9969373E+02;  1.0000000E-01; -2.5372122E+02;3;  4.1534957E-01;  0.0000000E+00;  5.0382078E-02;0; -1.0913597E-02;  3.9981312E+04;  0.0000000E+00;  3.8779085E-03;  4.0000000E+04;  0.0000000E+00;  3.9995398E+04; -1.1215384E-02;  0.0000000E+00;  3.0178635E-04;  5.3567780E+02;
  2.8141227E-01;  9.9999998E-03; -4.9997702E-02;4179; -5.0384649E-03;  0.0000000E+00; -4.0394421E-05;  9.9960339E+02;  1.0000000E-01; -3.2858331E+02;3;  4.1604933E-01;  0.0000000E+00;  4.4733666E-02;0; -1.1015440E-02;  3.9973344E+04;  0.0000000E+00;  4.6036150E-03;  4.0000000E+04;  0.0000000E+00;  3.9996184E+04; -1.1359920E-02;  0.0000000E+00;  3.4447957E-04;  4.4025974E+02;
  2.8142482E-01;  9.9999998E-03; -3.9999451E-02;4180; -5.0364649E-03;  0.0000000E+00; -3.7523343E-05;  9.9953180E+02;  1.0000000E-01; -3.8789026E+02;3;  4.1684994E-01;  0.0000000E+00;  3.8286831E-02;0; -1.1107105E-02;  3.9966930E+04;  0.0000000E+00;  4.2206878E-03;  4.0000000E+04;  0.0000000E+00;  3.9996449E+04; -1.1498532E-02;  0.0000000E+00;  3.9142775E-04;  3.6594308E+02;
  2.8144568E-01;  9.9999998E-03; -3.0001709E-02;4181; -5.0356379E-03;  0.0000000E+00; -3.1807303E-05;  9.9947131E+02;  1.0000000E-01; -4.3801230E+02;3;  4.1786140E-01;  0.0000000E+00;  3.0647540E-02;0; -1.1183416E-02;  3.9961902E+04;  0.0000000E+00;  3.0074618E-03;  4.0000000E+04;  0.0000000E+00;  3.9996785E+04; -1.1620254E-02;  0.0000000E+00;  4.3683764E-04;  3.1891003E+02;
  2.8146544E-01;  9.9999998E-03; -2.0003725E-02;4182; -5.0357152E-03;  0.0000000E+00; -2.3347793E-05;  9.9942920E+02;  1.0000000E-01; -4.7287552E+02;3;  4.1868639E-01;  0.0000000E+00;  2.2157269E-02;0; -1.1240486E-02;  3.9958402E+04;  0.0000000E+00;  1.5504010E-03;  4.0000000E+04;  0.0000000E+00;  3.9996957E+04; -1.1715221E-02;  0.0000000E+00;  4.7473484E-04;  2.9697552E+02;
  2.8147835E-01;  9.9999998E-03; -1.0003503E-02;4183; -5.0360849E-03;  0.0000000E+00; -1.2424909E-05;  9.9940442E+02;  1.0000000E-01; -4.9341815E+02;3;  4.1923702E-01;  0.0000000E+00;  1.0402936E-02;0; -1.1275695E-02;  3.9956309E+04;  0.0000000E+00;  4.2019144E-04;  4.0000000E+04;  0.0000000E+00;  3.9997223E+04; -1.1775588E-02;  0.0000000E+00;  4.9989281E-04;  2.9101996E+02;
  2.8148293E-01;  9.9999998E-03;  1.3516062E-09;4184; -5.0362712E-03;  0.0000000E+00; -6.2718919E-10;  9.9939459E+02;  1.0000000E-01; -5.0156607E+02;3;  4.1943923E-01;  0.0000000E+00; -3.0206033E-06;0; -1.1287588E-02;  3.9955688E+04;  0.0000000E+00; -5.7271283E-13;  4.0000000E+04;  0.0000000E+00;  3.9997043E+04; -1.1796297E-02;  0.0000000E+00;  5.0870923E-04;  2.9058008E+02;
  2.8147835E-01;  9.9999998E-03;  1.0003506E-02;4185; -5.0360858E-03;  0.0000000E+00;  1.2423410E-05;  9.9940442E+02;  1.0000000E-01; -4.9341815E+02;3;  4.1922480E-01;  0.0000000E+00; -1.0408087E-02;0; -1.1275686E-02;  3.9956316E+04;  0.0000000E+00;  4.2047279E-04;  4.0000000E+04;  0.0000000E+00;  3.9997223E+04; -1.1775577E-02;  0.0000000E+00;  4.9989094E-04;  2.9101508E+02;
  2.8146544E-01;  9.9999998E-03;  2.0003727E-02;4186; -5.0357161E-03;  0.0000000E+00;  2.3345869E-05;  9.9942926E+02;  1.0000000E-01; -4.7282614E+02;3;  4.1865915E-01;  0.0000000E+00; -2.2166112E-02;0; -1.1240485E-02;  3.9958402E+04;  0.0000000E+00;  1.5510148E-03;  4.0000000E+04;  0.0000000E+00;  3.9996957E+04; -1.1715218E-02;  0.0000000E+00;  4.7473353E-04;  2.9696426E+02;
  2.8144568E-01;  9.9999998E-03;  3.0001711E-02;4187; -5.0356411E-03;  0.0000000E+00;  3.1804801E-05;  9.9947125E+02;  1.0000000E-01; -4.3806168E+02;3;  4.1782141E-01;  0.0000000E+00; -3.0654620E-02;0; -1.1183431E-02;  3.9961902E+04;  0.0000000E+00;  3.0086578E-03;  4.0000000E+04;  0.0000000E+00;  3.9996785E+04; -1.1620266E-02;  0.0000000E+00;  4.3683537E-04;  3.1888754E+02;
  2.8142482E-01;  9.9999998E-03;  3.9999451E-02;4188; -5.0364682E-03;  0.0000000E+00;  3.7520091E-05;  9.9953174E+02;  1.0000000E-01; -3.8793964E+02;3;  4.1679880E-01;  0.0000000E+00; -3.8293239E-02;0; -1.1107124E-02;  3.9966930E+04;  0.0000000E+00;  4.2225206E-03;  4.0000000E+04;  0.0000000E+00;  3.9996449E+04; -1.1498550E-02;  0.0000000E+00;  3.9142589E-04;  3.6592844E+02;
  2.8141227E-01;  9.9999998E-03;  4.9997706E-02;4189; -5.0384686E-03;  0.0000000E+00;  4.0390652E-05;  9.9960339E+02;  1.0000000E-01; -3.2858331E+02;3;  4.1600099E-01;  0.0000000E+00; -4.4727288E-02;0; -1.1015454E-02;  3.9973340E+04;  0.0000000E+00;  4.6048774E-03;  4.0000000E+04;  0.0000000E+00;  3.9996188E+04; -1.1359933E-02;  0.0000000E+00;  3.4447899E-04;  4.4024805E+02;
  2.8141466E-01;  9.9999998E-03;  5.9995979E-02;4190; -5.0413026E-03;  0.0000000E+00;  4.0500810E-05;  9.9969373E+02;  1.0000000E-01; -2.5372122E+02;3;  4.1531268E-01;  0.0000000E+00; -5.0380528E-02;0; -1.0913608E-02;  3.9981316E+04;  0.0000000E+00;  3.8788270E-03;  4.0000000E+04;  0.0000000E+00;  3.9995398E+04; -1.1215395E-02;  0.0000000E+00;  3.0178801E-04;  5.3568085E+02;
  2.9144496E-01;  9.9999998E-03; -9.9995710E-02;4235; -5.1343725E-03;  0.0000000E+00; -2.4146248E-05;  1.0002442E+03;  1.0000000E-01;  2.0236465E+02;3;  4.3765229E-01;  0.0000000E+00;  7.2446100E-02;0; -1.0396895E-02;  4.0027500E+04;  0.0000000E+00; -4.2915005E-02;  4.0000000E+04;  0.0000000E+00;  3.9994301E+04; -1.0656680E-02;  0.0000000E+00;  2.5978513E-04;  7.3150793E+02;
  2.9142612E-01;  9.9999998E-03; -8.9996152E-02;4236; -5.1511060E-03;  0.0000000E+00; -2.9341196E-05;  1.0001205E+03;  1.0000000E-01;  9.9849030E+01;3;  4.3750644E-01;  0.0000000E+00;  6.8388224E-02;0; -1.0485029E-02;  4.0017152E+04;  0.0000000E+00; -4.2527273E-02;  4.0000000E+04;  0.0000000E+00;  3.9994777E+04; -1.0740706E-02;  0.0000000E+00;  2.5567689E-04;  6.5476935E+02;
  2.9141930E-01;  9.9999998E-03; -7.9997547E-02;4237; -5.1617455E-03;  0.0000000E+00; -3.3513767E-05;  9.9999500E+02;  1.0000000E-01; -4.1480308E+00;3;  4.3762335E-01;  0.0000000E+00;  6.4406514E-02;0; -1.0589069E-02;  4.0006000E+04;  0.0000000E+00; -3.3827212E-02;  4.0000000E+04;  0.0000000E+00;  3.9995465E+04; -1.0853295E-02;  0.0000000E+00;  2.6422692E-04;  5.5132141E+02;
  2.9142928E-01;  9.9999998E-03; -6.9997758E-02;4238; -5.1688855E-03;  0.0000000E+00; -3.6190540E-05;  9.9987323E+02;  1.0000000E-01; -1.0503407E+02;3;  4.3812653E-01;  0.0000000E+00;  5.9923518E-02;0; -1.0703371E-02;  3.9995133E+04;  0.0000000E+00; -2.2361057E-02;  4.0000000E+04;  0.0000000E+00;  3.9996488E+04; -1.0989119E-02;  0.0000000E+00;  2.8574874E-04;  4.3889685E+02;
  2.9144967E-01;  9.9999998E-03; -5.9997447E-02;4239; -5.1744762E-03;  0.0000000E+00; -3.7019796E-05;  9.9976123E+02;  1.0000000E-01; -1.9782156E+02;3;  4.3902728E-01;  0.0000000E+00;  5.4261547E-02;0; -1.0821374E-02;  3.9985605E+04;  0.0000000E+00; -1.1916283E-02;  4.0000000E+04;  0.0000000E+00;  3.9997266E+04; -1.1139835E-02;  0.0000000E+00;  3.1846153E-04;  3.3538251E+02;
  2.9146811E-01;  9.9999998E-03; -4.9998645E-02;4240; -5.1796590E-03;  0.0000000E+00; -3.5723817E-05;  9.9966663E+02;  1.0000000E-01; -2.7618973E+02;3;  4.4012392E-01;  0.0000000E+00;  4.7921829E-02;0; -1.0936010E-02;  3.9977266E+04;  0.0000000E+00; -4.4427370E-03;  4.0000000E+04;  0.0000000E+00;  3.9997805E+04; -1.1294875E-02;  0.0000000E+00;  3.5886595E-04;  2.5569789E+02;
  2.9148054E-01;  9.9999998E-03; -4.0001456E-02;4241; -5.1849200E-03;  0.0000000E+00; -3.2170432E-05;  9.9959149E+02;  1.0000000E-01; -3.3845956E+02;3;  4.4141486E-01;  0.0000000E+00;  4.0191192E-02;0; -1.1040253E-02;  3.9970711E+04;  0.0000000E+00; -3.1775172E-04;  4.0000000E+04;  0.0000000E+00;  3.9998340E+04; -1.1442631E-02;  0.0000000E+00;  4.0237897E-04;  2.0852058E+02;
  2.9149181E-01;  9.9999998E-03; -3.0004546E-02;4242; -5.1901806E-03;  0.0000000E+00; -2.6453738E-05;  9.9953259E+02;  1.0000000E-01; -3.8724832E+02;3;  4.4263265E-01;  0.0000000E+00;  3.1904034E-02;0; -1.1127878E-02;  3.9965730E+04;  0.0000000E+00;  1.1122632E-03;  4.0000000E+04;  0.0000000E+00;  3.9998109E+04; -1.1571715E-02;  0.0000000E+00;  4.4383641E-04;  1.9343367E+02;
  2.9150450E-01;  9.9999998E-03; -2.0006346E-02;4243; -5.1948875E-03;  0.0000000E+00; -1.8899025E-05;  9.9949030E+02;  1.0000000E-01; -4.2225967E+02;3;  4.4389671E-01;  0.0000000E+00;  2.1508893E-02;0; -1.1193912E-02;  3.9962543E+04;  0.0000000E+00;  9.5084734E-04;  4.0000000E+04;  0.0000000E+00;  3.9998031E+04; -1.1671977E-02;  0.0000000E+00;  4.7806502E-04;  2.0077492E+02;
  2.9151508E-01;  9.9999998E-03; -1.0005335E-02;4244; -5.1982095E-03;  0.0000000E+00; -9.9036561E-06;  9.9946497E+02;  1.0000000E-01; -4.4324673E+02;3;  4.4465315E-01;  0.0000000E+00;  1.0369983E-02;0; -1.1234879E-02;  3.9960652E+04;  0.0000000E+00;  3.1117414E-04;  4.0000000E+04;  0.0000000E+00;  3.9997762E+04; -1.1735504E-02;  0.0000000E+00;  5.0062552E-04;  2.1522612E+02;
  2.9151931E-01;  9.9999998E-03;  1.6563296E-09;4245; -5.1994007E-03;  0.0000000E+00;  1.4343515E-10;  9.9945618E+02;  1.0000000E-01; -4.5055515E+02;3;  4.4493017E-01;  0.0000000E+00; -6.4557339E-06;0; -1.1248778E-02;  3.9960102E+04;  0.0000000E+00; -1.1592425E-12;  4.0000000E+04;  0.0000000E+00;  3.9997699E+04; -1.1757282E-02;  0.0000000E+00;  5.0850364E-04;  2.2214064E+02;
  2.9151508E-01;  9.9999998E-03;  1.0005338E-02;4246; -5.1982105E-03;  0.0000000E+00;  9.9033105E-06;  9.9946497E+02;  1.0000000E-01; -4.4324673E+02;3;  4.4463763E-01;  0.0000000E+00; -1.0384638E-02;0; -1.1234891E-02;  3.9960652E+04;  0.0000000E+00;  3.1156829E-04;  4.0000000E+04;  0.0000000E+00;  3.9997762E+04; -1.1735515E-02;  0.0000000E+00;  5.0062372E-04;  2.1521971E+02;
  2.9150450E-01;  9.9999998E-03;  2.0006347E-02;4247; -5.1948894E-03;  0.0000000E+00;  1.8898721E-05;  9.9949023E+02;  1.0000000E-01; -4.2230905E+02;3;  4.4387916E-01;  0.0000000E+00; -2.1525208E-02;0; -1.1193920E-02;  3.9962543E+04;  0.0000000E+00;  9.5152867E-04;  4.0000000E+04;  0.0000000E+00;  3.9998031E+04; -1.1671982E-02;  0.0000000E+00;  4.7806220E-04;  2.0076910E+02;
  2.9149181E-01;  9.9999998E-03;  3.0004550E-02;4248; -5.1901834E-03;  0.0000000E+00;  2.6452677E-05;  9.9953259E+02;  1.0000000E-01; -3.8724832E+02;3;  4.4262376E-01;  0.0000000E+00; -3.1922732E-02;0; -1.1127894E-02;  3.9965730E+04;  0.0000000E+00;  1.1133571E-03;  4.0000000E+04;  0.0000000E+00;  3.9998109E+04; -1.1571727E-02;  0.0000000E+00;  4.4383275E-04;  1.9341882E+02;
  2.9148054E-01;  9.9999998E-03;  4.0001459E-02;4249; -5.1849233E-03;  0.0000000E+00;  3.2168991E-05;  9.9959149E+02;  1.0000000E-01; -3.3845956E+02;3;  4.4138980E-01;  0.0000000E+00; -4.0205467E-02;0; -1.1040284E-02;  3.9970711E+04;  0.0000000E+00; -3.1637243E-04;  4.0000000E+04;  0.0000000E+00;  3.9998336E+04; -1.1442660E-02;  0.0000000E+00;  4.0237579E-04;  2.0850607E+02;
  2.9146811E-01;  9.9999998E-03;  4.9998648E-02;4250; -5.1796618E-03;  0.0000000E+00;  3.5721267E-05;  9.9966650E+02;  1.0000000E-01; -2.7628848E+02;3;  4.4008791E-01;  0.0000000E+00; -4.7931988E-02;0; -1.0936044E-02;  3.9977266E+04;  0.0000000E+00; -4.4423114E-03;  4.0000000E+04;  0.0000000E+00;  3.9997805E+04; -1.1294907E-02;  0.0000000E+00;  3.5886309E-04;  2.5569312E+02;
  2.9144964E-01;  9.9999998E-03;  5.9997451E-02;4251; -5.1744799E-03;  0.0000000E+00;  3.7016671E-05;  9.9976117E+02;  1.0000000E-01; -1.9787094E+02;3;  4.3897632E-01;  0.0000000E+00; -5.4274682E-02;0; -1.0821413E-02;  3.9985605E+04;  0.0000000E+00; -1.1916094E-02;  4.0000000E+04;  0.0000000E+00;  3.9997266E+04; -1.1139873E-02;  0.0000000E+00;  3.1846031E-04;  3.3537506E+02;
  3.0140722E-01;  9.9999998E-03; -1.0000043E-01;4296; -5.2446243E-03;  0.0000000E+00; -2.6695712E-05;  1.0003569E+03;  1.0000000E-01;  2.9569534E+02;3;  4.6155772E-01;  0.0000000E+00;  8.0240101E-02;0; -1.0253758E-02;  4.0035898E+04;  0.0000000E+00; -9.5292114E-02;  4.0000000E+04;  0.0000000E+00;  3.9994891E+04; -1.0524567E-02;  0.0000000E+00;  2.7080902E-04;  6.5291125E+02;
  3.0141824E-01;  9.9999998E-03; -8.9996591E-02;4297; -5.2657924E-03;  0.0000000E+00; -3.1032811E-05;  1.0002239E+03;  1.0000000E-01;  1.8547624E+02;3;  4.6152490E-01;  0.0000000E+00;  7.5621665E-02;0; -1.0347441E-02;  4.0024254E+04;  0.0000000E+00; -7.9160169E-02;  4.0000000E+04;  0.0000000E+00;  3.9995875E+04; -1.0617086E-02;  0.0000000E+00;  2.6964504E-04;  5.4506366E+02;
  3.0143672E-01;  9.9999998E-03; -7.9993837E-02;4298; -5.2827396E-03;  0.0000000E+00; -3.3925087E-05;  1.0000911E+03;  1.0000000E-01;  7.5454659E+01;3;  4.6208456E-01;  0.0000000E+00;  7.0176467E-02;0; -1.0457453E-02;  4.0012992E+04;  0.0000000E+00; -5.7981301E-02;  4.0000000E+04;  0.0000000E+00;  3.9996828E+04; -1.0737729E-02;  0.0000000E+00;  2.8027582E-04;  4.1823706E+02;
  3.0145502E-01;  9.9999998E-03; -6.9994293E-02;4299; -5.2972282E-03;  0.0000000E+00; -3.5016008E-05;  9.9996826E+02;  1.0000000E-01; -2.6270863E+01;3;  4.6285561E-01;  0.0000000E+00;  6.4400271E-02;0; -1.0578400E-02;  4.0002332E+04;  0.0000000E+00; -3.7114564E-02;  4.0000000E+04;  0.0000000E+00;  3.9997961E+04; -1.0880621E-02;  0.0000000E+00;  3.0222064E-04;  2.9496542E+02;
  3.0147961E-01;  9.9999998E-03; -5.9996802E-02;4300; -5.3106411E-03;  0.0000000E+00; -3.4164361E-05;  9.9986469E+02;  1.0000000E-01; -1.1209560E+02;3;  4.6400535E-01;  0.0000000E+00;  5.7858106E-02;0; -1.0703489E-02;  3.9992777E+04;  0.0000000E+00; -1.9986738E-02;  4.0000000E+04;  0.0000000E+00;  3.9998465E+04; -1.1036839E-02;  0.0000000E+00;  3.3334983E-04;  1.9554306E+02;
  3.0150959E-01;  9.9999998E-03; -4.9999740E-02;4301; -5.3236210E-03;  0.0000000E+00; -3.1385469E-05;  9.9977893E+02;  1.0000000E-01; -1.8315532E+02;3;  4.6565908E-01;  0.0000000E+00;  4.9029864E-02;0; -1.0825319E-02;  3.9985422E+04;  0.0000000E+00; -8.1264637E-03;  4.0000000E+04;  0.0000000E+00;  3.9998871E+04; -1.1195622E-02;  0.0000000E+00;  3.7030337E-04;  1.3428233E+02;
  3.0153871E-01;  9.9999998E-03; -4.0003095E-02;4302; -5.3360621E-03;  0.0000000E+00; -2.6798327E-05;  9.9970917E+02;  1.0000000E-01; -2.4093146E+02;3;  4.6738961E-01;  0.0000000E+00;  3.9593652E-02;0; -1.0936582E-02;  3.9979570E+04;  0.0000000E+00; -1.4863431E-03;  4.0000000E+04;  0.0000000E+00;  3.9998949E+04; -1.1345600E-02;  0.0000000E+00;  4.0901857E-04;  1.1548115E+02;
  3.0156091E-01;  9.9999998E-03; -3.0006029E-02;4303; -5.3472808E-03;  0.0000000E+00; -2.0865364E-05;  9.9965405E+02;  1.0000000E-01; -2.8660919E+02;3;  4.6910021E-01;  0.0000000E+00;  3.0135881E-02;0; -1.1030586E-02;  3.9975484E+04;  0.0000000E+00;  1.0550651E-03;  4.0000000E+04;  0.0000000E+00;  3.9998715E+04; -1.1475739E-02;  0.0000000E+00;  4.4515348E-04;  1.3167174E+02;
  3.0157483E-01;  9.9999998E-03; -2.0007165E-02;4304; -5.3563179E-03;  0.0000000E+00; -1.4222906E-05;  9.9961951E+02;  1.0000000E-01; -3.1525034E+02;3;  4.7052774E-01;  0.0000000E+00;  2.0468073E-02;0; -1.1101834E-02;  3.9972805E+04;  0.0000000E+00;  1.1383394E-03;  4.0000000E+04;  0.0000000E+00;  3.9998648E+04; -1.1576382E-02;  0.0000000E+00;  4.7454800E-04;  1.6642740E+02;
  3.0158228E-01;  9.9999998E-03; -1.0005377E-02;4305; -5.3622308E-03;  0.0000000E+00; -7.2454895E-06;  9.9959814E+02;  1.0000000E-01; -3.3292886E+02;3;  4.7141689E-01;  0.0000000E+00;  1.0880527E-02;0; -1.1146246E-02;  3.9971227E+04;  0.0000000E+00;  3.9267750E-04;  4.0000000E+04;  0.0000000E+00;  3.9998371E+04; -1.1639982E-02;  0.0000000E+00;  4.9373560E-04;  1.9929739E+02;
  3.0158457E-01;  9.9999998E-03;  1.8235750E-09;4306; -5.3642918E-03;  0.0000000E+00;  8.8263929E-10;  9.9958966E+02;  1.0000000E-01; -3.3994101E+02;3;  4.7161624E-01;  0.0000000E+00; -1.1644963E-05;0; -1.1161320E-02;  3.9970664E+04;  0.0000000E+00; -1.9573308E-14;  4.0000000E+04;  0.0000000E+00;  3.9998195E+04; -1.1661725E-02;  0.0000000E+00;  5.0040509E-04;  2.1265108E+02;
  3.0158228E-01;  9.9999998E-03;  1.0005381E-02;4307; -5.3622318E-03;  0.0000000E+00;  7.2471239E-06;  9.9959814E+02;  1.0000000E-01; -3.3292886E+02;3;  4.7141036E-01;  0.0000000E+00; -1.0905528E-02;0; -1.1146257E-02;  3.9971223E+04;  0.0000000E+00;  3.9287820E-04;  4.0000000E+04;  0.0000000E+00;  3.9998371E+04; -1.1639990E-02;  0.0000000E+00;  4.9373333E-04;  1.9928879E+02;
  3.0157483E-01;  9.9999998E-03;  2.0007169E-02;4308; -5.3563202E-03;  0.0000000E+00;  1.4224498E-05;  9.9961951E+02;  1.0000000E-01; -3.1525034E+02;3;  4.7051367E-01;  0.0000000E+00; -2.0492561E-02;0; -1.1101832E-02;  3.9972805E+04;  0.0000000E+00;  1.1388147E-03;  4.0000000E+04;  0.0000000E+00;  3.9998648E+04; -1.1576376E-02;  0.0000000E+00;  4.7454433E-04;  1.6640692E+02;
  3.0156091E-01;  9.9999998E-03;  3.0006031E-02;4309; -5.3472836E-03;  0.0000000E+00;  2.0866473E-05;  9.9965405E+02;  1.0000000E-01; -2.8660919E+02;3;  4.6908590E-01;  0.0000000E+00; -3.0158430E-02;0; -1.1030604E-02;  3.9975480E+04;  0.0000000E+00;  1.0554377E-03;  4.0000000E+04;  0.0000000E+00;  3.9998715E+04; -1.1475752E-02;  0.0000000E+00;  4.4514835E-04;  1.3165771E+02;
  3.0153871E-01;  9.9999998E-03;  4.0003095E-02;4310; -5.3360653E-03;  0.0000000E+00;  2.6798640E-05;  9.9970911E+02;  1.0000000E-01; -2.4098083E+02;3;  4.6736929E-01;  0.0000000E+00; -3.9617550E-02;0; -1.0936606E-02;  3.9979574E+04;  0.0000000E+00; -1.4858062E-03;  4.0000000E+04;  0.0000000E+00;  3.9998949E+04; -1.1345619E-02;  0.0000000E+00;  4.0901342E-04;  1.1547002E+02;
  3.0150959E-01;  9.9999998E-03;  4.9999744E-02;4311; -5.3236252E-03;  0.0000000E+00;  3.1384996E-05;  9.9977881E+02;  1.0000000E-01; -1.8325407E+02;3;  4.6562824E-01;  0.0000000E+00; -4.9043451E-02;0; -1.0825345E-02;  3.9985418E+04;  0.0000000E+00; -8.1264777E-03;  4.0000000E+04;  0.0000000E+00;  3.9998871E+04; -1.1195644E-02;  0.0000000E+00;  3.7029808E-04;  1.3428482E+02;
  3.0147961E-01;  9.9999998E-03;  5.9996802E-02;4312; -5.3106463E-03;  0.0000000E+00;  3.4162767E-05;  9.9986469E+02;  1.0000000E-01; -1.1209560E+02;3;  4.6397579E-01;  0.0000000E+00; -5.7869814E-02;0; -1.0703507E-02;  3.9992770E+04;  0.0000000E+00; -1.9985950E-02;  4.0000000E+04;  0.0000000E+00;  3.9998465E+04; -1.1036853E-02;  0.0000000E+00;  3.3334640E-04;  1.9554573E+02;
  3.1140271E-01;  9.9999998E-03; -9.9995047E-02;4357; -5.3517898E-03;  0.0000000E+00; -3.2403739E-05;  1.0004314E+03;  1.0000000E-01;  3.5742200E+02;3;  4.8709667E-01;  0.0000000E+00;  8.8520609E-02;0; -1.0084872E-02;  4.0041703E+04;  0.0000000E+00; -1.2556039E-01;  4.0000000E+04;  0.0000000E+00;  3.9995723E+04; -1.0360978E-02;  0.0000000E+00;  2.7610507E-04;  6.1390533E+02;
  3.1144050E-01;  9.9999998E-03; -8.9990973E-02;4358; -5.3782393E-03;  0.0000000E+00; -3.5144629E-05;  1.0003041E+03;  1.0000000E-01;  2.5194350E+02;3;  4.8731208E-01;  0.0000000E+00;  8.2780875E-02;0; -1.0180549E-02;  4.0030664E+04;  0.0000000E+00; -9.6416295E-02;  4.0000000E+04;  0.0000000E+00;  3.9997109E+04; -1.0460117E-02;  0.0000000E+00;  2.7956784E-04;  4.7704742E+02;
  3.1148365E-01;  9.9999998E-03; -7.9989605E-02;4359; -5.4018600E-03;  0.0000000E+00; -3.6090216E-05;  1.0001893E+03;  1.0000000E-01;  1.5683507E+02;3;  4.8810181E-01;  0.0000000E+00;  7.5708859E-02;0; -1.0291862E-02;  4.0020047E+04;  0.0000000E+00; -6.6285573E-02;  4.0000000E+04;  0.0000000E+00;  3.9997980E+04; -1.0584945E-02;  0.0000000E+00;  2.9308294E-04;  3.3224866E+02;
  3.1152317E-01;  9.9999998E-03; -6.9991477E-02;4360; -5.4238061E-03;  0.0000000E+00; -3.4862594E-05;  1.0000859E+03;  1.0000000E-01;  7.1109100E+01;3;  4.8934710E-01;  0.0000000E+00;  6.7692883E-02;0; -1.0413842E-02;  4.0010594E+04;  0.0000000E+00; -3.9763093E-02;  4.0000000E+04;  0.0000000E+00;  3.9998641E+04; -1.0729358E-02;  0.0000000E+00;  3.1551556E-04;  2.0488724E+02;
  3.1155315E-01;  9.9999998E-03; -5.9995759E-02;4361; -5.4446524E-03;  0.0000000E+00; -3.1562304E-05;  9.9999774E+02;  1.0000000E-01; -1.8764901E+00;3;  4.9099070E-01;  0.0000000E+00;  5.8528900E-02;0; -1.0540133E-02;  4.0003066E+04;  0.0000000E+00; -1.9486858E-02;  4.0000000E+04;  0.0000000E+00;  3.9999301E+04; -1.0884666E-02;  0.0000000E+00;  3.4453222E-04;  1.1516144E+02;
  3.1157231E-01;  9.9999998E-03; -5.0001524E-02;4362; -5.4644132E-03;  0.0000000E+00; -2.6667356E-05;  9.9992548E+02;  1.0000000E-01; -6.1726650E+01;3;  4.9283412E-01;  0.0000000E+00;  4.8643488E-02;0; -1.0663575E-02;  3.9996730E+04;  0.0000000E+00; -6.2673278E-03;  4.0000000E+04;  0.0000000E+00;  3.9999578E+04; -1.1040691E-02;  0.0000000E+00;  3.7711559E-04;  7.4597786E+01;
  3.1158391E-01;  9.9999998E-03; -4.0007010E-02;4363; -5.4826201E-03;  0.0000000E+00; -2.0900019E-05;  9.9986987E+02;  1.0000000E-01; -1.0779942E+02;3;  4.9473572E-01;  0.0000000E+00;  3.8918450E-02;0; -1.0776652E-02;  3.9992398E+04;  0.0000000E+00;  5.5411237E-04;  4.0000000E+04;  0.0000000E+00;  3.9999406E+04; -1.1186632E-02;  0.0000000E+00;  4.0997996E-04;  8.3260529E+01;
  3.1159082E-01;  9.9999998E-03; -3.0010372E-02;4364; -5.4984079E-03;  0.0000000E+00; -1.5025184E-05;  9.9983057E+02;  1.0000000E-01; -1.4039110E+02;3;  4.9661222E-01;  0.0000000E+00;  2.9375441E-02;0; -1.0872539E-02;  3.9989449E+04;  0.0000000E+00;  2.6087856E-03;  4.0000000E+04;  0.0000000E+00;  3.9998707E+04; -1.1312359E-02;  0.0000000E+00;  4.3981959E-04;  1.2717954E+02;
  3.1159526E-01;  9.9999998E-03; -2.0010497E-02;4365; -5.5107311E-03;  0.0000000E+00; -9.5686446E-06;  9.9980469E+02;  1.0000000E-01; -1.6182259E+02;3;  4.9803826E-01;  0.0000000E+00;  1.9706212E-02;0; -1.0945413E-02;  3.9987461E+04;  0.0000000E+00;  1.9698231E-03;  4.0000000E+04;  0.0000000E+00;  3.9998375E+04; -1.1409027E-02;  0.0000000E+00;  4.6361296E-04;  1.8474646E+02;
  3.1159821E-01;  9.9999998E-03; -1.0007030E-02;4366; -5.5186134E-03;  0.0000000E+00; -4.6412324E-06;  9.9978723E+02;  1.0000000E-01; -1.7629131E+02;3;  4.9897280E-01;  0.0000000E+00;  1.0657432E-02;0; -1.0990928E-02;  3.9986633E+04;  0.0000000E+00;  6.2329951E-04;  4.0000000E+04;  0.0000000E+00;  3.9997895E+04; -1.1469864E-02;  0.0000000E+00;  4.7893659E-04;  2.3235651E+02;
  3.1159952E-01;  9.9999998E-03;  2.0655733E-09;4367; -5.5213366E-03;  0.0000000E+00;  1.8611299E-09;  9.9977979E+02;  1.0000000E-01; -1.8246397E+02;3;  4.9923629E-01;  0.0000000E+00; -1.3378069E-05;0; -1.1006397E-02;  3.9986379E+04;  0.0000000E+00; -2.4557789E-12;  4.0000000E+04;  0.0000000E+00;  3.9998043E+04; -1.1490623E-02;  0.0000000E+00;  4.8422563E-04;  2.5074147E+02;
  3.1159821E-01;  9.9999998E-03;  1.0007035E-02;4368; -5.5186143E-03;  0.0000000E+00;  4.6449723E-06;  9.9978717E+02;  1.0000000E-01; -1.7634070E+02;3;  4.9896994E-01;  0.0000000E+00; -1.0682655E-02;0; -1.0990936E-02;  3.9986633E+04;  0.0000000E+00;  6.2338432E-04;  4.0000000E+04;  0.0000000E+00;  3.9997895E+04; -1.1469871E-02;  0.0000000E+00;  4.7893447E-04;  2.3235156E+02;
  3.1159526E-01;  9.9999998E-03;  2.0010501E-02;4369; -5.5107325E-03;  0.0000000E+00;  9.5718178E-06;  9.9980475E+02;  1.0000000E-01; -1.6177321E+02;3;  4.9804085E-01;  0.0000000E+00; -1.9735264E-02;0; -1.0945418E-02;  3.9987465E+04;  0.0000000E+00;  1.9699291E-03;  4.0000000E+04;  0.0000000E+00;  3.9998375E+04; -1.1409027E-02;  0.0000000E+00;  4.6360842E-04;  1.8474010E+02;
  3.1159082E-01;  9.9999998E-03;  3.0010376E-02;4370; -5.4984111E-03;  0.0000000E+00;  1.5027912E-05;  9.9983057E+02;  1.0000000E-01; -1.4039110E+02;3;  4.9660236E-01;  0.0000000E+00; -2.9403588E-02;0; -1.0872560E-02;  3.9989449E+04;  0.0000000E+00;  2.6087200E-03;  4.0000000E+04;  0.0000000E+00;  3.9998707E+04; -1.1312374E-02;  0.0000000E+00;  4.3981426E-04;  1.2716373E+02;
  3.1158388E-01;  9.9999998E-03;  4.0007014E-02;4371; -5.4826224E-03;  0.0000000E+00;  2.0902129E-05;  9.9986993E+02;  1.0000000E-01; -1.0775004E+02;3;  4.9475592E-01;  0.0000000E+00; -3.8940012E-02;0; -1.0776684E-02;  3.9992398E+04;  0.0000000E+00;  5.5371382E-04;  4.0000000E+04;  0.0000000E+00;  3.9999406E+04; -1.1186657E-02;  0.0000000E+00;  4.0997297E-04;  8.3249069E+01;
  3.1157231E-01;  9.9999998E-03;  5.0001528E-02;4372; -5.4644169E-03;  0.0000000E+00;  2.6668555E-05;  9.9992542E+02;  1.0000000E-01; -6.1776031E+01;3;  4.9281517E-01;  0.0000000E+00; -4.8658744E-02;0; -1.0663604E-02;  3.9996727E+04;  0.0000000E+00; -6.2672999E-03;  4.0000000E+04;  0.0000000E+00;  3.9999578E+04; -1.1040714E-02;  0.0000000E+00;  3.7710954E-04;  7.4595016E+01;
  3.1155315E-01;  9.9999998E-03;  5.9995763E-02;4373; -5.4446566E-03;  0.0000000E+00;  3.1562580E-05;  9.9999780E+02;  1.0000000E-01; -1.8271089E+00;3;  4.9097562E-01;  0.0000000E+00; -5.8539804E-02;0; -1.0540177E-02;  4.0003059E+04;  0.0000000E+00; -1.9486850E-02;  4.0000000E+04;  0.0000000E+00;  3.9999301E+04; -1.0884704E-02;  0.0000000E+00;  3.4452710E-04;  1.1514743E+02;
  3.2162547E-01;  9.9999998E-03; -1.0005926E-02;4427; -5.6615244E-03;  0.0000000E+00; -2.3848920E-06;  1.0000073E+03;  1.0000000E-01;  6.0245209E+00;3;  5.2761352E-01;  0.0000000E+00;  9.7389687E-03;0; -1.0767457E-02;  4.0005023E+04;  0.0000000E+00;  9.2417182E-04;  4.0000000E+04;  0.0000000E+00;  3.9997668E+04; -1.1222951E-02;  0.0000000E+00;  4.5549366E-04;  2.9632486E+02;
  3.2162535E-01;  9.9999998E-03;  2.1865949E-09;4428; -5.6646406E-03;  0.0000000E+00;  2.7752032E-09;  1.0000058E+03;  1.0000000E-01;  4.8393693E+00;3;  5.2783620E-01;  0.0000000E+00; -1.2778229E-05;0; -1.0782599E-02;  4.0005074E+04;  0.0000000E+00;  1.1747102E-12;  4.0000000E+04;  0.0000000E+00;  3.9997605E+04; -1.1241922E-02;  0.0000000E+00;  4.5932375E-04;  3.1772421E+02;
  3.2162547E-01;  9.9999998E-03;  1.0005930E-02;4429; -5.6615234E-03;  0.0000000E+00;  2.3904379E-06;  1.0000073E+03;  1.0000000E-01;  6.0245209E+00;3;  5.2761954E-01;  0.0000000E+00; -9.7658345E-03;0; -1.0767473E-02;  4.0005027E+04;  0.0000000E+00;  9.2407002E-04;  4.0000000E+04;  0.0000000E+00;  3.9997668E+04; -1.1222964E-02;  0.0000000E+00;  4.5549136E-04;  2.9631961E+02;
  3.2162550E-01;  9.9999998E-03; -2.0009620E-02;4426; -5.6523886E-03;  0.0000000E+00; -5.4744805E-06;  1.0000178E+03;  1.0000000E-01;  1.4814396E+01;3;  5.2663672E-01;  0.0000000E+00;  1.9994037E-02;0; -1.0722999E-02;  4.0005332E+04;  0.0000000E+00;  3.1497439E-03;  4.0000000E+04;  0.0000000E+00;  3.9998227E+04; -1.1167274E-02;  0.0000000E+00;  4.4427437E-04;  2.3940112E+02;
  3.2162550E-01;  9.9999998E-03;  2.0009624E-02;4430; -5.6523909E-03;  0.0000000E+00;  5.4796328E-06;  1.0000178E+03;  1.0000000E-01;  1.4814396E+01;3;  5.2663082E-01;  0.0000000E+00; -2.0021597E-02;0; -1.0723015E-02;  4.0005332E+04;  0.0000000E+00;  3.1496279E-03;  4.0000000E+04;  0.0000000E+00;  3.9998227E+04; -1.1167285E-02;  0.0000000E+00;  4.4426948E-04;  2.3940002E+02;
  3.2162365E-01;  9.9999998E-03; -3.0010888E-02;4425; -5.6378283E-03;  0.0000000E+00; -9.7688917E-06;  1.0000356E+03;  1.0000000E-01;  2.9431267E+01;3;  5.2525347E-01;  0.0000000E+00;  2.8953444E-02;0; -1.0651967E-02;  4.0006184E+04;  0.0000000E+00;  5.1626037E-03;  4.0000000E+04;  0.0000000E+00;  3.9998883E+04; -1.1078439E-02;  0.0000000E+00;  4.2647248E-04;  1.6588626E+02;
  3.2162365E-01;  9.9999998E-03;  3.0010892E-02;4431; -5.6378301E-03;  0.0000000E+00;  9.7733691E-06;  1.0000356E+03;  1.0000000E-01;  2.9431267E+01;3;  5.2525508E-01;  0.0000000E+00; -2.8983057E-02;0; -1.0652003E-02;  4.0006180E+04;  0.0000000E+00;  5.1621264E-03;  4.0000000E+04;  0.0000000E+00;  3.9998883E+04; -1.1078469E-02;  0.0000000E+00;  4.2646658E-04;  1.6587651E+02;
  3.2161793E-01;  9.9999998E-03; -4.0009536E-02;4424; -5.6187105E-03;  0.0000000E+00; -1.5337022E-05;  1.0000543E+03;  1.0000000E-01;  4.5035763E+01;3;  5.2335066E-01;  0.0000000E+00;  3.9168481E-02;0; -1.0558798E-02;  4.0007664E+04;  0.0000000E+00;  4.8100306E-03;  4.0000000E+04;  0.0000000E+00;  3.9999344E+04; -1.0962226E-02;  0.0000000E+00;  4.0342825E-04;  1.0040363E+02;
  3.2161793E-01;  9.9999998E-03;  4.0009540E-02;4432; -5.6187138E-03;  0.0000000E+00;  1.5340898E-05;  1.0000543E+03;  1.0000000E-01;  4.4937000E+01;3;  5.2334201E-01;  0.0000000E+00; -3.9194942E-02;0; -1.0558855E-02;  4.0007668E+04;  0.0000000E+00;  4.8086625E-03;  4.0000000E+04;  0.0000000E+00;  3.9999344E+04; -1.0962276E-02;  0.0000000E+00;  4.0342112E-04;  1.0038783E+02;
  3.2160610E-01;  9.9999998E-03; -5.0005801E-02;4423; -5.5960217E-03;  0.0000000E+00; -2.1975788E-05;  1.0000942E+03;  1.0000000E-01;  7.8121246E+01;3;  5.2125347E-01;  0.0000000E+00;  4.9689446E-02;0; -1.0449211E-02;  4.0010367E+04;  0.0000000E+00; -2.5314384E-04;  4.0000000E+04;  0.0000000E+00;  3.9999961E+04; -1.0826176E-02;  0.0000000E+00;  3.7696460E-04;  6.6660301E+01;
  3.2160610E-01;  9.9999998E-03;  5.0005805E-02;4433; -5.5960254E-03;  0.0000000E+00;  2.1978931E-05;  1.0000942E+03;  1.0000000E-01;  7.8022484E+01;3;  5.2124590E-01;  0.0000000E+00; -4.9706571E-02;0; -1.0449253E-02;  4.0010367E+04;  0.0000000E+00; -2.5284171E-04;  4.0000000E+04;  0.0000000E+00;  3.9999965E+04; -1.0826210E-02;  0.0000000E+00;  3.7695747E-04;  6.6651741E+01;
  3.2158870E-01;  9.9999998E-03; -6.0000647E-02;4422; -5.5707735E-03;  0.0000000E+00; -2.8931814E-05;  1.0001450E+03;  1.0000000E-01;  1.2019413E+02;3;  5.1928347E-01;  0.0000000E+00;  5.9697606E-02;0; -1.0329755E-02;  4.0014301E+04;  0.0000000E+00; -1.2065441E-02;  4.0000000E+04;  0.0000000E+00;  3.9999586E+04; -1.0679026E-02;  0.0000000E+00;  3.4927155E-04;  8.3721992E+01;
  3.2158870E-01;  9.9999998E-03;  6.0000651E-02;4434; -5.5707777E-03;  0.0000000E+00;  2.8934046E-05;  1.0001450E+03;  1.0000000E-01;  1.2019413E+02;3;  5.1930177E-01;  0.0000000E+00; -5.9708904E-02;0; -1.0329798E-02;  4.0014301E+04;  0.0000000E+00; -1.2065621E-02;  4.0000000E+04;  0.0000000E+00;  3.9999586E+04; -1.0679062E-02;  0.0000000E+00;  3.4926462E-04;  8.3718239E+01;
  3.2156897E-01;  9.9999998E-03; -6.9994703E-02;4421; -5.5438117E-03;  0.0000000E+00; -3.5145917E-05;  1.0002036E+03;  1.0000000E-01;  1.6868658E+02;3;  5.1735020E-01;  0.0000000E+00;  7.0354894E-02;0; -1.0207418E-02;  4.0019848E+04;  0.0000000E+00; -3.1872928E-02;  4.0000000E+04;  0.0000000E+00;  3.9999121E+04; -1.0530179E-02;  0.0000000E+00;  3.2276066E-04;  1.5819705E+02;
  3.2154515E-01;  9.9999998E-03; -7.9989053E-02;4420; -5.5155065E-03;  0.0000000E+00; -3.9607552E-05;  1.0002812E+03;  1.0000000E-01;  2.3298106E+02;3;  5.1569617E-01;  0.0000000E+00;  8.1316113E-02;0; -1.0088993E-02;  4.0027043E+04;  0.0000000E+00; -5.9713859E-02;  4.0000000E+04;  0.0000000E+00;  3.9998289E+04; -1.0388918E-02;  0.0000000E+00;  2.9992466E-04;  2.8135196E+02;
  3.2151282E-01;  9.9999998E-03; -8.9986585E-02;4419; -5.4857479E-03;  0.0000000E+00; -4.1636955E-05;  1.0003723E+03;  1.0000000E-01;  3.0843573E+02;3;  5.1453024E-01;  0.0000000E+00;  9.0977922E-02;0; -9.9804606E-03;  4.0035633E+04;  0.0000000E+00; -9.4079144E-02;  4.0000000E+04;  0.0000000E+00;  3.9997434E+04; -1.0263515E-02;  0.0000000E+00;  2.8305411E-04;  4.3443304E+02;
  3.2146868E-01;  9.9999998E-03; -9.9988736E-02;4418; -5.4539084E-03;  0.0000000E+00; -4.1246738E-05;  1.0004755E+03;  1.0000000E-01;  3.9386542E+02;3;  5.1382166E-01;  0.0000000E+00;  9.9162668E-02;0; -9.8863812E-03;  4.0045152E+04;  0.0000000E+00; -1.3161932E-01;  4.0000000E+04;  0.0000000E+00;  3.9996238E+04; -1.0160150E-02;  0.0000000E+00;  2.7376876E-04;  5.9218402E+02;
  3.3154240E-01;  9.9999998E-03; -9.9987924E-02;4479; -5.5493247E-03;  0.0000000E+00; -5.2231211E-05;  1.0004901E+03;  1.0000000E-01;  4.0601321E+02;3;  5.4207063E-01;  0.0000000E+00;  1.0985951E-01;0; -9.6678501E-03;  4.0046680E+04;  0.0000000E+00; -1.1675005E-01;  4.0000000E+04;  0.0000000E+00;  3.9996148E+04; -9.9294139E-03;  0.0000000E+00;  2.6156340E-04;  5.7328986E+02;
  3.3158144E-01;  9.9999998E-03; -8.9988500E-02;4480; -5.5862716E-03;  0.0000000E+00; -4.9568211E-05;  1.0004211E+03;  1.0000000E-01;  3.4882965E+02;3;  5.4316717E-01;  0.0000000E+00;  9.8884828E-02;0; -9.7570978E-03;  4.0039426E+04;  0.0000000E+00; -7.6086707E-02;  4.0000000E+04;  0.0000000E+00;  3.9997172E+04; -1.0034312E-02;  0.0000000E+00;  2.7721369E-04;  4.0614215E+02;
  3.3160532E-01;  9.9999998E-03; -7.9992108E-02;4481; -5.6214524E-03;  0.0000000E+00; -4.3927648E-05;  1.0003612E+03;  1.0000000E-01;  2.9925079E+02;3;  5.4468435E-01;  0.0000000E+00;  8.7075450E-02;0; -9.8589398E-03;  4.0033652E+04;  0.0000000E+00; -4.2114988E-02;  4.0000000E+04;  0.0000000E+00;  3.9998488E+04; -1.0156508E-02;  0.0000000E+00;  2.9756807E-04;  2.5621359E+02;
  3.3161670E-01;  9.9999998E-03; -6.9997251E-02;4482; -5.6548975E-03;  0.0000000E+00; -3.6066620E-05;  1.0003163E+03;  1.0000000E-01;  2.6201727E+02;3;  5.4654610E-01;  0.0000000E+00;  7.5499028E-02;0; -9.9695669E-03;  4.0029281E+04;  0.0000000E+00; -1.6787000E-02;  4.0000000E+04;  0.0000000E+00;  3.9999328E+04; -1.0290268E-02;  0.0000000E+00;  3.2070122E-04;  1.4699327E+02;
  3.3161891E-01;  9.9999998E-03; -6.0002811E-02;4483; -5.6862687E-03;  0.0000000E+00; -2.7186768E-05;  1.0002856E+03;  1.0000000E-01;  2.3663528E+02;3;  5.4868114E-01;  0.0000000E+00;  6.3512303E-02;0; -1.0083733E-02;  4.0025828E+04;  0.0000000E+00; -4.3933798E-04;  4.0000000E+04;  0.0000000E+00;  3.9999496E+04; -1.0428246E-02;  0.0000000E+00;  3.4451333E-04;  9.3891182E+01;
  3.3161536E-01;  9.9999998E-03; -5.0007619E-02;4484; -5.7149045E-03;  0.0000000E+00; -1.8600358E-05;  1.0002611E+03;  1.0000000E-01;  2.1629018E+02;3;  5.5086821E-01;  0.0000000E+00;  5.1638644E-02;0; -1.0195340E-02;  4.0024086E+04;  0.0000000E+00;  7.8333300E-03;  4.0000000E+04;  0.0000000E+00;  3.9999816E+04; -1.0562496E-02;  0.0000000E+00;  3.6715597E-04;  9.9357162E+01;
  3.3160955E-01;  9.9999998E-03; -4.0010598E-02;4485; -5.7400456E-03;  0.0000000E+00; -1.1208802E-05;  1.0002491E+03;  1.0000000E-01;  2.0641391E+02;3;  5.5296344E-01;  0.0000000E+00;  4.0384524E-02;0; -1.0297840E-02;  4.0023223E+04;  0.0000000E+00;  9.8259393E-03;  4.0000000E+04;  0.0000000E+00;  3.9999441E+04; -1.0685001E-02;  0.0000000E+00;  3.8715996E-04;  1.5081169E+02;
  3.3160380E-01;  9.9999998E-03; -3.0011265E-02;4486; -5.7607708E-03;  0.0000000E+00; -5.7876523E-06;  1.0002413E+03;  1.0000000E-01;  1.9989558E+02;3;  5.5471730E-01;  0.0000000E+00;  2.9547762E-02;0; -1.0385092E-02;  4.0023121E+04;  0.0000000E+00;  7.8401174E-03;  4.0000000E+04;  0.0000000E+00;  3.9998535E+04; -1.0788540E-02;  0.0000000E+00;  4.0344775E-04;  2.2916484E+02;
  3.3159932E-01;  9.9999998E-03; -2.0009505E-02;4487; -5.7762512E-03;  0.0000000E+00; -2.4362846E-06;  1.0002372E+03;  1.0000000E-01;  1.9653766E+02;3;  5.5618703E-01;  0.0000000E+00;  1.8686786E-02;0; -1.0451656E-02;  4.0023609E+04;  0.0000000E+00;  4.2703003E-03;  4.0000000E+04;  0.0000000E+00;  3.9997789E+04; -1.0867006E-02;  0.0000000E+00;  4.1535069E-04;  3.1058151E+02;
  3.3159649E-01;  9.9999998E-03; -1.0005514E-02;4488; -5.7858452E-03;  0.0000000E+00; -6.9066908E-07;  1.0002346E+03;  1.0000000E-01;  1.9436487E+02;3;  5.5691248E-01;  0.0000000E+00;  9.2650177E-03;0; -1.0493414E-02;  4.0023828E+04;  0.0000000E+00;  1.1906342E-03;  4.0000000E+04;  0.0000000E+00;  3.9997285E+04; -1.0915968E-02;  0.0000000E+00;  4.2255380E-04;  3.7124442E+02;
  3.3159554E-01;  9.9999998E-03;  2.3775117E-09;4489; -5.7890881E-03;  0.0000000E+00;  3.8205292E-09;  1.0002351E+03;  1.0000000E-01;  1.9475992E+02;3;  5.5706680E-01;  0.0000000E+00; -1.1429052E-05;0; -1.0507633E-02;  4.0023895E+04;  0.0000000E+00; -1.1513402E-13;  4.0000000E+04;  0.0000000E+00;  3.9997086E+04; -1.0932592E-02;  0.0000000E+00;  4.2495871E-04;  3.9360056E+02;
  3.3159649E-01;  9.9999998E-03;  1.0005519E-02;4490; -5.7858457E-03;  0.0000000E+00;  6.9813990E-07;  1.0002346E+03;  1.0000000E-01;  1.9436487E+02;3;  5.5693227E-01;  0.0000000E+00; -9.2887720E-03;0; -1.0493420E-02;  4.0023828E+04;  0.0000000E+00;  1.1904776E-03;  4.0000000E+04;  0.0000000E+00;  3.9997285E+04; -1.0915970E-02;  0.0000000E+00;  4.2255069E-04;  3.7124130E+02;
  3.3159932E-01;  9.9999998E-03;  2.0009508E-02;4491; -5.7762540E-03;  0.0000000E+00;  2.4432338E-06;  1.0002372E+03;  1.0000000E-01;  1.9653766E+02;3;  5.5618131E-01;  0.0000000E+00; -1.8714964E-02;0; -1.0451674E-02;  4.0023605E+04;  0.0000000E+00;  4.2697559E-03;  4.0000000E+04;  0.0000000E+00;  3.9997785E+04; -1.0867020E-02;  0.0000000E+00;  4.1534568E-04;  3.1058124E+02;
  3.3160380E-01;  9.9999998E-03;  3.0011268E-02;4492; -5.7607740E-03;  0.0000000E+00;  5.7939392E-06;  1.0002413E+03;  1.0000000E-01;  1.9989558E+02;3;  5.5472642E-01;  0.0000000E+00; -2.9576520E-02;0; -1.0385105E-02;  4.0023125E+04;  0.0000000E+00;  7.8392606E-03;  4.0000000E+04;  0.0000000E+00;  3.9998535E+04; -1.0788546E-02;  0.0000000E+00;  4.0344091E-04;  2.2915858E+02;
  3.3160955E-01;  9.9999998E-03;  4.0010601E-02;4493; -5.7400484E-03;  0.0000000E+00;  1.1214397E-05;  1.0002492E+03;  1.0000000E-01;  2.0641391E+02;3;  5.5296826E-01;  0.0000000E+00; -4.0410746E-02;0; -1.0297874E-02;  4.0023219E+04;  0.0000000E+00;  9.8246885E-03;  4.0000000E+04;  0.0000000E+00;  3.9999449E+04; -1.0685026E-02;  0.0000000E+00;  3.8715216E-04;  1.5081190E+02;
  3.3161536E-01;  9.9999998E-03;  5.0007623E-02;4494; -5.7149087E-03;  0.0000000E+00;  1.8605257E-05;  1.0002611E+03;  1.0000000E-01;  2.1629018E+02;3;  5.5087721E-01;  0.0000000E+00; -5.1657852E-02;0; -1.0195374E-02;  4.0024086E+04;  0.0000000E+00;  7.8320717E-03;  4.0000000E+04;  0.0000000E+00;  3.9999816E+04; -1.0562522E-02;  0.0000000E+00;  3.6714773E-04;  9.9350899E+01;
  3.3161891E-01;  9.9999998E-03;  6.0002815E-02;4495; -5.6862729E-03;  0.0000000E+00;  2.7191236E-05;  1.0002856E+03;  1.0000000E-01;  2.3663528E+02;3;  5.4866868E-01;  0.0000000E+00; -6.3518435E-02;0; -1.0083773E-02;  4.0025828E+04;  0.0000000E+00; -4.4160231E-04;  4.0000000E+04;  0.0000000E+00;  3.9999496E+04; -1.0428279E-02;  0.0000000E+00;  3.4450577E-04;  9.3895775E+01;
  3.4156725E-01;  9.9999998E-03; -9.9991173E-02;4540; -5.6381812E-03;  0.0000000E+00; -6.2888990E-05;  1.0004851E+03;  1.0000000E-01;  4.0186517E+02;3;  5.7126319E-01;  0.0000000E+00;  1.2142404E-01;0; -9.4469003E-03;  4.0045949E+04;  0.0000000E+00; -8.7025888E-02;  4.0000000E+04;  0.0000000E+00;  3.9996195E+04; -9.6842339E-03;  0.0000000E+00;  2.3733327E-04;  5.5369165E+02;
  3.4157321E-01;  9.9999998E-03; -8.9994632E-02;4541; -5.6792558E-03;  0.0000000E+00; -5.7171597E-05;  1.0004493E+03;  1.0000000E-01;  3.7223639E+02;3;  5.7298625E-01;  0.0000000E+00;  1.0814450E-01;0; -9.5296316E-03;  4.0041559E+04;  0.0000000E+00; -4.8178889E-02;  4.0000000E+04;  0.0000000E+00;  3.9997254E+04; -9.7888494E-03;  0.0000000E+00;  2.5921816E-04;  3.9078903E+02;
  3.4157440E-01;  9.9999998E-03; -7.9999320E-02;4542; -5.7184198E-03;  0.0000000E+00; -4.8444705E-05;  1.0004219E+03;  1.0000000E-01;  3.4952097E+02;3;  5.7480216E-01;  0.0000000E+00;  9.5287986E-02;0; -9.6225832E-03;  4.0038352E+04;  0.0000000E+00; -1.8448943E-02;  4.0000000E+04;  0.0000000E+00;  3.9998410E+04; -9.9053662E-03;  0.0000000E+00;  2.8278265E-04;  2.5475381E+02;
  3.4157285E-01;  9.9999998E-03; -7.0004217E-02;4543; -5.7553076E-03;  0.0000000E+00; -3.7762686E-05;  1.0004076E+03;  1.0000000E-01;  3.3766946E+02;3;  5.7695854E-01;  0.0000000E+00;  8.1701100E-02;0; -9.7226901E-03;  4.0036207E+04;  0.0000000E+00;  1.5252511E-03;  4.0000000E+04;  0.0000000E+00;  3.9999125E+04; -1.0028698E-02;  0.0000000E+00;  3.0600824E-04;  1.6576489E+02;
  3.4156990E-01;  9.9999998E-03; -6.0008354E-02;4544; -5.7892604E-03;  0.0000000E+00; -2.6769218E-05;  1.0004001E+03;  1.0000000E-01;  3.3154617E+02;3;  5.7911932E-01;  0.0000000E+00;  6.8182021E-02;0; -9.8256283E-03;  4.0035301E+04;  0.0000000E+00;  1.2459487E-02;  4.0000000E+04;  0.0000000E+00;  3.9999402E+04; -1.0152738E-02;  0.0000000E+00;  3.2710980E-04;  1.3357159E+02;
  3.4156591E-01;  9.9999998E-03; -5.0011251E-02;4545; -5.8195749E-03;  0.0000000E+00; -1.6759108E-05;  1.0004016E+03;  1.0000000E-01;  3.3263257E+02;3;  5.8141458E-01;  0.0000000E+00;  5.5075835E-02;0; -9.9261068E-03;  4.0035609E+04;  0.0000000E+00;  1.6008316E-02;  4.0000000E+04;  0.0000000E+00;  3.9999082E+04; -1.0271001E-02;  0.0000000E+00;  3.4489427E-04;  1.5406085E+02;
  3.4156194E-01;  9.9999998E-03; -4.0012408E-02;4546; -5.8454815E-03;  0.0000000E+00; -8.8133156E-06;  1.0004095E+03;  1.0000000E-01;  3.3934842E+02;3;  5.8359522E-01;  0.0000000E+00;  4.1653935E-02;0; -1.0018456E-02;  4.0036676E+04;  0.0000000E+00;  1.4383789E-02;  4.0000000E+04;  0.0000000E+00;  3.9998613E+04; -1.0377244E-02;  0.0000000E+00;  3.5878850E-04;  2.1469443E+02;
  3.4155855E-01;  9.9999998E-03; -3.0011751E-02;4547; -5.8663590E-03;  0.0000000E+00; -3.3705865E-06;  1.0004193E+03;  1.0000000E-01;  3.4734821E+02;3;  5.8520663E-01;  0.0000000E+00;  2.8559137E-02;0; -1.0097156E-02;  4.0037992E+04;  0.0000000E+00;  9.9867973E-03;  4.0000000E+04;  0.0000000E+00;  3.9997707E+04; -1.0465914E-02;  0.0000000E+00;  3.6875790E-04;  2.9704993E+02;
  3.4155548E-01;  9.9999998E-03; -2.0009322E-02;4548; -5.8816462E-03;  0.0000000E+00; -4.5428396E-07;  1.0004276E+03;  1.0000000E-01;  3.5426160E+02;3;  5.8644980E-01;  0.0000000E+00;  1.8255871E-02;0; -1.0157385E-02;  4.0039363E+04;  0.0000000E+00;  5.0546727E-03;  4.0000000E+04;  0.0000000E+00;  3.9997047E+04; -1.0532581E-02;  0.0000000E+00;  3.7519599E-04;  3.7844473E+02;
  3.4155384E-01;  9.9999998E-03; -1.0005088E-02;4549; -5.8909822E-03;  0.0000000E+00;  3.5378298E-07;  1.0004348E+03;  1.0000000E-01;  3.6018735E+02;3;  5.8713579E-01;  0.0000000E+00;  9.0977764E-03;0; -1.0195194E-02;  4.0040359E+04;  0.0000000E+00;  1.3567841E-03;  4.0000000E+04;  0.0000000E+00;  3.9996633E+04; -1.0573896E-02;  0.0000000E+00;  3.7870137E-04;  4.3751901E+02;
  3.4155309E-01;  9.9999998E-03;  2.6482689E-09;4550; -5.8941180E-03;  0.0000000E+00;  4.7750426E-09;  1.0004373E+03;  1.0000000E-01;  3.6226135E+02;3;  5.8738315E-01;  0.0000000E+00; -1.0368258E-05;0; -1.0208094E-02;  4.0040727E+04;  0.0000000E+00;  1.9704871E-12;  4.0000000E+04;  0.0000000E+00;  3.9996480E+04; -1.0587894E-02;  0.0000000E+00;  3.7980100E-04;  4.5905209E+02;
  3.4155384E-01;  9.9999998E-03;  1.0005092E-02;4551; -5.8909841E-03;  0.0000000E+00; -3.4434953E-07;  1.0004348E+03;  1.0000000E-01;  3.6018735E+02;3;  5.8711475E-01;  0.0000000E+00; -9.1198934E-03;0; -1.0195198E-02;  4.0040355E+04;  0.0000000E+00;  1.3564432E-03;  4.0000000E+04;  0.0000000E+00;  3.9996633E+04; -1.0573897E-02;  0.0000000E+00;  3.7869861E-04;  4.3751126E+02;
  3.4155548E-01;  9.9999998E-03;  2.0009328E-02;4552; -5.8816485E-03;  0.0000000E+00;  4.6332730E-07;  1.0004275E+03;  1.0000000E-01;  3.5416281E+02;3;  5.8645141E-01;  0.0000000E+00; -1.8279150E-02;0; -1.0157394E-02;  4.0039363E+04;  0.0000000E+00;  5.0538545E-03;  4.0000000E+04;  0.0000000E+00;  3.9997047E+04; -1.0532585E-02;  0.0000000E+00;  3.7519104E-04;  3.7844638E+02;
  3.4155855E-01;  9.9999998E-03;  3.0011754E-02;4553; -5.8663622E-03;  0.0000000E+00;  3.3787462E-06;  1.0004193E+03;  1.0000000E-01;  3.4734821E+02;3;  5.8521640E-01;  0.0000000E+00; -2.8583545E-02;0; -1.0097194E-02;  4.0038000E+04;  0.0000000E+00;  9.9859154E-03;  4.0000000E+04;  0.0000000E+00;  3.9997707E+04; -1.0465945E-02;  0.0000000E+00;  3.6875028E-04;  2.9704724E+02;
  3.4156194E-01;  9.9999998E-03;  4.0012415E-02;4554; -5.8454862E-03;  0.0000000E+00;  8.8205979E-06;  1.0004095E+03;  1.0000000E-01;  3.3924966E+02;3;  5.8360684E-01;  0.0000000E+00; -4.1680168E-02;0; -1.0018475E-02;  4.0036676E+04;  0.0000000E+00;  1.4383130E-02;  4.0000000E+04;  0.0000000E+00;  3.9998613E+04; -1.0377256E-02;  0.0000000E+00;  3.5878041E-04;  2.1469728E+02;
  3.4156591E-01;  9.9999998E-03;  5.0011255E-02;4555; -5.8195805E-03;  0.0000000E+00;  1.6766142E-05;  1.0004016E+03;  1.0000000E-01;  3.3273132E+02;3;  5.8141375E-01;  0.0000000E+00; -5.5094413E-02;0; -9.9261412E-03;  4.0035609E+04;  0.0000000E+00;  1.6006699E-02;  4.0000000E+04;  0.0000000E+00;  3.9999078E+04; -1.0271027E-02;  0.0000000E+00;  3.4488569E-04;  1.5405606E+02;
  3.4156990E-01;  9.9999998E-03;  6.0008358E-02;4556; -5.7892641E-03;  0.0000000E+00;  2.6775884E-05;  1.0004001E+03;  1.0000000E-01;  3.3154617E+02;3;  5.7914680E-01;  0.0000000E+00; -6.8189487E-02;0; -9.8256785E-03;  4.0035297E+04;  0.0000000E+00;  1.2457580E-02;  4.0000000E+04;  0.0000000E+00;  3.9999402E+04; -1.0152780E-02;  0.0000000E+00;  3.2710153E-04;  1.3357936E+02;
  3.5150909E-01;  9.9999998E-03; -1.0000021E-01;4601; -5.7221381E-03;  0.0000000E+00; -7.0094189E-05;  1.0004611E+03;  1.0000000E-01;  3.8201389E+02;3;  6.0146195E-01;  0.0000000E+00;  1.3445425E-01;0; -9.2429528E-03;  4.0043652E+04;  0.0000000E+00; -4.8901837E-02;  4.0000000E+04;  0.0000000E+00;  3.9995742E+04; -9.4422307E-03;  0.0000000E+00;  1.9927807E-04;  5.3501703E+02;
  3.5151145E-01;  9.9999998E-03; -9.0003401E-02;4602; -5.7664639E-03;  0.0000000E+00; -6.2481100E-05;  1.0004534E+03;  1.0000000E-01;  3.7569308E+02;3;  6.0348123E-01;  0.0000000E+00;  1.1906097E-01;0; -9.3176793E-03;  4.0041574E+04;  0.0000000E+00; -1.5759757E-02;  4.0000000E+04;  0.0000000E+00;  3.9996879E+04; -9.5441686E-03;  0.0000000E+00;  2.2648906E-04;  3.8797165E+02;
  3.5151246E-01;  9.9999998E-03; -8.0006786E-02;4603; -5.8082840E-03;  0.0000000E+00; -5.1720559E-05;  1.0004489E+03;  1.0000000E-01;  3.7184134E+02;3;  6.0569978E-01;  0.0000000E+00;  1.0463834E-01;0; -9.4003500E-03;  4.0040785E+04;  0.0000000E+00;  7.0075924E-03;  4.0000000E+04;  0.0000000E+00;  3.9997875E+04; -9.6529303E-03;  0.0000000E+00;  2.5258044E-04;  2.7329755E+02;
  3.5151315E-01;  9.9999998E-03; -7.0009589E-02;4604; -5.8469209E-03;  0.0000000E+00; -3.9303191E-05;  1.0004590E+03;  1.0000000E-01;  3.8023615E+02;3;  6.0834074E-01;  0.0000000E+00;  8.9368641E-02;0; -9.4886562E-03;  4.0040477E+04;  0.0000000E+00;  1.9882683E-02;  4.0000000E+04;  0.0000000E+00;  3.9998453E+04; -9.7642243E-03;  0.0000000E+00;  2.7556787E-04;  2.0537885E+02;
  3.5151353E-01;  9.9999998E-03; -6.0011469E-02;4605; -5.8816676E-03;  0.0000000E+00; -2.6833102E-05;  1.0004770E+03;  1.0000000E-01;  3.9514932E+02;3;  6.1071599E-01;  0.0000000E+00;  7.4323021E-02;0; -9.5791128E-03;  4.0041465E+04;  0.0000000E+00;  2.4458181E-02;  4.0000000E+04;  0.0000000E+00;  3.9998504E+04; -9.8731378E-03;  0.0000000E+00;  2.9402494E-04;  1.8783974E+02;
  3.5151377E-01;  9.9999998E-03; -5.0012153E-02;4606; -5.9117875E-03;  0.0000000E+00; -1.6059099E-05;  1.0004943E+03;  1.0000000E-01;  4.0956866E+02;3;  6.1301917E-01;  0.0000000E+00;  5.7817012E-02;0; -9.6673295E-03;  4.0043254E+04;  0.0000000E+00;  2.2959083E-02;  4.0000000E+04;  0.0000000E+00;  3.9998461E+04; -9.9747041E-03;  0.0000000E+00;  3.0737492E-04;  2.1534723E+02;
  3.5151333E-01;  9.9999998E-03; -4.0011823E-02;4607; -5.9368275E-03;  0.0000000E+00; -7.4884242E-06;  1.0005196E+03;  1.0000000E-01;  4.3050635E+02;3;  6.1502844E-01;  0.0000000E+00;  4.2446677E-02;0; -9.7484961E-03;  4.0045840E+04;  0.0000000E+00;  1.7827993E-02;  4.0000000E+04;  0.0000000E+00;  3.9997949E+04; -1.0064341E-02;  0.0000000E+00;  3.1584466E-04;  2.7660971E+02;
  3.5151166E-01;  9.9999998E-03; -3.0010628E-02;4608; -5.9563965E-03;  0.0000000E+00; -2.1616590E-06;  1.0005421E+03;  1.0000000E-01;  4.4917249E+02;3;  6.1674029E-01;  0.0000000E+00;  2.9577928E-02;0; -9.8178620E-03;  4.0048293E+04;  0.0000000E+00;  1.1366346E-02;  4.0000000E+04;  0.0000000E+00;  3.9997328E+04; -1.0138171E-02;  0.0000000E+00;  3.2030928E-04;  3.5441913E+02;
  3.5150927E-01;  9.9999998E-03; -2.0008309E-02;4609; -5.9704594E-03;  0.0000000E+00;  4.5543231E-07;  1.0005596E+03;  1.0000000E-01;  4.6369058E+02;3;  6.1772013E-01;  0.0000000E+00;  1.9448057E-02;0; -9.8710414E-03;  4.0050352E+04;  0.0000000E+00;  5.4596565E-03;  4.0000000E+04;  0.0000000E+00;  3.9996609E+04; -1.0193090E-02;  0.0000000E+00;  3.2204849E-04;  4.2882202E+02;
  3.5150683E-01;  9.9999998E-03; -1.0004697E-02;4610; -5.9788814E-03;  0.0000000E+00;  7.8239191E-07;  1.0005744E+03;  1.0000000E-01;  4.7583838E+02;3;  6.1830920E-01;  0.0000000E+00;  9.2536965E-03;0; -9.9045299E-03;  4.0051891E+04;  0.0000000E+00;  1.4237046E-03;  4.0000000E+04;  0.0000000E+00;  3.9996082E+04; -1.0226938E-02;  0.0000000E+00;  3.2240801E-04;  4.8187341E+02;
  3.5150552E-01;  9.9999998E-03;  2.9885727E-09;4611; -5.9816954E-03;  0.0000000E+00;  5.8649738E-09;  1.0005804E+03;  1.0000000E-01;  4.8087527E+02;3;  6.1860353E-01;  0.0000000E+00; -8.8845445E-06;0; -9.9159861E-03;  4.0052477E+04;  0.0000000E+00;  3.0107700E-12;  4.0000000E+04;  0.0000000E+00;  3.9995961E+04; -1.0238389E-02;  0.0000000E+00;  3.2240295E-04;  5.0105444E+02;
  3.5150683E-01;  9.9999998E-03;  1.0004704E-02;4612; -5.9788837E-03;  0.0000000E+00; -7.7099031E-07;  1.0005744E+03;  1.0000000E-01;  4.7583838E+02;3;  6.1831677E-01;  0.0000000E+00; -9.2714857E-03;0; -9.9045373E-03;  4.0051891E+04;  0.0000000E+00;  1.4234621E-03;  4.0000000E+04;  0.0000000E+00;  3.9996082E+04; -1.0226943E-02;  0.0000000E+00;  3.2240566E-04;  4.8186639E+02;
  3.5150927E-01;  9.9999998E-03;  2.0008314E-02;4613; -5.9704613E-03;  0.0000000E+00; -4.4442956E-07;  1.0005597E+03;  1.0000000E-01;  4.6369058E+02;3;  6.1773080E-01;  0.0000000E+00; -1.9468177E-02;0; -9.8710628E-03;  4.0050352E+04;  0.0000000E+00;  5.4589501E-03;  4.0000000E+04;  0.0000000E+00;  3.9996609E+04; -1.0193107E-02;  0.0000000E+00;  3.2204372E-04;  4.2882092E+02;
  3.5151166E-01;  9.9999998E-03;  3.0010633E-02;4614; -5.9563997E-03;  0.0000000E+00;  2.1717201E-06;  1.0005421E+03;  1.0000000E-01;  4.4917249E+02;3;  6.1675072E-01;  0.0000000E+00; -2.9598460E-02;0; -9.8178731E-03;  4.0048297E+04;  0.0000000E+00;  1.1365288E-02;  4.0000000E+04;  0.0000000E+00;  3.9997328E+04; -1.0138175E-02;  0.0000000E+00;  3.2030276E-04;  3.5442133E+02;
  3.5151333E-01;  9.9999998E-03;  4.0011831E-02;4615; -5.9368322E-03;  0.0000000E+00;  7.4977825E-06;  1.0005197E+03;  1.0000000E-01;  4.3050635E+02;3;  6.1503428E-01;  0.0000000E+00; -4.2465117E-02;0; -9.7485250E-03;  4.0045836E+04;  0.0000000E+00;  1.7826112E-02;  4.0000000E+04;  0.0000000E+00;  3.9997949E+04; -1.0064362E-02;  0.0000000E+00;  3.1583660E-04;  2.7660959E+02;
  3.5151377E-01;  9.9999998E-03;  5.0012160E-02;4616; -5.9117922E-03;  0.0000000E+00;  1.6068490E-05;  1.0004943E+03;  1.0000000E-01;  4.0956866E+02;3;  6.1304837E-01;  0.0000000E+00; -5.7826262E-02;0; -9.6673714E-03;  4.0043254E+04;  0.0000000E+00;  2.2958256E-02;  4.0000000E+04;  0.0000000E+00;  3.9998461E+04; -9.9747377E-03;  0.0000000E+00;  3.0736634E-04;  2.1535757E+02;
  3.5151353E-01;  9.9999998E-03;  6.0011476E-02;4617; -5.8816741E-03;  0.0000000E+00;  2.6841966E-05;  1.0004770E+03;  1.0000000E-01;  3.9514932E+02;3;  6.1073494E-01;  0.0000000E+00; -7.4326836E-02;0; -9.5791584E-03;  4.0041465E+04;  0.0000000E+00;  2.4455816E-02;  4.0000000E+04;  0.0000000E+00;  3.9998508E+04; -9.8731751E-03;  0.0000000E+00;  2.9401688E-04;  1.8784859E+02;
  3.6146113E-01;  9.9999998E-03; -1.0000829E-01;4662; -5.8045248E-03;  0.0000000E+00; -7.0649410E-05;  1.0004161E+03;  1.0000000E-01;  3.4468161E+02;3;  6.3290870E-01;  0.0000000E+00;  1.4791684E-01;0; -9.0704570E-03;  4.0039594E+04;  0.0000000E+00; -8.0942390E-03;  4.0000000E+04;  0.0000000E+00;  3.9995895E+04; -9.2159798E-03;  0.0000000E+00;  1.4552278E-04;  5.2152380E+02;
  3.6145744E-01;  9.9999998E-03; -9.0010934E-02;4663; -5.8508744E-03;  0.0000000E+00; -6.2463972E-05;  1.0004233E+03;  1.0000000E-01;  3.5070612E+02;3;  6.3571447E-01;  0.0000000E+00;  1.3009688E-01;0; -9.1379890E-03;  4.0039047E+04;  0.0000000E+00;  1.6634572E-02;  4.0000000E+04;  0.0000000E+00;  3.9997035E+04; -9.3146963E-03;  0.0000000E+00;  1.7670727E-04;  3.9794473E+02;
  3.6145639E-01;  9.9999998E-03; -8.0012940E-02;4664; -5.8938134E-03;  0.0000000E+00; -5.1165909E-05;  1.0004393E+03;  1.0000000E-01;  3.6394034E+02;3;  6.3833499E-01;  0.0000000E+00;  1.1332287E-01;0; -9.2112888E-03;  4.0039711E+04;  0.0000000E+00;  3.0907957E-02;  4.0000000E+04;  0.0000000E+00;  3.9997941E+04; -9.4156768E-03;  0.0000000E+00;  2.0438802E-04;  3.0625482E+02;
  3.6145878E-01;  9.9999998E-03; -7.0013680E-02;4665; -5.9325546E-03;  0.0000000E+00; -3.8374361E-05;  1.0004624E+03;  1.0000000E-01;  3.8310028E+02;3;  6.4100790E-01;  0.0000000E+00;  9.7101435E-02;0; -9.2886956E-03;  4.0040938E+04;  0.0000000E+00;  3.6082447E-02;  4.0000000E+04;  0.0000000E+00;  3.9998504E+04; -9.5154308E-03;  0.0000000E+00;  2.2673552E-04;  2.5494427E+02;
  3.6146179E-01;  9.9999998E-03; -6.0013007E-02;4666; -5.9663733E-03;  0.0000000E+00; -2.5827596E-05;  1.0004925E+03;  1.0000000E-01;  4.0798846E+02;3;  6.4362776E-01;  0.0000000E+00;  7.9960532E-02;0; -9.3675815E-03;  4.0043188E+04;  0.0000000E+00;  3.4362283E-02;  4.0000000E+04;  0.0000000E+00;  3.9998496E+04; -9.6102878E-03;  0.0000000E+00;  2.4270610E-04;  2.4514886E+02;
  3.6146322E-01;  9.9999998E-03; -5.0011683E-02;4667; -5.9947306E-03;  0.0000000E+00; -1.4990786E-05;  1.0005258E+03;  1.0000000E-01;  4.3554324E+02;3;  6.4589560E-01;  0.0000000E+00;  6.0285762E-02;0; -9.4444314E-03;  4.0045898E+04;  0.0000000E+00;  2.8270314E-02;  4.0000000E+04;  0.0000000E+00;  3.9998121E+04; -9.6966941E-03;  0.0000000E+00;  2.5226266E-04;  2.7229785E+02;
  3.6146212E-01;  9.9999998E-03; -4.0010206E-02;4668; -6.0174866E-03;  0.0000000E+00; -6.7231513E-06;  1.0005563E+03;  1.0000000E-01;  4.6092523E+02;3;  6.4777690E-01;  0.0000000E+00;  4.5611184E-02;0; -9.5152482E-03;  4.0049152E+04;  0.0000000E+00;  2.0222846E-02;  4.0000000E+04;  0.0000000E+00;  3.9997840E+04; -9.7715352E-03;  0.0000000E+00;  2.5628653E-04;  3.2644644E+02;
  3.6145890E-01;  9.9999998E-03; -3.0008648E-02;4669; -6.0347705E-03;  0.0000000E+00; -1.6491380E-06;  1.0005872E+03;  1.0000000E-01;  4.8650476E+02;3;  6.4901441E-01;  0.0000000E+00;  3.2489933E-02;0; -9.5758634E-03;  4.0052184E+04;  0.0000000E+00;  1.2215395E-02;  4.0000000E+04;  0.0000000E+00;  3.9997387E+04; -9.8322127E-03;  0.0000000E+00;  2.5634974E-04;  3.9266003E+02;
  3.6145511E-01;  9.9999998E-03; -2.0006647E-02;4670; -6.0468391E-03;  0.0000000E+00;  6.5932500E-07;  1.0006102E+03;  1.0000000E-01;  5.0556595E+02;3;  6.4992017E-01;  0.0000000E+00;  2.0170312E-02;0; -9.6224695E-03;  4.0054680E+04;  0.0000000E+00;  5.6684795E-03;  4.0000000E+04;  0.0000000E+00;  3.9996754E+04; -9.8768631E-03;  0.0000000E+00;  2.5439379E-04;  4.5479648E+02;
  3.6145148E-01;  9.9999998E-03; -1.0003779E-02;4671; -6.0539404E-03;  0.0000000E+00;  8.7994653E-07;  1.0006298E+03;  1.0000000E-01;  5.2176300E+02;3;  6.5033442E-01;  0.0000000E+00;  9.5358230E-03;0; -9.6518695E-03;  4.0056203E+04;  0.0000000E+00;  1.4499485E-03;  4.0000000E+04;  0.0000000E+00;  3.9996309E+04; -9.9041751E-03;  0.0000000E+00;  2.5230524E-04;  4.9861725E+02;
  3.6145023E-01;  9.9999998E-03;  3.4045753E-09;4672; -6.0562873E-03;  0.0000000E+00;  6.9706858E-09;  1.0006345E+03;  1.0000000E-01;  5.2571350E+02;3;  6.5040737E-01;  0.0000000E+00; -7.3101755E-06;0; -9.6618943E-03;  4.0056859E+04;  0.0000000E+00; -1.2862776E-12;  4.0000000E+04;  0.0000000E+00;  3.9996211E+04; -9.9133356E-03;  0.0000000E+00;  2.5144135E-04;  5.1437628E+02;
  3.6145148E-01;  9.9999998E-03;  1.0003786E-02;4673; -6.0539423E-03;  0.0000000E+00; -8.6643064E-07;  1.0006298E+03;  1.0000000E-01;  5.2176300E+02;3;  6.5033555E-01;  0.0000000E+00; -9.5538329E-03;0; -9.6518677E-03;  4.0056203E+04;  0.0000000E+00;  1.4497261E-03;  4.0000000E+04;  0.0000000E+00;  3.9996312E+04; -9.9041704E-03;  0.0000000E+00;  2.5230250E-04;  4.9860855E+02;
  3.6145511E-01;  9.9999998E-03;  2.0006655E-02;4674; -6.0468419E-03;  0.0000000E+00; -6.4644888E-07;  1.0006102E+03;  1.0000000E-01;  5.0556595E+02;3;  6.4992511E-01;  0.0000000E+00; -2.0188879E-02;0; -9.6224844E-03;  4.0054676E+04;  0.0000000E+00;  5.6679742E-03;  4.0000000E+04;  0.0000000E+00;  3.9996754E+04; -9.8768724E-03;  0.0000000E+00;  2.5438837E-04;  4.5479123E+02;
  3.6145890E-01;  9.9999998E-03;  3.0008655E-02;4675; -6.0347733E-03;  0.0000000E+00;  1.6612674E-06;  1.0005872E+03;  1.0000000E-01;  4.8640601E+02;3;  6.4901561E-01;  0.0000000E+00; -3.2508861E-02;0; -9.5758932E-03;  4.0052180E+04;  0.0000000E+00;  1.2214533E-02;  4.0000000E+04;  0.0000000E+00;  3.9997387E+04; -9.8322369E-03;  0.0000000E+00;  2.5634331E-04;  3.9264722E+02;
  3.6146212E-01;  9.9999998E-03;  4.0010214E-02;4676; -6.0174912E-03;  0.0000000E+00;  6.7347914E-06;  1.0005563E+03;  1.0000000E-01;  4.6092523E+02;3;  6.4778483E-01;  0.0000000E+00; -4.5625973E-02;0; -9.5152706E-03;  4.0049152E+04;  0.0000000E+00;  2.0222647E-02;  4.0000000E+04;  0.0000000E+00;  3.9997840E+04; -9.7715491E-03;  0.0000000E+00;  2.5627884E-04;  3.2645493E+02;
  3.6146322E-01;  9.9999998E-03;  5.0011691E-02;4677; -5.9947362E-03;  0.0000000E+00;  1.5002058E-05;  1.0005258E+03;  1.0000000E-01;  4.3554324E+02;3;  6.4591175E-01;  0.0000000E+00; -6.0289115E-02;0; -9.4444603E-03;  4.0045902E+04;  0.0000000E+00;  2.8269017E-02;  4.0000000E+04;  0.0000000E+00;  3.9998121E+04; -9.6967155E-03;  0.0000000E+00;  2.5225498E-04;  2.7229446E+02;
  3.6146179E-01;  9.9999998E-03;  6.0013015E-02;4678; -5.9663793E-03;  0.0000000E+00;  2.5839292E-05;  1.0004925E+03;  1.0000000E-01;  4.0798846E+02;3;  6.4364737E-01;  0.0000000E+00; -7.9961583E-02;0; -9.3676271E-03;  4.0043184E+04;  0.0000000E+00;  3.4361281E-02;  4.0000000E+04;  0.0000000E+00;  3.9998500E+04; -9.6103251E-03;  0.0000000E+00;  2.4269821E-04;  2.4516600E+02;
  3.7144956E-01;  9.9999998E-03; -1.0001218E-01;4723; -5.8877333E-03;  0.0000000E+00; -6.2997133E-05;  1.0003588E+03;  1.0000000E-01;  2.9727554E+02;3;  6.6592151E-01;  0.0000000E+00;  1.5891929E-01;0; -8.9403633E-03;  4.0034652E+04;  0.0000000E+00;  3.0739065E-02;  4.0000000E+04;  0.0000000E+00;  3.9996195E+04; -9.0151150E-03;  0.0000000E+00;  7.4752046E-05;  5.1904877E+02;
  3.7143239E-01;  9.9999998E-03; -9.0014562E-02;4724; -5.9349686E-03;  0.0000000E+00; -5.5372107E-05;  1.0003739E+03;  1.0000000E-01;  3.0981839E+02;3;  6.6915792E-01;  0.0000000E+00;  1.4016102E-01;0; -9.0030003E-03;  4.0035039E+04;  0.0000000E+00;  4.5760781E-02;  4.0000000E+04;  0.0000000E+00;  3.9996926E+04; -9.1112517E-03;  0.0000000E+00;  1.0825154E-04;  4.2060638E+02;
  3.7142017E-01;  9.9999998E-03; -8.0014788E-02;4725; -5.9777224E-03;  0.0000000E+00; -4.5037763E-05;  1.0003957E+03;  1.0000000E-01;  3.2779321E+02;3;  6.7215794E-01;  0.0000000E+00;  1.2203561E-01;0; -9.0694949E-03;  4.0035965E+04;  0.0000000E+00;  5.1276166E-02;  4.0000000E+04;  0.0000000E+00;  3.9997371E+04; -9.2059588E-03;  0.0000000E+00;  1.3646415E-04;  3.4858084E+02;
  3.7141567E-01;  9.9999998E-03; -7.0013866E-02;4726; -6.0152430E-03;  0.0000000E+00; -3.3438508E-05;  1.0004232E+03;  1.0000000E-01;  3.5060736E+02;3;  6.7511582E-01;  0.0000000E+00;  1.0389420E-01;0; -9.1387108E-03;  4.0037949E+04;  0.0000000E+00;  4.9231600E-02;  4.0000000E+04;  0.0000000E+00;  3.9997672E+04; -9.2964899E-03;  0.0000000E+00;  1.5777914E-04;  3.0808969E+02;
  3.7141511E-01;  9.9999998E-03; -6.0012430E-02;4727; -6.0469396E-03;  0.0000000E+00; -2.2200298E-05;  1.0004524E+03;  1.0000000E-01;  3.7480423E+02;3;  6.7771292E-01;  0.0000000E+00;  8.4986888E-02;0; -9.2086801E-03;  4.0040594E+04;  0.0000000E+00;  4.2089708E-02;  4.0000000E+04;  0.0000000E+00;  3.9998012E+04; -9.3801888E-03;  0.0000000E+00;  1.7150879E-04;  2.9975320E+02;
  3.7141287E-01;  9.9999998E-03; -5.0010733E-02;4728; -6.0725342E-03;  0.0000000E+00; -1.2603806E-05;  1.0004885E+03;  1.0000000E-01;  4.0472931E+02;3;  6.7971551E-01;  0.0000000E+00;  6.5118611E-02;0; -9.2766462E-03;  4.0043629E+04;  0.0000000E+00;  3.2344379E-02;  4.0000000E+04;  0.0000000E+00;  3.9997891E+04; -9.4547030E-03;  0.0000000E+00;  1.7805693E-04;  3.2003162E+02;
  3.7140787E-01;  9.9999998E-03; -4.0008850E-02;4729; -6.0923239E-03;  0.0000000E+00; -5.3471617E-06;  1.0005267E+03;  1.0000000E-01;  4.3643210E+02;3;  6.8134230E-01;  0.0000000E+00;  4.9068056E-02;0; -9.3392516E-03;  4.0046617E+04;  0.0000000E+00;  2.2118758E-02;  4.0000000E+04;  0.0000000E+00;  3.9997648E+04; -9.5180171E-03;  0.0000000E+00;  1.7876568E-04;  3.6077740E+02;
  3.7140161E-01;  9.9999998E-03; -3.0006854E-02;4730; -6.1067590E-03;  0.0000000E+00; -1.0418597E-06;  1.0005554E+03;  1.0000000E-01;  4.6013513E+02;3;  6.8255955E-01;  0.0000000E+00;  3.4621377E-02;0; -9.3929293E-03;  4.0049508E+04;  0.0000000E+00;  1.2974527E-02;  4.0000000E+04;  0.0000000E+00;  3.9997305E+04; -9.5685963E-03;  0.0000000E+00;  1.7566678E-04;  4.1037436E+02;
  3.7139595E-01;  9.9999998E-03; -2.0004807E-02;4731; -6.1165038E-03;  0.0000000E+00;  8.4163997E-07;  1.0005821E+03;  1.0000000E-01;  4.8225797E+02;3;  6.8301052E-01;  0.0000000E+00;  2.2300901E-02;0; -9.4342120E-03;  4.0051922E+04;  0.0000000E+00;  5.9129219E-03;  4.0000000E+04;  0.0000000E+00;  3.9997062E+04; -9.6053332E-03;  0.0000000E+00;  1.7112083E-04;  4.5658859E+02;
  3.7139127E-01;  9.9999998E-03; -1.0002536E-02;4732; -6.1220936E-03;  0.0000000E+00;  8.9949339E-07;  1.0005969E+03;  1.0000000E-01;  4.9450455E+02;3;  6.8339896E-01;  0.0000000E+00;  1.0576761E-02;0; -9.4602657E-03;  4.0053355E+04;  0.0000000E+00;  1.4978263E-03;  4.0000000E+04;  0.0000000E+00;  3.9996648E+04; -9.6276114E-03;  0.0000000E+00;  1.6734531E-04;  4.8905240E+02;
  3.7138927E-01;  9.9999998E-03;  3.9469112E-09;4733; -6.1239083E-03;  0.0000000E+00;  8.0137337E-09;  1.0006031E+03;  1.0000000E-01;  4.9964020E+02;3;  6.8344462E-01;  0.0000000E+00; -8.0556074E-06;0; -9.4691813E-03;  4.0054000E+04;  0.0000000E+00;  1.0548551E-12;  4.0000000E+04;  0.0000000E+00;  3.9996543E+04; -9.6350815E-03;  0.0000000E+00;  1.6590035E-04;  5.0073923E+02;
  3.7139127E-01;  9.9999998E-03;  1.0002543E-02;4734; -6.1220950E-03;  0.0000000E+00; -8.8387463E-07;  1.0005969E+03;  1.0000000E-01;  4.9450455E+02;3;  6.8339598E-01;  0.0000000E+00; -1.0591493E-02;0; -9.4602788E-03;  4.0053355E+04;  0.0000000E+00;  1.4976386E-03;  4.0000000E+04;  0.0000000E+00;  3.9996648E+04; -9.6276216E-03;  0.0000000E+00;  1.6734299E-04;  4.8905701E+02;
  3.7139595E-01;  9.9999998E-03;  2.0004814E-02;4735; -6.1165071E-03;  0.0000000E+00; -8.2653588E-07;  1.0005822E+03;  1.0000000E-01;  4.8225797E+02;3;  6.8302053E-01;  0.0000000E+00; -2.2313301E-02;0; -9.4342260E-03;  4.0051922E+04;  0.0000000E+00;  5.9126117E-03;  4.0000000E+04;  0.0000000E+00;  3.9997062E+04; -9.6053425E-03;  0.0000000E+00;  1.7111648E-04;  4.5659555E+02;
  3.7140161E-01;  9.9999998E-03;  3.0006861E-02;4736; -6.1067636E-03;  0.0000000E+00;  1.0560078E-06;  1.0005554E+03;  1.0000000E-01;  4.6013513E+02;3;  6.8256181E-01;  0.0000000E+00; -3.4636442E-02;0; -9.3929507E-03;  4.0049508E+04;  0.0000000E+00;  1.2973970E-02;  4.0000000E+04;  0.0000000E+00;  3.9997305E+04; -9.5686112E-03;  0.0000000E+00;  1.7566084E-04;  4.1036636E+02;
  3.7140787E-01;  9.9999998E-03;  4.0008858E-02;4737; -6.0923290E-03;  0.0000000E+00;  5.3607823E-06;  1.0005267E+03;  1.0000000E-01;  4.3643210E+02;3;  6.8135542E-01;  0.0000000E+00; -4.9076539E-02;0; -9.3392776E-03;  4.0046617E+04;  0.0000000E+00;  2.2118017E-02;  4.0000000E+04;  0.0000000E+00;  3.9997648E+04; -9.5180366E-03;  0.0000000E+00;  1.7875896E-04;  3.6077893E+02;
  3.7141287E-01;  9.9999998E-03;  5.0010741E-02;4738; -6.0725426E-03;  0.0000000E+00;  1.2616641E-05;  1.0004886E+03;  1.0000000E-01;  4.0482806E+02;3;  6.7974204E-01;  0.0000000E+00; -6.5122403E-02;0; -9.2766751E-03;  4.0043621E+04;  0.0000000E+00;  3.2343179E-02;  4.0000000E+04;  0.0000000E+00;  3.9997891E+04; -9.4547244E-03;  0.0000000E+00;  1.7804978E-04;  3.2003824E+02;
  3.7141511E-01;  9.9999998E-03;  6.0012437E-02;4739; -6.0469471E-03;  0.0000000E+00;  2.2213308E-05;  1.0004525E+03;  1.0000000E-01;  3.7480423E+02;3;  6.7773765E-01;  0.0000000E+00; -8.4981464E-02;0; -9.2087062E-03;  4.0040590E+04;  0.0000000E+00;  4.2089038E-02;  4.0000000E+04;  0.0000000E+00;  3.9998012E+04; -9.3802083E-03;  0.0000000E+00;  1.7150205E-04;  2.9976273E+02;
  3.8148838E-01;  9.9999998E-03; -1.0000709E-01;4784; -5.9734583E-03;  0.0000000E+00; -4.7029698E-05;  1.0003071E+03;  1.0000000E-01;  2.5441255E+02;3;  7.0032603E-01;  0.0000000E+00;  1.6721311E-01;0; -8.8571599E-03;  4.0030156E+04;  0.0000000E+00;  6.4528078E-02;  4.0000000E+04;  0.0000000E+00;  3.9996188E+04; -8.8434247E-03;  0.0000000E+00; -1.3735029E-05;  5.3241620E+02;
  3.8146225E-01;  9.9999998E-03; -9.0009682E-02;4785; -6.0207909E-03;  0.0000000E+00; -4.0912157E-05;  1.0003162E+03;  1.0000000E-01;  2.6191852E+02;3;  7.0404387E-01;  0.0000000E+00;  1.4832953E-01;0; -8.9181410E-03;  4.0030414E+04;  0.0000000E+00;  6.9923550E-02;  4.0000000E+04;  0.0000000E+00;  3.9996695E+04; -8.9383544E-03;  0.0000000E+00;  2.0213851E-05;  4.5629016E+02;
  3.8143420E-01;  9.9999998E-03; -8.0010094E-02;4786; -6.0625579E-03;  0.0000000E+00; -3.2652864E-05;  1.0003298E+03;  1.0000000E-01;  2.7327621E+02;3;  7.0743495E-01;  0.0000000E+00;  1.2910879E-01;0; -8.9814076E-03;  4.0031148E+04;  0.0000000E+00;  6.7526102E-02;  4.0000000E+04;  0.0000000E+00;  3.9997141E+04; -9.0292618E-03;  0.0000000E+00;  4.7854290E-05;  3.9889868E+02;
  3.8141084E-01;  9.9999998E-03; -7.0009217E-02;4787; -6.0980762E-03;  0.0000000E+00; -2.3644401E-05;  1.0003528E+03;  1.0000000E-01;  2.9233740E+02;3;  7.1069902E-01;  0.0000000E+00;  1.0921191E-01;0; -9.0462081E-03;  4.0032375E+04;  0.0000000E+00;  5.9494466E-02;  4.0000000E+04;  0.0000000E+00;  3.9997484E+04; -9.1140326E-03;  0.0000000E+00;  6.7824352E-05;  3.6362845E+02;
  3.8139224E-01;  9.9999998E-03; -6.0008086E-02;4788; -6.1270460E-03;  0.0000000E+00; -1.5139838E-05;  1.0003760E+03;  1.0000000E-01;  3.1149738E+02;3;  7.1325463E-01;  0.0000000E+00;  8.8683695E-02;0; -9.1110580E-03;  4.0034277E+04;  0.0000000E+00;  4.8198625E-02;  4.0000000E+04;  0.0000000E+00;  3.9997711E+04; -9.1907578E-03;  0.0000000E+00;  7.9699326E-05;  3.5126080E+02;
  3.8137758E-01;  9.9999998E-03; -5.0007060E-02;4789; -6.1496077E-03;  0.0000000E+00; -7.8777985E-06;  1.0003997E+03;  1.0000000E-01;  3.3115112E+02;3;  7.1479148E-01;  0.0000000E+00;  6.9471553E-02;0; -9.1736875E-03;  4.0036531E+04;  0.0000000E+00;  3.5792362E-02;  4.0000000E+04;  0.0000000E+00;  3.9997398E+04; -9.2578027E-03;  0.0000000E+00;  8.4115520E-05;  3.5941330E+02;
  3.8136581E-01;  9.9999998E-03; -4.0005878E-02;4790; -6.1662849E-03;  0.0000000E+00; -2.6249297E-06;  1.0004252E+03;  1.0000000E-01;  3.5228635E+02;3;  7.1631700E-01;  0.0000000E+00;  5.1831279E-02;0; -9.2311623E-03;  4.0038613E+04;  0.0000000E+00;  2.3963025E-02;  4.0000000E+04;  0.0000000E+00;  3.9997199E+04; -9.3138330E-03;  0.0000000E+00;  8.2670616E-05;  3.8221780E+02;
  3.8135570E-01;  9.9999998E-03; -3.0004546E-02;4791; -6.1779371E-03;  0.0000000E+00;  4.4327365E-07;  1.0004490E+03;  1.0000000E-01;  3.7203885E+02;3;  7.1689636E-01;  0.0000000E+00;  3.7909459E-02;0; -9.2803994E-03;  4.0040645E+04;  0.0000000E+00;  1.3882528E-02;  4.0000000E+04;  0.0000000E+00;  3.9996867E+04; -9.3580512E-03;  0.0000000E+00;  7.7651428E-05;  4.1178619E+02;
  3.8134727E-01;  9.9999998E-03; -2.0003131E-02;4792; -6.1854511E-03;  0.0000000E+00;  1.5070078E-06;  1.0004669E+03;  1.0000000E-01;  3.8675449E+02;3;  7.1742153E-01;  0.0000000E+00;  2.3350853E-02;0; -9.3182670E-03;  4.0042379E+04;  0.0000000E+00;  6.2841615E-03;  4.0000000E+04;  0.0000000E+00;  3.9997004E+04; -9.3898866E-03;  0.0000000E+00;  7.1619441E-05;  4.3996173E+02;
  3.8134161E-01;  9.9999998E-03; -1.0001576E-02;4793; -6.1896052E-03;  0.0000000E+00;  1.1466917E-06;  1.0004740E+03;  1.0000000E-01;  3.9268027E+02;3;  7.1761942E-01;  0.0000000E+00;  1.1429832E-02;0; -9.3421610E-03;  4.0043789E+04;  0.0000000E+00;  1.5868280E-03;  4.0000000E+04;  0.0000000E+00;  3.9996953E+04; -9.4090663E-03;  0.0000000E+00;  6.6905697E-05;  4.5993204E+02;
  3.8133940E-01;  9.9999998E-03;  4.9142401E-09;4794; -6.1909268E-03;  0.0000000E+00;  8.9755625E-09;  1.0004805E+03;  1.0000000E-01;  3.9801343E+02;3;  7.1758312E-01;  0.0000000E+00; -8.1508297E-06;0; -9.3503166E-03;  4.0044168E+04;  0.0000000E+00;  1.7165695E-12;  4.0000000E+04;  0.0000000E+00;  3.9996785E+04; -9.4154580E-03;  0.0000000E+00;  6.5141292E-05;  4.6713425E+02;
  3.8134161E-01;  9.9999998E-03;  1.0001585E-02;4795; -6.1896043E-03;  0.0000000E+00; -1.1290216E-06;  1.0004739E+03;  1.0000000E-01;  3.9268027E+02;3;  7.1762335E-01;  0.0000000E+00; -1.1445418E-02;0; -9.3421666E-03;  4.0043793E+04;  0.0000000E+00;  1.5867945E-03;  4.0000000E+04;  0.0000000E+00;  3.9996953E+04; -9.4090700E-03;  0.0000000E+00;  6.6903798E-05;  4.5992776E+02;
  3.8134727E-01;  9.9999998E-03;  2.0003140E-02;4796; -6.1854529E-03;  0.0000000E+00; -1.4897926E-06;  1.0004669E+03;  1.0000000E-01;  3.8675449E+02;3;  7.1743721E-01;  0.0000000E+00; -2.3365242E-02;0; -9.3182726E-03;  4.0042379E+04;  0.0000000E+00;  6.2838984E-03;  4.0000000E+04;  0.0000000E+00;  3.9997004E+04; -9.3898885E-03;  0.0000000E+00;  7.1615461E-05;  4.3995093E+02;
  3.8135567E-01;  9.9999998E-03;  3.0004555E-02;4797; -6.1779418E-03;  0.0000000E+00; -4.2692361E-07;  1.0004490E+03;  1.0000000E-01;  3.7203885E+02;3;  7.1690094E-01;  0.0000000E+00; -3.7919238E-02;0; -9.2804078E-03;  4.0040645E+04;  0.0000000E+00;  1.3882525E-02;  4.0000000E+04;  0.0000000E+00;  3.9996867E+04; -9.3580540E-03;  0.0000000E+00;  7.7646400E-05;  4.1179532E+02;
  3.8136581E-01;  9.9999998E-03;  4.0005889E-02;4798; -6.1662900E-03;  0.0000000E+00;  2.6405141E-06;  1.0004251E+03;  1.0000000E-01;  3.5218756E+02;3;  7.1633559E-01;  0.0000000E+00; -5.1836800E-02;0; -9.2312032E-03;  4.0038613E+04;  0.0000000E+00;  2.3961958E-02;  4.0000000E+04;  0.0000000E+00;  3.9997199E+04; -9.3138674E-03;  0.0000000E+00;  8.2664570E-05;  3.8223468E+02;
  3.8137758E-01;  9.9999998E-03;  5.0007068E-02;4799; -6.1496138E-03;  0.0000000E+00;  7.8933263E-06;  1.0003997E+03;  1.0000000E-01;  3.3115112E+02;3;  7.1479982E-01;  0.0000000E+00; -6.9471918E-02;0; -9.1737015E-03;  4.0036527E+04;  0.0000000E+00;  3.5792165E-02;  4.0000000E+04;  0.0000000E+00;  3.9997398E+04; -9.2578111E-03;  0.0000000E+00;  8.4109495E-05;  3.5941681E+02;
  3.8139224E-01;  9.9999998E-03;  6.0008097E-02;4800; -6.1270529E-03;  0.0000000E+00;  1.5154923E-05;  1.0003760E+03;  1.0000000E-01;  3.1149738E+02;3;  7.1326810E-01;  0.0000000E+00; -8.8681005E-02;0; -9.1110859E-03;  4.0034289E+04;  0.0000000E+00;  4.8198704E-02;  4.0000000E+04;  0.0000000E+00;  3.9997711E+04; -9.1907792E-03;  0.0000000E+00;  7.9693527E-05;  3.5127957E+02;
  3.9151880E-01;  9.9999998E-03; -9.9999569E-02;4845; -6.0615703E-03;  0.0000000E+00; -2.4849969E-05;  1.0002758E+03;  1.0000000E-01;  2.2843799E+02;3;  7.3643702E-01;  0.0000000E+00;  1.7041701E-01;0; -8.8184131E-03;  4.0027043E+04;  0.0000000E+00;  9.1762863E-02;  4.0000000E+04;  0.0000000E+00;  3.9995883E+04; -8.6990669E-03;  0.0000000E+00; -1.1934644E-04;  5.6387195E+02;
  3.9150369E-01;  9.9999998E-03; -9.0001121E-02;4846; -6.1087385E-03;  0.0000000E+00; -2.0863979E-05;  1.0002672E+03;  1.0000000E-01;  2.2132707E+02;3;  7.4056637E-01;  0.0000000E+00;  1.5094283E-01;0; -8.8815922E-03;  4.0026512E+04;  0.0000000E+00;  8.8707015E-02;  4.0000000E+04;  0.0000000E+00;  3.9996398E+04; -8.7947156E-03;  0.0000000E+00; -8.6876986E-05;  5.0607880E+02;
  3.9148152E-01;  9.9999998E-03; -8.0001228E-02;4847; -6.1493916E-03;  0.0000000E+00; -1.5668036E-05;  1.0002668E+03;  1.0000000E-01;  2.2103079E+02;3;  7.4425817E-01;  0.0000000E+00;  1.3063192E-01;0; -8.9456951E-03;  4.0026113E+04;  0.0000000E+00;  7.9868197E-02;  4.0000000E+04;  0.0000000E+00;  3.9996496E+04; -8.8846302E-03;  0.0000000E+00; -6.1065264E-05;  4.5859335E+02;
  3.9145666E-01;  9.9999998E-03; -7.0000775E-02;4848; -6.1830282E-03;  0.0000000E+00; -1.0138913E-05;  1.0002704E+03;  1.0000000E-01;  2.2399367E+02;3;  7.4750948E-01;  0.0000000E+00;  1.1094666E-01;0; -9.0102395E-03;  4.0025895E+04;  0.0000000E+00;  6.7301050E-02;  4.0000000E+04;  0.0000000E+00;  3.9996844E+04; -8.9672897E-03;  0.0000000E+00; -4.2949563E-05;  4.2406250E+02;
  3.9143252E-01;  9.9999998E-03; -6.0000118E-02;4849; -6.2096380E-03;  0.0000000E+00; -5.0506837E-06;  1.0002753E+03;  1.0000000E-01;  2.2804294E+02;3;  7.4975604E-01;  0.0000000E+00;  9.2934482E-02;0; -9.0740779E-03;  4.0026273E+04;  0.0000000E+00;  5.3018231E-02;  4.0000000E+04;  0.0000000E+00;  3.9997168E+04; -9.0413159E-03;  0.0000000E+00; -3.2761774E-05;  4.0337253E+02;
  3.9141059E-01;  9.9999998E-03; -4.9999502E-02;4850; -6.2296335E-03;  0.0000000E+00; -9.8693090E-07;  1.0002786E+03;  1.0000000E-01;  2.3080829E+02;3;  7.5150156E-01;  0.0000000E+00;  7.2499774E-02;0; -9.1352249E-03;  4.0026863E+04;  0.0000000E+00;  3.8719479E-02;  4.0000000E+04;  0.0000000E+00;  3.9997102E+04; -9.1054672E-03;  0.0000000E+00; -2.9757914E-05;  3.9534595E+02;
  3.9139199E-01;  9.9999998E-03; -3.9999075E-02;4851; -6.2438217E-03;  0.0000000E+00;  1.7590596E-06;  1.0002858E+03;  1.0000000E-01;  2.3673404E+02;3;  7.5233650E-01;  0.0000000E+00;  5.4711979E-02;0; -9.1911117E-03;  4.0027414E+04;  0.0000000E+00;  2.5687225E-02;  4.0000000E+04;  0.0000000E+00;  3.9996973E+04; -9.1588162E-03;  0.0000000E+00; -3.2295291E-05;  3.9708820E+02;
  3.9137739E-01;  9.9999998E-03; -2.9998891E-02;4852; -6.2532732E-03;  0.0000000E+00;  3.0330509E-06;  1.0002927E+03;  1.0000000E-01;  2.4256104E+02;3;  7.5282407E-01;  0.0000000E+00;  3.8655408E-02;0; -9.2388121E-03;  4.0028172E+04;  0.0000000E+00;  1.4816895E-02;  4.0000000E+04;  0.0000000E+00;  3.9996875E+04; -9.2007210E-03;  0.0000000E+00; -3.8091439E-05;  4.0447723E+02;
  3.9136651E-01;  9.9999998E-03; -1.9999024E-02;4853; -6.2590553E-03;  0.0000000E+00;  2.9060529E-06;  1.0002961E+03;  1.0000000E-01;  2.4532640E+02;3;  7.5311452E-01;  0.0000000E+00;  2.4974544E-02;0; -9.2754271E-03;  4.0028570E+04;  0.0000000E+00;  6.6958084E-03;  4.0000000E+04;  0.0000000E+00;  3.9996949E+04; -9.2308130E-03;  0.0000000E+00; -4.4613960E-05;  4.1341357E+02;
  3.9135963E-01;  9.9999998E-03; -9.9994438E-03;4854; -6.2620998E-03;  0.0000000E+00;  1.7216736E-06;  1.0003002E+03;  1.0000000E-01;  2.4868433E+02;3;  7.5325161E-01;  0.0000000E+00;  1.1845333E-02;0; -9.2985062E-03;  4.0029105E+04;  0.0000000E+00;  1.6899070E-03;  4.0000000E+04;  0.0000000E+00;  3.9996832E+04; -9.2489216E-03;  0.0000000E+00; -4.9584534E-05;  4.2035962E+02;
  3.9135703E-01;  9.9999998E-03;  5.8651008E-09;4855; -6.2630400E-03;  0.0000000E+00;  9.8680131E-09;  1.0003016E+03;  1.0000000E-01;  2.4986948E+02;3;  7.5332367E-01;  0.0000000E+00; -7.9990195E-06;0; -9.3063824E-03;  4.0029117E+04;  0.0000000E+00;  1.8389462E-13;  4.0000000E+04;  0.0000000E+00;  3.9996867E+04; -9.2549557E-03;  0.0000000E+00; -5.1426494E-05;  4.2294302E+02;
  3.9135963E-01;  9.9999998E-03;  9.9994559E-03;4856; -6.2621012E-03;  0.0000000E+00; -1.7019628E-06;  1.0003002E+03;  1.0000000E-01;  2.4868433E+02;3;  7.5326127E-01;  0.0000000E+00; -1.1859967E-02;0; -9.2985146E-03;  4.0029102E+04;  0.0000000E+00;  1.6900409E-03;  4.0000000E+04;  0.0000000E+00;  3.9996832E+04; -9.2489282E-03;  0.0000000E+00; -4.9586193E-05;  4.2035495E+02;
  3.9136651E-01;  9.9999998E-03;  1.9999035E-02;4857; -6.2590567E-03;  0.0000000E+00; -2.8867851E-06;  1.0002962E+03;  1.0000000E-01;  2.4542516E+02;3;  7.5313145E-01;  0.0000000E+00; -2.4984235E-02;0; -9.2754317E-03;  4.0028566E+04;  0.0000000E+00;  6.6958559E-03;  4.0000000E+04;  0.0000000E+00;  3.9996953E+04; -9.2308149E-03;  0.0000000E+00; -4.4617067E-05;  4.1340945E+02;
  3.9137739E-01;  9.9999998E-03;  2.9998902E-02;4858; -6.2532779E-03;  0.0000000E+00; -3.0143156E-06;  1.0002927E+03;  1.0000000E-01;  2.4256104E+02;3;  7.5282824E-01;  0.0000000E+00; -3.8659401E-02;0; -9.2388298E-03;  4.0028172E+04;  0.0000000E+00;  1.4816775E-02;  4.0000000E+04;  0.0000000E+00;  3.9996867E+04; -9.2007341E-03;  0.0000000E+00; -3.8095572E-05;  4.0448633E+02;
  3.9139199E-01;  9.9999998E-03;  3.9999086E-02;4859; -6.2438264E-03;  0.0000000E+00; -1.7409934E-06;  1.0002858E+03;  1.0000000E-01;  2.3673404E+02;3;  7.5236708E-01;  0.0000000E+00; -5.4711718E-02;0; -9.1911340E-03;  4.0027418E+04;  0.0000000E+00;  2.5687421E-02;  4.0000000E+04;  0.0000000E+00;  3.9996977E+04; -9.1588339E-03;  0.0000000E+00; -3.2299889E-05;  3.9709470E+02;
  3.9141059E-01;  9.9999998E-03;  4.9999513E-02;4860; -6.2296381E-03;  0.0000000E+00;  1.0044739E-06;  1.0002787E+03;  1.0000000E-01;  2.3090704E+02;3;  7.5152940E-01;  0.0000000E+00; -7.2494507E-02;0; -9.1352547E-03;  4.0026863E+04;  0.0000000E+00;  3.8719557E-02;  4.0000000E+04;  0.0000000E+00;  3.9997102E+04; -9.1054924E-03;  0.0000000E+00; -2.9762547E-05;  3.9536359E+02;
  3.9143252E-01;  9.9999998E-03;  6.0000129E-02;4861; -6.2096445E-03;  0.0000000E+00;  5.0681733E-06;  1.0002752E+03;  1.0000000E-01;  2.2804294E+02;3;  7.4977422E-01;  0.0000000E+00; -9.2925735E-02;0; -9.0741059E-03;  4.0026277E+04;  0.0000000E+00;  5.3018883E-02;  4.0000000E+04;  0.0000000E+00;  3.9997164E+04; -9.0413401E-03;  0.0000000E+00; -3.2765933E-05;  4.0337958E+02;
  4.0152034E-01;  9.9999998E-03; -9.9996939E-02;4906; -6.1513092E-03;  0.0000000E+00;  5.1902396E-07;  1.0002549E+03;  1.0000000E-01;  2.1115453E+02;3;  7.7333695E-01;  0.0000000E+00;  1.7121658E-01;0; -8.8150958E-03;  4.0025664E+04;  0.0000000E+00;  1.1179071E-01;  4.0000000E+04;  0.0000000E+00;  3.9995422E+04; -8.5739251E-03;  0.0000000E+00; -2.4117038E-04;  6.1214105E+02;
  4.0151289E-01;  9.9999998E-03; -8.9996785E-02;4907; -6.1981957E-03;  0.0000000E+00;  1.8431148E-06;  1.0002375E+03;  1.0000000E-01;  1.9683394E+02;3;  7.7794015E-01;  0.0000000E+00;  1.5185419E-01;0; -8.8842642E-03;  4.0023887E+04;  0.0000000E+00;  1.0211907E-01;  4.0000000E+04;  0.0000000E+00;  3.9995805E+04; -8.6727291E-03;  0.0000000E+00; -2.1153459E-04;  5.6927850E+02;
  4.0149873E-01;  9.9999998E-03; -7.9995953E-02;4908; -6.2380061E-03;  0.0000000E+00;  3.6081010E-06;  1.0002095E+03;  1.0000000E-01;  1.7362473E+02;3;  7.8193742E-01;  0.0000000E+00;  1.3180877E-01;0; -8.9532724E-03;  4.0021867E+04;  0.0000000E+00;  8.8474751E-02;  4.0000000E+04;  0.0000000E+00;  3.9996148E+04; -8.7648993E-03;  0.0000000E+00; -1.8837329E-04;  5.2849658E+02;
  4.0148014E-01;  9.9999998E-03; -6.9995165E-02;4909; -6.2704273E-03;  0.0000000E+00;  5.3579456E-06;  1.0001892E+03;  1.0000000E-01;  1.5673631E+02;3;  7.8525931E-01;  0.0000000E+00;  1.1100685E-01;0; -9.0217637E-03;  4.0019762E+04;  0.0000000E+00;  7.2672233E-02;  4.0000000E+04;  0.0000000E+00;  3.9996035E+04; -8.8493517E-03;  0.0000000E+00; -1.7241186E-04;  4.9157199E+02;
  4.0146041E-01;  9.9999998E-03; -5.9994727E-02;4910; -6.2956270E-03;  0.0000000E+00;  6.7853784E-06;  1.0001680E+03;  1.0000000E-01;  1.3915656E+02;3;  7.8742313E-01;  0.0000000E+00;  9.2630073E-02;0; -9.0887053E-03;  4.0017840E+04;  0.0000000E+00;  5.6327365E-02;  4.0000000E+04;  0.0000000E+00;  3.9996293E+04; -8.9249779E-03;  0.0000000E+00; -1.6372731E-04;  4.5963153E+02;
  4.0144202E-01;  9.9999998E-03; -4.9994659E-02;4911; -6.3141962E-03;  0.0000000E+00;  7.5871189E-06;  1.0001479E+03;  1.0000000E-01;  1.2256444E+02;3;  7.8891385E-01;  0.0000000E+00;  7.5132996E-02;0; -9.1522606E-03;  4.0016500E+04;  0.0000000E+00;  4.0741611E-02;  4.0000000E+04;  0.0000000E+00;  3.9996695E+04; -8.9906873E-03;  0.0000000E+00; -1.6157296E-04;  4.3319894E+02;
  4.0142503E-01;  9.9999998E-03; -3.9994970E-02;4912; -6.3270554E-03;  0.0000000E+00;  7.5949461E-06;  1.0001306E+03;  1.0000000E-01;  1.0814509E+02;3;  7.8981221E-01;  0.0000000E+00;  5.8327395E-02;0; -9.2099784E-03;  4.0014773E+04;  0.0000000E+00;  2.6887525E-02;  4.0000000E+04;  0.0000000E+00;  3.9996559E+04; -9.0455990E-03;  0.0000000E+00; -1.6437939E-04;  4.1227597E+02;
  4.0141016E-01;  9.9999998E-03; -2.9995749E-02;4913; -6.3353376E-03;  0.0000000E+00;  6.7224537E-06;  1.0001190E+03;  1.0000000E-01;  9.8565117E+01;3;  7.9027182E-01;  0.0000000E+00;  4.2568628E-02;0; -9.2590144E-03;  4.0013723E+04;  0.0000000E+00;  1.5470002E-02;  4.0000000E+04;  0.0000000E+00;  3.9996949E+04; -9.0889847E-03;  0.0000000E+00; -1.7002955E-04;  3.9668823E+02;
  4.0139836E-01;  9.9999998E-03; -1.9996895E-02;4914; -6.3402178E-03;  0.0000000E+00;  5.0142044E-06;  1.0001064E+03;  1.0000000E-01;  8.8096275E+01;3;  7.9043078E-01;  0.0000000E+00;  2.7631193E-02;0; -9.2965299E-03;  4.0012996E+04;  0.0000000E+00;  6.9835819E-03;  4.0000000E+04;  0.0000000E+00;  3.9996836E+04; -9.1203135E-03;  0.0000000E+00; -1.7621691E-04;  3.8606967E+02;
  4.0139067E-01;  9.9999998E-03; -9.9983327E-03;4915; -6.3426895E-03;  0.0000000E+00;  2.6821922E-06;  1.0001034E+03;  1.0000000E-01;  8.5627205E+01;3;  7.9051024E-01;  0.0000000E+00;  1.3723893E-02;0; -9.3201185E-03;  4.0012402E+04;  0.0000000E+00;  1.7619671E-03;  4.0000000E+04;  0.0000000E+00;  3.9996977E+04; -9.1392379E-03;  0.0000000E+00; -1.8088052E-04;  3.8000140E+02;
  4.0138787E-01;  9.9999998E-03;  6.3271126E-09;4916; -6.3434327E-03;  0.0000000E+00;  1.0892729E-08;  1.0000991E+03;  1.0000000E-01;  8.2071754E+01;3;  7.9053664E-01;  0.0000000E+00; -6.6909361E-06;0; -9.3281791E-03;  4.0012301E+04;  0.0000000E+00; -1.5976216E-12;  4.0000000E+04;  0.0000000E+00;  3.9996867E+04; -9.1455765E-03;  0.0000000E+00; -1.8260242E-04;  3.7803229E+02;
  4.0139067E-01;  9.9999998E-03;  9.9983457E-03;4917; -6.3426890E-03;  0.0000000E+00; -2.6605246E-06;  1.0001033E+03;  1.0000000E-01;  8.5627205E+01;3;  7.9053378E-01;  0.0000000E+00; -1.3734264E-02;0; -9.3201306E-03;  4.0012398E+04;  0.0000000E+00;  1.7620012E-03;  4.0000000E+04;  0.0000000E+00;  3.9996977E+04; -9.1392491E-03;  0.0000000E+00; -1.8088181E-04;  3.8000378E+02;
  4.0139836E-01;  9.9999998E-03;  1.9996908E-02;4918; -6.3402206E-03;  0.0000000E+00; -4.9929190E-06;  1.0001064E+03;  1.0000000E-01;  8.8096275E+01;3;  7.9044223E-01;  0.0000000E+00; -2.7636619E-02;0; -9.2965402E-03;  4.0013008E+04;  0.0000000E+00;  6.9837342E-03;  4.0000000E+04;  0.0000000E+00;  3.9996836E+04; -9.1203209E-03;  0.0000000E+00; -1.7621928E-04;  3.8607321E+02;
  4.0141016E-01;  9.9999998E-03;  2.9995762E-02;4919; -6.3353414E-03;  0.0000000E+00; -6.7017008E-06;  1.0001190E+03;  1.0000000E-01;  9.8565117E+01;3;  7.9025853E-01;  0.0000000E+00; -4.2568762E-02;0; -9.2590218E-03;  4.0013719E+04;  0.0000000E+00;  1.5469912E-02;  4.0000000E+04;  0.0000000E+00;  3.9996949E+04; -9.0889893E-03;  0.0000000E+00; -1.7003264E-04;  3.9667563E+02;
  4.0142503E-01;  9.9999998E-03;  3.9994981E-02;4920; -6.3270605E-03;  0.0000000E+00; -7.5746866E-06;  1.0001306E+03;  1.0000000E-01;  1.0824385E+02;3;  7.8982311E-01;  0.0000000E+00; -5.8321957E-02;0; -9.2099989E-03;  4.0014777E+04;  0.0000000E+00;  2.6887333E-02;  4.0000000E+04;  0.0000000E+00;  3.9996555E+04; -9.0456158E-03;  0.0000000E+00; -1.6438286E-04;  4.1226770E+02;
  4.0144202E-01;  9.9999998E-03;  4.9994670E-02;4921; -6.3142017E-03;  0.0000000E+00; -7.5671237E-06;  1.0001479E+03;  1.0000000E-01;  1.2256444E+02;3;  7.8894442E-01;  0.0000000E+00; -7.5125843E-02;0; -9.1522820E-03;  4.0016500E+04;  0.0000000E+00;  4.0741801E-02;  4.0000000E+04;  0.0000000E+00;  3.9996695E+04; -8.9907069E-03;  0.0000000E+00; -1.6157555E-04;  4.3319461E+02;
  4.0146041E-01;  9.9999998E-03;  5.9994742E-02;4922; -6.2956316E-03;  0.0000000E+00; -6.7655601E-06;  1.0001680E+03;  1.0000000E-01;  1.3915656E+02;3;  7.8745371E-01;  0.0000000E+00; -9.2619069E-02;0; -9.0887295E-03;  4.0017840E+04;  0.0000000E+00;  5.6328673E-02;  4.0000000E+04;  0.0000000E+00;  3.9996293E+04; -8.9250002E-03;  0.0000000E+00; -1.6372971E-04;  4.5963220E+02;
  4.1150469E-01;  9.9999998E-03; -9.9998839E-02;4967; -6.2415916E-03;  0.0000000E+00;  2.6112581E-05;  1.0002613E+03;  1.0000000E-01;  2.1648770E+02;3;  8.1154084E-01;  0.0000000E+00;  1.6366369E-01;0; -8.8349218E-03;  4.0025953E+04;  0.0000000E+00;  1.2405019E-01;  4.0000000E+04;  0.0000000E+00;  3.9994980E+04; -8.4565347E-03;  0.0000000E+00; -3.7838690E-04;  6.7153473E+02;
  4.1150156E-01;  9.9999998E-03; -8.9997023E-02;4968; -6.2884027E-03;  0.0000000E+00;  2.4492125E-05;  1.0002213E+03;  1.0000000E-01;  1.8330345E+02;3;  8.1616259E-01;  0.0000000E+00;  1.4667395E-01;0; -8.9129983E-03;  4.0022895E+04;  0.0000000E+00;  1.0991695E-01;  4.0000000E+04;  0.0000000E+00;  3.9995223E+04; -8.5605513E-03;  0.0000000E+00; -3.5244736E-04;  6.4133118E+02;
  4.1149309E-01;  9.9999998E-03; -7.9995073E-02;4969; -6.3280193E-03;  0.0000000E+00;  2.2957618E-05;  1.0001741E+03;  1.0000000E-01;  1.4419345E+02;3;  8.1979418E-01;  0.0000000E+00;  1.3095833E-01;0; -8.9900848E-03;  4.0019035E+04;  0.0000000E+00;  9.3124621E-02;  4.0000000E+04;  0.0000000E+00;  3.9995398E+04; -8.6577320E-03;  0.0000000E+00; -3.3235244E-04;  6.0526135E+02;
  4.1147920E-01;  9.9999998E-03; -6.9993466E-02;4970; -6.3602291E-03;  0.0000000E+00;  2.1395042E-05;  1.0001258E+03;  1.0000000E-01;  1.0419459E+02;3;  8.2266378E-01;  0.0000000E+00;  1.1588688E-01;0; -9.0658050E-03;  4.0014973E+04;  0.0000000E+00;  7.5275175E-02;  4.0000000E+04;  0.0000000E+00;  3.9995953E+04; -8.7472601E-03;  0.0000000E+00; -3.1854515E-04;  5.6435425E+02;
  4.1146320E-01;  9.9999998E-03; -5.9992354E-02;4971; -6.3852542E-03;  0.0000000E+00;  1.9626330E-05;  1.0000807E+03;  1.0000000E-01;  6.6862305E+01;3;  8.2491368E-01;  0.0000000E+00;  1.0032577E-01;0; -9.1391122E-03;  4.0011004E+04;  0.0000000E+00;  5.7696883E-02;  4.0000000E+04;  0.0000000E+00;  3.9996355E+04; -8.8280970E-03;  0.0000000E+00; -3.1101526E-04;  5.2016071E+02;
  4.1144699E-01;  9.9999998E-03; -4.9991935E-02;4972; -6.4037209E-03;  0.0000000E+00;  1.7508652E-05;  1.0000323E+03;  1.0000000E-01;  2.6764675E+01;3;  8.2666183E-01;  0.0000000E+00;  8.4003076E-02;0; -9.2081651E-03;  4.0007203E+04;  0.0000000E+00;  4.1411951E-02;  4.0000000E+04;  0.0000000E+00;  3.9996660E+04; -8.8990778E-03;  0.0000000E+00; -3.0908748E-04;  4.7503494E+02;
  4.1143173E-01;  9.9999998E-03; -3.9992336E-02;4973; -6.4165639E-03;  0.0000000E+00;  1.4932279E-05;  9.9998962E+02;  1.0000000E-01; -8.5923500E+00;3;  8.2786644E-01;  0.0000000E+00;  6.7348853E-02;0; -9.2704771E-03;  4.0003465E+04;  0.0000000E+00;  2.7188411E-02;  4.0000000E+04;  0.0000000E+00;  3.9996652E+04; -8.9590605E-03;  0.0000000E+00; -3.1141678E-04;  4.3197910E+02;
  4.1141900E-01;  9.9999998E-03; -2.9993527E-02;4974; -6.4249025E-03;  0.0000000E+00;  1.1826750E-05;  9.9995721E+02;  1.0000000E-01; -3.5455788E+01;3;  8.2861036E-01;  0.0000000E+00;  5.0726227E-02;0; -9.3231630E-03;  4.0000609E+04;  0.0000000E+00;  1.5588392E-02;  4.0000000E+04;  0.0000000E+00;  3.9997047E+04; -9.0069696E-03;  0.0000000E+00; -3.1619289E-04;  3.9439795E+02;
  4.1140896E-01;  9.9999998E-03; -1.9995337E-02;4975; -6.4298580E-03;  0.0000000E+00;  8.2222714E-06;  9.9992712E+02;  1.0000000E-01; -6.0393353E+01;3;  8.2903570E-01;  0.0000000E+00;  3.3945158E-02;0; -9.3633058E-03;  3.9998410E+04;  0.0000000E+00;  7.0214653E-03;  4.0000000E+04;  0.0000000E+00;  3.9997270E+04; -9.0418728E-03;  0.0000000E+00; -3.2143295E-04;  3.6531213E+02;
  4.1140249E-01;  9.9999998E-03; -9.9975523E-03;4976; -6.4323940E-03;  0.0000000E+00;  4.2261772E-06;  9.9991541E+02;  1.0000000E-01; -7.0072090E+01;3;  8.2923478E-01;  0.0000000E+00;  1.6999755E-02;0; -9.3885045E-03;  3.9997172E+04;  0.0000000E+00;  1.7693161E-03;  4.0000000E+04;  0.0000000E+00;  3.9997355E+04; -9.0631200E-03;  0.0000000E+00; -3.2538461E-04;  3.4698068E+02;
  4.1140014E-01;  9.9999998E-03;  6.6885164E-09;4977; -6.4331633E-03;  0.0000000E+00;  1.1876291E-08;  9.9990930E+02;  1.0000000E-01; -7.5158371E+01;3;  8.2930964E-01;  0.0000000E+00; -2.7790049E-06;0; -9.3970997E-03;  3.9996891E+04;  0.0000000E+00; -2.5948204E-12;  4.0000000E+04;  0.0000000E+00;  3.9997441E+04; -9.0702567E-03;  0.0000000E+00; -3.2684283E-04;  3.4072891E+02;
  4.1140249E-01;  9.9999998E-03;  9.9975653E-03;4978; -6.4323950E-03;  0.0000000E+00; -4.2026218E-06;  9.9991534E+02;  1.0000000E-01; -7.0121475E+01;3;  8.2924765E-01;  0.0000000E+00; -1.7002461E-02;0; -9.3885111E-03;  3.9997168E+04;  0.0000000E+00;  1.7694779E-03;  4.0000000E+04;  0.0000000E+00;  3.9997355E+04; -9.0631256E-03;  0.0000000E+00; -3.2538554E-04;  3.4698615E+02;
  4.1140896E-01;  9.9999998E-03;  1.9995350E-02;4979; -6.4298608E-03;  0.0000000E+00; -8.1988292E-06;  9.9992719E+02;  1.0000000E-01; -6.0343971E+01;3;  8.2905728E-01;  0.0000000E+00; -3.3943046E-02;0; -9.3633197E-03;  3.9998406E+04;  0.0000000E+00;  7.0215836E-03;  4.0000000E+04;  0.0000000E+00;  3.9997266E+04; -9.0418849E-03;  0.0000000E+00; -3.2143464E-04;  3.6530838E+02;
  4.1141900E-01;  9.9999998E-03;  2.9993540E-02;4980; -6.4249057E-03;  0.0000000E+00; -1.1803721E-05;  9.9995715E+02;  1.0000000E-01; -3.5505169E+01;3;  8.2862598E-01;  0.0000000E+00; -5.0720595E-02;0; -9.3231695E-03;  4.0000613E+04;  0.0000000E+00;  1.5589042E-02;  4.0000000E+04;  0.0000000E+00;  3.9997047E+04; -9.0069752E-03;  0.0000000E+00; -3.1619458E-04;  3.9439774E+02;
  4.1143173E-01;  9.9999998E-03;  3.9992347E-02;4981; -6.4165690E-03;  0.0000000E+00; -1.4909810E-05;  9.9998962E+02;  1.0000000E-01; -8.5923500E+00;3;  8.2787412E-01;  0.0000000E+00; -6.7340866E-02;0; -9.2704929E-03;  4.0003465E+04;  0.0000000E+00;  2.7188249E-02;  4.0000000E+04;  0.0000000E+00;  3.9996652E+04; -8.9590745E-03;  0.0000000E+00; -3.1141847E-04;  4.3198004E+02;
  4.1144699E-01;  9.9999998E-03;  4.9991947E-02;4982; -6.4037270E-03;  0.0000000E+00; -1.7486364E-05;  1.0000323E+03;  1.0000000E-01;  2.6764675E+01;3;  8.2669050E-01;  0.0000000E+00; -8.3993390E-02;0; -9.2081763E-03;  4.0007211E+04;  0.0000000E+00;  4.1412424E-02;  4.0000000E+04;  0.0000000E+00;  3.9996660E+04; -8.8990880E-03;  0.0000000E+00; -3.0908870E-04;  4.7503372E+02;
  4.1146320E-01;  9.9999998E-03;  5.9992369E-02;4983; -6.3852612E-03;  0.0000000E+00; -1.9604009E-05;  1.0000807E+03;  1.0000000E-01;  6.6862305E+01;3;  8.2495433E-01;  0.0000000E+00; -1.0031561E-01;0; -9.1391392E-03;  4.0011004E+04;  0.0000000E+00;  5.7697393E-02;  4.0000000E+04;  0.0000000E+00;  3.9996355E+04; -8.8281231E-03;  0.0000000E+00; -3.1101599E-04;  5.2017273E+02;
  4.2148760E-01;  9.9999998E-03; -1.0000336E-01;5028; -6.3312287E-03;  0.0000000E+00;  5.0207644E-05;  1.0002798E+03;  1.0000000E-01;  2.3179591E+02;3;  8.4894389E-01;  0.0000000E+00;  1.6452169E-01;0; -8.8652065E-03;  4.0027602E+04;  0.0000000E+00;  1.2782718E-01;  4.0000000E+04;  0.0000000E+00;  3.9994602E+04; -8.3349328E-03;  0.0000000E+00; -5.3027330E-04;  7.3347284E+02;
  4.2149073E-01;  9.9999998E-03; -9.0000302E-02;5029; -6.3784877E-03;  0.0000000E+00;  4.6167039E-05;  1.0002222E+03;  1.0000000E-01;  1.8409355E+02;3;  8.5338312E-01;  0.0000000E+00;  1.5050578E-01;0; -8.9539355E-03;  4.0023316E+04;  0.0000000E+00;  1.1158682E-01;  4.0000000E+04;  0.0000000E+00;  3.9994707E+04; -8.4454436E-03;  0.0000000E+00; -5.0849159E-04;  7.1411517E+02;
  4.2148742E-01;  9.9999998E-03; -7.9997405E-02;5030; -6.4187110E-03;  0.0000000E+00;  4.1905085E-05;  1.0001566E+03;  1.0000000E-01;  1.2967534E+02;3;  8.5733050E-01;  0.0000000E+00;  1.3543743E-01;0; -9.0409778E-03;  4.0017887E+04;  0.0000000E+00;  9.3403116E-02;  4.0000000E+04;  0.0000000E+00;  3.9994891E+04; -8.5494136E-03;  0.0000000E+00; -4.9156439E-04;  6.8155853E+02;
  4.2148018E-01;  9.9999998E-03; -6.9994904E-02;5031; -6.4517828E-03;  0.0000000E+00;  3.7429418E-05;  1.0000894E+03;  1.0000000E-01;  7.4071976E+01;3;  8.6064261E-01;  0.0000000E+00;  1.1996030E-01;0; -9.1258986E-03;  4.0012152E+04;  0.0000000E+00;  7.4762158E-02;  4.0000000E+04;  0.0000000E+00;  3.9995105E+04; -8.6461185E-03;  0.0000000E+00; -4.7978028E-04;  6.3643085E+02;
  4.2147034E-01;  9.9999998E-03; -5.9992999E-02;5032; -6.4779185E-03;  0.0000000E+00;  3.2714353E-05;  1.0000200E+03;  1.0000000E-01;  1.6592123E+01;3;  8.6341023E-01;  0.0000000E+00;  1.0359709E-01;0; -9.2075514E-03;  4.0006109E+04;  0.0000000E+00;  5.6839030E-02;  4.0000000E+04;  0.0000000E+00;  3.9995703E+04; -8.7344795E-03;  0.0000000E+00; -4.7307141E-04;  5.8091064E+02;
  4.2145905E-01;  9.9999998E-03; -4.9991950E-02;5033; -6.4976774E-03;  0.0000000E+00;  2.7759144E-05;  9.9994659E+02;  1.0000000E-01; -4.4245663E+01;3;  8.6555547E-01;  0.0000000E+00;  8.6869732E-02;0; -9.2839785E-03;  4.0000191E+04;  0.0000000E+00;  4.0521044E-02;  4.0000000E+04;  0.0000000E+00;  3.9995840E+04; -8.8130832E-03;  0.0000000E+00; -4.7089541E-04;  5.1906799E+02;
  4.2144743E-01;  9.9999998E-03; -3.9991941E-02;5034; -6.5118852E-03;  0.0000000E+00;  2.2573300E-05;  9.9988654E+02;  1.0000000E-01; -9.4022034E+01;3;  8.6710787E-01;  0.0000000E+00;  6.9868490E-02;0; -9.3525583E-03;  3.9994957E+04;  0.0000000E+00;  2.6455611E-02;  4.0000000E+04;  0.0000000E+00;  3.9996070E+04; -8.8803638E-03;  0.0000000E+00; -4.7219460E-04;  4.5655832E+02;
  4.2143679E-01;  9.9999998E-03; -2.9992932E-02;5035; -6.5215072E-03;  0.0000000E+00;  1.7170447E-05;  9.9983575E+02;  1.0000000E-01; -1.3609491E+02;3;  8.6814177E-01;  0.0000000E+00;  5.2614160E-02;0; -9.4102388E-03;  3.9990695E+04;  0.0000000E+00;  1.5101131E-02;  4.0000000E+04;  0.0000000E+00;  3.9996465E+04; -8.9347027E-03;  0.0000000E+00; -4.7553610E-04;  3.9976376E+02;
  4.2142770E-01;  9.9999998E-03; -1.9994754E-02;5036; -6.5275175E-03;  0.0000000E+00;  1.1573610E-05;  9.9979382E+02;  1.0000000E-01; -1.7080998E+02;3;  8.6877859E-01;  0.0000000E+00;  3.5192844E-02;0; -9.4540510E-03;  3.9987117E+04;  0.0000000E+00;  6.7797434E-03;  4.0000000E+04;  0.0000000E+00;  3.9996879E+04; -8.9746965E-03;  0.0000000E+00; -4.7935470E-04;  3.5463504E+02;
  4.2142206E-01;  9.9999998E-03; -9.9972133E-03;5037; -6.5307515E-03;  0.0000000E+00;  5.8323221E-06;  9.9976959E+02;  1.0000000E-01; -1.9090819E+02;3;  8.6910832E-01;  0.0000000E+00;  1.7632734E-02;0; -9.4814748E-03;  3.9985137E+04;  0.0000000E+00;  1.7049651E-03;  4.0000000E+04;  0.0000000E+00;  3.9997082E+04; -8.9991894E-03;  0.0000000E+00; -4.8228548E-04;  3.2568103E+02;
  4.2142004E-01;  9.9999998E-03;  7.0662307E-09;5038; -6.5317634E-03;  0.0000000E+00;  1.2938284E-08;  9.9976111E+02;  1.0000000E-01; -1.9792033E+02;3;  8.6921906E-01;  0.0000000E+00;  2.7081912E-06;0; -9.4908196E-03;  3.9984434E+04;  0.0000000E+00; -4.5601899E-12;  4.0000000E+04;  0.0000000E+00;  3.9997121E+04; -9.0074455E-03;  0.0000000E+00; -4.8337402E-04;  3.1571381E+02;
  4.2142206E-01;  9.9999998E-03;  9.9972272E-03;5039; -6.5307519E-03;  0.0000000E+00; -5.8066166E-06;  9.9976959E+02;  1.0000000E-01; -1.9090819E+02;3;  8.6912161E-01;  0.0000000E+00; -1.7624140E-02;0; -9.4814692E-03;  3.9985145E+04;  0.0000000E+00;  1.7050598E-03;  4.0000000E+04;  0.0000000E+00;  3.9997086E+04; -8.9991828E-03;  0.0000000E+00; -4.8228589E-04;  3.2568076E+02;
  4.2142770E-01;  9.9999998E-03;  1.9994767E-02;5040; -6.5275198E-03;  0.0000000E+00; -1.1548287E-05;  9.9979376E+02;  1.0000000E-01; -1.7085936E+02;3;  8.6878192E-01;  0.0000000E+00; -3.5185702E-02;0; -9.4540650E-03;  3.9987113E+04;  0.0000000E+00;  6.7797429E-03;  4.0000000E+04;  0.0000000E+00;  3.9996879E+04; -8.9747095E-03;  0.0000000E+00; -4.7935502E-04;  3.5462769E+02;
  4.2143679E-01;  9.9999998E-03;  2.9992947E-02;5041; -6.5215114E-03;  0.0000000E+00; -1.7145423E-05;  9.9983575E+02;  1.0000000E-01; -1.3609491E+02;3;  8.6816776E-01;  0.0000000E+00; -5.2605871E-02;0; -9.4102398E-03;  3.9990695E+04;  0.0000000E+00;  1.5101091E-02;  4.0000000E+04;  0.0000000E+00;  3.9996465E+04; -8.9347037E-03;  0.0000000E+00; -4.7553654E-04;  3.9975732E+02;
  4.2144743E-01;  9.9999998E-03;  3.9991956E-02;5042; -6.5118889E-03;  0.0000000E+00; -2.2548542E-05;  9.9988654E+02;  1.0000000E-01; -9.4022034E+01;3;  8.6714375E-01;  0.0000000E+00; -6.9855511E-02;0; -9.3525425E-03;  3.9994957E+04;  0.0000000E+00;  2.6454829E-02;  4.0000000E+04;  0.0000000E+00;  3.9996074E+04; -8.8803479E-03;  0.0000000E+00; -4.7219481E-04;  4.5655490E+02;
  4.2145905E-01;  9.9999998E-03;  4.9991965E-02;5043; -6.4976830E-03;  0.0000000E+00; -2.7734428E-05;  9.9994666E+02;  1.0000000E-01; -4.4196281E+01;3;  8.6559606E-01;  0.0000000E+00; -8.6857900E-02;0; -9.2839776E-03;  4.0000195E+04;  0.0000000E+00;  4.0521804E-02;  4.0000000E+04;  0.0000000E+00;  3.9995840E+04; -8.8130832E-03;  0.0000000E+00; -4.7089459E-04;  5.1905951E+02;
  4.2147034E-01;  9.9999998E-03;  5.9993014E-02;5044; -6.4779245E-03;  0.0000000E+00; -3.2689491E-05;  1.0000200E+03;  1.0000000E-01;  1.6592123E+01;3;  8.6344802E-01;  0.0000000E+00; -1.0358380E-01;0; -9.2075663E-03;  4.0006102E+04;  0.0000000E+00;  5.6839675E-02;  4.0000000E+04;  0.0000000E+00;  3.9995707E+04; -8.7344963E-03;  0.0000000E+00; -4.7306975E-04;  5.8090588E+02;
  4.3147784E-01;  9.9999998E-03; -1.0000942E-01;5089; -6.4189588E-03;  0.0000000E+00;  7.2514573E-05;  1.0003088E+03;  1.0000000E-01;  2.5579523E+02;3;  8.8606948E-01;  0.0000000E+00;  1.6859929E-01;0; -8.8950386E-03;  4.0030523E+04;  0.0000000E+00;  1.2253368E-01;  4.0000000E+04;  0.0000000E+00;  3.9994047E+04; -8.1988694E-03;  0.0000000E+00; -6.9616933E-04;  7.8826245E+02;
  4.3148559E-01;  9.9999998E-03; -9.0005517E-02;5090; -6.4671342E-03;  0.0000000E+00;  6.6128108E-05;  1.0002399E+03;  1.0000000E-01;  1.9871043E+02;3;  8.9103812E-01;  0.0000000E+00;  1.5395296E-01;0; -8.9948485E-03;  4.0025043E+04;  0.0000000E+00;  1.0663473E-01;  4.0000000E+04;  0.0000000E+00;  3.9994078E+04; -8.3162859E-03;  0.0000000E+00; -6.7856227E-04;  7.7741071E+02;
  4.3148962E-01;  9.9999998E-03; -8.0001749E-02;5091; -6.5087359E-03;  0.0000000E+00;  5.9303031E-05;  1.0001603E+03;  1.0000000E-01;  1.3283575E+02;3;  8.9543831E-01;  0.0000000E+00;  1.3885726E-01;0; -9.0923682E-03;  4.0018781E+04;  0.0000000E+00;  8.8969052E-02;  4.0000000E+04;  0.0000000E+00;  3.9994160E+04; -8.4276777E-03;  0.0000000E+00; -6.6469080E-04;  7.4747137E+02;
  4.3148974E-01;  9.9999998E-03; -6.9998428E-02;5092; -6.5436540E-03;  0.0000000E+00;  5.2096650E-05;  1.0000718E+03;  1.0000000E-01;  5.9553871E+01;3;  8.9942330E-01;  0.0000000E+00;  1.2251714E-01;0; -9.1870269E-03;  4.0011445E+04;  0.0000000E+00;  7.0958309E-02;  4.0000000E+04;  0.0000000E+00;  3.9994480E+04; -8.5323658E-03;  0.0000000E+00; -6.5466110E-04;  6.9892242E+02;
  4.3148682E-01;  9.9999998E-03; -5.9995901E-02;5093; -6.5720580E-03;  0.0000000E+00;  4.4649641E-05;  9.9998541E+02;  1.0000000E-01; -1.2098423E+01;3;  9.0273196E-01;  0.0000000E+00;  1.0572237E-01;0; -9.2775160E-03;  4.0003965E+04;  0.0000000E+00;  5.3737942E-02;  4.0000000E+04;  0.0000000E+00;  3.9994586E+04; -8.6290967E-03;  0.0000000E+00; -6.4841949E-04;  6.3448804E+02;
  4.3148157E-01;  9.9999998E-03; -4.9994402E-02;5094; -6.5943557E-03;  0.0000000E+00;  3.7088143E-05;  9.9990045E+02;  1.0000000E-01; -8.2466805E+01;3;  9.0533680E-01;  0.0000000E+00;  8.8657893E-02;0; -9.3617719E-03;  3.9996879E+04;  0.0000000E+00;  3.8154975E-02;  4.0000000E+04;  0.0000000E+00;  3.9995059E+04; -8.7161632E-03;  0.0000000E+00; -6.4560876E-04;  5.5981097E+02;
  4.3147421E-01;  9.9999998E-03; -3.9993912E-02;5095; -6.6111470E-03;  0.0000000E+00;  2.9521079E-05;  9.9982446E+02;  1.0000000E-01; -1.4542798E+02;3;  9.0731114E-01;  0.0000000E+00;  7.1297258E-02;0; -9.4369780E-03;  3.9990391E+04;  0.0000000E+00;  2.4810934E-02;  4.0000000E+04;  0.0000000E+00;  3.9995816E+04; -8.7914923E-03;  0.0000000E+00; -6.4548547E-04;  4.8254080E+02;
  4.3146640E-01;  9.9999998E-03; -2.9994482E-02;5096; -6.6231498E-03;  0.0000000E+00;  2.2018743E-05;  9.9975989E+02;  1.0000000E-01; -1.9890796E+02;3;  9.0870970E-01;  0.0000000E+00;  5.3707410E-02;0; -9.4999811E-03;  3.9984828E+04;  0.0000000E+00;  1.4111872E-02;  4.0000000E+04;  0.0000000E+00;  3.9996266E+04; -8.8529373E-03;  0.0000000E+00; -6.4704363E-04;  4.1115192E+02;
  4.3145961E-01;  9.9999998E-03; -1.9995855E-02;5097; -6.6310843E-03;  0.0000000E+00;  1.4610686E-05;  9.9971570E+02;  1.0000000E-01; -2.3554889E+02;3;  9.0962338E-01;  0.0000000E+00;  3.5922512E-02;0; -9.5476862E-03;  3.9980621E+04;  0.0000000E+00;  6.3175615E-03;  4.0000000E+04;  0.0000000E+00;  3.9996750E+04; -8.8985050E-03;  0.0000000E+00; -6.4918125E-04;  3.5380414E+02;
  4.3145481E-01;  9.9999998E-03; -9.9977506E-03;5098; -6.6355662E-03;  0.0000000E+00;  7.2872995E-06;  9.9968311E+02;  1.0000000E-01; -2.6256049E+02;3;  9.1012651E-01;  0.0000000E+00;  1.7999625E-02;0; -9.5774615E-03;  3.9978059E+04;  0.0000000E+00;  1.5858923E-03;  4.0000000E+04;  0.0000000E+00;  3.9997023E+04; -8.9265462E-03;  0.0000000E+00; -6.5091514E-04;  3.1670609E+02;
  4.3145338E-01;  9.9999998E-03;  7.4422948E-09;5099; -6.6370144E-03;  0.0000000E+00;  1.3887993E-08;  9.9967163E+02;  1.0000000E-01; -2.7204169E+02;3;  9.1028720E-01;  0.0000000E+00;  5.1942197E-06;0; -9.5876083E-03;  3.9977070E+04;  0.0000000E+00; -4.0272512E-12;  4.0000000E+04;  0.0000000E+00;  3.9997242E+04; -8.9360308E-03;  0.0000000E+00; -6.5157766E-04;  3.0393781E+02;
  4.3145481E-01;  9.9999998E-03;  9.9977655E-03;5100; -6.6355667E-03;  0.0000000E+00; -7.2594394E-06;  9.9968317E+02;  1.0000000E-01; -2.6251111E+02;3;  9.1013217E-01;  0.0000000E+00; -1.7983681E-02;0; -9.5774671E-03;  3.9978059E+04;  0.0000000E+00;  1.5858795E-03;  4.0000000E+04;  0.0000000E+00;  3.9997023E+04; -8.9265527E-03;  0.0000000E+00; -6.5091479E-04;  3.1669904E+02;
  4.3145961E-01;  9.9999998E-03;  1.9995870E-02;5101; -6.6310856E-03;  0.0000000E+00; -1.4582931E-05;  9.9971558E+02;  1.0000000E-01; -2.3564766E+02;3;  9.0963447E-01;  0.0000000E+00; -3.5903167E-02;0; -9.5476946E-03;  3.9980625E+04;  0.0000000E+00;  6.3175880E-03;  4.0000000E+04;  0.0000000E+00;  3.9996750E+04; -8.8985134E-03;  0.0000000E+00; -6.4918125E-04;  3.5379874E+02;
  4.3146640E-01;  9.9999998E-03;  2.9994495E-02;5102; -6.6231531E-03;  0.0000000E+00; -2.1991244E-05;  9.9975989E+02;  1.0000000E-01; -1.9890796E+02;3;  9.0873080E-01;  0.0000000E+00; -5.3692330E-02;0; -9.4999876E-03;  3.9984828E+04;  0.0000000E+00;  1.4112314E-02;  4.0000000E+04;  0.0000000E+00;  3.9996266E+04; -8.8529456E-03;  0.0000000E+00; -6.4704224E-04;  4.1115283E+02;
  4.3147421E-01;  9.9999998E-03;  3.9993927E-02;5103; -6.6111516E-03;  0.0000000E+00; -2.9494258E-05;  9.9982428E+02;  1.0000000E-01; -1.4557613E+02;3;  9.0733653E-01;  0.0000000E+00; -7.1286350E-02;0; -9.4369836E-03;  3.9990395E+04;  0.0000000E+00;  2.4810668E-02;  4.0000000E+04;  0.0000000E+00;  3.9995816E+04; -8.7914998E-03;  0.0000000E+00; -6.4548373E-04;  4.8253259E+02;
  4.3148157E-01;  9.9999998E-03;  4.9994413E-02;5104; -6.5943617E-03;  0.0000000E+00; -3.7060985E-05;  9.9990039E+02;  1.0000000E-01; -8.2516182E+01;3;  9.0537232E-01;  0.0000000E+00; -8.8645071E-02;0; -9.3617728E-03;  3.9996883E+04;  0.0000000E+00;  3.8155235E-02;  4.0000000E+04;  0.0000000E+00;  3.9995066E+04; -8.7161660E-03;  0.0000000E+00; -6.4560655E-04;  5.5981488E+02;
  4.3148682E-01;  9.9999998E-03;  5.9995916E-02;5105; -6.5720631E-03;  0.0000000E+00; -4.4622313E-05;  9.9998541E+02;  1.0000000E-01; -1.2098423E+01;3;  9.0275675E-01;  0.0000000E+00; -1.0571371E-01;0; -9.2775142E-03;  4.0003969E+04;  0.0000000E+00;  5.3736653E-02;  4.0000000E+04;  0.0000000E+00;  3.9994586E+04; -8.6290976E-03;  0.0000000E+00; -6.4841658E-04;  6.3449487E+02;
  4.4147128E-01;  9.9999998E-03; -1.0001574E-01;5150; -6.5035773E-03;  0.0000000E+00;  9.2245020E-05;  1.0003436E+03;  1.0000000E-01;  2.8473270E+02;3;  9.2346913E-01;  0.0000000E+00;  1.7274711E-01;0; -8.9166500E-03;  4.0033469E+04;  0.0000000E+00;  1.0810661E-01;  4.0000000E+04;  0.0000000E+00;  3.9993828E+04; -8.0412654E-03;  0.0000000E+00; -8.7538431E-04;  8.2624078E+02;
  4.4148272E-01;  9.9999998E-03; -9.0011053E-02;5151; -6.5530771E-03;  0.0000000E+00;  8.3625477E-05;  1.0002677E+03;  1.0000000E-01;  2.2182089E+02;3;  9.2913014E-01;  0.0000000E+00;  1.5750502E-01;0; -9.0268776E-03;  4.0027582E+04;  0.0000000E+00;  9.4852254E-02;  4.0000000E+04;  0.0000000E+00;  3.9993523E+04; -8.1651490E-03;  0.0000000E+00; -8.6172880E-04;  8.2062109E+02;
  4.4149110E-01;  9.9999998E-03; -8.0006376E-02;5152; -6.5966183E-03;  0.0000000E+00;  7.4378200E-05;  1.0001846E+03;  1.0000000E-01;  1.5288457E+02;3;  9.3438143E-01;  0.0000000E+00;  1.4110504E-01;0; -9.1341008E-03;  4.0020754E+04;  0.0000000E+00;  7.9644032E-02;  4.0000000E+04;  0.0000000E+00;  3.9993758E+04; -8.2835276E-03;  0.0000000E+00; -8.5057324E-04;  7.9210016E+02;
  4.4149622E-01;  9.9999998E-03; -7.0002280E-02;5153; -6.6341162E-03;  0.0000000E+00;  6.4701089E-05;  1.0000916E+03;  1.0000000E-01;  7.5849709E+01;3;  9.3897212E-01;  0.0000000E+00;  1.2433100E-01;0; -9.2376946E-03;  4.0013109E+04;  0.0000000E+00;  6.3818619E-02;  4.0000000E+04;  0.0000000E+00;  3.9994164E+04; -8.3957482E-03;  0.0000000E+00; -8.4194599E-04;  7.4120502E+02;
  4.4149879E-01;  9.9999998E-03; -5.9999179E-02;5154; -6.6656386E-03;  0.0000000E+00;  5.4838183E-05;  9.9999591E+02;  1.0000000E-01; -3.4073110E+00;3;  9.4281906E-01;  0.0000000E+00;  1.0726310E-01;0; -9.3362406E-03;  4.0004953E+04;  0.0000000E+00;  4.8480853E-02;  4.0000000E+04;  0.0000000E+00;  3.9994582E+04; -8.5003795E-03;  0.0000000E+00; -8.3586120E-04;  6.7144702E+02;
  4.4149902E-01;  9.9999998E-03; -4.9997222E-02;5155; -6.6913851E-03;  0.0000000E+00;  4.5015731E-05;  9.9990277E+02;  1.0000000E-01; -8.0540932E+01;3;  9.4596177E-01;  0.0000000E+00;  8.9893676E-02;0; -9.4275093E-03;  3.9997215E+04;  0.0000000E+00;  3.4482099E-02;  4.0000000E+04;  0.0000000E+00;  3.9995281E+04; -8.5953474E-03;  0.0000000E+00; -8.3216181E-04;  5.8919513E+02;
  4.4149733E-01;  9.9999998E-03; -3.9996386E-02;5156; -6.7116655E-03;  0.0000000E+00;  3.5407906E-05;  9.9982227E+02;  1.0000000E-01; -1.4725510E+02;3;  9.4837809E-01;  0.0000000E+00;  7.2276548E-02;0; -9.5086126E-03;  3.9990191E+04;  0.0000000E+00;  2.2437809E-02;  4.0000000E+04;  0.0000000E+00;  3.9996023E+04; -8.6781634E-03;  0.0000000E+00; -8.3044899E-04;  5.0323926E+02;
  4.4149357E-01;  9.9999998E-03; -2.9996520E-02;5157; -6.7268508E-03;  0.0000000E+00;  2.6121452E-05;  9.9975488E+02;  1.0000000E-01; -2.0305598E+02;3;  9.5016348E-01;  0.0000000E+00;  5.4432675E-02;0; -9.5762759E-03;  3.9984137E+04;  0.0000000E+00;  1.2761527E-02;  4.0000000E+04;  0.0000000E+00;  3.9996547E+04; -8.7461639E-03;  0.0000000E+00; -8.3011168E-04;  4.2336343E+02;
  4.4148979E-01;  9.9999998E-03; -1.9997360E-02;5158; -6.7373421E-03;  0.0000000E+00;  1.7177408E-05;  9.9970166E+02;  1.0000000E-01; -2.4715350E+02;3;  9.5136333E-01;  0.0000000E+00;  3.6407501E-02;0; -9.6273562E-03;  3.9979727E+04;  0.0000000E+00;  5.7111783E-03;  4.0000000E+04;  0.0000000E+00;  3.9996992E+04; -8.7968577E-03;  0.0000000E+00; -8.3049882E-04;  3.5881989E+02;
  4.4148713E-01;  9.9999998E-03; -9.9985879E-03;5159; -6.7434851E-03;  0.0000000E+00;  8.5165038E-06;  9.9967310E+02;  1.0000000E-01; -2.7085654E+02;3;  9.5205194E-01;  0.0000000E+00;  1.8246200E-02;0; -9.6591795E-03;  3.9976930E+04;  0.0000000E+00;  1.4331996E-03;  4.0000000E+04;  0.0000000E+00;  3.9997395E+04; -8.8281650E-03;  0.0000000E+00; -8.3101453E-04;  3.1693988E+02;
  4.4148558E-01;  9.9999998E-03;  7.8146432E-09;5160; -6.7454986E-03;  0.0000000E+00;  1.5027798E-08;  9.9966260E+02;  1.0000000E-01; -2.7954764E+02;3;  9.5229000E-01;  0.0000000E+00;  1.3036070E-05;0; -9.6699959E-03;  3.9975934E+04;  0.0000000E+00; -4.9164596E-12;  4.0000000E+04;  0.0000000E+00;  3.9997586E+04; -8.8387718E-03;  0.0000000E+00; -8.3122437E-04;  3.0243356E+02;
  4.4148713E-01;  9.9999998E-03;  9.9986037E-03;5161; -6.7434856E-03;  0.0000000E+00; -8.4866560E-06;  9.9967310E+02;  1.0000000E-01; -2.7085654E+02;3;  9.5207417E-01;  0.0000000E+00; -1.8224828E-02;0; -9.6591841E-03;  3.9976934E+04;  0.0000000E+00;  1.4332129E-03;  4.0000000E+04;  0.0000000E+00;  3.9997395E+04; -8.8281697E-03;  0.0000000E+00; -8.3101407E-04;  3.1694363E+02;
  4.4148979E-01;  9.9999998E-03;  1.9997375E-02;5162; -6.7373444E-03;  0.0000000E+00; -1.7147235E-05;  9.9970166E+02;  1.0000000E-01; -2.4715350E+02;3;  9.5137632E-01;  0.0000000E+00; -3.6382340E-02;0; -9.6273571E-03;  3.9979727E+04;  0.0000000E+00;  5.7109604E-03;  4.0000000E+04;  0.0000000E+00;  3.9996992E+04; -8.7968586E-03;  0.0000000E+00; -8.3049835E-04;  3.5882028E+02;
  4.4149357E-01;  9.9999998E-03;  2.9996535E-02;5163; -6.7268540E-03;  0.0000000E+00; -2.6091424E-05;  9.9975488E+02;  1.0000000E-01; -2.0305598E+02;3;  9.5017898E-01;  0.0000000E+00; -5.4409105E-02;0; -9.5762853E-03;  3.9984137E+04;  0.0000000E+00;  1.2761290E-02;  4.0000000E+04;  0.0000000E+00;  3.9996543E+04; -8.7461751E-03;  0.0000000E+00; -8.3010976E-04;  4.2334827E+02;
  4.4149733E-01;  9.9999998E-03;  3.9996400E-02;5164; -6.7116693E-03;  0.0000000E+00; -3.5377856E-05;  9.9982220E+02;  1.0000000E-01; -1.4730447E+02;3;  9.4841403E-01;  0.0000000E+00; -7.2253302E-02;0; -9.5086023E-03;  3.9990191E+04;  0.0000000E+00;  2.2436913E-02;  4.0000000E+04;  0.0000000E+00;  3.9996023E+04; -8.6781560E-03;  0.0000000E+00; -8.3044643E-04;  5.0323364E+02;
  4.4149902E-01;  9.9999998E-03;  4.9997233E-02;5165; -6.6913902E-03;  0.0000000E+00; -4.4985281E-05;  9.9990283E+02;  1.0000000E-01; -8.0491554E+01;3;  9.4598502E-01;  0.0000000E+00; -8.9876920E-02;0; -9.4275065E-03;  3.9997215E+04;  0.0000000E+00;  3.4481980E-02;  4.0000000E+04;  0.0000000E+00;  3.9995281E+04; -8.5953483E-03;  0.0000000E+00; -8.3215785E-04;  5.8918909E+02;
  4.4149879E-01;  9.9999998E-03;  5.9999190E-02;5166; -6.6656447E-03;  0.0000000E+00; -5.4807755E-05;  9.9999585E+02;  1.0000000E-01; -3.4566925E+00;3;  9.4285876E-01;  0.0000000E+00; -1.0725267E-01;0; -9.3362313E-03;  4.0004953E+04;  0.0000000E+00;  4.8480827E-02;  4.0000000E+04;  0.0000000E+00;  3.9994578E+04; -8.5003749E-03;  0.0000000E+00; -8.3585631E-04;  6.7145734E+02;
  4.5145321E-01;  9.9999998E-03; -1.0001941E-01;5211; -6.5843211E-03;  0.0000000E+00;  1.0933292E-04;  1.0003751E+03;  1.0000000E-01;  3.1080603E+02;3;  9.6158695E-01;  0.0000000E+00;  1.7557377E-01;0; -8.9263488E-03;  4.0035980E+04;  0.0000000E+00;  8.5145094E-02;  4.0000000E+04;  0.0000000E+00;  3.9993621E+04; -7.8591704E-03;  0.0000000E+00; -1.0671779E-03;  8.3923346E+02;
  4.5146722E-01;  9.9999998E-03; -9.0014488E-02;5212; -6.6353688E-03;  0.0000000E+00;  9.8470344E-05;  1.0003015E+03;  1.0000000E-01;  2.4977071E+02;3;  9.6815568E-01;  0.0000000E+00;  1.5927815E-01;0; -9.0454984E-03;  4.0030426E+04;  0.0000000E+00;  7.6359794E-02;  4.0000000E+04;  0.0000000E+00;  3.9993586E+04; -7.9883225E-03;  0.0000000E+00; -1.0571755E-03;  8.3432245E+02;
  4.5147949E-01;  9.9999998E-03; -8.0009475E-02;5213; -6.6811815E-03;  0.0000000E+00;  8.6981767E-05;  1.0002162E+03;  1.0000000E-01;  1.7915543E+02;3;  9.7406030E-01;  0.0000000E+00;  1.4256424E-01;0; -9.1608642E-03;  4.0023383E+04;  0.0000000E+00;  6.5325499E-02;  4.0000000E+04;  0.0000000E+00;  3.9993641E+04; -8.1124026E-03;  0.0000000E+00; -1.0484613E-03;  8.0563812E+02;
  4.5149004E-01;  9.9999998E-03; -7.0005007E-02;5214; -6.7216740E-03;  0.0000000E+00;  7.5135533E-05;  1.0001277E+03;  1.0000000E-01;  1.0577479E+02;3;  9.7925538E-01;  0.0000000E+00;  1.2554780E-01;0; -9.2717344E-03;  4.0016016E+04;  0.0000000E+00;  5.3172976E-02;  4.0000000E+04;  0.0000000E+00;  3.9994230E+04; -8.2306918E-03;  0.0000000E+00; -1.0410430E-03;  7.5388550E+02;
  4.5149851E-01;  9.9999998E-03; -6.0001511E-02;5215; -6.7567821E-03;  0.0000000E+00;  6.3228843E-05;  1.0000360E+03;  1.0000000E-01;  2.9826317E+01;3;  9.8369688E-01;  0.0000000E+00;  1.0823889E-01;0; -9.3766283E-03;  4.0008191E+04;  0.0000000E+00;  4.0914826E-02;  4.0000000E+04;  0.0000000E+00;  3.9994766E+04; -8.3416095E-03;  0.0000000E+00; -1.0350188E-03;  6.8274310E+02;
  4.5150474E-01;  9.9999998E-03; -4.9999282E-02;5216; -6.7864610E-03;  0.0000000E+00;  5.1532752E-05;  9.9994861E+02;  1.0000000E-01; -4.2566696E+01;3;  9.8732132E-01;  0.0000000E+00;  9.0678036E-02;0; -9.4732800E-03;  4.0000715E+04;  0.0000000E+00;  2.9396985E-02;  4.0000000E+04;  0.0000000E+00;  3.9995457E+04; -8.4428443E-03;  0.0000000E+00; -1.0304356E-03;  5.9885675E+02;
  4.5150894E-01;  9.9999998E-03; -3.9998215E-02;5217; -6.8106926E-03;  0.0000000E+00;  4.0256717E-05;  9.9987177E+02;  1.0000000E-01; -1.0621922E+02;3;  9.9020433E-01;  0.0000000E+00;  7.2882198E-02;0; -9.5587485E-03;  3.9993984E+04;  0.0000000E+00;  1.9276237E-02;  4.0000000E+04;  0.0000000E+00;  3.9996168E+04; -8.5315350E-03;  0.0000000E+00; -1.0272132E-03;  5.1120526E+02;
  4.5151177E-01;  9.9999998E-03; -2.9998071E-02;5218; -6.8294895E-03;  0.0000000E+00;  2.9516561E-05;  9.9981030E+02;  1.0000000E-01; -1.5718074E+02;3;  9.9240959E-01;  0.0000000E+00;  5.4875549E-02;0; -9.6297935E-03;  3.9988305E+04;  0.0000000E+00;  1.1023367E-02;  4.0000000E+04;  0.0000000E+00;  3.9996594E+04; -8.6046392E-03;  0.0000000E+00; -1.0251539E-03;  4.2969189E+02;
  4.5151317E-01;  9.9999998E-03; -1.9998569E-02;5219; -6.8428786E-03;  0.0000000E+00;  1.9313784E-05;  9.9975824E+02;  1.0000000E-01; -2.0029063E+02;3;  9.9390888E-01;  0.0000000E+00;  3.6695793E-02;0; -9.6832411E-03;  3.9983855E+04;  0.0000000E+00;  4.9506533E-03;  4.0000000E+04;  0.0000000E+00;  3.9997152E+04; -8.6592752E-03;  0.0000000E+00; -1.0239660E-03;  3.6369992E+02;
  4.5151359E-01;  9.9999998E-03; -9.9992547E-03;5220; -6.8508931E-03;  0.0000000E+00;  9.5439791E-06;  9.9972644E+02;  1.0000000E-01; -2.2666026E+02;3;  9.9479187E-01;  0.0000000E+00;  1.8388925E-02;0; -9.7164949E-03;  3.9981211E+04;  0.0000000E+00;  1.2446848E-03;  4.0000000E+04;  0.0000000E+00;  3.9997469E+04; -8.6931158E-03;  0.0000000E+00; -1.0233794E-03;  3.2082800E+02;
  4.5151359E-01;  9.9999998E-03;  8.2100966E-09;5221; -6.8535614E-03;  0.0000000E+00;  1.6135308E-08;  9.9971765E+02;  1.0000000E-01; -2.3391931E+02;3;  9.9509400E-01;  0.0000000E+00;  1.4886796E-05;0; -9.7277872E-03;  3.9980254E+04;  0.0000000E+00; -5.6428785E-12;  4.0000000E+04;  0.0000000E+00;  3.9997691E+04; -8.7045813E-03;  0.0000000E+00; -1.0232055E-03;  3.0600150E+02;
  4.5151359E-01;  9.9999998E-03;  9.9992706E-03;5222; -6.8508945E-03;  0.0000000E+00; -9.5115420E-06;  9.9972638E+02;  1.0000000E-01; -2.2670964E+02;3;  9.9480355E-01;  0.0000000E+00; -1.8359147E-02;0; -9.7164987E-03;  3.9981211E+04;  0.0000000E+00;  1.2446217E-03;  4.0000000E+04;  0.0000000E+00;  3.9997469E+04; -8.6931195E-03;  0.0000000E+00; -1.0233792E-03;  3.2082925E+02;
  4.5151317E-01;  9.9999998E-03;  1.9998584E-02;5223; -6.8428810E-03;  0.0000000E+00; -1.9281237E-05;  9.9975824E+02;  1.0000000E-01; -2.0029063E+02;3;  9.9392945E-01;  0.0000000E+00; -3.6666404E-02;0; -9.6832439E-03;  3.9983855E+04;  0.0000000E+00;  4.9505322E-03;  4.0000000E+04;  0.0000000E+00;  3.9997156E+04; -8.6592799E-03;  0.0000000E+00; -1.0239641E-03;  3.6369904E+02;
  4.5151177E-01;  9.9999998E-03;  2.9998088E-02;5224; -6.8294927E-03;  0.0000000E+00; -2.9483897E-05;  9.9981018E+02;  1.0000000E-01; -1.5727950E+02;3;  9.9243271E-01;  0.0000000E+00; -5.4845538E-02;0; -9.6297767E-03;  3.9988312E+04;  0.0000000E+00;  1.1023044E-02;  4.0000000E+04;  0.0000000E+00;  3.9996594E+04; -8.6046252E-03;  0.0000000E+00; -1.0251511E-03;  4.2967996E+02;
  4.5150894E-01;  9.9999998E-03;  3.9998230E-02;5225; -6.8106940E-03;  0.0000000E+00; -4.0223895E-05;  9.9987177E+02;  1.0000000E-01; -1.0621922E+02;3;  9.9025208E-01;  0.0000000E+00; -7.2852559E-02;0; -9.5587475E-03;  3.9993984E+04;  0.0000000E+00;  1.9276902E-02;  4.0000000E+04;  0.0000000E+00;  3.9996164E+04; -8.5315360E-03;  0.0000000E+00; -1.0272115E-03;  5.1120825E+02;
  4.5150474E-01;  9.9999998E-03;  4.9999297E-02;5226; -6.7864638E-03;  0.0000000E+00; -5.1499846E-05;  9.9994867E+02;  1.0000000E-01; -4.2517315E+01;3;  9.8735422E-01;  0.0000000E+00; -9.0658575E-02;0; -9.4732717E-03;  4.0000719E+04;  0.0000000E+00;  2.9396966E-02;  4.0000000E+04;  0.0000000E+00;  3.9995457E+04; -8.4428415E-03;  0.0000000E+00; -1.0304304E-03;  5.9884631E+02;
  4.5149851E-01;  9.9999998E-03;  6.0001526E-02;5227; -6.7567877E-03;  0.0000000E+00; -6.3195395E-05;  1.0000361E+03;  1.0000000E-01;  2.9925079E+01;3;  9.8370570E-01;  0.0000000E+00; -1.0822815E-01;0; -9.3766283E-03;  4.0008191E+04;  0.0000000E+00;  4.0915724E-02;  4.0000000E+04;  0.0000000E+00;  3.9994766E+04; -8.3416160E-03;  0.0000000E+00; -1.0350127E-03;  6.8275818E+02;
  4.6141863E-01;  9.9999998E-03; -1.0001987E-01;5272; -6.6609890E-03;  0.0000000E+00;  1.2428114E-04;  1.0003935E+03;  1.0000000E-01;  3.2601547E+02;3;  1.0005387E+00;  0.0000000E+00;  1.7660168E-01;0; -8.9243399E-03;  4.0037559E+04;  0.0000000E+00;  5.4765407E-02;  4.0000000E+04;  0.0000000E+00;  3.9993844E+04; -7.6532201E-03;  0.0000000E+00; -1.2711195E-03;  8.2359052E+02;
  4.6143582E-01;  9.9999998E-03; -9.0015434E-02;5273; -6.7136572E-03;  0.0000000E+00;  1.1121087E-04;  1.0003262E+03;  1.0000000E-01;  2.7021457E+02;3;  1.0078207E+00;  0.0000000E+00;  1.6008919E-01;0; -9.0506282E-03;  4.0032344E+04;  0.0000000E+00;  5.1463336E-02;  4.0000000E+04;  0.0000000E+00;  3.9993977E+04; -7.7859941E-03;  0.0000000E+00; -1.2646337E-03;  8.1399445E+02;
  4.6145284E-01;  9.9999998E-03; -8.0010921E-02;5274; -6.7618042E-03;  0.0000000E+00;  9.7668279E-05;  1.0002564E+03;  1.0000000E-01;  2.1243843E+02;3;  1.0144101E+00;  0.0000000E+00;  1.4323868E-01;0; -9.1722272E-03;  4.0026375E+04;  0.0000000E+00;  4.5789652E-02;  4.0000000E+04;  0.0000000E+00;  3.9994203E+04; -7.9139192E-03;  0.0000000E+00; -1.2583077E-03;  7.8292188E+02;
  4.6146864E-01;  9.9999998E-03; -7.0006840E-02;5275; -6.8053324E-03;  0.0000000E+00;  8.3934858E-05;  1.0001724E+03;  1.0000000E-01;  1.4281078E+02;3;  1.0202341E+00;  0.0000000E+00;  1.2609632E-01;0; -9.2884116E-03;  4.0019352E+04;  0.0000000E+00;  3.8515277E-02;  4.0000000E+04;  0.0000000E+00;  3.9994238E+04; -8.0362586E-03;  0.0000000E+00; -1.2521528E-03;  7.3130762E+02;
  4.6148294E-01;  9.9999998E-03; -6.0003594E-02;5276; -6.8440484E-03;  0.0000000E+00;  7.0318994E-05;  1.0000958E+03;  1.0000000E-01;  7.9306396E+01;3;  1.0252167E+00;  0.0000000E+00;  1.0867647E-01;0; -9.3976725E-03;  4.0012941E+04;  0.0000000E+00;  3.0445866E-02;  4.0000000E+04;  0.0000000E+00;  3.9994660E+04; -8.1512993E-03;  0.0000000E+00; -1.2463733E-03;  6.6266083E+02;
  4.6149501E-01;  9.9999998E-03; -5.0001364E-02;5277; -6.8776570E-03;  0.0000000E+00;  5.7091122E-05;  1.0000186E+03;  1.0000000E-01;  1.5406972E+01;3;  1.0294073E+00;  0.0000000E+00;  9.1021046E-02;0; -9.4977673E-03;  4.0006223E+04;  0.0000000E+00;  2.2349952E-02;  4.0000000E+04;  0.0000000E+00;  3.9995055E+04; -8.2565583E-03;  0.0000000E+00; -1.2412090E-03;  5.8305914E+02;
  4.6150512E-01;  9.9999998E-03; -4.0000107E-02;5278; -6.9058347E-03;  0.0000000E+00;  4.4457032E-05;  9.9995691E+02;  1.0000000E-01; -3.5702694E+01;3;  1.0327615E+00;  0.0000000E+00;  7.3135443E-02;0; -9.5858518E-03;  4.0000402E+04;  0.0000000E+00;  1.4896235E-02;  4.0000000E+04;  0.0000000E+00;  3.9995703E+04; -8.3489809E-03;  0.0000000E+00; -1.2368712E-03;  5.0058337E+02;
  4.6151271E-01;  9.9999998E-03; -2.9999672E-02;5279; -6.9282129E-03;  0.0000000E+00;  3.2512020E-05;  9.9989935E+02;  1.0000000E-01; -8.3405052E+01;3;  1.0353268E+00;  0.0000000E+00;  5.5050999E-02;0; -9.6587585E-03;  3.9995582E+04;  0.0000000E+00;  8.6192517E-03;  4.0000000E+04;  0.0000000E+00;  3.9996438E+04; -8.4252954E-03;  0.0000000E+00; -1.2334628E-03;  4.2417706E+02;
  4.6151835E-01;  9.9999998E-03; -1.9999692E-02;5280; -6.9444776E-03;  0.0000000E+00;  2.1234104E-05;  9.9986047E+02;  1.0000000E-01; -1.1560167E+02;3;  1.0371201E+00;  0.0000000E+00;  3.6801495E-02;0; -9.7134542E-03;  3.9991934E+04;  0.0000000E+00;  3.9012616E-03;  4.0000000E+04;  0.0000000E+00;  3.9996840E+04; -8.4824134E-03;  0.0000000E+00; -1.2310405E-03;  3.6240543E+02;
  4.6152201E-01;  9.9999998E-03; -9.9998601E-03;5281; -6.9543580E-03;  0.0000000E+00;  1.0481318E-05;  9.9983765E+02;  1.0000000E-01; -1.3451471E+02;3;  1.0381924E+00;  0.0000000E+00;  1.8439040E-02;0; -9.7473972E-03;  3.9989871E+04;  0.0000000E+00;  9.8517281E-04;  4.0000000E+04;  0.0000000E+00;  3.9997168E+04; -8.5177924E-03;  0.0000000E+00; -1.2296048E-03;  3.2235913E+02;
  4.6152338E-01;  9.9999998E-03;  8.6244878E-09;5282; -6.9576730E-03;  0.0000000E+00;  1.7359922E-08;  9.9982941E+02;  1.0000000E-01; -1.4132933E+02;3;  1.0385466E+00;  0.0000000E+00;  1.6155360E-05;0; -9.7589083E-03;  3.9989031E+04;  0.0000000E+00; -5.9545255E-12;  4.0000000E+04;  0.0000000E+00;  3.9997281E+04; -8.5297776E-03;  0.0000000E+00; -1.2291310E-03;  3.0849359E+02;
  4.6152201E-01;  9.9999998E-03;  9.9998768E-03;5283; -6.9543580E-03;  0.0000000E+00; -1.0446433E-05;  9.9983765E+02;  1.0000000E-01; -1.3451471E+02;3;  1.0381932E+00;  0.0000000E+00; -1.8404499E-02;0; -9.7473944E-03;  3.9989871E+04;  0.0000000E+00;  9.8526198E-04;  4.0000000E+04;  0.0000000E+00;  3.9997172E+04; -8.5177915E-03;  0.0000000E+00; -1.2296032E-03;  3.2235638E+02;
  4.6151835E-01;  9.9999998E-03;  1.9999709E-02;5284; -6.9444790E-03;  0.0000000E+00; -2.1198794E-05;  9.9986047E+02;  1.0000000E-01; -1.1560167E+02;3;  1.0371231E+00;  0.0000000E+00; -3.6765572E-02;0; -9.7134486E-03;  3.9991938E+04;  0.0000000E+00;  3.9010723E-03;  4.0000000E+04;  0.0000000E+00;  3.9996836E+04; -8.4824115E-03;  0.0000000E+00; -1.2310373E-03;  3.6241013E+02;
  4.6151271E-01;  9.9999998E-03;  2.9999688E-02;5285; -6.9282153E-03;  0.0000000E+00; -3.2476408E-05;  9.9989941E+02;  1.0000000E-01; -8.3355667E+01;3;  1.0353322E+00;  0.0000000E+00; -5.5016801E-02;0; -9.6587557E-03;  3.9995582E+04;  0.0000000E+00;  8.6194351E-03;  4.0000000E+04;  0.0000000E+00;  3.9996438E+04; -8.4252972E-03;  0.0000000E+00; -1.2334584E-03;  4.2417609E+02;
  4.6150512E-01;  9.9999998E-03;  4.0000126E-02;5286; -6.9058375E-03;  0.0000000E+00; -4.4421013E-05;  9.9995691E+02;  1.0000000E-01; -3.5702694E+01;3;  1.0327710E+00;  0.0000000E+00; -7.3103897E-02;0; -9.5858462E-03;  4.0000398E+04;  0.0000000E+00;  1.4895725E-02;  4.0000000E+04;  0.0000000E+00;  3.9995699E+04; -8.3489791E-03;  0.0000000E+00; -1.2368672E-03;  5.0058371E+02;
  4.6149501E-01;  9.9999998E-03;  5.0001379E-02;5287; -6.8776621E-03;  0.0000000E+00; -5.7054833E-05;  1.0000186E+03;  1.0000000E-01;  1.5406972E+01;3;  1.0294193E+00;  0.0000000E+00; -9.1000184E-02;0; -9.4977720E-03;  4.0006223E+04;  0.0000000E+00;  2.2348585E-02;  4.0000000E+04;  0.0000000E+00;  3.9995059E+04; -8.2565667E-03;  0.0000000E+00; -1.2412055E-03;  5.8305109E+02;
  4.6148294E-01;  9.9999998E-03;  6.0003608E-02;5288; -6.8440526E-03;  0.0000000E+00; -7.0282491E-05;  1.0000956E+03;  1.0000000E-01;  7.9207634E+01;3;  1.0252664E+00;  0.0000000E+00; -1.0866279E-01;0; -9.3976725E-03;  4.0012945E+04;  0.0000000E+00;  3.0445021E-02;  4.0000000E+04;  0.0000000E+00;  3.9994664E+04; -8.1513049E-03;  0.0000000E+00; -1.2463672E-03;  6.6265375E+02;
  4.7136930E-01;  9.9999998E-03; -1.0002001E-01;5333; -6.7338478E-03;  0.0000000E+00;  1.3831005E-04;  1.0003918E+03;  1.0000000E-01;  3.2463278E+02;3;  1.0400387E+00;  0.0000000E+00;  1.7642398E-01;0; -8.9139538E-03;  4.0037285E+04;  0.0000000E+00;  1.8486330E-02;  4.0000000E+04;  0.0000000E+00;  3.9993855E+04; -7.4268859E-03;  0.0000000E+00; -1.4870681E-03;  7.8238879E+02;
  4.7138846E-01;  9.9999998E-03; -9.0016745E-02;5334; -6.7880261E-03;  0.0000000E+00;  1.2304961E-04;  1.0003388E+03;  1.0000000E-01;  2.8068341E+02;3;  1.0480816E+00;  0.0000000E+00;  1.5995379E-01;0; -9.0458374E-03;  4.0032961E+04;  0.0000000E+00;  2.0687794E-02;  4.0000000E+04;  0.0000000E+00;  3.9993949E+04; -7.5616050E-03;  0.0000000E+00; -1.4842320E-03;  7.6220380E+02;
  4.7140777E-01;  9.9999998E-03; -8.0013283E-02;5335; -6.8382923E-03;  0.0000000E+00;  1.0758058E-04;  1.0002798E+03;  1.0000000E-01;  2.3179591E+02;3;  1.0553508E+00;  0.0000000E+00;  1.4312448E-01;0; -9.1720307E-03;  4.0028074E+04;  0.0000000E+00;  2.0846138E-02;  4.0000000E+04;  0.0000000E+00;  3.9994238E+04; -7.6915119E-03;  0.0000000E+00; -1.4805187E-03;  7.2573505E+02;
  4.7142678E-01;  9.9999998E-03; -7.0010006E-02;5336; -6.8845437E-03;  0.0000000E+00;  9.2164097E-05;  1.0002149E+03;  1.0000000E-01;  1.7806903E+02;3;  1.0617692E+00;  0.0000000E+00;  1.2598558E-01;0; -9.2917839E-03;  4.0022836E+04;  0.0000000E+00;  1.9227512E-02;  4.0000000E+04;  0.0000000E+00;  3.9994859E+04; -7.8157922E-03;  0.0000000E+00; -1.4759918E-03;  6.7424316E+02;
  4.7144485E-01;  9.9999998E-03; -6.0007166E-02;5337; -6.9264704E-03;  0.0000000E+00;  7.7068769E-05;  1.0001593E+03;  1.0000000E-01;  1.3194688E+02;3;  1.0673419E+00;  0.0000000E+00;  1.0856945E-01;0; -9.4037019E-03;  4.0017621E+04;  0.0000000E+00;  1.6284795E-02;  4.0000000E+04;  0.0000000E+00;  3.9995047E+04; -7.9327282E-03;  0.0000000E+00; -1.4709737E-03;  6.1075549E+02;
  4.7146153E-01;  9.9999998E-03; -5.0004959E-02;5338; -6.9635785E-03;  0.0000000E+00;  6.2526728E-05;  1.0001041E+03;  1.0000000E-01;  8.6219780E+01;3;  1.0720476E+00;  0.0000000E+00;  9.0907574E-02;0; -9.5056128E-03;  4.0012680E+04;  0.0000000E+00;  1.2581986E-02;  4.0000000E+04;  0.0000000E+00;  3.9995824E+04; -8.0397362E-03;  0.0000000E+00; -1.4658769E-03;  5.4007941E+02;
  4.7147620E-01;  9.9999998E-03; -4.0003359E-02;5339; -6.9952505E-03;  0.0000000E+00;  4.8698395E-05;  1.0000584E+03;  1.0000000E-01;  4.8393692E+01;3;  1.0758352E+00;  0.0000000E+00;  7.3025331E-02;0; -9.5948074E-03;  4.0008504E+04;  0.0000000E+00;  8.7029524E-03;  4.0000000E+04;  0.0000000E+00;  3.9996512E+04; -8.1336908E-03;  0.0000000E+00; -1.4611168E-03;  4.6850128E+02;
  4.7148821E-01;  9.9999998E-03; -3.0002235E-02;5340; -7.0208129E-03;  0.0000000E+00;  3.5641533E-05;  1.0000195E+03;  1.0000000E-01;  1.6098310E+01;3;  1.0787894E+00;  0.0000000E+00;  5.4949753E-02;0; -9.6683148E-03;  4.0005012E+04;  0.0000000E+00;  5.1686186E-03;  4.0000000E+04;  0.0000000E+00;  3.9996793E+04; -8.2112653E-03;  0.0000000E+00; -1.4570492E-03;  4.0307684E+02;
  4.7149709E-01;  9.9999998E-03; -2.0001430E-02;5341; -7.0396210E-03;  0.0000000E+00;  2.3300327E-05;  9.9999139E+02;  1.0000000E-01; -7.1109099E+00;3;  1.0808611E+00;  0.0000000E+00;  3.6726139E-02;0; -9.7232927E-03;  4.0002355E+04;  0.0000000E+00;  2.3799166E-03;  4.0000000E+04;  0.0000000E+00;  3.9997293E+04; -8.2693305E-03;  0.0000000E+00; -1.4539621E-03;  3.5063034E+02;
  4.7150266E-01;  9.9999998E-03; -1.0000744E-02;5342; -7.0511447E-03;  0.0000000E+00;  1.1510135E-05;  9.9997650E+02;  1.0000000E-01; -1.9456240E+01;3;  1.0821148E+00;  0.0000000E+00;  1.8398888E-02;0; -9.7573288E-03;  4.0000953E+04;  0.0000000E+00;  6.0691137E-04;  4.0000000E+04;  0.0000000E+00;  3.9997637E+04; -8.3052898E-03;  0.0000000E+00; -1.4520386E-03;  3.1674988E+02;
  4.7150460E-01;  9.9999998E-03;  9.0343049E-09;5343; -7.0550260E-03;  0.0000000E+00;  1.8738140E-08;  9.9996930E+02;  1.0000000E-01; -2.5431379E+01;3;  1.0825300E+00;  0.0000000E+00;  1.7982637E-05;0; -9.7688697E-03;  4.0000156E+04;  0.0000000E+00; -6.1376906E-12;  4.0000000E+04;  0.0000000E+00;  3.9997816E+04; -8.3174827E-03;  0.0000000E+00; -1.4513873E-03;  3.0508264E+02;
  4.7150266E-01;  9.9999998E-03;  1.0000762E-02;5344; -7.0511457E-03;  0.0000000E+00; -1.1472527E-05;  9.9997644E+02;  1.0000000E-01; -1.9505621E+01;3;  1.0820981E+00;  0.0000000E+00; -1.8362548E-02;0; -9.7573269E-03;  4.0000953E+04;  0.0000000E+00;  6.0698134E-04;  4.0000000E+04;  0.0000000E+00;  3.9997637E+04; -8.3052898E-03;  0.0000000E+00; -1.4520367E-03;  3.1675070E+02;
  4.7149709E-01;  9.9999998E-03;  2.0001449E-02;5345; -7.0396229E-03;  0.0000000E+00; -2.3262322E-05;  9.9999139E+02;  1.0000000E-01; -7.1109099E+00;3;  1.0808512E+00;  0.0000000E+00; -3.6688808E-02;0; -9.7232852E-03;  4.0002355E+04;  0.0000000E+00;  2.3799890E-03;  4.0000000E+04;  0.0000000E+00;  3.9997293E+04; -8.2693258E-03;  0.0000000E+00; -1.4539595E-03;  3.5062631E+02;
  4.7148821E-01;  9.9999998E-03;  3.0002253E-02;5346; -7.0208157E-03;  0.0000000E+00; -3.5602934E-05;  1.0000194E+03;  1.0000000E-01;  1.6098310E+01;3;  1.0787755E+00;  0.0000000E+00; -5.4912657E-02;0; -9.6683064E-03;  4.0005016E+04;  0.0000000E+00;  5.1688403E-03;  4.0000000E+04;  0.0000000E+00;  3.9996793E+04; -8.2112569E-03;  0.0000000E+00; -1.4570493E-03;  4.0307404E+02;
  4.7147620E-01;  9.9999998E-03;  4.0003374E-02;5347; -6.9952542E-03;  0.0000000E+00; -4.8659273E-05;  1.0000583E+03;  1.0000000E-01;  4.8294930E+01;3;  1.0758489E+00;  0.0000000E+00; -7.2989233E-02;0; -9.5947953E-03;  4.0008504E+04;  0.0000000E+00;  8.7026358E-03;  4.0000000E+04;  0.0000000E+00;  3.9996516E+04; -8.1336834E-03;  0.0000000E+00; -1.4611121E-03;  4.6850400E+02;
  4.7146153E-01;  9.9999998E-03;  5.0004974E-02;5348; -6.9635822E-03;  0.0000000E+00; -6.2487270E-05;  1.0001041E+03;  1.0000000E-01;  8.6219780E+01;3;  1.0720335E+00;  0.0000000E+00; -9.0881564E-02;0; -9.5056081E-03;  4.0012680E+04;  0.0000000E+00;  1.2580547E-02;  4.0000000E+04;  0.0000000E+00;  3.9995824E+04; -8.0397371E-03;  0.0000000E+00; -1.4658711E-03;  5.4007568E+02;
  4.7144485E-01;  9.9999998E-03;  6.0007181E-02;5349; -6.9264756E-03;  0.0000000E+00; -7.7029108E-05;  1.0001594E+03;  1.0000000E-01;  1.3204565E+02;3;  1.0673518E+00;  0.0000000E+00; -1.0855278E-01;0; -9.4037037E-03;  4.0017621E+04;  0.0000000E+00;  1.6284034E-02;  4.0000000E+04;  0.0000000E+00;  3.9995047E+04; -7.9327375E-03;  0.0000000E+00; -1.4709667E-03;  6.1075793E+02;
  4.8135257E-01;  9.9999998E-03; -1.0002073E-01;5394; -6.8036513E-03;  0.0000000E+00;  1.5315745E-04;  1.0003840E+03;  1.0000148E-01;  3.1811447E+02;3;  1.0800965E+00;  0.0000000E+00;  1.7524686E-01;0; -8.9005716E-03;  4.0035258E+04;  0.0000000E+00; -2.1705721E-02;  4.0000000E+04;  0.0000000E+00;  3.9994484E+04; -7.1844333E-03;  0.0000000E+00; -1.7161381E-03;  7.2496228E+02;
  4.8137468E-01;  9.9999998E-03; -9.0018660E-02;5395; -6.8591381E-03;  0.0000000E+00;  1.3569403E-04;  1.0003478E+03;  1.0000148E-01;  2.8809061E+02;3;  1.0889324E+00;  0.0000000E+00;  1.5892938E-01;0; -9.0371743E-03;  4.0032074E+04;  0.0000000E+00; -1.4919818E-02;  4.0000000E+04;  0.0000000E+00;  3.9994855E+04; -7.3196017E-03;  0.0000000E+00; -1.7175729E-03;  6.8866248E+02;
  4.8139855E-01;  9.9999998E-03; -8.0016248E-02;5396; -6.9111669E-03;  0.0000000E+00;  1.1834384E-04;  1.0003082E+03;  1.0000142E-01;  2.5530142E+02;3;  1.0969070E+00;  0.0000000E+00;  1.4223105E-01;0; -9.1670025E-03;  4.0028633E+04;  0.0000000E+00; -9.2042647E-03;  4.0000000E+04;  0.0000000E+00;  3.9995238E+04; -7.4497568E-03;  0.0000000E+00; -1.7172456E-03;  6.4341571E+02;
  4.8144642E-01;  9.9999998E-03; -6.0011186E-02;5398; -7.0041274E-03;  0.0000000E+00;  8.4804647E-05;  1.0002325E+03;  1.0000145E-01;  1.9268591E+02;3;  1.1101625E+00;  0.0000000E+00;  1.0789172E-01;0; -9.4029419E-03;  4.0021906E+04;  0.0000000E+00; -2.0056569E-03;  4.0000000E+04;  0.0000000E+00;  3.9995680E+04; -7.6909261E-03;  0.0000000E+00; -1.7120162E-03;  5.3403247E+02;
  4.8144642E-01;  9.9999998E-03;  6.0011204E-02;5410; -7.0041316E-03;  0.0000000E+00; -8.4761887E-05;  1.0002325E+03;  1.0000145E-01;  1.9268591E+02;3;  1.1101458E+00;  0.0000000E+00; -1.0787077E-01;0; -9.4029456E-03;  4.0021902E+04;  0.0000000E+00; -2.0060656E-03;  4.0000000E+04;  0.0000000E+00;  3.9995680E+04; -7.6909340E-03;  0.0000000E+00; -1.7120120E-03;  5.3403516E+02;
  4.8142284E-01;  9.9999998E-03; -7.0013717E-02;5397; -6.9596278E-03;  0.0000000E+00;  1.0131555E-04;  1.0002678E+03;  1.0000142E-01;  2.2191965E+02;3;  1.1039971E+00;  0.0000000E+00;  1.2520461E-01;0; -9.2893671E-03;  4.0025297E+04;  0.0000000E+00; -4.8839143E-03;  4.0000000E+04;  0.0000000E+00;  3.9995492E+04; -7.5741084E-03;  0.0000000E+00; -1.7152592E-03;  5.9108905E+02;
  4.8146871E-01;  9.9999998E-03; -5.0008800E-02;5399; -7.0440187E-03;  0.0000000E+00;  6.8970694E-05;  1.0002050E+03;  1.0000148E-01;  1.6977298E+02;3;  1.1153829E+00;  0.0000000E+00;  9.0325184E-02;0; -9.5057143E-03;  4.0018793E+04;  0.0000000E+00; -3.8409309E-04;  4.0000000E+04;  0.0000000E+00;  3.9996215E+04; -7.7976510E-03;  0.0000000E+00; -1.7080631E-03;  4.7535181E+02;
  4.8146871E-01;  9.9999998E-03;  5.0008819E-02;5409; -7.0440234E-03;  0.0000000E+00; -6.8927977E-05;  1.0002050E+03;  1.0000148E-01;  1.6977298E+02;3;  1.1153679E+00;  0.0000000E+00; -9.0297386E-02;0; -9.5057040E-03;  4.0018785E+04;  0.0000000E+00; -3.8273045E-04;  4.0000000E+04;  0.0000000E+00;  3.9996219E+04; -7.7976459E-03;  0.0000000E+00; -1.7080579E-03;  4.7536234E+02;
  4.8152611E-01;  9.9999998E-03; -1.0001747E-02;5403; -7.1402029E-03;  0.0000000E+00;  1.2865913E-05;  1.0001398E+03;  1.0000148E-01;  1.1574981E+02;3;  1.1267048E+00;  0.0000000E+00;  1.8267497E-02;0; -9.7571462E-03;  4.0012484E+04;  0.0000000E+00;  7.6968237E-05;  4.0000000E+04;  0.0000000E+00;  3.9997668E+04; -8.0617713E-03;  0.0000000E+00; -1.6953750E-03;  3.0464230E+02;
  4.8152864E-01;  9.9999998E-03;  9.4221644E-09;5404; -7.1445354E-03;  0.0000000E+00;  2.0091452E-08;  1.0001370E+03;  1.0000145E-01;  1.1347827E+02;3;  1.1271691E+00;  0.0000000E+00;  1.5743366E-05;0; -9.7685959E-03;  4.0012160E+04;  0.0000000E+00; -5.7275968E-12;  4.0000000E+04;  0.0000000E+00;  3.9997707E+04; -8.0738729E-03;  0.0000000E+00; -1.6947229E-03;  2.9606332E+02;
  4.8152611E-01;  9.9999998E-03;  1.0001766E-02;5405; -7.1402034E-03;  0.0000000E+00; -1.2825471E-05;  1.0001397E+03;  1.0000148E-01;  1.1574981E+02;3;  1.1266960E+00;  0.0000000E+00; -1.8234743E-02;0; -9.7571546E-03;  4.0012488E+04;  0.0000000E+00;  7.6871875E-05;  4.0000000E+04;  0.0000000E+00;  3.9997668E+04; -8.0617787E-03;  0.0000000E+00; -1.6953757E-03;  3.0464270E+02;
  4.8151815E-01;  9.9999998E-03; -2.0003356E-02;5402; -7.1273767E-03;  0.0000000E+00;  2.5981046E-05;  1.0001479E+03;  1.0000151E-01;  1.2256444E+02;3;  1.1253051E+00;  0.0000000E+00;  3.6469385E-02;0; -9.7233262E-03;  4.0013328E+04;  0.0000000E+00;  2.6181521E-04;  4.0000000E+04;  0.0000000E+00;  3.9997586E+04; -8.0260625E-03;  0.0000000E+00; -1.6972634E-03;  3.2965198E+02;
  4.8151815E-01;  9.9999998E-03;  2.0003375E-02;5406; -7.1273772E-03;  0.0000000E+00; -2.5940091E-05;  1.0001479E+03;  1.0000151E-01;  1.2256444E+02;3;  1.1252813E+00;  0.0000000E+00; -3.6434382E-02;0; -9.7233243E-03;  4.0013332E+04;  0.0000000E+00;  2.6189705E-04;  4.0000000E+04;  0.0000000E+00;  3.9997586E+04; -8.0260634E-03;  0.0000000E+00; -1.6972604E-03;  3.2964035E+02;
  4.8150557E-01;  9.9999998E-03; -3.0004954E-02;5401; -7.1065468E-03;  0.0000000E+00;  3.9602335E-05;  1.0001571E+03;  1.0000148E-01;  1.3016916E+02;3;  1.1229556E+00;  0.0000000E+00;  5.4575548E-02;0; -9.6686054E-03;  4.0014590E+04;  0.0000000E+00;  4.1500907E-04;  4.0000000E+04;  0.0000000E+00;  3.9997180E+04; -7.9683810E-03;  0.0000000E+00; -1.7002246E-03;  3.6885754E+02;
  4.8150557E-01;  9.9999998E-03;  3.0004973E-02;5407; -7.1065491E-03;  0.0000000E+00; -3.9560629E-05;  1.0001571E+03;  1.0000148E-01;  1.3016916E+02;3;  1.1229385E+00;  0.0000000E+00; -5.4537646E-02;0; -9.6686017E-03;  4.0014590E+04;  0.0000000E+00;  4.1467007E-04;  4.0000000E+04;  0.0000000E+00;  3.9997180E+04; -7.9683783E-03;  0.0000000E+00; -1.7002231E-03;  3.6884717E+02;
  4.8148879E-01;  9.9999998E-03; -4.0006701E-02;5400; -7.0784637E-03;  0.0000000E+00;  5.3902582E-05;  1.0001755E+03;  1.0000148E-01;  1.4547737E+02;3;  1.1196430E+00;  0.0000000E+00;  7.2540134E-02;0; -9.5951902E-03;  4.0016371E+04;  0.0000000E+00;  3.0458605E-04;  4.0000000E+04;  0.0000000E+00;  3.9996758E+04; -7.8912266E-03;  0.0000000E+00; -1.7039633E-03;  4.1882605E+02;
  4.8148879E-01;  9.9999998E-03;  4.0006720E-02;5408; -7.0784674E-03;  0.0000000E+00; -5.3860218E-05;  1.0001755E+03;  1.0000148E-01;  1.4547737E+02;3;  1.1196210E+00;  0.0000000E+00; -7.2505750E-02;0; -9.5951818E-03;  4.0016367E+04;  0.0000000E+00;  3.0432944E-04;  4.0000000E+04;  0.0000000E+00;  3.9996754E+04; -7.8912219E-03;  0.0000000E+00; -1.7039597E-03;  4.1882626E+02;
  4.9159095E-01;  9.9999998E-03; -1.0001068E-02;5464; -7.2209039E-03;  0.0000000E+00;  1.4790862E-05;  1.0002750E+03;  1.0000206E-01;  2.2784541E+02;3;  1.1719573E+00;  0.0000000E+00;  1.8040951E-02;0; -9.7604915E-03;  4.0022852E+04;  0.0000000E+00; -6.0642191E-04;  4.0000000E+04;  0.0000000E+00;  3.9997801E+04; -7.7975839E-03;  0.0000000E+00; -1.9629081E-03;  2.8836383E+02;
  4.9159300E-01;  9.9999998E-03;  9.7343023E-09;5465; -7.2255312E-03;  0.0000000E+00;  2.1530651E-08;  1.0002763E+03;  1.0000201E-01;  2.2893179E+02;3;  1.1724783E+00;  0.0000000E+00;  1.2424136E-05;0; -9.7718472E-03;  4.0022801E+04;  0.0000000E+00; -4.5253215E-12;  4.0000000E+04;  0.0000000E+00;  3.9997828E+04; -7.8094117E-03;  0.0000000E+00; -1.9624352E-03;  2.8338681E+02;
  4.9159095E-01;  9.9999998E-03;  1.0001087E-02;5466; -7.2209048E-03;  0.0000000E+00; -1.4747508E-05;  1.0002750E+03;  1.0000206E-01;  2.2784541E+02;3;  1.1719501E+00;  0.0000000E+00; -1.8014792E-02;0; -9.7604897E-03;  4.0022855E+04;  0.0000000E+00; -6.0637266E-04;  4.0000000E+04;  0.0000000E+00;  3.9997801E+04; -7.7975807E-03;  0.0000000E+00; -1.9629088E-03;  2.8836087E+02;
  4.9158469E-01;  9.9999998E-03; -2.0001909E-02;5463; -7.2072288E-03;  0.0000000E+00;  2.9764062E-05;  1.0002755E+03;  1.0000205E-01;  2.2824046E+02;3;  1.1704011E+00;  0.0000000E+00;  3.6023222E-02;0; -9.7268838E-03;  4.0022711E+04;  0.0000000E+00; -2.4532108E-03;  4.0000000E+04;  0.0000000E+00;  3.9997820E+04; -7.7626253E-03;  0.0000000E+00; -1.9642585E-03;  3.0312708E+02;
  4.9158469E-01;  9.9999998E-03;  2.0001927E-02;5467; -7.2072316E-03;  0.0000000E+00; -2.9720095E-05;  1.0002753E+03;  1.0000205E-01;  2.2814169E+02;3;  1.1703839E+00;  0.0000000E+00; -3.5993088E-02;0; -9.7268792E-03;  4.0022711E+04;  0.0000000E+00; -2.4531323E-03;  4.0000000E+04;  0.0000000E+00;  3.9997820E+04; -7.7626226E-03;  0.0000000E+00; -1.9642566E-03;  3.0311340E+02;
  4.9157456E-01;  9.9999998E-03; -3.0002479E-02;5462; -7.1850880E-03;  0.0000000E+00;  4.5131990E-05;  1.0002743E+03;  1.0000210E-01;  2.2725284E+02;3;  1.1677886E+00;  0.0000000E+00;  5.3912003E-02;0; -9.6723959E-03;  4.0022762E+04;  0.0000000E+00; -5.6176763E-03;  4.0000000E+04;  0.0000000E+00;  3.9997547E+04; -7.7060922E-03;  0.0000000E+00; -1.9663041E-03;  3.2719568E+02;
  4.9157456E-01;  9.9999998E-03;  3.0002497E-02;5468; -7.1850899E-03;  0.0000000E+00; -4.5087079E-05;  1.0002744E+03;  1.0000210E-01;  2.2735159E+02;3;  1.1677847E+00;  0.0000000E+00; -5.3877655E-02;0; -9.6723950E-03;  4.0022762E+04;  0.0000000E+00; -5.6175198E-03;  4.0000000E+04;  0.0000000E+00;  3.9997543E+04; -7.7060931E-03;  0.0000000E+00; -1.9663021E-03;  3.2719659E+02;
  4.9156052E-01;  9.9999998E-03; -4.0002890E-02;5461; -7.1553560E-03;  0.0000000E+00;  6.1056417E-05;  1.0002744E+03;  1.0000205E-01;  2.2735159E+02;3;  1.1641564E+00;  0.0000000E+00;  7.1666904E-02;0; -9.5990757E-03;  4.0023117E+04;  0.0000000E+00; -1.0205380E-02;  4.0000000E+04;  0.0000000E+00;  3.9997418E+04; -7.6303654E-03;  0.0000000E+00; -1.9687105E-03;  3.5959134E+02;
  4.9156052E-01;  9.9999998E-03;  4.0002912E-02;5469; -7.1553597E-03;  0.0000000E+00; -6.1010873E-05;  1.0002745E+03;  1.0000205E-01;  2.2735159E+02;3;  1.1641400E+00;  0.0000000E+00; -7.1633227E-02;0; -9.5990784E-03;  4.0023117E+04;  0.0000000E+00; -1.0205771E-02;  4.0000000E+04;  0.0000000E+00;  3.9997418E+04; -7.6303692E-03;  0.0000000E+00; -1.9687098E-03;  3.5958679E+02;
  4.9154267E-01;  9.9999998E-03; -5.0003309E-02;5460; -7.1190828E-03;  0.0000000E+00;  7.7654760E-05;  1.0002756E+03;  1.0000209E-01;  2.2833922E+02;3;  1.1594613E+00;  0.0000000E+00;  8.9246266E-02;0; -9.5093641E-03;  4.0024000E+04;  0.0000000E+00; -1.6308203E-02;  4.0000000E+04;  0.0000000E+00;  3.9997027E+04; -7.5383666E-03;  0.0000000E+00; -1.9709978E-03;  3.9919485E+02;
  4.9154264E-01;  9.9999998E-03;  5.0003327E-02;5470; -7.1190875E-03;  0.0000000E+00; -7.7608856E-05;  1.0002756E+03;  1.0000209E-01;  2.2833922E+02;3;  1.1594427E+00;  0.0000000E+00; -8.9216642E-02;0; -9.5093651E-03;  4.0024004E+04;  0.0000000E+00; -1.6309738E-02;  4.0000000E+04;  0.0000000E+00;  3.9997027E+04; -7.5383703E-03;  0.0000000E+00; -1.9709950E-03;  3.9920071E+02;
  4.9152151E-01;  9.9999998E-03; -6.0003806E-02;5459; -7.0773447E-03;  0.0000000E+00;  9.4988347E-05;  1.0002859E+03;  1.0000206E-01;  2.3693156E+02;3;  1.1537265E+00;  0.0000000E+00;  1.0660992E-01;0; -9.4057592E-03;  4.0024777E+04;  0.0000000E+00; -2.3942111E-02;  4.0000000E+04;  0.0000000E+00;  3.9996582E+04; -7.4331891E-03;  0.0000000E+00; -1.9725699E-03;  4.4494775E+02;
  4.9152151E-01;  9.9999998E-03;  6.0003825E-02;5471; -7.0773493E-03;  0.0000000E+00; -9.4942327E-05;  1.0002859E+03;  1.0000206E-01;  2.3693156E+02;3;  1.1537139E+00;  0.0000000E+00; -1.0658611E-01;0; -9.4057620E-03;  4.0024777E+04;  0.0000000E+00; -2.3944335E-02;  4.0000000E+04;  0.0000000E+00;  3.9996582E+04; -7.4331909E-03;  0.0000000E+00; -1.9725705E-03;  4.4494757E+02;
  4.9149737E-01;  9.9999998E-03; -7.0004463E-02;5458; -7.0311017E-03;  0.0000000E+00;  1.1305401E-04;  1.0002986E+03;  1.0000208E-01;  2.4740041E+02;3;  1.1469862E+00;  0.0000000E+00;  1.2371825E-01;0; -9.2905648E-03;  4.0026090E+04;  0.0000000E+00; -3.2963280E-02;  4.0000000E+04;  0.0000000E+00;  3.9996129E+04; -7.3177898E-03;  0.0000000E+00; -1.9727745E-03;  4.9579297E+02;
  4.9147055E-01;  9.9999998E-03; -8.0005296E-02;5457; -6.9810953E-03;  0.0000000E+00;  1.3178859E-04;  1.0003148E+03;  1.0000210E-01;  2.6083212E+02;3;  1.1392214E+00;  0.0000000E+00;  1.4053133E-01;0; -9.1656148E-03;  4.0027891E+04;  0.0000000E+00; -4.2992700E-02;  4.0000000E+04;  0.0000000E+00;  3.9995633E+04; -7.1946406E-03;  0.0000000E+00; -1.9709738E-03;  5.5060291E+02;
  4.9144199E-01;  9.9999998E-03; -9.0006292E-02;5456; -6.9277640E-03;  0.0000000E+00;  1.5108669E-04;  1.0003363E+03;  1.0000204E-01;  2.7860941E+02;3;  1.1304966E+00;  0.0000000E+00;  1.5700744E-01;0; -9.0321451E-03;  4.0029988E+04;  0.0000000E+00; -5.3366128E-02;  4.0000000E+04;  0.0000000E+00;  3.9995496E+04; -7.0654447E-03;  0.0000000E+00; -1.9667004E-03;  6.0746350E+02;
  4.9141377E-01;  9.9999998E-03; -1.0000726E-01;5455; -6.8712109E-03;  0.0000000E+00;  1.7080952E-04;  1.0003566E+03;  1.0000208E-01;  2.9549780E+02;3;  1.1208115E+00;  0.0000000E+00;  1.7308114E-01;0; -8.8907825E-03;  4.0031758E+04;  0.0000000E+00; -6.3135400E-02;  4.0000000E+04;  0.0000000E+00;  3.9995137E+04; -6.9309589E-03;  0.0000000E+00; -1.9598235E-03;  6.6347266E+02;
  5.0143570E-01;  9.9999998E-03; -9.9992268E-02;5516; -6.9361124E-03;  0.0000000E+00;  1.9292731E-04;  1.0003208E+03;  1.0000372E-01;  2.6577026E+02;3;  1.1617014E+00;  0.0000000E+00;  1.6997711E-01;0; -8.8907853E-03;  4.0027570E+04;  0.0000000E+00; -1.0188862E-01;  4.0000000E+04;  0.0000000E+00;  3.9995344E+04; -6.6749654E-03;  0.0000000E+00; -2.2158204E-03;  6.1269910E+02;
  5.0146109E-01;  9.9999998E-03; -8.9992784E-02;5517; -6.9934418E-03;  0.0000000E+00;  1.7085172E-04;  1.0003157E+03;  1.0000387E-01;  2.6152347E+02;3;  1.1721886E+00;  0.0000000E+00;  1.5423350E-01;0; -9.0377592E-03;  4.0026395E+04;  0.0000000E+00; -9.1010921E-02;  4.0000000E+04;  0.0000000E+00;  3.9995957E+04; -6.8084286E-03;  0.0000000E+00; -2.2293306E-03;  5.3735742E+02;
  5.0148380E-01;  9.9999998E-03; -7.9993919E-02;5518; -7.0475880E-03;  0.0000000E+00;  1.4943615E-04;  1.0003174E+03;  1.0000373E-01;  2.6290616E+02;3;  1.1816763E+00;  0.0000000E+00;  1.3808005E-01;0; -9.1758147E-03;  4.0025391E+04;  0.0000000E+00; -7.7344552E-02;  4.0000000E+04;  0.0000000E+00;  3.9996574E+04; -6.9363518E-03;  0.0000000E+00; -2.2394627E-03;  4.6819083E+02;
  5.0150251E-01;  9.9999998E-03; -6.9995418E-02;5519; -7.0984624E-03;  0.0000000E+00;  1.2874622E-04;  1.0003137E+03;  1.0000388E-01;  2.5984451E+02;3;  1.1900905E+00;  0.0000000E+00;  1.2157737E-01;0; -9.3042841E-03;  4.0025395E+04;  0.0000000E+00; -6.2409960E-02;  4.0000000E+04;  0.0000000E+00;  3.9997117E+04; -7.0579313E-03;  0.0000000E+00; -2.2463531E-03;  4.0925177E+02;
  5.0151676E-01;  9.9999998E-03; -5.9996925E-02;5520; -7.1456288E-03;  0.0000000E+00;  1.0879325E-04;  1.0003206E+03;  1.0000376E-01;  2.6557272E+02;3;  1.1973941E+00;  0.0000000E+00;  1.0477652E-01;0; -9.4220117E-03;  4.0025527E+04;  0.0000000E+00; -4.7541253E-02;  4.0000000E+04;  0.0000000E+00;  3.9997410E+04; -7.1714958E-03;  0.0000000E+00; -2.2505156E-03;  3.6244910E+02;
  5.0152647E-01;  9.9999998E-03; -4.9998321E-02;5521; -7.1883053E-03;  0.0000000E+00;  8.9541420E-05;  1.0003295E+03;  1.0000374E-01;  2.7297992E+02;3;  1.2036110E+00;  0.0000000E+00;  8.7721042E-02;0; -9.5273219E-03;  4.0025871E+04;  0.0000000E+00; -3.3798981E-02;  4.0000000E+04;  0.0000000E+00;  3.9997535E+04; -7.2747171E-03;  0.0000000E+00; -2.2526050E-03;  3.2759778E+02;
  5.0153226E-01;  9.9999998E-03; -3.9999489E-02;5522; -7.2254753E-03;  0.0000000E+00;  7.0906091E-05;  1.0003419E+03;  1.0000377E-01;  2.8325125E+02;3;  1.2086836E+00;  0.0000000E+00;  7.0444837E-02;0; -9.6180905E-03;  4.0026738E+04;  0.0000000E+00; -2.1941440E-02;  4.0000000E+04;  0.0000000E+00;  3.9997977E+04; -7.3647723E-03;  0.0000000E+00; -2.2533187E-03;  3.0326566E+02;
  5.0153524E-01;  9.9999998E-03; -3.0000273E-02;5523; -7.2560068E-03;  0.0000000E+00;  5.2768210E-05;  1.0003558E+03;  1.0000386E-01;  2.9470770E+02;3;  1.2126366E+00;  0.0000000E+00;  5.2991975E-02;0; -9.6919956E-03;  4.0027824E+04;  0.0000000E+00; -1.2440224E-02;  4.0000000E+04;  0.0000000E+00;  3.9997941E+04; -7.4387337E-03;  0.0000000E+00; -2.2532616E-03;  2.8738470E+02;
  5.0153673E-01;  9.9999998E-03; -2.0000679E-02;5524; -7.2787800E-03;  0.0000000E+00;  3.4994413E-05;  1.0003666E+03;  1.0000373E-01;  3.0379388E+02;3;  1.2154405E+00;  0.0000000E+00;  3.5405375E-02;0; -9.7467806E-03;  4.0028363E+04;  0.0000000E+00; -5.5513550E-03;  4.0000000E+04;  0.0000000E+00;  3.9998207E+04; -7.4938554E-03;  0.0000000E+00; -2.2529254E-03;  2.7799545E+02;
  5.0153732E-01;  9.9999998E-03; -1.0000528E-02;5525; -7.2928625E-03;  0.0000000E+00;  1.7452954E-05;  1.0003736E+03;  1.0000381E-01;  3.0952213E+02;3;  1.2171332E+00;  0.0000000E+00;  1.7729022E-02;0; -9.7804945E-03;  4.0028820E+04;  0.0000000E+00; -1.3902682E-03;  4.0000000E+04;  0.0000000E+00;  3.9998160E+04; -7.5278892E-03;  0.0000000E+00; -2.2526048E-03;  2.7320114E+02;
  5.0153744E-01;  9.9999998E-03;  1.0075723E-08;5526; -7.2976290E-03;  0.0000000E+00;  2.3118320E-08;  1.0003753E+03;  1.0000373E-01;  3.1090479E+02;3;  1.2176822E+00;  0.0000000E+00;  9.2471491E-06;0; -9.7918902E-03;  4.0029160E+04;  0.0000000E+00; -4.3787400E-12;  4.0000000E+04;  0.0000000E+00;  3.9998180E+04; -7.5394087E-03;  0.0000000E+00; -2.2524812E-03;  2.7178439E+02;
  5.0153732E-01;  9.9999998E-03;  1.0000548E-02;5527; -7.2928634E-03;  0.0000000E+00; -1.7406532E-05;  1.0003736E+03;  1.0000381E-01;  3.0952213E+02;3;  1.2171375E+00;  0.0000000E+00; -1.7713413E-02;0; -9.7804964E-03;  4.0028824E+04;  0.0000000E+00; -1.3902475E-03;  4.0000000E+04;  0.0000000E+00;  3.9998164E+04; -7.5278920E-03;  0.0000000E+00; -2.2526046E-03;  2.7319135E+02;
  5.0153673E-01;  9.9999998E-03;  2.0000700E-02;5528; -7.2787832E-03;  0.0000000E+00; -3.4947276E-05;  1.0003667E+03;  1.0000373E-01;  3.0379388E+02;3;  1.2154127E+00;  0.0000000E+00; -3.5383236E-02;0; -9.7467750E-03;  4.0028363E+04;  0.0000000E+00; -5.5512399E-03;  4.0000000E+04;  0.0000000E+00;  3.9998207E+04; -7.4938526E-03;  0.0000000E+00; -2.2529229E-03;  2.7799872E+02;
  5.0153524E-01;  9.9999998E-03;  3.0000294E-02;5529; -7.2560092E-03;  0.0000000E+00; -5.2720265E-05;  1.0003557E+03;  1.0000386E-01;  2.9470770E+02;3;  1.2125930E+00;  0.0000000E+00; -5.2960195E-02;0; -9.6920012E-03;  4.0027828E+04;  0.0000000E+00; -1.2440450E-02;  4.0000000E+04;  0.0000000E+00;  3.9997941E+04; -7.4387370E-03;  0.0000000E+00; -2.2532640E-03;  2.8738086E+02;
  5.0153226E-01;  9.9999998E-03;  3.9999511E-02;5530; -7.2254818E-03;  0.0000000E+00; -7.0857306E-05;  1.0003419E+03;  1.0000377E-01;  2.8325125E+02;3;  1.2086452E+00;  0.0000000E+00; -7.0411876E-02;0; -9.6180914E-03;  4.0026730E+04;  0.0000000E+00; -2.1940978E-02;  4.0000000E+04;  0.0000000E+00;  3.9997977E+04; -7.3647751E-03;  0.0000000E+00; -2.2533166E-03;  3.0326605E+02;
  5.0152647E-01;  9.9999998E-03;  4.9998343E-02;5531; -7.1883108E-03;  0.0000000E+00; -8.9492481E-05;  1.0003295E+03;  1.0000374E-01;  2.7297992E+02;3;  1.2035738E+00;  0.0000000E+00; -8.7691277E-02;0; -9.5273303E-03;  4.0025871E+04;  0.0000000E+00; -3.3798166E-02;  4.0000000E+04;  0.0000000E+00;  3.9997531E+04; -7.2747227E-03;  0.0000000E+00; -2.2526076E-03;  3.2759827E+02;
  5.0151670E-01;  9.9999998E-03;  5.9996948E-02;5532; -7.1456349E-03;  0.0000000E+00; -1.0874408E-04;  1.0003206E+03;  1.0000376E-01;  2.6557272E+02;3;  1.1973664E+00;  0.0000000E+00; -1.0475059E-01;0; -9.4220219E-03;  4.0025516E+04;  0.0000000E+00; -4.7540881E-02;  4.0000000E+04;  0.0000000E+00;  3.9997410E+04; -7.1715042E-03;  0.0000000E+00; -2.2505180E-03;  3.6245343E+02;
  5.1144278E-01;  9.9999998E-03; -9.9981204E-02;5577; -6.9988901E-03;  0.0000000E+00;  2.2086932E-04;  1.0002818E+03;  1.0000619E-01;  2.3347488E+02;3;  1.2027479E+00;  0.0000000E+00;  1.6596226E-01;0; -8.9051519E-03;  4.0021801E+04;  0.0000000E+00; -1.3261640E-01;  4.0000000E+04;  0.0000000E+00;  3.9995977E+04; -6.4198980E-03;  0.0000000E+00; -2.4852543E-03;  5.8175238E+02;
  5.1146233E-01;  9.9999998E-03; -8.9983694E-02;5578; -7.0568658E-03;  0.0000000E+00;  1.9630085E-04;  1.0002850E+03;  1.0000612E-01;  2.3614146E+02;3;  1.2140958E+00;  0.0000000E+00;  1.5063193E-01;0; -9.0593155E-03;  4.0021070E+04;  0.0000000E+00; -1.2249879E-01;  4.0000000E+04;  0.0000000E+00;  3.9996324E+04; -6.5523186E-03;  0.0000000E+00; -2.5069970E-03;  4.9184290E+02;
  5.1147819E-01;  9.9999998E-03; -7.9986699E-02;5579; -7.1115573E-03;  0.0000000E+00;  1.7250594E-04;  1.0002891E+03;  1.0000617E-01;  2.3949940E+02;3;  1.2243507E+00;  0.0000000E+00;  1.3489266E-01;0; -9.2035877E-03;  4.0020977E+04;  0.0000000E+00; -1.0729781E-01;  4.0000000E+04;  0.0000000E+00;  3.9997230E+04; -6.6789016E-03;  0.0000000E+00; -2.5246863E-03;  4.1300598E+02;
  5.1148999E-01;  9.9999998E-03; -6.9989800E-02;5580; -7.1629109E-03;  0.0000000E+00;  1.4948234E-04;  1.0003010E+03;  1.0000610E-01;  2.4937566E+02;3;  1.2334337E+00;  0.0000000E+00;  1.1879926E-01;0; -9.3372520E-03;  4.0021582E+04;  0.0000000E+00; -8.8948682E-02;  4.0000000E+04;  0.0000000E+00;  3.9997566E+04; -6.7987898E-03;  0.0000000E+00; -2.5384622E-03;  3.4999158E+02;
  5.1149756E-01;  9.9999998E-03; -5.9992664E-02;5581; -7.2104875E-03;  0.0000000E+00;  1.2715596E-04;  1.0003188E+03;  1.0000613E-01;  2.6419006E+02;3;  1.2413348E+00;  0.0000000E+00;  1.0240426E-01;0; -9.4592050E-03;  4.0022195E+04;  0.0000000E+00; -6.9391519E-02;  4.0000000E+04;  0.0000000E+00;  3.9997727E+04; -6.9103888E-03;  0.0000000E+00; -2.5488159E-03;  3.0490631E+02;
  5.1150119E-01;  9.9999998E-03; -4.9995117E-02;5582; -7.2535197E-03;  0.0000000E+00;  1.0540143E-04;  1.0003384E+03;  1.0000623E-01;  2.8038715E+02;3;  1.2480446E+00;  0.0000000E+00;  8.5746735E-02;0; -9.5678084E-03;  4.0023645E+04;  0.0000000E+00; -5.0356220E-02;  4.0000000E+04;  0.0000000E+00;  3.9997957E+04; -7.0114285E-03;  0.0000000E+00; -2.5563797E-03;  2.7738657E+02;
  5.1150131E-01;  9.9999998E-03; -3.9997071E-02;5583; -7.2909854E-03;  0.0000000E+00;  8.4055631E-05;  1.0003564E+03;  1.0000616E-01;  2.9530029E+02;3;  1.2535520E+00;  0.0000000E+00;  6.8867549E-02;0; -9.6610803E-03;  4.0025129E+04;  0.0000000E+00; -3.3248551E-02;  4.0000000E+04;  0.0000000E+00;  3.9998195E+04; -7.0993141E-03;  0.0000000E+00; -2.5617657E-03;  2.6478610E+02;
  5.1149905E-01;  9.9999998E-03; -2.9998465E-02;5584; -7.3217489E-03;  0.0000000E+00;  6.2952065E-05;  1.0003781E+03;  1.0000622E-01;  3.1327509E+02;3;  1.2578242E+00;  0.0000000E+00;  5.1809900E-02;0; -9.7367996E-03;  4.0026387E+04;  0.0000000E+00; -1.9101936E-02;  4.0000000E+04;  0.0000000E+00;  3.9998168E+04; -7.1713054E-03;  0.0000000E+00; -2.5654943E-03;  2.6275842E+02;
  5.1149625E-01;  9.9999998E-03; -1.9999402E-02;5585; -7.3446929E-03;  0.0000000E+00;  4.1958257E-05;  1.0003951E+03;  1.0000621E-01;  3.2739816E+02;3;  1.2608697E+00;  0.0000000E+00;  3.4614585E-02;0; -9.7927935E-03;  4.0028176E+04;  0.0000000E+00; -8.6042406E-03;  4.0000000E+04;  0.0000000E+00;  3.9998293E+04; -7.2248424E-03;  0.0000000E+00; -2.5679506E-03;  2.6612805E+02;
  5.1149398E-01;  9.9999998E-03; -9.9998852E-03;5586; -7.3588779E-03;  0.0000000E+00;  2.0992627E-05;  1.0004064E+03;  1.0000639E-01;  3.3668182E+02;3;  1.2626961E+00;  0.0000000E+00;  1.7330805E-02;0; -9.8272208E-03;  4.0028859E+04;  0.0000000E+00; -2.1669546E-03;  4.0000000E+04;  0.0000000E+00;  3.9998191E+04; -7.2578671E-03;  0.0000000E+00; -2.5693537E-03;  2.7023688E+02;
  5.1149327E-01;  9.9999998E-03;  1.0568942E-08;5587; -7.3636789E-03;  0.0000000E+00;  2.4485418E-08;  1.0004083E+03;  1.0000618E-01;  3.3826202E+02;3;  1.2633035E+00;  0.0000000E+00;  2.3310381E-06;0; -9.8388381E-03;  4.0029125E+04;  0.0000000E+00; -1.4922086E-12;  4.0000000E+04;  0.0000000E+00;  3.9997941E+04; -7.2690216E-03;  0.0000000E+00; -2.5698168E-03;  2.7201224E+02;
  5.1149398E-01;  9.9999998E-03;  9.9999066E-03;5588; -7.3588793E-03;  0.0000000E+00; -2.0943136E-05;  1.0004065E+03;  1.0000639E-01;  3.3678061E+02;3;  1.2626843E+00;  0.0000000E+00; -1.7324809E-02;0; -9.8272162E-03;  4.0028859E+04;  0.0000000E+00; -2.1670091E-03;  4.0000000E+04;  0.0000000E+00;  3.9998191E+04; -7.2578634E-03;  0.0000000E+00; -2.5693527E-03;  2.7023737E+02;
  5.1149625E-01;  9.9999998E-03;  1.9999422E-02;5589; -7.3446957E-03;  0.0000000E+00; -4.1908035E-05;  1.0003951E+03;  1.0000621E-01;  3.2739816E+02;3;  1.2608504E+00;  0.0000000E+00; -3.4601372E-02;0; -9.7927954E-03;  4.0028176E+04;  0.0000000E+00; -8.6041568E-03;  4.0000000E+04;  0.0000000E+00;  3.9998293E+04; -7.2248434E-03;  0.0000000E+00; -2.5679523E-03;  2.6611200E+02;
  5.1149905E-01;  9.9999998E-03;  2.9998485E-02;5590; -7.3217526E-03;  0.0000000E+00; -6.2900777E-05;  1.0003781E+03;  1.0000622E-01;  3.1327509E+02;3;  1.2578133E+00;  0.0000000E+00; -5.1787179E-02;0; -9.7368164E-03;  4.0026383E+04;  0.0000000E+00; -1.9101683E-02;  4.0000000E+04;  0.0000000E+00;  3.9998168E+04; -7.1713198E-03;  0.0000000E+00; -2.5654964E-03;  2.6275928E+02;
  5.1150131E-01;  9.9999998E-03;  3.9997090E-02;5591; -7.2909915E-03;  0.0000000E+00; -8.4003994E-05;  1.0003566E+03;  1.0000611E-01;  2.9539905E+02;3;  1.2535183E+00;  0.0000000E+00; -6.8841442E-02;0; -9.6610840E-03;  4.0025129E+04;  0.0000000E+00; -3.3248965E-02;  4.0000000E+04;  0.0000000E+00;  3.9998195E+04; -7.0993160E-03;  0.0000000E+00; -2.5617676E-03;  2.6477466E+02;
  5.1150119E-01;  9.9999998E-03;  4.9995139E-02;5592; -7.2535262E-03;  0.0000000E+00; -1.0534970E-04;  1.0003384E+03;  1.0000623E-01;  2.8038715E+02;3;  1.2480224E+00;  0.0000000E+00; -8.5720792E-02;0; -9.5678121E-03;  4.0023645E+04;  0.0000000E+00; -5.0356876E-02;  4.0000000E+04;  0.0000000E+00;  3.9997961E+04; -7.0114285E-03;  0.0000000E+00; -2.5563834E-03;  2.7738434E+02;
  5.1149756E-01;  9.9999998E-03;  5.9992686E-02;5593; -7.2104954E-03;  0.0000000E+00; -1.2710446E-04;  1.0003188E+03;  1.0000613E-01;  2.6419006E+02;3;  1.2413141E+00;  0.0000000E+00; -1.0237399E-01;0; -9.4592096E-03;  4.0022195E+04;  0.0000000E+00; -6.9389582E-02;  4.0000000E+04;  0.0000000E+00;  3.9997730E+04; -6.9103921E-03;  0.0000000E+00; -2.5488178E-03;  3.0492484E+02;
  5.2143335E-01;  9.9999998E-03; -9.9977747E-02;5638; -7.0598586E-03;  0.0000000E+00;  2.5520247E-04;  1.0002426E+03;  1.0001040E-01;  2.0098196E+02;3;  1.2438859E+00;  0.0000000E+00;  1.6105148E-01;0; -8.9362832E-03;  4.0013957E+04;  0.0000000E+00; -1.4914323E-01;  4.0000000E+04;  0.0000000E+00;  3.9995922E+04; -6.1675278E-03;  0.0000000E+00; -2.7687557E-03;  5.7119391E+02;
  5.2144760E-01;  9.9999998E-03; -8.9981079E-02;5639; -7.1185427E-03;  0.0000000E+00;  2.2796266E-04;  1.0002408E+03;  1.0001049E-01;  1.9950053E+02;3;  1.2561378E+00;  0.0000000E+00;  1.4622267E-01;0; -9.0994779E-03;  4.0013512E+04;  0.0000000E+00; -1.4145949E-01;  4.0000000E+04;  0.0000000E+00;  3.9996715E+04; -6.2990119E-03;  0.0000000E+00; -2.8004663E-03;  4.7340884E+02;
  5.2145833E-01;  9.9999998E-03; -7.9984613E-02;5640; -7.1737622E-03;  0.0000000E+00;  2.0146476E-04;  1.0002450E+03;  1.0001046E-01;  2.0295723E+02;3;  1.2671850E+00;  0.0000000E+00;  1.3098404E-01;0; -9.2519158E-03;  4.0013273E+04;  0.0000000E+00; -1.2678924E-01;  4.0000000E+04;  0.0000000E+00;  3.9997191E+04; -6.4244056E-03;  0.0000000E+00; -2.8275102E-03;  3.8979721E+02;
  5.2146548E-01;  9.9999998E-03; -6.9988027E-02;5641; -7.2254715E-03;  0.0000000E+00;  1.7565012E-04;  1.0002596E+03;  1.0001037E-01;  2.1510503E+02;3;  1.2769692E+00;  0.0000000E+00;  1.1538825E-01;0; -9.3928007E-03;  4.0013598E+04;  0.0000000E+00; -1.0724644E-01;  4.0000000E+04;  0.0000000E+00;  3.9997703E+04; -6.5428102E-03;  0.0000000E+00; -2.8499907E-03;  3.2498978E+02;
  5.2146924E-01;  9.9999998E-03; -5.9991110E-02;5642; -7.2732433E-03;  0.0000000E+00;  1.5037585E-04;  1.0002750E+03;  1.0001051E-01;  2.2784541E+02;3;  1.2854962E+00;  0.0000000E+00;  9.9489249E-02;0; -9.5209666E-03;  4.0014512E+04;  0.0000000E+00; -8.5142024E-02;  4.0000000E+04;  0.0000000E+00;  3.9998102E+04; -6.6526392E-03;  0.0000000E+00; -2.8683273E-03;  2.8101273E+02;
  5.2147007E-01;  9.9999998E-03; -4.9993765E-02;5643; -7.3163472E-03;  0.0000000E+00;  1.2544358E-04;  1.0002973E+03;  1.0001035E-01;  2.4631403E+02;3;  1.2927455E+00;  0.0000000E+00;  8.3321609E-02;0; -9.6348058E-03;  4.0015762E+04;  0.0000000E+00; -6.2710285E-02;  4.0000000E+04;  0.0000000E+00;  3.9998336E+04; -6.7517473E-03;  0.0000000E+00; -2.8830583E-03;  2.5799347E+02;
  5.2146804E-01;  9.9999998E-03; -3.9995953E-02;5644; -7.3537859E-03;  0.0000000E+00;  1.0063457E-04;  1.0003179E+03;  1.0001035E-01;  2.6330121E+02;3;  1.2986633E+00;  0.0000000E+00;  6.6930197E-02;0; -9.7323321E-03;  4.0017438E+04;  0.0000000E+00; -4.1911948E-02;  4.0000000E+04;  0.0000000E+00;  3.9998297E+04; -6.8376819E-03;  0.0000000E+00; -2.8946502E-03;  2.5362683E+02;
  5.2146477E-01;  9.9999998E-03; -2.9997567E-02;5645; -7.3844623E-03;  0.0000000E+00;  7.5756783E-05;  1.0003339E+03;  1.0001040E-01;  2.7663416E+02;3;  1.3032877E+00;  0.0000000E+00;  5.0355934E-02;0; -9.8113557E-03;  4.0019109E+04;  0.0000000E+00; -2.4307156E-02;  4.0000000E+04;  0.0000000E+00;  3.9998168E+04; -6.9078733E-03;  0.0000000E+00; -2.9034826E-03;  2.6210486E+02;
  5.2146131E-01;  9.9999998E-03; -1.9998752E-02;5646; -7.4073114E-03;  0.0000000E+00;  5.0692128E-05;  1.0003531E+03;  1.0001042E-01;  2.9253494E+02;3;  1.3065784E+00;  0.0000000E+00;  3.3645019E-02;0; -9.8696938E-03;  4.0020645E+04;  0.0000000E+00; -1.1022164E-02;  4.0000000E+04;  0.0000000E+00;  3.9998059E+04; -6.9599482E-03;  0.0000000E+00; -2.9097458E-03;  2.7562634E+02;
  5.2145880E-01;  9.9999998E-03; -9.9995332E-03;5647; -7.4214223E-03;  0.0000000E+00;  2.5423940E-05;  1.0003640E+03;  1.0001042E-01;  3.0162109E+02;3;  1.3085669E+00;  0.0000000E+00;  1.6843807E-02;0; -9.9055413E-03;  4.0021520E+04;  0.0000000E+00; -2.7868620E-03;  4.0000000E+04;  0.0000000E+00;  3.9997797E+04; -6.9920351E-03;  0.0000000E+00; -2.9135065E-03;  2.8691223E+02;
  5.2145791E-01;  9.9999998E-03;  1.1104106E-08;5648; -7.4261981E-03;  0.0000000E+00;  2.6123317E-08;  1.0003692E+03;  1.0001050E-01;  3.0586789E+02;3;  1.3092250E+00;  0.0000000E+00; -1.1485101E-06;0; -9.9176262E-03;  4.0021828E+04;  0.0000000E+00; -1.8551187E-12;  4.0000000E+04;  0.0000000E+00;  3.9997848E+04; -7.0028650E-03;  0.0000000E+00; -2.9147617E-03;  2.9130130E+02;
  5.2145880E-01;  9.9999998E-03;  9.9995555E-03;5649; -7.4214232E-03;  0.0000000E+00; -2.5371759E-05;  1.0003641E+03;  1.0001042E-01;  3.0162109E+02;3;  1.3085610E+00;  0.0000000E+00; -1.6846050E-02;0; -9.9055385E-03;  4.0021520E+04;  0.0000000E+00; -2.7871344E-03;  4.0000000E+04;  0.0000000E+00;  3.9997797E+04; -6.9920295E-03;  0.0000000E+00; -2.9135093E-03;  2.8691806E+02;
  5.2146131E-01;  9.9999998E-03;  1.9998774E-02;5650; -7.4073151E-03;  0.0000000E+00; -5.0638911E-05;  1.0003531E+03;  1.0001042E-01;  2.9253494E+02;3;  1.3065617E+00;  0.0000000E+00; -3.3638682E-02;0; -9.8697077E-03;  4.0020645E+04;  0.0000000E+00; -1.1022532E-02;  4.0000000E+04;  0.0000000E+00;  3.9998059E+04; -6.9599589E-03;  0.0000000E+00; -2.9097490E-03;  2.7561429E+02;
  5.2146477E-01;  9.9999998E-03;  2.9997589E-02;5651; -7.3844669E-03;  0.0000000E+00; -7.5702585E-05;  1.0003339E+03;  1.0001040E-01;  2.7663416E+02;3;  1.3032656E+00;  0.0000000E+00; -5.0343793E-02;0; -9.8113567E-03;  4.0019113E+04;  0.0000000E+00; -2.4306947E-02;  4.0000000E+04;  0.0000000E+00;  3.9998168E+04; -6.9078724E-03;  0.0000000E+00; -2.9034847E-03;  2.6210904E+02;
  5.2146804E-01;  9.9999998E-03;  3.9995976E-02;5652; -7.3537910E-03;  0.0000000E+00; -1.0057980E-04;  1.0003177E+03;  1.0001045E-01;  2.6320242E+02;3;  1.2986487E+00;  0.0000000E+00; -6.6905402E-02;0; -9.7323423E-03;  4.0017434E+04;  0.0000000E+00; -4.1911498E-02;  4.0000000E+04;  0.0000000E+00;  3.9998297E+04; -6.8376884E-03;  0.0000000E+00; -2.8946539E-03;  2.5362692E+02;
  5.2147007E-01;  9.9999998E-03;  4.9993787E-02;5653; -7.3163533E-03;  0.0000000E+00; -1.2538892E-04;  1.0002973E+03;  1.0001035E-01;  2.4631403E+02;3;  1.2927035E+00;  0.0000000E+00; -8.3296806E-02;0; -9.6348207E-03;  4.0015766E+04;  0.0000000E+00; -6.2710434E-02;  4.0000000E+04;  0.0000000E+00;  3.9998336E+04; -6.7517562E-03;  0.0000000E+00; -2.8830643E-03;  2.5800519E+02;
  5.2146924E-01;  9.9999998E-03;  5.9991132E-02;5654; -7.2732517E-03;  0.0000000E+00; -1.5032142E-04;  1.0002751E+03;  1.0001051E-01;  2.2794417E+02;3;  1.2854729E+00;  0.0000000E+00; -9.9456675E-02;0; -9.5209870E-03;  4.0014512E+04;  0.0000000E+00; -8.5141696E-02;  4.0000000E+04;  0.0000000E+00;  3.9998102E+04; -6.6526541E-03;  0.0000000E+00; -2.8683324E-03;  2.8100955E+02;
  5.3140944E-01;  9.9999998E-03; -9.9982172E-02;5699; -7.1192058E-03;  0.0000000E+00;  2.9564006E-04;  1.0002005E+03;  1.0001730E-01;  1.6611876E+02;3;  1.2850466E+00;  0.0000000E+00;  1.5525077E-01;0; -8.9840842E-03;  4.0004773E+04;  0.0000000E+00; -1.4559816E-01;  4.0000000E+04;  0.0000000E+00;  3.9995684E+04; -5.9169941E-03;  0.0000000E+00; -3.0670904E-03;  5.7646838E+02;
  5.3141880E-01;  9.9999998E-03; -8.9985564E-02;5700; -7.1788356E-03;  0.0000000E+00;  2.6551099E-04;  1.0001920E+03;  1.0001747E-01;  1.5910661E+02;3;  1.2982407E+00;  0.0000000E+00;  1.4100617E-01;0; -9.1579724E-03;  4.0003207E+04;  0.0000000E+00; -1.4170021E-01;  4.0000000E+04;  0.0000000E+00;  3.9996461E+04; -6.0476228E-03;  0.0000000E+00; -3.1103501E-03;  4.7635165E+02;
  5.3142506E-01;  9.9999998E-03; -7.9988874E-02;5701; -7.2347824E-03;  0.0000000E+00;  2.3595421E-04;  1.0001864E+03;  1.0001741E-01;  1.5446477E+02;3;  1.3100846E+00;  0.0000000E+00;  1.2635303E-01;0; -9.3203355E-03;  4.0002246E+04;  0.0000000E+00; -1.2983218E-01;  4.0000000E+04;  0.0000000E+00;  3.9997148E+04; -6.1719865E-03;  0.0000000E+00; -3.1483490E-03;  3.9205789E+02;
  5.3142810E-01;  9.9999998E-03; -6.9991857E-02;5702; -7.2869947E-03;  0.0000000E+00;  2.0686814E-04;  1.0001900E+03;  1.0001725E-01;  1.5742764E+02;3;  1.3206128E+00;  0.0000000E+00;  1.1134543E-01;0; -9.4702533E-03;  4.0001625E+04;  0.0000000E+00; -1.1193031E-01;  4.0000000E+04;  0.0000000E+00;  3.9997801E+04; -6.2891580E-03;  0.0000000E+00; -3.1810955E-03;  3.2840436E+02;
  5.3142864E-01;  9.9999998E-03; -5.9994370E-02;5703; -7.3350524E-03;  0.0000000E+00;  1.7805836E-04;  1.0001916E+03;  1.0001735E-01;  1.5871156E+02;3;  1.3297826E+00;  0.0000000E+00;  9.6027106E-02;0; -9.6064806E-03;  4.0002105E+04;  0.0000000E+00; -9.0321101E-02;  4.0000000E+04;  0.0000000E+00;  3.9997945E+04; -6.3975682E-03;  0.0000000E+00; -3.2089122E-03;  2.8732397E+02;
  5.3142643E-01;  9.9999998E-03; -4.9996443E-02;5704; -7.3782615E-03;  0.0000000E+00;  1.4927756E-04;  1.0002048E+03;  1.0001732E-01;  1.6967421E+02;3;  1.3375587E+00;  0.0000000E+00;  8.0442727E-02;0; -9.7273234E-03;  4.0002746E+04;  0.0000000E+00; -6.7444101E-02;  4.0000000E+04;  0.0000000E+00;  3.9998109E+04; -6.4951591E-03;  0.0000000E+00; -3.2321638E-03;  2.6928064E+02;
  5.3142238E-01;  9.9999998E-03; -3.9997969E-02;5705; -7.4156728E-03;  0.0000000E+00;  1.2028005E-04;  1.0002207E+03;  1.0001732E-01;  1.8280965E+02;3;  1.3439275E+00;  0.0000000E+00;  6.4629979E-02;0; -9.8307421E-03;  4.0003996E+04;  0.0000000E+00; -4.5580134E-02;  4.0000000E+04;  0.0000000E+00;  3.9998039E+04; -6.5795728E-03;  0.0000000E+00; -3.2511691E-03;  2.7190744E+02;
  5.3141832E-01;  9.9999998E-03; -2.9998900E-02;5706; -7.4462467E-03;  0.0000000E+00;  9.0873029E-05;  1.0002368E+03;  1.0001733E-01;  1.9624136E+02;3;  1.3489102E+00;  0.0000000E+00;  4.8633028E-02;0; -9.9144401E-03;  4.0005266E+04;  0.0000000E+00; -2.6662653E-02;  4.0000000E+04;  0.0000000E+00;  3.9997781E+04; -6.6483468E-03;  0.0000000E+00; -3.2660936E-03;  2.8845486E+02;
  5.3141439E-01;  9.9999998E-03; -1.9999566E-02;5707; -7.4689509E-03;  0.0000000E+00;  6.0971510E-05;  1.0002466E+03;  1.0001739E-01;  2.0433990E+02;3;  1.3524690E+00;  0.0000000E+00;  3.2494862E-02;0; -9.9762250E-03;  4.0006344E+04;  0.0000000E+00; -1.2164420E-02;  4.0000000E+04;  0.0000000E+00;  3.9997527E+04; -6.6993204E-03;  0.0000000E+00; -3.2769050E-03;  3.0934433E+02;
  5.3141189E-01;  9.9999998E-03; -9.9999113E-03;5708; -7.4829576E-03;  0.0000000E+00;  3.0628864E-05;  1.0002570E+03;  1.0001720E-01;  2.1293225E+02;3;  1.3545952E+00;  0.0000000E+00;  1.6265232E-02;0; -1.0014141E-02;  4.0007059E+04;  0.0000000E+00; -3.0869409E-03;  4.0000000E+04;  0.0000000E+00;  3.9997348E+04; -6.7306552E-03;  0.0000000E+00; -3.2834853E-03;  3.2584686E+02;
  5.3141105E-01;  9.9999998E-03;  1.1585998E-08;5709; -7.4876901E-03;  0.0000000E+00;  2.7516174E-08;  1.0002584E+03;  1.0001738E-01;  2.1401863E+02;3;  1.3553106E+00;  0.0000000E+00; -7.1305321E-06;0; -1.0026926E-02;  4.0007438E+04;  0.0000000E+00; -3.0746126E-12;  4.0000000E+04;  0.0000000E+00;  3.9997293E+04; -6.7412304E-03;  0.0000000E+00; -3.2856963E-03;  3.3206033E+02;
  5.3141183E-01;  9.9999998E-03;  9.9999346E-03;5710; -7.4829590E-03;  0.0000000E+00; -3.0573552E-05;  1.0002570E+03;  1.0001720E-01;  2.1293225E+02;3;  1.3545746E+00;  0.0000000E+00; -1.6275225E-02;0; -1.0014144E-02;  4.0007062E+04;  0.0000000E+00; -3.0870780E-03;  4.0000000E+04;  0.0000000E+00;  3.9997344E+04; -6.7306552E-03;  0.0000000E+00; -3.2834888E-03;  3.2585553E+02;
  5.3141439E-01;  9.9999998E-03;  1.9999590E-02;5711; -7.4689542E-03;  0.0000000E+00; -6.0915496E-05;  1.0002467E+03;  1.0001739E-01;  2.0443866E+02;3;  1.3524486E+00;  0.0000000E+00; -3.2498285E-02;0; -9.9762240E-03;  4.0006344E+04;  0.0000000E+00; -1.2164427E-02;  4.0000000E+04;  0.0000000E+00;  3.9997527E+04; -6.6993181E-03;  0.0000000E+00; -3.2769060E-03;  3.0936179E+02;
  5.3141826E-01;  9.9999998E-03;  2.9998925E-02;5712; -7.4462509E-03;  0.0000000E+00; -9.0816233E-05;  1.0002368E+03;  1.0001733E-01;  1.9624136E+02;3;  1.3488747E+00;  0.0000000E+00; -4.8624855E-02;0; -9.9144587E-03;  4.0005270E+04;  0.0000000E+00; -2.6663193E-02;  4.0000000E+04;  0.0000000E+00;  3.9997781E+04; -6.6483547E-03;  0.0000000E+00; -3.2661040E-03;  2.8847018E+02;
  5.3142238E-01;  9.9999998E-03;  3.9997991E-02;5713; -7.4156793E-03;  0.0000000E+00; -1.2022298E-04;  1.0002206E+03;  1.0001726E-01;  1.8271088E+02;3;  1.3438970E+00;  0.0000000E+00; -6.4617455E-02;0; -9.8307524E-03;  4.0004004E+04;  0.0000000E+00; -4.5580257E-02;  4.0000000E+04;  0.0000000E+00;  3.9998039E+04; -6.5795789E-03;  0.0000000E+00; -3.2511731E-03;  2.7189453E+02;
  5.3142643E-01;  9.9999998E-03;  4.9996465E-02;5714; -7.3782704E-03;  0.0000000E+00; -1.4922002E-04;  1.0002049E+03;  1.0001732E-01;  1.6977298E+02;3;  1.3375187E+00;  0.0000000E+00; -8.0421701E-02;0; -9.7273421E-03;  4.0002742E+04;  0.0000000E+00; -6.7444667E-02;  4.0000000E+04;  0.0000000E+00;  3.9998102E+04; -6.4951675E-03;  0.0000000E+00; -3.2321746E-03;  2.6927621E+02;
  5.3142864E-01;  9.9999998E-03;  5.9994396E-02;5715; -7.3350612E-03;  0.0000000E+00; -1.7800176E-04;  1.0001915E+03;  1.0001728E-01;  1.5861279E+02;3;  1.3297348E+00;  0.0000000E+00; -9.6013017E-02;0; -9.6064974E-03;  4.0002098E+04;  0.0000000E+00; -9.0322107E-02;  4.0000000E+04;  0.0000000E+00;  3.9997945E+04; -6.3975756E-03;  0.0000000E+00; -3.2089218E-03;  2.8732822E+02;
  5.4138023E-01;  9.9999998E-03; -9.9992998E-02;5760; -7.1769268E-03;  0.0000000E+00;  3.4111130E-04;  1.0001877E+03;  1.0002934E-01;  1.5555116E+02;3;  1.3262076E+00;  0.0000000E+00;  1.4855732E-01;0; -9.0465397E-03;  3.9993609E+04;  0.0000000E+00; -1.1780328E-01;  4.0000000E+04;  0.0000000E+00;  3.9995254E+04; -5.6653405E-03;  0.0000000E+00; -3.3811994E-03;  5.9435614E+02;
  5.4138529E-01;  9.9999998E-03; -8.9995593E-02;5761; -7.2378526E-03;  0.0000000E+00;  3.0784393E-04;  1.0001633E+03;  1.0002936E-01;  1.3530481E+02;3;  1.3403269E+00;  0.0000000E+00;  1.3498788E-01;0; -9.2322044E-03;  3.9990852E+04;  0.0000000E+00; -1.1864864E-01;  4.0000000E+04;  0.0000000E+00;  3.9996355E+04; -5.7949023E-03;  0.0000000E+00; -3.4373023E-03;  4.9601364E+02;
  5.4138744E-01;  9.9999998E-03; -7.9998016E-02;5762; -7.2949002E-03;  0.0000000E+00;  2.7486825E-04;  1.0001423E+03;  1.0002926E-01;  1.1782383E+02;3;  1.3530372E+00;  0.0000000E+00;  1.2100800E-01;0; -9.4055934E-03;  3.9988230E+04;  0.0000000E+00; -1.1184611E-01;  4.0000000E+04;  0.0000000E+00;  3.9996863E+04; -5.9181023E-03;  0.0000000E+00; -3.4874910E-03;  4.1393134E+02;
  5.4138672E-01;  9.9999998E-03; -6.9999985E-02;5763; -7.3479875E-03;  0.0000000E+00;  2.4205868E-04;  1.0001251E+03;  1.0002947E-01;  1.0370077E+02;3;  1.3643199E+00;  0.0000000E+00;  1.0666971E-01;0; -9.5657334E-03;  3.9986520E+04;  0.0000000E+00; -9.8763786E-02;  4.0000000E+04;  0.0000000E+00;  3.9997332E+04; -6.0340320E-03;  0.0000000E+00; -3.5317014E-03;  3.5388168E+02;
  5.4138321E-01;  9.9999998E-03; -6.0001444E-02;5764; -7.3967036E-03;  0.0000000E+00;  2.0918775E-04;  1.0001142E+03;  1.0002933E-01;  9.4614609E+01;3;  1.3741146E+00;  0.0000000E+00;  9.2023917E-02;0; -9.7112469E-03;  3.9985223E+04;  0.0000000E+00; -8.1318490E-02;  4.0000000E+04;  0.0000000E+00;  3.9997543E+04; -6.1411574E-03;  0.0000000E+00; -3.5700896E-03;  3.1820435E+02;
  5.4137725E-01;  9.9999998E-03; -5.0002385E-02;5765; -7.4403416E-03;  0.0000000E+00;  1.7598776E-04;  1.0001088E+03;  1.0002938E-01;  9.0071526E+01;3;  1.3824633E+00;  0.0000000E+00;  7.7109069E-02;0; -9.8403143E-03;  3.9984914E+04;  0.0000000E+00; -6.1739318E-02;  4.0000000E+04;  0.0000000E+00;  3.9997523E+04; -6.2374631E-03;  0.0000000E+00; -3.6028512E-03;  3.0675391E+02;
  5.4137057E-01;  9.9999998E-03; -4.0002767E-02;5766; -7.4779945E-03;  0.0000000E+00;  1.4221043E-04;  1.0001055E+03;  1.0002935E-01;  8.7404938E+01;3;  1.3892806E+00;  0.0000000E+00;  6.1964460E-02;0; -9.9507403E-03;  3.9985004E+04;  0.0000000E+00; -4.2286173E-02;  4.0000000E+04;  0.0000000E+00;  3.9997230E+04; -6.3206311E-03;  0.0000000E+00; -3.6301089E-03;  3.1611081E+02;
  5.4136425E-01;  9.9999998E-03; -3.0002613E-02;5767; -7.5086872E-03;  0.0000000E+00;  1.0768204E-04;  1.0001127E+03;  1.0002936E-01;  9.3429459E+01;3;  1.3946096E+00;  0.0000000E+00;  4.6633523E-02;0; -1.0040115E-02;  3.9985492E+04;  0.0000000E+00; -2.4989324E-02;  4.0000000E+04;  0.0000000E+00;  3.9996898E+04; -6.3883308E-03;  0.0000000E+00; -3.6517836E-03;  3.3849396E+02;
  5.4135901E-01;  9.9999998E-03; -2.0002067E-02;5768; -7.5314301E-03;  0.0000000E+00;  7.2364623E-05;  1.0001186E+03;  1.0002936E-01;  9.8268829E+01;3;  1.3984182E+00;  0.0000000E+00;  3.1162214E-02;0; -1.0106039E-02;  3.9986137E+04;  0.0000000E+00; -1.1483276E-02;  4.0000000E+04;  0.0000000E+00;  3.9996840E+04; -6.4384178E-03;  0.0000000E+00; -3.6676216E-03;  3.6403470E+02;
  5.4135579E-01;  9.9999998E-03; -1.0001202E-02;5769; -7.5454246E-03;  0.0000000E+00;  3.6385853E-05;  1.0001196E+03;  1.0002940E-01;  9.9058929E+01;3;  1.4006989E+00;  0.0000000E+00;  1.5598875E-02;0; -1.0146495E-02;  3.9986387E+04;  0.0000000E+00; -2.9265957E-03;  4.0000000E+04;  0.0000000E+00;  3.9996516E+04; -6.4691934E-03;  0.0000000E+00; -3.6773020E-03;  3.8356570E+02;
  5.4135472E-01;  9.9999998E-03;  1.2018445E-08;5770; -7.5501539E-03;  0.0000000E+00;  2.8991977E-08;  1.0001208E+03;  1.0002925E-01;  1.0004655E+02;3;  1.4014565E+00;  0.0000000E+00; -9.0205713E-06;0; -1.0160156E-02;  3.9986586E+04;  0.0000000E+00; -1.2972401E-12;  4.0000000E+04;  0.0000000E+00;  3.9996617E+04; -6.4795883E-03;  0.0000000E+00; -3.6805677E-03;  3.9085535E+02;
  5.4135579E-01;  9.9999998E-03;  1.0001226E-02;5771; -7.5454265E-03;  0.0000000E+00; -3.6327663E-05;  1.0001196E+03;  1.0002940E-01;  9.9058929E+01;3;  1.4007021E+00;  0.0000000E+00; -1.5614174E-02;0; -1.0146515E-02;  3.9986383E+04;  0.0000000E+00; -2.9267743E-03;  4.0000000E+04;  0.0000000E+00;  3.9996516E+04; -6.4692092E-03;  0.0000000E+00; -3.6773051E-03;  3.8356387E+02;
  5.4135901E-01;  9.9999998E-03;  2.0002091E-02;5772; -7.5314343E-03;  0.0000000E+00; -7.2305906E-05;  1.0001186E+03;  1.0002936E-01;  9.8268829E+01;3;  1.3984206E+00;  0.0000000E+00; -3.1172585E-02;0; -1.0106033E-02;  3.9986141E+04;  0.0000000E+00; -1.1483395E-02;  4.0000000E+04;  0.0000000E+00;  3.9996840E+04; -6.4384113E-03;  0.0000000E+00; -3.6676216E-03;  3.6403067E+02;
  5.4136425E-01;  9.9999998E-03;  3.0002637E-02;5773; -7.5086919E-03;  0.0000000E+00; -1.0762271E-04;  1.0001127E+03;  1.0002931E-01;  9.3429459E+01;3;  1.3945950E+00;  0.0000000E+00; -4.6634454E-02;0; -1.0040121E-02;  3.9985496E+04;  0.0000000E+00; -2.4989421E-02;  4.0000000E+04;  0.0000000E+00;  3.9996898E+04; -6.3883299E-03;  0.0000000E+00; -3.6517915E-03;  3.3849319E+02;
  5.4137057E-01;  9.9999998E-03;  4.0002793E-02;5774; -7.4780011E-03;  0.0000000E+00; -1.4215082E-04;  1.0001056E+03;  1.0002930E-01;  8.7503700E+01;3;  1.3892468E+00;  0.0000000E+00; -6.1957750E-02;0; -9.9507552E-03;  3.9985000E+04;  0.0000000E+00; -4.2285986E-02;  4.0000000E+04;  0.0000000E+00;  3.9997223E+04; -6.3206381E-03;  0.0000000E+00; -3.6301173E-03;  3.1610724E+02;
  5.4137725E-01;  9.9999998E-03;  5.0002411E-02;5775; -7.4403505E-03;  0.0000000E+00; -1.7592797E-04;  1.0001088E+03;  1.0002938E-01;  9.0071526E+01;3;  1.3824227E+00;  0.0000000E+00; -7.7098154E-02;0; -9.8403376E-03;  3.9984914E+04;  0.0000000E+00; -6.1739538E-02;  4.0000000E+04;  0.0000000E+00;  3.9997520E+04; -6.2374747E-03;  0.0000000E+00; -3.6028633E-03;  3.0676154E+02;
  5.4138321E-01;  9.9999998E-03;  6.0001466E-02;5776; -7.3967138E-03;  0.0000000E+00; -2.0912869E-04;  1.0001143E+03;  1.0002933E-01;  9.4614609E+01;3;  1.3740852E+00;  0.0000000E+00; -9.2011943E-02;0; -9.7112618E-03;  3.9985223E+04;  0.0000000E+00; -8.1320554E-02;  4.0000000E+04;  0.0000000E+00;  3.9997543E+04; -6.1411639E-03;  0.0000000E+00; -3.5700977E-03;  3.1822168E+02;
  5.5136019E-01;  9.9999998E-03; -1.0000581E-01;5821; -7.2327456E-03;  0.0000000E+00;  3.8995530E-04;  1.0002142E+03;  1.0004845E-01;  1.7747646E+02;3;  1.3672670E+00;  0.0000000E+00;  1.4095967E-01;0; -9.1206525E-03;  3.9980090E+04;  0.0000000E+00; -6.4977817E-02;  4.0000000E+04;  0.0000000E+00;  3.9994910E+04; -5.4085357E-03;  0.0000000E+00; -3.7121172E-03;  6.2612628E+02;
  5.5136317E-01;  9.9999998E-03; -9.0007327E-02;5822; -7.2953347E-03;  0.0000000E+00;  3.5328511E-04;  1.0001638E+03;  1.0004840E-01;  1.3569986E+02;3;  1.3823711E+00;  0.0000000E+00;  1.2814735E-01;0; -9.3183294E-03;  3.9975613E+04;  0.0000000E+00; -7.0951767E-02;  4.0000000E+04;  0.0000000E+00;  3.9995367E+04; -5.5363500E-03;  0.0000000E+00; -3.7819790E-03;  5.3383636E+02;
  5.5136251E-01;  9.9999998E-03; -8.0008462E-02;5823; -7.3539349E-03;  0.0000000E+00;  3.1656201E-04;  1.0001207E+03;  1.0004842E-01;  9.9947792E+01;3;  1.3959587E+00;  0.0000000E+00;  1.1492384E-01;0; -9.5030088E-03;  3.9971176E+04;  0.0000000E+00; -7.1126930E-02;  4.0000000E+04;  0.0000000E+00;  3.9996105E+04; -5.6577977E-03;  0.0000000E+00; -3.8452111E-03;  4.5650830E+02;
  5.5135816E-01;  9.9999998E-03; -7.0009075E-02;5824; -7.4083894E-03;  0.0000000E+00;  2.7965495E-04;  1.0000806E+03;  1.0004834E-01;  6.6763542E+01;3;  1.4080032E+00;  0.0000000E+00;  1.0134983E-01;0; -9.6736606E-03;  3.9967660E+04;  0.0000000E+00; -6.5936372E-02;  4.0000000E+04;  0.0000000E+00;  3.9996570E+04; -5.7720435E-03;  0.0000000E+00; -3.9016174E-03;  4.0136246E+02;
  5.5135101E-01;  9.9999998E-03; -6.0009200E-02;5825; -7.4582752E-03;  0.0000000E+00;  2.4232820E-04;  1.0000490E+03;  1.0004846E-01;  4.0591446E+01;3;  1.4184911E+00;  0.0000000E+00;  8.7463319E-02;0; -9.8287947E-03;  3.9965016E+04;  0.0000000E+00; -5.6432705E-02;  4.0000000E+04;  0.0000000E+00;  3.9997070E+04; -5.8775423E-03;  0.0000000E+00; -3.9512520E-03;  3.7129654E+02;
  5.5134165E-01;  9.9999998E-03; -5.0008919E-02;5826; -7.5028557E-03;  0.0000000E+00;  2.0431131E-04;  1.0000223E+03;  1.0004857E-01;  1.8468613E+01;3;  1.4273823E+00;  0.0000000E+00;  7.3309548E-02;0; -9.9664573E-03;  3.9962922E+04;  0.0000000E+00; -4.4176862E-02;  4.0000000E+04;  0.0000000E+00;  3.9996688E+04; -5.9723384E-03;  0.0000000E+00; -3.9941189E-03;  3.6540881E+02;
  5.5133206E-01;  9.9999998E-03; -4.0008154E-02;5827; -7.5412504E-03;  0.0000000E+00;  1.6537009E-04;  1.0000069E+03;  1.0004835E-01;  5.7282329E+00;3;  1.4346764E+00;  0.0000000E+00;  5.8926310E-02;0; -1.0084273E-02;  3.9961500E+04;  0.0000000E+00; -3.0980898E-02;  4.0000000E+04;  0.0000000E+00;  3.9996605E+04; -6.0541616E-03;  0.0000000E+00; -4.0301117E-03;  3.7894916E+02;
  5.5132276E-01;  9.9999998E-03; -3.0006904E-02;5828; -7.5724651E-03;  0.0000000E+00;  1.2536476E-04;  9.9999908E+02;  1.0004839E-01; -7.4071980E-01;3;  1.4403596E+00;  0.0000000E+00;  4.4356123E-02;0; -1.0179631E-02;  3.9961129E+04;  0.0000000E+00; -1.8634280E-02;  4.0000000E+04;  0.0000000E+00;  3.9996367E+04; -6.1207442E-03;  0.0000000E+00; -4.0588877E-03;  4.0399097E+02;
  5.5131489E-01;  9.9999998E-03; -2.0005222E-02;5829; -7.5955377E-03;  0.0000000E+00;  8.4311243E-05;  9.9999103E+02;  1.0004836E-01; -7.4565792E+00;3;  1.4444399E+00;  0.0000000E+00;  2.9645076E-02;0; -1.0249984E-02;  3.9960605E+04;  0.0000000E+00; -8.6686984E-03;  4.0000000E+04;  0.0000000E+00;  3.9996250E+04; -6.1700135E-03;  0.0000000E+00; -4.0799710E-03;  4.3106894E+02;
  5.5130935E-01;  9.9999998E-03; -1.0002921E-02;5830; -7.6097068E-03;  0.0000000E+00;  4.2409098E-05;  9.9998267E+02;  1.0004847E-01; -1.4369964E+01;3;  1.4468555E+00;  0.0000000E+00;  1.4840119E-02;0; -1.0293154E-02;  3.9960414E+04;  0.0000000E+00; -2.2253774E-03;  4.0000000E+04;  0.0000000E+00;  3.9996234E+04; -6.2003010E-03;  0.0000000E+00; -4.0928531E-03;  4.5148389E+02;
  5.5130738E-01;  9.9999998E-03;  1.2374961E-08;5831; -7.6145045E-03;  0.0000000E+00;  3.0412721E-08;  9.9998431E+02;  1.0004861E-01; -1.2987287E+01;3;  1.4476873E+00;  0.0000000E+00; -1.0803419E-05;0; -1.0307713E-02;  3.9960391E+04;  0.0000000E+00; -2.8254961E-12;  4.0000000E+04;  0.0000000E+00;  3.9996000E+04; -6.2105232E-03;  0.0000000E+00; -4.0971902E-03;  4.5907452E+02;
  5.5130935E-01;  9.9999998E-03;  1.0002946E-02;5832; -7.6097082E-03;  0.0000000E+00; -4.2348103E-05;  9.9998273E+02;  1.0004843E-01; -1.4320582E+01;3;  1.4468650E+00;  0.0000000E+00; -1.4859727E-02;0; -1.0293167E-02;  3.9960410E+04;  0.0000000E+00; -2.2255892E-03;  4.0000000E+04;  0.0000000E+00;  3.9996238E+04; -6.2003084E-03;  0.0000000E+00; -4.0928586E-03;  4.5149258E+02;
  5.5131489E-01;  9.9999998E-03;  2.0005248E-02;5833; -7.5955424E-03;  0.0000000E+00; -8.4249870E-05;  9.9999109E+02;  1.0004843E-01; -7.4071980E+00;3;  1.4444332E+00;  0.0000000E+00; -2.9659685E-02;0; -1.0249995E-02;  3.9960609E+04;  0.0000000E+00; -8.6689508E-03;  4.0000000E+04;  0.0000000E+00;  3.9996250E+04; -6.1700195E-03;  0.0000000E+00; -4.0799757E-03;  4.3107861E+02;
  5.5132276E-01;  9.9999998E-03;  3.0006930E-02;5834; -7.5724698E-03;  0.0000000E+00; -1.2530293E-04;  9.9999908E+02;  1.0004839E-01; -7.4071980E-01;3;  1.4403521E+00;  0.0000000E+00; -4.4364449E-02;0; -1.0179643E-02;  3.9961133E+04;  0.0000000E+00; -1.8634591E-02;  4.0000000E+04;  0.0000000E+00;  3.9996367E+04; -6.1207460E-03;  0.0000000E+00; -4.0588961E-03;  4.0398810E+02;
  5.5133206E-01;  9.9999998E-03;  4.0008176E-02;5835; -7.5412588E-03;  0.0000000E+00; -1.6530810E-04;  1.0000070E+03;  1.0004835E-01;  5.7282329E+00;3;  1.4346589E+00;  0.0000000E+00; -5.8928166E-02;0; -1.0084298E-02;  3.9961500E+04;  0.0000000E+00; -3.0980429E-02;  4.0000000E+04;  0.0000000E+00;  3.9996605E+04; -6.0541658E-03;  0.0000000E+00; -4.0301313E-03;  3.7893729E+02;
  5.5134165E-01;  9.9999998E-03;  5.0008941E-02;5836; -7.5028655E-03;  0.0000000E+00; -2.0424952E-04;  1.0000225E+03;  1.0004857E-01;  1.8666140E+01;3;  1.4273521E+00;  0.0000000E+00; -7.3307380E-02;0; -9.9664750E-03;  3.9962918E+04;  0.0000000E+00; -4.4176761E-02;  4.0000000E+04;  0.0000000E+00;  3.9996684E+04; -5.9723402E-03;  0.0000000E+00; -3.9941347E-03;  3.6542154E+02;
  5.5135101E-01;  9.9999998E-03;  6.0009222E-02;5837; -7.4582878E-03;  0.0000000E+00; -2.4226705E-04;  1.0000491E+03;  1.0004842E-01;  4.0690208E+01;3;  1.4184405E+00;  0.0000000E+00; -8.7460235E-02;0; -9.8288162E-03;  3.9965012E+04;  0.0000000E+00; -5.6433052E-02;  4.0000000E+04;  0.0000000E+00;  3.9997070E+04; -5.8775479E-03;  0.0000000E+00; -3.9512683E-03;  3.7131610E+02;
  5.6136686E-01;  9.9999998E-03; -1.0001390E-01;5882; -7.2862785E-03;  0.0000000E+00;  4.4020635E-04;  1.0002799E+03;  1.0007958E-01;  2.3189467E+02;3;  1.4081781E+00;  0.0000000E+00;  1.3241881E-01;0; -9.2032682E-03;  3.9960664E+04;  0.0000000E+00;  8.6509772E-03;  4.0000000E+04;  0.0000000E+00;  3.9994215E+04; -5.1424690E-03;  0.0000000E+00; -4.0607997E-03;  6.7377582E+02;
  5.6137133E-01;  9.9999998E-03; -9.0014301E-02;5883; -7.3508997E-03;  0.0000000E+00;  3.9986934E-04;  1.0002097E+03;  1.0007951E-01;  1.7372348E+02;3;  1.4243034E+00;  0.0000000E+00;  1.2045112E-01;0; -9.4123408E-03;  3.9954438E+04;  0.0000000E+00; -2.0482510E-03;  4.0000000E+04;  0.0000000E+00;  3.9994844E+04; -5.2673845E-03;  0.0000000E+00; -4.1449568E-03;  5.9164825E+02;
  5.6137103E-01;  9.9999998E-03; -8.0014288E-02;5884; -7.4114795E-03;  0.0000000E+00;  3.5913015E-04;  1.0001431E+03;  1.0007960E-01;  1.1861393E+02;3;  1.4388068E+00;  0.0000000E+00;  1.0807680E-01;0; -9.6076578E-03;  3.9948527E+04;  0.0000000E+00; -1.0283733E-02;  4.0000000E+04;  0.0000000E+00;  3.9995480E+04; -5.3859963E-03;  0.0000000E+00; -4.2216615E-03;  5.2097540E+02;
  5.6136578E-01;  9.9999998E-03; -7.0013784E-02;5885; -7.4677956E-03;  0.0000000E+00;  3.1787183E-04;  1.0000789E+03;  1.0007960E-01;  6.5380867E+01;3;  1.4516684E+00;  0.0000000E+00;  9.5350496E-02;0; -9.7881500E-03;  3.9943004E+04;  0.0000000E+00; -1.5288346E-02;  4.0000000E+04;  0.0000000E+00;  3.9995773E+04; -5.4975282E-03;  0.0000000E+00; -4.2906213E-03;  4.6986914E+02;
  5.6135660E-01;  9.9999998E-03; -6.0012829E-02;5886; -7.5194049E-03;  0.0000000E+00;  2.7586243E-04;  1.0000271E+03;  1.0007947E-01;  2.2419119E+01;3;  1.4628285E+00;  0.0000000E+00;  8.2319781E-02;0; -9.9523012E-03;  3.9938605E+04;  0.0000000E+00; -1.6869996E-02;  4.0000000E+04;  0.0000000E+00;  3.9995906E+04; -5.6005372E-03;  0.0000000E+00; -4.3517635E-03;  4.4218109E+02;
  5.6134516E-01;  9.9999998E-03; -5.0011609E-02;5887; -7.5655119E-03;  0.0000000E+00;  2.3284099E-04;  9.9998419E+02;  1.0007939E-01; -1.3086050E+01;3;  1.4723128E+00;  0.0000000E+00;  6.9022156E-02;0; -1.0098021E-02;  3.9934922E+04;  0.0000000E+00; -1.5482152E-02;  4.0000000E+04;  0.0000000E+00;  3.9996102E+04; -5.6930860E-03;  0.0000000E+00; -4.4049346E-03;  4.3725461E+02;
  5.6133294E-01;  9.9999998E-03; -4.0010266E-02;5888; -7.6051615E-03;  0.0000000E+00;  1.8859602E-04;  9.9994812E+02;  1.0007937E-01; -4.2961746E+01;3;  1.4800909E+00;  0.0000000E+00;  5.5497341E-02;0; -1.0222755E-02;  3.9932184E+04;  0.0000000E+00; -1.2062949E-02;  4.0000000E+04;  0.0000000E+00;  3.9995863E+04; -5.7729869E-03;  0.0000000E+00; -4.4497685E-03;  4.5035416E+02;
  5.6132120E-01;  9.9999998E-03; -3.0008640E-02;5889; -7.6373573E-03;  0.0000000E+00;  1.4302864E-04;  9.9992139E+02;  1.0007945E-01; -6.5133957E+01;3;  1.4861352E+00;  0.0000000E+00;  4.1786127E-02;0; -1.0323738E-02;  3.9930715E+04;  0.0000000E+00; -7.7846469E-03;  4.0000000E+04;  0.0000000E+00;  3.9995539E+04; -5.8380249E-03;  0.0000000E+00; -4.4857129E-03;  4.7403052E+02;
  5.6131119E-01;  9.9999998E-03; -2.0006603E-02;5890; -7.6611633E-03;  0.0000000E+00;  9.6207295E-05;  9.9990588E+02;  1.0007954E-01; -7.7973106E+01;3;  1.4904795E+00;  0.0000000E+00;  2.7933113E-02;0; -1.0398228E-02;  3.9929293E+04;  0.0000000E+00; -3.7897662E-03;  4.0000000E+04;  0.0000000E+00;  3.9995258E+04; -5.8861501E-03;  0.0000000E+00; -4.5120781E-03;  4.9957416E+02;
  5.6130379E-01;  9.9999998E-03; -1.0003885E-02;5891; -7.6757963E-03;  0.0000000E+00;  4.8395381E-05;  9.9989886E+02;  1.0007961E-01; -8.3800102E+01;3;  1.4930634E+00;  0.0000000E+00;  1.3985051E-02;0; -1.0443952E-02;  3.9928422E+04;  0.0000000E+00; -9.9820190E-04;  4.0000000E+04;  0.0000000E+00;  3.9995156E+04; -5.9157601E-03;  0.0000000E+00; -4.5281923E-03;  5.1891919E+02;
  5.6130099E-01;  9.9999998E-03;  1.2711590E-08;5892; -7.6807118E-03;  0.0000000E+00;  3.1864996E-08;  9.9989270E+02;  1.0007939E-01; -8.8886375E+01;3;  1.4939466E+00;  0.0000000E+00; -1.1127690E-05;0; -1.0459371E-02;  3.9928344E+04;  0.0000000E+00; -2.8530915E-12;  4.0000000E+04;  0.0000000E+00;  3.9995094E+04; -5.9257620E-03;  0.0000000E+00; -4.5336094E-03;  5.2610175E+02;
  5.6130379E-01;  9.9999998E-03;  1.0003910E-02;5893; -7.6757986E-03;  0.0000000E+00; -4.8331603E-05;  9.9989886E+02;  1.0007961E-01; -8.3800102E+01;3;  1.4930710E+00;  0.0000000E+00; -1.4007870E-02;0; -1.0443954E-02;  3.9928418E+04;  0.0000000E+00; -9.9837058E-04;  4.0000000E+04;  0.0000000E+00;  3.9995156E+04; -5.9157605E-03;  0.0000000E+00; -4.5281937E-03;  5.1892468E+02;
  5.6131119E-01;  9.9999998E-03;  2.0006629E-02;5894; -7.6611675E-03;  0.0000000E+00; -9.6143340E-05;  9.9990588E+02;  1.0007954E-01; -7.7973106E+01;3;  1.4904759E+00;  0.0000000E+00; -2.7952751E-02;0; -1.0398248E-02;  3.9929285E+04;  0.0000000E+00; -3.7902072E-03;  4.0000000E+04;  0.0000000E+00;  3.9995262E+04; -5.8861538E-03;  0.0000000E+00; -4.5120940E-03;  4.9957761E+02;
  5.6132120E-01;  9.9999998E-03;  3.0008666E-02;5895; -7.6373620E-03;  0.0000000E+00; -1.4296445E-04;  9.9992139E+02;  1.0007945E-01; -6.5133957E+01;3;  1.4861362E+00;  0.0000000E+00; -4.1800532E-02;0; -1.0323754E-02;  3.9930715E+04;  0.0000000E+00; -7.7858865E-03;  4.0000000E+04;  0.0000000E+00;  3.9995539E+04; -5.8380263E-03;  0.0000000E+00; -4.4857278E-03;  4.7404370E+02;
  5.6133294E-01;  9.9999998E-03;  4.0010292E-02;5896; -7.6051680E-03;  0.0000000E+00; -1.8853173E-04;  9.9994812E+02;  1.0007937E-01; -4.2961746E+01;3;  1.4800740E+00;  0.0000000E+00; -5.5506520E-02;0; -1.0222770E-02;  3.9932180E+04;  0.0000000E+00; -1.2063776E-02;  4.0000000E+04;  0.0000000E+00;  3.9995863E+04; -5.7729920E-03;  0.0000000E+00; -4.4497787E-03;  4.5035837E+02;
  5.6134516E-01;  9.9999998E-03;  5.0011635E-02;5897; -7.5655230E-03;  0.0000000E+00; -2.3277703E-04;  9.9998419E+02;  1.0007939E-01; -1.3086050E+01;3;  1.4722909E+00;  0.0000000E+00; -6.9028392E-02;0; -1.0098038E-02;  3.9934926E+04;  0.0000000E+00; -1.5482500E-02;  4.0000000E+04;  0.0000000E+00;  3.9996098E+04; -5.6930943E-03;  0.0000000E+00; -4.4049444E-03;  4.3726260E+02;
  5.6135660E-01;  9.9999998E-03;  6.0012855E-02;5898; -7.5194165E-03;  0.0000000E+00; -2.7579922E-04;  1.0000270E+03;  1.0007951E-01;  2.2419119E+01;3;  1.4628109E+00;  0.0000000E+00; -8.2324475E-02;0; -9.9523179E-03;  3.9938602E+04;  0.0000000E+00; -1.6870234E-02;  4.0000000E+04;  0.0000000E+00;  3.9995906E+04; -5.6005404E-03;  0.0000000E+00; -4.3517775E-03;  4.4218417E+02;
  5.7141650E-01;  9.9999998E-03; -1.0001296E-01;5943; -7.3373048E-03;  0.0000000E+00;  4.8994826E-04;  1.0003768E+03;  1.0013086E-01;  3.1218869E+02;3;  1.4488823E+00;  0.0000000E+00;  1.2289190E-01;0; -9.2912707E-03;  3.9928051E+04;  0.0000000E+00;  9.2432246E-02;  4.0000000E+04;  0.0000000E+00;  3.9993570E+04; -4.8633656E-03;  0.0000000E+00; -4.4279047E-03;  7.3256561E+02;
  5.7142758E-01;  9.9999998E-03; -9.0012327E-02;5944; -7.4041849E-03;  0.0000000E+00;  4.4569513E-04;  1.0002924E+03;  1.0013097E-01;  2.4216599E+02;3;  1.4660716E+00;  0.0000000E+00;  1.1185101E-01;0; -9.5105190E-03;  3.9920500E+04;  0.0000000E+00;  7.8440905E-02;  4.0000000E+04;  0.0000000E+00;  3.9994016E+04; -4.9839704E-03;  0.0000000E+00; -4.5265481E-03;  6.6313422E+02;
  5.7143289E-01;  9.9999998E-03; -8.0011353E-02;5945; -7.4670603E-03;  0.0000000E+00;  4.0074612E-04;  1.0002072E+03;  1.0013099E-01;  1.7164946E+02;3;  1.4815236E+00;  0.0000000E+00;  1.0041149E-01;0; -9.7151045E-03;  3.9913500E+04;  0.0000000E+00;  6.2473014E-02;  4.0000000E+04;  0.0000000E+00;  3.9994641E+04; -5.0982791E-03;  0.0000000E+00; -4.6168258E-03;  5.9930353E+02;
  5.7143241E-01;  9.9999998E-03; -7.0010066E-02;5946; -7.5256848E-03;  0.0000000E+00;  3.5501452E-04;  1.0001270E+03;  1.0013084E-01;  1.0518221E+02;3;  1.4951993E+00;  0.0000000E+00;  8.8631570E-02;0; -9.9040177E-03;  3.9906965E+04;  0.0000000E+00;  4.6567339E-02;  4.0000000E+04;  0.0000000E+00;  3.9994594E+04; -5.2056373E-03;  0.0000000E+00; -4.6983808E-03;  5.5000159E+02;
  5.7142657E-01;  9.9999998E-03; -6.0008638E-02;5947; -7.5794999E-03;  0.0000000E+00;  3.0827455E-04;  1.0000585E+03;  1.0013077E-01;  4.8492455E+01;3;  1.5070994E+00;  0.0000000E+00;  7.6552927E-02;0; -1.0075754E-02;  3.9900910E+04;  0.0000000E+00;  3.2354895E-02;  4.0000000E+04;  0.0000000E+00;  3.9995098E+04; -5.3047547E-03;  0.0000000E+00; -4.7709993E-03;  5.2039215E+02;
  5.7141680E-01;  9.9999998E-03; -5.0007232E-02;5948; -7.6276269E-03;  0.0000000E+00;  2.6027267E-04;  9.9999738E+02;  1.0013092E-01; -2.1727781E+00;3;  1.5172201E+00;  0.0000000E+00;  6.4213894E-02;0; -1.0228193E-02;  3.9895992E+04;  0.0000000E+00;  2.0796666E-02;  4.0000000E+04;  0.0000000E+00;  3.9995043E+04; -5.3938366E-03;  0.0000000E+00; -4.8343567E-03;  5.1137387E+02;
  5.7140458E-01;  9.9999998E-03; -4.0006105E-02;5949; -7.6690470E-03;  0.0000000E+00;  2.1082166E-04;  9.9994598E+02;  1.0013068E-01; -4.4739475E+01;3;  1.5254811E+00;  0.0000000E+00;  5.1649697E-02;0; -1.0358655E-02;  3.9892406E+04;  0.0000000E+00;  1.2174495E-02;  4.0000000E+04;  0.0000000E+00;  3.9994848E+04; -5.4707685E-03;  0.0000000E+00; -4.8878863E-03;  5.1953351E+02;
  5.7139218E-01;  9.9999998E-03; -3.0005213E-02;5950; -7.7027078E-03;  0.0000000E+00;  1.5986309E-04;  9.9990747E+02;  1.0013074E-01; -7.6639809E+01;3;  1.5319103E+00;  0.0000000E+00;  3.8902164E-02;0; -1.0464248E-02;  3.9889328E+04;  0.0000000E+00;  6.2625511E-03;  4.0000000E+04;  0.0000000E+00;  3.9994934E+04; -5.5334098E-03;  0.0000000E+00; -4.9308385E-03;  5.3831415E+02;
  5.7138133E-01;  9.9999998E-03; -2.0004377E-02;5951; -7.7275909E-03;  0.0000000E+00;  1.0751049E-04;  9.9988068E+02;  1.0013067E-01; -9.8861404E+01;3;  1.5365270E+00;  0.0000000E+00;  2.6011514E-02;0; -1.0542147E-02;  3.9887453E+04;  0.0000000E+00;  2.5764711E-03;  4.0000000E+04;  0.0000000E+00;  3.9994496E+04; -5.5797994E-03;  0.0000000E+00; -4.9623474E-03;  5.5980591E+02;
  5.7137322E-01;  9.9999998E-03; -1.0003009E-02;5952; -7.7429079E-03;  0.0000000E+00;  5.4073011E-05;  9.9986945E+02;  1.0013087E-01; -1.0814509E+02;3;  1.5392758E+00;  0.0000000E+00;  1.3024753E-02;0; -1.0589935E-02;  3.9886230E+04;  0.0000000E+00;  6.1110529E-04;  4.0000000E+04;  0.0000000E+00;  3.9994465E+04; -5.6083375E-03;  0.0000000E+00; -4.9815979E-03;  5.7655737E+02;
  5.7137007E-01;  9.9999998E-03;  1.2986892E-08;5953; -7.7480483E-03;  0.0000000E+00;  3.3232858E-08;  9.9986212E+02;  1.0013071E-01; -1.1421899E+02;3;  1.5402013E+00;  0.0000000E+00; -1.1913628E-05;0; -1.0606067E-02;  3.9885926E+04;  0.0000000E+00; -6.9811262E-12;  4.0000000E+04;  0.0000000E+00;  3.9994363E+04; -5.6179911E-03;  0.0000000E+00; -4.9880766E-03;  5.8284570E+02;
  5.7137322E-01;  9.9999998E-03;  1.0003035E-02;5954; -7.7429079E-03;  0.0000000E+00; -5.4006454E-05;  9.9986932E+02;  1.0013088E-01; -1.0824385E+02;3;  1.5392894E+00;  0.0000000E+00; -1.3047304E-02;0; -1.0589940E-02;  3.9886230E+04;  0.0000000E+00;  6.1077997E-04;  4.0000000E+04;  0.0000000E+00;  3.9994465E+04; -5.6083393E-03;  0.0000000E+00; -4.9816016E-03;  5.7655646E+02;
  5.7138133E-01;  9.9999998E-03;  2.0004403E-02;5955; -7.7275946E-03;  0.0000000E+00; -1.0744380E-04;  9.9988068E+02;  1.0013067E-01; -9.8861404E+01;3;  1.5365263E+00;  0.0000000E+00; -2.6033096E-02;0; -1.0542151E-02;  3.9887453E+04;  0.0000000E+00;  2.5760334E-03;  4.0000000E+04;  0.0000000E+00;  3.9994496E+04; -5.5797985E-03;  0.0000000E+00; -4.9623521E-03;  5.5979810E+02;
  5.7139218E-01;  9.9999998E-03;  3.0005239E-02;5956; -7.7027129E-03;  0.0000000E+00; -1.5979650E-04;  9.9990747E+02;  1.0013074E-01; -7.6639809E+01;3;  1.5319171E+00;  0.0000000E+00; -3.8921244E-02;0; -1.0464265E-02;  3.9889316E+04;  0.0000000E+00;  6.2616658E-03;  4.0000000E+04;  0.0000000E+00;  3.9994934E+04; -5.5334168E-03;  0.0000000E+00; -4.9308483E-03;  5.3830457E+02;
  5.7140458E-01;  9.9999998E-03;  4.0006131E-02;5957; -7.6690558E-03;  0.0000000E+00; -2.1075532E-04;  9.9994592E+02;  1.0013068E-01; -4.4788857E+01;3;  1.5254655E+00;  0.0000000E+00; -5.1666133E-02;0; -1.0358680E-02;  3.9892426E+04;  0.0000000E+00;  1.2173365E-02;  4.0000000E+04;  0.0000000E+00;  3.9994848E+04; -5.4707760E-03;  0.0000000E+00; -4.8879045E-03;  5.1953540E+02;
  5.7141680E-01;  9.9999998E-03;  5.0007258E-02;5958; -7.6276362E-03;  0.0000000E+00; -2.6020664E-04;  9.9999719E+02;  1.0013079E-01; -2.3209219E+00;3;  1.5171952E+00;  0.0000000E+00; -6.4226992E-02;0; -1.0228210E-02;  3.9895996E+04;  0.0000000E+00;  2.0794032E-02;  4.0000000E+04;  0.0000000E+00;  3.9995043E+04; -5.3938380E-03;  0.0000000E+00; -4.8343721E-03;  5.1137100E+02;
  5.7142657E-01;  9.9999998E-03;  6.0008664E-02;5959; -7.5795120E-03;  0.0000000E+00; -3.0820922E-04;  1.0000585E+03;  1.0013077E-01;  4.8393692E+01;3;  1.5070835E+00;  0.0000000E+00; -7.6565623E-02;0; -1.0075783E-02;  3.9900910E+04;  0.0000000E+00;  3.2350939E-02;  4.0000000E+04;  0.0000000E+00;  3.9995094E+04; -5.3047659E-03;  0.0000000E+00; -4.7710175E-03;  5.2039502E+02;
  5.8148539E-01;  9.9999998E-03; -1.0000872E-01;6004; -7.3853876E-03;  0.0000000E+00;  5.3754199E-04;  1.0004456E+03;  1.0021400E-01;  3.6917474E+02;3;  1.4891742E+00;  0.0000000E+00;  1.1236811E-01;0; -9.3815327E-03;  3.9868742E+04;  0.0000000E+00;  1.6981028E-01;  4.0000000E+04;  0.0000000E+00;  3.9992852E+04; -4.5693717E-03;  0.0000000E+00; -4.8121610E-03;  7.8699487E+02;
  5.8151168E-01;  9.9999998E-03; -9.0006411E-02;6005; -7.4545764E-03;  0.0000000E+00;  4.8917672E-04;  1.0003558E+03;  1.0021414E-01;  2.9480649E+02;3;  1.5074043E+00;  0.0000000E+00;  1.0232422E-01;0; -9.6095167E-03;  3.9861105E+04;  0.0000000E+00;  1.5504153E-01;  4.0000000E+04;  0.0000000E+00;  3.9993219E+04; -4.6842257E-03;  0.0000000E+00; -4.9252915E-03;  7.3033087E+02;
  5.8153051E-01;  9.9999998E-03; -8.0003977E-02;6006; -7.5199283E-03;  0.0000000E+00;  4.3991764E-04;  1.0002646E+03;  1.0021397E-01;  2.1925305E+02;3;  1.5238674E+00;  0.0000000E+00;  9.1910131E-02;0; -9.8217446E-03;  3.9853652E+04;  0.0000000E+00;  1.3350266E-01;  4.0000000E+04;  0.0000000E+00;  3.9993742E+04; -4.7927019E-03;  0.0000000E+00; -5.0290432E-03;  6.7293542E+02;
  5.8154035E-01;  9.9999998E-03; -7.0001788E-02;6007; -7.5811222E-03;  0.0000000E+00;  3.8970780E-04;  1.0001802E+03;  1.0021388E-01;  1.4923035E+02;3;  1.5384289E+00;  0.0000000E+00;  8.1173956E-02;0; -1.0017285E-02;  3.9846906E+04;  0.0000000E+00;  1.0827427E-01;  4.0000000E+04;  0.0000000E+00;  3.9993762E+04; -4.8943888E-03;  0.0000000E+00; -5.1228958E-03;  6.2409235E+02;
  5.8154160E-01;  9.9999998E-03; -6.0000055E-02;6008; -7.6374384E-03;  0.0000000E+00;  3.3833628E-04;  1.0000999E+03;  1.0021403E-01;  8.2763092E+01;3;  1.5510571E+00;  0.0000000E+00;  7.0150711E-02;0; -1.0194721E-02;  3.9840207E+04;  0.0000000E+00;  8.2353480E-02;  4.0000000E+04;  0.0000000E+00;  3.9994066E+04; -4.9881740E-03;  0.0000000E+00; -5.2065467E-03;  5.9040771E+02;
  5.8153611E-01;  9.9999998E-03; -4.9998965E-02;6009; -7.6879840E-03;  0.0000000E+00;  2.8555797E-04;  1.0000322E+03;  1.0021371E-01;  2.6665913E+01;3;  1.5618111E+00;  0.0000000E+00;  5.8875002E-02;0; -1.0352004E-02;  3.9834703E+04;  0.0000000E+00;  5.8192592E-02;  4.0000000E+04;  0.0000000E+00;  3.9993973E+04; -5.0724121E-03;  0.0000000E+00; -5.2795927E-03;  5.7489233E+02;
  5.8152574E-01;  9.9999998E-03; -3.9998710E-02;6010; -7.7315690E-03;  0.0000000E+00;  2.3120025E-04;  9.9997229E+02;  1.0021380E-01; -2.2962313E+01;3;  1.5705971E+00;  0.0000000E+00;  4.7379445E-02;0; -1.0486490E-02;  3.9830195E+04;  0.0000000E+00;  3.7450142E-02;  4.0000000E+04;  0.0000000E+00;  3.9993969E+04; -5.1451894E-03;  0.0000000E+00; -5.3413007E-03;  5.7594415E+02;
  5.8151346E-01;  9.9999998E-03; -2.9999178E-02;6011; -7.7670291E-03;  0.0000000E+00;  1.7523176E-04;  9.9992401E+02;  1.0021389E-01; -6.2961182E+01;3;  1.5774477E+00;  0.0000000E+00;  3.5701424E-02;0; -1.0595259E-02;  3.9826777E+04;  0.0000000E+00;  2.1038789E-02;  4.0000000E+04;  0.0000000E+00;  3.9993867E+04; -5.2044783E-03;  0.0000000E+00; -5.3907810E-03;  5.8828558E+02;
  5.8150262E-01;  9.9999998E-03; -2.0000136E-02;6012; -7.7933338E-03;  0.0000000E+00;  1.1779666E-04;  9.9989569E+02;  1.0021383E-01; -8.6417313E+01;3;  1.5823350E+00;  0.0000000E+00;  2.3879629E-02;0; -1.0675438E-02;  3.9824355E+04;  0.0000000E+00;  9.3142977E-03;  4.0000000E+04;  0.0000000E+00;  3.9993812E+04; -5.2483492E-03;  0.0000000E+00; -5.4270881E-03;  6.0479205E+02;
  5.8149481E-01;  9.9999998E-03; -1.0000860E-02;6013; -7.8094588E-03;  0.0000000E+00;  5.9228769E-05;  9.9987341E+02;  1.0021370E-01; -1.0488593E+02;3;  1.5852833E+00;  0.0000000E+00;  1.1959380E-02;0; -1.0724658E-02;  3.9822727E+04;  0.0000000E+00;  2.3207078E-03;  4.0000000E+04;  0.0000000E+00;  3.9993484E+04; -5.2753729E-03;  0.0000000E+00; -5.4492848E-03;  6.1829388E+02;
  5.8149171E-01;  9.9999998E-03;  1.3207283E-08;6014; -7.8149084E-03;  0.0000000E+00;  3.4652526E-08;  9.9986676E+02;  1.0021380E-01; -1.1036725E+02;3;  1.5862492E+00;  0.0000000E+00; -1.1576463E-05;0; -1.0741238E-02;  3.9822320E+04;  0.0000000E+00; -7.5745009E-12;  4.0000000E+04;  0.0000000E+00;  3.9993570E+04; -5.2844868E-03;  0.0000000E+00; -5.4567512E-03;  6.2348431E+02;
  5.8149481E-01;  9.9999998E-03;  1.0000887E-02;6015; -7.8094606E-03;  0.0000000E+00; -5.9159549E-05;  9.9987341E+02;  1.0021370E-01; -1.0488593E+02;3;  1.5852666E+00;  0.0000000E+00; -1.1983526E-02;0; -1.0724660E-02;  3.9822723E+04;  0.0000000E+00;  2.3202412E-03;  4.0000000E+04;  0.0000000E+00;  3.9993488E+04; -5.2753645E-03;  0.0000000E+00; -5.4492955E-03;  6.1828955E+02;
  5.8150262E-01;  9.9999998E-03;  2.0000162E-02;6016; -7.7933366E-03;  0.0000000E+00; -1.1772737E-04;  9.9989569E+02;  1.0021383E-01; -8.6417313E+01;3;  1.5823410E+00;  0.0000000E+00; -2.3902247E-02;0; -1.0675464E-02;  3.9824355E+04;  0.0000000E+00;  9.3138386E-03;  4.0000000E+04;  0.0000000E+00;  3.9993812E+04; -5.2483608E-03;  0.0000000E+00; -5.4271030E-03;  6.0478070E+02;
  5.8151346E-01;  9.9999998E-03;  2.9999204E-02;6017; -7.7670361E-03;  0.0000000E+00; -1.7516274E-04;  9.9992401E+02;  1.0021389E-01; -6.2961182E+01;3;  1.5774405E+00;  0.0000000E+00; -3.5723504E-02;0; -1.0595283E-02;  3.9826777E+04;  0.0000000E+00;  2.1037512E-02;  4.0000000E+04;  0.0000000E+00;  3.9993867E+04; -5.2044792E-03;  0.0000000E+00; -5.3908043E-03;  5.8828564E+02;
  5.8152574E-01;  9.9999998E-03;  3.9998736E-02;6018; -7.7315788E-03;  0.0000000E+00; -2.3113147E-04;  9.9997229E+02;  1.0021380E-01; -2.2962313E+01;3;  1.5706097E+00;  0.0000000E+00; -4.7400229E-02;0; -1.0486515E-02;  3.9830195E+04;  0.0000000E+00;  3.7447974E-02;  4.0000000E+04;  0.0000000E+00;  3.9993973E+04; -5.1451898E-03;  0.0000000E+00; -5.3413250E-03;  5.7594775E+02;
  5.8153611E-01;  9.9999998E-03;  4.9998991E-02;6019; -7.6879933E-03;  0.0000000E+00; -2.8548975E-04;  1.0000322E+03;  1.0021371E-01;  2.6665913E+01;3;  1.5618192E+00;  0.0000000E+00; -5.8893532E-02;0; -1.0352040E-02;  3.9834703E+04;  0.0000000E+00;  5.8189295E-02;  4.0000000E+04;  0.0000000E+00;  3.9993973E+04; -5.0724181E-03;  0.0000000E+00; -5.2796211E-03;  5.7488611E+02;
  5.8154160E-01;  9.9999998E-03;  6.0000081E-02;6020; -7.6374491E-03;  0.0000000E+00; -3.3826852E-04;  1.0000999E+03;  1.0021403E-01;  8.2763092E+01;3;  1.5510545E+00;  0.0000000E+00; -7.0169903E-02;0; -1.0194749E-02;  3.9840211E+04;  0.0000000E+00;  8.2351372E-02;  4.0000000E+04;  0.0000000E+00;  3.9994066E+04; -4.9881744E-03;  0.0000000E+00; -5.2065738E-03;  5.9041821E+02;
  5.9154063E-01;  9.9999998E-03; -1.0000522E-01;6065; -7.4303304E-03;  0.0000000E+00;  5.8211299E-04;  1.0004214E+03;  1.0034835E-01;  3.4912592E+02;3;  1.5288129E+00;  0.0000000E+00;  1.0084327E-01;0; -9.4719399E-03;  3.9762852E+04;  0.0000000E+00;  2.2136392E-01;  4.0000000E+04;  0.0000000E+00;  3.9991945E+04; -4.2604464E-03;  0.0000000E+00; -5.2114935E-03;  8.1524841E+02;
  5.9157854E-01;  9.9999998E-03; -9.0002544E-02;6066; -7.5015989E-03;  0.0000000E+00;  5.2946823E-04;  1.0003420E+03;  1.0034798E-01;  2.8335001E+02;3;  1.5481180E+00;  0.0000000E+00;  9.1895230E-02;0; -9.7074844E-03;  3.9756121E+04;  0.0000000E+00;  2.0906027E-01;  4.0000000E+04;  0.0000000E+00;  3.9992004E+04; -4.3690223E-03;  0.0000000E+00; -5.3384621E-03;  7.6895575E+02;
  5.9160924E-01;  9.9999998E-03; -8.0000184E-02;6067; -7.5692572E-03;  0.0000000E+00;  4.7585883E-04;  1.0002560E+03;  1.0034810E-01;  2.1204338E+02;3;  1.5655266E+00;  0.0000000E+00;  8.2604356E-02;0; -9.9259075E-03;  3.9749281E+04;  0.0000000E+00;  1.8590528E-01;  4.0000000E+04;  0.0000000E+00;  3.9992582E+04; -4.4709258E-03;  0.0000000E+00; -5.4549817E-03;  7.1753564E+02;
  5.9163088E-01;  9.9999998E-03; -6.9997944E-02;6068; -7.6329489E-03;  0.0000000E+00;  4.2125719E-04;  1.0001738E+03;  1.0034806E-01;  1.4399593E+02;3;  1.5809600E+00;  0.0000000E+00;  7.3009744E-02;0; -1.0126429E-02;  3.9742609E+04;  0.0000000E+00;  1.5549415E-01;  4.0000000E+04;  0.0000000E+00;  3.9992758E+04; -4.5659658E-03;  0.0000000E+00; -5.5604628E-03;  6.7013837E+02;
  5.9164089E-01;  9.9999998E-03; -5.9996136E-02;6069; -7.6918621E-03;  0.0000000E+00;  3.6545892E-04;  1.0000961E+03;  1.0034783E-01;  7.9602684E+01;3;  1.5943673E+00;  0.0000000E+00;  6.3147612E-02;0; -1.0307815E-02;  3.9736504E+04;  0.0000000E+00;  1.2175670E-01;  4.0000000E+04;  0.0000000E+00;  3.9992863E+04; -4.6533816E-03;  0.0000000E+00; -5.6544337E-03;  6.3393811E+02;
  5.9164059E-01;  9.9999998E-03; -4.9995124E-02;6070; -7.7449009E-03;  0.0000000E+00;  3.0821728E-04;  1.0000233E+03;  1.0034808E-01;  1.9357477E+01;3;  1.6057392E+00;  0.0000000E+00;  5.3038932E-02;0; -1.0468164E-02;  3.9730941E+04;  0.0000000E+00;  8.8352181E-02;  4.0000000E+04;  0.0000000E+00;  3.9993023E+04; -4.7317855E-03;  0.0000000E+00; -5.7363780E-03;  6.1339429E+02;
  5.9163332E-01;  9.9999998E-03; -3.9995175E-02;6071; -7.7908984E-03;  0.0000000E+00;  2.4936500E-04;  9.9996881E+02;  1.0034766E-01; -2.5826429E+01;3;  1.6150721E+00;  0.0000000E+00;  4.2713188E-02;0; -1.0604975E-02;  3.9726539E+04;  0.0000000E+00;  5.8197461E-02;  4.0000000E+04;  0.0000000E+00;  3.9992691E+04; -4.7994098E-03;  0.0000000E+00; -5.8055650E-03;  6.0878723E+02;
  5.9162265E-01;  9.9999998E-03; -2.9996058E-02;6072; -7.8283949E-03;  0.0000000E+00;  1.8887337E-04;  9.9992072E+02;  1.0034752E-01; -6.5677155E+01;3;  1.6223280E+00;  0.0000000E+00;  3.2204371E-02;0; -1.0715457E-02;  3.9722949E+04;  0.0000000E+00;  3.3325229E-02;  4.0000000E+04;  0.0000000E+00;  3.9992734E+04; -4.8544705E-03;  0.0000000E+00; -5.8609857E-03;  6.1590894E+02;
  5.9161198E-01;  9.9999998E-03; -1.9997586E-02;6073; -7.8562051E-03;  0.0000000E+00;  1.2689615E-04;  9.9988550E+02;  1.0034764E-01; -9.4861511E+01;3;  1.6275063E+00;  0.0000000E+00;  2.1549875E-02;0; -1.0796813E-02;  3.9720434E+04;  0.0000000E+00;  1.4964794E-02;  4.0000000E+04;  0.0000000E+00;  3.9992543E+04; -4.8952317E-03;  0.0000000E+00; -5.9015816E-03;  6.2830536E+02;
  5.9160417E-01;  9.9999998E-03; -9.9992193E-03;6074; -7.8733470E-03;  0.0000000E+00;  6.3778927E-05;  9.9986615E+02;  1.0034753E-01; -1.1091045E+02;3;  1.6306539E+00;  0.0000000E+00;  1.0794618E-02;0; -1.0846691E-02;  3.9718832E+04;  0.0000000E+00;  3.7612671E-03;  4.0000000E+04;  0.0000000E+00;  3.9992402E+04; -4.9203043E-03;  0.0000000E+00; -5.9263869E-03;  6.3913776E+02;
  5.9160113E-01;  9.9999998E-03;  1.3558553E-08;6075; -7.8791371E-03;  0.0000000E+00;  3.6091929E-08;  9.9985962E+02;  1.0034761E-01; -1.1629301E+02;3;  1.6316592E+00;  0.0000000E+00; -1.1680371E-05;0; -1.0863506E-02;  3.9718273E+04;  0.0000000E+00; -9.0458405E-12;  4.0000000E+04;  0.0000000E+00;  3.9992324E+04; -4.9287737E-03;  0.0000000E+00; -5.9347325E-03;  6.4338214E+02;
  5.9160417E-01;  9.9999998E-03;  9.9992463E-03;6076; -7.8733508E-03;  0.0000000E+00; -6.3706750E-05;  9.9986627E+02;  1.0034746E-01; -1.1081168E+02;3;  1.6306221E+00;  0.0000000E+00; -1.0816783E-02;0; -1.0846696E-02;  3.9718832E+04;  0.0000000E+00;  3.7609551E-03;  4.0000000E+04;  0.0000000E+00;  3.9992406E+04; -4.9203015E-03;  0.0000000E+00; -5.9263944E-03;  6.3914838E+02;
  5.9161198E-01;  9.9999998E-03;  1.9997614E-02;6077; -7.8562088E-03;  0.0000000E+00; -1.2682415E-04;  9.9988562E+02;  1.0034756E-01; -9.4762749E+01;3;  1.6275163E+00;  0.0000000E+00; -2.1573437E-02;0; -1.0796823E-02;  3.9720434E+04;  0.0000000E+00;  1.4964120E-02;  4.0000000E+04;  0.0000000E+00;  3.9992543E+04; -4.8952298E-03;  0.0000000E+00; -5.9015928E-03;  6.2830408E+02;
  5.9162265E-01;  9.9999998E-03;  2.9996086E-02;6078; -7.8284014E-03;  0.0000000E+00; -1.8880182E-04;  9.9992078E+02;  1.0034752E-01; -6.5627777E+01;3;  1.6223235E+00;  0.0000000E+00; -3.2227919E-02;0; -1.0715481E-02;  3.9722953E+04;  0.0000000E+00;  3.3323716E-02;  4.0000000E+04;  0.0000000E+00;  3.9992734E+04; -4.8544738E-03;  0.0000000E+00; -5.8610067E-03;  6.1592212E+02;
  5.9163332E-01;  9.9999998E-03;  3.9995205E-02;6079; -7.7909036E-03;  0.0000000E+00; -2.4929366E-04;  9.9996875E+02;  1.0034766E-01; -2.5875811E+01;3;  1.6150621E+00;  0.0000000E+00; -4.2735703E-02;0; -1.0604988E-02;  3.9726539E+04;  0.0000000E+00;  5.8195263E-02;  4.0000000E+04;  0.0000000E+00;  3.9992691E+04; -4.7994102E-03;  0.0000000E+00; -5.8055776E-03;  6.0879028E+02;
  5.9164059E-01;  9.9999998E-03;  4.9995150E-02;6080; -7.7449088E-03;  0.0000000E+00; -3.0814658E-04;  1.0000233E+03;  1.0034808E-01;  1.9357477E+01;3;  1.6057359E+00;  0.0000000E+00; -5.3060979E-02;0; -1.0468191E-02;  3.9730938E+04;  0.0000000E+00;  8.8348933E-02;  4.0000000E+04;  0.0000000E+00;  3.9993020E+04; -4.7317869E-03;  0.0000000E+00; -5.7364041E-03;  6.1340564E+02;
  5.9164089E-01;  9.9999998E-03;  5.9996162E-02;6081; -7.6918732E-03;  0.0000000E+00; -3.6538873E-04;  1.0000960E+03;  1.0034789E-01;  7.9503922E+01;3;  1.5943552E+00;  0.0000000E+00; -6.3169926E-02;0; -1.0307821E-02;  3.9736492E+04;  0.0000000E+00;  1.2175474E-01;  4.0000000E+04;  0.0000000E+00;  3.9992859E+04; -4.6533756E-03;  0.0000000E+00; -5.6544449E-03;  6.3394623E+02;
  6.0155439E-01;  9.9999998E-03; -1.0000646E-01;6126; -7.4723749E-03;  0.0000000E+00;  6.2381552E-04;  1.0002634E+03;  1.0056186E-01;  2.1816667E+02;3;  1.5676414E+00;  0.0000000E+00;  8.8335291E-02;0; -9.5622111E-03;  3.9584781E+04;  0.0000000E+00;  2.2976886E-01;  4.0000000E+04;  0.0000000E+00;  3.9990785E+04; -3.9384207E-03;  0.0000000E+00; -5.6237904E-03;  7.9994360E+02;
  6.0159290E-01;  9.9999998E-03; -9.0005964E-02;6127; -7.5450488E-03;  0.0000000E+00;  5.6678150E-04;  1.0001939E+03;  1.0056183E-01;  1.6068681E+02;3;  1.5878808E+00;  0.0000000E+00;  8.0594964E-02;0; -9.8050721E-03;  3.9579066E+04;  0.0000000E+00;  2.2377345E-01;  4.0000000E+04;  0.0000000E+00;  3.9990789E+04; -4.0414310E-03;  0.0000000E+00; -5.7636416E-03;  7.6027020E+02;
  6.0162395E-01;  9.9999998E-03; -8.0005728E-02;6128; -7.6144780E-03;  0.0000000E+00;  5.0881976E-04;  1.0001203E+03;  1.0056185E-01;  9.9651505E+01;3;  1.6061715E+00;  0.0000000E+00;  7.2543196E-02;0; -1.0029123E-02;  3.9573500E+04;  0.0000000E+00;  2.0444751E-01;  4.0000000E+04;  0.0000000E+00;  3.9991227E+04; -4.1373069E-03;  0.0000000E+00; -5.8918162E-03;  7.1413544E+02;
  6.0164654E-01;  9.9999998E-03; -7.0005000E-02;6129; -7.6802494E-03;  0.0000000E+00;  4.4992950E-04;  1.0000496E+03;  1.0056146E-01;  4.1085258E+01;3;  1.6224478E+00;  0.0000000E+00;  6.4204931E-02;0; -1.0233793E-02;  3.9567906E+04;  0.0000000E+00;  1.7516452E-01;  4.0000000E+04;  0.0000000E+00;  3.9991332E+04; -4.2260657E-03;  0.0000000E+00; -6.0077272E-03;  6.6991968E+02;
  6.0166055E-01;  9.9999998E-03; -6.0003541E-02;6130; -7.7414648E-03;  0.0000000E+00;  3.8992200E-04;  9.9998224E+02;  1.0056137E-01; -1.4715633E+01;3;  1.6366333E+00;  0.0000000E+00;  5.5600487E-02;0; -1.0418106E-02;  3.9562969E+04;  0.0000000E+00;  1.4011577E-01;  4.0000000E+04;  0.0000000E+00;  3.9991484E+04; -4.3071173E-03;  0.0000000E+00; -6.1109890E-03;  6.3485657E+02;
  6.0166675E-01;  9.9999998E-03; -5.0001439E-02;6131; -7.7969781E-03;  0.0000000E+00;  3.2853585E-04;  9.9992670E+02;  1.0056134E-01; -6.0739021E+01;3;  1.6486596E+00;  0.0000000E+00;  4.6751413E-02;0; -1.0580439E-02;  3.9558758E+04;  0.0000000E+00;  1.0356737E-01;  4.0000000E+04;  0.0000000E+00;  3.9991328E+04; -4.3793428E-03;  0.0000000E+00; -6.2010963E-03;  6.1389233E+02;
  6.0166556E-01;  9.9999998E-03; -3.9999377E-02;6132; -7.8452323E-03;  0.0000000E+00;  2.6557388E-04;  9.9987439E+02;  1.0056116E-01; -1.0404644E+02;3;  1.6585431E+00;  0.0000000E+00;  3.7686303E-02;0; -1.0718545E-02;  3.9554855E+04;  0.0000000E+00;  6.9273509E-02;  4.0000000E+04;  0.0000000E+00;  3.9991246E+04; -4.4414229E-03;  0.0000000E+00; -6.2771216E-03;  6.0785400E+02;
  6.0165870E-01;  9.9999998E-03; -2.9998174E-02;6133; -7.8847660E-03;  0.0000000E+00;  2.0099900E-04;  9.9983270E+02;  1.0056099E-01; -1.3861336E+02;3;  1.6662438E+00;  0.0000000E+00;  2.8435744E-02;0; -1.0829760E-02;  3.9551676E+04;  0.0000000E+00;  4.0145528E-02;  4.0000000E+04;  0.0000000E+00;  3.9991176E+04; -4.4918326E-03;  0.0000000E+00; -6.3379267E-03;  6.1325232E+02;
  6.0165060E-01;  9.9999998E-03; -1.9998083E-02;6134; -7.9141622E-03;  0.0000000E+00;  1.3496172E-04;  9.9980127E+02;  1.0056104E-01; -1.6463731E+02;3;  1.6717083E+00;  0.0000000E+00;  1.9037966E-02;0; -1.0911494E-02;  3.9549395E+04;  0.0000000E+00;  1.8181713E-02;  4.0000000E+04;  0.0000000E+00;  3.9991246E+04; -4.5290827E-03;  0.0000000E+00; -6.3824109E-03;  6.2407605E+02;
  6.0164458E-01;  9.9999998E-03; -9.9988375E-03;6135; -7.9322625E-03;  0.0000000E+00;  6.7804387E-05;  9.9977899E+02;  1.0056102E-01; -1.8310593E+02;3;  1.6750367E+00;  0.0000000E+00;  9.5394319E-03;0; -1.0961545E-02;  3.9548367E+04;  0.0000000E+00;  4.5925584E-03;  4.0000000E+04;  0.0000000E+00;  3.9991121E+04; -4.5519546E-03;  0.0000000E+00; -6.4095901E-03;  6.3386646E+02;
  6.0164243E-01;  9.9999998E-03;  1.4021752E-08;6136; -7.9384288E-03;  0.0000000E+00;  3.7654576E-08;  9.9977594E+02;  1.0056108E-01; -1.8562437E+02;3;  1.6761202E+00;  0.0000000E+00; -1.0375929E-05;0; -1.0978386E-02;  3.9547734E+04;  0.0000000E+00; -1.0829416E-11;  4.0000000E+04;  0.0000000E+00;  3.9990977E+04; -4.5596506E-03;  0.0000000E+00; -6.4187353E-03;  6.3770581E+02;
  6.0164458E-01;  9.9999998E-03;  9.9988654E-03;6137; -7.9322653E-03;  0.0000000E+00; -6.7729132E-05;  9.9977905E+02;  1.0056102E-01; -1.8305655E+02;3;  1.6750474E+00;  0.0000000E+00; -9.5604071E-03;0; -1.0961549E-02;  3.9548367E+04;  0.0000000E+00;  4.5924550E-03;  4.0000000E+04;  0.0000000E+00;  3.9991117E+04; -4.5519541E-03;  0.0000000E+00; -6.4095948E-03;  6.3386365E+02;
  6.0165060E-01;  9.9999998E-03;  1.9998111E-02;6138; -7.9141641E-03;  0.0000000E+00; -1.3488678E-04;  9.9980127E+02;  1.0056099E-01; -1.6463731E+02;3;  1.6717229E+00;  0.0000000E+00; -1.9060558E-02;0; -1.0911506E-02;  3.9549395E+04;  0.0000000E+00;  1.8181233E-02;  4.0000000E+04;  0.0000000E+00;  3.9991242E+04; -4.5290757E-03;  0.0000000E+00; -6.3824304E-03;  6.2407361E+02;
  6.0165870E-01;  9.9999998E-03;  2.9998202E-02;6139; -7.8847706E-03;  0.0000000E+00; -2.0092441E-04;  9.9983264E+02;  1.0056105E-01; -1.3866275E+02;3;  1.6662375E+00;  0.0000000E+00; -2.8458022E-02;0; -1.0829773E-02;  3.9551676E+04;  0.0000000E+00;  4.0144023E-02;  4.0000000E+04;  0.0000000E+00;  3.9991176E+04; -4.4918279E-03;  0.0000000E+00; -6.3379449E-03;  6.1326031E+02;
  6.0166556E-01;  9.9999998E-03;  3.9999403E-02;6140; -7.8452397E-03;  0.0000000E+00; -2.6549998E-04;  9.9987445E+02;  1.0056146E-01; -1.0399706E+02;3;  1.6585304E+00;  0.0000000E+00; -3.7707459E-02;0; -1.0718556E-02;  3.9554863E+04;  0.0000000E+00;  6.9270819E-02;  4.0000000E+04;  0.0000000E+00;  3.9991246E+04; -4.4414117E-03;  0.0000000E+00; -6.2771440E-03;  6.0786578E+02;
  6.0166675E-01;  9.9999998E-03;  5.0001465E-02;6141; -7.7969851E-03;  0.0000000E+00; -3.2846286E-04;  9.9992664E+02;  1.0056129E-01; -6.0788403E+01;3;  1.6486535E+00;  0.0000000E+00; -4.6778884E-02;0; -1.0580455E-02;  3.9558770E+04;  0.0000000E+00;  1.0356425E-01;  4.0000000E+04;  0.0000000E+00;  3.9991332E+04; -4.3793367E-03;  0.0000000E+00; -6.2011182E-03;  6.1388873E+02;
  6.0166055E-01;  9.9999998E-03;  6.0003567E-02;6142; -7.7414750E-03;  0.0000000E+00; -3.8984948E-04;  9.9998236E+02;  1.0056137E-01; -1.4616871E+01;3;  1.6366167E+00;  0.0000000E+00; -5.5627387E-02;0; -1.0418127E-02;  3.9562969E+04;  0.0000000E+00;  1.4010994E-01;  4.0000000E+04;  0.0000000E+00;  3.9991484E+04; -4.3071141E-03;  0.0000000E+00; -6.1110132E-03;  6.3485516E+02;
  6.1150670E-01;  9.9999998E-03; -1.0001840E-01;6187; -7.5120358E-03;  0.0000000E+00;  6.6375930E-04;  9.9997369E+02;  1.0089583E-01; -2.1777163E+01;3;  1.6054335E+00;  0.0000000E+00;  7.4864052E-02;0; -9.6544214E-03;  3.9305164E+04;  0.0000000E+00;  1.8445808E-01;  4.0000000E+04;  0.0000000E+00;  3.9988395E+04; -3.6070812E-03;  0.0000000E+00; -6.0473401E-03;  7.3770258E+02;
  6.1154205E-01;  9.9999998E-03; -9.0019427E-02;6188; -7.5854328E-03;  0.0000000E+00;  6.0230354E-04;  9.9992365E+02;  1.0089567E-01; -6.3257469E+01;3;  1.6266409E+00;  0.0000000E+00;  6.8453953E-02;0; -9.9058663E-03;  3.9301414E+04;  0.0000000E+00;  1.8874228E-01;  4.0000000E+04;  0.0000000E+00;  3.9988797E+04; -3.7061893E-03;  0.0000000E+00; -6.1996770E-03;  6.9918530E+02;
  6.1156899E-01;  9.9999998E-03; -8.0019839E-02;6189; -7.6559396E-03;  0.0000000E+00;  5.4001017E-04;  9.9986780E+02;  1.0089529E-01; -1.0952776E+02;3;  1.6457540E+00;  0.0000000E+00;  6.1755180E-02;0; -1.0136545E-02;  3.9297496E+04;  0.0000000E+00;  1.7945623E-01;  4.0000000E+04;  0.0000000E+00;  3.9989297E+04; -3.7975824E-03;  0.0000000E+00; -6.3389628E-03;  6.5710046E+02;
  6.1158705E-01;  9.9999998E-03; -7.0019118E-02;6190; -7.7231782E-03;  0.0000000E+00;  4.7690430E-04;  9.9981848E+02;  1.0089497E-01; -1.5036612E+02;3;  1.6627997E+00;  0.0000000E+00;  5.4782901E-02;0; -1.0345999E-02;  3.9293875E+04;  0.0000000E+00;  1.5891701E-01;  4.0000000E+04;  0.0000000E+00;  3.9989203E+04; -3.8814188E-03;  0.0000000E+00; -6.4645805E-03;  6.1824469E+02;
  6.1159694E-01;  9.9999998E-03; -6.0017075E-02;6191; -7.7861566E-03;  0.0000000E+00;  4.1281182E-04;  9.9977216E+02;  1.0089485E-01; -1.8878479E+02;3;  1.6776836E+00;  0.0000000E+00;  4.7539644E-02;0; -1.0533508E-02;  3.9290340E+04;  0.0000000E+00;  1.3066061E-01;  4.0000000E+04;  0.0000000E+00;  3.9989199E+04; -3.9573167E-03;  0.0000000E+00; -6.5761912E-03;  5.8822662E+02;
  6.1160058E-01;  9.9999998E-03; -5.0014090E-02;6192; -7.8435363E-03;  0.0000000E+00;  3.4746254E-04;  9.9972998E+02;  1.0089473E-01; -2.2369737E+02;3;  1.6903720E+00;  0.0000000E+00;  4.0048487E-02;0; -1.0697834E-02;  3.9287355E+04;  0.0000000E+00;  9.8783717E-02;  4.0000000E+04;  0.0000000E+00;  3.9989340E+04; -4.0244395E-03;  0.0000000E+00; -6.6733947E-03;  5.7117688E+02;
  6.1159998E-01;  9.9999998E-03; -4.0010549E-02;6193; -7.8937216E-03;  0.0000000E+00;  2.8063127E-04;  9.9969299E+02;  1.0089454E-01; -2.5436317E+02;3;  1.7007972E+00;  0.0000000E+00;  3.2330230E-02;0; -1.0837046E-02;  3.9284715E+04;  0.0000000E+00;  6.7278966E-02;  4.0000000E+04;  0.0000000E+00;  3.9989289E+04; -4.0816581E-03;  0.0000000E+00; -6.7553883E-03;  5.6806860E+02;
  6.1159724E-01;  9.9999998E-03; -3.0006973E-02;6194; -7.9350099E-03;  0.0000000E+00;  2.1224926E-04;  9.9966132E+02;  1.0089444E-01; -2.8058466E+02;3;  1.7089320E+00;  0.0000000E+00;  2.4420530E-02;0; -1.0948787E-02;  3.9282664E+04;  0.0000000E+00;  3.9530296E-02;  4.0000000E+04;  0.0000000E+00;  3.9989094E+04; -4.1277702E-03;  0.0000000E+00; -6.8210172E-03;  5.7581512E+02;
  6.1159390E-01;  9.9999998E-03; -2.0003887E-02;6195; -7.9658125E-03;  0.0000000E+00;  1.4244205E-04;  9.9963605E+02;  1.0089423E-01; -3.0152234E+02;3;  1.7147498E+00;  0.0000000E+00;  1.6361913E-02;0; -1.1030718E-02;  3.9281277E+04;  0.0000000E+00;  1.8076545E-02;  4.0000000E+04;  0.0000000E+00;  3.9989227E+04; -4.1616466E-03;  0.0000000E+00; -6.8690712E-03;  5.8833447E+02;
  6.1159122E-01;  9.9999998E-03; -1.0001624E-02;6196; -7.9848962E-03;  0.0000000E+00;  7.1539129E-05;  9.9962482E+02;  1.0089421E-01; -3.1085541E+02;3;  1.7182890E+00;  0.0000000E+00;  8.2024671E-03;0; -1.1080799E-02;  3.9280328E+04;  0.0000000E+00;  4.5920182E-03;  4.0000000E+04;  0.0000000E+00;  3.9988805E+04; -4.1823732E-03;  0.0000000E+00; -6.8984255E-03;  5.9906134E+02;
  6.1159045E-01;  9.9999998E-03;  1.4501393E-08;6197; -7.9913232E-03;  0.0000000E+00;  3.9308411E-08;  9.9961737E+02;  1.0089427E-01; -3.1697870E+02;3;  1.7194360E+00;  0.0000000E+00; -7.0424253E-06;0; -1.1097657E-02;  3.9279930E+04;  0.0000000E+00; -1.4514016E-11;  4.0000000E+04;  0.0000000E+00;  3.9988852E+04; -4.1893455E-03;  0.0000000E+00; -6.9083115E-03;  6.0319733E+02;
  6.1159122E-01;  9.9999998E-03;  1.0001653E-02;6198; -7.9848990E-03;  0.0000000E+00; -7.1460679E-05;  9.9962482E+02;  1.0089421E-01; -3.1085541E+02;3;  1.7182806E+00;  0.0000000E+00; -8.2216337E-03;0; -1.1080794E-02;  3.9280332E+04;  0.0000000E+00;  4.5918524E-03;  4.0000000E+04;  0.0000000E+00;  3.9988805E+04; -4.1823653E-03;  0.0000000E+00; -6.8984283E-03;  5.9905383E+02;
  6.1159390E-01;  9.9999998E-03;  2.0003915E-02;6199; -7.9658143E-03;  0.0000000E+00; -1.4236405E-04;  9.9963605E+02;  1.0089423E-01; -3.0152234E+02;3;  1.7147812E+00;  0.0000000E+00; -1.6382132E-02;0; -1.1030734E-02;  3.9281281E+04;  0.0000000E+00;  1.8075887E-02;  4.0000000E+04;  0.0000000E+00;  3.9989223E+04; -4.1616443E-03;  0.0000000E+00; -6.8690898E-03;  5.8834491E+02;
  6.1159724E-01;  9.9999998E-03;  3.0007003E-02;6200; -7.9350127E-03;  0.0000000E+00; -2.1217189E-04;  9.9966132E+02;  1.0089444E-01; -2.8058466E+02;3;  1.7089366E+00;  0.0000000E+00; -2.4441039E-02;0; -1.0948803E-02;  3.9282668E+04;  0.0000000E+00;  3.9529610E-02;  4.0000000E+04;  0.0000000E+00;  3.9989094E+04; -4.1277669E-03;  0.0000000E+00; -6.8210368E-03;  5.7582153E+02;
  6.1159998E-01;  9.9999998E-03;  4.0010579E-02;6201; -7.8937262E-03;  0.0000000E+00; -2.8055452E-04;  9.9969299E+02;  1.0089454E-01; -2.5436317E+02;3;  1.7007967E+00;  0.0000000E+00; -3.2351661E-02;0; -1.0837053E-02;  3.9284711E+04;  0.0000000E+00;  6.7277208E-02;  4.0000000E+04;  0.0000000E+00;  3.9989289E+04; -4.0816506E-03;  0.0000000E+00; -6.7554023E-03;  5.6808038E+02;
  6.1160058E-01;  9.9999998E-03;  5.0014120E-02;6202; -7.8435428E-03;  0.0000000E+00; -3.4738687E-04;  9.9972998E+02;  1.0089470E-01; -2.2369737E+02;3;  1.6903787E+00;  0.0000000E+00; -4.0073529E-02;0; -1.0697855E-02;  3.9287352E+04;  0.0000000E+00;  9.8779887E-02;  4.0000000E+04;  0.0000000E+00;  3.9989344E+04; -4.0244302E-03;  0.0000000E+00; -6.6734240E-03;  5.7119580E+02;
  6.1159694E-01;  9.9999998E-03;  6.0017105E-02;6203; -7.7861636E-03;  0.0000000E+00; -4.1273705E-04;  9.9977222E+02;  1.0089481E-01; -1.8873540E+02;3;  1.6777068E+00;  0.0000000E+00; -4.7570951E-02;0; -1.0533530E-02;  3.9290336E+04;  0.0000000E+00;  1.3065389E-01;  4.0000000E+04;  0.0000000E+00;  3.9989195E+04; -3.9573121E-03;  0.0000000E+00; -6.5762182E-03;  5.8823846E+02;
  6.2140894E-01;  9.9999998E-03; -1.0003126E-01;6248; -7.5503564E-03;  0.0000000E+00;  7.0368790E-04;  9.9968170E+02;  1.0140263E-01; -2.6369626E+02;3;  1.6422272E+00;  0.0000000E+00;  6.0402595E-02;0; -9.7537655E-03;  3.8895832E+04;  0.0000000E+00;  8.4165908E-02;  4.0000000E+04;  0.0000000E+00;  3.9985281E+04; -3.2713267E-03;  0.0000000E+00; -6.4824391E-03;  6.4867334E+02;
  6.2144107E-01;  9.9999998E-03; -9.0032652E-02;6249; -7.6237717E-03;  0.0000000E+00;  6.3779537E-04;  9.9965723E+02;  1.0140219E-01; -2.8399197E+02;3;  1.6642710E+00;  0.0000000E+00;  5.5458765E-02;0; -1.0016482E-02;  3.8894281E+04;  0.0000000E+00;  1.0181078E-01;  4.0000000E+04;  0.0000000E+00;  3.9985773E+04; -3.3690587E-03;  0.0000000E+00; -6.6474238E-03;  6.0001190E+02;
  6.2146550E-01;  9.9999998E-03; -8.0032803E-02;6250; -7.6946481E-03;  0.0000000E+00;  5.7116779E-04;  9.9962903E+02;  1.0140149E-01; -3.0734933E+02;3;  1.6842316E+00;  0.0000000E+00;  5.0244316E-02;0; -1.0256182E-02;  3.8892406E+04;  0.0000000E+00;  1.0817372E-01;  4.0000000E+04;  0.0000000E+00;  3.9986102E+04; -3.4582915E-03;  0.0000000E+00; -6.7978911E-03;  5.5610535E+02;
  6.2148130E-01;  9.9999998E-03; -7.0031442E-02;6251; -7.7625699E-03;  0.0000000E+00;  5.0384278E-04;  9.9960150E+02;  1.0140128E-01; -3.3016351E+02;3;  1.7020615E+00;  0.0000000E+00;  4.4745326E-02;0; -1.0472534E-02;  3.8890660E+04;  0.0000000E+00;  1.0381457E-01;  4.0000000E+04;  0.0000000E+00;  3.9986293E+04; -3.5393564E-03;  0.0000000E+00; -6.9331783E-03;  5.2178979E+02;
  6.2148857E-01;  9.9999998E-03; -6.0028464E-02;6252; -7.8265797E-03;  0.0000000E+00;  4.3565888E-04;  9.9957947E+02;  1.0140084E-01; -3.4838522E+02;3;  1.7176505E+00;  0.0000000E+00;  3.8962599E-02;0; -1.0665042E-02;  3.8889406E+04;  0.0000000E+00;  9.0724491E-02;  4.0000000E+04;  0.0000000E+00;  3.9986562E+04; -3.6120634E-03;  0.0000000E+00; -7.0529790E-03;  4.9961435E+02;
  6.2148917E-01;  9.9999998E-03; -5.0024059E-02;6253; -7.8851748E-03;  0.0000000E+00;  3.6633841E-04;  9.9955493E+02;  1.0140058E-01; -3.6873032E+02;3;  1.7309825E+00;  0.0000000E+00;  3.2919370E-02;0; -1.0832749E-02;  3.8888164E+04;  0.0000000E+00;  7.1878947E-02;  4.0000000E+04;  0.0000000E+00;  3.9986668E+04; -3.6758308E-03;  0.0000000E+00; -7.1569188E-03;  4.9078802E+02;
  6.2148511E-01;  9.9999998E-03; -4.0019102E-02;6254; -7.9366835E-03;  0.0000000E+00;  2.9563703E-04;  9.9953613E+02;  1.0140052E-01; -3.8428543E+02;3;  1.7419428E+00;  0.0000000E+00;  2.6635904E-02;0; -1.0974051E-02;  3.8887152E+04;  0.0000000E+00;  5.0726190E-02;  4.0000000E+04;  0.0000000E+00;  3.9986543E+04; -3.7297851E-03;  0.0000000E+00; -7.2442666E-03;  4.9466727E+02;
  6.2147862E-01;  9.9999998E-03; -3.0014183E-02;6255; -7.9792608E-03;  0.0000000E+00;  2.2345765E-04;  9.9952338E+02;  1.0140011E-01; -3.9485303E+02;3;  1.7505306E+00;  0.0000000E+00;  2.0155685E-02;0; -1.1086968E-02;  3.8886410E+04;  0.0000000E+00;  3.0593099E-02;  4.0000000E+04;  0.0000000E+00;  3.9986434E+04; -3.7729945E-03;  0.0000000E+00; -7.3139733E-03;  5.0768567E+02;
  6.2147218E-01;  9.9999998E-03; -2.0009387E-02;6256; -8.0111083E-03;  0.0000000E+00;  1.4989762E-04;  9.9951013E+02;  1.0139981E-01; -4.0586505E+02;3;  1.7566476E+00;  0.0000000E+00;  1.3522730E-02;0; -1.1169496E-02;  3.8885918E+04;  0.0000000E+00;  1.4241381E-02;  4.0000000E+04;  0.0000000E+00;  3.9985996E+04; -3.8046003E-03;  0.0000000E+00; -7.3648957E-03;  5.2400580E+02;
  6.2146717E-01;  9.9999998E-03; -1.0004595E-02;6257; -8.0308653E-03;  0.0000000E+00;  7.5263008E-05;  9.9950507E+02;  1.0140011E-01; -4.1006247E+02;3;  1.7603415E+00;  0.0000000E+00;  6.7854784E-03;0; -1.1219805E-02;  3.8885523E+04;  0.0000000E+00;  3.6552895E-03;  4.0000000E+04;  0.0000000E+00;  3.9985965E+04; -3.8238682E-03;  0.0000000E+00; -7.3959371E-03;  5.3706659E+02;
  6.2146538E-01;  9.9999998E-03;  1.4987899E-08;6258; -8.0375494E-03;  0.0000000E+00;  4.0948294E-08;  9.9950195E+02;  1.0139997E-01; -4.1263031E+02;3;  1.7615889E+00;  0.0000000E+00; -5.7368056E-06;0; -1.1236727E-02;  3.8885508E+04;  0.0000000E+00; -2.2974459E-11;  4.0000000E+04;  0.0000000E+00;  3.9985949E+04; -3.8303540E-03;  0.0000000E+00; -7.4063730E-03;  5.4207135E+02;
  6.2146717E-01;  9.9999998E-03;  1.0004625E-02;6259; -8.0308672E-03;  0.0000000E+00; -7.5181168E-05;  9.9950507E+02;  1.0140011E-01; -4.1006247E+02;3;  1.7603413E+00;  0.0000000E+00; -6.7963651E-03;0; -1.1219807E-02;  3.8885512E+04;  0.0000000E+00;  3.6556537E-03;  4.0000000E+04;  0.0000000E+00;  3.9985965E+04; -3.8238647E-03;  0.0000000E+00; -7.3959422E-03;  5.3707452E+02;
  6.2147218E-01;  9.9999998E-03;  2.0009417E-02;6260; -8.0111101E-03;  0.0000000E+00; -1.4981642E-04;  9.9951013E+02;  1.0139981E-01; -4.0586505E+02;3;  1.7566806E+00;  0.0000000E+00; -1.3539632E-02;0; -1.1169504E-02;  3.8885922E+04;  0.0000000E+00;  1.4241730E-02;  4.0000000E+04;  0.0000000E+00;  3.9985996E+04; -3.8045933E-03;  0.0000000E+00; -7.3649106E-03;  5.2401007E+02;
  6.2147862E-01;  9.9999998E-03;  3.0014213E-02;6261; -7.9792626E-03;  0.0000000E+00; -2.2337720E-04;  9.9952325E+02;  1.0140017E-01; -3.9495178E+02;3;  1.7505438E+00;  0.0000000E+00; -2.0171389E-02;0; -1.1086983E-02;  3.8886406E+04;  0.0000000E+00;  3.0592646E-02;  4.0000000E+04;  0.0000000E+00;  3.9986434E+04; -3.7729852E-03;  0.0000000E+00; -7.3139975E-03;  5.0768436E+02;
  6.2148511E-01;  9.9999998E-03;  4.0019132E-02;6262; -7.9366881E-03;  0.0000000E+00; -2.9555781E-04;  9.9953613E+02;  1.0140052E-01; -3.8428543E+02;3;  1.7419794E+00;  0.0000000E+00; -2.6665563E-02;0; -1.0974073E-02;  3.8887148E+04;  0.0000000E+00;  5.0724402E-02;  4.0000000E+04;  0.0000000E+00;  3.9986543E+04; -3.7297786E-03;  0.0000000E+00; -7.2442945E-03;  4.9466537E+02;
  6.2148917E-01;  9.9999998E-03;  5.0024088E-02;6263; -7.8851804E-03;  0.0000000E+00; -3.6626021E-04;  9.9955493E+02;  1.0140058E-01; -3.6873032E+02;3;  1.7309920E+00;  0.0000000E+00; -3.2951679E-02;0; -1.0832754E-02;  3.8888164E+04;  0.0000000E+00;  7.1876206E-02;  4.0000000E+04;  0.0000000E+00;  3.9986668E+04; -3.6758184E-03;  0.0000000E+00; -7.1569355E-03;  4.9077951E+02;
  6.2148857E-01;  9.9999998E-03;  6.0028493E-02;6264; -7.8265853E-03;  0.0000000E+00; -4.3558172E-04;  9.9957941E+02;  1.0140084E-01; -3.4843460E+02;3;  1.7176738E+00;  0.0000000E+00; -3.8999427E-02;0; -1.0665067E-02;  3.8889406E+04;  0.0000000E+00;  9.0720601E-02;  4.0000000E+04;  0.0000000E+00;  3.9986566E+04; -3.6120585E-03;  0.0000000E+00; -7.0530083E-03;  4.9961328E+02;
  6.3134313E-01;  9.9999998E-03; -1.0003685E-01;6309; -7.5868657E-03;  0.0000000E+00;  7.4584555E-04;  9.9957550E+02;  1.0214076E-01; -3.5169376E+02;3;  1.6781580E+00;  0.0000000E+00;  4.4827759E-02;0; -9.8687829E-03;  3.8332520E+04;  0.0000000E+00; -5.9590142E-02;  4.0000000E+04;  0.0000000E+00;  3.9980770E+04; -2.9353891E-03;  0.0000000E+00; -6.9333939E-03;  5.9223431E+02;
  6.3139451E-01;  9.9999998E-03; -9.0035252E-02;6310; -7.6597640E-03;  0.0000000E+00;  6.7551149E-04;  9.9957751E+02;  1.0213955E-01; -3.5001480E+02;3;  1.7011136E+00;  0.0000000E+00;  4.1499574E-02;0; -1.0147002E-02;  3.8333164E+04;  0.0000000E+00; -2.7207471E-02;  4.0000000E+04;  0.0000000E+00;  3.9981207E+04; -3.0342231E-03;  0.0000000E+00; -7.1127787E-03;  5.1464789E+02;
  6.3143736E-01;  9.9999998E-03; -8.0032855E-02;6311; -7.7303946E-03;  0.0000000E+00;  6.0447934E-04;  9.9958209E+02;  1.0213891E-01; -3.4621243E+02;3;  1.7220049E+00;  0.0000000E+00;  3.7874360E-02;0; -1.0399740E-02;  3.8334480E+04;  0.0000000E+00; -1.6996289E-03;  4.0000000E+04;  0.0000000E+00;  3.9981945E+04; -3.1237849E-03;  0.0000000E+00; -7.2759548E-03;  4.5192993E+02;
  6.3146901E-01;  9.9999998E-03; -7.0029616E-02;6312; -7.7983961E-03;  0.0000000E+00;  5.3279806E-04;  9.9959247E+02;  1.0213833E-01; -3.3762009E+02;3;  1.7406932E+00;  0.0000000E+00;  3.3957317E-02;0; -1.0626709E-02;  3.8335363E+04;  0.0000000E+00;  1.5321364E-02;  4.0000000E+04;  0.0000000E+00;  3.9982164E+04; -3.2045241E-03;  0.0000000E+00; -7.4221846E-03;  4.1058984E+02;
  6.3148886E-01;  9.9999998E-03; -6.0025521E-02;6313; -7.8626787E-03;  0.0000000E+00;  4.6032219E-04;  9.9959015E+02;  1.0213739E-01; -3.3954596E+02;3;  1.7570941E+00;  0.0000000E+00;  2.9744459E-02;0; -1.0827519E-02;  3.8336277E+04;  0.0000000E+00;  2.3757549E-02;  4.0000000E+04;  0.0000000E+00;  3.9982188E+04; -3.2763979E-03;  0.0000000E+00; -7.5511211E-03;  3.9121173E+02;
  6.3149840E-01;  9.9999998E-03; -5.0020780E-02;6314; -7.9218410E-03;  0.0000000E+00;  3.8678499E-04;  9.9959247E+02;  1.0213724E-01; -3.3762009E+02;3;  1.7711272E+00;  0.0000000E+00;  2.5249586E-02;0; -1.1001417E-02;  3.8337328E+04;  0.0000000E+00;  2.4798041E-02;  4.0000000E+04;  0.0000000E+00;  3.9982461E+04; -3.3389586E-03;  0.0000000E+00; -7.6624583E-03;  3.9053772E+02;
  6.3150001E-01;  9.9999998E-03; -4.0015917E-02;6315; -7.9740454E-03;  0.0000000E+00;  3.1193421E-04;  9.9959760E+02;  1.0213652E-01; -3.3337329E+02;3;  1.7826910E+00;  0.0000000E+00;  2.0507658E-02;0; -1.1147117E-02;  3.8338383E+04;  0.0000000E+00;  2.0597292E-02;  4.0000000E+04;  0.0000000E+00;  3.9982367E+04; -3.3915406E-03;  0.0000000E+00; -7.7555771E-03;  4.0379105E+02;
  6.3149714E-01;  9.9999998E-03; -3.0011436E-02;6316; -8.0173323E-03;  0.0000000E+00;  2.3565316E-04;  9.9960510E+02;  1.0213626E-01; -3.2715125E+02;3;  1.7916937E+00;  0.0000000E+00;  1.5560926E-02;0; -1.1263025E-02;  3.8339062E+04;  0.0000000E+00;  1.3766626E-02;  4.0000000E+04;  0.0000000E+00;  3.9982078E+04; -3.4334064E-03;  0.0000000E+00; -7.8296186E-03;  4.2506631E+02;
  6.3149256E-01;  9.9999998E-03; -2.0007608E-02;6317; -8.0497935E-03;  0.0000000E+00;  1.5802063E-04;  9.9960583E+02;  1.0213589E-01; -3.2655865E+02;3;  1.7981824E+00;  0.0000000E+00;  1.0458691E-02;0; -1.1347393E-02;  3.8339812E+04;  0.0000000E+00;  6.8324832E-03;  4.0000000E+04;  0.0000000E+00;  3.9981945E+04; -3.4638706E-03;  0.0000000E+00; -7.8835217E-03;  4.4764429E+02;
  6.3148844E-01;  9.9999998E-03; -1.0004093E-02;6318; -8.0699753E-03;  0.0000000E+00;  7.9326644E-05;  9.9961182E+02;  1.0213576E-01; -3.2162054E+02;3;  1.8020731E+00;  0.0000000E+00;  5.2531962E-03;0; -1.1398689E-02;  3.8340215E+04;  0.0000000E+00;  1.8171705E-03;  4.0000000E+04;  0.0000000E+00;  3.9981844E+04; -3.4823827E-03;  0.0000000E+00; -7.9163061E-03;  4.6475577E+02;
  6.3148665E-01;  9.9999998E-03;  1.5526309E-08;6319; -8.0767823E-03;  0.0000000E+00;  4.2593221E-08;  9.9960718E+02;  1.0213578E-01; -3.2542288E+02;3;  1.8033623E+00;  0.0000000E+00; -3.9538913E-06;0; -1.1415931E-02;  3.8340531E+04;  0.0000000E+00; -3.5680292E-11;  4.0000000E+04;  0.0000000E+00;  3.9981871E+04; -3.4886140E-03;  0.0000000E+00; -7.9273172E-03;  4.7109930E+02;
  6.3148844E-01;  9.9999998E-03;  1.0004124E-02;6320; -8.0699762E-03;  0.0000000E+00; -7.9241669E-05;  9.9961176E+02;  1.0213573E-01; -3.2166992E+02;3;  1.8020606E+00;  0.0000000E+00; -5.2620471E-03;0; -1.1398690E-02;  3.8340211E+04;  0.0000000E+00;  1.8178102E-03;  4.0000000E+04;  0.0000000E+00;  3.9981840E+04; -3.4823795E-03;  0.0000000E+00; -7.9163099E-03;  4.6475974E+02;
  6.3149256E-01;  9.9999998E-03;  2.0007638E-02;6321; -8.0497973E-03;  0.0000000E+00; -1.5793619E-04;  9.9960583E+02;  1.0213578E-01; -3.2655865E+02;3;  1.7981778E+00;  0.0000000E+00; -1.0470260E-02;0; -1.1347402E-02;  3.8339809E+04;  0.0000000E+00;  6.8335715E-03;  4.0000000E+04;  0.0000000E+00;  3.9981949E+04; -3.4638667E-03;  0.0000000E+00; -7.8835357E-03;  4.4764844E+02;
  6.3149714E-01;  9.9999998E-03;  3.0011466E-02;6322; -8.0173342E-03;  0.0000000E+00; -2.3556981E-04;  9.9960510E+02;  1.0213626E-01; -3.2715125E+02;3;  1.7917273E+00;  0.0000000E+00; -1.5577103E-02;0; -1.1263042E-02;  3.8339066E+04;  0.0000000E+00;  1.3767676E-02;  4.0000000E+04;  0.0000000E+00;  3.9982078E+04; -3.4333954E-03;  0.0000000E+00; -7.8296466E-03;  4.2507068E+02;
  6.3150001E-01;  9.9999998E-03;  4.0015947E-02;6323; -7.9740509E-03;  0.0000000E+00; -3.1185197E-04;  9.9959760E+02;  1.0213652E-01; -3.3337329E+02;3;  1.7826911E+00;  0.0000000E+00; -2.0529652E-02;0; -1.1147148E-02;  3.8338387E+04;  0.0000000E+00;  2.0598281E-02;  4.0000000E+04;  0.0000000E+00;  3.9982367E+04; -3.3915306E-03;  0.0000000E+00; -7.7556176E-03;  4.0380133E+02;
  6.3149840E-01;  9.9999998E-03;  5.0020810E-02;6324; -7.9218466E-03;  0.0000000E+00; -3.8670408E-04;  9.9959241E+02;  1.0213724E-01; -3.3766946E+02;3;  1.7711215E+00;  0.0000000E+00; -2.5281444E-02;0; -1.1001442E-02;  3.8337328E+04;  0.0000000E+00;  2.4795171E-02;  4.0000000E+04;  0.0000000E+00;  3.9982461E+04; -3.3389451E-03;  0.0000000E+00; -7.6624961E-03;  3.9053970E+02;
  6.3148886E-01;  9.9999998E-03;  6.0025554E-02;6325; -7.8626852E-03;  0.0000000E+00; -4.6024221E-04;  9.9959009E+02;  1.0213742E-01; -3.3959534E+02;3;  1.7571101E+00;  0.0000000E+00; -2.9783301E-02;0; -1.0827534E-02;  3.8336277E+04;  0.0000000E+00;  2.3751643E-02;  4.0000000E+04;  0.0000000E+00;  3.9982188E+04; -3.2763835E-03;  0.0000000E+00; -7.5511504E-03;  3.9121603E+02;
  6.4140290E-01;  9.9999998E-03; -1.0001470E-01;6370; -7.6176492E-03;  0.0000000E+00;  7.9244986E-04;  9.9979547E+02;  1.0316058E-01; -1.6942731E+02;3;  1.7133834E+00;  0.0000000E+00;  2.8052457E-02;0; -1.0010352E-02;  3.7597398E+04;  0.0000000E+00; -2.2364654E-01;  4.0000000E+04;  0.0000000E+00;  3.9974449E+04; -2.6037532E-03;  0.0000000E+00; -7.4065994E-03;  6.3766235E+02;
  6.4145195E-01;  9.9999998E-03; -9.0014093E-02;6371; -7.6895189E-03;  0.0000000E+00;  7.1745249E-04;  9.9982147E+02;  1.0315883E-01; -1.4789705E+02;3;  1.7372041E+00;  0.0000000E+00;  2.6553478E-02;0; -1.0308329E-02;  3.7600211E+04;  0.0000000E+00; -1.7732331E-01;  4.0000000E+04;  0.0000000E+00;  3.9975348E+04; -2.7078784E-03;  0.0000000E+00; -7.6004509E-03;  5.2215302E+02;
  6.4149255E-01;  9.9999998E-03; -8.0013297E-02;6372; -7.7592186E-03;  0.0000000E+00;  6.4173061E-04;  9.9984924E+02;  1.0315756E-01; -1.2488535E+02;3;  1.7590859E+00;  0.0000000E+00;  2.4686040E-02;0; -1.0578196E-02;  3.7603133E+04;  0.0000000E+00; -1.3207053E-01;  4.0000000E+04;  0.0000000E+00;  3.9976094E+04; -2.8020502E-03;  0.0000000E+00; -7.7761463E-03;  4.2121094E+02;
  6.4152372E-01;  9.9999998E-03; -7.0012204E-02;6373; -7.8264736E-03;  0.0000000E+00;  5.6535343E-04;  9.9987561E+02;  1.0315657E-01; -1.0305882E+02;3;  1.7786336E+00;  0.0000000E+00;  2.2487108E-02;0; -1.0819706E-02;  3.7606090E+04;  0.0000000E+00; -9.1816112E-02;  4.0000000E+04;  0.0000000E+00;  3.9976379E+04; -2.8866038E-03;  0.0000000E+00; -7.9331025E-03;  3.4738654E+02;
  6.4154541E-01;  9.9999998E-03; -6.0010653E-02;6374; -7.8903344E-03;  0.0000000E+00;  4.8818917E-04;  9.9990692E+02;  1.0315521E-01; -7.7133621E+01;3;  1.7958167E+00;  0.0000000E+00;  1.9950375E-02;0; -1.1032567E-02;  3.7609621E+04;  0.0000000E+00; -5.9040532E-02;  4.0000000E+04;  0.0000000E+00;  3.9976551E+04; -2.9614456E-03;  0.0000000E+00; -8.0711218E-03;  3.0719418E+02;
  6.4155906E-01;  9.9999998E-03; -5.0008856E-02;6375; -7.9492703E-03;  0.0000000E+00;  4.0998965E-04;  9.9993524E+02;  1.0315417E-01; -5.3628113E+01;3;  1.8105532E+00;  0.0000000E+00;  1.7105509E-02;0; -1.1216098E-02;  3.7612625E+04;  0.0000000E+00; -3.4669545E-02;  4.0000000E+04;  0.0000000E+00;  3.9976648E+04; -3.0261842E-03;  0.0000000E+00; -8.1899147E-03;  2.9930920E+02;
  6.4156610E-01;  9.9999998E-03; -4.0007196E-02;6376; -8.0014039E-03;  0.0000000E+00;  3.3050406E-04;  9.9995892E+02;  1.0315340E-01; -3.4023727E+01;3;  1.8227470E+00;  0.0000000E+00;  1.3995026E-02;0; -1.1369256E-02;  3.7615480E+04;  0.0000000E+00; -1.8242231E-02;  4.0000000E+04;  0.0000000E+00;  3.9976621E+04; -3.0802567E-03;  0.0000000E+00; -8.2889991E-03;  3.1532629E+02;
  6.4156884E-01;  9.9999998E-03; -3.0005869E-02;6377; -8.0447216E-03;  0.0000000E+00;  2.4959954E-04;  9.9998065E+02;  1.0315263E-01; -1.6048929E+01;3;  1.8322312E+00;  0.0000000E+00;  1.0673806E-02;0; -1.1490628E-02;  3.7617812E+04;  0.0000000E+00; -8.3147343E-03;  4.0000000E+04;  0.0000000E+00;  3.9976293E+04; -3.1230678E-03;  0.0000000E+00; -8.3675599E-03;  3.4373181E+02;
  6.4156950E-01;  9.9999998E-03; -2.0005126E-02;6378; -8.0772974E-03;  0.0000000E+00;  1.6733998E-04;  9.9999670E+02;  1.0315228E-01; -2.7159727E+00;3;  1.8390671E+00;  0.0000000E+00;  7.1993535E-03;0; -1.1578715E-02;  3.7619727E+04;  0.0000000E+00; -3.0286585E-03;  4.0000000E+04;  0.0000000E+00;  3.9976176E+04; -3.1540517E-03;  0.0000000E+00; -8.4246639E-03;  3.7363397E+02;
  6.4156932E-01;  9.9999998E-03; -1.0003672E-02;6379; -8.0975397E-03;  0.0000000E+00;  8.3999024E-05;  1.0000037E+03;  1.0315170E-01;  3.0616417E+00;3;  1.8431655E+00;  0.0000000E+00;  3.6241875E-03;0; -1.1632203E-02;  3.7621250E+04;  0.0000000E+00; -6.5345061E-04;  4.0000000E+04;  0.0000000E+00;  3.9976043E+04; -3.1728148E-03;  0.0000000E+00; -8.4593883E-03;  3.9590210E+02;
  6.4156920E-01;  9.9999998E-03;  1.6272168E-08;6380; -8.1044175E-03;  0.0000000E+00;  4.4291021E-08;  1.0000087E+03;  1.0315151E-01;  7.2096725E+00;3;  1.8445461E+00;  0.0000000E+00; -3.1809504E-06;0; -1.1650138E-02;  3.7621504E+04;  0.0000000E+00; -5.2610506E-11;  4.0000000E+04;  0.0000000E+00;  3.9975777E+04; -3.1790950E-03;  0.0000000E+00; -8.4710428E-03;  4.0412057E+02;
  6.4156932E-01;  9.9999998E-03;  1.0003705E-02;6381; -8.0975406E-03;  0.0000000E+00; -8.3910571E-05;  1.0000037E+03;  1.0315170E-01;  3.0616417E+00;3;  1.8431629E+00;  0.0000000E+00; -3.6309548E-03;0; -1.1632213E-02;  3.7621246E+04;  0.0000000E+00; -6.5208104E-04;  4.0000000E+04;  0.0000000E+00;  3.9976043E+04; -3.1728134E-03;  0.0000000E+00; -8.4593995E-03;  3.9591589E+02;
  6.4156950E-01;  9.9999998E-03;  2.0005157E-02;6382; -8.0773002E-03;  0.0000000E+00; -1.6725235E-04;  9.9999677E+02;  1.0315228E-01; -2.6665912E+00;3;  1.8390549E+00;  0.0000000E+00; -7.2093862E-03;0; -1.1578726E-02;  3.7619727E+04;  0.0000000E+00; -3.0267185E-03;  4.0000000E+04;  0.0000000E+00;  3.9976176E+04; -3.1540443E-03;  0.0000000E+00; -8.4246816E-03;  3.7362976E+02;
  6.4156884E-01;  9.9999998E-03;  3.0005902E-02;6383; -8.0447244E-03;  0.0000000E+00; -2.4951319E-04;  9.9998065E+02;  1.0315263E-01; -1.6048929E+01;3;  1.8322502E+00;  0.0000000E+00; -1.0689172E-02;0; -1.1490636E-02;  3.7617812E+04;  0.0000000E+00; -8.3124563E-03;  4.0000000E+04;  0.0000000E+00;  3.9976297E+04; -3.1230552E-03;  0.0000000E+00; -8.3675804E-03;  3.4372897E+02;
  6.4156610E-01;  9.9999998E-03;  4.0007226E-02;6384; -8.0014076E-03;  0.0000000E+00; -3.3041913E-04;  9.9995905E+02;  1.0315338E-01; -3.3924965E+01;3;  1.8227379E+00;  0.0000000E+00; -1.4017826E-02;0; -1.1369271E-02;  3.7615469E+04;  0.0000000E+00; -1.8241046E-02;  4.0000000E+04;  0.0000000E+00;  3.9976621E+04; -3.0802474E-03;  0.0000000E+00; -8.2890242E-03;  3.1531931E+02;
  6.4155906E-01;  9.9999998E-03;  5.0008886E-02;6385; -7.9492740E-03;  0.0000000E+00; -4.0990629E-04;  9.9993524E+02;  1.0315417E-01; -5.3628113E+01;3;  1.8105845E+00;  0.0000000E+00; -1.7142938E-02;0; -1.1216112E-02;  3.7612625E+04;  0.0000000E+00; -3.4668975E-02;  4.0000000E+04;  0.0000000E+00;  3.9976652E+04; -3.0261709E-03;  0.0000000E+00; -8.1899418E-03;  2.9930551E+02;
  6.4154541E-01;  9.9999998E-03;  6.0010683E-02;6386; -7.8903390E-03;  0.0000000E+00; -4.8810698E-04;  9.9990686E+02;  1.0315521E-01; -7.7182999E+01;3;  1.7958362E+00;  0.0000000E+00; -1.9992171E-02;0; -1.1032569E-02;  3.7609621E+04;  0.0000000E+00; -5.9040628E-02;  4.0000000E+04;  0.0000000E+00;  3.9976555E+04; -2.9614326E-03;  0.0000000E+00; -8.0711367E-03;  3.0719778E+02;
  6.5162283E-01;  9.9999998E-03;  1.7141932E-08;6441; -8.1161102E-03;  0.0000000E+00;  4.6118810E-08;  1.0005948E+03;  1.0447160E-01;  4.9282556E+02;3;  1.8835710E+00;  0.0000000E+00; -2.7280068E-06;0; -1.1944774E-02;  3.6718633E+04;  0.0000000E+00; -7.8677863E-11;  4.0000000E+04;  0.0000000E+00;  3.9967895E+04; -2.9078582E-03;  0.0000000E+00; -9.0369154E-03;  3.5719647E+02;
  6.5162176E-01;  9.9999998E-03; -1.0000569E-02;6440; -8.1093060E-03;  0.0000000E+00;  8.9403526E-05;  1.0005906E+03;  1.0447188E-01;  4.8927011E+02;3;  1.8821567E+00;  0.0000000E+00;  1.9048359E-03;0; -1.1925698E-02;  3.6717934E+04;  0.0000000E+00; -3.1902392E-03;  4.0000000E+04;  0.0000000E+00;  3.9968148E+04; -2.9011138E-03;  0.0000000E+00; -9.0245847E-03;  3.4673010E+02;
  6.5162176E-01;  9.9999998E-03;  1.0000603E-02;6442; -8.1093069E-03;  0.0000000E+00; -8.9311783E-05;  1.0005906E+03;  1.0447188E-01;  4.8927011E+02;3;  1.8821512E+00;  0.0000000E+00; -1.9083432E-03;0; -1.1925705E-02;  3.6717934E+04;  0.0000000E+00; -3.1881200E-03;  4.0000000E+04;  0.0000000E+00;  3.9968148E+04; -2.9011068E-03;  0.0000000E+00; -9.0245977E-03;  3.4672342E+02;
  6.5161806E-01;  9.9999998E-03; -2.0000074E-02;6439; -8.0892798E-03;  0.0000000E+00;  1.7813731E-04;  1.0005704E+03;  1.0447238E-01;  4.7257922E+02;3;  1.8780659E+00;  0.0000000E+00;  3.7691279E-03;0; -1.1868788E-02;  3.6716188E+04;  0.0000000E+00; -1.3112782E-02;  4.0000000E+04;  0.0000000E+00;  3.9968270E+04; -2.8809572E-03;  0.0000000E+00; -8.9878310E-03;  3.1867599E+02;
  6.5161806E-01;  9.9999998E-03;  2.0000109E-02;6443; -8.0892825E-03;  0.0000000E+00; -1.7804620E-04;  1.0005704E+03;  1.0447238E-01;  4.7257922E+02;3;  1.8780502E+00;  0.0000000E+00; -3.7755251E-03;0; -1.1868792E-02;  3.6716188E+04;  0.0000000E+00; -1.3109144E-02;  4.0000000E+04;  0.0000000E+00;  3.9968273E+04; -2.8809451E-03;  0.0000000E+00; -8.9878468E-03;  3.1866815E+02;
  6.5161103E-01;  9.9999998E-03; -2.9998695E-02;6438; -8.0570737E-03;  0.0000000E+00;  2.6575418E-04;  1.0005411E+03;  1.0447284E-01;  4.4828363E+02;3;  1.8712666E+00;  0.0000000E+00;  5.5330372E-03;0; -1.1774885E-02;  3.6712957E+04;  0.0000000E+00; -3.0716736E-02;  4.0000000E+04;  0.0000000E+00;  3.9968523E+04; -2.8476273E-03;  0.0000000E+00; -8.9272577E-03;  2.8294611E+02;
  6.5161103E-01;  9.9999998E-03;  2.9998729E-02;6444; -8.0570783E-03;  0.0000000E+00; -2.6566445E-04;  1.0005412E+03;  1.0447284E-01;  4.4838239E+02;3;  1.8712547E+00;  0.0000000E+00; -5.5366908E-03;0; -1.1774894E-02;  3.6712957E+04;  0.0000000E+00; -3.0711744E-02;  4.0000000E+04;  0.0000000E+00;  3.9968516E+04; -2.8476124E-03;  0.0000000E+00; -8.9272819E-03;  2.8292944E+02;
  6.5159953E-01;  9.9999998E-03; -3.9997827E-02;6437; -8.0142505E-03;  0.0000000E+00;  3.5197460E-04;  1.0005081E+03;  1.0447374E-01;  4.2092636E+02;3;  1.8617812E+00;  0.0000000E+00;  7.1628131E-03;0; -1.1645178E-02;  3.6709242E+04;  0.0000000E+00; -5.7229098E-02;  4.0000000E+04;  0.0000000E+00;  3.9968812E+04; -2.8015056E-03;  0.0000000E+00; -8.8436725E-03;  2.5609470E+02;
  6.5159953E-01;  9.9999998E-03;  3.9997861E-02;6445; -8.0142524E-03;  0.0000000E+00; -3.5188664E-04;  1.0005081E+03;  1.0447374E-01;  4.2092636E+02;3;  1.8617817E+00;  0.0000000E+00; -7.1874768E-03;0; -1.1645204E-02;  3.6709246E+04;  0.0000000E+00; -5.7225943E-02;  4.0000000E+04;  0.0000000E+00;  3.9968812E+04; -2.8014949E-03;  0.0000000E+00; -8.8437097E-03;  2.5610526E+02;
  6.5158230E-01;  9.9999998E-03; -4.9997855E-02;6436; -7.9627773E-03;  0.0000000E+00;  4.3674212E-04;  1.0004635E+03;  1.0447542E-01;  3.8398914E+02;3;  1.8490841E+00;  0.0000000E+00;  8.5822260E-03;0; -1.1481061E-02;  3.6704691E+04;  0.0000000E+00; -9.3646206E-02;  4.0000000E+04;  0.0000000E+00;  3.9968781E+04; -2.7431285E-03;  0.0000000E+00; -8.7379320E-03;  2.5868231E+02;
  6.5158230E-01;  9.9999998E-03;  4.9997889E-02;6446; -7.9627801E-03;  0.0000000E+00; -4.3665615E-04;  1.0004636E+03;  1.0447542E-01;  3.8408789E+02;3;  1.8490757E+00;  0.0000000E+00; -8.6238207E-03;0; -1.1481084E-02;  3.6704695E+04;  0.0000000E+00; -9.3644202E-02;  4.0000000E+04;  0.0000000E+00;  3.9968781E+04; -2.7431122E-03;  0.0000000E+00; -8.7379720E-03;  2.5868970E+02;
  6.5155774E-01;  9.9999998E-03; -5.9998393E-02;6435; -7.9046274E-03;  0.0000000E+00;  5.2017596E-04;  1.0004240E+03;  1.0447723E-01;  3.5119995E+02;3;  1.8335615E+00;  0.0000000E+00;  9.7299330E-03;0; -1.1283821E-02;  3.6700051E+04;  0.0000000E+00; -1.4011203E-01;  4.0000000E+04;  0.0000000E+00;  3.9969008E+04; -2.6730977E-03;  0.0000000E+00; -8.6107235E-03;  3.0339636E+02;
  6.5155780E-01;  9.9999998E-03;  5.9998427E-02;6447; -7.9046320E-03;  0.0000000E+00; -5.2009133E-04;  1.0004241E+03;  1.0447721E-01;  3.5129871E+02;3;  1.8335570E+00;  0.0000000E+00; -9.7764339E-03;0; -1.1283833E-02;  3.6700059E+04;  0.0000000E+00; -1.4011107E-01;  4.0000000E+04;  0.0000000E+00;  3.9969004E+04; -2.6730809E-03;  0.0000000E+00; -8.6107515E-03;  3.0340884E+02;
  6.5152586E-01;  9.9999998E-03; -6.9998935E-02;6434; -7.8416849E-03;  0.0000000E+00;  6.0249993E-04;  1.0003777E+03;  1.0447907E-01;  3.1288004E+02;3;  1.8155184E+00;  0.0000000E+00;  1.0538084E-02;0; -1.1054544E-02;  3.6695086E+04;  0.0000000E+00; -1.9534193E-01;  4.0000000E+04;  0.0000000E+00;  3.9968676E+04; -2.5920221E-03;  0.0000000E+00; -8.4625212E-03;  3.8705847E+02;
  6.5148669E-01;  9.9999998E-03; -7.9999141E-02;6433; -7.7754376E-03;  0.0000000E+00;  6.8394112E-04;  1.0003324E+03;  1.0448122E-01;  2.7535025E+02;3;  1.7948837E+00;  0.0000000E+00;  1.0992342E-02;0; -1.0793969E-02;  3.6690547E+04;  0.0000000E+00; -2.5630328E-01;  4.0000000E+04;  0.0000000E+00;  3.9968020E+04; -2.5003843E-03;  0.0000000E+00; -8.2935849E-03;  5.0015207E+02;
  6.5144050E-01;  9.9999998E-03; -8.9999385E-02;6432; -7.7067818E-03;  0.0000000E+00;  7.6461077E-04;  1.0002977E+03;  1.0448410E-01;  2.4670908E+02;3;  1.7718581E+00;  0.0000000E+00;  1.1021354E-02;0; -1.0502487E-02;  3.6686012E+04;  0.0000000E+00; -3.1822744E-01;  4.0000000E+04;  0.0000000E+00;  3.9967426E+04; -2.3984322E-03;  0.0000000E+00; -8.1040552E-03;  6.3236676E+02;
  6.5138888E-01;  9.9999998E-03; -9.9999793E-02;6431; -7.6359240E-03;  0.0000000E+00;  8.4442721E-04;  1.0002617E+03;  1.0448702E-01;  2.1678400E+02;3;  1.7471483E+00;  0.0000000E+00;  1.0587032E-02;0; -1.0180413E-02;  3.6682129E+04;  0.0000000E+00; -3.7495705E-01;  4.0000000E+04;  0.0000000E+00;  3.9966336E+04; -2.2860027E-03;  0.0000000E+00; -7.8944098E-03;  7.7061450E+02;
  6.6163719E-01;  9.9999998E-03; -9.9968938E-03;6501; -8.1069283E-03;  0.0000000E+00;  9.5624251E-05;  1.0010477E+03;  1.0608612E-01;  8.6802484E+02;3;  1.9231204E+00;  0.0000000E+00;  9.2381531E-05;0; -1.2274185E-02;  3.5637371E+04;  0.0000000E+00; -5.0764475E-03;  4.0000000E+04;  0.0000000E+00;  3.9958078E+04; -2.6589106E-03;  0.0000000E+00; -9.6152741E-03;  3.3896371E+02;
  6.6163844E-01;  9.9999998E-03;  1.7990628E-08;6502; -8.1135398E-03;  0.0000000E+00;  4.7582827E-08;  1.0010569E+03;  1.0608586E-01;  8.7562958E+02;3;  1.9246199E+00;  0.0000000E+00; -2.3603170E-06;0; -1.2294739E-02;  3.5638082E+04;  0.0000000E+00; -1.0584267E-10;  4.0000000E+04;  0.0000000E+00;  3.9957902E+04; -2.6664769E-03;  0.0000000E+00; -9.6282624E-03;  3.5209576E+02;
  6.6163719E-01;  9.9999998E-03;  9.9969301E-03;6503; -8.1069293E-03;  0.0000000E+00; -9.5529234E-05;  1.0010475E+03;  1.0608622E-01;  8.6782733E+02;3;  1.9231125E+00;  0.0000000E+00; -1.0379628E-04;0; -1.2274187E-02;  3.5637379E+04;  0.0000000E+00; -5.0737215E-03;  4.0000000E+04;  0.0000000E+00;  3.9958078E+04; -2.6589113E-03;  0.0000000E+00; -9.6152760E-03;  3.3895844E+02;
  6.6163367E-01;  9.9999998E-03; -1.9993752E-02;6500; -8.0874069E-03;  0.0000000E+00;  1.9056570E-04;  1.0010249E+03;  1.0608685E-01;  8.4916119E+02;3;  1.9185190E+00;  0.0000000E+00;  1.5496260E-04;0; -1.2212805E-02;  3.5635074E+04;  0.0000000E+00; -2.0612167E-02;  4.0000000E+04;  0.0000000E+00;  3.9958160E+04; -2.6362962E-03;  0.0000000E+00; -9.5765088E-03;  3.0435669E+02;
  6.6163367E-01;  9.9999998E-03;  1.9993788E-02;6504; -8.0874078E-03;  0.0000000E+00; -1.9047197E-04;  1.0010248E+03;  1.0608685E-01;  8.4906238E+02;3;  1.9185190E+00;  0.0000000E+00; -1.5874537E-04;0; -1.2212805E-02;  3.5635078E+04;  0.0000000E+00; -2.0607674E-02;  4.0000000E+04;  0.0000000E+00;  3.9958160E+04; -2.6362867E-03;  0.0000000E+00; -9.5765190E-03;  3.0435876E+02;
  6.6162753E-01;  9.9999998E-03; -2.9990550E-02;6499; -8.0559356E-03;  0.0000000E+00;  2.8435898E-04;  1.0009943E+03;  1.0608841E-01;  8.2377917E+02;3;  1.9108529E+00;  0.0000000E+00;  1.3573696E-04;0; -1.2111403E-02;  3.5631184E+04;  0.0000000E+00; -4.7362491E-02;  4.0000000E+04;  0.0000000E+00;  3.9958492E+04; -2.5988529E-03;  0.0000000E+00; -9.5125502E-03;  2.6368927E+02;
  6.6162753E-01;  9.9999998E-03;  2.9990586E-02;6505; -8.0559384E-03;  0.0000000E+00; -2.8426643E-04;  1.0009943E+03;  1.0608827E-01;  8.2368042E+02;3;  1.9108567E+00;  0.0000000E+00; -1.5129968E-04;0; -1.2111416E-02;  3.5631180E+04;  0.0000000E+00; -4.7356300E-02;  4.0000000E+04;  0.0000000E+00;  3.9958492E+04; -2.5988435E-03;  0.0000000E+00; -9.5125725E-03;  2.6367520E+02;
  6.6161770E-01;  9.9999998E-03; -3.9987423E-02;6498; -8.0140494E-03;  0.0000000E+00;  3.7670258E-04;  1.0009548E+03;  1.0609008E-01;  7.9098999E+02;3;  1.9004059E+00;  0.0000000E+00; -1.3149533E-05;0; -1.1971124E-02;  3.5626375E+04;  0.0000000E+00; -8.6109325E-02;  4.0000000E+04;  0.0000000E+00;  3.9958922E+04; -2.5470376E-03;  0.0000000E+00; -9.4240867E-03;  2.4504805E+02;
  6.6161770E-01;  9.9999998E-03;  3.9987456E-02;6506; -8.0140512E-03;  0.0000000E+00; -3.7661140E-04;  1.0009548E+03;  1.0609008E-01;  7.9098999E+02;3;  1.9004095E+00;  0.0000000E+00; -7.3042224E-06;0; -1.1971137E-02;  3.5626375E+04;  0.0000000E+00; -8.6102143E-02;  4.0000000E+04;  0.0000000E+00;  3.9958922E+04; -2.5470227E-03;  0.0000000E+00; -9.4241137E-03;  2.4505406E+02;
  6.6160303E-01;  9.9999998E-03; -4.9984813E-02;6497; -7.9636481E-03;  0.0000000E+00;  4.6753269E-04;  1.0009000E+03;  1.0609205E-01;  7.4555914E+02;3;  1.8868960E+00;  0.0000000E+00; -3.2601779E-04;0; -1.1793278E-02;  3.5620926E+04;  0.0000000E+00; -1.3711081E-01;  4.0000000E+04;  0.0000000E+00;  3.9959035E+04; -2.4814699E-03;  0.0000000E+00; -9.3118083E-03;  2.7691577E+02;
  6.6160303E-01;  9.9999998E-03;  4.9984846E-02;6507; -7.9636537E-03;  0.0000000E+00; -4.6744267E-04;  1.0008999E+03;  1.0609199E-01;  7.4555914E+02;3;  1.8868827E+00;  0.0000000E+00;  2.9610252E-04;0; -1.1793302E-02;  3.5620930E+04;  0.0000000E+00; -1.3710503E-01;  4.0000000E+04;  0.0000000E+00;  3.9959035E+04; -2.4814536E-03;  0.0000000E+00; -9.3118483E-03;  2.7690994E+02;
  6.6158295E-01;  9.9999998E-03; -5.9982553E-02;6496; -7.9065310E-03;  0.0000000E+00;  5.5694149E-04;  1.0008533E+03;  1.0609499E-01;  7.0694299E+02;3;  1.8707119E+00;  0.0000000E+00; -9.3446701E-04;0; -1.1579199E-02;  3.5615188E+04;  0.0000000E+00; -1.9944249E-01;  4.0000000E+04;  0.0000000E+00;  3.9959234E+04; -2.4028737E-03;  0.0000000E+00; -9.1763251E-03;  3.5946933E+02;
  6.6158295E-01;  9.9999998E-03;  5.9982587E-02;6508; -7.9065356E-03;  0.0000000E+00; -5.5685354E-04;  1.0008533E+03;  1.0609499E-01;  7.0694299E+02;3;  1.8707442E+00;  0.0000000E+00;  8.7972672E-04;0; -1.1579211E-02;  3.5615191E+04;  0.0000000E+00; -1.9944124E-01;  4.0000000E+04;  0.0000000E+00;  3.9959234E+04; -2.4028588E-03;  0.0000000E+00; -9.1763521E-03;  3.5946344E+02;
  6.6155666E-01;  9.9999998E-03; -6.9980718E-02;6495; -7.8445766E-03;  0.0000000E+00;  6.4510840E-04;  1.0008072E+03;  1.0609844E-01;  6.6872180E+02;3;  1.8517368E+00;  0.0000000E+00; -1.9043800E-03;0; -1.1330059E-02;  3.5609523E+04;  0.0000000E+00; -2.7039564E-01;  4.0000000E+04;  0.0000000E+00;  3.9958820E+04; -2.3121026E-03;  0.0000000E+00; -9.0179564E-03;  4.7575989E+02;
  6.6152394E-01;  9.9999998E-03; -7.9979315E-02;6494; -7.7792043E-03;  0.0000000E+00;  7.3222112E-04;  1.0007651E+03;  1.0610209E-01;  6.3385864E+02;3;  1.8300830E+00;  0.0000000E+00; -3.2756189E-03;0; -1.1046801E-02;  3.5603895E+04;  0.0000000E+00; -3.4518906E-01;  4.0000000E+04;  0.0000000E+00;  3.9958145E+04; -2.2099488E-03;  0.0000000E+00; -8.8368524E-03;  6.1299939E+02;
  6.6148472E-01;  9.9999998E-03; -8.9978628E-02;6493; -7.7112960E-03;  0.0000000E+00;  8.1836374E-04;  1.0007308E+03;  1.0610646E-01;  6.0551373E+02;3;  1.8055736E+00;  0.0000000E+00; -5.1132846E-03;0; -1.0730018E-02;  3.5599094E+04;  0.0000000E+00; -4.1707101E-01;  4.0000000E+04;  0.0000000E+00;  3.9957379E+04; -2.0970416E-03;  0.0000000E+00; -8.6329766E-03;  7.6075549E+02;
  6.6143954E-01;  9.9999998E-03; -9.9978805E-02;6492; -7.6409420E-03;  0.0000000E+00;  9.0340473E-04;  1.0007047E+03;  1.0611106E-01;  5.8378595E+02;3;  1.7796843E+00;  0.0000000E+00; -7.5486866E-03;0; -1.0380212E-02;  3.5594773E+04;  0.0000000E+00; -4.7793901E-01;  4.0000000E+04;  0.0000000E+00;  3.9956324E+04; -1.9735978E-03;  0.0000000E+00; -8.4066149E-03;  9.0576068E+02;
  6.7148399E-01;  9.9999998E-03; -9.9961981E-02;6553; -7.6402389E-03;  0.0000000E+00;  9.6934347E-04;  1.0008124E+03;  1.0800669E-01;  6.7306738E+02;3;  1.8110389E+00;  0.0000000E+00; -2.5880426E-02;0; -1.0601906E-02;  3.4358910E+04;  0.0000000E+00; -4.9932623E-01;  4.0000000E+04;  0.0000000E+00;  3.9944160E+04; -1.6592864E-03;  0.0000000E+00; -8.9426199E-03;  9.6026044E+02;
  6.7150372E-01;  9.9999998E-03; -8.9963384E-02;6554; -7.7111009E-03;  0.0000000E+00;  8.7851856E-04;  1.0008153E+03;  1.0799950E-01;  6.7543768E+02;3;  1.8383329E+00;  0.0000000E+00; -2.1495244E-02;0; -1.0981488E-02;  3.4362918E+04;  0.0000000E+00; -4.4348472E-01;  4.0000000E+04;  0.0000000E+00;  3.9945355E+04; -1.7956345E-03;  0.0000000E+00; -9.1858534E-03;  8.2196045E+02;
  6.7151976E-01;  9.9999998E-03; -7.9965919E-02;6555; -7.7791340E-03;  0.0000000E+00;  7.8628998E-04;  1.0008309E+03;  1.0799278E-01;  6.8837561E+02;3;  1.8645195E+00;  0.0000000E+00; -1.7816313E-02;0; -1.1325930E-02;  3.4367828E+04;  0.0000000E+00; -3.7226403E-01;  4.0000000E+04;  0.0000000E+00;  3.9946332E+04; -1.9217450E-03;  0.0000000E+00; -9.4041852E-03;  6.7364160E+02;
  6.7153251E-01;  9.9999998E-03; -6.9969237E-02;6556; -7.8443373E-03;  0.0000000E+00;  6.9285196E-04;  1.0008558E+03;  1.0798662E-01;  7.0901697E+02;3;  1.8872930E+00;  0.0000000E+00; -1.4673959E-02;0; -1.1634440E-02;  3.4373434E+04;  0.0000000E+00; -2.9499593E-01;  4.0000000E+04;  0.0000000E+00;  3.9946941E+04; -2.0368362E-03;  0.0000000E+00; -9.5976042E-03;  5.2961572E+02;
  6.7154276E-01;  9.9999998E-03; -5.9973162E-02;6557; -7.9057012E-03;  0.0000000E+00;  5.9815438E-04;  1.0008970E+03;  1.0798125E-01;  7.4309009E+02;3;  1.9072921E+00;  0.0000000E+00; -1.1907088E-02;0; -1.1906051E-02;  3.4379754E+04;  0.0000000E+00; -2.1974544E-01;  4.0000000E+04;  0.0000000E+00;  3.9947234E+04; -2.1396875E-03;  0.0000000E+00; -9.7663635E-03;  4.0233865E+02;
  6.7155087E-01;  9.9999998E-03; -4.9977332E-02;6558; -7.9619568E-03;  0.0000000E+00;  5.0205627E-04;  1.0009429E+03;  1.0797668E-01;  7.8121246E+02;3;  1.9247260E+00;  0.0000000E+00; -9.5569314E-03;0; -1.2139506E-02;  3.4386148E+04;  0.0000000E+00; -1.5239489E-01;  4.0000000E+04;  0.0000000E+00;  3.9947090E+04; -2.2290545E-03;  0.0000000E+00; -9.9104512E-03;  3.0849890E+02;
  6.7155683E-01;  9.9999998E-03; -3.9981738E-02;6559; -8.0114435E-03;  0.0000000E+00;  4.0443102E-04;  1.0009866E+03;  1.0797307E-01;  8.1735962E+02;3;  1.9396687E+00;  0.0000000E+00; -7.4830712E-03;0; -1.2333340E-02;  3.4392348E+04;  0.0000000E+00; -9.6441850E-02;  4.0000000E+04;  0.0000000E+00;  3.9946672E+04; -2.3037822E-03;  0.0000000E+00; -1.0029558E-02;  2.7225385E+02;
  6.7156112E-01;  9.9999998E-03; -2.9986370E-02;6560; -8.0522960E-03;  0.0000000E+00;  3.0521784E-04;  1.0010307E+03;  1.0797056E-01;  8.5390179E+02;3;  1.9512269E+00;  0.0000000E+00; -5.5117575E-03;0; -1.2486092E-02;  3.4397715E+04;  0.0000000E+00; -5.3384598E-02;  4.0000000E+04;  0.0000000E+00;  3.9946129E+04; -2.3628531E-03;  0.0000000E+00; -1.0123239E-02;  2.9726572E+02;
  6.7156363E-01;  9.9999998E-03; -1.9990845E-02;6561; -8.0829430E-03;  0.0000000E+00;  2.0450256E-04;  1.0010616E+03;  1.0796814E-01;  8.7958008E+02;3;  1.9591283E+00;  0.0000000E+00; -3.6298835E-03;0; -1.2596400E-02;  3.4402039E+04;  0.0000000E+00; -2.3352247E-02;  4.0000000E+04;  0.0000000E+00;  3.9945574E+04; -2.4055641E-03;  0.0000000E+00; -1.0190836E-02;  3.4863995E+02;
  6.7156512E-01;  9.9999998E-03; -9.9953888E-03;6562; -8.1018880E-03;  0.0000000E+00;  1.0260273E-04;  1.0010858E+03;  1.0796691E-01;  8.9953009E+02;3;  1.9638329E+00;  0.0000000E+00; -1.8070377E-03;0; -1.2663102E-02;  3.4404953E+04;  0.0000000E+00; -5.7723816E-03;  4.0000000E+04;  0.0000000E+00;  3.9945250E+04; -2.4313584E-03;  0.0000000E+00; -1.0231744E-02;  3.9169077E+02;
  6.7156559E-01;  9.9999998E-03;  1.8612594E-08;6563; -8.1083123E-03;  0.0000000E+00;  4.9587470E-08;  1.0010936E+03;  1.0796670E-01;  9.0604846E+02;3;  1.9653322E+00;  0.0000000E+00;  5.0330718E-06;0; -1.2685432E-02;  3.4405859E+04;  0.0000000E+00; -1.3436928E-10;  4.0000000E+04;  0.0000000E+00;  3.9945324E+04; -2.4399885E-03;  0.0000000E+00; -1.0245443E-02;  4.0788403E+02;
  6.7156512E-01;  9.9999998E-03;  9.9954261E-03;6564; -8.1018880E-03;  0.0000000E+00; -1.0250478E-04;  1.0010858E+03;  1.0796720E-01;  8.9953009E+02;3;  1.9638296E+00;  0.0000000E+00;  1.8044952E-03;0; -1.2663114E-02;  3.4404953E+04;  0.0000000E+00; -5.7694507E-03;  4.0000000E+04;  0.0000000E+00;  3.9945246E+04; -2.4313529E-03;  0.0000000E+00; -1.0231761E-02;  3.9167084E+02;
  6.7156363E-01;  9.9999998E-03;  1.9990882E-02;6565; -8.0829486E-03;  0.0000000E+00; -2.0440540E-04;  1.0010615E+03;  1.0796822E-01;  8.7938251E+02;3;  1.9591265E+00;  0.0000000E+00;  3.6250858E-03;0; -1.2596415E-02;  3.4402039E+04;  0.0000000E+00; -2.3346491E-02;  4.0000000E+04;  0.0000000E+00;  3.9945570E+04; -2.4055545E-03;  0.0000000E+00; -1.0190861E-02;  3.4864468E+02;
  6.7156112E-01;  9.9999998E-03;  2.9986406E-02;6566; -8.0522969E-03;  0.0000000E+00; -3.0512255E-04;  1.0010308E+03;  1.0797051E-01;  8.5400055E+02;3;  1.9512149E+00;  0.0000000E+00;  5.4882476E-03;0; -1.2486097E-02;  3.4397715E+04;  0.0000000E+00; -5.3377774E-02;  4.0000000E+04;  0.0000000E+00;  3.9946129E+04; -2.3628452E-03;  0.0000000E+00; -1.0123252E-02;  2.9724954E+02;
  6.7155689E-01;  9.9999998E-03;  3.9981775E-02;6567; -8.0114473E-03;  0.0000000E+00; -4.0433762E-04;  1.0009865E+03;  1.0797307E-01;  8.1726086E+02;3;  1.9396498E+00;  0.0000000E+00;  7.4601495E-03;0; -1.2333355E-02;  3.4392348E+04;  0.0000000E+00; -9.6434116E-02;  4.0000000E+04;  0.0000000E+00;  3.9946676E+04; -2.3037668E-03;  0.0000000E+00; -1.0029588E-02;  2.7224747E+02;
  6.7155087E-01;  9.9999998E-03;  4.9977366E-02;6568; -7.9619614E-03;  0.0000000E+00; -5.0196459E-04;  1.0009430E+03;  1.0797677E-01;  7.8121246E+02;3;  1.9247235E+00;  0.0000000E+00;  9.5296269E-03;0; -1.2139520E-02;  3.4386145E+04;  0.0000000E+00; -1.5238798E-01;  4.0000000E+04;  0.0000000E+00;  3.9947090E+04; -2.2290370E-03;  0.0000000E+00; -9.9104829E-03;  3.0848996E+02;
  6.7154276E-01;  9.9999998E-03;  5.9973199E-02;6569; -7.9057077E-03;  0.0000000E+00; -5.9806474E-04;  1.0008970E+03;  1.0798122E-01;  7.4318884E+02;3;  1.9072747E+00;  0.0000000E+00;  1.1878432E-02;0; -1.1906071E-02;  3.4379754E+04;  0.0000000E+00; -2.1974182E-01;  4.0000000E+04;  0.0000000E+00;  3.9947234E+04; -2.1396666E-03;  0.0000000E+00; -9.7664045E-03;  4.0233447E+02;
  6.8150997E-01;  9.9999998E-03; -9.9960826E-02;6614; -7.6453360E-03;  0.0000000E+00;  1.0414207E-03;  1.0005070E+03;  1.1015628E-01;  4.2003751E+02;3;  1.8411592E+00;  0.0000000E+00; -4.4075906E-02;0; -1.0836115E-02;  3.3010195E+04;  0.0000000E+00; -4.1928732E-01;  4.0000000E+04;  0.0000000E+00;  3.9930844E+04; -1.3319486E-03;  0.0000000E+00; -9.5041664E-03;  8.8098218E+02;
  6.8150765E-01;  9.9999998E-03; -8.9962110E-02;6615; -7.7180699E-03;  0.0000000E+00;  9.4426249E-04;  1.0004658E+03;  1.1014520E-01;  3.8596439E+02;3;  1.8701471E+00;  0.0000000E+00; -3.7941284E-02;0; -1.1247085E-02;  3.3013965E+04;  0.0000000E+00; -3.7961081E-01;  4.0000000E+04;  0.0000000E+00;  3.9931926E+04; -1.4815521E-03;  0.0000000E+00; -9.7655328E-03;  7.6319794E+02;
  6.8150383E-01;  9.9999998E-03; -7.9964556E-02;6616; -7.7875243E-03;  0.0000000E+00;  8.4536523E-04;  1.0004456E+03;  1.1013468E-01;  3.6917474E+02;3;  1.8979553E+00;  0.0000000E+00; -3.2525513E-02;0; -1.1621290E-02;  3.3018152E+04;  0.0000000E+00; -3.2265845E-01;  4.0000000E+04;  0.0000000E+00;  3.9932449E+04; -1.6216756E-03;  0.0000000E+00; -9.9996142E-03;  6.3306726E+02;
  6.8149906E-01;  9.9999998E-03; -6.9967851E-02;6617; -7.8535760E-03;  0.0000000E+00;  7.4498536E-04;  1.0004444E+03;  1.1012568E-01;  3.6818710E+02;3;  1.9223990E+00;  0.0000000E+00; -2.7750645E-02;0; -1.1957437E-02;  3.3023426E+04;  0.0000000E+00; -2.5755161E-01;  4.0000000E+04;  0.0000000E+00;  3.9932934E+04; -1.7508527E-03;  0.0000000E+00; -1.0206584E-02;  5.0544302E+02;
  6.8149358E-01;  9.9999998E-03; -5.9971917E-02;6618; -7.9153944E-03;  0.0000000E+00;  6.4313406E-04;  1.0004558E+03;  1.1011732E-01;  3.7766833E+02;3;  1.9437071E+00;  0.0000000E+00; -2.3212867E-02;0; -1.2253938E-02;  3.3029832E+04;  0.0000000E+00; -1.9248502E-01;  4.0000000E+04;  0.0000000E+00;  3.9933055E+04; -1.8671917E-03;  0.0000000E+00; -1.0386746E-02;  3.9661929E+02;
  6.8148792E-01;  9.9999998E-03; -4.9976464E-02;6619; -7.9715159E-03;  0.0000000E+00;  5.3971010E-04;  1.0004883E+03;  1.1011066E-01;  4.0453177E+02;3;  1.9616315E+00;  0.0000000E+00; -1.9129196E-02;0; -1.2508956E-02;  3.3036488E+04;  0.0000000E+00; -1.3354757E-01;  4.0000000E+04;  0.0000000E+00;  3.9932898E+04; -1.9687405E-03;  0.0000000E+00; -1.0540215E-02;  3.3072369E+02;
  6.8148237E-01;  9.9999998E-03; -3.9981321E-02;6620; -8.0205733E-03;  0.0000000E+00;  4.3465011E-04;  1.0005216E+03;  1.1010469E-01;  4.3218530E+02;3;  1.9771371E+00;  0.0000000E+00; -1.5291361E-02;0; -1.2720716E-02;  3.3043414E+04;  0.0000000E+00; -8.4411450E-02;  4.0000000E+04;  0.0000000E+00;  3.9932180E+04; -2.0539204E-03;  0.0000000E+00; -1.0666796E-02;  3.3163333E+02;
  6.8147725E-01;  9.9999998E-03; -2.9986273E-02;6621; -8.0608260E-03;  0.0000000E+00;  3.2793160E-04;  1.0005596E+03;  1.1010028E-01;  4.6369058E+02;3;  1.9887848E+00;  0.0000000E+00; -1.1433412E-02;0; -1.2887502E-02;  3.3049500E+04;  0.0000000E+00; -4.6657372E-02;  4.0000000E+04;  0.0000000E+00;  3.9931758E+04; -2.1213698E-03;  0.0000000E+00; -1.0766132E-02;  3.8698575E+02;
  6.8147308E-01;  9.9999998E-03; -1.9991128E-02;6622; -8.0908155E-03;  0.0000000E+00;  2.1967078E-04;  1.0005928E+03;  1.1009674E-01;  4.9114661E+02;3;  1.9968294E+00;  0.0000000E+00; -7.6351124E-03;0; -1.3007861E-02;  3.3054219E+04;  0.0000000E+00; -2.0393107E-02;  4.0000000E+04;  0.0000000E+00;  3.9931258E+04; -2.1701420E-03;  0.0000000E+00; -1.0837719E-02;  4.5709009E+02;
  6.8147010E-01;  9.9999998E-03; -9.9958302E-03;6623; -8.1093684E-03;  0.0000000E+00;  1.1019841E-04;  1.0006122E+03;  1.1009508E-01;  5.0714615E+02;3;  2.0014825E+00;  0.0000000E+00; -3.8060523E-03;0; -1.3080592E-02;  3.3057270E+04;  0.0000000E+00; -5.0389166E-03;  4.0000000E+04;  0.0000000E+00;  3.9930566E+04; -2.1996500E-03;  0.0000000E+00; -1.0880942E-02;  5.1060635E+02;
  6.8146914E-01;  9.9999998E-03;  1.9009903E-08;6624; -8.1156539E-03;  0.0000000E+00;  5.0452261E-08;  1.0006183E+03;  1.1009413E-01;  5.1228180E+02;3;  2.0029705E+00;  0.0000000E+00; -5.7213269E-06;0; -1.3104942E-02;  3.3058367E+04;  0.0000000E+00; -1.5824465E-10;  4.0000000E+04;  0.0000000E+00;  3.9930590E+04; -2.2095216E-03;  0.0000000E+00; -1.0895420E-02;  5.3028912E+02;
  6.8147010E-01;  9.9999998E-03;  9.9958684E-03;6625; -8.1093684E-03;  0.0000000E+00; -1.1009804E-04;  1.0006122E+03;  1.1009508E-01;  5.0714615E+02;3;  2.0014873E+00;  0.0000000E+00;  3.7994019E-03;0; -1.3080599E-02;  3.3057270E+04;  0.0000000E+00; -5.0358754E-03;  4.0000000E+04;  0.0000000E+00;  3.9930566E+04; -2.1996456E-03;  0.0000000E+00; -1.0880954E-02;  5.1061520E+02;
  6.8147308E-01;  9.9999998E-03;  1.9991167E-02;6626; -8.0908164E-03;  0.0000000E+00; -2.1957175E-04;  1.0005928E+03;  1.1009681E-01;  4.9114661E+02;3;  1.9968255E+00;  0.0000000E+00;  7.6184985E-03;0; -1.3007866E-02;  3.3054215E+04;  0.0000000E+00; -2.0387169E-02;  4.0000000E+04;  0.0000000E+00;  3.9931258E+04; -2.1701385E-03;  0.0000000E+00; -1.0837728E-02;  4.5709116E+02;
  6.8147731E-01;  9.9999998E-03;  2.9986311E-02;6627; -8.0608288E-03;  0.0000000E+00; -3.2783338E-04;  1.0005596E+03;  1.1010028E-01;  4.6369058E+02;3;  1.9887735E+00;  0.0000000E+00;  1.1415341E-02;0; -1.2887536E-02;  3.3049500E+04;  0.0000000E+00; -4.6651084E-02;  4.0000000E+04;  0.0000000E+00;  3.9931758E+04; -2.1213596E-03;  0.0000000E+00; -1.0766176E-02;  3.8698584E+02;
  6.8148243E-01;  9.9999998E-03;  3.9981358E-02;6628; -8.0205761E-03;  0.0000000E+00; -4.3455430E-04;  1.0005216E+03;  1.1010469E-01;  4.3218530E+02;3;  1.9771463E+00;  0.0000000E+00;  1.5262304E-02;0; -1.2720737E-02;  3.3043410E+04;  0.0000000E+00; -8.4403791E-02;  4.0000000E+04;  0.0000000E+00;  3.9932180E+04; -2.0539088E-03;  0.0000000E+00; -1.0666828E-02;  3.3164093E+02;
  6.8148792E-01;  9.9999998E-03;  4.9976502E-02;6629; -7.9715196E-03;  0.0000000E+00; -5.3961633E-04;  1.0004883E+03;  1.1011063E-01;  4.0463052E+02;3;  1.9616188E+00;  0.0000000E+00;  1.9083859E-02;0; -1.2508978E-02;  3.3036492E+04;  0.0000000E+00; -1.3354196E-01;  4.0000000E+04;  0.0000000E+00;  3.9932898E+04; -1.9687200E-03;  0.0000000E+00; -1.0540258E-02;  3.3072153E+02;
  6.8149358E-01;  9.9999998E-03;  5.9971955E-02;6630; -7.9154000E-03;  0.0000000E+00; -6.4304128E-04;  1.0004559E+03;  1.1011732E-01;  3.7766833E+02;3;  1.9436582E+00;  0.0000000E+00;  2.3170659E-02;0; -1.2253963E-02;  3.3029824E+04;  0.0000000E+00; -1.9248267E-01;  4.0000000E+04;  0.0000000E+00;  3.9933055E+04; -1.8671704E-03;  0.0000000E+00; -1.0386793E-02;  3.9661392E+02;
  6.9208753E-01;  9.9999998E-03; -1.0000334E-01;6675; -7.6639443E-03;  0.0000000E+00;  1.1224797E-03;  9.9986896E+02;  1.1264547E-01; -1.0858952E+02;3;  1.8714652E+00;  0.0000000E+00; -6.3005596E-02;0; -1.1080133E-02;  3.1536551E+04;  0.0000000E+00; -2.3191144E-01;  4.0000000E+04;  0.0000000E+00;  3.9915000E+04; -9.5314626E-04;  0.0000000E+00; -1.0126987E-02;  6.5914496E+02;
  6.9205731E-01;  9.9999998E-03; -9.0001069E-02;6676; -7.7399397E-03;  0.0000000E+00;  1.0179547E-03;  9.9977515E+02;  1.1262806E-01; -1.8626634E+02;3;  1.9024000E+00;  0.0000000E+00; -5.5059083E-02;0; -1.1524788E-02;  3.1539719E+04;  0.0000000E+00; -2.1994056E-01;  4.0000000E+04;  0.0000000E+00;  3.9915801E+04; -1.1165319E-03;  0.0000000E+00; -1.0408256E-02;  5.7086108E+02;
  6.9202030E-01;  9.9999998E-03; -7.9999849E-02;6677; -7.8121219E-03;  0.0000000E+00;  9.1129728E-04;  9.9970746E+02;  1.1261085E-01; -2.4236351E+02;3;  1.9313490E+00;  0.0000000E+00; -4.8143040E-02;0; -1.1931340E-02;  3.1544936E+04;  0.0000000E+00; -1.9210663E-01;  4.0000000E+04;  0.0000000E+00;  3.9916547E+04; -1.2719081E-03;  0.0000000E+00; -1.0659432E-02;  4.8023129E+02;
  6.9197828E-01;  9.9999998E-03; -6.9998510E-02;6678; -7.8801857E-03;  0.0000000E+00;  8.0290012E-04;  9.9967108E+02;  1.1259457E-01; -2.7248611E+02;3;  1.9586173E+00;  0.0000000E+00; -4.1765269E-02;0; -1.2297662E-02;  3.1551912E+04;  0.0000000E+00; -1.5552670E-01;  4.0000000E+04;  0.0000000E+00;  3.9916781E+04; -1.4168851E-03;  0.0000000E+00; -1.0880777E-02;  4.0158072E+02;
  6.9193405E-01;  9.9999998E-03; -5.9997443E-02;6679; -7.9434309E-03;  0.0000000E+00;  6.9286709E-04;  9.9965918E+02;  1.1257912E-01; -2.8236240E+02;3;  1.9802439E+00;  0.0000000E+00; -3.5520494E-02;0; -1.2621404E-02;  3.1560346E+04;  0.0000000E+00; -1.1676425E-01;  4.0000000E+04;  0.0000000E+00;  3.9916906E+04; -1.5486192E-03;  0.0000000E+00; -1.1072785E-02;  3.5451923E+02;
  6.9189048E-01;  9.9999998E-03; -4.9997058E-02;6680; -8.0004092E-03;  0.0000000E+00;  5.8117334E-04;  9.9966827E+02;  1.1256533E-01; -2.7480704E+02;3;  1.9993925E+00;  0.0000000E+00; -2.9513098E-02;0; -1.2900136E-02;  3.1569646E+04;  0.0000000E+00; -8.0800302E-02;  4.0000000E+04;  0.0000000E+00;  3.9916477E+04; -1.6643639E-03;  0.0000000E+00; -1.1235773E-02;  3.6143774E+02;
  6.9185066E-01;  9.9999998E-03; -3.9997421E-02;6681; -8.0496771E-03;  0.0000000E+00;  4.6780237E-04;  9.9969312E+02;  1.1255291E-01; -2.5426442E+02;3;  2.0155191E+00;  0.0000000E+00; -2.3747258E-02;0; -1.3131556E-02;  3.1578758E+04;  0.0000000E+00; -5.0696049E-02;  4.0000000E+04;  0.0000000E+00;  3.9916105E+04; -1.7617884E-03;  0.0000000E+00; -1.1369768E-02;  4.2407880E+02;
  6.9181710E-01;  9.9999998E-03; -2.9998148E-02;6682; -8.0898916E-03;  0.0000000E+00;  3.5277370E-04;  9.9972174E+02;  1.1254330E-01; -2.3051199E+02;3;  2.0273032E+00;  0.0000000E+00; -1.7865652E-02;0; -1.3313762E-02;  3.1587127E+04;  0.0000000E+00; -2.7752807E-02;  4.0000000E+04;  0.0000000E+00;  3.9915152E+04; -1.8391208E-03;  0.0000000E+00; -1.1474641E-02;  5.1611469E+02;
  6.9179165E-01;  9.9999998E-03; -1.9998919E-02;6683; -8.1196846E-03;  0.0000000E+00;  2.3621527E-04;  9.9974878E+02;  1.1253632E-01; -2.0814226E+02;3;  2.0358212E+00;  0.0000000E+00; -1.2039781E-02;0; -1.3445167E-02;  3.1593633E+04;  0.0000000E+00; -1.2017623E-02;  4.0000000E+04;  0.0000000E+00;  3.9914605E+04; -1.8951095E-03;  0.0000000E+00; -1.1550058E-02;  6.0625879E+02;
  6.9177592E-01;  9.9999998E-03; -9.9996747E-03;6684; -8.1380056E-03;  0.0000000E+00;  1.1846751E-04;  9.9976782E+02;  1.1253200E-01; -1.9234024E+02;3;  2.0406818E+00;  0.0000000E+00; -6.0482225E-03;0; -1.3524543E-02;  3.1597703E+04;  0.0000000E+00; -2.9502776E-03;  4.0000000E+04;  0.0000000E+00;  3.9913922E+04; -1.9289650E-03;  0.0000000E+00; -1.1595579E-02;  6.7043152E+02;
  6.9177043E-01;  9.9999998E-03;  1.9392866E-08;6685; -8.1442324E-03;  0.0000000E+00;  5.1392288E-08;  9.9977124E+02;  1.1253030E-01; -1.8952550E+02;3;  2.0422037E+00;  0.0000000E+00; -6.5615827E-06;0; -1.3551118E-02;  3.1599322E+04;  0.0000000E+00; -1.6850504E-10;  4.0000000E+04;  0.0000000E+00;  3.9913859E+04; -1.9403171E-03;  0.0000000E+00; -1.1610800E-02;  6.9357751E+02;
  6.9177592E-01;  9.9999998E-03;  9.9997139E-03;6686; -8.1380066E-03;  0.0000000E+00; -1.1836511E-04;  9.9976776E+02;  1.1253189E-01; -1.9238962E+02;3;  2.0407057E+00;  0.0000000E+00;  6.0336427E-03;0; -1.3524552E-02;  3.1597711E+04;  0.0000000E+00; -2.9475891E-03;  4.0000000E+04;  0.0000000E+00;  3.9913922E+04; -1.9289646E-03;  0.0000000E+00; -1.1595587E-02;  6.7042889E+02;
  6.9179165E-01;  9.9999998E-03;  1.9998958E-02;6687; -8.1196874E-03;  0.0000000E+00; -2.3611379E-04;  9.9974866E+02;  1.1253625E-01; -2.0824103E+02;3;  2.0358133E+00;  0.0000000E+00;  1.2022501E-02;0; -1.3445189E-02;  3.1593637E+04;  0.0000000E+00; -1.2012761E-02;  4.0000000E+04;  0.0000000E+00;  3.9914602E+04; -1.8951028E-03;  0.0000000E+00; -1.1550087E-02;  6.0626477E+02;
  6.9181710E-01;  9.9999998E-03;  2.9998187E-02;6688; -8.0898963E-03;  0.0000000E+00; -3.5267355E-04;  9.9972156E+02;  1.1254327E-01; -2.3066014E+02;3;  2.0272801E+00;  0.0000000E+00;  1.7845569E-02;0; -1.3313772E-02;  3.1587127E+04;  0.0000000E+00; -2.7746927E-02;  4.0000000E+04;  0.0000000E+00;  3.9915156E+04; -1.8391121E-03;  0.0000000E+00; -1.1474660E-02;  5.1612134E+02;
  6.9185066E-01;  9.9999998E-03;  3.9997458E-02;6689; -8.0496799E-03;  0.0000000E+00; -4.6770371E-04;  9.9969318E+02;  1.1255290E-01; -2.5421503E+02;3;  2.0154905E+00;  0.0000000E+00;  2.3720305E-02;0; -1.3131564E-02;  3.1578762E+04;  0.0000000E+00; -5.0688263E-02;  4.0000000E+04;  0.0000000E+00;  3.9916102E+04; -1.7617741E-03;  0.0000000E+00; -1.1369790E-02;  4.2411298E+02;
  6.9189048E-01;  9.9999998E-03;  4.9997095E-02;6690; -8.0004139E-03;  0.0000000E+00; -5.8107590E-04;  9.9966827E+02;  1.1256533E-01; -2.7480704E+02;3;  1.9993886E+00;  0.0000000E+00;  2.9482258E-02;0; -1.2900149E-02;  3.1569646E+04;  0.0000000E+00; -8.0795370E-02;  4.0000000E+04;  0.0000000E+00;  3.9916477E+04; -1.6643479E-03;  0.0000000E+00; -1.1235801E-02;  3.6144449E+02;
  6.9193405E-01;  9.9999998E-03;  5.9997480E-02;6691; -7.9434346E-03;  0.0000000E+00; -6.9277099E-04;  9.9965918E+02;  1.1257912E-01; -2.8236240E+02;3;  1.9802448E+00;  0.0000000E+00;  3.5485562E-02;0; -1.2621428E-02;  3.1560348E+04;  0.0000000E+00; -1.1676195E-01;  4.0000000E+04;  0.0000000E+00;  3.9916914E+04; -1.5486004E-03;  0.0000000E+00; -1.1072828E-02;  3.5451904E+02;
  7.0419872E-01;  9.9999998E-03; -1.0016509E-01;6736; -7.6932260E-03;  0.0000000E+00;  1.2188775E-03;  9.9931995E+02;  1.1572332E-01; -5.6339142E+02;3;  1.9018346E+00;  0.0000000E+00; -8.3810925E-02;0; -1.1318222E-02;  2.9869393E+04;  0.0000000E+00;  6.3382566E-02;  4.0000000E+04;  0.0000000E+00;  3.9895949E+04; -4.4035263E-04;  0.0000000E+00; -1.0877869E-02;  4.9569995E+02;
  7.0419562E-01;  9.9999998E-03; -9.0154558E-02;6737; -7.7737807E-03;  0.0000000E+00;  1.1055791E-03;  9.9916748E+02;  1.1571142E-01; -6.8970886E+02;3;  1.9364405E+00;  0.0000000E+00; -7.4849397E-02;0; -1.1801952E-02;  2.9866225E+04;  0.0000000E+00;  3.8932648E-02;  4.0000000E+04;  0.0000000E+00;  3.9896793E+04; -6.1496871E-04;  0.0000000E+00; -1.1186983E-02;  4.0522269E+02;
  7.0417935E-01;  9.9999998E-03; -8.0144703E-02;6738; -7.8503136E-03;  0.0000000E+00;  9.8976993E-04;  9.9904688E+02;  1.1569832E-01; -7.8965662E+02;3;  1.9677219E+00;  0.0000000E+00; -6.6432796E-02;0; -1.2247358E-02;  2.9865869E+04;  0.0000000E+00;  2.4079151E-02;  4.0000000E+04;  0.0000000E+00;  3.9897281E+04; -7.8392302E-04;  0.0000000E+00; -1.1463435E-02;  3.4435202E+02;
  7.0415139E-01;  9.9999998E-03; -7.0134647E-02;6739; -7.9221791E-03;  0.0000000E+00;  8.7194151E-04;  9.9896124E+02;  1.1568467E-01; -8.6056818E+02;3;  1.9946254E+00;  0.0000000E+00; -5.8339350E-02;0; -1.2650907E-02;  2.9868451E+04;  0.0000000E+00;  1.5795384E-02;  4.0000000E+04;  0.0000000E+00;  3.9897359E+04; -9.4371859E-04;  0.0000000E+00; -1.1707189E-02;  3.2510425E+02;
  7.0411462E-01;  9.9999998E-03; -6.0123369E-02;6740; -7.9883812E-03;  0.0000000E+00;  7.5228774E-04;  9.9890973E+02;  1.1567078E-01; -9.0328302E+02;3;  2.0211470E+00;  0.0000000E+00; -5.0368350E-02;0; -1.3009225E-02;  2.9873379E+04;  0.0000000E+00;  1.1260015E-02;  4.0000000E+04;  0.0000000E+00;  3.9897375E+04; -1.0905638E-03;  0.0000000E+00; -1.1918661E-02;  3.5304468E+02;
  7.0407283E-01;  9.9999998E-03; -5.0110128E-02;6741; -8.0477260E-03;  0.0000000E+00;  6.3085108E-04;  9.9889612E+02;  1.1565778E-01; -9.1454199E+02;3;  2.0420682E+00;  0.0000000E+00; -4.2658091E-02;0; -1.3318775E-02;  2.9880289E+04;  0.0000000E+00;  8.4185898E-03;  4.0000000E+04;  0.0000000E+00;  3.9896910E+04; -1.2207413E-03;  0.0000000E+00; -1.2098034E-02;  4.2482639E+02;
  7.0403028E-01;  9.9999998E-03; -4.0094525E-02;6742; -8.0988677E-03;  0.0000000E+00;  5.0765253E-04;  9.9889746E+02;  1.1564524E-01; -9.1345557E+02;3;  2.0578973E+00;  0.0000000E+00; -3.4506254E-02;0; -1.3576470E-02;  2.9887965E+04;  0.0000000E+00;  6.1131893E-03;  4.0000000E+04;  0.0000000E+00;  3.9896035E+04; -1.3310985E-03;  0.0000000E+00; -1.2245372E-02;  5.2780988E+02;
  7.0399183E-01;  9.9999998E-03; -3.0075705E-02;6743; -8.1402855E-03;  0.0000000E+00;  3.8271546E-04;  9.9891132E+02;  1.1563516E-01; -9.0194971E+02;3;  2.0702810E+00;  0.0000000E+00; -2.6178621E-02;0; -1.3779718E-02;  2.9895338E+04;  0.0000000E+00;  3.9286604E-03;  4.0000000E+04;  0.0000000E+00;  3.9895555E+04; -1.4191476E-03;  0.0000000E+00; -1.2360571E-02;  6.4214050E+02;
  7.0396125E-01;  9.9999998E-03; -2.0053115E-02;6744; -8.1708236E-03;  0.0000000E+00;  2.5620023E-04;  9.9892810E+02;  1.1562708E-01; -8.8802417E+02;3;  2.0788574E+00;  0.0000000E+00; -1.7597567E-02;0; -1.3926451E-02;  2.9901564E+04;  0.0000000E+00;  1.9511832E-03;  4.0000000E+04;  0.0000000E+00;  3.9894500E+04; -1.4831274E-03;  0.0000000E+00; -1.2443324E-02;  7.4529120E+02;
  7.0394182E-01;  9.9999998E-03; -1.0027541E-02;6745; -8.1895031E-03;  0.0000000E+00;  1.2846815E-04;  9.9894495E+02;  1.1562194E-01; -8.7409869E+02;3;  2.0841749E+00;  0.0000000E+00; -8.8252723E-03;0; -1.4015119E-02;  2.9905617E+04;  0.0000000E+00;  5.2449509E-04;  4.0000000E+04;  0.0000000E+00;  3.9893867E+04; -1.5218963E-03;  0.0000000E+00; -1.2493222E-02;  8.1677765E+02;
  7.0393515E-01;  9.9999998E-03;  1.9459902E-08;6746; -8.1958119E-03;  0.0000000E+00;  5.2496485E-08;  9.9894867E+02;  1.1562067E-01; -8.7098767E+02;3;  2.0859063E+00;  0.0000000E+00; -1.1272671E-05;0; -1.4044804E-02;  2.9907023E+04;  0.0000000E+00; -1.5541203E-10;  4.0000000E+04;  0.0000000E+00;  3.9893609E+04; -1.5348907E-03;  0.0000000E+00; -1.2509913E-02;  8.4236237E+02;
  7.0394182E-01;  9.9999998E-03;  1.0027580E-02;6747; -8.1895031E-03;  0.0000000E+00; -1.2836338E-04;  9.9894501E+02;  1.1562190E-01; -8.7404932E+02;3;  2.0841653E+00;  0.0000000E+00;  8.8056540E-03;0; -1.4015132E-02;  2.9905615E+04;  0.0000000E+00;  5.2631152E-04;  4.0000000E+04;  0.0000000E+00;  3.9893875E+04; -1.5218902E-03;  0.0000000E+00; -1.2493242E-02;  8.1677454E+02;
  7.0396125E-01;  9.9999998E-03;  2.0053154E-02;6748; -8.1708254E-03;  0.0000000E+00; -2.5609627E-04;  9.9892810E+02;  1.1562708E-01; -8.8802417E+02;3;  2.0788462E+00;  0.0000000E+00;  1.7574565E-02;0; -1.3926459E-02;  2.9901566E+04;  0.0000000E+00;  1.9544675E-03;  4.0000000E+04;  0.0000000E+00;  3.9894500E+04; -1.4831225E-03;  0.0000000E+00; -1.2443336E-02;  7.4530109E+02;
  7.0399183E-01;  9.9999998E-03;  3.0075744E-02;6749; -8.1402902E-03;  0.0000000E+00; -3.8261258E-04;  9.9891132E+02;  1.1563516E-01; -9.0194971E+02;3;  2.0702548E+00;  0.0000000E+00;  2.6148351E-02;0; -1.3779716E-02;  2.9895340E+04;  0.0000000E+00;  3.9328225E-03;  4.0000000E+04;  0.0000000E+00;  3.9895559E+04; -1.4191372E-03;  0.0000000E+00; -1.2360578E-02;  6.4216675E+02;
  7.0403028E-01;  9.9999998E-03;  4.0094566E-02;6750; -8.0988724E-03;  0.0000000E+00; -5.0755066E-04;  9.9889746E+02;  1.1564524E-01; -9.1345557E+02;3;  2.0578766E+00;  0.0000000E+00;  3.4478582E-02;0; -1.3576478E-02;  2.9887971E+04;  0.0000000E+00;  6.1171092E-03;  4.0000000E+04;  0.0000000E+00;  3.9896035E+04; -1.3310870E-03;  0.0000000E+00; -1.2245391E-02;  5.2781805E+02;
  7.0407283E-01;  9.9999998E-03;  5.0110165E-02;6751; -8.0477344E-03;  0.0000000E+00; -6.3075009E-04;  9.9889594E+02;  1.1565779E-01; -9.1469012E+02;3;  2.0420468E+00;  0.0000000E+00;  4.2637836E-02;0; -1.3318799E-02;  2.9880295E+04;  0.0000000E+00;  8.4232436E-03;  4.0000000E+04;  0.0000000E+00;  3.9896910E+04; -1.2207279E-03;  0.0000000E+00; -1.2098070E-02;  4.2483737E+02;
  7.0411462E-01;  9.9999998E-03;  6.0123410E-02;6752; -7.9883849E-03;  0.0000000E+00; -7.5218768E-04;  9.9890979E+02;  1.1567055E-01; -9.0323364E+02;3;  2.0211577E+00;  0.0000000E+00;  5.0344612E-02;0; -1.3009223E-02;  2.9873379E+04;  0.0000000E+00;  1.1262286E-02;  4.0000000E+04;  0.0000000E+00;  3.9897383E+04; -1.0905478E-03;  0.0000000E+00; -1.1918675E-02;  3.5305679E+02;
  7.1705389E-01;  9.9999998E-03; -1.0029005E-01;6797; -7.7204914E-03;  0.0000000E+00;  1.3195567E-03;  9.9943732E+02;  1.1931013E-01; -4.6615961E+02;3;  1.9350166E+00;  0.0000000E+00; -1.0573241E-01;0; -1.1487186E-02;  2.8131846E+04;  0.0000000E+00;  3.7885487E-01;  4.0000000E+04;  0.0000000E+00;  3.9875316E+04;  2.3620563E-04;  0.0000000E+00; -1.1723392E-02;  8.7529852E+02;
  7.1709824E-01;  9.9999998E-03; -9.0272635E-02;6798; -7.8060753E-03;  0.0000000E+00;  1.1966046E-03;  9.9926068E+02;  1.1931047E-01; -6.1252582E+02;3;  1.9692373E+00;  0.0000000E+00; -9.5843047E-02;0; -1.2008802E-02;  2.8121742E+04;  0.0000000E+00;  3.2191485E-01;  4.0000000E+04;  0.0000000E+00;  3.9875969E+04;  5.5358207E-05;  0.0000000E+00; -1.2064160E-02;  7.4720288E+02;
  7.1712726E-01;  9.9999998E-03; -8.0253676E-02;6799; -7.8871986E-03;  0.0000000E+00;  1.0709164E-03;  9.9912292E+02;  1.1931025E-01; -7.2664606E+02;3;  2.0041914E+00;  0.0000000E+00; -8.7298125E-02;0; -1.2492582E-02;  2.8114402E+04;  0.0000000E+00;  2.6407939E-01;  4.0000000E+04;  0.0000000E+00;  3.9876215E+04; -1.2177398E-04;  0.0000000E+00; -1.2370808E-02;  6.3114130E+02;
  7.1714175E-01;  9.9999998E-03; -7.0232555E-02;6800; -7.9636490E-03;  0.0000000E+00;  9.4313873E-04;  9.9902014E+02;  1.1930910E-01; -8.1177942E+02;3;  2.0356767E+00;  0.0000000E+00; -7.7613562E-02;0; -1.2933855E-02;  2.8110240E+04;  0.0000000E+00;  2.0775488E-01;  4.0000000E+04;  0.0000000E+00;  3.9876109E+04; -2.9108292E-04;  0.0000000E+00; -1.2642772E-02;  5.4350122E+02;
  7.1714312E-01;  9.9999998E-03; -6.0208891E-02;6801; -8.0340002E-03;  0.0000000E+00;  8.1342738E-04;  9.9896100E+02;  1.1930643E-01; -8.6081512E+02;3;  2.0601201E+00;  0.0000000E+00; -6.7660458E-02;0; -1.3327675E-02;  2.8109020E+04;  0.0000000E+00;  1.5531793E-01;  4.0000000E+04;  0.0000000E+00;  3.9875785E+04; -4.4781930E-04;  0.0000000E+00; -1.2879856E-02;  5.0388898E+02;
  7.1713519E-01;  9.9999998E-03; -5.0182573E-02;6802; -8.0967834E-03;  0.0000000E+00;  6.8187347E-04;  9.9893042E+02;  1.1930332E-01; -8.8614771E+02;3;  2.0834880E+00;  0.0000000E+00; -5.8393385E-02;0; -1.3669444E-02;  2.8110156E+04;  0.0000000E+00;  1.0885298E-01;  4.0000000E+04;  0.0000000E+00;  3.9875457E+04; -5.8755488E-04;  0.0000000E+00; -1.3081890E-02;  5.2739423E+02;
  7.1711940E-01;  9.9999998E-03; -4.0152378E-02;6803; -8.1506763E-03;  0.0000000E+00;  5.4853031E-04;  9.9893085E+02;  1.1929952E-01; -8.8575269E+02;3;  2.0998325E+00;  0.0000000E+00; -4.7312621E-02;0; -1.3954947E-02;  2.8113160E+04;  0.0000000E+00;  6.9874965E-02;  4.0000000E+04;  0.0000000E+00;  3.9874375E+04; -7.0659013E-04;  0.0000000E+00; -1.3248357E-02;  6.0665839E+02;
  7.1709847E-01;  9.9999998E-03; -3.0118071E-02;6804; -8.1941197E-03;  0.0000000E+00;  4.1336348E-04;  9.9894489E+02;  1.1929509E-01; -8.7414807E+02;3;  2.1149290E+00;  0.0000000E+00; -3.6221050E-02;0; -1.4180688E-02;  2.8117090E+04;  0.0000000E+00;  3.9274298E-02;  4.0000000E+04;  0.0000000E+00;  3.9873586E+04; -8.0205558E-04;  0.0000000E+00; -1.3378632E-02;  7.1327423E+02;
  7.1707755E-01;  9.9999998E-03; -2.0080836E-02;6805; -8.2260808E-03;  0.0000000E+00;  2.7661721E-04;  9.9896277E+02;  1.1929139E-01; -8.5933368E+02;3;  2.1245828E+00;  0.0000000E+00; -2.4568785E-02;0; -1.4343874E-02;  2.8121033E+04;  0.0000000E+00;  1.7413631E-02;  4.0000000E+04;  0.0000000E+00;  3.9872789E+04; -8.7173987E-04;  0.0000000E+00; -1.3472133E-02;  8.1559821E+02;
  7.1706235E-01;  9.9999998E-03; -1.0041390E-02;6806; -8.2456330E-03;  0.0000000E+00;  1.3866986E-04;  9.9897437E+02;  1.1928820E-01; -8.4970428E+02;3;  2.1300149E+00;  0.0000000E+00; -1.2547743E-02;0; -1.4442544E-02;  2.8123924E+04;  0.0000000E+00;  4.3437984E-03;  4.0000000E+04;  0.0000000E+00;  3.9872266E+04; -9.1412704E-04;  0.0000000E+00; -1.3528418E-02;  8.8820007E+02;
  7.1705687E-01;  9.9999998E-03;  1.9034941E-08;6807; -8.2522174E-03;  0.0000000E+00;  5.3379882E-08;  9.9897906E+02;  1.1928692E-01; -8.4580316E+02;3;  2.1315236E+00;  0.0000000E+00; -1.8222674E-05;0; -1.4475578E-02;  2.8124975E+04;  0.0000000E+00; -1.0724765E-10;  4.0000000E+04;  0.0000000E+00;  3.9872004E+04; -9.2834519E-04;  0.0000000E+00; -1.3547233E-02;  9.1434418E+02;
  7.1706235E-01;  9.9999998E-03;  1.0041428E-02;6808; -8.2456339E-03;  0.0000000E+00; -1.3856297E-04;  9.9897443E+02;  1.1928800E-01; -8.4965491E+02;3;  2.1300023E+00;  0.0000000E+00;  1.2517898E-02;0; -1.4442566E-02;  2.8123926E+04;  0.0000000E+00;  4.3442510E-03;  4.0000000E+04;  0.0000000E+00;  3.9872262E+04; -9.1412739E-04;  0.0000000E+00; -1.3528438E-02;  8.8820862E+02;
  7.1707755E-01;  9.9999998E-03;  2.0080876E-02;6809; -8.2260836E-03;  0.0000000E+00; -2.7651081E-04;  9.9896271E+02;  1.1929139E-01; -8.5938306E+02;3;  2.1245532E+00;  0.0000000E+00;  2.4538150E-02;0; -1.4343876E-02;  2.8121041E+04;  0.0000000E+00;  1.7414726E-02;  4.0000000E+04;  0.0000000E+00;  3.9872789E+04; -8.7173469E-04;  0.0000000E+00; -1.3472142E-02;  8.1560431E+02;
  7.1709847E-01;  9.9999998E-03;  3.0118110E-02;6810; -8.1941225E-03;  0.0000000E+00; -4.1325754E-04;  9.9894501E+02;  1.1929507E-01; -8.7404932E+02;3;  2.1148911E+00;  0.0000000E+00;  3.6195930E-02;0; -1.4180704E-02;  2.8117090E+04;  0.0000000E+00;  3.9274678E-02;  4.0000000E+04;  0.0000000E+00;  3.9873586E+04; -8.0204819E-04;  0.0000000E+00; -1.3378656E-02;  7.1327246E+02;
  7.1711940E-01;  9.9999998E-03;  4.0152419E-02;6811; -8.1506800E-03;  0.0000000E+00; -5.4842478E-04;  9.9893091E+02;  1.1929952E-01; -8.8570331E+02;3;  2.0998101E+00;  0.0000000E+00;  4.7288809E-02;0; -1.3954982E-02;  2.8113156E+04;  0.0000000E+00;  6.9874391E-02;  4.0000000E+04;  0.0000000E+00;  3.9874367E+04; -7.0658227E-04;  0.0000000E+00; -1.3248400E-02;  6.0666620E+02;
  7.1713519E-01;  9.9999998E-03;  5.0182614E-02;6812; -8.0967899E-03;  0.0000000E+00; -6.8176817E-04;  9.9893030E+02;  1.1930332E-01; -8.8624646E+02;3;  2.0834563E+00;  0.0000000E+00;  5.8378991E-02;0; -1.3669462E-02;  2.8110154E+04;  0.0000000E+00;  1.0885145E-01;  4.0000000E+04;  0.0000000E+00;  3.9875457E+04; -5.8754411E-04;  0.0000000E+00; -1.3081918E-02;  5.2741937E+02;
  7.1714312E-01;  9.9999998E-03;  6.0208932E-02;6813; -8.0340058E-03;  0.0000000E+00; -8.1332301E-04;  9.9896088E+02;  1.1930644E-01; -8.6091388E+02;3;  2.0601082E+00;  0.0000000E+00;  6.7634776E-02;0; -1.3327694E-02;  2.8109014E+04;  0.0000000E+00;  1.5531681E-01;  4.0000000E+04;  0.0000000E+00;  3.9875777E+04; -4.4780885E-04;  0.0000000E+00; -1.2879886E-02;  5.0389658E+02;
  7.2910464E-01;  9.9999998E-03; -1.0030567E-01;6858; -7.7401390E-03;  0.0000000E+00;  1.4092976E-03;  9.9972211E+02;  1.2296841E-01; -2.3021570E+02;3;  1.9694678E+00;  0.0000000E+00; -1.2818603E-01;0; -1.1548421E-02;  2.6520299E+04;  0.0000000E+00;  5.8674055E-01;  4.0000000E+04;  0.0000000E+00;  3.9855012E+04;  1.0122948E-03;  0.0000000E+00; -1.2560716E-02;  1.3365216E+03;
  7.2914916E-01;  9.9999998E-03; -9.0280421E-02;6859; -7.8302315E-03;  0.0000000E+00;  1.2769836E-03;  9.9955969E+02;  1.2296838E-01; -3.6477979E+02;3;  2.0059075E+00;  0.0000000E+00; -1.1869392E-01;0; -1.2102192E-02;  2.6511459E+04;  0.0000000E+00;  5.1336765E-01;  4.0000000E+04;  0.0000000E+00;  3.9855645E+04;  8.2662824E-04;  0.0000000E+00; -1.2928820E-02;  1.1750469E+03;
  7.2917628E-01;  9.9999998E-03; -8.0253839E-02;6860; -7.9162177E-03;  0.0000000E+00;  1.1421817E-03;  9.9943604E+02;  1.2296785E-01; -4.6724600E+02;3;  2.0377965E+00;  0.0000000E+00; -1.0820794E-01;0; -1.2617689E-02;  2.6505193E+04;  0.0000000E+00;  4.2819455E-01;  4.0000000E+04;  0.0000000E+00;  3.9856109E+04;  6.4443104E-04;  0.0000000E+00; -1.3262120E-02;  9.9415778E+02;
  7.2918576E-01;  9.9999998E-03; -7.0226036E-02;6861; -7.9969484E-03;  0.0000000E+00;  1.0053351E-03;  9.9935022E+02;  1.2296490E-01; -5.3835510E+02;3;  2.0687919E+00;  0.0000000E+00; -9.7858258E-02;0; -1.3089348E-02;  2.6501865E+04;  0.0000000E+00;  3.3888417E-01;  4.0000000E+04;  0.0000000E+00;  3.9855840E+04;  4.6999883E-04;  0.0000000E+00; -1.3559346E-02;  8.1793872E+02;
  7.2918117E-01;  9.9999998E-03; -6.0196921E-02;6862; -8.0710147E-03;  0.0000000E+00;  8.6665712E-04;  9.9931384E+02;  1.2296293E-01; -5.6847772E+02;3;  2.0997577E+00;  0.0000000E+00; -8.7233283E-02;0; -1.3511385E-02;  2.6501191E+04;  0.0000000E+00;  2.5286338E-01;  4.0000000E+04;  0.0000000E+00;  3.9855730E+04;  3.0832388E-04;  0.0000000E+00; -1.3819708E-02;  6.7650787E+02;
  7.2916615E-01;  9.9999998E-03; -5.0167650E-02;6863; -8.1374552E-03;  0.0000000E+00;  7.2628038E-04;  9.9929974E+02;  1.2295968E-01; -5.8013171E+02;3;  2.1208529E+00;  0.0000000E+00; -7.3914938E-02;0; -1.3878331E-02;  2.6502785E+04;  0.0000000E+00;  1.7596394E-01;  4.0000000E+04;  0.0000000E+00;  3.9855355E+04;  1.6411120E-04;  0.0000000E+00; -1.4042442E-02;  6.0380927E+02;
  7.2914600E-01;  9.9999998E-03; -4.0138800E-02;6864; -8.1940982E-03;  0.0000000E+00;  5.8406772E-04;  9.9931183E+02;  1.2295768E-01; -5.7015668E+02;3;  2.1389358E+00;  0.0000000E+00; -6.0357932E-02;0; -1.4185335E-02;  2.6505471E+04;  0.0000000E+00;  1.1185943E-01;  4.0000000E+04;  0.0000000E+00;  3.9854426E+04;  4.1448049E-05;  0.0000000E+00; -1.4226783E-02;  6.1567542E+02;
  7.2912383E-01;  9.9999998E-03; -3.0108240E-02;6865; -8.2396911E-03;  0.0000000E+00;  4.4004741E-04;  9.9933203E+02;  1.2295517E-01; -5.5341638E+02;3;  2.1518631E+00;  0.0000000E+00; -4.6304051E-02;0; -1.4428362E-02;  2.6508920E+04;  0.0000000E+00;  6.2222477E-02;  4.0000000E+04;  0.0000000E+00;  3.9853641E+04; -5.6710905E-05;  0.0000000E+00; -1.4371651E-02;  6.8652954E+02;
  7.2910309E-01;  9.9999998E-03; -2.0075118E-02;6866; -8.2730725E-03;  0.0000000E+00;  2.9442328E-04;  9.9935864E+02;  1.2295111E-01; -5.3134296E+02;3;  2.1613202E+00;  0.0000000E+00; -3.1885490E-02;0; -1.4604277E-02;  2.6512279E+04;  0.0000000E+00;  2.7339572E-02;  4.0000000E+04;  0.0000000E+00;  3.9852875E+04; -1.2827397E-04;  0.0000000E+00; -1.4476003E-02;  7.7186328E+02;
  7.2908837E-01;  9.9999998E-03; -1.0039072E-02;6867; -8.2934666E-03;  0.0000000E+00;  1.4758948E-04;  9.9937946E+02;  1.2294945E-01; -5.1410889E+02;3;  2.1655571E+00;  0.0000000E+00; -1.6052375E-02;0; -1.4710735E-02;  2.6514756E+04;  0.0000000E+00;  6.7783548E-03;  4.0000000E+04;  0.0000000E+00;  3.9852508E+04; -1.7177346E-04;  0.0000000E+00; -1.4538961E-02;  8.3679077E+02;
  7.2908324E-01;  9.9999998E-03;  1.9715824E-08;6868; -8.3003510E-03;  0.0000000E+00;  5.4306916E-08;  9.9938379E+02;  1.2294867E-01; -5.1050403E+02;3;  2.1672289E+00;  0.0000000E+00; -2.3688939E-05;0; -1.4746389E-02;  2.6515607E+04;  0.0000000E+00; -3.1857347E-11;  4.0000000E+04;  0.0000000E+00;  3.9852312E+04; -1.8635603E-04;  0.0000000E+00; -1.4560034E-02;  8.6075146E+02;
  7.2908837E-01;  9.9999998E-03;  1.0039113E-02;6869; -8.2934666E-03;  0.0000000E+00; -1.4748091E-04;  9.9937964E+02;  1.2295008E-01; -5.1396075E+02;3;  2.1655602E+00;  0.0000000E+00;  1.6006002E-02;0; -1.4710748E-02;  2.6514756E+04;  0.0000000E+00;  6.7776563E-03;  4.0000000E+04;  0.0000000E+00;  3.9852508E+04; -1.7177159E-04;  0.0000000E+00; -1.4538976E-02;  8.3680151E+02;
  7.2910309E-01;  9.9999998E-03;  2.0075157E-02;6870; -8.2730735E-03;  0.0000000E+00; -2.9431490E-04;  9.9935858E+02;  1.2295156E-01; -5.3139233E+02;3;  2.1613054E+00;  0.0000000E+00;  3.1844068E-02;0; -1.4604283E-02;  2.6512283E+04;  0.0000000E+00;  2.7338216E-02;  4.0000000E+04;  0.0000000E+00;  3.9852875E+04; -1.2827392E-04;  0.0000000E+00; -1.4476009E-02;  7.7188861E+02;
  7.2912377E-01;  9.9999998E-03;  3.0108280E-02;6871; -8.2396930E-03;  0.0000000E+00; -4.3993935E-04;  9.9933228E+02;  1.2295453E-01; -5.5321887E+02;3;  2.1518397E+00;  0.0000000E+00;  4.6265684E-02;0; -1.4428389E-02;  2.6508918E+04;  0.0000000E+00;  6.2219676E-02;  4.0000000E+04;  0.0000000E+00;  3.9853637E+04; -5.6708501E-05;  0.0000000E+00; -1.4371681E-02;  6.8651123E+02;
  7.2914600E-01;  9.9999998E-03;  4.0138841E-02;6872; -8.1941010E-03;  0.0000000E+00; -5.8395992E-04;  9.9931183E+02;  1.2295768E-01; -5.7015668E+02;3;  2.1389153E+00;  0.0000000E+00;  6.0326714E-02;0; -1.4185346E-02;  2.6505471E+04;  0.0000000E+00;  1.1185558E-01;  4.0000000E+04;  0.0000000E+00;  3.9854418E+04;  4.1451734E-05;  0.0000000E+00; -1.4226797E-02;  6.1566693E+02;
  7.2916615E-01;  9.9999998E-03;  5.0167691E-02;6873; -8.1374589E-03;  0.0000000E+00; -7.2617264E-04;  9.9929980E+02;  1.2295999E-01; -5.8008234E+02;3;  2.1208370E+00;  0.0000000E+00;  7.3895022E-02;0; -1.3878355E-02;  2.6502781E+04;  0.0000000E+00;  1.7596081E-01;  4.0000000E+04;  0.0000000E+00;  3.9855359E+04;  1.6411599E-04;  0.0000000E+00; -1.4042471E-02;  6.0380670E+02;
  7.2918117E-01;  9.9999998E-03;  6.0196966E-02;6874; -8.0710193E-03;  0.0000000E+00; -8.6654950E-04;  9.9931384E+02;  1.2296229E-01; -5.6847772E+02;3;  2.0997374E+00;  0.0000000E+00;  8.7222673E-02;0; -1.3511406E-02;  2.6501188E+04;  0.0000000E+00;  2.5285944E-01;  4.0000000E+04;  0.0000000E+00;  3.9855730E+04;  3.0832979E-04;  0.0000000E+00; -1.3819736E-02;  6.7651758E+02;
  7.4115843E-01;  9.9999998E-03; -1.0031606E-01;6919; -7.7470667E-03;  0.0000000E+00;  1.4960626E-03;  9.9978668E+02;  1.2681669E-01; -1.7673573E+02;3;  2.0061319E+00;  0.0000000E+00; -1.5383373E-01;0; -1.1512012E-02;  2.4958051E+04;  0.0000000E+00;  6.5417284E-01;  4.0000000E+04;  0.0000000E+00;  3.9834527E+04;  1.9231377E-03;  0.0000000E+00; -1.3435150E-02;  1.6074128E+03;
  7.4121970E-01;  9.9999998E-03; -9.0282761E-02;6920; -7.8414660E-03;  0.0000000E+00;  1.3549933E-03;  9.9968927E+02;  1.2681960E-01; -2.5742480E+02;3;  2.0443172E+00;  0.0000000E+00; -1.4522779E-01;0; -1.2097835E-02;  2.4950512E+04;  0.0000000E+00;  5.8403993E-01;  4.0000000E+04;  0.0000000E+00;  3.9835293E+04;  1.7356876E-03;  0.0000000E+00; -1.3833522E-02;  1.4398448E+03;
  7.4126458E-01;  9.9999998E-03; -8.0248415E-02;6921; -7.9321982E-03;  0.0000000E+00;  1.2118260E-03;  9.9962286E+02;  1.2682231E-01; -3.1243558E+02;3;  2.0786700E+00;  0.0000000E+00; -1.3441308E-01;0; -1.2643127E-02;  2.4944852E+04;  0.0000000E+00;  4.9216396E-01;  4.0000000E+04;  0.0000000E+00;  3.9835828E+04;  1.5545004E-03;  0.0000000E+00; -1.4197627E-02;  1.2231313E+03;
  7.4129456E-01;  9.9999998E-03; -7.0213616E-02;6922; -8.0177495E-03;  0.0000000E+00;  1.0667500E-03;  9.9959009E+02;  1.2682430E-01; -3.3959531E+02;3;  2.1087506E+00;  0.0000000E+00; -1.2128183E-01;0; -1.3142278E-02;  2.4941387E+04;  0.0000000E+00;  3.9040291E-01;  4.0000000E+04;  0.0000000E+00;  3.9835906E+04;  1.3832137E-03;  0.0000000E+00; -1.4525492E-02;  9.8815662E+02;
  7.4131399E-01;  9.9999998E-03; -6.0180645E-02;6923; -8.0963206E-03;  0.0000000E+00;  9.1977365E-04;  9.9958978E+02;  1.2682810E-01; -3.3984222E+02;3;  2.1350117E+00;  0.0000000E+00; -1.0689189E-01;0; -1.3588999E-02;  2.4939699E+04;  0.0000000E+00;  2.9028732E-01;  4.0000000E+04;  0.0000000E+00;  3.9835730E+04;  1.2263200E-03;  0.0000000E+00; -1.4815319E-02;  7.7027234E+02;
  7.4132168E-01;  9.9999998E-03; -5.0149567E-02;6924; -8.1662284E-03;  0.0000000E+00;  7.7082973E-04;  9.9961957E+02;  1.2683144E-01; -3.1520093E+02;3;  2.1603363E+00;  0.0000000E+00; -9.2790201E-02;0; -1.3977492E-02;  2.4939836E+04;  0.0000000E+00;  2.0055236E-01;  4.0000000E+04;  0.0000000E+00;  3.9835219E+04;  1.0875385E-03;  0.0000000E+00; -1.5065031E-02;  6.0868561E+02;
  7.4132091E-01;  9.9999998E-03; -4.0120304E-02;6925; -8.2258740E-03;  0.0000000E+00;  6.1994721E-04;  9.9966199E+02;  1.2683319E-01; -2.8004144E+02;3;  2.1791959E+00;  0.0000000E+00; -7.6863609E-02;0; -1.4302541E-02;  2.4941156E+04;  0.0000000E+00;  1.2635010E-01;  4.0000000E+04;  0.0000000E+00;  3.9834668E+04;  9.7024709E-04;  0.0000000E+00; -1.5272788E-02;  5.3785266E+02;
  7.4131548E-01;  9.9999998E-03; -3.0092731E-02;6926; -8.2737533E-03;  0.0000000E+00;  4.6716817E-04;  9.9970953E+02;  1.2683560E-01; -2.4063515E+02;3;  2.1910849E+00;  0.0000000E+00; -5.8744673E-02;0; -1.4559858E-02;  2.4943203E+04;  0.0000000E+00;  6.9672897E-02;  4.0000000E+04;  0.0000000E+00;  3.9834090E+04;  8.7699021E-04;  0.0000000E+00; -1.5436848E-02;  5.5386877E+02;
  7.4130976E-01;  9.9999998E-03; -2.0065214E-02;6927; -8.3086649E-03;  0.0000000E+00;  3.1262470E-04;  9.9974951E+02;  1.2683600E-01; -2.0750029E+02;3;  2.1989360E+00;  0.0000000E+00; -3.9393816E-02;0; -1.4746049E-02;  2.4944963E+04;  0.0000000E+00;  3.0402994E-02;  4.0000000E+04;  0.0000000E+00;  3.9833352E+04;  8.0950611E-04;  0.0000000E+00; -1.5555556E-02;  6.0948248E+02;
  7.4130559E-01;  9.9999998E-03; -1.0034768E-02;6928; -8.3298488E-03;  0.0000000E+00;  1.5671950E-04;  9.9978247E+02;  1.2683789E-01; -1.8024181E+02;3;  2.2035809E+00;  0.0000000E+00; -1.9757254E-02;0; -1.4858786E-02;  2.4946262E+04;  0.0000000E+00;  7.5069671E-03;  4.0000000E+04;  0.0000000E+00;  3.9832910E+04;  7.6870999E-04;  0.0000000E+00; -1.5627496E-02;  6.5945221E+02;
  7.4130392E-01;  9.9999998E-03;  2.0540130E-08;6929; -8.3369333E-03;  0.0000000E+00;  5.5566787E-08;  9.9979095E+02;  1.2683794E-01; -1.7318027E+02;3;  2.2050388E+00;  0.0000000E+00; -2.8118840E-05;0; -1.4896543E-02;  2.4946838E+04;  0.0000000E+00;  6.4516066E-11;  4.0000000E+04;  0.0000000E+00;  3.9832801E+04;  7.5505214E-04;  0.0000000E+00; -1.5651595E-02;  6.7866229E+02;
  7.4130559E-01;  9.9999998E-03;  1.0034809E-02;6930; -8.3298469E-03;  0.0000000E+00; -1.5660883E-04;  9.9978247E+02;  1.2683730E-01; -1.8024181E+02;3;  2.2035835E+00;  0.0000000E+00;  1.9699128E-02;0; -1.4858795E-02;  2.4946260E+04;  0.0000000E+00;  7.5055389E-03;  4.0000000E+04;  0.0000000E+00;  3.9832910E+04;  7.6870795E-04;  0.0000000E+00; -1.5627503E-02;  6.5944269E+02;
  7.4130976E-01;  9.9999998E-03;  2.0065257E-02;6931; -8.3086649E-03;  0.0000000E+00; -3.1251414E-04;  9.9974945E+02;  1.2683608E-01; -2.0759904E+02;3;  2.1989157E+00;  0.0000000E+00;  3.9340094E-02;0; -1.4746062E-02;  2.4944965E+04;  0.0000000E+00;  3.0399961E-02;  4.0000000E+04;  0.0000000E+00;  3.9833348E+04;  8.0950424E-04;  0.0000000E+00; -1.5555566E-02;  6.0946741E+02;
  7.4131548E-01;  9.9999998E-03;  3.0092772E-02;6932; -8.2737552E-03;  0.0000000E+00; -4.6705769E-04;  9.9970953E+02;  1.2683499E-01; -2.4063515E+02;3;  2.1910717E+00;  0.0000000E+00;  5.8704577E-02;0; -1.4559867E-02;  2.4943205E+04;  0.0000000E+00;  6.9668919E-02;  4.0000000E+04;  0.0000000E+00;  3.9834086E+04;  8.7698671E-04;  0.0000000E+00; -1.5436853E-02;  5.5387744E+02;
  7.4132091E-01;  9.9999998E-03;  4.0120348E-02;6933; -8.2258759E-03;  0.0000000E+00; -6.1983679E-04;  9.9966193E+02;  1.2683287E-01; -2.8009082E+02;3;  2.1791799E+00;  0.0000000E+00;  7.6831266E-02;0; -1.4302570E-02;  2.4941162E+04;  0.0000000E+00;  1.2634568E-01;  4.0000000E+04;  0.0000000E+00;  3.9834660E+04;  9.7024435E-04;  0.0000000E+00; -1.5272815E-02;  5.3785101E+02;
  7.4132168E-01;  9.9999998E-03;  5.0149612E-02;6934; -8.1662321E-03;  0.0000000E+00; -7.7071920E-04;  9.9961957E+02;  1.2683111E-01; -3.1520093E+02;3;  2.1602879E+00;  0.0000000E+00;  9.2769563E-02;0; -1.3977505E-02;  2.4939838E+04;  0.0000000E+00;  2.0054334E-01;  4.0000000E+04;  0.0000000E+00;  3.9835223E+04;  1.0875354E-03;  0.0000000E+00; -1.5065040E-02;  6.0866522E+02;
  7.4131399E-01;  9.9999998E-03;  6.0180686E-02;6935; -8.0963252E-03;  0.0000000E+00; -9.1966277E-04;  9.9958978E+02;  1.2682773E-01; -3.3984222E+02;3;  2.1349843E+00;  0.0000000E+00;  1.0688511E-01;0; -1.3589029E-02;  2.4939703E+04;  0.0000000E+00;  2.9027930E-01;  4.0000000E+04;  0.0000000E+00;  3.9835730E+04;  1.2263160E-03;  0.0000000E+00; -1.4815345E-02;  7.7026855E+02;
  7.5404918E-01;  9.9999998E-03; -1.0034563E-01;6980; -7.7289087E-03;  0.0000000E+00;  1.5893070E-03;  9.9979034E+02;  1.3108593E-01; -1.7367409E+02;3;  2.0606301E+00;  0.0000000E+00; -1.8870474E-01;0; -1.1386480E-02;  2.3375893E+04;  0.0000000E+00;  5.5991095E-01;  4.0000000E+04;  0.0000000E+00;  3.9812523E+04;  3.0221422E-03;  0.0000000E+00; -1.4408623E-02;  1.5607042E+03;
  7.5414002E-01;  9.9999998E-03; -9.0306617E-02;6981; -7.8278705E-03;  0.0000000E+00;  1.4400510E-03;  9.9977930E+02;  1.3109300E-01; -1.8285901E+02;3;  2.0979695E+00;  0.0000000E+00; -1.7855598E-01;0; -1.2008343E-02;  2.3369424E+04;  0.0000000E+00;  5.1204640E-01;  4.0000000E+04;  0.0000000E+00;  3.9813469E+04;  2.8352472E-03;  0.0000000E+00; -1.4843591E-02;  1.4257152E+03;
  7.5419909E-01;  9.9999998E-03; -8.0266058E-02;6982; -7.9239011E-03;  0.0000000E+00;  1.2888174E-03;  9.9979224E+02;  1.3109750E-01; -1.7214326E+02;3;  2.1357036E+00;  0.0000000E+00; -1.6615157E-01;0; -1.2583957E-02;  2.3365371E+04;  0.0000000E+00;  4.3602717E-01;  4.0000000E+04;  0.0000000E+00;  3.9814113E+04;  2.6604428E-03;  0.0000000E+00; -1.5244400E-02;  1.2218951E+03;
  7.5422078E-01;  9.9999998E-03; -7.0227869E-02;6983; -8.0150198E-03;  0.0000000E+00;  1.1354246E-03;  9.9981781E+02;  1.3109714E-01; -1.5095868E+02;3;  2.1669922E+00;  0.0000000E+00; -1.5318006E-01;0; -1.3108528E-02;  2.3364539E+04;  0.0000000E+00;  3.4598899E-01;  4.0000000E+04;  0.0000000E+00;  3.9814289E+04;  2.4985177E-03;  0.0000000E+00; -1.5607046E-02;  9.8300659E+02;
  7.5420994E-01;  9.9999998E-03; -6.0194086E-02;6984; -8.0988621E-03;  0.0000000E+00;  9.7985310E-04;  9.9987000E+02;  1.3109307E-01; -1.0770065E+02;3;  2.1898475E+00;  0.0000000E+00; -1.3478196E-01;0; -1.3576318E-02;  2.3366570E+04;  0.0000000E+00;  2.5555086E-01;  4.0000000E+04;  0.0000000E+00;  3.9814055E+04;  2.3518689E-03;  0.0000000E+00; -1.5928186E-02;  7.4671899E+02;
  7.5417912E-01;  9.9999998E-03; -5.0162140E-02;6985; -8.1729656E-03;  0.0000000E+00;  8.2176860E-04;  9.9993219E+02;  1.3108607E-01; -5.6195938E+01;3;  2.2082319E+00;  0.0000000E+00; -1.1434274E-01;0; -1.3981978E-02;  2.3370412E+04;  0.0000000E+00;  1.7460586E-01;  4.0000000E+04;  0.0000000E+00;  3.9814031E+04;  2.2235410E-03;  0.0000000E+00; -1.6205519E-02;  5.5076294E+02;
  7.5414062E-01;  9.9999998E-03; -4.0130168E-02;6986; -8.2354937E-03;  0.0000000E+00;  6.6115224E-04;  1.0000012E+03;  1.3107908E-01;  9.8762631E-01;3;  2.2225134E+00;  0.0000000E+00; -9.2787400E-02;0; -1.4320687E-02;  2.3375322E+04;  0.0000000E+00;  1.0855404E-01;  4.0000000E+04;  0.0000000E+00;  3.9813430E+04;  2.1162042E-03;  0.0000000E+00; -1.6436892E-02;  4.3045837E+02;
  7.5410223E-01;  9.9999998E-03; -3.0099617E-02;6987; -8.2850335E-03;  0.0000000E+00;  4.9821439E-04;  1.0000618E+03;  1.3107242E-01;  5.1257805E+01;3;  2.2329586E+00;  0.0000000E+00; -7.0290729E-02;0; -1.4588242E-02;  2.3380006E+04;  0.0000000E+00;  5.9090193E-02;  4.0000000E+04;  0.0000000E+00;  3.9812828E+04;  2.0315540E-03;  0.0000000E+00; -1.6619796E-02;  3.9805283E+02;
  7.5407004E-01;  9.9999998E-03; -2.0070391E-02;6988; -8.3208652E-03;  0.0000000E+00;  3.3334963E-04;  1.0001193E+03;  1.3106747E-01;  9.8762634E+01;3;  2.2412643E+00;  0.0000000E+00; -4.7337338E-02;0; -1.4781539E-02;  2.3383945E+04;  0.0000000E+00;  2.5522020E-02;  4.0000000E+04;  0.0000000E+00;  3.9812523E+04;  1.9706103E-03;  0.0000000E+00; -1.6752150E-02;  4.1933466E+02;
  7.5404686E-01;  9.9999998E-03; -1.0038186E-02;6989; -8.3424598E-03;  0.0000000E+00;  1.6708330E-04;  1.0001555E+03;  1.3106379E-01;  1.2878647E+02;3;  2.2460675E+00;  0.0000000E+00; -2.3951527E-02;0; -1.4898435E-02;  2.3386619E+04;  0.0000000E+00;  6.2642498E-03;  4.0000000E+04;  0.0000000E+00;  3.9812457E+04;  1.9336950E-03;  0.0000000E+00; -1.6832130E-02;  4.4861642E+02;
  7.5403798E-01;  9.9999998E-03;  2.1203933E-08;6990; -8.3497027E-03;  0.0000000E+00;  5.6598441E-08;  1.0001700E+03;  1.3106270E-01;  1.4083551E+02;3;  2.2475028E+00;  0.0000000E+00; -3.6762693E-05;0; -1.4937571E-02;  2.3387576E+04;  0.0000000E+00;  1.6473747E-10;  4.0000000E+04;  0.0000000E+00;  3.9812172E+04;  1.9212820E-03;  0.0000000E+00; -1.6858853E-02;  4.6072305E+02;
  7.5404686E-01;  9.9999998E-03;  1.0038229E-02;6991; -8.3424607E-03;  0.0000000E+00; -1.6696993E-04;  1.0001555E+03;  1.3106379E-01;  1.2878647E+02;3;  2.2460616E+00;  0.0000000E+00;  2.3884924E-02;0; -1.4898432E-02;  2.3386617E+04;  0.0000000E+00;  6.2621450E-03;  4.0000000E+04;  0.0000000E+00;  3.9812461E+04;  1.9336916E-03;  0.0000000E+00; -1.6832124E-02;  4.4859467E+02;
  7.5407004E-01;  9.9999998E-03;  2.0070434E-02;6992; -8.3208662E-03;  0.0000000E+00; -3.3323656E-04;  1.0001193E+03;  1.3106745E-01;  9.8762634E+01;3;  2.2412698E+00;  0.0000000E+00;  4.7278952E-02;0; -1.4781561E-02;  2.3383949E+04;  0.0000000E+00;  2.5518451E-02;  4.0000000E+04;  0.0000000E+00;  3.9812527E+04;  1.9706043E-03;  0.0000000E+00; -1.6752165E-02;  4.1936899E+02;
  7.5410223E-01;  9.9999998E-03;  3.0099660E-02;6993; -8.2850335E-03;  0.0000000E+00; -4.9810205E-04;  1.0000616E+03;  1.3107251E-01;  5.1060280E+01;3;  2.2329266E+00;  0.0000000E+00;  7.0238128E-02;0; -1.4588285E-02;  2.3380010E+04;  0.0000000E+00;  5.9084684E-02;  4.0000000E+04;  0.0000000E+00;  3.9812828E+04;  2.0315400E-03;  0.0000000E+00; -1.6619826E-02;  3.9806070E+02;
  7.5414062E-01;  9.9999998E-03;  4.0130209E-02;6994; -8.2354965E-03;  0.0000000E+00; -6.6103932E-04;  1.0000012E+03;  1.3107881E-01;  9.8762631E-01;3;  2.2224894E+00;  0.0000000E+00;  9.2748024E-02;0; -1.4320721E-02;  2.3375318E+04;  0.0000000E+00;  1.0854785E-01;  4.0000000E+04;  0.0000000E+00;  3.9813438E+04;  2.1161931E-03;  0.0000000E+00; -1.6436914E-02;  4.3045352E+02;
  7.5417912E-01;  9.9999998E-03;  5.0162185E-02;6995; -8.1729693E-03;  0.0000000E+00; -8.2165498E-04;  9.9993225E+02;  1.3108566E-01; -5.6146557E+01;3;  2.2081985E+00;  0.0000000E+00;  1.1432195E-01;0; -1.3982025E-02;  2.3370410E+04;  0.0000000E+00;  1.7459868E-01;  4.0000000E+04;  0.0000000E+00;  3.9814027E+04;  2.2235259E-03;  0.0000000E+00; -1.6205551E-02;  5.5074719E+02;
  7.5420994E-01;  9.9999998E-03;  6.0194127E-02;6996; -8.0988649E-03;  0.0000000E+00; -9.7973901E-04;  9.9987006E+02;  1.3109291E-01; -1.0765127E+02;3;  2.1898167E+00;  0.0000000E+00;  1.3477123E-01;0; -1.3576355E-02;  2.3366570E+04;  0.0000000E+00;  2.5554031E-01;  4.0000000E+04;  0.0000000E+00;  3.9814059E+04;  2.3518507E-03;  0.0000000E+00; -1.5928205E-02;  7.4670410E+02;
  7.6791859E-01;  9.9999998E-03; -1.0017391E-01;7041; -7.6745925E-03;  0.0000000E+00;  1.6954051E-03;  9.9998529E+02;  1.3590510E-01; -1.2197185E+01;3;  2.1559453E+00;  0.0000000E+00; -2.2661543E-01;0; -1.1205705E-02;  2.1769539E+04;  0.0000000E+00;  2.9483408E-01;  4.0000000E+04;  0.0000000E+00;  3.9789094E+04;  4.3090568E-03;  0.0000000E+00; -1.5514762E-02;  1.0533618E+03;
  7.6809847E-01;  9.9999998E-03; -9.0140551E-02;7042; -7.7795465E-03;  0.0000000E+00;  1.5389475E-03;  1.0000660E+03;  1.3593638E-01;  5.4615734E+01;3;  2.1889665E+00;  0.0000000E+00; -2.1652980E-01;0; -1.1866625E-02;  2.1758195E+04;  0.0000000E+00;  2.8174883E-01;  4.0000000E+04;  0.0000000E+00;  3.9789926E+04;  4.1316948E-03;  0.0000000E+00; -1.5998321E-02;  9.8855255E+02;
  7.6823348E-01;  9.9999998E-03; -8.0110498E-02;7043; -7.8819636E-03;  0.0000000E+00;  1.3801055E-03;  1.0001525E+03;  1.3596077E-01;  1.2631741E+02;3;  2.2159293E+00;  0.0000000E+00; -2.0150249E-01;0; -1.2470134E-02;  2.1749953E+04;  0.0000000E+00;  2.4275693E-01;  4.0000000E+04;  0.0000000E+00;  3.9790527E+04;  3.9782221E-03;  0.0000000E+00; -1.6448356E-02;  8.6151697E+02;
  7.6832587E-01;  9.9999998E-03; -7.0085153E-02;7044; -7.9787131E-03;  0.0000000E+00;  1.2182515E-03;  1.0002411E+03;  1.3597663E-01;  1.9979680E+02;3;  2.2408793E+00;  0.0000000E+00; -1.8382196E-01;0; -1.3014097E-02;  2.1744766E+04;  0.0000000E+00;  1.9056636E-01;  4.0000000E+04;  0.0000000E+00;  3.9790449E+04;  3.8458942E-03;  0.0000000E+00; -1.6859991E-02;  6.9452972E+02;
  7.6838207E-01;  9.9999998E-03; -6.0064666E-02;7045; -8.0671618E-03;  0.0000000E+00;  1.0529531E-03;  1.0003433E+03;  1.3598759E-01;  2.8433762E+02;3;  2.2603230E+00;  0.0000000E+00; -1.6292492E-01;0; -1.3494951E-02;  2.1742332E+04;  0.0000000E+00;  1.3695355E-01;  4.0000000E+04;  0.0000000E+00;  3.9790133E+04;  3.7333656E-03;  0.0000000E+00; -1.7228317E-02;  5.2094312E+02;
  7.6840800E-01;  9.9999998E-03; -5.0047878E-02;7046; -8.1445612E-03;  0.0000000E+00;  8.8406168E-04;  1.0004410E+03;  1.3599280E-01;  3.6532297E+02;3;  2.2768078E+00;  0.0000000E+00; -1.3831238E-01;0; -1.3908993E-02;  2.1742064E+04;  0.0000000E+00;  8.9991525E-02;  4.0000000E+04;  0.0000000E+00;  3.9789648E+04;  3.6396109E-03;  0.0000000E+00; -1.7548604E-02;  3.7804947E+02;
  7.6840770E-01;  9.9999998E-03; -4.0032186E-02;7047; -8.2090590E-03;  0.0000000E+00;  7.1162713E-04;  1.0005309E+03;  1.3599266E-01;  4.3988876E+02;3;  2.2897975E+00;  0.0000000E+00; -1.1210407E-01;0; -1.4252739E-02;  2.1743715E+04;  0.0000000E+00;  5.3423319E-02;  4.0000000E+04;  0.0000000E+00;  3.9789094E+04;  3.5635023E-03;  0.0000000E+00; -1.7816242E-02;  2.9491177E+02;
  7.6839250E-01;  9.9999998E-03; -3.0019289E-02;7048; -8.2595879E-03;  0.0000000E+00;  5.3625635E-04;  1.0006144E+03;  1.3599016E-01;  5.0902261E+02;3;  2.2988985E+00;  0.0000000E+00; -8.4597707E-02;0; -1.4523081E-02;  2.1746254E+04;  0.0000000E+00;  2.7719399E-02;  4.0000000E+04;  0.0000000E+00;  3.9788777E+04;  3.5047436E-03;  0.0000000E+00; -1.8027825E-02;  2.7051193E+02;
  7.6837909E-01;  9.9999998E-03; -2.0011673E-02;7049; -8.2955128E-03;  0.0000000E+00;  3.5872668E-04;  1.0006753E+03;  1.3598827E-01;  5.5949030E+02;3;  2.3053250E+00;  0.0000000E+00; -5.6710318E-02;0; -1.4717607E-02;  2.1748414E+04;  0.0000000E+00;  1.1476012E-02;  4.0000000E+04;  0.0000000E+00;  3.9788684E+04;  3.4637111E-03;  0.0000000E+00; -1.8181318E-02;  2.7503506E+02;
  7.6837122E-01;  9.9999998E-03; -1.0006509E-02;7050; -8.3169583E-03;  0.0000000E+00;  1.7976150E-04;  1.0007172E+03;  1.3598725E-01;  5.9415601E+02;3;  2.3089945E+00;  0.0000000E+00; -2.8499300E-02;0; -1.4834866E-02;  2.1749701E+04;  0.0000000E+00;  2.7364297E-03;  4.0000000E+04;  0.0000000E+00;  3.9788609E+04;  3.4396560E-03;  0.0000000E+00; -1.8274521E-02;  2.8364227E+02;
  7.6836967E-01;  9.9999998E-03;  2.1946416E-08;7051; -8.3241109E-03;  0.0000000E+00;  5.7965366E-08;  1.0007344E+03;  1.3598800E-01;  6.0837781E+02;3;  2.3099172E+00;  0.0000000E+00; -3.1251690E-05;0; -1.4874034E-02;  2.1750041E+04;  0.0000000E+00;  2.6383418E-10;  4.0000000E+04;  0.0000000E+00;  3.9788574E+04;  3.4318450E-03;  0.0000000E+00; -1.8305879E-02;  2.8720834E+02;
  7.6837122E-01;  9.9999998E-03;  1.0006553E-02;7052; -8.3169593E-03;  0.0000000E+00; -1.7964545E-04;  1.0007173E+03;  1.3598734E-01;  5.9425476E+02;3;  2.3089952E+00;  0.0000000E+00;  2.8423952E-02;0; -1.4834857E-02;  2.1749703E+04;  0.0000000E+00;  2.7349030E-03;  4.0000000E+04;  0.0000000E+00;  3.9788609E+04;  3.4396497E-03;  0.0000000E+00; -1.8274507E-02;  2.8365231E+02;
  7.6837909E-01;  9.9999998E-03;  2.0011717E-02;7053; -8.2955137E-03;  0.0000000E+00; -3.5861073E-04;  1.0006752E+03;  1.3598850E-01;  5.5939154E+02;3;  2.3053119E+00;  0.0000000E+00;  5.6639969E-02;0; -1.4717634E-02;  2.1748408E+04;  0.0000000E+00;  1.1472921E-02;  4.0000000E+04;  0.0000000E+00;  3.9788684E+04;  3.4636958E-03;  0.0000000E+00; -1.8181330E-02;  2.7502390E+02;
  7.6839250E-01;  9.9999998E-03;  3.0019332E-02;7054; -8.2595879E-03;  0.0000000E+00; -5.3614052E-04;  1.0006144E+03;  1.3599016E-01;  5.0902261E+02;3;  2.2988935E+00;  0.0000000E+00;  8.4543921E-02;0; -1.4523106E-02;  2.1746248E+04;  0.0000000E+00;  2.7714899E-02;  4.0000000E+04;  0.0000000E+00;  3.9788777E+04;  3.5047289E-03;  0.0000000E+00; -1.8027835E-02;  2.7051303E+02;
  7.6840770E-01;  9.9999998E-03;  4.0032230E-02;7055; -8.2090618E-03;  0.0000000E+00; -7.1151147E-04;  1.0005310E+03;  1.3599266E-01;  4.3988876E+02;3;  2.2897692E+00;  0.0000000E+00;  1.1205497E-01;0; -1.4252794E-02;  2.1743715E+04;  0.0000000E+00;  5.3419877E-02;  4.0000000E+04;  0.0000000E+00;  3.9789094E+04;  3.5634777E-03;  0.0000000E+00; -1.7816272E-02;  2.9491339E+02;
  7.6840806E-01;  9.9999998E-03;  5.0047919E-02;7056; -8.1445621E-03;  0.0000000E+00; -8.8394567E-04;  1.0004409E+03;  1.3599271E-01;  3.6522421E+02;3;  2.2767930E+00;  0.0000000E+00;  1.3827625E-01;0; -1.3909046E-02;  2.1742055E+04;  0.0000000E+00;  8.9985095E-02;  4.0000000E+04;  0.0000000E+00;  3.9789652E+04;  3.6395898E-03;  0.0000000E+00; -1.7548636E-02;  3.7804889E+02;
  7.6838207E-01;  9.9999998E-03;  6.0064711E-02;7057; -8.0671646E-03;  0.0000000E+00; -1.0528355E-03;  1.0003434E+03;  1.3598765E-01;  2.8453516E+02;3;  2.2602761E+00;  0.0000000E+00;  1.6291101E-01;0; -1.3494997E-02;  2.1742332E+04;  0.0000000E+00;  1.3694827E-01;  4.0000000E+04;  0.0000000E+00;  3.9790129E+04;  3.7333379E-03;  0.0000000E+00; -1.7228335E-02;  5.2092932E+02;
  7.8210127E-01;  9.9999998E-03; -1.0007353E-01;7102; -7.5660725E-03;  0.0000000E+00;  1.8260954E-03;  1.0004067E+03;  1.4114845E-01;  3.3697809E+02;3;  2.3224425E+00;  0.0000000E+00; -2.7406290E-01;0; -1.0985780E-02;  2.0209773E+04;  0.0000000E+00; -6.4111568E-02;  4.0000000E+04;  0.0000000E+00;  3.9764230E+04;  5.7234382E-03;  0.0000000E+00; -1.6709218E-02;  1.9852979E+02;
  7.8206265E-01;  9.9999998E-03; -9.0055421E-02;7103; -7.6812902E-03;  0.0000000E+00;  1.6609981E-03;  1.0004346E+03;  1.4110669E-01;  3.6008856E+02;3;  2.3273087E+00;  0.0000000E+00; -2.5726444E-01;0; -1.1690339E-02;  2.0216631E+04;  0.0000000E+00; -3.3288263E-02;  4.0000000E+04;  0.0000000E+00;  3.9765406E+04;  5.5311513E-03;  0.0000000E+00; -1.7221490E-02;  1.9582964E+02;
  7.8200984E-01;  9.9999998E-03; -8.0052130E-02;7104; -7.7918475E-03;  0.0000000E+00;  1.4924480E-03;  1.0004719E+03;  1.4106953E-01;  3.9090250E+02;3;  2.3413250E+00;  0.0000000E+00; -2.3306513E-01;0; -1.2319317E-02;  2.0223779E+04;  0.0000000E+00; -2.0311734E-02;  4.0000000E+04;  0.0000000E+00;  3.9765949E+04;  5.3821416E-03;  0.0000000E+00; -1.7701458E-02;  2.0298293E+02;
  7.8202993E-01;  9.9999998E-03; -7.0056759E-02;7105; -7.8946091E-03;  0.0000000E+00;  1.3200153E-03;  1.0005359E+03;  1.4106458E-01;  4.4393802E+02;3;  2.3502123E+00;  0.0000000E+00; -2.0894097E-01;0; -1.2875177E-02;  2.0223500E+04;  0.0000000E+00; -1.8842977E-02;  4.0000000E+04;  0.0000000E+00;  3.9765348E+04;  5.2766618E-03;  0.0000000E+00; -1.8151838E-02;  1.7476999E+02;
  7.8204602E-01;  9.9999998E-03; -6.0061004E-02;7106; -7.9868119E-03;  0.0000000E+00;  1.1425028E-03;  1.0006081E+03;  1.4106417E-01;  5.0378818E+02;3;  2.3602686E+00;  0.0000000E+00; -1.8462978E-01;0; -1.3359971E-02;  2.0222799E+04;  0.0000000E+00; -2.0170843E-02;  4.0000000E+04;  0.0000000E+00;  3.9764531E+04;  5.1994510E-03;  0.0000000E+00; -1.8559422E-02;  1.9219499E+02;
  7.8204507E-01;  9.9999998E-03; -5.0058082E-02;7107; -8.0664046E-03;  0.0000000E+00;  9.5995609E-04;  1.0006848E+03;  1.4106148E-01;  5.6739130E+02;3;  2.3693852E+00;  0.0000000E+00; -1.5630604E-01;0; -1.3773150E-02;  2.0223426E+04;  0.0000000E+00; -1.9862849E-02;  4.0000000E+04;  0.0000000E+00;  3.9763637E+04;  5.1431032E-03;  0.0000000E+00; -1.8916253E-02;  2.6226279E+02;
  7.8203398E-01;  9.9999998E-03; -4.0048663E-02;7108; -8.1317024E-03;  0.0000000E+00;  7.7294419E-04;  1.0007563E+03;  1.4105643E-01;  6.2655011E+02;3;  2.3745143E+00;  0.0000000E+00; -1.2587515E-01;0; -1.4113292E-02;  2.0224742E+04;  0.0000000E+00; -1.6665153E-02;  4.0000000E+04;  0.0000000E+00;  3.9763141E+04;  5.1032864E-03;  0.0000000E+00; -1.9216578E-02;  3.2096118E+02;
  7.8202498E-01;  9.9999998E-03; -3.0033324E-02;7109; -8.1818048E-03;  0.0000000E+00;  5.8236305E-04;  1.0008196E+03;  1.4105359E-01;  6.7909186E+02;3;  2.3810251E+00;  0.0000000E+00; -9.5077023E-02;0; -1.4378949E-02;  2.0225734E+04;  0.0000000E+00; -1.1419786E-02;  4.0000000E+04;  0.0000000E+00;  3.9762988E+04;  5.0771302E-03;  0.0000000E+00; -1.9456079E-02;  3.4275287E+02;
  7.8202075E-01;  9.9999998E-03; -2.0017570E-02;7110; -8.2168523E-03;  0.0000000E+00;  3.8937552E-04;  1.0008727E+03;  1.4105447E-01;  7.2304120E+02;3;  2.3872619E+00;  0.0000000E+00; -6.3106515E-02;0; -1.4569022E-02;  2.0226363E+04;  0.0000000E+00; -5.8046086E-03;  4.0000000E+04;  0.0000000E+00;  3.9763121E+04;  5.0614364E-03;  0.0000000E+00; -1.9630458E-02;  3.3684018E+02;
  7.8201938E-01;  9.9999998E-03; -1.0007202E-02;7111; -8.2375063E-03;  0.0000000E+00;  1.9501748E-04;  1.0009087E+03;  1.4105345E-01;  7.5286755E+02;3;  2.3910322E+00;  0.0000000E+00; -3.1625915E-02;0; -1.4683107E-02;  2.0226471E+04;  0.0000000E+00; -1.5664514E-03;  4.0000000E+04;  0.0000000E+00;  3.9763238E+04;  5.0532930E-03;  0.0000000E+00; -1.9736400E-02;  3.2288809E+02;
  7.8201902E-01;  9.9999998E-03;  2.2491891E-08;7112; -8.2443403E-03;  0.0000000E+00;  5.9459332E-08;  1.0009233E+03;  1.4105380E-01;  7.6501532E+02;3;  2.3925869E+00;  0.0000000E+00; -3.5164176E-05;0; -1.4721103E-02;  2.0226582E+04;  0.0000000E+00;  3.1968431E-10;  4.0000000E+04;  0.0000000E+00;  3.9763164E+04;  5.0507919E-03;  0.0000000E+00; -1.9771894E-02;  3.1633453E+02;
  7.8201938E-01;  9.9999998E-03;  1.0007246E-02;7113; -8.2375063E-03;  0.0000000E+00; -1.9489892E-04;  1.0009087E+03;  1.4105396E-01;  7.5286755E+02;3;  2.3910346E+00;  0.0000000E+00;  3.1553924E-02;0; -1.4683105E-02;  2.0226486E+04;  0.0000000E+00; -1.5669293E-03;  4.0000000E+04;  0.0000000E+00;  3.9763238E+04;  5.0532841E-03;  0.0000000E+00; -1.9736389E-02;  3.2290262E+02;
  7.8202075E-01;  9.9999998E-03;  2.0017615E-02;7114; -8.2168560E-03;  0.0000000E+00; -3.8925704E-04;  1.0008727E+03;  1.4105430E-01;  7.2304120E+02;3;  2.3872521E+00;  0.0000000E+00;  6.3037910E-02;0; -1.4569043E-02;  2.0226359E+04;  0.0000000E+00; -5.8055054E-03;  4.0000000E+04;  0.0000000E+00;  3.9763117E+04;  5.0614187E-03;  0.0000000E+00; -1.9630462E-02;  3.3685202E+02;
  7.8202498E-01;  9.9999998E-03;  3.0033367E-02;7115; -8.1818067E-03;  0.0000000E+00; -5.8224465E-04;  1.0008195E+03;  1.4105347E-01;  6.7899310E+02;3;  2.3810220E+00;  0.0000000E+00;  9.5026277E-02;0; -1.4378965E-02;  2.0225734E+04;  0.0000000E+00; -1.1421447E-02;  4.0000000E+04;  0.0000000E+00;  3.9762992E+04;  5.0771036E-03;  0.0000000E+00; -1.9456068E-02;  3.4273050E+02;
  7.8203398E-01;  9.9999998E-03;  4.0048707E-02;7116; -8.1317052E-03;  0.0000000E+00; -7.7282480E-04;  1.0007562E+03;  1.4105670E-01;  6.2655011E+02;3;  2.3745265E+00;  0.0000000E+00;  1.2581494E-01;0; -1.4113335E-02;  2.0224746E+04;  0.0000000E+00; -1.6667388E-02;  4.0000000E+04;  0.0000000E+00;  3.9763141E+04;  5.1032542E-03;  0.0000000E+00; -1.9216590E-02;  3.2097415E+02;
  7.8204507E-01;  9.9999998E-03;  5.0058126E-02;7117; -8.0664055E-03;  0.0000000E+00; -9.5983653E-04;  1.0006847E+03;  1.4106137E-01;  5.6729254E+02;3;  2.3694074E+00;  0.0000000E+00;  1.5627579E-01;0; -1.3773207E-02;  2.0223422E+04;  0.0000000E+00; -1.9866031E-02;  4.0000000E+04;  0.0000000E+00;  3.9763641E+04;  5.1430683E-03;  0.0000000E+00; -1.8916275E-02;  2.6226358E+02;
  7.8204602E-01;  9.9999998E-03;  6.0061049E-02;7118; -7.9868147E-03;  0.0000000E+00; -1.1423805E-03;  1.0006083E+03;  1.4106429E-01;  5.0398572E+02;3;  2.3602653E+00;  0.0000000E+00;  1.8462081E-01;0; -1.3360031E-02;  2.0222799E+04;  0.0000000E+00; -2.0172836E-02;  4.0000000E+04;  0.0000000E+00;  3.9764535E+04;  5.1994030E-03;  0.0000000E+00; -1.8559434E-02;  1.9217464E+02;
  7.9630673E-01;  9.9999998E-03; -1.0015196E-01;7163; -7.4074753E-03;  0.0000000E+00;  1.9919439E-03;  1.0004750E+03;  1.4676504E-01;  3.9347034E+02;3;  2.5220466E+00;  0.0000000E+00; -3.0268270E-01;0; -1.0667352E-02;  1.8705396E+04;  0.0000000E+00; -4.1362303E-01;  4.0000000E+04;  0.0000000E+00;  3.9737922E+04;  7.3175956E-03;  0.0000000E+00; -1.7984947E-02;  9.3728955E+02;
  7.9628837E-01;  9.9999998E-03; -9.0143584E-02;7164; -7.5318702E-03;  0.0000000E+00;  1.8183757E-03;  1.0004406E+03;  1.4673175E-01;  3.6502667E+02;3;  2.5164781E+00;  0.0000000E+00; -2.8176183E-01;0; -1.1409464E-02;  1.8707885E+04;  0.0000000E+00; -3.5161400E-01;  4.0000000E+04;  0.0000000E+00;  3.9738355E+04;  7.1422746E-03;  0.0000000E+00; -1.8551739E-02;  7.7406616E+02;
  7.9626137E-01;  9.9999998E-03; -8.0149613E-02;7165; -7.6499465E-03;  0.0000000E+00;  1.6386043E-03;  1.0004144E+03;  1.4669739E-01;  3.4329892E+02;3;  2.5112550E+00;  0.0000000E+00; -2.5865236E-01;0; -1.2056682E-02;  1.8711078E+04;  0.0000000E+00; -2.9323393E-01;  4.0000000E+04;  0.0000000E+00;  3.9737762E+04;  7.0288372E-03;  0.0000000E+00; -1.9085519E-02;  6.4288342E+02;
  7.9623330E-01;  9.9999998E-03; -7.0156939E-02;7166; -7.7583976E-03;  0.0000000E+00;  1.4519033E-03;  1.0004026E+03;  1.4666595E-01;  3.3362018E+02;3;  2.5003941E+00;  0.0000000E+00; -2.3072554E-01;0; -1.2618100E-02;  1.8714381E+04;  0.0000000E+00; -2.3752134E-01;  4.0000000E+04;  0.0000000E+00;  3.9736887E+04;  6.9625569E-03;  0.0000000E+00; -1.9580657E-02;  5.6712067E+02;
  7.9619163E-01;  9.9999998E-03; -6.0152896E-02;7167; -7.8541813E-03;  0.0000000E+00;  1.2578017E-03;  1.0003950E+03;  1.4663500E-01;  3.2729935E+02;3;  2.4935365E+00;  0.0000000E+00; -1.9889702E-01;0; -1.3099575E-02;  1.8718645E+04;  0.0000000E+00; -1.8390130E-01;  4.0000000E+04;  0.0000000E+00;  3.9735602E+04;  6.9288295E-03;  0.0000000E+00; -2.0028405E-02;  5.7199500E+02;
  7.9610926E-01;  9.9999998E-03; -5.0128341E-02;7168; -7.9357671E-03;  0.0000000E+00;  1.0564595E-03;  1.0003932E+03;  1.4659625E-01;  3.2571915E+02;3;  2.4911110E+00;  0.0000000E+00; -1.6751452E-01;0; -1.3504777E-02;  1.8724943E+04;  0.0000000E+00; -1.3348936E-01;  4.0000000E+04;  0.0000000E+00;  3.9734500E+04;  6.9128699E-03;  0.0000000E+00; -2.0417647E-02;  6.0779260E+02;
  7.9602218E-01;  9.9999998E-03; -4.0089276E-02;7169; -8.0015929E-03;  0.0000000E+00;  8.4962090E-04;  1.0004005E+03;  1.4656064E-01;  3.3184244E+02;3;  2.4927201E+00;  0.0000000E+00; -1.3580807E-01;0; -1.3834305E-02;  1.8731436E+04;  0.0000000E+00; -8.8415578E-02;  4.0000000E+04;  0.0000000E+00;  3.9734422E+04;  6.9099977E-03;  0.0000000E+00; -2.0744303E-02;  6.1206622E+02;
  7.9594779E-01;  9.9999998E-03; -3.0058654E-02;7170; -8.0512883E-03;  0.0000000E+00;  6.3933776E-04;  1.0004147E+03;  1.4653113E-01;  3.4359518E+02;3;  2.4964550E+00;  0.0000000E+00; -1.0294457E-01;0; -1.4088442E-02;  1.8736695E+04;  0.0000000E+00; -5.1022884E-02;  4.0000000E+04;  0.0000000E+00;  3.9734594E+04;  6.9148699E-03;  0.0000000E+00; -2.1003311E-02;  5.7654852E+02;
  7.9589498E-01;  9.9999998E-03; -2.0034004E-02;7171; -8.0856206E-03;  0.0000000E+00;  4.2702048E-04;  1.0004307E+03;  1.4651094E-01;  3.5682938E+02;3;  2.5007236E+00;  0.0000000E+00; -6.9352493E-02;0; -1.4268585E-02;  1.8740451E+04;  0.0000000E+00; -2.3072300E-02;  4.0000000E+04;  0.0000000E+00;  3.9735188E+04;  6.9227354E-03;  0.0000000E+00; -2.1191319E-02;  5.1972217E+02;
  7.9586345E-01;  9.9999998E-03; -1.0015148E-02;7172; -8.1056086E-03;  0.0000000E+00;  2.1371534E-04;  1.0004428E+03;  1.4649954E-01;  3.6690317E+02;3;  2.5046475E+00;  0.0000000E+00; -3.5119746E-02;0; -1.4376022E-02;  1.8742537E+04;  0.0000000E+00; -5.8247778E-03;  4.0000000E+04;  0.0000000E+00;  3.9735484E+04;  6.9292267E-03;  0.0000000E+00; -2.1305248E-02;  4.7123950E+02;
  7.9585284E-01;  9.9999998E-03;  2.2308619E-08;7173; -8.1120916E-03;  0.0000000E+00;  6.0799813E-08;  1.0004447E+03;  1.4649592E-01;  3.6838461E+02;3;  2.5071933E+00;  0.0000000E+00; -3.2277188E-05;0; -1.4411746E-02;  1.8743352E+04;  0.0000000E+00;  3.2795805E-10;  4.0000000E+04;  0.0000000E+00;  3.9735477E+04;  6.9316640E-03;  0.0000000E+00; -2.1343410E-02;  4.5262994E+02;
  7.9586345E-01;  9.9999998E-03;  1.0015192E-02;7174; -8.1056114E-03;  0.0000000E+00; -2.1359310E-04;  1.0004429E+03;  1.4649943E-01;  3.6690317E+02;3;  2.5046616E+00;  0.0000000E+00;  3.5057459E-02;0; -1.4376039E-02;  1.8742539E+04;  0.0000000E+00; -5.8238562E-03;  4.0000000E+04;  0.0000000E+00;  3.9735484E+04;  6.9292113E-03;  0.0000000E+00; -2.1305250E-02;  4.7124762E+02;
  7.9589498E-01;  9.9999998E-03;  2.0034049E-02;7175; -8.0856262E-03;  0.0000000E+00; -4.2689900E-04;  1.0004308E+03;  1.4651108E-01;  3.5692816E+02;3;  2.5007417E+00;  0.0000000E+00;  6.9283985E-02;0; -1.4268629E-02;  1.8740449E+04;  0.0000000E+00; -2.3071198E-02;  4.0000000E+04;  0.0000000E+00;  3.9735191E+04;  6.9227107E-03;  0.0000000E+00; -2.1191340E-02;  5.1971729E+02;
  7.9594779E-01;  9.9999998E-03;  3.0058701E-02;7176; -8.0512948E-03;  0.0000000E+00; -6.3921529E-04;  1.0004149E+03;  1.4653103E-01;  3.4369397E+02;3;  2.4964662E+00;  0.0000000E+00;  1.0288494E-01;0; -1.4088478E-02;  1.8736695E+04;  0.0000000E+00; -5.1021490E-02;  4.0000000E+04;  0.0000000E+00;  3.9734598E+04;  6.9148410E-03;  0.0000000E+00; -2.1003319E-02;  5.7657751E+02;
  7.9602218E-01;  9.9999998E-03;  4.0089324E-02;7177; -8.0015985E-03;  0.0000000E+00; -8.4949826E-04;  1.0004005E+03;  1.4656088E-01;  3.3174368E+02;3;  2.4927363E+00;  0.0000000E+00;  1.3574742E-01;0; -1.3834310E-02;  1.8731438E+04;  0.0000000E+00; -8.8414244E-02;  4.0000000E+04;  0.0000000E+00;  3.9734426E+04;  6.9099599E-03;  0.0000000E+00; -2.0744270E-02;  6.1208063E+02;
  7.9610926E-01;  9.9999998E-03;  5.0128389E-02;7178; -7.9357726E-03;  0.0000000E+00; -1.0563353E-03;  1.0003933E+03;  1.4659637E-01;  3.2581793E+02;3;  2.4911304E+00;  0.0000000E+00;  1.6747689E-01;0; -1.3504821E-02;  1.8724938E+04;  0.0000000E+00; -1.3348648E-01;  4.0000000E+04;  0.0000000E+00;  3.9734492E+04;  6.9128228E-03;  0.0000000E+00; -2.0417644E-02;  6.0779285E+02;
  7.9619163E-01;  9.9999998E-03;  6.0152944E-02;7179; -7.8541851E-03;  0.0000000E+00; -1.2576777E-03;  1.0003950E+03;  1.4663461E-01;  3.2720059E+02;3;  2.4935510E+00;  0.0000000E+00;  1.9887140E-01;0; -1.3099635E-02;  1.8718643E+04;  0.0000000E+00; -1.8389896E-01;  4.0000000E+04;  0.0000000E+00;  3.9735605E+04;  6.9287685E-03;  0.0000000E+00; -2.0028403E-02;  5.7198859E+02;
  8.1052500E-01;  9.9999998E-03; -1.0030632E-01;7224; -7.2602732E-03;  0.0000000E+00;  2.1882923E-03;  9.9992719E+02;  1.5264466E-01; -6.0343967E+01;3;  2.6634889E+00;  0.0000000E+00; -3.1653860E-01;0; -1.0076326E-02;  1.7286660E+04;  0.0000000E+00; -6.7757392E-01;  4.0000000E+04;  0.0000000E+00;  3.9710578E+04;  9.2976680E-03;  0.0000000E+00; -1.9373994E-02;  1.8383506E+03;
  8.1049871E-01;  9.9999998E-03; -9.0317801E-02;7225; -7.3881065E-03;  0.0000000E+00;  2.0036094E-03;  9.9982947E+02;  1.5261708E-01; -1.4127994E+02;3;  2.6535370E+00;  0.0000000E+00; -2.8967264E-01;0; -1.0848724E-02;  1.7286527E+04;  0.0000000E+00; -5.9886265E-01;  4.0000000E+04;  0.0000000E+00;  3.9710000E+04;  9.1441227E-03;  0.0000000E+00; -1.9992847E-02;  1.6378263E+03;
  8.1049067E-01;  9.9999998E-03; -8.0324002E-02;7226; -7.5074467E-03;  0.0000000E+00;  1.8096960E-03;  9.9974268E+02;  1.5260296E-01; -2.1317914E+02;3;  2.6417415E+00;  0.0000000E+00; -2.6033041E-01;0; -1.1507234E-02;  1.7284375E+04;  0.0000000E+00; -5.0933838E-01;  4.0000000E+04;  0.0000000E+00;  3.9708551E+04;  9.0717953E-03;  0.0000000E+00; -2.0579029E-02;  1.4270905E+03;
  8.1049514E-01;  9.9999998E-03; -7.0329584E-02;7227; -7.6158354E-03;  0.0000000E+00;  1.6062100E-03;  9.9967401E+02;  1.5259822E-01; -2.7006641E+02;3;  2.6255400E+00;  0.0000000E+00; -2.3216064E-01;0; -1.2064691E-02;  1.7281074E+04;  0.0000000E+00; -4.1400483E-01;  4.0000000E+04;  0.0000000E+00;  3.9706773E+04;  9.0594692E-03;  0.0000000E+00; -2.1124160E-02;  1.2552574E+03;
  8.1029713E-01;  9.9999998E-03; -6.0304318E-02;7228; -7.7132136E-03;  0.0000000E+00;  1.3908371E-03;  9.9960742E+02;  1.5251251E-01; -3.2522534E+02;3;  2.6123219E+00;  0.0000000E+00; -2.0456687E-01;0; -1.2543844E-02;  1.7295992E+04;  0.0000000E+00; -3.1642237E-01;  4.0000000E+04;  0.0000000E+00;  3.9705562E+04;  9.0523437E-03;  0.0000000E+00; -2.1596188E-02;  1.1371647E+03;
  8.1006438E-01;  9.9999998E-03; -5.0224345E-02;7229; -7.7961949E-03;  0.0000000E+00;  1.1664740E-03;  9.9954688E+02;  1.5241627E-01; -3.7539676E+02;3;  2.6105266E+00;  0.0000000E+00; -1.7288464E-01;0; -1.2942827E-02;  1.7313539E+04;  0.0000000E+00; -2.2473164E-01;  4.0000000E+04;  0.0000000E+00;  3.9704895E+04;  9.0622650E-03;  0.0000000E+00; -2.2005092E-02;  1.0397407E+03;
  8.0984825E-01;  9.9999998E-03; -4.0153950E-02;7230; -7.8632487E-03;  0.0000000E+00;  9.3667896E-04;  9.9950458E+02;  1.5232769E-01; -4.1045749E+02;3;  2.6112275E+00;  0.0000000E+00; -1.4036214E-01;0; -1.3261771E-02;  1.7329797E+04;  0.0000000E+00; -1.4566135E-01;  4.0000000E+04;  0.0000000E+00;  3.9705367E+04;  9.0840813E-03;  0.0000000E+00; -2.2345852E-02;  9.3215497E+02;
  8.0966967E-01;  9.9999998E-03; -3.0102938E-02;7231; -7.9143364E-03;  0.0000000E+00;  7.0383376E-04;  9.9947528E+02;  1.5225504E-01; -4.3470374E+02;3;  2.6122150E+00;  0.0000000E+00; -1.0704929E-01;0; -1.3504359E-02;  1.7342922E+04;  0.0000000E+00; -8.2514495E-02;  4.0000000E+04;  0.0000000E+00;  3.9706039E+04;  9.1103455E-03;  0.0000000E+00; -2.2614704E-02;  8.0932550E+02;
  8.0953962E-01;  9.9999998E-03; -2.0063795E-02;7232; -7.9499306E-03;  0.0000000E+00;  4.6952043E-04;  9.9945978E+02;  1.5220413E-01; -4.4754288E+02;3;  2.6133657E+00;  0.0000000E+00; -7.2801664E-02;0; -1.3674389E-02;  1.7352348E+04;  0.0000000E+00; -3.6803130E-02;  4.0000000E+04;  0.0000000E+00;  3.9706855E+04;  9.1345934E-03;  0.0000000E+00; -2.2808982E-02;  6.9292151E+02;
  8.0946016E-01;  9.9999998E-03; -1.0030544E-02;7233; -7.9709692E-03;  0.0000000E+00;  2.3479620E-04;  9.9945398E+02;  1.5217315E-01; -4.5238223E+02;3;  2.6116970E+00;  0.0000000E+00; -3.6331832E-02;0; -1.3775099E-02;  1.7358047E+04;  0.0000000E+00; -9.2125190E-03;  4.0000000E+04;  0.0000000E+00;  3.9707582E+04;  9.1512725E-03;  0.0000000E+00; -2.2926372E-02;  6.1111871E+02;
  8.0943370E-01;  9.9999998E-03;  2.3729154E-08;7234; -7.9779895E-03;  0.0000000E+00;  6.2399138E-08;  9.9945001E+02;  1.5216216E-01; -4.5564139E+02;3;  2.6106241E+00;  0.0000000E+00; -3.0160947E-05;0; -1.3808452E-02;  1.7359988E+04;  0.0000000E+00;  2.8715985E-10;  4.0000000E+04;  0.0000000E+00;  3.9707836E+04;  9.1572125E-03;  0.0000000E+00; -2.2965664E-02;  5.8225842E+02;
  8.0946010E-01;  9.9999998E-03;  1.0030593E-02;7235; -7.9709738E-03;  0.0000000E+00; -2.3467153E-04;  9.9945392E+02;  1.5217276E-01; -4.5243161E+02;3;  2.6117043E+00;  0.0000000E+00;  3.6271416E-02;0; -1.3775108E-02;  1.7358043E+04;  0.0000000E+00; -9.2108659E-03;  4.0000000E+04;  0.0000000E+00;  3.9707582E+04;  9.1512613E-03;  0.0000000E+00; -2.2926370E-02;  6.1111780E+02;
  8.0953962E-01;  9.9999998E-03;  2.0063845E-02;7236; -7.9499362E-03;  0.0000000E+00; -4.6939545E-04;  9.9945978E+02;  1.5220413E-01; -4.4754288E+02;3;  2.6133771E+00;  0.0000000E+00;  7.2744690E-02;0; -1.3674421E-02;  1.7352346E+04;  0.0000000E+00; -3.6799382E-02;  4.0000000E+04;  0.0000000E+00;  3.9706848E+04;  9.1345794E-03;  0.0000000E+00; -2.2809001E-02;  6.9293909E+02;
  8.0966967E-01;  9.9999998E-03;  3.0102989E-02;7237; -7.9143420E-03;  0.0000000E+00; -7.0370804E-04;  9.9947546E+02;  1.5225536E-01; -4.3455557E+02;3;  2.6122401E+00;  0.0000000E+00;  1.0699481E-01;0; -1.3504377E-02;  1.7342920E+04;  0.0000000E+00; -8.2510084E-02;  4.0000000E+04;  0.0000000E+00;  3.9706035E+04;  9.1103148E-03;  0.0000000E+00; -2.2614691E-02;  8.0935925E+02;
  8.0984825E-01;  9.9999998E-03;  4.0154003E-02;7238; -7.8632580E-03;  0.0000000E+00; -9.3655259E-04;  9.9950452E+02;  1.5232733E-01; -4.1050687E+02;3;  2.6112585E+00;  0.0000000E+00;  1.4030910E-01;0; -1.3261816E-02;  1.7329789E+04;  0.0000000E+00; -1.4565572E-01;  4.0000000E+04;  0.0000000E+00;  3.9705371E+04;  9.0840422E-03;  0.0000000E+00; -2.2345858E-02;  9.3215430E+02;
  8.1006444E-01;  9.9999998E-03;  5.0224394E-02;7239; -7.7962023E-03;  0.0000000E+00; -1.1663469E-03;  9.9954688E+02;  1.5241607E-01; -3.7539676E+02;3;  2.6105692E+00;  0.0000000E+00;  1.7283949E-01;0; -1.2942897E-02;  1.7313537E+04;  0.0000000E+00; -2.2472750E-01;  4.0000000E+04;  0.0000000E+00;  3.9704895E+04;  9.0622157E-03;  0.0000000E+00; -2.2005113E-02;  1.0397479E+03;
  8.1029713E-01;  9.9999998E-03;  6.0304370E-02;7240; -7.7132210E-03;  0.0000000E+00; -1.3907091E-03;  9.9960736E+02;  1.5251234E-01; -3.2527472E+02;3;  2.6123664E+00;  0.0000000E+00;  2.0453757E-01;0; -1.2543928E-02;  1.7295996E+04;  0.0000000E+00; -3.1641629E-01;  4.0000000E+04;  0.0000000E+00;  3.9705566E+04;  9.0522747E-03;  0.0000000E+00; -2.1596203E-02;  1.1371658E+03;
  8.2425678E-01;  9.9999998E-03;  2.3533374E-08;7295; -7.8816786E-03;  0.0000000E+00;  6.4404730E-08;  9.9866376E+02;  1.5846357E-01; -1.1070304E+03;3;  2.6938882E+00;  0.0000000E+00; -2.3985276E-05;0; -1.2556204E-02;  1.6012942E+04;  0.0000000E+00;  1.8899435E-10;  4.0000000E+04;  0.0000000E+00;  3.9679449E+04;  1.2262664E-02;  0.0000000E+00; -2.4818867E-02;  6.1175610E+02;
  8.2427007E-01;  9.9999998E-03; -1.0046131E-02;7294; -7.8740157E-03;  0.0000000E+00;  2.5877228E-04;  9.9866431E+02;  1.5846792E-01; -1.1065859E+03;3;  2.6945662E+00;  0.0000000E+00; -3.5310399E-02;0; -1.2526836E-02;  1.6012279E+04;  0.0000000E+00; -1.1162157E-02;  4.0000000E+04;  0.0000000E+00;  3.9679121E+04;  1.2249038E-02;  0.0000000E+00; -2.4775874E-02;  6.4641803E+02;
  8.2427007E-01;  9.9999998E-03;  1.0046179E-02;7296; -7.8740167E-03;  0.0000000E+00; -2.5864353E-04;  9.9866437E+02;  1.5846850E-01; -1.1065365E+03;3;  2.6945577E+00;  0.0000000E+00;  3.5260808E-02;0; -1.2526817E-02;  1.6012282E+04;  0.0000000E+00; -1.1160257E-02;  4.0000000E+04;  0.0000000E+00;  3.9679121E+04;  1.2249026E-02;  0.0000000E+00; -2.4775842E-02;  6.4644403E+02;
  8.2431102E-01;  9.9999998E-03; -2.0089140E-02;7293; -7.8511341E-03;  0.0000000E+00;  5.1720493E-04;  9.9866638E+02;  1.5848172E-01; -1.1048575E+03;3;  2.6966939E+00;  0.0000000E+00; -7.0329852E-02;0; -1.2437424E-02;  1.6010268E+04;  0.0000000E+00; -4.4560801E-02;  4.0000000E+04;  0.0000000E+00;  3.9678559E+04;  1.2210000E-02;  0.0000000E+00; -2.4647424E-02;  7.4946783E+02;
  8.2431102E-01;  9.9999998E-03;  2.0089190E-02;7297; -7.8511350E-03;  0.0000000E+00; -5.1707582E-04;  9.9866663E+02;  1.5848273E-01; -1.1046600E+03;3;  2.6967258E+00;  0.0000000E+00;  7.0279881E-02;0; -1.2437450E-02;  1.6010268E+04;  0.0000000E+00; -4.4556513E-02;  4.0000000E+04;  0.0000000E+00;  3.9678559E+04;  1.2209991E-02;  0.0000000E+00; -2.4647441E-02;  7.4947546E+02;
  8.2438320E-01;  9.9999998E-03; -3.0130839E-02;7292; -7.8131920E-03;  0.0000000E+00;  7.7483454E-04;  9.9867828E+02;  1.5850809E-01; -1.0950306E+03;3;  2.7009909E+00;  0.0000000E+00; -1.0541841E-01;0; -1.2284305E-02;  1.6006274E+04;  0.0000000E+00; -9.9860944E-02;  4.0000000E+04;  0.0000000E+00;  3.9677402E+04;  1.2151305E-02;  0.0000000E+00; -2.4435610E-02;  9.0894977E+02;
  8.2438320E-01;  9.9999998E-03;  3.0130889E-02;7298; -7.8132004E-03;  0.0000000E+00; -7.7470491E-04;  9.9867822E+02;  1.5850832E-01; -1.0950801E+03;3;  2.7010236E+00;  0.0000000E+00;  1.0537160E-01;0; -1.2284334E-02;  1.6006275E+04;  0.0000000E+00; -9.9855803E-02;  4.0000000E+04;  0.0000000E+00;  3.9677398E+04;  1.2151272E-02;  0.0000000E+00; -2.4435606E-02;  9.0898126E+02;
  8.2449281E-01;  9.9999998E-03; -4.0178068E-02;7291; -7.7608158E-03;  0.0000000E+00;  1.0306676E-03;  9.9870148E+02;  1.5854949E-01; -1.0758213E+03;3;  2.7054284E+00;  0.0000000E+00; -1.3986316E-01;0; -1.2061493E-02;  1.5999798E+04;  0.0000000E+00; -1.7633685E-01;  4.0000000E+04;  0.0000000E+00;  3.9676309E+04;  1.2082228E-02;  0.0000000E+00; -2.4143720E-02;  1.0968480E+03;
  8.2449281E-01;  9.9999998E-03;  4.0178116E-02;7299; -7.7608246E-03;  0.0000000E+00; -1.0305373E-03;  9.9870154E+02;  1.5854937E-01; -1.0757720E+03;3;  2.7054560E+00;  0.0000000E+00;  1.3981047E-01;0; -1.2061544E-02;  1.5999790E+04;  0.0000000E+00; -1.7633100E-01;  4.0000000E+04;  0.0000000E+00;  3.9676309E+04;  1.2082195E-02;  0.0000000E+00; -2.4143739E-02;  1.0968577E+03;
  8.2463330E-01;  9.9999998E-03; -5.0241295E-02;7290; -7.6946216E-03;  0.0000000E+00;  1.2830959E-03;  9.9873962E+02;  1.5860488E-01; -1.0442173E+03;3;  2.7110772E+00;  0.0000000E+00; -1.7375399E-01;0; -1.1762657E-02;  1.5990722E+04;  0.0000000E+00; -2.7245846E-01;  4.0000000E+04;  0.0000000E+00;  3.9675941E+04;  1.2012121E-02;  0.0000000E+00; -2.3774778E-02;  1.2840585E+03;
  8.2463330E-01;  9.9999998E-03;  5.0241347E-02;7300; -7.6946267E-03;  0.0000000E+00; -1.2829646E-03;  9.9873987E+02;  1.5860525E-01; -1.0440198E+03;3;  2.7111182E+00;  0.0000000E+00;  1.7371297E-01;0; -1.1762715E-02;  1.5990723E+04;  0.0000000E+00; -2.7244812E-01;  4.0000000E+04;  0.0000000E+00;  3.9675945E+04;  1.2012073E-02;  0.0000000E+00; -2.3774788E-02;  1.2840432E+03;
  8.2481205E-01;  9.9999998E-03; -6.0327027E-02;7289; -7.6147919E-03;  0.0000000E+00;  1.5298357E-03;  9.9879529E+02;  1.5867820E-01; -9.9809515E+02;3;  2.7133598E+00;  0.0000000E+00; -2.0600361E-01;0; -1.1378128E-02;  1.5978344E+04;  0.0000000E+00; -3.8506964E-01;  4.0000000E+04;  0.0000000E+00;  3.9676188E+04;  1.1956824E-02;  0.0000000E+00; -2.3334952E-02;  1.4655938E+03;
  8.2481205E-01;  9.9999998E-03;  6.0327075E-02;7301; -7.6147979E-03;  0.0000000E+00; -1.5297038E-03;  9.9879547E+02;  1.5867877E-01; -9.9794702E+02;3;  2.7134094E+00;  0.0000000E+00;  2.0597155E-01;0; -1.1378213E-02;  1.5978342E+04;  0.0000000E+00; -3.8505906E-01;  4.0000000E+04;  0.0000000E+00;  3.9676184E+04;  1.1956762E-02;  0.0000000E+00; -2.3334974E-02;  1.4655758E+03;
  8.2500708E-01;  9.9999998E-03; -7.0406444E-02;7288; -7.5219646E-03;  0.0000000E+00;  1.7675959E-03;  9.9887225E+02;  1.5876469E-01; -9.3429449E+02;3;  2.7156799E+00;  0.0000000E+00; -2.3764418E-01;0; -1.0901929E-02;  1.5963940E+04;  0.0000000E+00; -5.0754744E-01;  4.0000000E+04;  0.0000000E+00;  3.9677520E+04;  1.1928293E-02;  0.0000000E+00; -2.2830222E-02;  1.6679238E+03;
  8.2516283E-01;  9.9999998E-03; -8.0403730E-02;7287; -7.4176672E-03;  0.0000000E+00;  1.9924191E-03;  9.9896417E+02;  1.5884319E-01; -8.5814850E+02;3;  2.7236130E+00;  0.0000000E+00; -2.6534227E-01;0; -1.0333950E-02;  1.5951006E+04;  0.0000000E+00; -6.2893432E-01;  4.0000000E+04;  0.0000000E+00;  3.9679613E+04;  1.1933085E-02;  0.0000000E+00; -2.2267034E-02;  1.9104722E+03;
  8.2528108E-01;  9.9999998E-03; -9.0384588E-02;7286; -7.3022712E-03;  0.0000000E+00;  2.2046762E-03;  9.9906299E+02;  1.5892053E-01; -7.7627429E+02;3;  2.7319033E+00;  0.0000000E+00; -2.9430559E-01;0; -9.6588507E-03;  1.5939130E+04;  0.0000000E+00; -7.3897529E-01;  4.0000000E+04;  0.0000000E+00;  3.9681520E+04;  1.1992130E-02;  0.0000000E+00; -2.1650981E-02;  2.1743345E+03;
  8.2539594E-01;  9.9999998E-03; -1.0034768E-01;7285; -7.1774274E-03;  0.0000000E+00;  2.4049357E-03;  9.9917493E+02;  1.5899879E-01; -6.8353619E+02;3;  2.7426696E+00;  0.0000000E+00; -3.2314578E-01;0; -8.8576693E-03;  1.5927097E+04;  0.0000000E+00; -8.2580584E-01;  4.0000000E+04;  0.0000000E+00;  3.9682414E+04;  1.2135990E-02;  0.0000000E+00; -2.0993659E-02;  2.3855916E+03;
  8.4198350E-01;  9.9999998E-03;  2.4728028E-08;7356; -7.7926964E-03;  0.0000000E+00;  6.7705422E-08;  9.9866626E+02;  1.6612965E-01; -1.1049563E+03;3;  2.7709100E+00;  0.0000000E+00; -1.3790482E-05;0; -9.6706264E-03;  1.4609572E+04;  0.0000000E+00;  4.1217179E-11;  4.0000000E+04;  0.0000000E+00;  3.9648203E+04;  1.7459258E-02;  0.0000000E+00; -2.7129885E-02;  5.2154266E+02;
  8.4196460E-01;  9.9999998E-03; -1.0047811E-02;7355; -7.7849561E-03;  0.0000000E+00;  2.8481873E-04;  9.9865985E+02;  1.6612065E-01; -1.1102896E+03;3;  2.7717772E+00;  0.0000000E+00; -3.3818834E-02;0; -9.6495841E-03;  1.4610856E+04;  0.0000000E+00; -1.1572316E-02;  4.0000000E+04;  0.0000000E+00;  3.9648000E+04;  1.7433016E-02;  0.0000000E+00; -2.7082600E-02;  5.5115375E+02;
  8.4196460E-01;  9.9999998E-03;  1.0047862E-02;7357; -7.7849599E-03;  0.0000000E+00; -2.8468351E-04;  9.9865985E+02;  1.6612123E-01; -1.1102896E+03;3;  2.7717924E+00;  0.0000000E+00;  3.3789512E-02;0; -9.6495878E-03;  1.4610855E+04;  0.0000000E+00; -1.1570839E-02;  4.0000000E+04;  0.0000000E+00;  3.9647996E+04;  1.7433004E-02;  0.0000000E+00; -2.7082592E-02;  5.5118536E+02;
  8.4191114E-01;  9.9999998E-03; -2.0091353E-02;7354; -7.7617206E-03;  0.0000000E+00;  5.6903367E-04;  9.9865192E+02;  1.6609831E-01; -1.1168572E+03;3;  2.7745509E+00;  0.0000000E+00; -6.7678183E-02;0; -9.5840394E-03;  1.4614425E+04;  0.0000000E+00; -4.5972314E-02;  4.0000000E+04;  0.0000000E+00;  3.9647410E+04;  1.7357334E-02;  0.0000000E+00; -2.6941374E-02;  6.4529468E+02;
  8.4191114E-01;  9.9999998E-03;  2.0091407E-02;7358; -7.7617266E-03;  0.0000000E+00; -5.6889828E-04;  9.9865192E+02;  1.6609831E-01; -1.1168572E+03;3;  2.7745757E+00;  0.0000000E+00;  6.7647539E-02;0; -9.5840525E-03;  1.4614421E+04;  0.0000000E+00; -4.5968756E-02;  4.0000000E+04;  0.0000000E+00;  3.9647410E+04;  1.7357346E-02;  0.0000000E+00; -2.6941398E-02;  6.4534906E+02;
  8.4183359E-01;  9.9999998E-03; -3.0132024E-02;7353; -7.7240053E-03;  0.0000000E+00;  8.5199840E-04;  9.9863483E+02;  1.6606510E-01; -1.1310297E+03;3;  2.7794094E+00;  0.0000000E+00; -1.0152625E-01;0; -9.4671100E-03;  1.4619543E+04;  0.0000000E+00; -1.0242350E-01;  4.0000000E+04;  0.0000000E+00;  3.9646402E+04;  1.7241612E-02;  0.0000000E+00; -2.6708722E-02;  8.0585516E+02;
  8.4183353E-01;  9.9999998E-03;  3.0132078E-02;7359; -7.7240192E-03;  0.0000000E+00; -8.5186266E-04;  9.9863464E+02;  1.6606502E-01; -1.1311779E+03;3;  2.7794428E+00;  0.0000000E+00;  1.0149362E-01;0; -9.4671380E-03;  1.4619545E+04;  0.0000000E+00; -1.0241879E-01;  4.0000000E+04;  0.0000000E+00;  3.9646406E+04;  1.7241588E-02;  0.0000000E+00; -2.6708726E-02;  8.0588556E+02;
  8.4174788E-01;  9.9999998E-03; -4.0177163E-02;7352; -7.6726638E-03;  0.0000000E+00;  1.1325895E-03;  9.9862286E+02;  1.6603011E-01; -1.1409553E+03;3;  2.7874544E+00;  0.0000000E+00; -1.3598315E-01;0; -9.2880055E-03;  1.4624919E+04;  0.0000000E+00; -1.7993547E-01;  4.0000000E+04;  0.0000000E+00;  3.9645691E+04;  1.7100431E-02;  0.0000000E+00; -2.6388437E-02;  1.0156884E+03;
  8.4174788E-01;  9.9999998E-03;  4.0177219E-02;7360; -7.6726708E-03;  0.0000000E+00; -1.1324538E-03;  9.9862299E+02;  1.6603047E-01; -1.1408071E+03;3;  2.7875097E+00;  0.0000000E+00;  1.3595253E-01;0; -9.2880260E-03;  1.4624920E+04;  0.0000000E+00; -1.7992990E-01;  4.0000000E+04;  0.0000000E+00;  3.9645684E+04;  1.7100427E-02;  0.0000000E+00; -2.6388453E-02;  1.0157346E+03;
  8.4166896E-01;  9.9999998E-03; -5.0239708E-02;7351; -7.6094950E-03;  0.0000000E+00;  1.4092820E-03;  9.9862000E+02;  1.6599953E-01; -1.1433256E+03;3;  2.7949660E+00;  0.0000000E+00; -1.7061362E-01;0; -9.0342816E-03;  1.4629332E+04;  0.0000000E+00; -2.7708536E-01;  4.0000000E+04;  0.0000000E+00;  3.9645309E+04;  1.6950840E-02;  0.0000000E+00; -2.5985122E-02;  1.2459899E+03;
  8.4166896E-01;  9.9999998E-03;  5.0239764E-02;7361; -7.6095113E-03;  0.0000000E+00; -1.4091462E-03;  9.9861975E+02;  1.6600013E-01; -1.1435231E+03;3;  2.7950163E+00;  0.0000000E+00;  1.7058200E-01;0; -9.0343226E-03;  1.4629328E+04;  0.0000000E+00; -2.7707863E-01;  4.0000000E+04;  0.0000000E+00;  3.9645316E+04;  1.6950820E-02;  0.0000000E+00; -2.5985142E-02;  1.2460187E+03;
  8.4160805E-01;  9.9999998E-03; -6.0329329E-02;7350; -7.5354185E-03;  0.0000000E+00;  1.6798134E-03;  9.9863953E+02;  1.6598019E-01; -1.1271285E+03;3;  2.8011155E+00;  0.0000000E+00; -2.0399413E-01;0; -8.6927973E-03;  1.4631844E+04;  0.0000000E+00; -3.9112380E-01;  4.0000000E+04;  0.0000000E+00;  3.9645605E+04;  1.6811449E-02;  0.0000000E+00; -2.5504246E-02;  1.4795012E+03;
  8.4160805E-01;  9.9999998E-03;  6.0329381E-02;7362; -7.5354273E-03;  0.0000000E+00; -1.6796775E-03;  9.9863959E+02;  1.6598152E-01; -1.1270791E+03;3;  2.8011813E+00;  0.0000000E+00;  2.0396563E-01;0; -8.6928308E-03;  1.4631848E+04;  0.0000000E+00; -3.9111459E-01;  4.0000000E+04;  0.0000000E+00;  3.9645602E+04;  1.6811425E-02;  0.0000000E+00; -2.5504256E-02;  1.4794760E+03;
  8.4157741E-01;  9.9999998E-03; -7.0436805E-02;7349; -7.4514314E-03;  0.0000000E+00;  1.9412637E-03;  9.9866986E+02;  1.6597773E-01; -1.1019934E+03;3;  2.8043628E+00;  0.0000000E+00; -2.3740882E-01;0; -8.2497280E-03;  1.4631468E+04;  0.0000000E+00; -5.1646113E-01;  4.0000000E+04;  0.0000000E+00;  3.9647008E+04;  1.6703939E-02;  0.0000000E+00; -2.4953667E-02;  1.7261707E+03;
  8.4157121E-01;  9.9999998E-03; -8.0505162E-02;7348; -7.3581147E-03;  0.0000000E+00;  2.1900374E-03;  9.9872119E+02;  1.6598883E-01; -1.0594761E+03;3;  2.8069868E+00;  0.0000000E+00; -2.7206209E-01;0; -7.6973606E-03;  1.4628531E+04;  0.0000000E+00; -6.4255762E-01;  4.0000000E+04;  0.0000000E+00;  3.9648727E+04;  1.6645612E-02;  0.0000000E+00; -2.4342973E-02;  1.9966770E+03;
  8.4159040E-01;  9.9999998E-03; -9.0548173E-02;7347; -7.2543365E-03;  0.0000000E+00;  2.4252662E-03;  9.9878723E+02;  1.6601653E-01; -1.0047617E+03;3;  2.8087225E+00;  0.0000000E+00; -3.0355054E-01;0; -7.0220158E-03;  1.4623199E+04;  0.0000000E+00; -7.5553161E-01;  4.0000000E+04;  0.0000000E+00;  3.9650773E+04;  1.6656864E-02;  0.0000000E+00; -2.3678880E-02;  2.2608750E+03;
  8.4163624E-01;  9.9999998E-03; -1.0057222E-01;7346; -7.1401354E-03;  0.0000000E+00;  2.6466874E-03;  9.9885840E+02;  1.6606052E-01; -9.4580035E+02;3;  2.8054860E+00;  0.0000000E+00; -3.3635047E-01;0; -6.2083639E-03;  1.4615313E+04;  0.0000000E+00; -8.4022832E-01;  4.0000000E+04;  0.0000000E+00;  3.9652129E+04;  1.6758557E-02;  0.0000000E+00; -2.2966921E-02;  2.4402410E+03;
  8.5938603E-01;  9.9999998E-03; -1.0057155E-02;7416; -7.5867474E-03;  0.0000000E+00;  3.0729457E-04;  9.9975183E+02;  1.7428486E-01; -2.0562379E+02;3;  2.8849483E+00;  0.0000000E+00; -3.3245362E-02;0; -4.6044365E-03;  1.3339104E+04;  0.0000000E+00; -9.5726512E-03;  4.0000000E+04;  0.0000000E+00;  3.9616238E+04;  2.4823153E-02;  0.0000000E+00; -2.9427590E-02;  4.9673654E+02;
  8.5938847E-01;  9.9999998E-03;  2.6125999E-08;7417; -7.5930497E-03;  0.0000000E+00;  7.1549856E-08;  9.9976752E+02;  1.7428970E-01; -1.9258713E+02;3;  2.8847411E+00;  0.0000000E+00; -3.7357677E-06;0; -4.6300534E-03;  1.3339055E+04;  0.0000000E+00; -6.6938670E-11;  4.0000000E+04;  0.0000000E+00;  3.9616207E+04;  2.4839878E-02;  0.0000000E+00; -2.9469931E-02;  4.7989481E+02;
  8.5938603E-01;  9.9999998E-03;  1.0057207E-02;7418; -7.5867563E-03;  0.0000000E+00; -3.0715144E-04;  9.9975171E+02;  1.7428523E-01; -2.0572256E+02;3;  2.8849602E+00;  0.0000000E+00;  3.3238173E-02;0; -4.6044551E-03;  1.3339104E+04;  0.0000000E+00; -9.5718103E-03;  4.0000000E+04;  0.0000000E+00;  3.9616242E+04;  2.4823166E-02;  0.0000000E+00; -2.9427622E-02;  4.9673514E+02;
  8.5938036E-01;  9.9999998E-03; -2.0109344E-02;7415; -7.5677973E-03;  0.0000000E+00;  6.1417767E-04;  9.9971344E+02;  1.7427258E-01; -2.3742537E+02;3;  2.8857589E+00;  0.0000000E+00; -6.6649452E-02;0; -4.5251362E-03;  1.3339555E+04;  0.0000000E+00; -3.8068432E-02;  4.0000000E+04;  0.0000000E+00;  3.9615789E+04;  2.4775717E-02;  0.0000000E+00; -2.9300854E-02;  5.5475110E+02;
  8.5938036E-01;  9.9999998E-03;  2.0109398E-02;7419; -7.5677964E-03;  0.0000000E+00; -6.1403512E-04;  9.9971368E+02;  1.7427255E-01; -2.3722784E+02;3;  2.8857932E+00;  0.0000000E+00;  6.6636756E-02;0; -4.5251120E-03;  1.3339552E+04;  0.0000000E+00; -3.8066860E-02;  4.0000000E+04;  0.0000000E+00;  3.9615793E+04;  2.4775743E-02;  0.0000000E+00; -2.9300855E-02;  5.5478339E+02;
  8.5937583E-01;  9.9999998E-03; -3.0155489E-02;7414; -7.5368392E-03;  0.0000000E+00;  9.2019746E-04;  9.9965613E+02;  1.7425434E-01; -2.8488080E+02;3;  2.8869786E+00;  0.0000000E+00; -1.0005350E-01;0; -4.3854099E-03;  1.3339749E+04;  0.0000000E+00; -8.5057192E-02;  4.0000000E+04;  0.0000000E+00;  3.9615242E+04;  2.4704944E-02;  0.0000000E+00; -2.9090354E-02;  6.6557550E+02;
  8.5937583E-01;  9.9999998E-03;  3.0155545E-02;7420; -7.5368485E-03;  0.0000000E+00; -9.2005468E-04;  9.9965619E+02;  1.7425419E-01; -2.8483142E+02;3;  2.8870206E+00;  0.0000000E+00;  1.0004519E-01;0; -4.3854043E-03;  1.3339748E+04;  0.0000000E+00; -8.5053757E-02;  4.0000000E+04;  0.0000000E+00;  3.9615242E+04;  2.4704961E-02;  0.0000000E+00; -2.9090365E-02;  6.6560901E+02;
  8.5937726E-01;  9.9999998E-03; -4.0201232E-02;7413; -7.4949553E-03;  0.0000000E+00;  1.2244576E-03;  9.9958960E+02;  1.7423542E-01; -3.3999036E+02;3;  2.8887215E+00;  0.0000000E+00; -1.3366878E-01;0; -4.1755997E-03;  1.3339449E+04;  0.0000000E+00; -1.5025234E-01;  4.0000000E+04;  0.0000000E+00;  3.9614266E+04;  2.4621487E-02;  0.0000000E+00; -2.8797086E-02;  8.2741394E+02;
  8.5937726E-01;  9.9999998E-03;  4.0201291E-02;7421; -7.4949684E-03;  0.0000000E+00; -1.2243157E-03;  9.9958960E+02;  1.7423595E-01; -3.3999036E+02;3;  2.8887711E+00;  0.0000000E+00;  1.3365585E-01;0; -4.1756108E-03;  1.3339448E+04;  0.0000000E+00; -1.5024647E-01;  4.0000000E+04;  0.0000000E+00;  3.9614266E+04;  2.4621483E-02;  0.0000000E+00; -2.8797094E-02;  8.2747357E+02;
  8.5939014E-01;  9.9999998E-03; -5.0255895E-02;7412; -7.4437503E-03;  0.0000000E+00;  1.5255233E-03;  9.9951434E+02;  1.7421901E-01; -4.0235895E+02;3;  2.8894401E+00;  0.0000000E+00; -1.6730724E-01;0; -3.8843323E-03;  1.3338047E+04;  0.0000000E+00; -2.3330410E-01;  4.0000000E+04;  0.0000000E+00;  3.9613844E+04;  2.4538331E-02;  0.0000000E+00; -2.8422663E-02;  1.0217391E+03;
  8.5939008E-01;  9.9999998E-03;  5.0255951E-02;7422; -7.4437675E-03;  0.0000000E+00; -1.5253819E-03;  9.9951422E+02;  1.7421976E-01; -4.0245773E+02;3;  2.8894892E+00;  0.0000000E+00;  1.6728762E-01;0; -3.8843304E-03;  1.3338044E+04;  0.0000000E+00; -2.3329665E-01;  4.0000000E+04;  0.0000000E+00;  3.9613840E+04;  2.4538347E-02;  0.0000000E+00; -2.8422678E-02;  1.0217778E+03;
  8.5941941E-01;  9.9999998E-03; -6.0331129E-02;7411; -7.3841633E-03;  0.0000000E+00;  1.8214795E-03;  9.9945056E+02;  1.7420994E-01; -4.5519696E+02;3;  2.8937345E+00;  0.0000000E+00; -2.0432492E-01;0; -3.4992658E-03;  1.3335052E+04;  0.0000000E+00; -3.3270770E-01;  4.0000000E+04;  0.0000000E+00;  3.9613762E+04;  2.4469938E-02;  0.0000000E+00; -2.7969204E-02;  1.2291591E+03;
  8.5941935E-01;  9.9999998E-03;  6.0331188E-02;7423; -7.3841764E-03;  0.0000000E+00; -1.8213391E-03;  9.9945056E+02;  1.7420989E-01; -4.5519696E+02;3;  2.8938010E+00;  0.0000000E+00;  2.0430659E-01;0; -3.4992862E-03;  1.3335053E+04;  0.0000000E+00; -3.3269483E-01;  4.0000000E+04;  0.0000000E+00;  3.9613750E+04;  2.4469934E-02;  0.0000000E+00; -2.7969221E-02;  1.2291898E+03;
  8.5947555E-01;  9.9999998E-03; -7.0438109E-02;7410; -7.3166722E-03;  0.0000000E+00;  2.1102573E-03;  9.9940833E+02;  1.7421292E-01; -4.9020831E+02;3;  2.8915391E+00;  0.0000000E+00; -2.3848842E-01;0; -3.0057877E-03;  1.3330008E+04;  0.0000000E+00; -4.4405410E-01;  4.0000000E+04;  0.0000000E+00;  3.9614520E+04;  2.4434498E-02;  0.0000000E+00; -2.7440285E-02;  1.4475845E+03;
  8.5955954E-01;  9.9999998E-03; -8.0549352E-02;7409; -7.2404770E-03;  0.0000000E+00;  2.3886547E-03;  9.9939648E+02;  1.7423286E-01; -4.9998581E+02;3;  2.8888776E+00;  0.0000000E+00; -2.7179483E-01;0; -2.3953002E-03;  1.3322472E+04;  0.0000000E+00; -5.5864459E-01;  4.0000000E+04;  0.0000000E+00;  3.9616105E+04;  2.4445646E-02;  0.0000000E+00; -2.6840946E-02;  1.6822288E+03;
  8.5966295E-01;  9.9999998E-03; -9.0633869E-02;7408; -7.1545588E-03;  0.0000000E+00;  2.6540579E-03;  9.9940686E+02;  1.7426679E-01; -4.9139346E+02;3;  2.8822379E+00;  0.0000000E+00; -3.0564547E-01;0; -1.6646571E-03;  1.3313175E+04;  0.0000000E+00; -6.6324365E-01;  4.0000000E+04;  0.0000000E+00;  3.9617789E+04;  2.4511185E-02;  0.0000000E+00; -2.6175842E-02;  1.8998512E+03;
  8.5977519E-01;  9.9999998E-03; -1.0070603E-01;7407; -7.0568193E-03;  0.0000000E+00;  2.9059947E-03;  9.9943677E+02;  1.7430854E-01; -4.6660406E+02;3;  2.8757839E+00;  0.0000000E+00; -3.3745340E-01;0; -8.0969930E-04;  1.3302869E+04;  0.0000000E+00; -7.4283969E-01;  4.0000000E+04;  0.0000000E+00;  3.9618992E+04;  2.4635719E-02;  0.0000000E+00; -2.5445418E-02;  2.0192754E+03;
  8.7687153E-01;  9.9999998E-03; -1.0066479E-02;7477; -7.1615153E-03;  0.0000000E+00;  3.2677077E-04;  1.0003826E+03;  1.8267842E-01;  3.1702805E+02;3;  3.0991535E+00;  0.0000000E+00; -3.4295045E-02;0;  3.2278709E-03;  1.2177897E+04;  0.0000000E+00; -5.5199116E-03;  4.0000000E+04;  0.0000000E+00;  3.9584512E+04;  3.5049964E-02;  0.0000000E+00; -3.1822093E-02;  3.9421234E+02;
  8.7687325E-01;  9.9999998E-03;  2.7535391E-08;7478; -7.1645644E-03;  0.0000000E+00;  7.6790514E-08;  1.0003923E+03;  1.8268086E-01;  3.2502783E+02;3;  3.0985324E+00;  0.0000000E+00;  1.0690070E-05;0;  3.1949580E-03;  1.2178087E+04;  0.0000000E+00; -8.2226434E-11;  4.0000000E+04;  0.0000000E+00;  3.9584570E+04;  3.5054233E-02;  0.0000000E+00; -3.1859275E-02;  3.9286508E+02;
  8.7687153E-01;  9.9999998E-03;  1.0066533E-02;7479; -7.1615227E-03;  0.0000000E+00; -3.2661684E-04;  1.0003825E+03;  1.8267727E-01;  3.1692929E+02;3;  3.0991616E+00;  0.0000000E+00;  3.4315802E-02;0;  3.2278933E-03;  1.2177895E+04;  0.0000000E+00; -5.5191861E-03;  4.0000000E+04;  0.0000000E+00;  3.9584508E+04;  3.5049964E-02;  0.0000000E+00; -3.1822070E-02;  3.9423273E+02;
  8.7686622E-01;  9.9999998E-03; -2.0124204E-02;7476; -7.1529192E-03;  0.0000000E+00;  6.5327593E-04;  1.0003382E+03;  1.8267116E-01;  2.8018958E+02;3;  3.1000772E+00;  0.0000000E+00; -6.9434918E-02;0;  3.3280924E-03;  1.2177273E+04;  0.0000000E+00; -2.2366364E-02;  4.0000000E+04;  0.0000000E+00;  3.9584609E+04;  3.5038181E-02;  0.0000000E+00; -3.1710088E-02;  4.0598920E+02;
  8.7686622E-01;  9.9999998E-03;  2.0124262E-02;7480; -7.1529243E-03;  0.0000000E+00; -6.5312308E-04;  1.0003381E+03;  1.8267068E-01;  2.8009082E+02;3;  3.1000986E+00;  0.0000000E+00;  6.9436044E-02;0;  3.3280887E-03;  1.2177277E+04;  0.0000000E+00; -2.2364540E-02;  4.0000000E+04;  0.0000000E+00;  3.9584609E+04;  3.5038196E-02;  0.0000000E+00; -3.1710107E-02;  4.0601382E+02;
  8.7685812E-01;  9.9999998E-03; -3.0171957E-02;7475; -7.1379780E-03;  0.0000000E+00;  9.7930059E-04;  1.0002734E+03;  1.8265873E-01;  2.2656148E+02;3;  3.0991735E+00;  0.0000000E+00; -1.0592365E-01;0;  3.5005696E-03;  1.2176198E+04;  0.0000000E+00; -5.1408377E-02;  4.0000000E+04;  0.0000000E+00;  3.9584184E+04;  3.5022851E-02;  0.0000000E+00; -3.1522281E-02;  4.4483524E+02;
  8.7685812E-01;  9.9999998E-03;  3.0172016E-02;7481; -7.1379822E-03;  0.0000000E+00; -9.7914855E-04;  1.0002736E+03;  1.8265796E-01;  2.2666023E+02;3;  3.0992012E+00;  0.0000000E+00;  1.0593811E-01;0;  3.5006292E-03;  1.2176197E+04;  0.0000000E+00; -5.1405150E-02;  4.0000000E+04;  0.0000000E+00;  3.9584184E+04;  3.5022877E-02;  0.0000000E+00; -3.1522248E-02;  4.4485922E+02;
  8.7684876E-01;  9.9999998E-03; -4.0214915E-02;7474; -7.1167806E-03;  0.0000000E+00;  1.3044628E-03;  1.0001862E+03;  1.8264259E-01;  1.5426723E+02;3;  3.0940912E+00;  0.0000000E+00; -1.3912089E-01;0;  3.7526153E-03;  1.2174674E+04;  0.0000000E+00; -9.4068982E-02;  4.0000000E+04;  0.0000000E+00;  3.9584027E+04;  3.5009820E-02;  0.0000000E+00; -3.1257205E-02;  5.2094287E+02;
  8.7684876E-01;  9.9999998E-03;  4.0214978E-02;7482; -7.1167988E-03;  0.0000000E+00; -1.3043121E-03;  1.0001861E+03;  1.8264277E-01;  1.5416847E+02;3;  3.0941274E+00;  0.0000000E+00;  1.3911904E-01;0;  3.7525706E-03;  1.2174672E+04;  0.0000000E+00; -9.4065405E-02;  4.0000000E+04;  0.0000000E+00;  3.9584027E+04;  3.5009801E-02;  0.0000000E+00; -3.1257231E-02;  5.2095715E+02;
  8.7683970E-01;  9.9999998E-03; -5.0262216E-02;7473; -7.0890263E-03;  0.0000000E+00;  1.6274046E-03;  1.0000931E+03;  1.8262477E-01;  7.7133614E+01;3;  3.0860035E+00;  0.0000000E+00; -1.7418700E-01;0;  4.0919334E-03;  1.2172638E+04;  0.0000000E+00; -1.5196446E-01;  4.0000000E+04;  0.0000000E+00;  3.9583215E+04;  3.5005186E-02;  0.0000000E+00; -3.0913252E-02;  6.2747198E+02;
  8.7683970E-01;  9.9999998E-03;  5.0262280E-02;7483; -7.0890351E-03;  0.0000000E+00; -1.6272562E-03;  1.0000932E+03;  1.8262464E-01;  7.7232376E+01;3;  3.0860376E+00;  0.0000000E+00;  1.7418285E-01;0;  4.0919948E-03;  1.2172634E+04;  0.0000000E+00; -1.5195988E-01;  4.0000000E+04;  0.0000000E+00;  3.9583211E+04;  3.5005230E-02;  0.0000000E+00; -3.0913236E-02;  6.2747675E+02;
  8.7683576E-01;  9.9999998E-03; -6.0326673E-02;7472; -7.0545701E-03;  0.0000000E+00;  1.9467445E-03;  1.0000101E+03;  1.8260607E-01;  8.2960606E+00;3;  3.0760694E+00;  0.0000000E+00; -2.0806667E-01;0;  4.5276266E-03;  1.2169968E+04;  0.0000000E+00; -2.2574432E-01;  4.0000000E+04;  0.0000000E+00;  3.9583367E+04;  3.5016902E-02;  0.0000000E+00; -3.0489275E-02;  7.4745721E+02;
  8.7683576E-01;  9.9999998E-03;  6.0326744E-02;7484; -7.0545888E-03;  0.0000000E+00; -1.9465977E-03;  1.0000100E+03;  1.8260576E-01;  8.2960606E+00;3;  3.0761082E+00;  0.0000000E+00;  2.0805354E-01;0;  4.5276228E-03;  1.2169971E+04;  0.0000000E+00; -2.2573233E-01;  4.0000000E+04;  0.0000000E+00;  3.9583383E+04;  3.5016928E-02;  0.0000000E+00; -3.0489305E-02;  7.4747620E+02;
  8.7684894E-01;  9.9999998E-03; -7.0420846E-02;7471; -7.0130671E-03;  0.0000000E+00;  2.2605641E-03;  9.9994568E+02;  1.8259536E-01; -4.4986378E+01;3;  3.0660243E+00;  0.0000000E+00; -2.4276057E-01;0;  5.0706528E-03;  1.2165922E+04;  0.0000000E+00; -3.1328851E-01;  4.0000000E+04;  0.0000000E+00;  3.9583777E+04;  3.5056073E-02;  0.0000000E+00; -2.9985420E-02;  8.7457635E+02;
  8.7690079E-01;  9.9999998E-03; -8.0534667E-02;7470; -6.9625140E-03;  0.0000000E+00;  2.5666582E-03;  9.9991315E+02;  1.8260330E-01; -7.1948578E+01;3;  3.0547235E+00;  0.0000000E+00; -2.7531621E-01;0;  5.7338923E-03;  1.2159366E+04;  0.0000000E+00; -4.0818828E-01;  4.0000000E+04;  0.0000000E+00;  3.9584836E+04;  3.5138898E-02;  0.0000000E+00; -2.9405005E-02;  1.0164957E+03;
  8.7701446E-01;  9.9999998E-03; -9.0626910E-02;7469; -6.9008227E-03;  0.0000000E+00;  2.8624900E-03;  9.9990729E+02;  1.8264383E-01; -7.6787949E+01;3;  3.0433815E+00;  0.0000000E+00; -3.0907032E-01;0;  6.5248441E-03;  1.2148970E+04;  0.0000000E+00; -4.9972531E-01;  4.0000000E+04;  0.0000000E+00;  3.9586266E+04;  3.5279270E-02;  0.0000000E+00; -2.8754426E-02;  1.1486224E+03;
  8.7716132E-01;  9.9999998E-03; -1.0069507E-01;7468; -6.8262429E-03;  0.0000000E+00;  3.1469215E-03;  9.9992877E+02;  1.8270196E-01; -5.9010674E+01;3;  3.0283632E+00;  0.0000000E+00; -3.4144023E-01;0;  7.4214526E-03;  1.2136655E+04;  0.0000000E+00; -5.7553995E-01;  4.0000000E+04;  0.0000000E+00;  3.9586660E+04;  3.5451334E-02;  0.0000000E+00; -2.8029881E-02;  1.1941844E+03;
  8.9617437E-01;  9.9999998E-03; -1.0061821E-01;7529; -6.2761526E-03;  0.0000000E+00;  3.4096050E-03;  9.9992523E+02;  1.9209528E-01; -6.1924171E+01;3;  3.2684751E+00;  0.0000000E+00; -3.1048441E-01;0;  1.9787852E-02;  1.0987501E+04;  0.0000000E+00; -3.9444157E-01;  4.0000000E+04;  0.0000000E+00;  3.9551410E+04;  5.0720830E-02;  0.0000000E+00; -3.0932978E-02;  9.0671188E+01;
  8.9607537E-01;  9.9999998E-03; -9.0565301E-02;7530; -6.3369963E-03;  0.0000000E+00;  3.0873781E-03;  9.9990192E+02;  1.9206275E-01; -8.1281647E+01;3;  3.2675574E+00;  0.0000000E+00; -2.8328806E-01;0;  1.8872056E-02;  1.0995493E+04;  0.0000000E+00; -3.1837216E-01;  4.0000000E+04;  0.0000000E+00;  3.9551617E+04;  5.0518852E-02;  0.0000000E+00; -3.1646796E-02;  1.1623026E+02;
  8.9594305E-01;  9.9999998E-03; -8.0486812E-02;7531; -6.3847746E-03;  0.0000000E+00;  2.7559728E-03;  9.9989746E+02;  1.9201685E-01; -8.4935860E+01;3;  3.2737694E+00;  0.0000000E+00; -2.6044869E-01;0;  1.7971985E-02;  1.1005534E+04;  0.0000000E+00; -2.4259141E-01;  4.0000000E+04;  0.0000000E+00;  3.9550863E+04;  5.0238233E-02;  0.0000000E+00; -3.2266248E-02;  1.4209059E+02;
  8.9579821E-01;  9.9999998E-03; -7.0379563E-02;7532; -6.4199697E-03;  0.0000000E+00;  2.4165141E-03;  9.9992517E+02;  1.9196445E-01; -6.1973553E+01;3;  3.2848399E+00;  0.0000000E+00; -2.3352100E-01;0;  1.7127704E-02;  1.1016340E+04;  0.0000000E+00; -1.7287309E-01;  4.0000000E+04;  0.0000000E+00;  3.9550211E+04;  4.9924552E-02;  0.0000000E+00; -3.2796849E-02;  2.2057774E+02;
  8.9565235E-01;  9.9999998E-03; -6.0292311E-02;7533; -6.4449389E-03;  0.0000000E+00;  2.0725257E-03;  9.9998053E+02;  1.9190937E-01; -1.6147690E+01;3;  3.2981143E+00;  0.0000000E+00; -2.0297283E-01;0;  1.6370922E-02;  1.1027282E+04;  0.0000000E+00; -1.1450254E-01;  4.0000000E+04;  0.0000000E+00;  3.9550000E+04;  4.9611196E-02;  0.0000000E+00; -3.3240274E-02;  2.7275909E+02;
  8.9551288E-01;  9.9999998E-03; -5.0236259E-02;7534; -6.4618960E-03;  0.0000000E+00;  1.7265097E-03;  1.0000515E+03;  1.9185476E-01;  4.2665459E+01;3;  3.3109856E+00;  0.0000000E+00; -1.7121693E-01;0;  1.5719708E-02;  1.1037792E+04;  0.0000000E+00; -6.9902733E-02;  4.0000000E+04;  0.0000000E+00;  3.9550258E+04;  4.9320832E-02;  0.0000000E+00; -3.3601124E-02;  2.7485178E+02;
  8.9538503E-01;  9.9999998E-03; -4.0196683E-02;7535; -6.4719454E-03;  0.0000000E+00;  1.3799355E-03;  1.0001335E+03;  1.9180420E-01;  1.1061415E+02;3;  3.3239408E+00;  0.0000000E+00; -1.4076014E-01;0;  1.5182454E-02;  1.1047476E+04;  0.0000000E+00; -3.8704604E-02;  4.0000000E+04;  0.0000000E+00;  3.9550785E+04;  4.9067840E-02;  0.0000000E+00; -3.3885386E-02;  2.5439023E+02;
  8.9527559E-01;  9.9999998E-03; -3.0160461E-02;7536; -6.4769699E-03;  0.0000000E+00;  1.0338629E-03;  1.0002071E+03;  1.9175810E-01;  1.7155069E+02;3;  3.3347685E+00;  0.0000000E+00; -1.0779257E-01;0;  1.4763650E-02;  1.1055716E+04;  0.0000000E+00; -1.8729830E-02;  4.0000000E+04;  0.0000000E+00;  3.9551191E+04;  4.8862536E-02;  0.0000000E+00; -3.4098886E-02;  2.4244473E+02;
  8.9519131E-01;  9.9999998E-03; -2.0117158E-02;7537; -6.4785872E-03;  0.0000000E+00;  6.8867172E-04;  1.0002637E+03;  1.9172210E-01;  2.1846294E+02;3;  3.3438385E+00;  0.0000000E+00; -7.0895456E-02;0;  1.4465123E-02;  1.1062078E+04;  0.0000000E+00; -7.2375168E-03;  4.0000000E+04;  0.0000000E+00;  3.9551219E+04;  4.8712015E-02;  0.0000000E+00; -3.4246892E-02;  2.5178004E+02;
  8.9513832E-01;  9.9999998E-03; -1.0062918E-02;7538; -6.4783464E-03;  0.0000000E+00;  3.4422564E-04;  1.0003011E+03;  1.9170003E-01;  2.4947441E+02;3;  3.3491089E+00;  0.0000000E+00; -3.4175914E-02;0;  1.4286749E-02;  1.1066028E+04;  0.0000000E+00; -1.6302117E-03;  4.0000000E+04;  0.0000000E+00;  3.9551211E+04;  4.8620604E-02;  0.0000000E+00; -3.4333855E-02;  2.7191751E+02;
  8.9512020E-01;  9.9999998E-03;  2.7633712E-08;7539; -6.4781541E-03;  0.0000000E+00;  8.2375252E-08;  1.0003125E+03;  1.9169252E-01;  2.5885684E+02;3;  3.3502748E+00;  0.0000000E+00;  2.2365028E-05;0;  1.4227450E-02;  1.1067360E+04;  0.0000000E+00;  5.1135962E-13;  4.0000000E+04;  0.0000000E+00;  3.9551129E+04;  4.8589937E-02;  0.0000000E+00; -3.4362487E-02;  2.8205881E+02;
  8.9513832E-01;  9.9999998E-03;  1.0062974E-02;7540; -6.4783380E-03;  0.0000000E+00; -3.4406019E-04;  1.0003011E+03;  1.9169925E-01;  2.4947441E+02;3;  3.3491211E+00;  0.0000000E+00;  3.4214444E-02;0;  1.4286779E-02;  1.1066032E+04;  0.0000000E+00; -1.6285443E-03;  4.0000000E+04;  0.0000000E+00;  3.9551211E+04;  4.8620604E-02;  0.0000000E+00; -3.4333825E-02;  2.7195117E+02;
  8.9519131E-01;  9.9999998E-03;  2.0117214E-02;7541; -6.4785867E-03;  0.0000000E+00; -6.8850804E-04;  1.0002637E+03;  1.9172157E-01;  2.1846294E+02;3;  3.3438447E+00;  0.0000000E+00;  7.0930026E-02;0;  1.4465161E-02;  1.1062078E+04;  0.0000000E+00; -7.2341794E-03;  4.0000000E+04;  0.0000000E+00;  3.9551219E+04;  4.8712056E-02;  0.0000000E+00; -3.4246895E-02;  2.5181058E+02;
  8.9527559E-01;  9.9999998E-03;  3.0160515E-02;7542; -6.4769648E-03;  0.0000000E+00; -1.0337007E-03;  1.0002072E+03;  1.9175796E-01;  1.7164946E+02;3;  3.3347735E+00;  0.0000000E+00;  1.0782044E-01;0;  1.4763694E-02;  1.1055717E+04;  0.0000000E+00; -1.8724011E-02;  4.0000000E+04;  0.0000000E+00;  3.9551191E+04;  4.8862565E-02;  0.0000000E+00; -3.4098871E-02;  2.4247617E+02;
  8.9538503E-01;  9.9999998E-03;  4.0196739E-02;7543; -6.4719273E-03;  0.0000000E+00; -1.3797763E-03;  1.0001338E+03;  1.9180343E-01;  1.1081168E+02;3;  3.3239305E+00;  0.0000000E+00;  1.4076662E-01;0;  1.5182458E-02;  1.1047477E+04;  0.0000000E+00; -3.8698290E-02;  4.0000000E+04;  0.0000000E+00;  3.9550793E+04;  4.9067851E-02;  0.0000000E+00; -3.3885393E-02;  2.5448207E+02;
  8.9551288E-01;  9.9999998E-03;  5.0236315E-02;7544; -6.4618927E-03;  0.0000000E+00; -1.7263518E-03;  1.0000516E+03;  1.9185513E-01;  4.2764221E+01;3;  3.3109901E+00;  0.0000000E+00;  1.7121415E-01;0;  1.5719723E-02;  1.1037796E+04;  0.0000000E+00; -6.9898255E-02;  4.0000000E+04;  0.0000000E+00;  3.9550254E+04;  4.9320862E-02;  0.0000000E+00; -3.3601139E-02;  2.7492038E+02;
  8.9565235E-01;  9.9999998E-03;  6.0292371E-02;7545; -6.4449478E-03;  0.0000000E+00; -2.0723694E-03;  9.9998059E+02;  1.9191025E-01; -1.6098309E+01;3;  3.2981253E+00;  0.0000000E+00;  2.0296457E-01;0;  1.6370960E-02;  1.1027281E+04;  0.0000000E+00; -1.1449427E-01;  4.0000000E+04;  0.0000000E+00;  3.9549996E+04;  4.9611226E-02;  0.0000000E+00; -3.3240266E-02;  2.7273505E+02;
  9.1563123E-01;  9.9999998E-03; -1.0053300E-01;7590; -5.2700001E-03;  0.0000000E+00;  3.7059293E-03;  9.9930347E+02;  2.0211065E-01; -5.7707007E+02;3;  3.7226093E+00;  0.0000000E+00; -2.8096020E-01;0;  3.4749839E-02;  9.9190156E+03;  0.0000000E+00; -2.5869584E-01;  4.0000000E+04;  0.0000000E+00;  3.9515035E+04;  6.8518542E-02;  0.0000000E+00; -3.3768702E-02;  1.1986960E+03;
  9.1566980E-01;  9.9999998E-03; -9.0472974E-02;7591; -5.3452621E-03;  0.0000000E+00;  3.3430581E-03;  9.9926825E+02;  2.0214443E-01; -6.0625439E+02;3;  3.7147532E+00;  0.0000000E+00; -2.5672245E-01;0;  3.3832256E-02;  9.9189062E+03;  0.0000000E+00; -1.8078874E-01;  4.0000000E+04;  0.0000000E+00;  3.9514555E+04;  6.8315953E-02;  0.0000000E+00; -3.4483697E-02;  1.0454590E+03;
  9.1566706E-01;  9.9999998E-03; -8.0395453E-02;7592; -5.4067858E-03;  0.0000000E+00;  2.9734566E-03;  9.9925714E+02;  2.0215556E-01; -6.1543933E+02;3;  3.7102044E+00;  0.0000000E+00; -2.2514634E-01;0;  3.2883316E-02;  9.9214678E+03;  0.0000000E+00; -1.2204326E-01;  4.0000000E+04;  0.0000000E+00;  3.9513621E+04;  6.7982912E-02;  0.0000000E+00; -3.5099596E-02;  8.5783722E+02;
  9.1563362E-01;  9.9999998E-03; -7.0306554E-02;7593; -5.4542376E-03;  0.0000000E+00;  2.5985362E-03;  9.9927393E+02;  2.0214795E-01; -6.0156317E+02;3;  3.6994030E+00;  0.0000000E+00; -1.9983713E-01;0;  3.1951915E-02;  9.9258535E+03;  0.0000000E+00; -7.8910902E-02;  4.0000000E+04;  0.0000000E+00;  3.9512824E+04;  6.7572348E-02;  0.0000000E+00; -3.5620432E-02;  6.8281799E+02;
  9.1557497E-01;  9.9999998E-03; -6.0225889E-02;7594; -5.4877629E-03;  0.0000000E+00;  2.2215629E-03;  9.9931122E+02;  2.0212045E-01; -5.7065051E+02;3;  3.6951933E+00;  0.0000000E+00; -1.7546843E-01;0;  3.1079393E-02;  9.9317129E+03;  0.0000000E+00; -4.8042428E-02;  4.0000000E+04;  0.0000000E+00;  3.9512688E+04;  6.7128800E-02;  0.0000000E+00; -3.6049407E-02;  5.3509778E+02;
  9.1549236E-01;  9.9999998E-03; -5.0170444E-02;7595; -5.5101020E-03;  0.0000000E+00;  1.8453655E-03;  9.9935736E+02;  2.0207667E-01; -5.3242932E+02;3;  3.6952217E+00;  0.0000000E+00; -1.5112908E-01;0;  3.0294951E-02;  9.9387617E+03;  0.0000000E+00; -2.6805660E-02;  4.0000000E+04;  0.0000000E+00;  3.9512824E+04;  6.6686198E-02;  0.0000000E+00; -3.6391247E-02;  4.0756241E+02;
  9.1539413E-01;  9.9999998E-03; -4.0139183E-02;7596; -5.5238632E-03;  0.0000000E+00;  1.4715963E-03;  9.9940723E+02;  2.0202400E-01; -4.9109720E+02;3;  3.7009022E+00;  0.0000000E+00; -1.2290709E-01;0;  2.9622044E-02;  9.9462881E+03;  0.0000000E+00; -1.3160613E-02;  4.0000000E+04;  0.0000000E+00;  3.9513309E+04;  6.6275693E-02;  0.0000000E+00; -3.6653649E-02;  3.0427045E+02;
  9.1529244E-01;  9.9999998E-03; -3.0117093E-02;7597; -5.5313902E-03;  0.0000000E+00;  1.1006001E-03;  9.9944763E+02;  2.0196876E-01; -4.5761664E+02;3;  3.7074690E+00;  0.0000000E+00; -9.3618780E-02;0;  2.9077999E-02;  9.9535176E+03;  0.0000000E+00; -5.3405217E-03;  4.0000000E+04;  0.0000000E+00;  3.9513559E+04;  6.5923333E-02;  0.0000000E+00; -3.6845334E-02;  2.4348547E+02;
  9.1520339E-01;  9.9999998E-03; -2.0090997E-02;7598; -5.5347839E-03;  0.0000000E+00;  7.3223363E-04;  9.9947266E+02;  2.0191830E-01; -4.3687650E+02;3;  3.7140245E+00;  0.0000000E+00; -6.3147634E-02;0;  2.8677762E-02;  9.9594229E+03;  0.0000000E+00; -1.6180950E-03;  4.0000000E+04;  0.0000000E+00;  3.9513719E+04;  6.5652512E-02;  0.0000000E+00; -3.6974750E-02;  2.3417416E+02;
  9.1514254E-01;  9.9999998E-03; -1.0051655E-02;7599; -5.5357679E-03;  0.0000000E+00;  3.6573861E-04;  9.9948798E+02;  2.0188560E-01; -4.2418552E+02;3;  3.7193522E+00;  0.0000000E+00; -3.1809740E-02;0;  2.8432705E-02;  9.9634316E+03;  0.0000000E+00; -2.7928955E-04;  4.0000000E+04;  0.0000000E+00;  3.9513480E+04;  6.5481871E-02;  0.0000000E+00; -3.7049167E-02;  2.5392957E+02;
  9.1512108E-01;  9.9999998E-03;  3.0682468E-08;7600; -5.5359174E-03;  0.0000000E+00;  8.6562295E-08;  9.9949060E+02;  2.0187350E-01; -4.2201273E+02;3;  3.7214053E+00;  0.0000000E+00;  2.5132154E-05;0;  2.8350394E-02;  9.9648086E+03;  0.0000000E+00;  1.1506999E-10;  4.0000000E+04;  0.0000000E+00;  3.9513570E+04;  6.5423839E-02;  0.0000000E+00; -3.7073445E-02;  2.6590222E+02;
  9.1514254E-01;  9.9999998E-03;  1.0051715E-02;7601; -5.5357544E-03;  0.0000000E+00; -3.6556527E-04;  9.9948792E+02;  2.0188569E-01; -4.2423489E+02;3;  3.7193506E+00;  0.0000000E+00;  3.1862985E-02;0;  2.8432727E-02;  9.9634297E+03;  0.0000000E+00; -2.7653729E-04;  4.0000000E+04;  0.0000000E+00;  3.9513484E+04;  6.5481894E-02;  0.0000000E+00; -3.7049167E-02;  2.5393822E+02;
  9.1520345E-01;  9.9999998E-03;  2.0091055E-02;7602; -5.5347523E-03;  0.0000000E+00; -7.3206087E-04;  9.9947278E+02;  2.0191811E-01; -4.3677774E+02;3;  3.7140222E+00;  0.0000000E+00;  6.3189916E-02;0;  2.8677694E-02;  9.9594199E+03;  0.0000000E+00; -1.6132338E-03;  4.0000000E+04;  0.0000000E+00;  3.9513719E+04;  6.5652452E-02;  0.0000000E+00; -3.6974758E-02;  2.3422905E+02;
  9.1529244E-01;  9.9999998E-03;  3.0117150E-02;7603; -5.5313529E-03;  0.0000000E+00; -1.1004291E-03;  9.9944775E+02;  2.0196845E-01; -4.5751788E+02;3;  3.7074637E+00;  0.0000000E+00;  9.3653165E-02;0;  2.9077884E-02;  9.9535186E+03;  0.0000000E+00; -5.3346525E-03;  4.0000000E+04;  0.0000000E+00;  3.9513559E+04;  6.5923229E-02;  0.0000000E+00; -3.6845345E-02;  2.4354372E+02;
  9.1539413E-01;  9.9999998E-03;  4.0139239E-02;7604; -5.5238260E-03;  0.0000000E+00; -1.4714256E-03;  9.9940723E+02;  2.0202400E-01; -4.9109720E+02;3;  3.7008960E+00;  0.0000000E+00;  1.2292491E-01;0;  2.9621884E-02;  9.9462832E+03;  0.0000000E+00; -1.3153072E-02;  4.0000000E+04;  0.0000000E+00;  3.9513297E+04;  6.6275559E-02;  0.0000000E+00; -3.6653675E-02;  3.0434372E+02;
  9.1549236E-01;  9.9999998E-03;  5.0170504E-02;7605; -5.5100657E-03;  0.0000000E+00; -1.8451968E-03;  9.9935748E+02;  2.0207827E-01; -5.3233057E+02;3;  3.6952178E+00;  0.0000000E+00;  1.5114295E-01;0;  3.0294858E-02;  9.9387568E+03;  0.0000000E+00; -2.6799118E-02;  4.0000000E+04;  0.0000000E+00;  3.9512828E+04;  6.6686131E-02;  0.0000000E+00; -3.6391273E-02;  4.0759308E+02;
  9.1557497E-01;  9.9999998E-03;  6.0225949E-02;7606; -5.4877368E-03;  0.0000000E+00; -2.2213950E-03;  9.9931140E+02;  2.0212132E-01; -5.7050232E+02;3;  3.6951866E+00;  0.0000000E+00;  1.7548323E-01;0;  3.1079367E-02;  9.9317080E+03;  0.0000000E+00; -4.8035052E-02;  4.0000000E+04;  0.0000000E+00;  3.9512680E+04;  6.7128763E-02;  0.0000000E+00; -3.6049396E-02;  5.3514655E+02;
  9.3756121E-01;  9.9999998E-03; -1.0077039E-01;7651; -3.5430095E-03;  0.0000000E+00;  4.0893448E-03;  9.9908002E+02;  2.1385376E-01; -7.6220062E+02;3;  4.3603582E+00;  0.0000000E+00; -1.9310978E-01;0;  5.1044282E-02;  8.8615156E+03;  0.0000000E+00; -1.8434390E-01;  4.0000000E+04;  0.0000000E+00;  3.9474656E+04;  8.7579459E-02;  0.0000000E+00; -3.6535177E-02;  2.4701548E+03;
  9.3768638E-01;  9.9999998E-03; -9.0719394E-02;7652; -3.6752399E-03;  0.0000000E+00;  3.6847056E-03;  9.9904016E+02;  2.1394137E-01; -7.9518732E+02;3;  4.3286848E+00;  0.0000000E+00; -1.6701442E-01;0;  4.9925275E-02;  8.8558652E+03;  0.0000000E+00; -9.7130038E-02;  4.0000000E+04;  0.0000000E+00;  3.9472914E+04;  8.7183520E-02;  0.0000000E+00; -3.7258245E-02;  2.2909443E+03;
  9.3771380E-01;  9.9999998E-03; -8.0651715E-02;7653; -3.8050232E-03;  0.0000000E+00;  3.2726165E-03;  9.9900781E+02;  2.1397349E-01; -8.2200140E+02;3;  4.2962222E+00;  0.0000000E+00; -1.4722744E-01;0;  4.8756734E-02;  8.8551494E+03;  0.0000000E+00; -4.6856191E-02;  4.0000000E+04;  0.0000000E+00;  3.9471562E+04;  8.6640753E-02;  0.0000000E+00; -3.7884019E-02;  1.9399033E+03;
  9.3766546E-01;  9.9999998E-03; -7.0565470E-02;7654; -3.9215437E-03;  0.0000000E+00;  2.8559724E-03;  9.9899121E+02;  2.1395503E-01; -8.3577875E+02;3;  4.2667427E+00;  0.0000000E+00; -1.3377905E-01;0;  4.7596052E-02;  8.8580312E+03;  0.0000000E+00; -2.3449477E-02;  4.0000000E+04;  0.0000000E+00;  3.9470270E+04;  8.6011611E-02;  0.0000000E+00; -3.8415559E-02;  1.5241606E+03;
  9.3756902E-01;  9.9999998E-03; -6.0480230E-02;7655; -4.0155132E-03;  0.0000000E+00;  2.4389441E-03;  9.9897272E+02;  2.1390797E-01; -8.5108698E+02;3;  4.2397003E+00;  0.0000000E+00; -1.1865587E-01;0;  4.6501320E-02;  8.8633262E+03;  0.0000000E+00; -1.4938575E-02;  4.0000000E+04;  0.0000000E+00;  3.9469531E+04;  8.5357271E-02;  0.0000000E+00; -3.8855951E-02;  1.1336830E+03;
  9.3743896E-01;  9.9999998E-03; -5.0396703E-02;7656; -4.0848721E-03;  0.0000000E+00;  2.0240468E-03;  9.9895538E+02;  2.1383262E-01; -8.6545691E+02;3;  4.2161970E+00;  0.0000000E+00; -1.0449474E-01;0;  4.5512646E-02;  8.8701318E+03;  0.0000000E+00; -1.1995924E-02;  4.0000000E+04;  0.0000000E+00;  3.9469684E+04;  8.4722169E-02;  0.0000000E+00; -3.9209522E-02;  8.1666010E+02;
  9.3730170E-01;  9.9999998E-03; -4.0318701E-02;7657; -4.1304012E-03;  0.0000000E+00;  1.6130325E-03;  9.9894037E+02;  2.1375206E-01; -8.7790100E+02;3;  4.2029972E+00;  0.0000000E+00; -8.2205690E-02;0;  4.4668403E-02;  8.8771758E+03;  0.0000000E+00; -9.6941115E-03;  4.0000000E+04;  0.0000000E+00;  3.9470230E+04;  8.4152102E-02;  0.0000000E+00; -3.9483700E-02;  5.8886493E+02;
  9.3718046E-01;  9.9999998E-03; -3.0246433E-02;7658; -4.1558119E-03;  0.0000000E+00;  1.2058103E-03;  9.9892010E+02;  2.1367694E-01; -8.9469067E+02;3;  4.1935997E+00;  0.0000000E+00; -6.1440498E-02;0;  4.3995980E-02;  8.8833340E+03;  0.0000000E+00; -6.6860588E-03;  4.0000000E+04;  0.0000000E+00;  3.9470543E+04;  8.3682820E-02;  0.0000000E+00; -3.9686840E-02;  4.4927206E+02;
  9.3708211E-01;  9.9999998E-03; -2.0174269E-02;7659; -4.1678455E-03;  0.0000000E+00;  8.0197508E-04;  9.9889795E+02;  2.1361400E-01; -9.1301117E+02;3;  4.1903415E+00;  0.0000000E+00; -4.3555371E-02;0;  4.3506593E-02;  8.8882764E+03;  0.0000000E+00; -3.4450346E-03;  4.0000000E+04;  0.0000000E+00;  3.9471125E+04;  8.3332062E-02;  0.0000000E+00; -3.9825469E-02;  3.8495410E+02;
  9.3701756E-01;  9.9999998E-03; -1.0093020E-02;7660; -4.1722171E-03;  0.0000000E+00;  4.0057403E-04;  9.9887848E+02;  2.1357404E-01; -9.2915881E+02;3;  4.1898499E+00;  0.0000000E+00; -2.2575928E-02;0;  4.3209191E-02;  8.8914863E+03;  0.0000000E+00; -9.4149186E-04;  4.0000000E+04;  0.0000000E+00;  3.9471449E+04;  8.3115026E-02;  0.0000000E+00; -3.9905835E-02;  3.6772305E+02;
  9.3699461E-01;  9.9999998E-03;  3.4052871E-08;7661; -4.1732462E-03;  0.0000000E+00;  8.6883212E-08;  9.9887299E+02;  2.1355975E-01; -9.3370190E+02;3;  4.1897893E+00;  0.0000000E+00;  1.9230507E-05;0;  4.3109205E-02;  8.8926182E+03;  0.0000000E+00;  1.4513267E-10;  4.0000000E+04;  0.0000000E+00;  3.9471285E+04;  8.3041273E-02;  0.0000000E+00; -3.9932068E-02;  3.6654239E+02;
  9.3701756E-01;  9.9999998E-03;  1.0093088E-02;7662; -4.1721961E-03;  0.0000000E+00; -4.0040020E-04;  9.9887823E+02;  2.1357359E-01; -9.2935638E+02;3;  4.1898489E+00;  0.0000000E+00;  2.2616327E-02;0;  4.3209191E-02;  8.8914863E+03;  0.0000000E+00; -9.3972188E-04;  4.0000000E+04;  0.0000000E+00;  3.9471449E+04;  8.3115004E-02;  0.0000000E+00; -3.9905813E-02;  3.6773816E+02;
  9.3708211E-01;  9.9999998E-03;  2.0174334E-02;7663; -4.1678147E-03;  0.0000000E+00; -8.0180162E-04;  9.9889777E+02;  2.1361414E-01; -9.1315930E+02;3;  4.1903315E+00;  0.0000000E+00;  4.3589335E-02;0;  4.3506470E-02;  8.8882764E+03;  0.0000000E+00; -3.4417256E-03;  4.0000000E+04;  0.0000000E+00;  3.9471121E+04;  8.3331950E-02;  0.0000000E+00; -3.9825480E-02;  3.8494345E+02;
  9.3718046E-01;  9.9999998E-03;  3.0246494E-02;7664; -4.1557802E-03;  0.0000000E+00; -1.2056368E-03;  9.9892010E+02;  2.1367694E-01; -8.9469067E+02;3;  4.1935797E+00;  0.0000000E+00;  6.1472293E-02;0;  4.3995716E-02;  8.8833330E+03;  0.0000000E+00; -6.6824360E-03;  4.0000000E+04;  0.0000000E+00;  3.9470539E+04;  8.3682582E-02;  0.0000000E+00; -3.9686866E-02;  4.4930200E+02;
  9.3730170E-01;  9.9999998E-03;  4.0318765E-02;7665; -4.1303607E-03;  0.0000000E+00; -1.6128583E-03;  9.9894025E+02;  2.1375221E-01; -8.7799982E+02;3;  4.2029748E+00;  0.0000000E+00;  8.2231276E-02;0;  4.4668119E-02;  8.8771758E+03;  0.0000000E+00; -9.6924538E-03;  4.0000000E+04;  0.0000000E+00;  3.9470219E+04;  8.4151842E-02;  0.0000000E+00; -3.9483722E-02;  5.8887213E+02;
  9.3743902E-01;  9.9999998E-03;  5.0396763E-02;7666; -4.0848241E-03;  0.0000000E+00; -2.0238711E-03;  9.9895514E+02;  2.1383323E-01; -8.6565448E+02;3;  4.2161827E+00;  0.0000000E+00;  1.0451639E-01;0;  4.5512453E-02;  8.8701328E+03;  0.0000000E+00; -1.1996082E-02;  4.0000000E+04;  0.0000000E+00;  3.9469691E+04;  8.4721982E-02;  0.0000000E+00; -3.9209530E-02;  8.1665454E+02;
  9.3756908E-01;  9.9999998E-03;  6.0480289E-02;7667; -4.0154788E-03;  0.0000000E+00; -2.4387690E-03;  9.9897284E+02;  2.1390826E-01; -8.5098822E+02;3;  4.2396865E+00;  0.0000000E+00;  1.1866469E-01;0;  4.6501108E-02;  8.8633281E+03;  0.0000000E+00; -1.4939645E-02;  4.0000000E+04;  0.0000000E+00;  3.9469531E+04;  8.5357033E-02;  0.0000000E+00; -3.8855925E-02;  1.1336987E+03;
  9.5984614E-01;  9.9999998E-03; -1.0083913E-01;7712; -8.4743433E-04;  0.0000000E+00;  4.4536395E-03;  9.9927905E+02;  2.2637635E-01; -5.9726697E+02;3;  5.2961349E+00;  0.0000000E+00; -1.5914249E-01;0;  6.1655104E-02;  7.9182764E+03;  0.0000000E+00; -2.0638621E-01;  4.0000000E+04;  0.0000000E+00;  3.9431750E+04;  1.0048649E-01;  0.0000000E+00; -3.8831383E-02;  3.4258040E+03;
  9.5993680E-01;  9.9999998E-03; -9.0766162E-02;7713; -1.0744897E-03;  0.0000000E+00;  4.0315031E-03;  9.9926007E+02;  2.2644012E-01; -6.1301959E+02;3;  5.2481694E+00;  0.0000000E+00; -1.5200363E-01;0;  6.0061503E-02;  7.9143086E+03;  0.0000000E+00; -9.5411755E-02;  4.0000000E+04;  0.0000000E+00;  3.9429699E+04;  9.9641509E-02;  0.0000000E+00; -3.9580006E-02;  3.3751091E+03;
  9.5994449E-01;  9.9999998E-03; -8.0684856E-02;7714; -1.2934834E-03;  0.0000000E+00;  3.5980400E-03;  9.9924121E+02;  2.2645108E-01; -6.2862408E+02;3;  5.2079673E+00;  0.0000000E+00; -1.3274330E-01;0;  5.8569625E-02;  7.9140933E+03;  0.0000000E+00; -3.1558413E-02;  4.0000000E+04;  0.0000000E+00;  3.9427801E+04;  9.8819040E-02;  0.0000000E+00; -4.0249415E-02;  3.0260237E+03;
  9.5989788E-01;  9.9999998E-03; -7.0588216E-02;7715; -1.4852817E-03;  0.0000000E+00;  3.1528433E-03;  9.9922809E+02;  2.2642414E-01; -6.3953735E+02;3;  5.1682611E+00;  0.0000000E+00; -1.1478446E-01;0;  5.7203203E-02;  7.9164482E+03;  0.0000000E+00; -5.1383483E-03;  4.0000000E+04;  0.0000000E+00;  3.9426199E+04;  9.8042376E-02;  0.0000000E+00; -4.0839173E-02;  2.4987893E+03;
  9.5981455E-01;  9.9999998E-03; -6.0484581E-02;7716; -1.6369999E-03;  0.0000000E+00;  2.6995135E-03;  9.9921521E+02;  2.2636850E-01; -6.5020374E+02;3;  5.1388993E+00;  0.0000000E+00; -9.8448098E-02;0;  5.5982359E-02;  7.9205586E+03;  0.0000000E+00; -3.7763144E-05;  4.0000000E+04;  0.0000000E+00;  3.9425672E+04;  9.7329028E-02;  0.0000000E+00; -4.1346669E-02;  1.9228976E+03;
  9.5972228E-01;  9.9999998E-03; -5.0389577E-02;7717; -1.7417659E-03;  0.0000000E+00;  2.2431710E-03;  9.9920459E+02;  2.2630379E-01; -6.5899359E+02;3;  5.1316056E+00;  0.0000000E+00; -8.0325738E-02;0;  5.4927163E-02;  7.9251006E+03;  0.0000000E+00; -2.4762705E-03;  4.0000000E+04;  0.0000000E+00;  3.9426320E+04;  9.6698590E-02;  0.0000000E+00; -4.1771427E-02;  1.3920513E+03;
  9.5964080E-01;  9.9999998E-03; -4.0303092E-02;7718; -1.8028123E-03;  0.0000000E+00;  1.7874914E-03;  9.9919061E+02;  2.2624078E-01; -6.7054883E+02;3;  5.1401443E+00;  0.0000000E+00; -6.1765403E-02;0;  5.4051142E-02;  7.9291709E+03;  0.0000000E+00; -4.7716070E-03;  4.0000000E+04;  0.0000000E+00;  3.9427219E+04;  9.6166149E-02;  0.0000000E+00; -4.2115007E-02;  9.5375922E+02;
  9.5957583E-01;  9.9999998E-03; -3.0223792E-02;7719; -1.8318646E-03;  0.0000000E+00;  1.3353527E-03;  9.9917853E+02;  2.2618656E-01; -6.8057324E+02;3;  5.1548462E+00;  0.0000000E+00; -4.3909125E-02;0;  5.3363096E-02;  7.9325278E+03;  0.0000000E+00; -4.6754251E-03;  4.0000000E+04;  0.0000000E+00;  3.9428422E+04;  9.5742047E-02;  0.0000000E+00; -4.2378951E-02;  6.2806738E+02;
  9.5952624E-01;  9.9999998E-03; -2.0149162E-02;7720; -1.8407237E-03;  0.0000000E+00;  8.8762416E-04;  9.9916382E+02;  2.2614424E-01; -6.9277045E+02;3;  5.1696768E+00;  0.0000000E+00; -2.6396275E-02;0;  5.2867994E-02;  7.9350381E+03;  0.0000000E+00; -2.8223293E-03;  4.0000000E+04;  0.0000000E+00;  3.9429453E+04;  9.5432930E-02;  0.0000000E+00; -4.2564936E-02;  4.1992673E+02;
  9.5949507E-01;  9.9999998E-03; -1.0075488E-02;7721; -1.8402368E-03;  0.0000000E+00;  4.4315387E-04;  9.9915076E+02;  2.2611763E-01; -7.0358496E+02;3;  5.1816211E+00;  0.0000000E+00; -1.1118801E-02;0;  5.2569274E-02;  7.9366172E+03;  0.0000000E+00; -8.2226424E-04;  4.0000000E+04;  0.0000000E+00;  3.9430098E+04;  9.5244594E-02;  0.0000000E+00; -4.2675320E-02;  3.1823929E+02;
  9.5948428E-01;  9.9999998E-03;  3.4835626E-08;7722; -1.8387842E-03;  0.0000000E+00;  8.4208878E-08;  9.9914410E+02;  2.2610785E-01; -7.0911566E+02;3;  5.1842022E+00;  0.0000000E+00;  1.5229459E-06;0;  5.2469395E-02;  7.9371597E+03;  0.0000000E+00;  7.4975321E-12;  4.0000000E+04;  0.0000000E+00;  3.9430047E+04;  9.5181279E-02;  0.0000000E+00; -4.2711884E-02;  2.9139276E+02;
  9.5949507E-01;  9.9999998E-03;  1.0075559E-02;7723; -1.8402473E-03;  0.0000000E+00; -4.4298454E-04;  9.9915070E+02;  2.2611780E-01; -7.0363434E+02;3;  5.1816063E+00;  0.0000000E+00;  1.1124825E-02;0;  5.2569233E-02;  7.9366187E+03;  0.0000000E+00; -8.2517258E-04;  4.0000000E+04;  0.0000000E+00;  3.9430094E+04;  9.5244534E-02;  0.0000000E+00; -4.2675301E-02;  3.1822867E+02;
  9.5952618E-01;  9.9999998E-03;  2.0149231E-02;7724; -1.8407768E-03;  0.0000000E+00; -8.8745385E-04;  9.9916394E+02;  2.2614533E-01; -6.9267169E+02;3;  5.1696415E+00;  0.0000000E+00;  2.6400955E-02;0;  5.2867886E-02;  7.9350352E+03;  0.0000000E+00; -2.8288537E-03;  4.0000000E+04;  0.0000000E+00;  3.9429453E+04;  9.5432788E-02;  0.0000000E+00; -4.2564902E-02;  4.1991153E+02;
  9.5957583E-01;  9.9999998E-03;  3.0223859E-02;7725; -1.8318907E-03;  0.0000000E+00; -1.3351806E-03;  9.9917847E+02;  2.2618659E-01; -6.8062262E+02;3;  5.1548128E+00;  0.0000000E+00;  4.3916225E-02;0;  5.3362828E-02;  7.9325259E+03;  0.0000000E+00; -4.6864455E-03;  4.0000000E+04;  0.0000000E+00;  3.9428430E+04;  9.5741771E-02;  0.0000000E+00; -4.2378943E-02;  6.2808887E+02;
  9.5964080E-01;  9.9999998E-03;  4.0303156E-02;7726; -1.8028597E-03;  0.0000000E+00; -1.7873185E-03;  9.9919067E+02;  2.2624016E-01; -6.7049945E+02;3;  5.1401067E+00;  0.0000000E+00;  6.1770525E-02;0;  5.4050796E-02;  7.9291738E+03;  0.0000000E+00; -4.7882618E-03;  4.0000000E+04;  0.0000000E+00;  3.9427219E+04;  9.6165814E-02;  0.0000000E+00; -4.2115018E-02;  9.5377332E+02;
  9.5972228E-01;  9.9999998E-03;  5.0389640E-02;7727; -1.7417877E-03;  0.0000000E+00; -2.2429959E-03;  9.9920447E+02;  2.2630385E-01; -6.5909235E+02;3;  5.1315765E+00;  0.0000000E+00;  8.0338687E-02;0;  5.4926816E-02;  7.9251040E+03;  0.0000000E+00; -2.4964968E-03;  4.0000000E+04;  0.0000000E+00;  3.9426324E+04;  9.6698225E-02;  0.0000000E+00; -4.1771408E-02;  1.3920594E+03;
  9.5981455E-01;  9.9999998E-03;  6.0484640E-02;7728; -1.6370058E-03;  0.0000000E+00; -2.6993358E-03;  9.9921503E+02;  2.2636801E-01; -6.5035187E+02;3;  5.1388793E+00;  0.0000000E+00;  9.8458670E-02;0;  5.5982005E-02;  7.9205620E+03;  0.0000000E+00; -6.3491498E-05;  4.0000000E+04;  0.0000000E+00;  3.9425672E+04;  9.7328663E-02;  0.0000000E+00; -4.1346658E-02;  1.9228667E+03;
  9.8253602E-01;  9.9999998E-03; -1.0076670E-01;7773;  2.8860089E-03;  0.0000000E+00;  4.5686439E-03;  9.9939825E+02;  2.3968737E-01; -4.9855371E+02;3;  6.3924551E+00;  0.0000000E+00; -2.4405058E-01;0;  6.1595790E-02;  7.0726255E+03;  0.0000000E+00; -4.0760601E-01;  4.0000000E+04;  0.0000000E+00;  3.9389371E+04;  1.0246745E-01;  0.0000000E+00; -4.0871665E-02;  3.4809553E+03;
  9.8290390E-01;  9.9999998E-03; -9.0687156E-02;7774;  2.7360201E-03;  0.0000000E+00;  4.1372706E-03;  9.9941608E+02;  2.3991559E-01; -4.8378873E+02;3;  6.4243917E+00;  0.0000000E+00; -2.1941985E-01;0;  5.9319586E-02;  7.0588062E+03;  0.0000000E+00; -2.8615344E-01;  4.0000000E+04;  0.0000000E+00;  3.9386551E+04;  1.0102715E-01;  0.0000000E+00; -4.1707560E-02;  3.5448420E+03;
  9.8319185E-01;  9.9999998E-03; -8.0606140E-02;7775;  2.5527079E-03;  0.0000000E+00;  3.6955073E-03;  9.9944586E+02;  2.4009280E-01; -4.5909805E+02;3;  6.4600639E+00;  0.0000000E+00; -2.0241399E-01;0;  5.7357192E-02;  7.0484619E+03;  0.0000000E+00; -1.9995400E-01;  4.0000000E+04;  0.0000000E+00;  3.9384180E+04;  9.9839211E-02;  0.0000000E+00; -4.2482018E-02;  3.2903909E+03;
  9.8339033E-01;  9.9999998E-03; -7.0519492E-02;7776;  2.3621763E-03;  0.0000000E+00;  3.2444522E-03;  9.9948413E+02;  2.4020717E-01; -4.2739526E+02;3;  6.4739366E+00;  0.0000000E+00; -1.8648647E-01;0;  5.5706158E-02;  7.0417935E+03;  0.0000000E+00; -1.4431752E-01;  4.0000000E+04;  0.0000000E+00;  3.9382273E+04;  9.8893031E-02;  0.0000000E+00; -4.3186873E-02;  2.8119861E+03;
  9.8352349E-01;  9.9999998E-03; -6.0424343E-02;7777;  2.1958060E-03;  0.0000000E+00;  2.7813294E-03;  9.9953412E+02;  2.4027984E-01; -3.8596432E+02;3;  6.4917250E+00;  0.0000000E+00; -1.5616448E-01;0;  5.4342382E-02;  7.0377388E+03;  0.0000000E+00; -1.0735474E-01;  4.0000000E+04;  0.0000000E+00;  3.9381090E+04;  9.8157682E-02;  0.0000000E+00; -4.3815300E-02;  2.2315876E+03;
  9.8361528E-01;  9.9999998E-03; -5.0336752E-02;7778;  2.0623493E-03;  0.0000000E+00;  2.3112644E-03;  9.9958368E+02;  2.4032235E-01; -3.4492847E+02;3;  6.5280495E+00;  0.0000000E+00; -1.2865679E-01;0;  5.3239584E-02;  7.0353760E+03;  0.0000000E+00; -7.8780822E-02;  4.0000000E+04;  0.0000000E+00;  3.9381492E+04;  9.7599268E-02;  0.0000000E+00; -4.4359684E-02;  1.6493480E+03;
  9.8369455E-01;  9.9999998E-03; -4.0265329E-02;7779;  1.9673596E-03;  0.0000000E+00;  1.8415524E-03;  9.9963263E+02;  2.4035589E-01; -3.0433704E+02;3;  6.5706654E+00;  0.0000000E+00; -1.0077170E-01;0;  5.2367032E-02;  7.0335005E+03;  0.0000000E+00; -5.3629443E-02;  4.0000000E+04;  0.0000000E+00;  3.9382395E+04;  9.7182222E-02;  0.0000000E+00; -4.4815190E-02;  1.1265979E+03;
  9.8376882E-01;  9.9999998E-03; -3.0203551E-02;7780;  1.9070507E-03;  0.0000000E+00;  1.3753235E-03;  9.9968170E+02;  2.4038753E-01; -2.6369620E+02;3;  6.6123562E+00;  0.0000000E+00; -8.0283210E-02;0;  5.1703155E-02;  7.0317554E+03;  0.0000000E+00; -3.1661239E-02;  4.0000000E+04;  0.0000000E+00;  3.9383512E+04;  9.6879959E-02;  0.0000000E+00; -4.5176804E-02;  6.9638861E+02;
  9.8383015E-01;  9.9999998E-03; -2.0138569E-02;7781;  1.8767206E-03;  0.0000000E+00;  9.1396476E-04;  9.9972241E+02;  2.4041288E-01; -2.2996877E+02;3;  6.6449380E+00;  0.0000000E+00; -5.1624984E-02;0;  5.1234376E-02;  7.0303354E+03;  0.0000000E+00; -1.4502633E-02;  4.0000000E+04;  0.0000000E+00;  3.9384859E+04;  9.6673749E-02;  0.0000000E+00; -4.5439374E-02;  3.8110074E+02;
  9.8387426E-01;  9.9999998E-03; -1.0070083E-02;7782;  1.8678218E-03;  0.0000000E+00;  4.5597224E-04;  9.9974542E+02;  2.4043177E-01; -2.1090758E+02;3;  6.6749730E+00;  0.0000000E+00; -2.3063712E-02;0;  5.0953005E-02;  7.0292251E+03;  0.0000000E+00; -3.6697835E-03;  4.0000000E+04;  0.0000000E+00;  3.9385918E+04;  9.6551985E-02;  0.0000000E+00; -4.5598980E-02;  2.0262344E+02;
  9.8388994E-01;  9.9999998E-03;  3.2855567E-08;7783;  1.8660254E-03;  0.0000000E+00;  8.8017622E-08;  9.9975525E+02;  2.4043748E-01; -2.0275967E+02;3;  6.6882496E+00;  0.0000000E+00; -5.7723501E-06;0;  5.0859284E-02;  7.0288457E+03;  0.0000000E+00; -2.4808086E-10;  4.0000000E+04;  0.0000000E+00;  3.9386016E+04;  9.6511833E-02;  0.0000000E+00; -4.5652550E-02;  1.5489740E+02;
  9.8387420E-01;  9.9999998E-03;  1.0070150E-02;7784;  1.8677271E-03;  0.0000000E+00; -4.5579619E-04;  9.9974567E+02;  2.4043140E-01; -2.1071005E+02;3;  6.6749072E+00;  0.0000000E+00;  2.3048101E-02;0;  5.0952993E-02;  7.0292246E+03;  0.0000000E+00; -3.6789244E-03;  4.0000000E+04;  0.0000000E+00;  3.9385914E+04;  9.6551970E-02;  0.0000000E+00; -4.5598976E-02;  2.0261053E+02;
  9.8383015E-01;  9.9999998E-03;  2.0138638E-02;7785;  1.8766576E-03;  0.0000000E+00; -9.1378740E-04;  9.9972241E+02;  2.4041229E-01; -2.2996877E+02;3;  6.6449056E+00;  0.0000000E+00;  5.1618692E-02;0;  5.1234350E-02;  7.0303369E+03;  0.0000000E+00; -1.4521060E-02;  4.0000000E+04;  0.0000000E+00;  3.9384852E+04;  9.6673675E-02;  0.0000000E+00; -4.5439325E-02;  3.8108929E+02;
  9.8376882E-01;  9.9999998E-03;  3.0203618E-02;7786;  1.9069666E-03;  0.0000000E+00; -1.3751469E-03;  9.9968164E+02;  2.4038756E-01; -2.6374557E+02;3;  6.6123095E+00;  0.0000000E+00;  8.0284260E-02;0;  5.1702943E-02;  7.0317534E+03;  0.0000000E+00; -3.1688713E-02;  4.0000000E+04;  0.0000000E+00;  3.9383512E+04;  9.6879773E-02;  0.0000000E+00; -4.5176830E-02;  6.9637878E+02;
  9.8369449E-01;  9.9999998E-03;  4.0265393E-02;7787;  1.9672739E-03;  0.0000000E+00; -1.8413775E-03;  9.9963232E+02;  2.4035542E-01; -3.0463330E+02;3;  6.5706210E+00;  0.0000000E+00;  1.0077122E-01;0;  5.2366763E-02;  7.0335024E+03;  0.0000000E+00; -5.3666811E-02;  4.0000000E+04;  0.0000000E+00;  3.9382402E+04;  9.7181991E-02;  0.0000000E+00; -4.4815227E-02;  1.1266071E+03;
  9.8361528E-01;  9.9999998E-03;  5.0336812E-02;7788;  2.0622013E-03;  0.0000000E+00; -2.3110891E-03;  9.9958368E+02;  2.4032296E-01; -3.4492847E+02;3;  6.5279770E+00;  0.0000000E+00;  1.2866363E-01;0;  5.3239342E-02;  7.0353745E+03;  0.0000000E+00; -7.8829393E-02;  4.0000000E+04;  0.0000000E+00;  3.9381484E+04;  9.7599052E-02;  0.0000000E+00; -4.4359710E-02;  1.6493156E+03;
  9.8352343E-01;  9.9999998E-03;  6.0424410E-02;7789;  2.1956507E-03;  0.0000000E+00; -2.7811518E-03;  9.9953412E+02;  2.4027985E-01; -3.8596432E+02;3;  6.4916539E+00;  0.0000000E+00;  1.5617371E-01;0;  5.4342024E-02;  7.0377339E+03;  0.0000000E+00; -1.0741143E-01;  4.0000000E+04;  0.0000000E+00;  3.9381078E+04;  9.8157324E-02;  0.0000000E+00; -4.3815300E-02;  2.2315278E+03;
  1.0073721E+00;  9.9999998E-03; -1.0070845E-01;7834;  6.4413990E-03;  0.0000000E+00;  4.4671786E-03;  9.9918103E+02;  2.5490135E-01; -6.7849915E+02;3;  7.4069014E+00;  0.0000000E+00; -3.6067724E-01;0;  4.9497731E-02;  6.2597471E+03;  0.0000000E+00; -6.4568329E-01;  4.0000000E+04;  0.0000000E+00;  3.9345230E+04;  9.2868067E-02;  0.0000000E+00; -4.3370336E-02;  2.2981682E+03;
  1.0078301E+00;  9.9999998E-03; -9.0639658E-02;7835;  6.2107905E-03;  0.0000000E+00;  4.0773456E-03;  9.9919183E+02;  2.5518996E-01; -6.6956116E+02;3;  7.3664193E+00;  0.0000000E+00; -3.2831159E-01;0;  4.6725679E-02;  6.2441807E+03;  0.0000000E+00; -5.5195504E-01;  4.0000000E+04;  0.0000000E+00;  3.9342398E+04;  9.1031276E-02;  0.0000000E+00; -4.4305597E-02;  2.1471047E+03;
  1.0081185E+00;  9.9999998E-03; -8.0564260E-02;7836;  5.9565743E-03;  0.0000000E+00;  3.6728168E-03;  9.9921576E+02;  2.5536448E-01; -6.4970990E+02;3;  7.3248119E+00;  0.0000000E+00; -3.0131635E-01;0;  4.4529740E-02;  6.2345513E+03;  0.0000000E+00; -4.6117461E-01;  4.0000000E+04;  0.0000000E+00;  3.9339406E+04;  8.9706801E-02;  0.0000000E+00; -4.5177061E-02;  1.8851147E+03;
  1.0083255E+00;  9.9999998E-03; -7.0488475E-02;7837;  5.7202671E-03;  0.0000000E+00;  3.2511873E-03;  9.9924622E+02;  2.5548649E-01; -6.2447601E+02;3;  7.2920332E+00;  0.0000000E+00; -2.7706885E-01;0;  4.2810787E-02;  6.2278721E+03;  0.0000000E+00; -3.7463337E-01;  4.0000000E+04;  0.0000000E+00;  3.9337254E+04;  8.8793583E-02;  0.0000000E+00; -4.5982797E-02;  1.5768507E+03;
  1.0085601E+00;  9.9999998E-03; -1.0074262E-02;7843;  4.9828053E-03;  0.0000000E+00;  4.7869014E-04;  9.9938715E+02;  2.5559199E-01; -5.0773862E+02;3;  7.1600523E+00;  0.0000000E+00; -5.1639955E-02;0;  3.8911387E-02;  6.2210596E+03;  0.0000000E+00; -8.9135971E-03;  4.0000000E+04;  0.0000000E+00;  3.9340109E+04;  8.7722138E-02;  0.0000000E+00; -4.8810750E-02;  1.2854260E+02;
  1.0085722E+00;  9.9999998E-03;  3.1837100E-08;7844;  4.9691554E-03;  0.0000000E+00;  1.0209133E-07;  9.9939142E+02;  2.5559810E-01; -5.0418317E+02;3;  7.1524887E+00;  0.0000000E+00; -1.1102407E-05;0;  3.8850315E-02;  6.2207144E+03;  0.0000000E+00; -5.0321369E-10;  4.0000000E+04;  0.0000000E+00;  3.9340488E+04;  8.7726280E-02;  0.0000000E+00; -4.8875965E-02;  8.3042496E+01;
  1.0085601E+00;  9.9999998E-03;  1.0074326E-02;7845;  4.9827658E-03;  0.0000000E+00; -4.7848540E-04;  9.9938733E+02;  2.5559205E-01; -5.0759045E+02;3;  7.1600313E+00;  0.0000000E+00;  5.1623229E-02;0;  3.8911432E-02;  6.2210605E+03;  0.0000000E+00; -8.9238863E-03;  4.0000000E+04;  0.0000000E+00;  3.9340113E+04;  8.7722190E-02;  0.0000000E+00; -4.8810758E-02;  1.2855276E+02;
  1.0085313E+00;  9.9999998E-03; -2.0143379E-02;7842;  5.0228406E-03;  0.0000000E+00;  9.5557392E-04;  9.9937390E+02;  2.5557488E-01; -5.1870123E+02;3;  7.1711030E+00;  0.0000000E+00; -9.8127440E-02;0;  3.9097182E-02;  6.2219116E+03;  0.0000000E+00; -3.5607431E-02;  4.0000000E+04;  0.0000000E+00;  3.9339281E+04;  8.7714881E-02;  0.0000000E+00; -4.8617698E-02;  2.6764148E+02;
  1.0085313E+00;  9.9999998E-03;  2.0143446E-02;7846;  5.0227949E-03;  0.0000000E+00; -9.5536927E-04;  9.9937390E+02;  2.5557584E-01; -5.1870123E+02;3;  7.1710849E+00;  0.0000000E+00;  9.8120078E-02;0;  3.9097160E-02;  6.2219136E+03;  0.0000000E+00; -3.5628237E-02;  4.0000000E+04;  0.0000000E+00;  3.9339285E+04;  8.7714896E-02;  0.0000000E+00; -4.8617736E-02;  2.6766998E+02;
  1.0085036E+00;  9.9999998E-03; -3.0206895E-02;7841;  5.0887759E-03;  0.0000000E+00;  1.4293031E-03;  9.9935468E+02;  2.5556359E-01; -5.3465143E+02;3;  7.1877651E+00;  0.0000000E+00; -1.4135765E-01;0;  3.9417602E-02;  6.2227163E+03;  0.0000000E+00; -7.9566553E-02;  4.0000000E+04;  0.0000000E+00;  3.9338102E+04;  8.7720804E-02;  0.0000000E+00; -4.8303202E-02;  4.8000128E+02;
  1.0085036E+00;  9.9999998E-03;  3.0206958E-02;7847;  5.0887219E-03;  0.0000000E+00; -1.4290994E-03;  9.9935461E+02;  2.5556409E-01; -5.3470081E+02;3;  7.1877451E+00;  0.0000000E+00;  1.4134924E-01;0;  3.9417576E-02;  6.2227178E+03;  0.0000000E+00; -7.9598404E-02;  4.0000000E+04;  0.0000000E+00;  3.9338094E+04;  8.7720811E-02;  0.0000000E+00; -4.8303235E-02;  4.7999924E+02;
  1.0084989E+00;  9.9999998E-03; -4.0275320E-02;7840;  5.1912712E-03;  0.0000000E+00;  1.8993691E-03;  9.9933124E+02;  2.5556859E-01; -5.5405829E+02;3;  7.2124653E+00;  0.0000000E+00; -1.7941698E-01;0;  3.9889157E-02;  6.2227598E+03;  0.0000000E+00; -1.3915263E-01;  4.0000000E+04;  0.0000000E+00;  3.9336734E+04;  8.7765545E-02;  0.0000000E+00; -4.7876388E-02;  7.3494226E+02;
  1.0084989E+00;  9.9999998E-03;  4.0275384E-02;7848;  5.1912130E-03;  0.0000000E+00; -1.8991667E-03;  9.9933105E+02;  2.5556898E-01; -5.5420642E+02;3;  7.2124467E+00;  0.0000000E+00;  1.7942320E-01;0;  3.9889086E-02;  6.2227593E+03;  0.0000000E+00; -1.3919441E-01;  4.0000000E+04;  0.0000000E+00;  3.9336734E+04;  8.7765530E-02;  0.0000000E+00; -4.7876444E-02;  7.3496082E+02;
  1.0084857E+00;  9.9999998E-03; -6.0419481E-02;7838;  5.5169403E-03;  0.0000000E+00;  2.8146440E-03;  9.9928241E+02;  2.5557840E-01; -5.9450159E+02;3;  7.2721863E+00;  0.0000000E+00; -2.5114170E-01;0;  4.1490186E-02;  6.2228613E+03;  0.0000000E+00; -2.9102948E-01;  4.0000000E+04;  0.0000000E+00;  3.9335883E+04;  8.8204049E-02;  0.0000000E+00; -4.6713863E-02;  1.2785159E+03;
  1.0084857E+00;  9.9999998E-03;  6.0419559E-02;7850;  5.5168262E-03;  0.0000000E+00; -2.8144335E-03;  9.9928314E+02;  2.5557950E-01; -5.9390900E+02;3;  7.2721548E+00;  0.0000000E+00;  2.5115383E-01;0;  4.1490134E-02;  6.2228628E+03;  0.0000000E+00; -2.9108682E-01;  4.0000000E+04;  0.0000000E+00;  3.9335879E+04;  8.8204004E-02;  0.0000000E+00; -4.6713870E-02;  1.2784772E+03;
  1.0085126E+00;  9.9999998E-03; -5.0349753E-02;7839;  5.3355801E-03;  0.0000000E+00;  2.3628101E-03;  9.9931104E+02;  2.5558695E-01; -5.7079852E+02;3;  7.2415643E+00;  0.0000000E+00; -2.1656315E-01;0;  4.0553249E-02;  6.2221602E+03;  0.0000000E+00; -2.1114781E-01;  4.0000000E+04;  0.0000000E+00;  3.9335918E+04;  8.7898612E-02;  0.0000000E+00; -4.7345363E-02;  1.0039654E+03;
  1.0085125E+00;  9.9999998E-03;  5.0349824E-02;7849;  5.3354795E-03;  0.0000000E+00; -2.3626043E-03;  9.9931134E+02;  2.5558656E-01; -5.7055164E+02;3;  7.2415409E+00;  0.0000000E+00;  2.1655850E-01;0;  4.0553149E-02;  6.2221597E+03;  0.0000000E+00; -2.1119779E-01;  4.0000000E+04;  0.0000000E+00;  3.9335918E+04;  8.7898508E-02;  0.0000000E+00; -4.7345359E-02;  1.0039782E+03;
  1.0330682E+00;  9.9999998E-03;  3.5566472E-08;7905;  6.6746417E-03;  0.0000000E+00;  1.1266442E-07;  9.9850903E+02;  2.7118197E-01; -1.2352239E+03;3;  7.1005192E+00;  0.0000000E+00; -1.3241515E-05;0;  3.4823298E-02;  5.5257871E+03;  0.0000000E+00; -5.7765093E-10;  4.0000000E+04;  0.0000000E+00;  3.9296105E+04;  8.7425292E-02;  0.0000000E+00; -5.2601993E-02;  7.6894997E+01;
  1.0330875E+00;  9.9999998E-03; -1.0068333E-02;7904;  6.6760215E-03;  0.0000000E+00;  5.3935131E-04;  9.9852252E+02;  2.7119082E-01; -1.2240637E+03;3;  7.1043925E+00;  0.0000000E+00; -2.8341832E-02;0;  3.4827225E-02;  5.5255005E+03;  0.0000000E+00; -7.0208730E-03;  4.0000000E+04;  0.0000000E+00;  3.9295668E+04;  8.7371387E-02;  0.0000000E+00; -5.2544162E-02;  4.0126652E+01;
  1.0330875E+00;  9.9999998E-03;  1.0068403E-02;7906;  6.6760192E-03;  0.0000000E+00; -5.3912611E-04;  9.9852264E+02;  2.7119184E-01; -1.2239650E+03;3;  7.1043921E+00;  0.0000000E+00;  2.8317416E-02;0;  3.4827214E-02;  5.5254976E+03;  0.0000000E+00; -7.0226374E-03;  4.0000000E+04;  0.0000000E+00;  3.9295660E+04;  8.7371387E-02;  0.0000000E+00; -5.2544173E-02;  4.0097534E+01;
  1.0331483E+00;  9.9999998E-03; -2.0134820E-02;7903;  6.6821878E-03;  0.0000000E+00;  1.0765819E-03;  9.9855634E+02;  2.7123022E-01; -1.1960645E+03;3;  7.1166816E+00;  0.0000000E+00; -5.5219885E-02;0;  3.4847528E-02;  5.5245430E+03;  0.0000000E+00; -2.8208468E-02;  4.0000000E+04;  0.0000000E+00;  3.9295035E+04;  8.7219976E-02;  0.0000000E+00; -5.2372448E-02;  6.0908051E+01;
  1.0331483E+00;  9.9999998E-03;  2.0134887E-02;7907;  6.6821747E-03;  0.0000000E+00; -1.0763567E-03;  9.9855634E+02;  2.7123022E-01; -1.1960645E+03;3;  7.1166697E+00;  0.0000000E+00;  5.5195857E-02;0;  3.4847591E-02;  5.5245376E+03;  0.0000000E+00; -2.8212525E-02;  4.0000000E+04;  0.0000000E+00;  3.9295035E+04;  8.7220080E-02;  0.0000000E+00; -5.2372489E-02;  6.0994514E+01;
  1.0332552E+00;  9.9999998E-03; -3.0204723E-02;7902;  6.6906856E-03;  0.0000000E+00;  1.6105920E-03;  9.9860638E+02;  2.7129573E-01; -1.1545842E+03;3;  7.1398535E+00;  0.0000000E+00; -8.0280781E-02;0;  3.4907788E-02;  5.5226479E+03;  0.0000000E+00; -6.3713364E-02;  4.0000000E+04;  0.0000000E+00;  3.9293617E+04;  8.6998776E-02;  0.0000000E+00; -5.2090988E-02;  1.9633478E+02;
  1.0332552E+00;  9.9999998E-03;  3.0204792E-02;7908;  6.6906665E-03;  0.0000000E+00; -1.6103667E-03;  9.9860651E+02;  2.7129602E-01; -1.1544855E+03;3;  7.1398401E+00;  0.0000000E+00;  8.0268338E-02;0;  3.4907896E-02;  5.5226445E+03;  0.0000000E+00; -6.3719779E-02;  4.0000000E+04;  0.0000000E+00;  3.9293617E+04;  8.6998917E-02;  0.0000000E+00; -5.2091021E-02;  1.9638380E+02;
  1.0334159E+00;  9.9999998E-03; -4.0285490E-02;7901;  6.7220661E-03;  0.0000000E+00;  2.1373257E-03;  9.9867102E+02;  2.7140015E-01; -1.1010548E+03;3;  7.1734128E+00;  0.0000000E+00; -1.0322271E-01;0;  3.5048563E-02;  5.5194297E+03;  0.0000000E+00; -1.1318278E-01;  4.0000000E+04;  0.0000000E+00;  3.9292270E+04;  8.6754538E-02;  0.0000000E+00; -5.1705975E-02;  3.2087247E+02;
  1.0334158E+00;  9.9999998E-03;  4.0285561E-02;7909;  6.7220414E-03;  0.0000000E+00; -2.1371001E-03;  9.9867126E+02;  2.7140051E-01; -1.1008080E+03;3;  7.1734004E+00;  0.0000000E+00;  1.0320740E-01;0;  3.5048705E-02;  5.5194282E+03;  0.0000000E+00; -1.1319056E-01;  4.0000000E+04;  0.0000000E+00;  3.9292266E+04;  8.6754724E-02;  0.0000000E+00; -5.1706020E-02;  3.2088809E+02;
  1.0336288E+00;  9.9999998E-03; -5.0368749E-02;7900;  6.7902296E-03;  0.0000000E+00;  2.6523483E-03;  9.9872955E+02;  2.7154389E-01; -1.0525624E+03;3;  7.2160130E+00;  0.0000000E+00; -1.2115589E-01;0;  3.5320286E-02;  5.5147388E+03;  0.0000000E+00; -1.7512897E-01;  4.0000000E+04;  0.0000000E+00;  3.9291738E+04;  8.6544745E-02;  0.0000000E+00; -5.1224459E-02;  3.7934991E+02;
  1.0336288E+00;  9.9999998E-03;  5.0368819E-02;7910;  6.7901993E-03;  0.0000000E+00; -2.6521231E-03;  9.9872968E+02;  2.7154461E-01; -1.0524636E+03;3;  7.2159877E+00;  0.0000000E+00;  1.2115102E-01;0;  3.5320371E-02;  5.5147417E+03;  0.0000000E+00; -1.7514141E-01;  4.0000000E+04;  0.0000000E+00;  3.9291727E+04;  8.6544923E-02;  0.0000000E+00; -5.1224552E-02;  3.7943536E+02;
  1.0338846E+00;  9.9999998E-03; -6.0445528E-02;7899;  6.8989960E-03;  0.0000000E+00;  3.1519688E-03;  9.9877979E+02;  2.7171794E-01; -1.0109340E+03;3;  7.2688742E+00;  0.0000000E+00; -1.3094394E-01;0;  3.5779852E-02;  5.5087070E+03;  0.0000000E+00; -2.4657755E-01;  4.0000000E+04;  0.0000000E+00;  3.9291957E+04;  8.6433448E-02;  0.0000000E+00; -5.0653595E-02;  3.4631635E+02;
  1.0338846E+00;  9.9999998E-03;  6.0445603E-02;7911;  6.8989601E-03;  0.0000000E+00; -3.1517427E-03;  9.9877979E+02;  2.7171925E-01; -1.0109340E+03;3;  7.2688546E+00;  0.0000000E+00;  1.3094927E-01;0;  3.5780001E-02;  5.5087036E+03;  0.0000000E+00; -2.4659052E-01;  4.0000000E+04;  0.0000000E+00;  3.9291957E+04;  8.6433664E-02;  0.0000000E+00; -5.0653663E-02;  3.4633633E+02;
  1.0339158E+00;  9.9999998E-03; -1.0074157E-01;7895;  7.7013150E-03;  0.0000000E+00;  4.9129506E-03;  9.9877319E+02;  2.7178705E-01; -1.0163659E+03;3;  7.4722157E+00;  0.0000000E+00; -1.2090015E-01;0;  4.0572453E-02;  5.5112510E+03;  0.0000000E+00; -5.5684066E-01;  4.0000000E+04;  0.0000000E+00;  3.9299645E+04;  8.7925293E-02;  0.0000000E+00; -4.7352839E-02;  1.3094456E+03;
  1.0341352E+00;  9.9999998E-03; -7.0524491E-02;7898;  7.0472709E-03;  0.0000000E+00;  3.6315829E-03;  9.9881183E+02;  2.7189627E-01; -9.8436682E+02;3;  7.3241501E+00;  0.0000000E+00; -1.4107044E-01;0;  3.6481254E-02;  5.5026401E+03;  0.0000000E+00; -3.2372844E-01;  4.0000000E+04;  0.0000000E+00;  3.9292836E+04;  8.6473390E-02;  0.0000000E+00; -4.9992137E-02;  3.1784082E+02;
  1.0342462E+00;  9.9999998E-03; -9.0677351E-02;7896;  7.4463426E-03;  0.0000000E+00;  4.5127086E-03;  9.9879565E+02;  2.7200022E-01; -9.9779858E+02;3;  7.4219995E+00;  0.0000000E+00; -1.3414980E-01;0;  3.8811754E-02;  5.5009717E+03;  0.0000000E+00; -4.8140353E-01;  4.0000000E+04;  0.0000000E+00;  3.9297000E+04;  8.7165430E-02;  0.0000000E+00; -4.8353676E-02;  8.6897998E+02;
  1.0342907E+00;  9.9999998E-03; -8.0603510E-02;7897;  7.2321636E-03;  0.0000000E+00;  4.0860469E-03;  9.9881494E+02;  2.7201694E-01; -9.8179901E+02;3;  7.3747125E+00;  0.0000000E+00; -1.4278847E-01;0;  3.7473746E-02;  5.4990312E+03;  0.0000000E+00; -4.0294027E-01;  4.0000000E+04;  0.0000000E+00;  3.9294566E+04;  8.6703800E-02;  0.0000000E+00; -4.9230054E-02;  5.0125333E+02;
  1.0614840E+00;  9.9999998E-03; -1.0089294E-02;7965;  7.6436508E-03;  0.0000000E+00;  5.9821503E-04;  9.9803229E+02;  2.8998756E-01; -1.6302247E+03;3;  6.9863992E+00;  0.0000000E+00;  1.8596400E-03;0;  7.0781797E-02;  4.8373184E+03;  0.0000000E+00;  3.6466785E-03;  4.0000000E+04;  0.0000000E+00;  3.9244980E+04;  1.2810916E-01;  0.0000000E+00; -5.7327360E-02;  2.1364189E+02;
  1.0615149E+00;  9.9999998E-03;  4.2720316E-08;7966;  7.6469043E-03;  0.0000000E+00;  1.2000639E-07;  9.9801239E+02;  2.9001608E-01; -1.6467181E+03;3;  6.9833608E+00;  0.0000000E+00; -2.0952873E-05;0;  7.0952550E-02;  4.8361396E+03;  0.0000000E+00; -4.4727053E-10;  4.0000000E+04;  0.0000000E+00;  3.9245332E+04;  1.2832016E-01;  0.0000000E+00; -5.7367604E-02;  2.5054158E+02;
  1.0614840E+00;  9.9999998E-03;  1.0089377E-02;7967;  7.6436433E-03;  0.0000000E+00; -5.9797475E-04;  9.9803217E+02;  2.8998539E-01; -1.6303235E+03;3;  6.9863977E+00;  0.0000000E+00; -1.9064558E-03;0;  7.0781887E-02;  4.8373203E+03;  0.0000000E+00;  3.6617306E-03;  4.0000000E+04;  0.0000000E+00;  3.9244977E+04;  1.2810925E-01;  0.0000000E+00; -5.7327364E-02;  2.1365808E+02;
  1.0614277E+00;  9.9999998E-03; -2.0173389E-02;7964;  7.6389839E-03;  0.0000000E+00;  1.1956333E-03;  9.9808472E+02;  2.8992894E-01; -1.5867692E+03;3;  7.0171528E+00;  0.0000000E+00;  2.0891868E-03;0;  7.0363835E-02;  4.8398311E+03;  0.0000000E+00;  1.4193958E-02;  4.0000000E+04;  0.0000000E+00;  3.9244672E+04;  1.2757583E-01;  0.0000000E+00; -5.7211999E-02;  1.6688527E+02;
  1.0614277E+00;  9.9999998E-03;  2.0173471E-02;7968;  7.6389965E-03;  0.0000000E+00; -1.1953934E-03;  9.9808478E+02;  2.8992987E-01; -1.5867198E+03;3;  7.0171466E+00;  0.0000000E+00; -2.1308861E-03;0;  7.0364088E-02;  4.8398315E+03;  0.0000000E+00;  1.4224017E-02;  4.0000000E+04;  0.0000000E+00;  3.9244668E+04;  1.2757613E-01;  0.0000000E+00; -5.7212040E-02;  1.6691988E+02;
  1.0613660E+00;  9.9999998E-03; -3.0250924E-02;7963;  7.6350984E-03;  0.0000000E+00;  1.7906652E-03;  9.9816345E+02;  2.8985733E-01; -1.5215365E+03;3;  7.0704179E+00;  0.0000000E+00;  9.6094073E-04;0;  6.9765106E-02;  4.8430664E+03;  0.0000000E+00;  3.0280000E-02;  4.0000000E+04;  0.0000000E+00;  3.9243430E+04;  1.2678841E-01;  0.0000000E+00; -5.7023305E-02;  2.8929193E+02;
  1.0613660E+00;  9.9999998E-03;  3.0251000E-02;7969;  7.6350877E-03;  0.0000000E+00; -1.7904268E-03;  9.9816333E+02;  2.8985682E-01; -1.5216353E+03;3;  7.0704055E+00;  0.0000000E+00; -9.8225300E-04;0;  6.9765300E-02;  4.8430669E+03;  0.0000000E+00;  3.0321915E-02;  4.0000000E+04;  0.0000000E+00;  3.9243430E+04;  1.2678871E-01;  0.0000000E+00; -5.7023402E-02;  2.8934723E+02;
  1.0613064E+00;  9.9999998E-03; -4.0329814E-02;7962;  7.6253931E-03;  0.0000000E+00;  2.3816091E-03;  9.9825665E+02;  2.8978211E-01; -1.4443535E+03;3;  7.1404467E+00;  0.0000000E+00;  8.5697714E-03;0;  6.9028512E-02;  4.8466274E+03;  0.0000000E+00;  4.9180429E-02;  4.0000000E+04;  0.0000000E+00;  3.9242918E+04;  1.2578847E-01;  0.0000000E+00; -5.6759950E-02;  5.1862610E+02;
  1.0613065E+00;  9.9999998E-03;  4.0329892E-02;7970;  7.6253684E-03;  0.0000000E+00; -2.3813727E-03;  9.9825647E+02;  2.8978229E-01; -1.4445017E+03;3;  7.1404366E+00;  0.0000000E+00; -8.5808570E-03;0;  6.9028899E-02;  4.8466274E+03;  0.0000000E+00;  4.9231146E-02;  4.0000000E+04;  0.0000000E+00;  3.9242918E+04;  1.2578894E-01;  0.0000000E+00; -5.6760039E-02;  5.1869556E+02;
  1.0612726E+00;  9.9999998E-03; -5.0418355E-02;7961;  7.6116151E-03;  0.0000000E+00;  2.9675353E-03;  9.9835364E+02;  2.8972107E-01; -1.3639608E+03;3;  7.2008390E+00;  0.0000000E+00;  1.6542036E-02;0;  6.8240792E-02;  4.8496812E+03;  0.0000000E+00;  6.6424102E-02;  4.0000000E+04;  0.0000000E+00;  3.9242457E+04;  1.2466294E-01;  0.0000000E+00; -5.6422155E-02;  7.5767834E+02;
  1.0612727E+00;  9.9999998E-03;  5.0418437E-02;7971;  7.6116030E-03;  0.0000000E+00; -2.9672990E-03;  9.9835382E+02;  2.8972140E-01; -1.3638126E+03;3;  7.2008247E+00;  0.0000000E+00; -1.6554954E-02;0;  6.8241246E-02;  4.8496831E+03;  0.0000000E+00;  6.6484235E-02;  4.0000000E+04;  0.0000000E+00;  3.9242449E+04;  1.2466349E-01;  0.0000000E+00; -5.6422248E-02;  7.5776251E+02;
  1.0612923E+00;  9.9999998E-03; -6.0508396E-02;7960;  7.6244115E-03;  0.0000000E+00;  3.5437781E-03;  9.9841937E+02;  2.8970692E-01; -1.3095426E+03;3;  7.2698927E+00;  0.0000000E+00;  3.1672824E-02;0;  6.7507520E-02;  4.8512617E+03;  0.0000000E+00;  7.4866056E-02;  4.0000000E+04;  0.0000000E+00;  3.9243023E+04;  1.2351698E-01;  0.0000000E+00; -5.6009460E-02;  9.6645520E+02;
  1.0612924E+00;  9.9999998E-03;  6.0508475E-02;7972;  7.6243724E-03;  0.0000000E+00; -3.5435441E-03;  9.9841919E+02;  2.8970766E-01; -1.3096908E+03;3;  7.2698727E+00;  0.0000000E+00; -3.1669926E-02;0;  6.7507893E-02;  4.8512646E+03;  0.0000000E+00;  7.4934728E-02;  4.0000000E+04;  0.0000000E+00;  3.9243020E+04;  1.2351744E-01;  0.0000000E+00; -5.6009550E-02;  9.6654987E+02;
  1.0615011E+00;  9.9999998E-03; -7.0599608E-02;7959;  7.6960535E-03;  0.0000000E+00;  4.1105016E-03;  9.9846167E+02;  2.8983665E-01; -1.2744819E+03;3;  7.3462758E+00;  0.0000000E+00;  5.3431939E-02;0;  6.7153558E-02;  4.8478667E+03;  0.0000000E+00;  6.5930724E-02;  4.0000000E+04;  0.0000000E+00;  3.9244195E+04;  1.2269559E-01;  0.0000000E+00; -5.5542029E-02;  1.1507867E+03;
  1.0619966E+00;  9.9999998E-03; -8.0692679E-02;7958;  7.8423098E-03;  0.0000000E+00;  4.6691829E-03;  9.9846490E+02;  2.9018649E-01; -1.2718153E+03;3;  7.4348226E+00;  0.0000000E+00;  8.7006681E-02;0;  6.7379981E-02;  4.8371890E+03;  0.0000000E+00;  2.9544175E-02;  4.0000000E+04;  0.0000000E+00;  3.9245719E+04;  1.2241196E-01;  0.0000000E+00; -5.5031978E-02;  1.3443357E+03;
  1.0624875E+00;  9.9999998E-03; -9.0781115E-02;7957;  8.0556916E-03;  0.0000000E+00;  5.2142208E-03;  9.9844214E+02;  2.9054180E-01; -1.2906790E+03;3;  7.5203290E+00;  0.0000000E+00;  1.3229915E-01;0;  6.7562923E-02;  4.8264961E+03;  0.0000000E+00; -4.8823744E-02;  4.0000000E+04;  0.0000000E+00;  3.9247711E+04;  1.2196217E-01;  0.0000000E+00; -5.4399244E-02;  1.5465385E+03;
  1.0630509E+00;  9.9999998E-03; -1.0087340E-01;7956;  8.3349440E-03;  0.0000000E+00;  5.7488368E-03;  9.9840851E+02;  2.9094946E-01; -1.3185300E+03;3;  7.6003819E+00;  0.0000000E+00;  1.8491201E-01;0;  6.7835197E-02;  4.8142505E+03;  0.0000000E+00; -1.7288031E-01;  4.0000000E+04;  0.0000000E+00;  3.9248887E+04;  1.2147205E-01;  0.0000000E+00; -5.3636860E-02;  1.7640129E+03;
  1.0911844E+00;  9.9999998E-03; -1.0115557E-02;8026;  8.6712688E-03;  0.0000000E+00;  6.5613020E-04;  9.9789911E+02;  3.1006506E-01; -1.7405420E+03;3;  6.8466034E+00;  0.0000000E+00;  5.0926615E-02;0;  1.7077747E-01;  4.2374751E+03;  0.0000000E+00;  9.4192978E-03;  4.0000000E+04;  0.0000000E+00;  3.9194289E+04;  2.3220190E-01;  0.0000000E+00; -6.1424427E-02;  4.8080267E+02;
  1.0911778E+00;  9.9999998E-03;  4.8780553E-08;8027;  8.6762710E-03;  0.0000000E+00;  1.2538956E-07;  9.9787830E+02;  3.1006867E-01; -1.7577761E+03;3;  6.8480444E+00;  0.0000000E+00; -2.4957735E-05;0;  1.7099167E-01;  4.2372471E+03;  0.0000000E+00; -2.0541552E-10;  4.0000000E+04;  0.0000000E+00;  3.9194664E+04;  2.3239978E-01;  0.0000000E+00; -6.1408106E-02;  5.2494012E+02;
  1.0911844E+00;  9.9999998E-03;  1.0115652E-02;8028;  8.6712399E-03;  0.0000000E+00; -6.5587909E-04;  9.9789899E+02;  3.1006581E-01; -1.7406409E+03;3;  6.8466086E+00;  0.0000000E+00; -5.0967786E-02;0;  1.7077729E-01;  4.2374746E+03;  0.0000000E+00;  9.4473409E-03;  4.0000000E+04;  0.0000000E+00;  3.9194297E+04;  2.3220173E-01;  0.0000000E+00; -6.1424430E-02;  4.8082816E+02;
  1.0912124E+00;  9.9999998E-03; -2.0223562E-02;8025;  8.6469753E-03;  0.0000000E+00;  1.3151775E-03;  9.9795654E+02;  3.1006694E-01; -1.6929879E+03;3;  6.8646979E+00;  0.0000000E+00;  9.3644559E-02;0;  1.7016160E-01;  4.2379932E+03;  0.0000000E+00;  3.7896540E-02;  4.0000000E+04;  0.0000000E+00;  3.9193098E+04;  2.3163268E-01;  0.0000000E+00; -6.1471079E-02;  4.3116516E+02;
  1.0912124E+00;  9.9999998E-03;  2.0223653E-02;8029;  8.6469734E-03;  0.0000000E+00; -1.3149286E-03;  9.9795648E+02;  3.1006482E-01; -1.6930372E+03;3;  6.8646979E+00;  0.0000000E+00; -9.3687505E-02;0;  1.7016184E-01;  4.2379941E+03;  0.0000000E+00;  3.7951540E-02;  4.0000000E+04;  0.0000000E+00;  3.9193102E+04;  2.3163295E-01;  0.0000000E+00; -6.1471105E-02;  4.3119727E+02;
  1.0912656E+00;  9.9999998E-03; -3.0325860E-02;8024;  8.6295726E-03;  0.0000000E+00;  1.9722036E-03;  9.9803625E+02;  3.1007546E-01; -1.6269158E+03;3;  6.9233866E+00;  0.0000000E+00;  1.3636266E-01;0;  1.6916449E-01;  4.2385410E+03;  0.0000000E+00;  8.5569911E-02;  4.0000000E+04;  0.0000000E+00;  3.9191434E+04;  2.3070349E-01;  0.0000000E+00; -6.1538994E-02;  6.1995056E+02;
  1.0912656E+00;  9.9999998E-03;  3.0325947E-02;8030;  8.6295735E-03;  0.0000000E+00; -1.9719608E-03;  9.9803619E+02;  3.1007534E-01; -1.6269651E+03;3;  6.9233994E+00;  0.0000000E+00; -1.3640179E-01;0;  1.6916490E-01;  4.2385439E+03;  0.0000000E+00;  8.5649863E-02;  4.0000000E+04;  0.0000000E+00;  3.9191434E+04;  2.3070395E-01;  0.0000000E+00; -6.1539061E-02;  6.2005896E+02;
  1.0913360E+00;  9.9999998E-03; -4.0432677E-02;8023;  8.6292028E-03;  0.0000000E+00;  2.6275811E-03;  9.9813263E+02;  3.1008950E-01; -1.5470662E+03;3;  7.0055299E+00;  0.0000000E+00;  1.7920290E-01;0;  1.6774258E-01;  4.2390337E+03;  0.0000000E+00;  1.5071641E-01;  4.0000000E+04;  0.0000000E+00;  3.9190004E+04;  2.2935379E-01;  0.0000000E+00; -6.1611213E-02;  1.0700894E+03;
  1.0913360E+00;  9.9999998E-03;  4.0432759E-02;8031;  8.6291749E-03;  0.0000000E+00; -2.6273406E-03;  9.9813239E+02;  3.1008875E-01; -1.5472637E+03;3;  7.0055389E+00;  0.0000000E+00; -1.7923111E-01;0;  1.6774295E-01;  4.2390317E+03;  0.0000000E+00;  1.5081929E-01;  4.0000000E+04;  0.0000000E+00;  3.9189992E+04;  2.2935423E-01;  0.0000000E+00; -6.1611284E-02;  1.0702323E+03;
  1.0914421E+00;  9.9999998E-03; -5.0555717E-02;8022;  8.6529609E-03;  0.0000000E+00;  3.2812182E-03;  9.9821356E+02;  3.1012517E-01; -1.4800063E+03;3;  7.1106081E+00;  0.0000000E+00;  2.2242153E-01;0;  1.6594365E-01;  4.2389331E+03;  0.0000000E+00;  2.2622712E-01;  4.0000000E+04;  0.0000000E+00;  3.9188609E+04;  2.2761010E-01;  0.0000000E+00; -6.1666444E-02;  1.6310745E+03;
  1.0914422E+00;  9.9999998E-03;  5.0555807E-02;8032;  8.6530177E-03;  0.0000000E+00; -3.2809793E-03;  9.9821399E+02;  3.1012505E-01; -1.4796608E+03;3;  7.1106300E+00;  0.0000000E+00; -2.2242650E-01;0;  1.6594423E-01;  4.2389341E+03;  0.0000000E+00;  2.2635049E-01;  4.0000000E+04;  0.0000000E+00;  3.9188609E+04;  2.2761080E-01;  0.0000000E+00; -6.1666567E-02;  1.6312622E+03;
  1.0915831E+00;  9.9999998E-03; -6.0684104E-02;8021;  8.6877318E-03;  0.0000000E+00;  3.9334791E-03;  9.9826758E+02;  3.1018940E-01; -1.4352670E+03;3;  7.2532487E+00;  0.0000000E+00;  2.5427899E-01;0;  1.6372138E-01;  4.2379248E+03;  0.0000000E+00;  2.9595590E-01;  4.0000000E+04;  0.0000000E+00;  3.9188258E+04;  2.2539434E-01;  0.0000000E+00; -6.1672948E-02;  2.1721572E+03;
  1.0915831E+00;  9.9999998E-03;  6.0684197E-02;8033;  8.6877467E-03;  0.0000000E+00; -3.9332416E-03;  9.9826776E+02;  3.1018934E-01; -1.4351188E+03;3;  7.2532415E+00;  0.0000000E+00; -2.5427595E-01;0;  1.6372192E-01;  4.2379243E+03;  0.0000000E+00;  2.9609343E-01;  4.0000000E+04;  0.0000000E+00;  3.9188258E+04;  2.2539493E-01;  0.0000000E+00; -6.1673019E-02;  2.1723701E+03;
  1.0918344E+00;  9.9999998E-03; -7.0806265E-02;8020;  8.7216375E-03;  0.0000000E+00;  4.5935167E-03;  9.9828033E+02;  3.1034222E-01; -1.4246993E+03;3;  7.3650527E+00;  0.0000000E+00;  2.9818624E-01;0;  1.6131544E-01;  4.2342725E+03;  0.0000000E+00;  3.3487287E-01;  4.0000000E+04;  0.0000000E+00;  3.9189152E+04;  2.2291908E-01;  0.0000000E+00; -6.1603643E-02;  2.5701538E+03;
  1.0922771E+00;  9.9999998E-03; -8.0913842E-02;8019;  8.7808110E-03;  0.0000000E+00;  5.2602622E-03;  9.9823895E+02;  3.1064981E-01; -1.4589700E+03;3;  7.4887881E+00;  0.0000000E+00;  3.3550969E-01;0;  1.5895210E-01;  4.2262324E+03;  0.0000000E+00;  3.1441474E-01;  4.0000000E+04;  0.0000000E+00;  3.9190461E+04;  2.2038142E-01;  0.0000000E+00; -6.1429318E-02;  2.7313052E+03;
  1.0928977E+00;  9.9999998E-03; -9.1010079E-02;8018;  8.9305229E-03;  0.0000000E+00;  5.9342128E-03;  9.9814508E+02;  3.1109762E-01; -1.5367455E+03;3;  7.5794325E+00;  0.0000000E+00;  3.9655527E-01;0;  1.5644979E-01;  4.2142427E+03;  0.0000000E+00;  2.1263459E-01;  4.0000000E+04;  0.0000000E+00;  3.9192184E+04;  2.1755047E-01;  0.0000000E+00; -6.1100684E-02;  2.6328364E+03;
  1.0934657E+00;  9.9999998E-03; -1.0110007E-01;8017;  9.1466708E-03;  0.0000000E+00;  6.6066985E-03;  9.9802216E+02;  3.1150249E-01; -1.6386191E+03;3;  7.6581345E+00;  0.0000000E+00;  4.4060928E-01;0;  1.5281680E-01;  4.2033818E+03;  0.0000000E+00;  2.4863539E-02;  4.0000000E+04;  0.0000000E+00;  3.9193730E+04;  2.1333671E-01;  0.0000000E+00; -6.0519908E-02;  2.3559905E+03;
  1.1244880E+00;  9.9999998E-03; -1.0136261E-02;8087;  1.3351494E-02;  0.0000000E+00;  6.9041277E-04;  9.9806317E+02;  3.3318335E-01; -1.6046442E+03;3;  6.5940466E+00;  0.0000000E+00;  1.0563672E-01;0;  3.0398649E-01;  3.6772249E+03;  0.0000000E+00;  1.3488781E-03;  4.0000000E+04;  0.0000000E+00;  3.9140734E+04;  3.6540413E-01;  0.0000000E+00; -6.1417647E-02;  1.0535254E+03;
  1.1245151E+00;  9.9999998E-03;  5.1527991E-08;8088;  1.3446006E-02;  0.0000000E+00;  1.1499720E-07;  9.9804041E+02;  3.3321291E-01; -1.6235078E+03;3;  6.5859146E+00;  0.0000000E+00; -1.3624805E-05;0;  3.0450052E-01;  3.6763889E+03;  0.0000000E+00;  2.9885053E-10;  4.0000000E+04;  0.0000000E+00;  3.9141117E+04;  3.6583129E-01;  0.0000000E+00; -6.1330765E-02;  1.1314176E+03;
  1.1244879E+00;  9.9999998E-03;  1.0136362E-02;8089;  1.3351457E-02;  0.0000000E+00; -6.9018191E-04;  9.9806323E+02;  3.3318296E-01; -1.6045947E+03;3;  6.5940547E+00;  0.0000000E+00; -1.0566311E-01;0;  3.0398661E-01;  3.6772263E+03;  0.0000000E+00;  1.3696661E-03;  4.0000000E+04;  0.0000000E+00;  3.9140738E+04;  3.6540425E-01;  0.0000000E+00; -6.1417643E-02;  1.0535099E+03;
  1.1244187E+00;  9.9999998E-03; -2.0263003E-02;8086;  1.3124091E-02;  0.0000000E+00;  1.3848683E-03;  9.9814050E+02;  3.3310547E-01; -1.5405472E+03;3;  6.6005244E+00;  0.0000000E+00;  2.0390575E-01;0;  3.0249065E-01;  3.6794722E+03;  0.0000000E+00;  7.3213670E-03;  4.0000000E+04;  0.0000000E+00;  3.9139211E+04;  3.6415887E-01;  0.0000000E+00; -6.1668202E-02;  8.3486298E+02;
  1.1244186E+00;  9.9999998E-03;  2.0263106E-02;8090;  1.3123889E-02;  0.0000000E+00; -1.3846377E-03;  9.9814014E+02;  3.3310750E-01; -1.5408435E+03;3;  6.6005034E+00;  0.0000000E+00; -2.0392862E-01;0;  3.0249053E-01;  3.6794736E+03;  0.0000000E+00;  7.3645902E-03;  4.0000000E+04;  0.0000000E+00;  3.9139203E+04;  3.6415878E-01;  0.0000000E+00; -6.1668240E-02;  8.3482953E+02;
  1.1243196E+00;  9.9999998E-03; -3.0376706E-02;8085;  1.2792024E-02;  0.0000000E+00;  2.0880341E-03;  9.9824054E+02;  3.3299354E-01; -1.4576855E+03;3;  6.5944533E+00;  0.0000000E+00;  3.1052133E-01;0;  3.0002138E-01;  3.6827976E+03;  0.0000000E+00;  2.2662722E-02;  4.0000000E+04;  0.0000000E+00;  3.9136660E+04;  3.6207733E-01;  0.0000000E+00; -6.2055942E-02;  5.7098096E+02;
  1.1243196E+00;  9.9999998E-03;  3.0376805E-02;8091;  1.2792048E-02;  0.0000000E+00; -2.0878057E-03;  9.9824072E+02;  3.3299366E-01; -1.4575374E+03;3;  6.5944433E+00;  0.0000000E+00; -3.1054124E-01;0;  3.0002135E-01;  3.6827983E+03;  0.0000000E+00;  2.2729445E-02;  4.0000000E+04;  0.0000000E+00;  3.9136652E+04;  3.6207736E-01;  0.0000000E+00; -6.2055998E-02;  5.7102338E+02;
  1.1242511E+00;  9.9999998E-03; -4.0487535E-02;8084;  1.2423496E-02;  0.0000000E+00;  2.7997121E-03;  9.9835864E+02;  3.3289352E-01; -1.3598119E+03;3;  6.6320739E+00;  0.0000000E+00;  4.0363631E-01;0;  2.9671162E-01;  3.6858347E+03;  0.0000000E+00;  5.1611673E-02;  4.0000000E+04;  0.0000000E+00;  3.9133820E+04;  3.5924798E-01;  0.0000000E+00; -6.2536344E-02;  6.1990674E+02;
  1.1242511E+00;  9.9999998E-03;  4.0487636E-02;8092;  1.2423587E-02;  0.0000000E+00; -2.7994823E-03;  9.9835876E+02;  3.3289281E-01; -1.3597131E+03;3;  6.6320829E+00;  0.0000000E+00; -4.0364793E-01;0;  2.9671204E-01;  3.6858345E+03;  0.0000000E+00;  5.1705573E-02;  4.0000000E+04;  0.0000000E+00;  3.9133820E+04;  3.5924843E-01;  0.0000000E+00; -6.2536404E-02;  6.2005383E+02;
  1.1242347E+00;  9.9999998E-03; -5.0617453E-02;8083;  1.2087722E-02;  0.0000000E+00;  3.5208061E-03;  9.9845465E+02;  3.3282939E-01; -1.2803080E+03;3;  6.6879334E+00;  0.0000000E+00;  4.9548101E-01;0;  2.9253688E-01;  3.6880327E+03;  0.0000000E+00;  9.3813702E-02;  4.0000000E+04;  0.0000000E+00;  3.9131598E+04;  3.5559517E-01;  0.0000000E+00; -6.3058279E-02;  1.0822106E+03;
  1.1242347E+00;  9.9999998E-03;  5.0617557E-02;8093;  1.2087774E-02;  0.0000000E+00; -3.5205761E-03;  9.9845465E+02;  3.3282939E-01; -1.2803080E+03;3;  6.6879420E+00;  0.0000000E+00; -4.9548626E-01;0;  2.9253742E-01;  3.6880349E+03;  0.0000000E+00;  9.3929335E-02;  4.0000000E+04;  0.0000000E+00;  3.9131613E+04;  3.5559574E-01;  0.0000000E+00; -6.3058317E-02;  1.0824142E+03;
  1.1242766E+00;  9.9999998E-03; -6.0764492E-02;8082;  1.1858509E-02;  0.0000000E+00;  4.2541949E-03;  9.9851379E+02;  3.3280793E-01; -1.2312725E+03;3;  6.8179893E+00;  0.0000000E+00;  5.9497356E-01;0;  2.8740096E-01;  3.6890083E+03;  0.0000000E+00;  1.4010914E-01;  4.0000000E+04;  0.0000000E+00;  3.9129945E+04;  3.5095894E-01;  0.0000000E+00; -6.3557968E-02;  1.6453593E+03;
  1.1242768E+00;  9.9999998E-03;  6.0764600E-02;8094;  1.1858635E-02;  0.0000000E+00; -4.2539653E-03;  9.9851410E+02;  3.3280852E-01; -1.2310255E+03;3;  6.8180089E+00;  0.0000000E+00; -5.9496975E-01;0;  2.8740150E-01;  3.6890061E+03;  0.0000000E+00;  1.4024259E-01;  4.0000000E+04;  0.0000000E+00;  3.9129945E+04;  3.5095951E-01;  0.0000000E+00; -6.3558020E-02;  1.6455693E+03;
  1.1244165E+00;  9.9999998E-03; -7.0906065E-02;8081;  1.1791319E-02;  0.0000000E+00;  4.9979687E-03;  9.9852313E+02;  3.3286935E-01; -1.2235690E+03;3;  6.9152217E+00;  0.0000000E+00;  6.6370589E-01;0;  2.8127953E-01;  3.6878367E+03;  0.0000000E+00;  1.7107350E-01;  4.0000000E+04;  0.0000000E+00;  3.9130098E+04;  3.4523743E-01;  0.0000000E+00; -6.3957907E-02;  2.1347527E+03;
  1.1246910E+00;  9.9999998E-03; -8.1032537E-02;8080;  1.1904124E-02;  0.0000000E+00;  5.7570669E-03;  9.9846045E+02;  3.3304301E-01; -1.2754686E+03;3;  7.0103297E+00;  0.0000000E+00;  7.6959419E-01;0;  2.7409652E-01;  3.6837585E+03;  0.0000000E+00;  1.6182078E-01;  4.0000000E+04;  0.0000000E+00;  3.9131191E+04;  3.3827272E-01;  0.0000000E+00; -6.4176194E-02;  2.4325632E+03;
  1.1250833E+00;  9.9999998E-03; -9.1136627E-02;8079;  1.2233878E-02;  0.0000000E+00;  6.5313424E-03;  9.9833405E+02;  3.3332056E-01; -1.3802062E+03;3;  7.1123672E+00;  0.0000000E+00;  8.2998681E-01;0;  2.6562604E-01;  3.6772195E+03;  0.0000000E+00;  9.1744065E-02;  4.0000000E+04;  0.0000000E+00;  3.9132898E+04;  3.2975960E-01;  0.0000000E+00; -6.4133562E-02;  2.4673794E+03;
  1.1256268E+00;  9.9999998E-03; -1.0121954E-01;8078;  1.2871068E-02;  0.0000000E+00;  7.3288064E-03;  9.9816602E+02;  3.3371514E-01; -1.5194120E+03;3;  7.1807103E+00;  0.0000000E+00;  9.3984455E-01;0;  2.5578403E-01;  3.6678921E+03;  0.0000000E+00; -4.6186872E-02;  4.0000000E+04;  0.0000000E+00;  3.9133852E+04;  3.1953821E-01;  0.0000000E+00; -6.3754156E-02;  2.2566072E+03;
  1.1609907E+00;  9.9999998E-03; -1.0141639E-02;8148;  5.0455850E-02;  0.0000000E+00;  6.0805428E-04;  9.9851709E+02;  3.5939947E-01; -1.2285554E+03;3;  1.6046997E+01;  0.0000000E+00;  7.1780354E-01;0;  3.1685501E-01;  3.1685869E+03;  0.0000000E+00; -8.7222857E-03;  4.0000000E+04;  0.0000000E+00;  3.9082551E+04;  3.6748022E-01;  0.0000000E+00; -5.0625205E-02;  1.6749526E+03;
  1.1610502E+00;  9.9999998E-03;  5.8999774E-08;8149;  5.0456297E-02;  0.0000000E+00;  1.2533424E-07;  9.9848724E+02;  3.5946071E-01; -1.2532954E+03;3;  1.6167952E+01;  0.0000000E+00;  3.0138646E-05;0;  3.1719568E-01;  3.1673677E+03;  0.0000000E+00;  1.2160114E-09;  4.0000000E+04;  0.0000000E+00;  3.9083371E+04;  3.6764580E-01;  0.0000000E+00; -5.0450113E-02;  1.7737942E+03;
  1.1609906E+00;  9.9999998E-03;  1.0141757E-02;8150;  5.0455838E-02;  0.0000000E+00; -6.0780358E-04;  9.9851740E+02;  3.5939905E-01; -1.2283085E+03;3;  1.6046974E+01;  0.0000000E+00; -7.1774369E-01;0;  3.1685486E-01;  3.1685879E+03;  0.0000000E+00; -8.7228846E-03;  4.0000000E+04;  0.0000000E+00;  3.9082543E+04;  3.6748013E-01;  0.0000000E+00; -5.0625261E-02;  1.6748748E+03;
  1.1608250E+00;  9.9999998E-03; -2.0275198E-02;8147;  5.0409839E-02;  0.0000000E+00;  1.2293581E-03;  9.9860547E+02;  3.5923088E-01; -1.1553231E+03;3;  1.5659437E+01;  0.0000000E+00;  1.4854797E+00;0;  3.1576467E-01;  3.1720750E+03;  0.0000000E+00; -3.2964826E-02;  4.0000000E+04;  0.0000000E+00;  3.9080836E+04;  3.6689383E-01;  0.0000000E+00; -5.1129166E-02;  1.3862147E+03;
  1.1608250E+00;  9.9999998E-03;  2.0275321E-02;8151;  5.0409943E-02;  0.0000000E+00; -1.2291049E-03;  9.9860590E+02;  3.5923126E-01; -1.1549774E+03;3;  1.5659466E+01;  0.0000000E+00; -1.4854174E+00;0;  3.1576419E-01;  3.1720750E+03;  0.0000000E+00; -3.2961611E-02;  4.0000000E+04;  0.0000000E+00;  3.9080832E+04;  3.6689335E-01;  0.0000000E+00; -5.1129166E-02;  1.3860853E+03;
  1.1605513E+00;  9.9999998E-03; -3.0404922E-02;8146;  5.0228890E-02;  0.0000000E+00;  1.8722529E-03;  9.9873383E+02;  3.5895151E-01; -1.0490054E+03;3;  1.5056746E+01;  0.0000000E+00;  2.2075348E+00;0;  3.1384668E-01;  3.1777466E+03;  0.0000000E+00; -6.7053825E-02;  4.0000000E+04;  0.0000000E+00;  3.9077934E+04;  3.6576590E-01;  0.0000000E+00; -5.1919218E-02;  9.4257184E+02;
  1.1605513E+00;  9.9999998E-03;  3.0405058E-02;8152;  5.0228760E-02;  0.0000000E+00; -1.8719990E-03;  9.9873346E+02;  3.5895163E-01; -1.0493016E+03;3;  1.5056742E+01;  0.0000000E+00; -2.2074873E+00;0;  3.1384689E-01;  3.1777476E+03;  0.0000000E+00; -6.7040250E-02;  4.0000000E+04;  0.0000000E+00;  3.9077934E+04;  3.6576608E-01;  0.0000000E+00; -5.1919203E-02;  9.4246674E+02;
  1.1602062E+00;  9.9999998E-03; -4.0542848E-02;8145;  4.9892943E-02;  0.0000000E+00;  2.5445325E-03;  9.9888464E+02;  3.5859576E-01; -9.2407080E+02;3;  1.4280075E+01;  0.0000000E+00;  2.9134393E+00;0;  3.1088075E-01;  3.1848911E+03;  0.0000000E+00; -1.0207278E-01;  4.0000000E+04;  0.0000000E+00;  3.9074699E+04;  3.6379167E-01;  0.0000000E+00; -5.2910917E-02;  4.2490726E+02;
  1.1602062E+00;  9.9999998E-03;  4.0542979E-02;8153;  4.9892958E-02;  0.0000000E+00; -2.5442801E-03;  9.9888464E+02;  3.5859576E-01; -9.2407080E+02;3;  1.4280092E+01;  0.0000000E+00; -2.9133937E+00;0;  3.1088069E-01;  3.1848926E+03;  0.0000000E+00; -1.0203953E-01;  4.0000000E+04;  0.0000000E+00;  3.9074691E+04;  3.6379156E-01;  0.0000000E+00; -5.2910857E-02;  4.2484833E+02;
  1.1598701E+00;  9.9999998E-03; -5.0679088E-02;8144;  4.9463827E-02;  0.0000000E+00;  3.2482301E-03;  9.9903168E+02;  3.5823196E-01; -8.0224731E+02;3;  1.3377962E+01;  0.0000000E+00;  3.6307011E+00;0;  3.0652672E-01;  3.1920793E+03;  0.0000000E+00; -1.2782624E-01;  4.0000000E+04;  0.0000000E+00;  3.9071703E+04;  3.6050680E-01;  0.0000000E+00; -5.3980090E-02;  6.3091244E+01;
  1.1598701E+00;  9.9999998E-03;  5.0679218E-02;8154;  4.9464032E-02;  0.0000000E+00; -3.2479803E-03;  9.9903204E+02;  3.5822904E-01; -8.0195105E+02;3;  1.3378012E+01;  0.0000000E+00; -3.6306713E+00;0;  3.0652627E-01;  3.1920774E+03;  0.0000000E+00; -1.2777074E-01;  4.0000000E+04;  0.0000000E+00;  3.9071711E+04;  3.6050633E-01;  0.0000000E+00; -5.3980049E-02;  6.3113472E+01;
  1.1596226E+00;  9.9999998E-03; -6.0829420E-02;8143;  4.9040381E-02;  0.0000000E+00;  3.9853281E-03;  9.9915216E+02;  3.5793477E-01; -7.0239850E+02;3;  1.2375797E+01;  0.0000000E+00;  4.3135538E+00;0;  3.0045408E-01;  3.1978792E+03;  0.0000000E+00; -1.3725922E-01;  4.0000000E+04;  0.0000000E+00;  3.9070090E+04;  3.5544920E-01;  0.0000000E+00; -5.4995123E-02;  4.1926379E+02;
  1.1596226E+00;  9.9999998E-03;  6.0829554E-02;8155;  4.9040630E-02;  0.0000000E+00; -3.9850795E-03;  9.9915234E+02;  3.5793582E-01; -7.0225037E+02;3;  1.2375821E+01;  0.0000000E+00; -4.3135228E+00;0;  3.0045366E-01;  3.1978784E+03;  0.0000000E+00; -1.3717607E-01;  4.0000000E+04;  0.0000000E+00;  3.9070090E+04;  3.5544875E-01;  0.0000000E+00; -5.4995105E-02;  4.1934024E+02;
  1.1595590E+00;  9.9999998E-03; -7.0984572E-02;8142;  4.8789341E-02;  0.0000000E+00;  4.7538560E-03;  9.9922473E+02;  3.5778949E-01; -6.4230157E+02;3;  1.1394482E+01;  0.0000000E+00;  4.9228468E+00;0;  2.9233262E-01;  3.2005896E+03;  0.0000000E+00; -1.3161261E-01;  4.0000000E+04;  0.0000000E+00;  3.9069691E+04;  3.4814498E-01;  0.0000000E+00; -5.5812363E-02;  7.1680219E+02;
  1.1599309E+00;  9.9999998E-03; -8.1126817E-02;8141;  4.9030822E-02;  0.0000000E+00;  5.5827000E-03;  9.9924286E+02;  3.5801455E-01; -6.2728967E+02;3;  1.0200815E+01;  0.0000000E+00;  5.4758267E+00;0;  2.8147134E-01;  3.1963938E+03;  0.0000000E+00; -1.2289990E-01;  4.0000000E+04;  0.0000000E+00;  3.9070227E+04;  3.3768785E-01;  0.0000000E+00; -5.6216519E-02;  1.0360372E+03;
  1.1606321E+00;  9.9999998E-03; -9.1246977E-02;8140;  4.9096748E-02;  0.0000000E+00;  6.4331973E-03;  9.9919550E+02;  3.5852477E-01; -6.6649835E+02;3;  8.7835178E+00;  0.0000000E+00;  5.9252238E+00;0;  2.6799327E-01;  3.1868831E+03;  0.0000000E+00; -1.2501696E-01;  4.0000000E+04;  0.0000000E+00;  3.9071262E+04;  3.2416672E-01;  0.0000000E+00; -5.6173436E-02;  1.3905454E+03;
  1.1613939E+00;  9.9999998E-03; -1.0134874E-01;8139;  4.8589978E-02;  0.0000000E+00;  7.2561172E-03;  9.9909589E+02;  3.5909286E-01; -7.4906378E+02;3;  7.4411130E+00;  0.0000000E+00;  6.2900848E+00;0;  2.5258237E-01;  3.1761870E+03;  0.0000000E+00; -1.4686920E-01;  4.0000000E+04;  0.0000000E+00;  3.9072020E+04;  3.0832663E-01;  0.0000000E+00; -5.5744249E-02;  1.7066658E+03;
  1.1985914E+00;  9.9999998E-03; -6.0815036E-02;8204;  5.5905111E-02;  0.0000000E+00;  1.9876987E-03;  9.9910046E+02;  3.8652366E-01; -7.4526031E+02;3;  1.2871536E+01;  0.0000000E+00;  2.3478756E+00;0;  1.4370632E-01;  2.7456304E+03;  0.0000000E+00; -2.3987129E-01;  4.0000000E+04;  0.0000000E+00;  3.9014379E+04;  1.7284186E-01;  0.0000000E+00; -2.9135542E-02;  1.0762024E+03;
  1.1985914E+00;  9.9999998E-03;  6.0815200E-02;8216;  5.5905066E-02;  0.0000000E+00; -1.9873769E-03;  9.9910046E+02;  3.8652259E-01; -7.4526031E+02;3;  1.2871556E+01;  0.0000000E+00; -2.3478851E+00;0;  1.4370573E-01;  2.7456301E+03;  0.0000000E+00; -2.3986343E-01;  4.0000000E+04;  0.0000000E+00;  3.9014391E+04;  1.7284119E-01;  0.0000000E+00; -2.9135467E-02;  1.0762405E+03;
  1.1987305E+00;  9.9999998E-03; -5.0649516E-02;8205;  5.6357931E-02;  0.0000000E+00;  1.5835621E-03;  9.9899268E+02;  3.8677517E-01; -8.3454138E+02;3;  1.3632033E+01;  0.0000000E+00;  1.9952892E+00;0;  1.4709102E-01;  2.7418472E+03;  0.0000000E+00; -1.8526749E-01;  4.0000000E+04;  0.0000000E+00;  3.9015898E+04;  1.7527163E-01;  0.0000000E+00; -2.8180609E-02;  1.2669547E+03;
  1.1987305E+00;  9.9999998E-03;  5.0649669E-02;8215;  5.6357883E-02;  0.0000000E+00; -1.5832477E-03;  9.9899292E+02;  3.8677764E-01; -8.3434387E+02;3;  1.3631986E+01;  0.0000000E+00; -1.9953066E+00;0;  1.4709087E-01;  2.7418496E+03;  0.0000000E+00; -1.8527490E-01;  4.0000000E+04;  0.0000000E+00;  3.9015906E+04;  1.7527153E-01;  0.0000000E+00; -2.8180663E-02;  1.2669397E+03;
  1.1985892E+00;  9.9999998E-03; -7.0973910E-02;8203;  5.5279616E-02;  0.0000000E+00;  2.4143986E-03;  9.9920093E+02;  3.8638279E-01; -6.6200366E+02;3;  1.1978023E+01;  0.0000000E+00;  2.6752708E+00;0;  1.3868585E-01;  2.7475767E+03;  0.0000000E+00; -2.8070629E-01;  4.0000000E+04;  0.0000000E+00;  3.9014496E+04;  1.6852584E-01;  0.0000000E+00; -2.9839991E-02;  1.0657457E+03;
  1.1990018E+00;  9.9999998E-03; -4.0488336E-02;8206;  5.6674846E-02;  0.0000000E+00;  1.2112039E-03;  9.9887427E+02;  3.8712612E-01; -9.3266174E+02;3;  1.4265493E+01;  0.0000000E+00;  1.6173207E+00;0;  1.4891693E-01;  2.7364971E+03;  0.0000000E+00; -1.2689653E-01;  4.0000000E+04;  0.0000000E+00;  3.9017992E+04;  1.7599267E-01;  0.0000000E+00; -2.7075743E-02;  1.6386096E+03;
  1.1990018E+00;  9.9999998E-03;  4.0488508E-02;8214;  5.6674805E-02;  0.0000000E+00; -1.2108868E-03;  9.9887402E+02;  3.8712561E-01; -9.3285925E+02;3;  1.4265422E+01;  0.0000000E+00; -1.6173244E+00;0;  1.4891645E-01;  2.7364983E+03;  0.0000000E+00; -1.2691367E-01;  4.0000000E+04;  0.0000000E+00;  3.9018000E+04;  1.7599219E-01;  0.0000000E+00; -2.7075732E-02;  1.6385549E+03;
  1.1986860E+00;  9.9999998E-03; -8.1121139E-02;8202;  5.4456428E-02;  0.0000000E+00;  2.8625363E-03;  9.9925043E+02;  3.8632742E-01; -6.2101733E+02;3;  1.0976361E+01;  0.0000000E+00;  3.0060396E+00;0;  1.3217314E-01;  2.7480149E+03;  0.0000000E+00; -2.9916328E-01;  4.0000000E+04;  0.0000000E+00;  3.9015855E+04;  1.6241753E-01;  0.0000000E+00; -3.0244393E-02;  1.1789224E+03;
  1.1993232E+00;  9.9999998E-03; -3.0356193E-02;8207;  5.6879442E-02;  0.0000000E+00;  8.7102922E-04;  9.9877954E+02;  3.8749924E-01; -1.0111284E+03;3;  1.4771344E+01;  0.0000000E+00;  1.2326491E+00;0;  1.4965223E-01;  2.7308391E+03;  0.0000000E+00; -7.4124418E-02;  4.0000000E+04;  0.0000000E+00;  3.9020879E+04;  1.7564413E-01;  0.0000000E+00; -2.5991902E-02;  2.0737195E+03;
  1.1993231E+00;  9.9999998E-03;  3.0356349E-02;8213;  5.6879409E-02;  0.0000000E+00; -8.7071687E-04;  9.9877979E+02;  3.8750187E-01; -1.0109308E+03;3;  1.4771345E+01;  0.0000000E+00; -1.2326479E+00;0;  1.4965194E-01;  2.7308389E+03;  0.0000000E+00; -7.4145332E-02;  4.0000000E+04;  0.0000000E+00;  3.9020875E+04;  1.7564386E-01;  0.0000000E+00; -2.5991919E-02;  2.0735435E+03;
  1.1988875E+00;  9.9999998E-03; -9.1256827E-02;8201;  5.3421430E-02;  0.0000000E+00;  3.3254889E-03;  9.9925598E+02;  3.8638163E-01; -6.1642487E+02;3;  9.8837519E+00;  0.0000000E+00;  3.2746179E+00;0;  1.2414080E-01;  2.7467009E+03;  0.0000000E+00; -2.9038757E-01;  4.0000000E+04;  0.0000000E+00;  3.9018121E+04;  1.5442672E-01;  0.0000000E+00; -3.0285923E-02;  1.4426082E+03;
  1.1996121E+00;  9.9999998E-03; -2.0239199E-02;8208;  5.7000201E-02;  0.0000000E+00;  5.6005974E-04;  9.9870703E+02;  3.8782087E-01; -1.0711759E+03;3;  1.5122508E+01;  0.0000000E+00;  8.2189757E-01;0;  1.4979981E-01;  2.7259946E+03;  0.0000000E+00; -3.3496138E-02;  4.0000000E+04;  0.0000000E+00;  3.9022980E+04;  1.7488919E-01;  0.0000000E+00; -2.5089387E-02;  2.4527605E+03;
  1.1996121E+00;  9.9999998E-03;  2.0239351E-02;8212;  5.7000179E-02;  0.0000000E+00; -5.5974571E-04;  9.9870715E+02;  3.8782069E-01; -1.0710771E+03;3;  1.5122506E+01;  0.0000000E+00; -8.2189429E-01;0;  1.4979950E-01;  2.7259963E+03;  0.0000000E+00; -3.3514716E-02;  4.0000000E+04;  0.0000000E+00;  3.9022984E+04;  1.7488888E-01;  0.0000000E+00; -2.5089376E-02;  2.4526660E+03;
  1.1997892E+00;  9.9999998E-03; -1.0122501E-02;8209;  5.7064127E-02;  0.0000000E+00;  2.7523463E-04;  9.9865857E+02;  3.8801557E-01; -1.1113228E+03;3;  1.5354911E+01;  0.0000000E+00;  4.2902499E-01;0;  1.4983384E-01;  2.7230061E+03;  0.0000000E+00; -8.4178438E-03;  4.0000000E+04;  0.0000000E+00;  3.9024473E+04;  1.7434409E-01;  0.0000000E+00; -2.4510251E-02;  2.6998025E+03;
  1.1997890E+00;  9.9999998E-03;  1.0122650E-02;8211;  5.7064116E-02;  0.0000000E+00; -2.7492465E-04;  9.9865881E+02;  3.8801703E-01; -1.1111252E+03;3;  1.5354889E+01;  0.0000000E+00; -4.2902097E-01;0;  1.4983417E-01;  2.7230071E+03;  0.0000000E+00; -8.4284823E-03;  4.0000000E+04;  0.0000000E+00;  3.9024484E+04;  1.7434448E-01;  0.0000000E+00; -2.4510304E-02;  2.6997646E+03;
  1.1998414E+00;  9.9999998E-03;  7.3207083E-08;8210;  5.7080928E-02;  0.0000000E+00;  1.5604088E-07;  9.9864062E+02;  3.8807714E-01; -1.1262358E+03;3;  1.5407869E+01;  0.0000000E+00; -1.5357509E-06;0;  1.4987224E-01;  2.7220930E+03;  0.0000000E+00;  6.3037592E-10;  4.0000000E+04;  0.0000000E+00;  3.9025238E+04;  1.7418896E-01;  0.0000000E+00; -2.4316711E-02;  2.7838022E+03;
  1.1992031E+00;  9.9999998E-03; -1.0138497E-01;8200;  5.2159447E-02;  0.0000000E+00;  3.7975705E-03;  9.9919324E+02;  3.8654885E-01; -6.6837384E+02;3;  8.6580696E+00;  0.0000000E+00;  3.5723665E+00;0;  1.1457349E-01;  2.7435098E+03;  0.0000000E+00; -2.5528497E-01;  4.0000000E+04;  0.0000000E+00;  3.9020512E+04;  1.4450690E-01;  0.0000000E+00; -2.9933412E-02;  1.8892344E+03;
  1.2402521E+00;  9.9999998E-03; -8.1140913E-02;8263;  5.3508136E-02;  0.0000000E+00; -1.4331122E-03;  9.9729272E+02;  4.1750196E-01; -2.2429346E+03;3;  1.1755816E+01;  0.0000000E+00; -3.9421880E-01;0;  7.4658510E-03;  2.3466853E+03;  0.0000000E+00; -3.4437883E-01;  4.0000000E+04;  0.0000000E+00;  3.8969672E+04; -5.3998069E-03;  0.0000000E+00;  1.2865658E-02;  4.3195918E+03;
  1.2401649E+00;  9.9999998E-03; -9.1278538E-02;8262;  5.2606974E-02;  0.0000000E+00; -1.4446806E-03;  9.9736285E+02;  4.1728222E-01; -2.1848130E+03;3;  1.0628448E+01;  0.0000000E+00; -3.5061085E-01;0;  8.1395581E-03;  2.3487039E+03;  0.0000000E+00; -4.0928245E-01;  4.0000000E+04;  0.0000000E+00;  3.8972457E+04; -5.8233687E-03;  0.0000000E+00;  1.3962927E-02;  4.6545151E+03;
  1.2405771E+00;  9.9999998E-03; -7.0986390E-02;8264;  5.4137386E-02;  0.0000000E+00; -1.3337082E-03;  9.9720435E+02;  4.1794780E-01; -2.3161169E+03;3;  1.2724086E+01;  0.0000000E+00; -3.5899985E-01;0;  5.9189866E-03;  2.3419172E+03;  0.0000000E+00; -2.6139393E-01;  4.0000000E+04;  0.0000000E+00;  3.8967207E+04; -6.3264933E-03;  0.0000000E+00;  1.2245480E-02;  4.1229072E+03;
  1.2403518E+00;  9.9999998E-03; -1.0140187E-01;8261;  5.1407196E-02;  0.0000000E+00; -1.4231397E-03;  9.9740131E+02;  4.1733372E-01; -2.1529624E+03;3;  9.3477545E+00;  0.0000000E+00; -2.0569579E-01;0;  7.8095789E-03;  2.3475425E+03;  0.0000000E+00; -4.4313341E-01;  4.0000000E+04;  0.0000000E+00;  3.8975242E+04; -7.6394021E-03;  0.0000000E+00;  1.5448981E-02;  5.0150049E+03;
  1.2410467E+00;  9.9999998E-03; -6.0811877E-02;8265;  5.4576114E-02;  0.0000000E+00; -1.1859357E-03;  9.9712549E+02;  4.1853020E-01; -2.3814480E+03;3;  1.3553031E+01;  0.0000000E+00; -3.3464259E-01;0;  3.7697051E-03;  2.3355471E+03;  0.0000000E+00; -1.7664430E-01;  4.0000000E+04;  0.0000000E+00;  3.8965785E+04; -8.2821045E-03;  0.0000000E+00;  1.2051810E-02;  4.1067383E+03;
  1.2410465E+00;  9.9999998E-03;  6.0812041E-02;8277;  5.4576065E-02;  0.0000000E+00;  1.1862764E-03;  9.9712579E+02;  4.1852954E-01; -2.3812012E+03;3;  1.3552994E+01;  0.0000000E+00;  3.3463052E-01;0;  3.7695635E-03;  2.3355471E+03;  0.0000000E+00; -1.7672023E-01;  4.0000000E+04;  0.0000000E+00;  3.8965789E+04; -8.2821185E-03;  0.0000000E+00;  1.2051682E-02;  4.1067012E+03;
  1.2415357E+00;  9.9999998E-03; -1.0106183E-02;8270;  5.5433169E-02;  0.0000000E+00; -1.8478664E-04;  9.9684216E+02;  4.1941753E-01; -2.6162051E+03;3;  1.5967189E+01;  0.0000000E+00; -5.6834858E-02;0; -2.2179577E-03;  2.3249482E+03;  0.0000000E+00; -1.5215608E-03;  4.0000000E+04;  0.0000000E+00;  3.8971152E+04; -1.4796739E-02;  0.0000000E+00;  1.2578782E-02;  4.9590493E+03;
  1.2415224E+00;  9.9999998E-03;  8.4486295E-08;8271;  5.5450786E-02;  0.0000000E+00;  1.8924563E-07;  9.9683221E+02;  4.1941771E-01; -2.6244517E+03;3;  1.6041859E+01;  0.0000000E+00;  4.7239009E-06;0; -2.3425091E-03;  2.3248906E+03;  0.0000000E+00; -1.1229870E-09;  4.0000000E+04;  0.0000000E+00;  3.8971500E+04; -1.4976290E-02;  0.0000000E+00;  1.2633781E-02;  5.0108350E+03;
  1.2415355E+00;  9.9999998E-03;  1.0106352E-02;8272;  5.5433169E-02;  0.0000000E+00;  1.8516109E-04;  9.9684247E+02;  4.1941521E-01; -2.6159583E+03;3;  1.5967194E+01;  0.0000000E+00;  5.6840815E-02;0; -2.2176430E-03;  2.3249504E+03;  0.0000000E+00; -1.5346801E-03;  4.0000000E+04;  0.0000000E+00;  3.8971156E+04; -1.4796269E-02;  0.0000000E+00;  1.2578626E-02;  4.9589541E+03;
  1.2415673E+00;  9.9999998E-03; -2.0213664E-02;8269;  5.5377118E-02;  0.0000000E+00; -3.7530091E-04;  9.9687433E+02;  4.1940725E-01; -2.5895393E+03;3;  1.5738003E+01;  0.0000000E+00; -8.5144475E-02;0; -1.8234942E-03;  2.3252004E+03;  0.0000000E+00; -7.7568106E-03;  4.0000000E+04;  0.0000000E+00;  3.8969902E+04; -1.4258343E-02;  0.0000000E+00;  1.2434849E-02;  4.8143398E+03;
  1.2415674E+00;  9.9999998E-03;  2.0213842E-02;8273;  5.5377085E-02;  0.0000000E+00;  3.7567774E-04;  9.9687396E+02;  4.1940793E-01; -2.5898357E+03;3;  1.5737947E+01;  0.0000000E+00;  8.5150510E-02;0; -1.8237112E-03;  2.3252000E+03;  0.0000000E+00; -7.7833910E-03;  4.0000000E+04;  0.0000000E+00;  3.8969895E+04; -1.4258572E-02;  0.0000000E+00;  1.2434861E-02;  4.8142578E+03;
  1.2416174E+00;  9.9999998E-03; -3.0330030E-02;8268;  5.5273812E-02;  0.0000000E+00; -5.7467900E-04;  9.9692413E+02;  4.1938818E-01; -2.5482568E+03;3;  1.5383506E+01;  0.0000000E+00; -1.1090495E-01;0; -1.1532120E-03;  2.3255913E+03;  0.0000000E+00; -2.3215596E-02;  4.0000000E+04;  0.0000000E+00;  3.8968199E+04; -1.3433385E-02;  0.0000000E+00;  1.2280173E-02;  4.6123633E+03;
  1.2416173E+00;  9.9999998E-03;  3.0330207E-02;8274;  5.5273779E-02;  0.0000000E+00;  5.7504023E-04;  9.9692432E+02;  4.1938868E-01; -2.5481086E+03;3;  1.5383449E+01;  0.0000000E+00;  1.1090224E-01;0; -1.1531301E-03;  2.3255908E+03;  0.0000000E+00; -2.3257772E-02;  4.0000000E+04;  0.0000000E+00;  3.8968188E+04; -1.3433147E-02;  0.0000000E+00;  1.2280017E-02;  4.6122432E+03;
  1.2416588E+00;  9.9999998E-03; -4.0466201E-02;8267;  5.5109296E-02;  0.0000000E+00; -7.8906363E-04;  9.9698560E+02;  4.1934103E-01; -2.4973450E+03;3;  1.4887565E+01;  0.0000000E+00; -1.8673511E-01;0; -1.5405752E-04;  2.3263523E+03;  0.0000000E+00; -5.3859346E-02;  4.0000000E+04;  0.0000000E+00;  3.8966445E+04; -1.2355204E-02;  0.0000000E+00;  1.2201146E-02;  4.4044883E+03;
  1.2416587E+00;  9.9999998E-03;  4.0466379E-02;8275;  5.5109255E-02;  0.0000000E+00;  7.8942487E-04;  9.9698541E+02;  4.1934323E-01; -2.4974932E+03;3;  1.4887526E+01;  0.0000000E+00;  1.8675765E-01;0; -1.5412737E-04;  2.3263521E+03;  0.0000000E+00; -5.3914338E-02;  4.0000000E+04;  0.0000000E+00;  3.8966445E+04; -1.2355157E-02;  0.0000000E+00;  1.2201030E-02;  4.4043252E+03;
  1.2415618E+00;  9.9999998E-03; -5.0628766E-02;8266;  5.4875545E-02;  0.0000000E+00; -1.0010285E-03;  9.9706061E+02;  4.1913849E-01; -2.4352239E+03;3;  1.4276520E+01;  0.0000000E+00; -3.1569657E-01;0;  1.3779588E-03;  2.3287366E+03;  0.0000000E+00; -1.0466462E-01;  4.0000000E+04;  0.0000000E+00;  3.8965637E+04; -1.0815327E-02;  0.0000000E+00;  1.2193286E-02;  4.2347363E+03;
  1.2415618E+00;  9.9999998E-03;  5.0628953E-02;8276;  5.4875482E-02;  0.0000000E+00;  1.0013951E-03;  9.9706024E+02;  4.1913816E-01; -2.4355200E+03;3;  1.4276525E+01;  0.0000000E+00;  3.1571355E-01;0;  1.3775332E-03;  2.3287368E+03;  0.0000000E+00; -1.0473560E-01;  4.0000000E+04;  0.0000000E+00;  3.8965633E+04; -1.0815785E-02;  0.0000000E+00;  1.2193318E-02;  4.2346738E+03;
  1.2845117E+00;  9.9999998E-03; -1.0147684E-01;8322;  4.8252866E-02;  0.0000000E+00; -5.7843020E-03;  9.9545428E+02;  4.5054910E-01; -3.7659705E+03;3;  9.7248411E+00;  0.0000000E+00; -4.5115376E+00;0;  7.6281205E-02;  2.0084579E+03;  0.0000000E+00; -5.3685486E-01;  4.0000000E+04;  0.0000000E+00;  3.8922328E+04;  7.7068014E-03;  0.0000000E+00;  6.8574406E-02;  7.6327173E+03;
  1.2849026E+00;  9.9999998E-03; -9.1347195E-02;8323;  4.9160205E-02;  0.0000000E+00; -5.1411614E-03;  9.9533203E+02;  4.5103949E-01; -3.8672991E+03;3;  1.1042320E+01;  0.0000000E+00; -3.8710675E+00;0;  5.4762810E-02;  2.0042966E+03;  0.0000000E+00; -4.0725151E-01;  4.0000000E+04;  0.0000000E+00;  3.8920871E+04; -8.7418696E-03;  0.0000000E+00;  6.3504681E-02;  7.6564419E+03;
  1.2855834E+00;  9.9999998E-03; -8.1203520E-02;8324;  4.9747314E-02;  0.0000000E+00; -4.5625228E-03;  9.9522748E+02;  4.5182040E-01; -3.9539124E+03;3;  1.2111049E+01;  0.0000000E+00; -3.4222453E+00;0;  3.5041664E-02;  1.9975825E+03;  0.0000000E+00; -2.6872692E-01;  4.0000000E+04;  0.0000000E+00;  3.8918297E+04; -2.3602448E-02;  0.0000000E+00;  5.8644112E-02;  7.6857109E+03;
  1.2862152E+00;  9.9999998E-03; -7.1023390E-02;8325;  5.0123930E-02;  0.0000000E+00; -4.0223473E-03;  9.9512402E+02;  4.5255202E-01; -4.0395876E+03;3;  1.3149359E+01;  0.0000000E+00; -3.0636511E+00;0;  1.6638704E-02;  1.9912242E+03;  0.0000000E+00; -1.4500429E-01;  4.0000000E+04;  0.0000000E+00;  3.8915910E+04; -3.7500143E-02;  0.0000000E+00;  5.4138847E-02;  7.6576606E+03;
  1.2865037E+00;  9.9999998E-03; -6.0826767E-02;8326;  5.0370716E-02;  0.0000000E+00; -3.4879593E-03;  9.9498853E+02;  4.5295349E-01; -4.1518789E+03;3;  1.4019227E+01;  0.0000000E+00; -2.6185248E+00;0; -1.0841340E-04;  1.9876084E+03;  0.0000000E+00; -5.3566311E-02;  4.0000000E+04;  0.0000000E+00;  3.8914969E+04; -5.0298821E-02;  0.0000000E+00;  5.0190408E-02;  7.5676440E+03;
  1.2865037E+00;  9.9999998E-03;  6.0826965E-02;8338;  5.0370678E-02;  0.0000000E+00;  3.4884096E-03;  9.9498871E+02;  4.5295334E-01; -4.1517310E+03;3;  1.4019217E+01;  0.0000000E+00;  2.6185322E+00;0; -1.0817125E-04;  1.9876085E+03;  0.0000000E+00; -5.3697683E-02;  4.0000000E+04;  0.0000000E+00;  3.8914961E+04; -5.0298445E-02;  0.0000000E+00;  5.0190274E-02;  7.5674072E+03;
  1.2865580E+00;  9.9999998E-03; -5.0659951E-02;8327;  5.0528333E-02;  0.0000000E+00; -2.9786730E-03;  9.9484161E+02;  4.5311844E-01; -4.2735532E+03;3;  1.4746306E+01;  0.0000000E+00; -2.3605542E+00;0; -1.4291316E-02;  1.9858738E+03;  0.0000000E+00;  1.1381885E-03;  4.0000000E+04;  0.0000000E+00;  3.8914715E+04; -6.1379079E-02;  0.0000000E+00;  4.7087763E-02;  7.5136738E+03;
  1.2865583E+00;  9.9999998E-03;  5.0660163E-02;8337;  5.0528269E-02;  0.0000000E+00;  2.9791391E-03;  9.9484155E+02;  4.5311850E-01; -4.2736025E+03;3;  1.4746243E+01;  0.0000000E+00;  2.3605599E+00;0; -1.4290918E-02;  1.9858728E+03;  0.0000000E+00;  1.0307260E-03;  4.0000000E+04;  0.0000000E+00;  3.8914719E+04; -6.1378658E-02;  0.0000000E+00;  4.7087740E-02;  7.5135244E+03;
  1.2867914E+00;  9.9999998E-03; -3.0394556E-02;8329;  5.0590672E-02;  0.0000000E+00; -1.9565481E-03;  9.9465216E+02;  4.5351714E-01; -4.4305342E+03;3;  1.5869852E+01;  0.0000000E+00; -1.6443603E+00;0; -3.3980150E-02;  1.9817128E+03;  0.0000000E+00;  2.5132440E-02;  4.0000000E+04;  0.0000000E+00;  3.8917250E+04; -7.7612750E-02;  0.0000000E+00;  4.3632600E-02;  7.7213208E+03;
  1.2867912E+00;  9.9999998E-03;  3.0394752E-02;8335;  5.0590675E-02;  0.0000000E+00;  1.9569718E-03;  9.9465289E+02;  4.5351514E-01; -4.4299419E+03;3;  1.5869786E+01;  0.0000000E+00;  1.6443417E+00;0; -3.3980064E-02;  1.9817145E+03;  0.0000000E+00;  2.5075234E-02;  4.0000000E+04;  0.0000000E+00;  3.8917242E+04; -7.7612467E-02;  0.0000000E+00;  4.3632403E-02;  7.7210303E+03;
  1.2866495E+00;  9.9999998E-03; -4.0521756E-02;8328;  5.0589871E-02;  0.0000000E+00; -2.4729399E-03;  9.9473108E+02;  4.5330104E-01; -4.3651543E+03;3;  1.5376780E+01;  0.0000000E+00; -2.0212383E+00;0; -2.5524210E-02;  1.9839232E+03;  0.0000000E+00;  2.4125261E-02;  4.0000000E+04;  0.0000000E+00;  3.8915793E+04; -7.0475310E-02;  0.0000000E+00;  4.4951100E-02;  7.5715811E+03;
  1.2866493E+00;  9.9999998E-03;  4.0521961E-02;8336;  5.0589841E-02;  0.0000000E+00;  2.4733851E-03;  9.9473151E+02;  4.5330277E-01; -4.3648086E+03;3;  1.5376721E+01;  0.0000000E+00;  2.0212574E+00;0; -2.5524043E-02;  1.9839243E+03;  0.0000000E+00;  2.4044285E-02;  4.0000000E+04;  0.0000000E+00;  3.8915777E+04; -7.0475027E-02;  0.0000000E+00;  4.4950984E-02;  7.5713135E+03;
  1.2869803E+00;  9.9999998E-03;  9.2980834E-08;8332;  5.0490592E-02;  0.0000000E+00;  2.1224233E-07;  9.9453339E+02;  4.5380664E-01; -4.5289492E+03;3;  1.6403389E+01;  0.0000000E+00; -1.1468655E-05;0; -4.4466164E-02;  1.9786769E+03;  0.0000000E+00; -4.3581733E-10;  4.0000000E+04;  0.0000000E+00;  3.8919719E+04; -8.6916752E-02;  0.0000000E+00;  4.2450588E-02;  8.0647661E+03;
  1.2869591E+00;  9.9999998E-03; -1.0133547E-02;8331;  5.0502773E-02;  0.0000000E+00; -6.8447465E-04;  9.9454681E+02;  4.5376977E-01; -4.5177891E+03;3;  1.6298586E+01;  0.0000000E+00; -5.6722587E-01;0; -4.3324683E-02;  1.9790131E+03;  0.0000000E+00;  4.4510039E-03;  4.0000000E+04;  0.0000000E+00;  3.8919621E+04; -8.5874364E-02;  0.0000000E+00;  4.2549681E-02;  8.0182109E+03;
  1.2869589E+00;  9.9999998E-03;  1.0133733E-02;8333;  5.0502792E-02;  0.0000000E+00;  6.8489241E-04;  9.9454663E+02;  4.5376888E-01; -4.5179375E+03;3;  1.6298521E+01;  0.0000000E+00;  5.6718791E-01;0; -4.3324564E-02;  1.9790140E+03;  0.0000000E+00;  4.4337814E-03;  4.0000000E+04;  0.0000000E+00;  3.8919625E+04; -8.5874185E-02;  0.0000000E+00;  4.2549621E-02;  8.0181094E+03;
  1.2869072E+00;  9.9999998E-03; -2.0264748E-02;8330;  5.0543580E-02;  0.0000000E+00; -1.3478550E-03;  9.9459241E+02;  4.5368814E-01; -4.4800132E+03;3;  1.6127281E+01;  0.0000000E+00; -1.1670794E+00;0; -3.9864212E-02;  1.9799554E+03;  0.0000000E+00;  1.5196886E-02;  4.0000000E+04;  0.0000000E+00;  3.8918699E+04; -8.2765609E-02;  0.0000000E+00;  4.2901397E-02;  7.8921021E+03;
  1.2869071E+00;  9.9999998E-03;  2.0264937E-02;8334;  5.0543588E-02;  0.0000000E+00;  1.3482729E-03;  9.9459247E+02;  4.5368561E-01; -4.4799639E+03;3;  1.6127247E+01;  0.0000000E+00;  1.1670474E+00;0; -3.9864089E-02;  1.9799570E+03;  0.0000000E+00;  1.5160727E-02;  4.0000000E+04;  0.0000000E+00;  3.8918699E+04; -8.2765393E-02;  0.0000000E+00;  4.2901304E-02;  7.8919785E+03;
  1.3326296E+00;  9.9999998E-03; -1.0149975E-01;8383;  4.6412211E-02;  0.0000000E+00; -4.6815523E-03;  1.0002699E+03;  4.8216757E-01;  2.2359291E+02;3;  9.5402193E+00;  0.0000000E+00; -6.3001757E+00;0;  2.7999061E-01;  1.7716321E+03;  0.0000000E+00; -3.0680212E-01;  4.0000000E+04;  0.0000000E+00;  3.8859621E+04;  1.9475815E-01;  0.0000000E+00;  8.5232466E-02;  8.3155908E+03;
  1.3329700E+00;  9.9999998E-03; -9.1339625E-02;8384;  4.7152337E-02;  0.0000000E+00; -4.4798357E-03;  9.9997705E+02;  4.8253936E-01; -1.9011322E+01;3;  1.1566446E+01;  0.0000000E+00; -5.0098872E+00;0;  2.0952675E-01;  1.7684095E+03;  0.0000000E+00; -1.6494985E-01;  4.0000000E+04;  0.0000000E+00;  3.8859723E+04;  1.3684957E-01;  0.0000000E+00;  7.2677180E-02;  8.6324092E+03;
  1.3333093E+00;  9.9999998E-03; -8.1133015E-02;8385;  4.7369130E-02;  0.0000000E+00; -4.5235162E-03;  9.9967657E+02;  4.8293123E-01; -2.6793613E+02;3;  1.3159873E+01;  0.0000000E+00; -4.6577101E+00;0;  1.4761227E-01;  1.7650602E+03;  0.0000000E+00; -4.6228275E-02;  4.0000000E+04;  0.0000000E+00;  3.8858930E+04;  8.5926786E-02;  0.0000000E+00;  6.1685495E-02;  8.7616709E+03;
  1.3334829E+00;  9.9999998E-03; -7.0925325E-02;8386;  4.7211092E-02;  0.0000000E+00; -4.5899865E-03;  9.9936694E+02;  4.8320034E-01; -5.2446539E+02;3;  1.4403927E+01;  0.0000000E+00; -4.6721339E+00;0;  9.4652213E-02;  1.7624464E+03;  0.0000000E+00;  3.6268249E-02;  4.0000000E+04;  0.0000000E+00;  3.8858410E+04;  4.1916475E-02;  0.0000000E+00;  5.2735738E-02;  8.7583184E+03;
  1.3337251E+00;  9.9999998E-03; -6.0748763E-02;8387;  4.6790767E-02;  0.0000000E+00; -4.5124493E-03;  9.9911450E+02;  4.8351967E-01; -7.3358984E+02;3;  1.5572287E+01;  0.0000000E+00; -4.6684427E+00;0;  5.0914291E-02;  1.7595385E+03;  0.0000000E+00;  8.0787823E-02;  4.0000000E+04;  0.0000000E+00;  3.8858383E+04;  5.2189482E-03;  0.0000000E+00;  4.5695342E-02;  8.7443262E+03;
  1.3337253E+00;  9.9999998E-03;  6.0748998E-02;8399;  4.6790753E-02;  0.0000000E+00;  4.5129322E-03;  9.9911462E+02;  4.8351970E-01; -7.3349109E+02;3;  1.5572219E+01;  0.0000000E+00;  4.6684489E+00;0;  5.0915755E-02;  1.7595375E+03;  0.0000000E+00;  8.0668554E-02;  4.0000000E+04;  0.0000000E+00;  3.8858387E+04;  5.2205841E-03;  0.0000000E+00;  4.5695171E-02;  8.7441680E+03;
  1.3340296E+00;  9.9999998E-03; -5.0601944E-02;8388;  4.6208199E-02;  0.0000000E+00; -4.0954738E-03;  9.9893915E+02;  4.8387158E-01; -8.7886584E+02;3;  1.6394156E+01;  0.0000000E+00; -4.1608477E+00;0;  1.5669674E-02;  1.7564618E+03;  0.0000000E+00;  9.2102729E-02;  4.0000000E+04;  0.0000000E+00;  3.8859398E+04; -2.4705347E-02;  0.0000000E+00;  4.0375020E-02;  8.8091260E+03;
  1.3340296E+00;  9.9999998E-03;  5.0602179E-02;8398;  4.6208203E-02;  0.0000000E+00;  4.0959832E-03;  9.9893890E+02;  4.8387200E-01; -8.7906335E+02;3;  1.6394100E+01;  0.0000000E+00;  4.1608138E+00;0;  1.5670730E-02;  1.7564608E+03;  0.0000000E+00;  9.2009537E-02;  4.0000000E+04;  0.0000000E+00;  3.8859398E+04; -2.4704164E-02;  0.0000000E+00;  4.0374894E-02;  8.8088848E+03;
  1.3343413E+00;  9.9999998E-03; -4.0474955E-02;8389;  4.5575142E-02;  0.0000000E+00; -3.3902763E-03;  9.9881421E+02;  4.8421133E-01; -9.8236627E+02;3;  1.6784170E+01;  0.0000000E+00; -3.5098233E+00;0; -1.1886634E-02;  1.7535485E+03;  0.0000000E+00;  7.9514123E-02;  4.0000000E+04;  0.0000000E+00;  3.8861020E+04; -4.8434094E-02;  0.0000000E+00;  3.6547460E-02;  8.9747412E+03;
  1.3343413E+00;  9.9999998E-03;  4.0475186E-02;8397;  4.5575149E-02;  0.0000000E+00;  3.3908000E-03;  9.9881427E+02;  4.8421133E-01; -9.8231689E+02;3;  1.6784119E+01;  0.0000000E+00;  3.5097766E+00;0; -1.1885874E-02;  1.7535490E+03;  0.0000000E+00;  7.9446062E-02;  4.0000000E+04;  0.0000000E+00;  3.8861023E+04; -4.8433237E-02;  0.0000000E+00;  3.6547363E-02;  8.9745117E+03;
  1.3346093E+00;  9.9999998E-03; -3.0354623E-02;8390;  4.5010362E-02;  0.0000000E+00; -2.5655921E-03;  9.9873279E+02;  4.8448944E-01; -1.0498193E+03;3;  1.7134960E+01;  0.0000000E+00; -2.5970676E+00;0; -3.2477718E-02;  1.7511302E+03;  0.0000000E+00;  5.4242566E-02;  4.0000000E+04;  0.0000000E+00;  3.8862844E+04; -6.6441305E-02;  0.0000000E+00;  3.3963587E-02;  9.1989707E+03;
  1.3346092E+00;  9.9999998E-03;  3.0354850E-02;8396;  4.5010377E-02;  0.0000000E+00;  2.5661278E-03;  9.9873273E+02;  4.8449245E-01; -1.0498687E+03;3;  1.7134977E+01;  0.0000000E+00;  2.5970192E+00;0; -3.2477088E-02;  1.7511298E+03;  0.0000000E+00;  5.4198358E-02;  4.0000000E+04;  0.0000000E+00;  3.8862836E+04; -6.6440642E-02;  0.0000000E+00;  3.3963554E-02;  9.1987812E+03;
  1.3348132E+00;  9.9999998E-03; -2.0235062E-02;8391;  4.4573210E-02;  0.0000000E+00; -1.7146639E-03;  9.9868567E+02;  4.8469687E-01; -1.0888788E+03;3;  1.7385336E+01;  0.0000000E+00; -1.8315889E+00;0; -4.6709746E-02;  1.7493303E+03;  0.0000000E+00;  2.7247453E-02;  4.0000000E+04;  0.0000000E+00;  3.8864402E+04; -7.9067536E-02;  0.0000000E+00;  3.2357790E-02;  9.4128369E+03;
  1.3348132E+00;  9.9999998E-03;  2.0235287E-02;8395;  4.4573206E-02;  0.0000000E+00;  1.7152106E-03;  9.9868579E+02;  4.8470062E-01; -1.0887800E+03;3;  1.7385370E+01;  0.0000000E+00;  1.8315364E+00;0; -4.6709396E-02;  1.7493307E+03;  0.0000000E+00;  2.7220434E-02;  4.0000000E+04;  0.0000000E+00;  3.8864398E+04; -7.9067089E-02;  0.0000000E+00;  3.2357693E-02;  9.4127578E+03;
  1.3349335E+00;  9.9999998E-03; -1.0117108E-02;8392;  4.4301838E-02;  0.0000000E+00; -8.5854117E-04;  9.9865430E+02;  4.8482120E-01; -1.1148527E+03;3;  1.7559637E+01;  0.0000000E+00; -9.3456018E-01;0; -5.5041056E-02;  1.7482476E+03;  0.0000000E+00;  7.2979848E-03;  4.0000000E+04;  0.0000000E+00;  3.8865348E+04; -8.6548164E-02;  0.0000000E+00;  3.1507108E-02;  9.5596279E+03;
  1.3349333E+00;  9.9999998E-03;  1.0117331E-02;8394;  4.4301864E-02;  0.0000000E+00;  8.5909601E-04;  9.9865424E+02;  4.8482117E-01; -1.1149020E+03;3;  1.7559629E+01;  0.0000000E+00;  9.3455839E-01;0; -5.5040766E-02;  1.7482490E+03;  0.0000000E+00;  7.2857542E-03;  4.0000000E+04;  0.0000000E+00;  3.8865340E+04; -8.6547978E-02;  0.0000000E+00;  3.1507213E-02;  9.5595137E+03;
  1.3349712E+00;  9.9999998E-03;  1.1043684E-07;8393;  4.4205893E-02;  0.0000000E+00;  2.7905421E-07;  9.9864337E+02;  4.8486087E-01; -1.1238892E+03;3;  1.7528761E+01;  0.0000000E+00; -2.6467904E-05;0; -5.7780307E-02;  1.7478949E+03;  0.0000000E+00;  2.0007516E-09;  4.0000000E+04;  0.0000000E+00;  3.8865629E+04; -8.9025624E-02;  0.0000000E+00;  3.1245317E-02;  9.6108330E+03;
  1.3828570E+00;  9.9999998E-03; -1.0159130E-01;8444;  6.3160554E-02;  0.0000000E+00; -2.6906835E-04;  1.0005867E+03;  4.8739293E-01;  4.8608337E+02;3;  2.2064909E+01;  0.0000000E+00; -9.1123104E+00;0;  2.6300579E-01;  1.7344354E+03;  0.0000000E+00;  4.2327431E-01;  4.0000000E+04;  0.0000000E+00;  3.8823652E+04;  2.6091668E-01;  0.0000000E+00;  2.0891088E-03;  8.4251055E+03;
  1.3831487E+00;  9.9999998E-03; -9.1396779E-02;8445;  5.7323202E-02;  0.0000000E+00; -1.1137413E-04;  9.9981775E+02;  4.8751280E-01; -1.5099986E+02;3;  2.2515673E+01;  0.0000000E+00; -8.4954338E+00;0;  1.7949812E-01;  1.7312405E+03;  0.0000000E+00;  4.3247044E-01;  4.0000000E+04;  0.0000000E+00;  3.8824254E+04;  1.9423208E-01;  0.0000000E+00; -1.4733954E-02;  8.6381074E+03;
  1.3834169E+00;  9.9999998E-03; -8.1192270E-02;8446;  5.2127473E-02;  0.0000000E+00; -1.8784183E-05;  9.9910907E+02;  4.8766065E-01; -7.3806226E+02;3;  2.2345171E+01;  0.0000000E+00; -7.7890339E+00;0;  1.0839513E-01;  1.7280806E+03;  0.0000000E+00;  4.0987569E-01;  4.0000000E+04;  0.0000000E+00;  3.8823750E+04;  1.3732728E-01;  0.0000000E+00; -2.8932152E-02;  8.6751768E+03;
  1.3837292E+00;  9.9999998E-03; -7.0998915E-02;8447;  4.8057809E-02;  0.0000000E+00; -4.5390094E-05;  9.9846814E+02;  4.8781735E-01; -1.2690302E+03;3;  2.1083961E+01;  0.0000000E+00; -6.9304442E+00;0;  4.9055520E-02;  1.7249906E+03;  0.0000000E+00;  3.6266378E-01;  4.0000000E+04;  0.0000000E+00;  3.8823324E+04;  8.9857735E-02;  0.0000000E+00; -4.0802214E-02;  8.6735430E+03;
  1.3840405E+00;  9.9999998E-03; -6.0820542E-02;8448;  4.5241579E-02;  0.0000000E+00; -1.2428322E-04;  9.9794043E+02;  4.8795912E-01; -1.7062280E+03;3;  2.0337114E+01;  0.0000000E+00; -6.3618608E+00;0;  6.8987906E-04;  1.7221991E+03;  0.0000000E+00;  2.9878390E-01;  4.0000000E+04;  0.0000000E+00;  3.8824086E+04;  5.1124509E-02;  0.0000000E+00; -5.0434630E-02;  8.7390986E+03;
  1.3840405E+00;  9.9999998E-03;  6.0820810E-02;8460;  4.5241661E-02;  0.0000000E+00;  1.2491409E-04;  9.9794073E+02;  4.8795754E-01; -1.7059811E+03;3;  2.0337158E+01;  0.0000000E+00;  6.3617549E+00;0;  6.9174916E-04;  1.7221996E+03;  0.0000000E+00;  2.9872897E-01;  4.0000000E+04;  0.0000000E+00;  3.8824094E+04;  5.1125795E-02;  0.0000000E+00; -5.0434045E-02;  8.7390381E+03;
  1.3843511E+00;  9.9999998E-03; -5.0656855E-02;8449;  4.2985603E-02;  0.0000000E+00; -8.1693535E-05;  9.9749854E+02;  4.8807889E-01; -2.0723206E+03;3;  2.0276749E+01;  0.0000000E+00; -5.8337617E+00;0; -3.7627522E-02;  1.7197667E+03;  0.0000000E+00;  2.2681071E-01;  4.0000000E+04;  0.0000000E+00;  3.8825586E+04;  2.0487808E-02;  0.0000000E+00; -5.8115330E-02;  8.9252988E+03;
  1.3843511E+00;  9.9999998E-03;  5.0657123E-02;8459;  4.2985663E-02;  0.0000000E+00;  8.2302482E-05;  9.9749878E+02;  4.8807755E-01; -2.0721230E+03;3;  2.0276815E+01;  0.0000000E+00;  5.8338113E+00;0; -3.7625991E-02;  1.7197667E+03;  0.0000000E+00;  2.2677244E-01;  4.0000000E+04;  0.0000000E+00;  3.8825570E+04;  2.0489084E-02;  0.0000000E+00; -5.8115073E-02;  8.9251777E+03;
  1.3846558E+00;  9.9999998E-03; -4.0507589E-02;8450;  4.1122492E-02;  0.0000000E+00;  9.0472149E-06;  9.9716412E+02;  4.8816988E-01; -2.3493337E+03;3;  2.0178276E+01;  0.0000000E+00; -4.9464521E+00;0; -6.6952899E-02;  1.7177509E+03;  0.0000000E+00;  1.5523700E-01;  4.0000000E+04;  0.0000000E+00;  3.8827621E+04; -2.8684624E-03;  0.0000000E+00; -6.4084433E-02;  9.2123184E+03;
  1.3846560E+00;  9.9999998E-03;  4.0507860E-02;8458;  4.1122541E-02;  0.0000000E+00; -8.4615031E-06;  9.9716412E+02;  4.8816988E-01; -2.3493337E+03;3;  2.0178354E+01;  0.0000000E+00;  4.9464278E+00;0; -6.6951670E-02;  1.7177501E+03;  0.0000000E+00;  1.5520909E-01;  4.0000000E+04;  0.0000000E+00;  3.8827609E+04; -2.8672037E-03;  0.0000000E+00; -6.4084463E-02;  9.2122275E+03;
  1.3849097E+00;  9.9999998E-03; -3.0370349E-02;8451;  3.9659057E-02;  0.0000000E+00;  7.2374925E-05;  9.9692194E+02;  4.8823464E-01; -2.5499583E+03;3;  2.0103029E+01;  0.0000000E+00; -3.8396473E+00;0; -8.8366702E-02;  1.7161984E+03;  0.0000000E+00;  9.1649346E-02;  4.0000000E+04;  0.0000000E+00;  3.8830090E+04; -1.9917626E-02;  0.0000000E+00; -6.8449073E-02;  9.5312744E+03;
  1.3849096E+00;  9.9999998E-03;  3.0370617E-02;8457;  3.9659109E-02;  0.0000000E+00; -7.1772156E-05;  9.9692218E+02;  4.8823404E-01; -2.5497607E+03;3;  2.0103029E+01;  0.0000000E+00;  3.8396606E+00;0; -8.8365845E-02;  1.7161993E+03;  0.0000000E+00;  9.1633558E-02;  4.0000000E+04;  0.0000000E+00;  3.8830090E+04; -1.9917175E-02;  0.0000000E+00; -6.8448670E-02;  9.5310391E+03;
  1.3850693E+00;  9.9999998E-03; -2.0242363E-02;8452;  3.8611498E-02;  0.0000000E+00;  8.3949082E-05;  9.9676532E+02;  4.8827431E-01; -2.6797249E+03;3;  2.0010538E+01;  0.0000000E+00; -2.6112125E+00;0; -1.0288037E-01;  1.7151659E+03;  0.0000000E+00;  4.2087149E-02;  4.0000000E+04;  0.0000000E+00;  3.8832004E+04; -3.1582072E-02;  0.0000000E+00; -7.1298301E-02;  9.8057227E+03;
  1.3850691E+00;  9.9999998E-03;  2.0242631E-02;8456;  3.8611569E-02;  0.0000000E+00; -8.3343512E-05;  9.9676550E+02;  4.8827028E-01; -2.6795767E+03;3;  2.0010578E+01;  0.0000000E+00;  2.6112537E+00;0; -1.0287994E-01;  1.7151654E+03;  0.0000000E+00;  4.2078894E-02;  4.0000000E+04;  0.0000000E+00;  3.8831996E+04; -3.1582341E-02;  0.0000000E+00; -7.1297601E-02;  9.8055703E+03;
  1.3851513E+00;  9.9999998E-03; -1.0120629E-02;8453;  3.7984513E-02;  0.0000000E+00;  5.3192838E-05;  9.9667169E+02;  4.8828664E-01; -2.7572986E+03;3;  1.9950178E+01;  0.0000000E+00; -1.3232054E+00;0; -1.1127183E-01;  1.7145770E+03;  0.0000000E+00;  1.0724488E-02;  4.0000000E+04;  0.0000000E+00;  3.8833211E+04; -3.8394708E-02;  0.0000000E+00; -7.2877124E-02;  9.9851299E+03;
  1.3851509E+00;  9.9999998E-03;  1.0120887E-02;8455;  3.7984625E-02;  0.0000000E+00; -5.2590272E-05;  9.9667242E+02;  4.8828530E-01; -2.7566565E+03;3;  1.9950172E+01;  0.0000000E+00;  1.3231987E+00;0; -1.1127192E-01;  1.7145770E+03;  0.0000000E+00;  1.0721465E-02;  4.0000000E+04;  0.0000000E+00;  3.8833211E+04; -3.8396325E-02;  0.0000000E+00; -7.2875589E-02;  9.9849336E+03;
  1.3851756E+00;  9.9999998E-03;  1.2909580E-07;8454;  3.7775673E-02;  0.0000000E+00;  2.9164764E-07;  9.9664099E+02;  4.8829237E-01; -2.7827280E+03;3;  1.9922995E+01;  0.0000000E+00;  3.2996359E-05;0; -1.1401694E-01;  1.7143821E+03;  0.0000000E+00;  1.4769038E-09;  4.0000000E+04;  0.0000000E+00;  3.8833773E+04; -4.0638659E-02;  0.0000000E+00; -7.3378272E-02;  1.0046716E+04;
  1.4306594E+00;  9.9999998E-03; -1.0136826E-01;8505;  6.3937731E-02;  0.0000000E+00;  2.0827424E-02;  9.9230249E+02;  4.6196690E-01; -6.3765444E+03;3;  2.8810108E+01;  0.0000000E+00; -1.7829533E+01;0;  3.9166993E-01;  1.8945660E+03;  0.0000000E+00;  6.0530460E-01;  4.0000000E+04;  0.0000000E+00;  3.8832121E+04;  5.7377613E-01;  0.0000000E+00; -1.8210620E-01;  1.0038144E+04;
  1.4309424E+00;  9.9999998E-03; -9.1243714E-02;8506;  5.6610145E-02;  0.0000000E+00;  1.9677199E-02;  9.9152777E+02;  4.6204311E-01; -7.0182793E+03;3;  2.5918907E+01;  0.0000000E+00; -1.5458791E+01;0;  3.8326767E-01;  1.8910748E+03;  0.0000000E+00;  5.5444294E-01;  4.0000000E+04;  0.0000000E+00;  3.8833609E+04;  5.8537698E-01;  0.0000000E+00; -2.0210931E-01;  1.0238321E+04;
  1.4312866E+00;  9.9999998E-03; -8.1111334E-02;8507;  5.0554533E-02;  0.0000000E+00;  1.8205166E-02;  9.9081836E+02;  4.6211469E-01; -7.6059458E+03;3;  2.4694124E+01;  0.0000000E+00; -1.3473502E+01;0;  3.8262475E-01;  1.8878914E+03;  0.0000000E+00;  4.8095691E-01;  4.0000000E+04;  0.0000000E+00;  3.8832844E+04;  6.0248441E-01;  0.0000000E+00; -2.1985964E-01;  1.0189068E+04;
  1.4316413E+00;  9.9999998E-03; -7.0972756E-02;8508;  4.5459859E-02;  0.0000000E+00;  1.6479980E-02;  9.9021069E+02;  4.6216699E-01; -8.1093276E+03;3;  2.3712635E+01;  0.0000000E+00; -1.1597740E+01;0;  3.8819253E-01;  1.8851399E+03;  0.0000000E+00;  3.9555559E-01;  4.0000000E+04;  0.0000000E+00;  3.8831344E+04;  6.2353468E-01;  0.0000000E+00; -2.3534214E-01;  1.0022967E+04;
  1.4320031E+00;  9.9999998E-03; -6.0828917E-02;8509;  4.1238967E-02;  0.0000000E+00;  1.4548016E-02;  9.8969763E+02;  4.6219519E-01; -8.5343486E+03;3;  2.2961082E+01;  0.0000000E+00; -9.7710524E+00;0;  3.9888203E-01;  1.8828861E+03;  0.0000000E+00;  3.0696169E-01;  4.0000000E+04;  0.0000000E+00;  3.8829781E+04;  6.4758199E-01;  0.0000000E+00; -2.4869998E-01;  9.8495908E+03;
  1.4320031E+00;  9.9999998E-03;  6.0829192E-02;8521;  4.1239113E-02;  0.0000000E+00; -1.4547436E-02;  9.8969745E+02;  4.6219793E-01; -8.5344961E+03;3;  2.2961239E+01;  0.0000000E+00;  9.7710943E+00;0;  3.9888436E-01;  1.8828855E+03;  0.0000000E+00;  3.0696118E-01;  4.0000000E+04;  0.0000000E+00;  3.8829777E+04;  6.4758348E-01;  0.0000000E+00; -2.4869911E-01;  9.8495723E+03;
  1.4323348E+00;  9.9999998E-03; -5.0682765E-02;8510;  3.7799463E-02;  0.0000000E+00;  1.2427956E-02;  9.8930029E+02;  4.6219623E-01; -8.8634814E+03;3;  2.2415354E+01;  0.0000000E+00; -8.0746660E+00;0;  4.1247937E-01;  1.8811447E+03;  0.0000000E+00;  2.2213665E-01;  4.0000000E+04;  0.0000000E+00;  3.8828488E+04;  6.7234600E-01;  0.0000000E+00; -2.5986663E-01;  9.7231162E+03;
  1.4323347E+00;  9.9999998E-03;  5.0683044E-02;8520;  3.7799586E-02;  0.0000000E+00; -1.2427364E-02;  9.8930066E+02;  4.6219671E-01; -8.8631855E+03;3;  2.2415545E+01;  0.0000000E+00;  8.0746632E+00;0;  4.1247904E-01;  1.8811449E+03;  0.0000000E+00;  2.2213607E-01;  4.0000000E+04;  0.0000000E+00;  3.8828473E+04;  6.7234462E-01;  0.0000000E+00; -2.5986558E-01;  9.7230234E+03;
  1.4326171E+00;  9.9999998E-03; -4.0537786E-02;8511;  3.5065960E-02;  0.0000000E+00;  1.0145573E-02;  9.8900360E+02;  4.6217689E-01; -9.1092695E+03;3;  2.2016924E+01;  0.0000000E+00; -6.4105678E+00;0;  4.2691165E-01;  1.8799065E+03;  0.0000000E+00;  1.4646350E-01;  4.0000000E+04;  0.0000000E+00;  3.8827664E+04;  6.9575703E-01;  0.0000000E+00; -2.6884538E-01;  9.6499512E+03;
  1.4326169E+00;  9.9999998E-03;  4.0538065E-02;8519;  3.5066064E-02;  0.0000000E+00; -1.0145003E-02;  9.8900366E+02;  4.6217552E-01; -9.1092207E+03;3;  2.2016947E+01;  0.0000000E+00;  6.4104772E+00;0;  4.2691135E-01;  1.8799060E+03;  0.0000000E+00;  1.4646786E-01;  4.0000000E+04;  0.0000000E+00;  3.8827680E+04;  6.9575578E-01;  0.0000000E+00; -2.6884443E-01;  9.6498525E+03;
  1.4328340E+00;  9.9999998E-03; -3.0397199E-02;8512;  3.2981813E-02;  0.0000000E+00;  7.7286139E-03;  9.8879242E+02;  4.6214274E-01; -9.2842041E+03;3;  2.1689112E+01;  0.0000000E+00; -4.7937799E+00;0;  4.4012228E-01;  1.8790562E+03;  0.0000000E+00;  8.4023371E-02;  4.0000000E+04;  0.0000000E+00;  3.8827047E+04;  7.1578074E-01;  0.0000000E+00; -2.7565846E-01;  9.6101221E+03;
  1.4328340E+00;  9.9999998E-03;  3.0397475E-02;8518;  3.2981887E-02;  0.0000000E+00; -7.7280686E-03;  9.8879242E+02;  4.6214369E-01; -9.2842041E+03;3;  2.1689131E+01;  0.0000000E+00;  4.7937431E+00;0;  4.4012329E-01;  1.8790558E+03;  0.0000000E+00;  8.4028468E-02;  4.0000000E+04;  0.0000000E+00;  3.8827043E+04;  7.1578115E-01;  0.0000000E+00; -2.7565786E-01;  9.6100527E+03;
  1.4329729E+00;  9.9999998E-03; -2.0262344E-02;8513;  3.1513382E-02;  0.0000000E+00;  5.2084639E-03;  9.8865411E+02;  4.6211037E-01; -9.3987539E+03;3;  2.1460899E+01;  0.0000000E+00; -3.1835270E+00;0;  4.5026973E-01;  1.8785244E+03;  0.0000000E+00;  3.7763011E-02;  4.0000000E+04;  0.0000000E+00;  3.8826918E+04;  7.3061353E-01;  0.0000000E+00; -2.8034380E-01;  9.5834746E+03;
  1.4330381E+00;  9.9999998E-03; -1.0131354E-02;8514;  3.0641276E-02;  0.0000000E+00;  2.6203394E-03;  9.8857294E+02;  4.6209183E-01; -9.4660029E+03;3;  2.1321354E+01;  0.0000000E+00; -1.5903895E+00;0;  4.5630765E-01;  1.8782306E+03;  0.0000000E+00;  9.4870580E-03;  4.0000000E+04;  0.0000000E+00;  3.8826578E+04;  7.3932374E-01;  0.0000000E+00; -2.8301609E-01;  9.5636729E+03;
  1.4330381E+00;  9.9999998E-03;  1.0131632E-02;8516;  3.0641301E-02;  0.0000000E+00; -2.6198023E-03;  9.8857306E+02;  4.6209127E-01; -9.4659043E+03;3;  2.1321409E+01;  0.0000000E+00;  1.5904176E+00;0;  4.5630893E-01;  1.8782312E+03;  0.0000000E+00;  9.4903810E-03;  4.0000000E+04;  0.0000000E+00;  3.8826582E+04;  7.3932534E-01;  0.0000000E+00; -2.8301641E-01;  9.5636416E+03;
  1.4329729E+00;  9.9999998E-03;  2.0262621E-02;8517;  3.1513445E-02;  0.0000000E+00; -5.2079191E-03;  9.8865381E+02;  4.6211159E-01; -9.3990508E+03;3;  2.1461012E+01;  0.0000000E+00;  3.1836145E+00;0;  4.5027030E-01;  1.8785239E+03;  0.0000000E+00;  3.7768129E-02;  4.0000000E+04;  0.0000000E+00;  3.8826922E+04;  7.3061359E-01;  0.0000000E+00; -2.8034329E-01;  9.5833721E+03;
  1.4330547E+00;  9.9999998E-03;  1.3899516E-07;8515;  3.0352173E-02;  0.0000000E+00;  2.7181201E-07;  9.8854803E+02;  4.6208575E-01; -9.4866406E+03;3;  2.1275290E+01;  0.0000000E+00;  2.8140697E-05;0;  4.5824692E-01;  1.8781344E+03;  0.0000000E+00;  1.2498665E-09;  4.0000000E+04;  0.0000000E+00;  3.8826531E+04;  7.4211919E-01;  0.0000000E+00; -2.8387228E-01;  9.5559590E+03;
  1.4760951E+00;  9.9999998E-03; -8.1291936E-02;8568;  4.8566017E-02;  0.0000000E+00;  4.6256777E-02;  9.8701379E+02;  4.2795113E-01; -1.0756448E+04;3;  2.4940996E+01;  0.0000000E+00; -7.5777802E+00;0;  2.4232171E+00;  2.1826755E+03;  0.0000000E+00;  8.7931061E-01;  4.0000000E+04;  0.0000000E+00;  3.8809371E+04;  2.8567216E+00;  0.0000000E+00; -4.3350461E-01;  6.0275566E+03;
  1.4767157E+00;  9.9999998E-03; -6.1035208E-02;8570;  3.8635127E-02;  0.0000000E+00;  3.5296351E-02;  9.8639062E+02;  4.2805606E-01; -1.1272595E+04;3;  2.2938265E+01;  0.0000000E+00; -5.7085161E+00;0;  2.6513758E+00;  2.1789597E+03;  0.0000000E+00;  4.8790234E-01;  4.0000000E+04;  0.0000000E+00;  3.8799801E+04;  3.1152270E+00;  0.0000000E+00; -4.6385121E-01;  4.7982832E+03;
  1.4767157E+00;  9.9999998E-03;  6.1035503E-02;8582;  3.8635287E-02;  0.0000000E+00; -3.5295866E-02;  9.8639105E+02;  4.2805523E-01; -1.1272249E+04;3;  2.2938452E+01;  0.0000000E+00;  5.7085266E+00;0;  2.6513762E+00;  2.1789602E+03;  0.0000000E+00;  4.8791173E-01;  4.0000000E+04;  0.0000000E+00;  3.8799789E+04;  3.1152260E+00;  0.0000000E+00; -4.6384990E-01;  4.7983193E+03;
  1.4763906E+00;  9.9999998E-03; -7.1174368E-02;8569;  4.3175720E-02;  0.0000000E+00;  4.0857211E-02;  9.8665808E+02;  4.2802909E-01; -1.1051081E+04;3;  2.3966995E+01;  0.0000000E+00; -6.8575401E+00;0;  2.5392661E+00;  2.1804290E+03;  0.0000000E+00;  6.7624193E-01;  4.0000000E+04;  0.0000000E+00;  3.8805535E+04;  2.9888988E+00;  0.0000000E+00; -4.4963264E-01;  5.4714126E+03;
  1.4759305E+00;  9.9999998E-03; -9.1389589E-02;8567;  5.4955184E-02;  0.0000000E+00;  5.1472172E-02;  9.8745966E+02;  4.2780393E-01; -1.0387163E+04;3;  2.6299879E+01;  0.0000000E+00; -8.4316282E+00;0;  2.3112395E+00;  2.1859497E+03;  0.0000000E+00;  1.0765908E+00;  4.0000000E+04;  0.0000000E+00;  3.8811730E+04;  2.7271004E+00;  0.0000000E+00; -4.1586092E-01;  6.3492114E+03;
  1.4770322E+00;  9.9999998E-03; -5.0876874E-02;8571;  3.4879729E-02;  0.0000000E+00;  2.9574241E-02;  9.8620972E+02;  4.2804235E-01; -1.1422471E+04;3;  2.2347551E+01;  0.0000000E+00; -4.8719149E+00;0;  2.7549942E+00;  2.1781340E+03;  0.0000000E+00;  3.2794327E-01;  4.0000000E+04;  0.0000000E+00;  3.8794215E+04;  3.2309897E+00;  0.0000000E+00; -4.7599554E-01;  4.0844272E+03;
  1.4770321E+00;  9.9999998E-03;  5.0877158E-02;8581;  3.4879845E-02;  0.0000000E+00; -2.9573748E-02;  9.8620990E+02;  4.2804283E-01; -1.1422273E+04;3;  2.2347692E+01;  0.0000000E+00;  4.8718805E+00;0;  2.7549877E+00;  2.1781338E+03;  0.0000000E+00;  3.2795382E-01;  4.0000000E+04;  0.0000000E+00;  3.8794188E+04;  3.2309821E+00;  0.0000000E+00; -4.7599441E-01;  4.0844414E+03;
  1.4773329E+00;  9.9999998E-03; -4.0705845E-02;8572;  3.1846352E-02;  0.0000000E+00;  2.3743752E-02;  9.8609692E+02;  4.2799270E-01; -1.1515868E+04;3;  2.1621033E+01;  0.0000000E+00; -4.0886250E+00;0;  2.8474245E+00;  2.1778865E+03;  0.0000000E+00;  2.0199417E-01;  4.0000000E+04;  0.0000000E+00;  3.8788492E+04;  3.3334563E+00;  0.0000000E+00; -4.8603171E-01;  3.3809736E+03;
  1.4773328E+00;  9.9999998E-03;  4.0706128E-02;8580;  3.1846441E-02;  0.0000000E+00; -2.3743255E-02;  9.8609680E+02;  4.2799050E-01; -1.1515967E+04;3;  2.1621332E+01;  0.0000000E+00;  4.0889635E+00;0;  2.8474176E+00;  2.1778857E+03;  0.0000000E+00;  2.0201409E-01;  4.0000000E+04;  0.0000000E+00;  3.8788508E+04;  3.3334479E+00;  0.0000000E+00; -4.8603040E-01;  3.3809041E+03;
  1.4759467E+00;  9.9999998E-03; -1.0147548E-01;8566;  6.2392034E-02;  0.0000000E+00;  5.6578632E-02;  9.8798273E+02;  4.2759660E-01; -9.9538877E+03;3;  2.8350912E+01;  0.0000000E+00; -9.9787989E+00;0;  2.2062011E+00;  2.1901992E+03;  0.0000000E+00;  1.2426109E+00;  4.0000000E+04;  0.0000000E+00;  3.8811441E+04;  2.6030381E+00;  0.0000000E+00; -3.9683709E-01;  6.3133511E+03;
  1.4775894E+00;  9.9999998E-03; -3.0529857E-02;8573;  2.9484876E-02;  0.0000000E+00;  1.7852573E-02;  9.8603339E+02;  4.2792678E-01; -1.1568487E+04;3;  2.0879133E+01;  0.0000000E+00; -2.7217314E+00;0;  2.9241273E+00;  2.1779780E+03;  0.0000000E+00;  1.0958706E-01;  4.0000000E+04;  0.0000000E+00;  3.8783398E+04;  3.4179873E+00;  0.0000000E+00; -4.9385998E-01;  2.7393572E+03;
  1.4775895E+00;  9.9999998E-03;  3.0530144E-02;8579;  2.9484998E-02;  0.0000000E+00; -1.7852116E-02;  9.8603339E+02;  4.2792833E-01; -1.1568487E+04;3;  2.0879234E+01;  0.0000000E+00;  2.7216759E+00;0;  2.9241319E+00;  2.1779783E+03;  0.0000000E+00;  1.0960648E-01;  4.0000000E+04;  0.0000000E+00;  3.8783406E+04;  3.4179914E+00;  0.0000000E+00; -4.9385944E-01;  2.7393315E+03;
  1.4777725E+00;  9.9999998E-03; -2.0353887E-02;8574;  2.7767431E-02;  0.0000000E+00;  1.1949880E-02;  9.8600275E+02;  4.2786449E-01; -1.1593856E+04;3;  2.0257408E+01;  0.0000000E+00; -1.5454069E+00;0;  2.9805999E+00;  2.1782019E+03;  0.0000000E+00;  4.7359079E-02;  4.0000000E+04;  0.0000000E+00;  3.8779223E+04;  3.4800067E+00;  0.0000000E+00; -4.9940670E-01;  2.2173894E+03;
  1.4777725E+00;  9.9999998E-03;  2.0354172E-02;8578;  2.7767532E-02;  0.0000000E+00; -1.1949412E-02;  9.8600269E+02;  4.2786682E-01; -1.1593905E+04;3;  2.0257524E+01;  0.0000000E+00;  1.5456086E+00;0;  2.9806023E+00;  2.1782024E+03;  0.0000000E+00;  4.7375631E-02;  4.0000000E+04;  0.0000000E+00;  3.8779223E+04;  3.4800086E+00;  0.0000000E+00; -4.9940628E-01;  2.2173784E+03;
  1.4778719E+00;  9.9999998E-03; -1.0177839E-02;8575;  2.6711034E-02;  0.0000000E+00;  5.9731216E-03;  9.8598767E+02;  4.2782825E-01; -1.1606343E+04;3;  1.9849884E+01;  0.0000000E+00; -9.8225826E-01;0;  3.0143268E+00;  2.1783733E+03;  0.0000000E+00;  1.1641526E-02;  4.0000000E+04;  0.0000000E+00;  3.8776523E+04;  3.5169990E+00;  0.0000000E+00; -5.0267226E-01;  1.8738713E+03;
  1.4779028E+00;  9.9999998E-03;  1.4361319E-07;8576;  2.6351849E-02;  0.0000000E+00;  2.3521530E-07;  9.8598706E+02;  4.2781678E-01; -1.1606835E+04;3;  1.9737455E+01;  0.0000000E+00;  6.0668215E-05;0;  3.0255082E+00;  2.1784182E+03;  0.0000000E+00;  6.0740890E-10;  4.0000000E+04;  0.0000000E+00;  3.8775652E+04;  3.5292573E+00;  0.0000000E+00; -5.0374913E-01;  1.7535326E+03;
  1.4778720E+00;  9.9999998E-03;  1.0178128E-02;8577;  2.6711151E-02;  0.0000000E+00; -5.9726592E-03;  9.8598792E+02;  4.2782977E-01; -1.1606146E+04;3;  1.9849882E+01;  0.0000000E+00;  9.8251861E-01;0;  3.0143414E+00;  2.1783743E+03;  0.0000000E+00;  1.1650657E-02;  4.0000000E+04;  0.0000000E+00;  3.8776531E+04;  3.5170140E+00;  0.0000000E+00; -5.0267273E-01;  1.8738741E+03;
  1.5183407E+00;  9.9999998E-03; -8.1498958E-02;8629;  1.6075264E-01;  0.0000000E+00;  6.4403690E-02;  9.8758124E+02;  3.9064538E-01; -1.0284449E+04;3; -1.7480688E+02;  0.0000000E+00;  5.8528800E+00;0;  5.9065380E+00;  2.6256125E+03;  0.0000000E+00;  1.0104247E+00;  4.0000000E+04;  0.0000000E+00;  3.8744254E+04;  6.4216514E+00;  0.0000000E+00; -5.1511323E-01;  4.4961338E+03;
  1.5182760E+00;  9.9999998E-03; -9.1613539E-02;8628;  1.5208562E-01;  0.0000000E+00;  7.1238041E-02;  9.8787781E+02;  3.9044100E-01; -1.0038883E+04;3; -1.6541776E+02;  0.0000000E+00;  6.8539348E+00;0;  5.7515702E+00;  2.6294263E+03;  0.0000000E+00;  1.2667247E+00;  4.0000000E+04;  0.0000000E+00;  3.8747934E+04;  6.2549963E+00;  0.0000000E+00; -5.0342613E-01;  4.1130601E+03;
  1.5185646E+00;  9.9999998E-03; -7.1361080E-02;8630;  1.7480762E-01;  0.0000000E+00;  5.7074592E-02;  9.8744788E+02;  3.9074931E-01; -1.0394904E+04;3; -1.8191922E+02;  0.0000000E+00;  5.5541854E+00;0;  6.0572538E+00;  2.6238369E+03;  0.0000000E+00;  7.4938184E-01;  4.0000000E+04;  0.0000000E+00;  3.8738695E+04;  6.5827298E+00;  0.0000000E+00; -5.2547592E-01;  5.1741504E+03;
  1.5184437E+00;  9.9999998E-03; -1.0171779E-01;8627;  1.5141071E-01;  0.0000000E+00;  7.7735260E-02;  9.8835876E+02;  3.9012179E-01; -9.6405791E+03;3; -1.5426425E+02;  0.0000000E+00;  7.2737751E+00;0;  5.5971985E+00;  2.6355430E+03;  0.0000000E+00;  1.4818466E+00;  4.0000000E+04;  0.0000000E+00;  3.8749148E+04;  6.0878973E+00;  0.0000000E+00; -4.9069896E-01;  3.9856082E+03;
  1.5188832E+00;  9.9999998E-03; -6.1196327E-02;8631;  1.9157237E-01;  0.0000000E+00;  4.9243066E-02;  9.8746301E+02;  3.9077002E-01; -1.0382347E+04;3; -1.8651816E+02;  0.0000000E+00;  4.9749289E+00;0;  6.1987829E+00;  2.6237161E+03;  0.0000000E+00;  5.1446790E-01;  4.0000000E+04;  0.0000000E+00;  3.8731473E+04;  6.7331014E+00;  0.0000000E+00; -5.3431869E-01;  6.0921421E+03;
  1.5188832E+00;  9.9999998E-03;  6.1196640E-02;8643;  1.9157062E-01;  0.0000000E+00; -4.9242489E-02;  9.8746326E+02;  3.9077142E-01; -1.0382148E+04;3; -1.8651814E+02;  0.0000000E+00; -4.9751992E+00;0;  6.1987844E+00;  2.6237158E+03;  0.0000000E+00;  5.1450735E-01;  4.0000000E+04;  0.0000000E+00;  3.8731469E+04;  6.7331018E+00;  0.0000000E+00; -5.3431743E-01;  6.0920625E+03;
  1.5192000E+00;  9.9999998E-03; -5.1010739E-02;8632;  2.0737225E-01;  0.0000000E+00;  4.1140277E-02;  9.8759064E+02;  3.9075139E-01; -1.0276645E+04;3; -1.8970282E+02;  0.0000000E+00;  4.4070168E+00;0;  6.3232808E+00;  2.6245015E+03;  0.0000000E+00;  3.2480848E-01;  4.0000000E+04;  0.0000000E+00;  3.8723398E+04;  6.8649054E+00;  0.0000000E+00; -5.4162472E-01;  7.1363848E+03;
  1.5192000E+00;  9.9999998E-03;  5.1011048E-02;8642;  2.0737027E-01;  0.0000000E+00; -4.1139744E-02;  9.8759088E+02;  3.9075285E-01; -1.0276397E+04;3; -1.8970271E+02;  0.0000000E+00; -4.4072819E+00;0;  6.3232756E+00;  2.6245022E+03;  0.0000000E+00;  3.2484818E-01;  4.0000000E+04;  0.0000000E+00;  3.8723406E+04;  6.8648992E+00;  0.0000000E+00; -5.4162377E-01;  7.1364258E+03;
  1.5194926E+00;  9.9999998E-03; -4.0814940E-02;8633;  2.2114263E-01;  0.0000000E+00;  3.2913499E-02;  9.8778162E+02;  3.9070585E-01; -1.0118426E+04;3; -1.9171881E+02;  0.0000000E+00;  3.6744130E+00;0;  6.4285259E+00;  2.6258831E+03;  0.0000000E+00;  1.8606167E-01;  4.0000000E+04;  0.0000000E+00;  3.8714914E+04;  6.9759359E+00;  0.0000000E+00; -5.4740995E-01;  8.2040146E+03;
  1.5194926E+00;  9.9999998E-03;  4.0815253E-02;8641;  2.2114472E-01;  0.0000000E+00; -3.2912802E-02;  9.8778156E+02;  3.9070520E-01; -1.0118475E+04;3; -1.9171803E+02;  0.0000000E+00; -3.6745911E+00;0;  6.4285274E+00;  2.6258838E+03;  0.0000000E+00;  1.8609537E-01;  4.0000000E+04;  0.0000000E+00;  3.8714910E+04;  6.9759364E+00;  0.0000000E+00; -5.4740888E-01;  8.2039746E+03;
  1.5197552E+00;  9.9999998E-03; -3.0615004E-02;8634;  2.3275127E-01;  0.0000000E+00;  2.4635034E-02;  9.8799756E+02;  3.9063635E-01; -9.9396250E+03;3; -1.9294055E+02;  0.0000000E+00;  2.8427134E+00;0;  6.5135379E+00;  2.6275972E+03;  0.0000000E+00;  9.3690671E-02;  4.0000000E+04;  0.0000000E+00;  3.8707117E+04;  7.0652595E+00;  0.0000000E+00; -5.5172175E-01;  9.1962354E+03;
  1.5197552E+00;  9.9999998E-03;  3.0615313E-02;8640;  2.3275015E-01;  0.0000000E+00; -2.4634486E-02;  9.8799805E+02;  3.9063859E-01; -9.9391807E+03;3; -1.9294060E+02;  0.0000000E+00; -2.8429685E+00;0;  6.5135326E+00;  2.6275969E+03;  0.0000000E+00;  9.3718246E-02;  4.0000000E+04;  0.0000000E+00;  3.8707133E+04;  7.0652537E+00;  0.0000000E+00; -5.5172127E-01;  9.1962324E+03;
  1.5199662E+00;  9.9999998E-03; -2.0413065E-02;8635;  2.4161352E-01;  0.0000000E+00;  1.6376285E-02;  9.8818488E+02;  3.9056605E-01; -9.7844717E+03;3; -1.9352429E+02;  0.0000000E+00;  1.8883996E+00;0;  6.5762815E+00;  2.6292161E+03;  0.0000000E+00;  3.7934497E-02;  4.0000000E+04;  0.0000000E+00;  3.8700832E+04;  7.1309495E+00;  0.0000000E+00; -5.5466783E-01;  1.0009312E+04;
  1.5199662E+00;  9.9999998E-03;  2.0413371E-02;8639;  2.4161388E-01;  0.0000000E+00; -1.6375693E-02;  9.8818420E+02;  3.9056775E-01; -9.7850146E+03;3; -1.9352415E+02;  0.0000000E+00; -1.8886499E+00;0;  6.5762839E+00;  2.6292161E+03;  0.0000000E+00;  3.7953541E-02;  4.0000000E+04;  0.0000000E+00;  3.8700840E+04;  7.1309514E+00;  0.0000000E+00; -5.5466729E-01;  1.0009328E+04;
  1.5201002E+00;  9.9999998E-03; -1.0208237E-02;8636;  2.4705258E-01;  0.0000000E+00;  8.1731621E-03;  9.8831427E+02;  3.9051682E-01; -9.6773018E+03;3; -1.9381258E+02;  0.0000000E+00;  9.5546800E-01;0;  6.6145840E+00;  2.6303396E+03;  0.0000000E+00;  8.9136511E-03;  4.0000000E+04;  0.0000000E+00;  3.8696742E+04;  7.1709619E+00;  0.0000000E+00; -5.5637771E-01;  1.0544984E+04;
  1.5201004E+00;  9.9999998E-03;  1.0208543E-02;8638;  2.4705631E-01;  0.0000000E+00; -8.1725232E-03;  9.8831439E+02;  3.9051712E-01; -9.6772031E+03;3; -1.9381148E+02;  0.0000000E+00; -9.5567852E-01;0;  6.6145930E+00;  2.6303396E+03;  0.0000000E+00;  8.9230528E-03;  4.0000000E+04;  0.0000000E+00;  3.8696742E+04;  7.1709709E+00;  0.0000000E+00; -5.5637789E-01;  1.0545023E+04;
  1.5201435E+00;  9.9999998E-03;  1.5284512E-07;8637;  2.4879360E-01;  0.0000000E+00;  2.9263686E-07;  9.8835449E+02;  3.9050171E-01; -9.6439805E+03;3; -1.9392166E+02;  0.0000000E+00; -9.4305986E-05;0;  6.6272821E+00;  2.6307266E+03;  0.0000000E+00;  1.3377990E-10;  4.0000000E+04;  0.0000000E+00;  3.8695242E+04;  7.1842256E+00;  0.0000000E+00; -5.5694336E-01;  1.0731816E+04;
  1.5565062E+00;  9.9999998E-03; -9.1638632E-02;8689;  6.0453027E-01;  0.0000000E+00;  5.4582506E-02;  9.9381866E+02;  3.5178000E-01; -5.1173940E+03;3; -1.9397775E+02;  0.0000000E+00;  2.1755312E+01;0;  7.6544552E+00;  3.2812791E+03;  0.0000000E+00;  6.5461057E-01;  4.0000000E+04;  0.0000000E+00;  3.8694848E+04;  8.0456657E+00;  0.0000000E+00; -3.9121032E-01;  1.3712470E+04;
  1.5565693E+00;  9.9999998E-03; -8.1497110E-02;8690;  6.2313539E-01;  0.0000000E+00;  4.8975691E-02;  9.9369019E+02;  3.5192204E-01; -5.2237290E+03;3; -1.9775450E+02;  0.0000000E+00;  1.9735441E+01;0;  7.7359800E+00;  3.2786372E+03;  0.0000000E+00;  5.3556579E-01;  4.0000000E+04;  0.0000000E+00;  3.8691773E+04;  8.1228561E+00;  0.0000000E+00; -3.8687605E-01;  1.4112255E+04;
  1.5565935E+00;  9.9999998E-03; -1.0176539E-01;8688;  5.8901691E-01;  0.0000000E+00;  5.9790235E-02;  9.9416962E+02;  3.5154220E-01; -4.8268447E+03;3; -1.8827792E+02;  0.0000000E+00;  2.3616774E+01;0;  7.5583978E+00;  3.2868850E+03;  0.0000000E+00;  7.6844817E-01;  4.0000000E+04;  0.0000000E+00;  3.8697266E+04;  7.9534397E+00;  0.0000000E+00; -3.9504212E-01;  1.3462370E+04;
  1.5567173E+00;  9.9999998E-03; -7.1335845E-02;8691;  6.4283818E-01;  0.0000000E+00;  4.3052252E-02;  9.9377014E+02;  3.5200495E-01; -5.1575488E+03;3; -1.9994946E+02;  0.0000000E+00;  1.7519125E+01;0;  7.8026910E+00;  3.2782844E+03;  0.0000000E+00;  4.1594437E-01;  4.0000000E+04;  0.0000000E+00;  3.8686898E+04;  8.1848373E+00;  0.0000000E+00; -3.8214651E-01;  1.4706916E+04;
  1.5568745E+00;  9.9999998E-03; -6.1160162E-02;8692;  6.6147411E-01;  0.0000000E+00;  3.7000876E-02;  9.9402911E+02;  3.5205531E-01; -4.9431362E+03;3; -2.0130922E+02;  0.0000000E+00;  1.5231061E+01;0;  7.8553715E+00;  3.2792744E+03;  0.0000000E+00;  3.0357808E-01;  4.0000000E+04;  0.0000000E+00;  3.8680738E+04;  8.2327719E+00;  0.0000000E+00; -3.7740025E-01;  1.5483485E+04;
  1.5568745E+00;  9.9999998E-03;  6.1160482E-02;8704;  6.6147447E-01;  0.0000000E+00; -3.6999986E-02;  9.9402893E+02;  3.5205436E-01; -4.9432842E+03;3; -2.0130899E+02;  0.0000000E+00; -1.5231114E+01;0;  7.8553662E+00;  3.2792761E+03;  0.0000000E+00;  3.0362150E-01;  4.0000000E+04;  0.0000000E+00;  3.8680738E+04;  8.2327662E+00;  0.0000000E+00; -3.7739977E-01;  1.5483337E+04;
  1.5570368E+00;  9.9999998E-03; -5.0975498E-02;8693;  6.7852241E-01;  0.0000000E+00;  3.0845478E-02;  9.9441736E+02;  3.5208148E-01; -4.6216943E+03;3; -2.0193161E+02;  0.0000000E+00;  1.2836973E+01;0;  7.8956170E+00;  3.2813804E+03;  0.0000000E+00;  2.0546299E-01;  4.0000000E+04;  0.0000000E+00;  3.8673746E+04;  8.2683554E+00;  0.0000000E+00; -3.7273851E-01;  1.6391236E+04;
  1.5570368E+00;  9.9999998E-03;  5.0975826E-02;8703;  6.7852235E-01;  0.0000000E+00; -3.0844597E-02;  9.9441699E+02;  3.5208216E-01; -4.6219907E+03;3; -2.0193170E+02;  0.0000000E+00; -1.2837049E+01;0;  7.8956203E+00;  3.2813806E+03;  0.0000000E+00;  2.0549725E-01;  4.0000000E+04;  0.0000000E+00;  3.8673742E+04;  8.2683592E+00;  0.0000000E+00; -3.7273860E-01;  1.6391205E+04;
  1.5572059E+00;  9.9999998E-03; -4.0786106E-02;8694;  6.9362730E-01;  0.0000000E+00;  2.4637779E-02;  9.9487830E+02;  3.5207224E-01; -4.2401021E+03;3; -2.0198160E+02;  0.0000000E+00;  1.0337926E+01;0;  7.9251313E+00;  3.2842837E+03;  0.0000000E+00;  1.2636638E-01;  4.0000000E+04;  0.0000000E+00;  3.8666629E+04;  8.2934198E+00;  0.0000000E+00; -3.6828831E-01;  1.7347387E+04;
  1.5572059E+00;  9.9999998E-03;  4.0786441E-02;8702;  6.9362694E-01;  0.0000000E+00; -2.4636926E-02;  9.9487817E+02;  3.5207143E-01; -4.2402012E+03;3; -2.0198163E+02;  0.0000000E+00; -1.0337913E+01;0;  7.9251289E+00;  3.2842844E+03;  0.0000000E+00;  1.2639618E-01;  4.0000000E+04;  0.0000000E+00;  3.8666645E+04;  8.2934170E+00;  0.0000000E+00; -3.6828801E-01;  1.7347371E+04;
  1.5573795E+00;  9.9999998E-03; -3.0593874E-02;8695;  7.0643663E-01;  0.0000000E+00;  1.8403985E-02;  9.9534399E+02;  3.5203668E-01; -3.8545635E+03;3; -2.0153833E+02;  0.0000000E+00;  7.7864695E+00;0;  7.9455700E+00;  3.2876299E+03;  0.0000000E+00;  6.7915738E-02;  4.0000000E+04;  0.0000000E+00;  3.8659465E+04;  8.3098001E+00;  0.0000000E+00; -3.6423039E-01;  1.8250359E+04;
  1.5573796E+00;  9.9999998E-03;  3.0594205E-02;8701;  7.0643753E-01;  0.0000000E+00; -1.8403050E-02;  9.9534418E+02;  3.5203984E-01; -3.8544155E+03;3; -2.0153795E+02;  0.0000000E+00; -7.7865224E+00;0;  7.9455724E+00;  3.2876292E+03;  0.0000000E+00;  6.7934729E-02;  4.0000000E+04;  0.0000000E+00;  3.8659457E+04;  8.3098021E+00;  0.0000000E+00; -3.6422968E-01;  1.8250332E+04;
  1.5575322E+00;  9.9999998E-03; -2.0399079E-02;8696;  7.1622926E-01;  0.0000000E+00;  1.2212465E-02;  9.9574408E+02;  3.5199454E-01; -3.5233066E+03;3; -2.0092729E+02;  0.0000000E+00;  5.2091007E+00;0;  7.9586186E+00;  3.2906921E+03;  0.0000000E+00;  2.8957123E-02;  4.0000000E+04;  0.0000000E+00;  3.8654117E+04;  8.3195496E+00;  0.0000000E+00; -3.6093095E-01;  1.8993332E+04;
  1.5575322E+00;  9.9999998E-03;  2.0399403E-02;8700;  7.1622920E-01;  0.0000000E+00; -1.2211556E-02;  9.9574420E+02;  3.5199440E-01; -3.5232078E+03;3; -2.0092703E+02;  0.0000000E+00; -5.2090721E+00;0;  7.9586210E+00;  3.2906941E+03;  0.0000000E+00;  2.8969200E-02;  4.0000000E+04;  0.0000000E+00;  3.8654109E+04;  8.3195515E+00;  0.0000000E+00; -3.6093020E-01;  1.8993346E+04;
  1.5576282E+00;  9.9999998E-03; -1.0201033E-02;8697;  7.2219259E-01;  0.0000000E+00;  6.0868138E-03;  9.9600287E+02;  3.5196391E-01; -3.3090979E+03;3; -2.0049353E+02;  0.0000000E+00;  2.6047416E+00;0;  7.9658504E+00;  3.2927266E+03;  0.0000000E+00;  7.0330263E-03;  4.0000000E+04;  0.0000000E+00;  3.8650379E+04;  8.3246889E+00;  0.0000000E+00; -3.5883877E-01;  1.9481809E+04;
  1.5576282E+00;  9.9999998E-03;  1.0201349E-02;8699;  7.2219330E-01;  0.0000000E+00; -6.0859038E-03;  9.9600354E+02;  3.5196352E-01; -3.3085059E+03;3; -2.0049295E+02;  0.0000000E+00; -2.6046898E+00;0;  7.9658556E+00;  3.2927263E+03;  0.0000000E+00;  7.0392452E-03;  4.0000000E+04;  0.0000000E+00;  3.8650387E+04;  8.3246937E+00;  0.0000000E+00; -3.5883820E-01;  1.9481805E+04;
  1.5576589E+00;  9.9999998E-03;  1.5616216E-07;8698;  7.2414428E-01;  0.0000000E+00;  4.4134541E-07;  9.9609583E+02;  3.5195434E-01; -3.2321191E+03;3; -2.0035834E+02;  0.0000000E+00;  1.4616377E-05;0;  7.9681811E+00;  3.2933931E+03;  0.0000000E+00; -1.4831052E-10;  4.0000000E+04;  0.0000000E+00;  3.8649078E+04;  8.3263187E+00;  0.0000000E+00; -3.5813782E-01;  1.9652029E+04;
  1.5900711E+00;  9.9999998E-03;  1.5925177E-07;8759;  1.0622126E+00;  0.0000000E+00;  3.4472237E-07;  1.0035253E+03;  3.1576979E-01;  2.9171770E+03;3; -1.3279266E+02;  0.0000000E+00; -2.3212424E-04;0;  6.7053328E+00;  4.1580605E+03;  0.0000000E+00; -1.6485527E-10;  4.0000000E+04;  0.0000000E+00;  3.8648113E+04;  6.7359271E+00;  0.0000000E+00; -3.0594464E-02;  2.2567318E+04;
  1.5900571E+00;  9.9999998E-03; -1.0186987E-02;8758;  1.0609295E+00;  0.0000000E+00;  6.0710788E-04;  1.0034316E+03;  3.1576839E-01;  2.8395457E+03;3; -1.3314406E+02;  0.0000000E+00;  1.5986423E+01;0;  6.7097178E+00;  4.1573535E+03;  0.0000000E+00;  6.7975591E-03;  4.0000000E+04;  0.0000000E+00;  3.8649242E+04;  6.7423711E+00;  0.0000000E+00; -3.2653105E-02;  2.2447359E+04;
  1.5900571E+00;  9.9999998E-03;  1.0187306E-02;8760;  1.0609294E+00;  0.0000000E+00; -6.0642650E-04;  1.0034318E+03;  3.1576923E-01;  2.8397429E+03;3; -1.3314424E+02;  0.0000000E+00; -1.5986846E+01;0;  6.7097154E+00;  4.1573535E+03;  0.0000000E+00;  6.7996662E-03;  4.0000000E+04;  0.0000000E+00;  3.8649242E+04;  6.7423687E+00;  0.0000000E+00; -3.2653142E-02;  2.2447395E+04;
  1.5900167E+00;  9.9999998E-03; -2.0372875E-02;8757;  1.0571070E+00;  0.0000000E+00;  1.8008763E-03;  1.0031656E+03;  3.1577015E-01;  2.6194744E+03;3; -1.3418840E+02;  0.0000000E+00;  2.3225025E+01;0;  6.7225108E+00;  4.1553511E+03;  0.0000000E+00;  2.6185537E-02;  4.0000000E+04;  0.0000000E+00;  3.8651781E+04;  6.7612748E+00;  0.0000000E+00; -3.8764164E-02;  2.2104047E+04;
  1.5900167E+00;  9.9999998E-03;  2.0373205E-02;8761;  1.0571069E+00;  0.0000000E+00; -1.8001889E-03;  1.0031657E+03;  3.1576949E-01;  2.6195730E+03;3; -1.3418857E+02;  0.0000000E+00; -2.3225330E+01;0;  6.7225137E+00;  4.1553496E+03;  0.0000000E+00;  2.6190287E-02;  4.0000000E+04;  0.0000000E+00;  3.8651785E+04;  6.7612777E+00;  0.0000000E+00; -3.8763795E-02;  2.2104039E+04;
  1.5899656E+00;  9.9999998E-03; -3.0557867E-02;8756;  1.0509341E+00;  0.0000000E+00;  3.3751240E-03;  1.0027753E+03;  3.1576219E-01;  2.2965181E+03;3; -1.3578902E+02;  0.0000000E+00;  2.6468969E+01;0;  6.7419457E+00;  4.1524839E+03;  0.0000000E+00;  5.5392083E-02;  4.0000000E+04;  0.0000000E+00;  3.8655578E+04;  6.7905517E+00;  0.0000000E+00; -4.8605699E-02;  2.1582705E+04;
  1.5899655E+00;  9.9999998E-03;  3.0558204E-02;8762;  1.0509336E+00;  0.0000000E+00; -3.3744697E-03;  1.0027755E+03;  3.1576222E-01;  2.2967153E+03;3; -1.3578923E+02;  0.0000000E+00; -2.6469093E+01;0;  6.7419500E+00;  4.1524858E+03;  0.0000000E+00;  5.5399705E-02;  4.0000000E+04;  0.0000000E+00;  3.8655578E+04;  6.7905560E+00;  0.0000000E+00; -4.8605766E-02;  2.1582746E+04;
  1.5899193E+00;  9.9999998E-03; -4.0742330E-02;8755;  1.0426711E+00;  0.0000000E+00;  5.0373226E-03;  1.0023226E+03;  3.1573793E-01;  1.9218719E+03;3; -1.3773557E+02;  0.0000000E+00;  2.9417101E+01;0;  6.7658596E+00;  4.1493804E+03;  0.0000000E+00;  9.0578973E-02;  4.0000000E+04;  0.0000000E+00;  3.8660285E+04;  6.8276515E+00;  0.0000000E+00; -6.1792098E-02;  2.0950992E+04;
  1.5899192E+00;  9.9999998E-03;  4.0742669E-02;8763;  1.0426707E+00;  0.0000000E+00; -5.0366810E-03;  1.0023224E+03;  3.1573746E-01;  1.9217733E+03;3; -1.3773576E+02;  0.0000000E+00; -2.9417219E+01;0;  6.7658625E+00;  4.1493804E+03;  0.0000000E+00;  9.0589210E-02;  4.0000000E+04;  0.0000000E+00;  3.8660285E+04;  6.8276548E+00;  0.0000000E+00; -6.1792202E-02;  2.0950980E+04;
  1.5898829E+00;  9.9999998E-03; -5.0925549E-02;8754;  1.0325376E+00;  0.0000000E+00;  6.7727072E-03;  1.0018718E+03;  3.1570670E-01;  1.5489017E+03;3; -1.3983925E+02;  0.0000000E+00;  3.2372795E+01;0;  6.7925329E+00;  4.1464883E+03;  0.0000000E+00;  1.2784329E-01;  4.0000000E+04;  0.0000000E+00;  3.8665371E+04;  6.8705297E+00;  0.0000000E+00; -7.7996694E-02;  2.0288258E+04;
  1.5898829E+00;  9.9999998E-03;  5.0925884E-02;8764;  1.0325363E+00;  0.0000000E+00; -6.7721251E-03;  1.0018717E+03;  3.1570470E-01;  1.5488031E+03;3; -1.3983965E+02;  0.0000000E+00; -3.2372765E+01;0;  6.7925382E+00;  4.1464893E+03;  0.0000000E+00;  1.2786061E-01;  4.0000000E+04;  0.0000000E+00;  3.8665375E+04;  6.8705354E+00;  0.0000000E+00; -7.7997334E-02;  2.0288230E+04;
  1.5898768E+00;  9.9999998E-03; -6.1105505E-02;8753;  1.0209498E+00;  0.0000000E+00;  8.5605830E-03;  1.0015046E+03;  3.1564465E-01;  1.2450796E+03;3; -1.4183272E+02;  0.0000000E+00;  3.5303356E+01;0;  6.8192449E+00;  4.1446055E+03;  0.0000000E+00;  1.6460620E-01;  4.0000000E+04;  0.0000000E+00;  3.8670094E+04;  6.9158907E+00;  0.0000000E+00; -9.6645907E-02;  1.9671035E+04;
  1.5898768E+00;  9.9999998E-03;  6.1105840E-02;8765;  1.0209495E+00;  0.0000000E+00; -8.5599814E-03;  1.0015042E+03;  3.1564742E-01;  1.2446851E+03;3; -1.4183302E+02;  0.0000000E+00; -3.5303490E+01;0;  6.8192506E+00;  4.1446055E+03;  0.0000000E+00;  1.6462435E-01;  4.0000000E+04;  0.0000000E+00;  3.8670090E+04;  6.9158964E+00;  0.0000000E+00; -9.6646033E-02;  1.9670996E+04;
  1.5900917E+00;  9.9999998E-03; -1.0175202E-01;8749;  9.6438664E-01;  0.0000000E+00;  1.6225485E-02;  1.0015737E+03;  3.1524298E-01;  1.3021892E+03;3; -1.4624367E+02;  0.0000000E+00;  4.4712605E+01;0;  6.9076147E+00;  4.1509521E+03;  0.0000000E+00;  4.0870300E-01;  4.0000000E+04;  0.0000000E+00;  3.8681750E+04;  7.0938673E+00;  0.0000000E+00; -1.8625237E-01;  1.8271631E+04;
  1.5899752E+00;  9.9999998E-03; -8.1447870E-02;8751;  9.9468184E-01;  0.0000000E+00;  1.2255872E-02;  1.0012340E+03;  3.1544715E-01;  1.0211568E+03;3; -1.4477278E+02;  0.0000000E+00;  4.0607220E+01;0;  6.8666964E+00;  4.1456064E+03;  0.0000000E+00;  2.4509749E-01;  4.0000000E+04;  0.0000000E+00;  3.8677414E+04;  7.0059156E+00;  0.0000000E+00; -1.3921909E-01;  1.8774910E+04;
  1.5899115E+00;  9.9999998E-03; -7.1280465E-02;8752;  1.0082825E+00;  0.0000000E+00;  1.0381890E-02;  1.0012806E+03;  3.1555676E-01;  1.0597277E+03;3; -1.4350336E+02;  0.0000000E+00;  3.8134098E+01;0;  6.8440752E+00;  4.1443262E+03;  0.0000000E+00;  2.0158748E-01;  4.0000000E+04;  0.0000000E+00;  3.8674172E+04;  6.9612641E+00;  0.0000000E+00; -1.1718871E-01;  1.9158064E+04;
  1.5900483E+00;  9.9999998E-03; -9.1604970E-02;8750;  9.8016286E-01;  0.0000000E+00;  1.4187754E-02;  1.0013425E+03;  3.1533346E-01;  1.1108221E+03;3; -1.4563977E+02;  0.0000000E+00;  4.2810875E+01;0;  6.8874078E+00;  4.1481709E+03;  0.0000000E+00;  3.0823869E-01;  4.0000000E+04;  0.0000000E+00;  3.8679797E+04;  7.0497503E+00;  0.0000000E+00; -1.6234237E-01;  1.8502451E+04;
  1.6192144E+00;  9.9999998E-03; -1.0177495E-01;8810;  1.1657655E+00;  0.0000000E+00; -3.7915148E-02;  1.0062511E+03;  2.8348294E-01;  5.1692363E+03;3; -6.9338821E+01;  0.0000000E+00;  4.3841240E+01;0;  5.0313916E+00;  5.1839448E+03;  0.0000000E+00;  4.9577084E-01;  4.0000000E+04;  0.0000000E+00;  3.8694434E+04;  4.9980154E+00;  0.0000000E+00;  3.3376001E-02;  1.8591479E+04;
  1.6188303E+00;  9.9999998E-03;  1.6219028E-07;8820;  1.2063893E+00;  0.0000000E+00;  2.5333958E-07;  1.0066437E+03;  2.8390905E-01;  5.4940112E+03;3; -3.7174412E+01;  0.0000000E+00;  3.1593139E-05;0;  4.5730705E+00;  5.1811948E+03;  0.0000000E+00; -5.1580285E-11;  4.0000000E+04;  0.0000000E+00;  3.8671645E+04;  4.2912679E+00;  0.0000000E+00;  2.8180248E-01;  2.1329352E+04;
  1.6188318E+00;  9.9999998E-03; -1.0177190E-02;8819;  1.2059164E+00;  0.0000000E+00; -6.4088642E-03;  1.0065867E+03;  2.8389743E-01;  5.4468901E+03;3; -3.7705879E+01;  0.0000000E+00;  2.8452053E+00;0;  4.5784149E+00;  5.1809287E+03;  0.0000000E+00;  5.6685992E-03;  4.0000000E+04;  0.0000000E+00;  3.8672582E+04;  4.2995744E+00;  0.0000000E+00;  2.7884030E-01;  2.1258686E+04;
  1.6188318E+00;  9.9999998E-03;  1.0177514E-02;8821;  1.2059165E+00;  0.0000000E+00;  6.4094085E-03;  1.0065866E+03;  2.8389859E-01;  5.4466929E+03;3; -3.7705631E+01;  0.0000000E+00; -2.8451033E+00;0;  4.5784111E+00;  5.1809287E+03;  0.0000000E+00;  5.6689163E-03;  4.0000000E+04;  0.0000000E+00;  3.8672578E+04;  4.2995701E+00;  0.0000000E+00;  2.7884081E-01;  2.1258641E+04;
  1.6188269E+00;  9.9999998E-03; -2.0355646E-02;8818;  1.2044909E+00;  0.0000000E+00; -1.2782227E-02;  1.0064266E+03;  2.8387728E-01;  5.3144004E+03;3; -3.9298248E+01;  0.0000000E+00;  5.6255999E+00;0;  4.5949879E+00;  5.1799678E+03;  0.0000000E+00;  2.1449670E-02;  4.0000000E+04;  0.0000000E+00;  3.8673980E+04;  4.3251009E+00;  0.0000000E+00;  2.6988676E-01;  2.1057949E+04;
  1.6188269E+00;  9.9999998E-03;  2.0355970E-02;8822;  1.2044910E+00;  0.0000000E+00;  1.2782833E-02;  1.0064265E+03;  2.8387830E-01;  5.3144004E+03;3; -3.9298103E+01;  0.0000000E+00; -5.6255593E+00;0;  4.5949845E+00;  5.1799678E+03;  0.0000000E+00;  2.1450890E-02;  4.0000000E+04;  0.0000000E+00;  3.8673977E+04;  4.3250976E+00;  0.0000000E+00;  2.6988694E-01;  2.1057996E+04;
  1.6192530E+00;  9.9999998E-03; -9.1622286E-02;8811;  1.1734444E+00;  0.0000000E+00; -3.8959239E-02;  1.0060086E+03;  2.8344417E-01;  4.9687227E+03;3; -6.4702515E+01;  0.0000000E+00;  4.3728188E+01;0;  4.9381776E+00;  5.1843799E+03;  0.0000000E+00;  3.4887394E-01;  4.0000000E+04;  0.0000000E+00;  3.8692598E+04;  4.8662729E+00;  0.0000000E+00;  7.1904853E-02;  1.8773268E+04;
  1.6188291E+00;  9.9999998E-03; -3.0537585E-02;8817;  1.2021582E+00;  0.0000000E+00; -1.9079046E-02;  1.0061925E+03;  2.8384247E-01;  5.1207905E+03;3; -4.1811813E+01;  0.0000000E+00;  8.2819309E+00;0;  4.6212616E+00;  5.1787739E+03;  0.0000000E+00;  4.4202179E-02;  4.0000000E+04;  0.0000000E+00;  3.8676320E+04;  4.3661113E+00;  0.0000000E+00;  2.5515017E-01;  2.0752492E+04;
  1.6188291E+00;  9.9999998E-03;  3.0537913E-02;8823;  1.2021577E+00;  0.0000000E+00;  1.9079760E-02;  1.0061931E+03;  2.8384122E-01;  5.1212837E+03;3; -4.1812134E+01;  0.0000000E+00; -8.2817965E+00;0;  4.6212683E+00;  5.1787734E+03;  0.0000000E+00;  4.4203542E-02;  4.0000000E+04;  0.0000000E+00;  3.8676328E+04;  4.3661184E+00;  0.0000000E+00;  2.5514975E-01;  2.0752432E+04;
  1.6188517E+00;  9.9999998E-03; -4.0723972E-02;8816;  1.1989959E+00;  0.0000000E+00; -2.5275508E-02;  1.0059515E+03;  2.8378704E-01;  4.9215591E+03;3; -4.5028893E+01;  0.0000000E+00;  1.0788420E+01;0;  4.6556225E+00;  5.1778198E+03;  0.0000000E+00;  7.0396200E-02;  4.0000000E+04;  0.0000000E+00;  3.8679258E+04;  4.4207225E+00;  0.0000000E+00;  2.3489992E-01;  2.0378795E+04;
  1.6188517E+00;  9.9999998E-03;  4.0724304E-02;8824;  1.1989959E+00;  0.0000000E+00;  2.5276402E-02;  1.0059515E+03;  2.8378704E-01;  4.9215591E+03;3; -4.5028969E+01;  0.0000000E+00; -1.0788173E+01;0;  4.6556268E+00;  5.1778198E+03;  0.0000000E+00;  7.0399895E-02;  4.0000000E+04;  0.0000000E+00;  3.8679266E+04;  4.4207273E+00;  0.0000000E+00;  2.3489948E-01;  2.0378869E+04;
  1.6191895E+00;  9.9999998E-03; -8.1458047E-02;8812;  1.1798440E+00;  0.0000000E+00; -3.9802644E-02;  1.0057856E+03;  2.8347862E-01;  4.7843906E+03;3; -6.0515614E+01;  0.0000000E+00;  4.1343082E+01;0;  4.8621964E+00;  5.1824395E+03;  0.0000000E+00;  2.4361257E-01;  4.0000000E+04;  0.0000000E+00;  3.8690906E+04;  4.7525868E+00;  0.0000000E+00;  1.0960981E-01;  1.8987150E+04;
  1.6189001E+00;  9.9999998E-03; -5.0913338E-02;8815;  1.1950872E+00;  0.0000000E+00; -3.1276941E-02;  1.0057437E+03;  2.8371960E-01;  4.7497295E+03;3; -4.8715916E+01;  0.0000000E+00;  1.3726367E+01;0;  4.6969914E+00;  5.1774907E+03;  0.0000000E+00;  9.8340780E-02;  4.0000000E+04;  0.0000000E+00;  3.8682340E+04;  4.4875226E+00;  0.0000000E+00;  2.0946898E-01;  1.9980055E+04;
  1.6189001E+00;  9.9999998E-03;  5.0913673E-02;8825;  1.1950870E+00;  0.0000000E+00;  3.1277869E-02;  1.0057438E+03;  2.8371996E-01;  4.7498281E+03;3; -4.8716156E+01;  0.0000000E+00; -1.3726242E+01;0;  4.6970000E+00;  5.1774893E+03;  0.0000000E+00;  9.8345250E-02;  4.0000000E+04;  0.0000000E+00;  3.8682348E+04;  4.4875317E+00;  0.0000000E+00;  2.0946859E-01;  1.9980053E+04;
  1.6190774E+00;  9.9999998E-03; -7.1284644E-02;8813;  1.1854541E+00;  0.0000000E+00; -3.9531868E-02;  1.0056426E+03;  2.8356251E-01;  4.6660127E+03;3; -5.6549923E+01;  0.0000000E+00;  3.2366600E+01;0;  4.7993793E+00;  5.1798228E+03;  0.0000000E+00;  1.7480589E-01;  4.0000000E+04;  0.0000000E+00;  3.8688395E+04;  4.6536708E+00;  0.0000000E+00;  1.4570867E-01;  1.9261148E+04;
  1.6189727E+00;  9.9999998E-03; -6.1102055E-02;8814;  1.1905258E+00;  0.0000000E+00; -3.6552120E-02;  1.0056390E+03;  2.8364760E-01;  4.6631675E+03;3; -5.2628239E+01;  0.0000000E+00;  1.9639549E+01;0;  4.7450976E+00;  5.1779858E+03;  0.0000000E+00;  1.3048750E-01;  4.0000000E+04;  0.0000000E+00;  3.8685441E+04;  4.5657158E+00;  0.0000000E+00;  1.7938203E-01;  1.9597602E+04;
  1.6189727E+00;  9.9999998E-03;  6.1102394E-02;8826;  1.1905253E+00;  0.0000000E+00;  3.6552954E-02;  1.0056396E+03;  2.8364822E-01;  4.6636602E+03;3; -5.2628738E+01;  0.0000000E+00; -1.9639685E+01;0;  4.7451096E+00;  5.1779829E+03;  0.0000000E+00;  1.3049063E-01;  4.0000000E+04;  0.0000000E+00;  3.8685445E+04;  4.5657282E+00;  0.0000000E+00;  1.7938124E-01;  1.9597631E+04;
  1.6450170E+00;  9.9999998E-03; -1.0169081E-01;8871;  1.2316201E+00;  0.0000000E+00; -6.8621628E-02;  1.0076691E+03;  2.5661528E-01;  6.3362407E+03;3;  9.7951186E-01;  0.0000000E+00;  1.9480587E+01;0;  3.2170587E+00;  6.3468848E+03;  0.0000000E+00;  7.0486373E-01;  4.0000000E+04;  0.0000000E+00;  3.8715672E+04;  3.0004389E+00;  0.0000000E+00;  2.1661974E-01;  1.6641648E+04;
  1.6452065E+00;  9.9999998E-03; -9.1544554E-02;8872;  1.2321939E+00;  0.0000000E+00; -6.3922629E-02;  1.0073879E+03;  2.5647768E-01;  6.1039507E+03;3;  4.0979981E+00;  0.0000000E+00;  1.5051673E+01;0;  3.1098077E+00;  6.3510967E+03;  0.0000000E+00;  5.4085892E-01;  4.0000000E+04;  0.0000000E+00;  3.8714902E+04;  2.8475924E+00;  0.0000000E+00;  2.6221544E-01;  1.6702338E+04;
  1.6446768E+00;  9.9999998E-03; -1.0165215E-02;8880;  1.2335409E+00;  0.0000000E+00; -7.5150193E-03;  1.0062137E+03;  2.5684121E-01;  5.1339307E+03;3;  1.0238133E+01;  0.0000000E+00;  2.0140233E+00;0;  2.7814593E+00;  6.3272734E+03;  0.0000000E+00;  4.4416133E-03;  4.0000000E+04;  0.0000000E+00;  3.8705277E+04;  2.2835798E+00;  0.0000000E+00;  4.9787962E-01;  1.7685756E+04;
  1.6446656E+00;  9.9999998E-03;  1.6519715E-07;8881;  1.2335936E+00;  0.0000000E+00;  2.3835545E-07;  1.0062247E+03;  2.5685465E-01;  5.1428960E+03;3;  1.0274048E+01;  0.0000000E+00;  2.6308786E-05;0;  2.7777891E+00;  6.3268867E+03;  0.0000000E+00;  5.7773508E-11;  4.0000000E+04;  0.0000000E+00;  3.8705047E+04;  2.2765882E+00;  0.0000000E+00;  5.0120091E-01;  1.7711582E+04;
  1.6446768E+00;  9.9999998E-03;  1.0165545E-02;8882;  1.2335409E+00;  0.0000000E+00;  7.5155054E-03;  1.0062138E+03;  2.5684306E-01;  5.1339307E+03;3;  1.0238134E+01;  0.0000000E+00; -2.0139673E+00;0;  2.7814608E+00;  6.3272705E+03;  0.0000000E+00;  4.4416902E-03;  4.0000000E+04;  0.0000000E+00;  3.8705281E+04;  2.2835808E+00;  0.0000000E+00;  4.9788007E-01;  1.7685807E+04;
  1.6447098E+00;  9.9999998E-03; -2.0331839E-02;8879;  1.2333965E+00;  0.0000000E+00; -1.5013205E-02;  1.0061856E+03;  2.5680399E-01;  5.1106792E+03;3;  1.0154347E+01;  0.0000000E+00;  3.9751227E+00;0;  2.7924881E+00;  6.3284512E+03;  0.0000000E+00;  1.7104350E-02;  4.0000000E+04;  0.0000000E+00;  3.8706059E+04;  2.3045375E+00;  0.0000000E+00;  4.8795050E-01;  1.7612318E+04;
  1.6447098E+00;  9.9999998E-03;  2.0332169E-02;8883;  1.2333968E+00;  0.0000000E+00;  1.5013732E-02;  1.0061856E+03;  2.5680470E-01;  5.1106792E+03;3;  1.0154503E+01;  0.0000000E+00; -3.9750593E+00;0;  2.7924900E+00;  6.3284497E+03;  0.0000000E+00;  1.7105144E-02;  4.0000000E+04;  0.0000000E+00;  3.8706062E+04;  2.3045394E+00;  0.0000000E+00;  4.8795059E-01;  1.7612381E+04;
  1.6447654E+00;  9.9999998E-03; -3.0502448E-02;8878;  1.2331916E+00;  0.0000000E+00; -2.2478580E-02;  1.0061632E+03;  2.5674859E-01;  5.0921514E+03;3;  1.0066231E+01;  0.0000000E+00;  5.8267488E+00;0;  2.8108027E+00;  6.3304780E+03;  0.0000000E+00;  3.6896676E-02;  4.0000000E+04;  0.0000000E+00;  3.8706848E+04;  2.3392665E+00;  0.0000000E+00;  4.7153613E-01;  1.7500654E+04;
  1.6447654E+00;  9.9999998E-03;  3.0502776E-02;8884;  1.2331917E+00;  0.0000000E+00;  2.2479163E-02;  1.0061634E+03;  2.5674891E-01;  5.0922500E+03;3;  1.0065932E+01;  0.0000000E+00; -5.8267436E+00;0;  2.8108060E+00;  6.3304775E+03;  0.0000000E+00;  3.6898702E-02;  4.0000000E+04;  0.0000000E+00;  3.8706840E+04;  2.3392696E+00;  0.0000000E+00;  4.7153646E-01;  1.7500732E+04;
  1.6452377E+00;  9.9999998E-03; -8.1389286E-02;8873;  1.2324001E+00;  0.0000000E+00; -5.7982307E-02;  1.0070434E+03;  2.5643966E-01;  5.8192075E+03;3;  6.1161904E+00;  0.0000000E+00;  1.3487856E+01;0;  3.0265286E+00;  6.3502422E+03;  0.0000000E+00;  3.8426676E-01;  4.0000000E+04;  0.0000000E+00;  3.8713809E+04;  2.7200439E+00;  0.0000000E+00;  3.0648479E-01;  1.6792895E+04;
  1.6448480E+00;  9.9999998E-03; -4.0678717E-02;8877;  1.2329652E+00;  0.0000000E+00; -2.9892575E-02;  1.0061762E+03;  2.5667733E-01;  5.1028696E+03;3;  9.7190237E+00;  0.0000000E+00;  7.5855618E+00;0;  2.8361008E+00;  6.3335391E+03;  0.0000000E+00;  6.4442091E-02;  4.0000000E+04;  0.0000000E+00;  3.8707871E+04;  2.3872018E+00;  0.0000000E+00;  4.4889900E-01;  1.7362270E+04;
  1.6448480E+00;  9.9999998E-03;  4.0679049E-02;8885;  1.2329652E+00;  0.0000000E+00;  2.9893197E-02;  1.0061761E+03;  2.5667641E-01;  5.1027710E+03;3;  9.7192869E+00;  0.0000000E+00; -7.5855007E+00;0;  2.8361025E+00;  6.3335435E+03;  0.0000000E+00;  6.4448386E-02;  4.0000000E+04;  0.0000000E+00;  3.8707883E+04;  2.3872035E+00;  0.0000000E+00;  4.4889912E-01;  1.7362303E+04;
  1.6451713E+00;  9.9999998E-03; -7.1221381E-02;8874;  1.2324874E+00;  0.0000000E+00; -5.1405240E-02;  1.0067081E+03;  2.5646433E-01;  5.5421689E+03;3;  7.4418635E+00;  0.0000000E+00;  1.2164335E+01;0;  2.9616580E+00;  6.3465254E+03;  0.0000000E+00;  2.5660348E-01;  4.0000000E+04;  0.0000000E+00;  3.8712273E+04;  2.6133692E+00;  0.0000000E+00;  3.4828866E-01;  1.6915346E+04;
  1.6449521E+00;  9.9999998E-03; -5.0860118E-02;8876;  1.2327539E+00;  0.0000000E+00; -3.7227426E-02;  1.0062637E+03;  2.5659588E-01;  5.1751406E+03;3;  9.2015696E+00;  0.0000000E+00;  9.2552156E+00;0;  2.8688447E+00;  6.3374624E+03;  0.0000000E+00;  1.0421689E-01;  4.0000000E+04;  0.0000000E+00;  3.8709406E+04;  2.4484463E+00;  0.0000000E+00;  4.2039838E-01;  1.7210615E+04;
  1.6449521E+00;  9.9999998E-03;  5.0860446E-02;8886;  1.2327540E+00;  0.0000000E+00;  3.7228089E-02;  1.0062635E+03;  2.5659662E-01;  5.1749438E+03;3;  9.2014513E+00;  0.0000000E+00; -9.2551298E+00;0;  2.8688488E+00;  6.3374590E+03;  0.0000000E+00;  1.0422470E-01;  4.0000000E+04;  0.0000000E+00;  3.8709406E+04;  2.4484508E+00;  0.0000000E+00;  4.2039794E-01;  1.7210635E+04;
  1.6450666E+00;  9.9999998E-03; -6.1043125E-02;8875;  1.2326000E+00;  0.0000000E+00; -4.4431914E-02;  1.0064387E+03;  2.5651968E-01;  5.3196030E+03;3;  8.5621233E+00;  0.0000000E+00;  1.0802829E+01;0;  2.9100490E+00;  6.3419839E+03;  0.0000000E+00;  1.6493507E-01;  4.0000000E+04;  0.0000000E+00;  3.8710863E+04;  2.5234511E+00;  0.0000000E+00;  3.8659790E-01;  1.7058055E+04;
  1.6450666E+00;  9.9999998E-03;  6.1043452E-02;8887;  1.2325999E+00;  0.0000000E+00;  4.4432517E-02;  1.0064389E+03;  2.5652242E-01;  5.3197998E+03;3;  8.5621452E+00;  0.0000000E+00; -1.0802797E+01;0;  2.9100556E+00;  6.3419829E+03;  0.0000000E+00;  1.6494204E-01;  4.0000000E+04;  0.0000000E+00;  3.8710859E+04;  2.5234578E+00;  0.0000000E+00;  3.8659796E-01;  1.7058131E+04;
  1.6682483E+00;  9.9999998E-03; -1.0153727E-01;8931;  1.2400423E+00;  0.0000000E+00; -7.3232718E-02;  1.0070080E+03;  2.3420338E-01;  5.7834106E+03;3;  1.8066553E+01;  0.0000000E+00;  1.0748478E+01;0;  1.9047897E+00;  7.6120449E+03;  0.0000000E+00;  7.7861750E-01;  4.0000000E+04;  0.0000000E+00;  3.8734227E+04;  1.5589340E+00;  0.0000000E+00;  3.4585565E-01;  1.3860784E+04;
  1.6685600E+00;  9.9999998E-03; -9.1405265E-02;8932;  1.2387747E+00;  0.0000000E+00; -6.7534305E-02;  1.0067416E+03;  2.3402439E-01;  5.5635303E+03;3;  1.8284143E+01;  0.0000000E+00;  1.0001500E+01;0;  1.8194284E+00;  7.6198442E+03;  0.0000000E+00;  6.5981025E-01;  4.0000000E+04;  0.0000000E+00;  3.8734504E+04;  1.4286703E+00;  0.0000000E+00;  3.9075810E-01;  1.3776366E+04;
  1.6679572E+00;  9.9999998E-03;  1.7105091E-07;8941;  1.2344333E+00;  0.0000000E+00;  2.2056149E-07;  1.0043930E+03;  2.3432067E-01;  3.6254280E+03;3;  1.8396173E+01;  0.0000000E+00;  1.2295233E-05;0;  1.6068064E+00;  7.5719731E+03;  0.0000000E+00;  1.0278876E-10;  4.0000000E+04;  0.0000000E+00;  3.8738016E+04;  9.8423862E-01;  0.0000000E+00;  6.2256777E-01;  1.3044676E+04;
  1.6679820E+00;  9.9999998E-03; -1.0153578E-02;8940;  1.2344537E+00;  0.0000000E+00; -8.0008097E-03;  1.0044172E+03;  2.3430330E-01;  3.6453943E+03;3;  1.8428223E+01;  0.0000000E+00;  1.4073732E+00;0;  1.6082292E+00;  7.5733042E+03;  0.0000000E+00;  4.4085123E-03;  4.0000000E+04;  0.0000000E+00;  3.8738012E+04;  9.8888409E-01;  0.0000000E+00;  6.1934501E-01;  1.3064625E+04;
  1.6679820E+00;  9.9999998E-03;  1.0153920E-02;8942;  1.2344537E+00;  0.0000000E+00;  8.0012511E-03;  1.0044175E+03;  2.3430274E-01;  3.6456895E+03;3;  1.8428137E+01;  0.0000000E+00; -1.4073839E+00;0;  1.6082287E+00;  7.5733066E+03;  0.0000000E+00;  4.4086385E-03;  4.0000000E+04;  0.0000000E+00;  3.8738012E+04;  9.8888344E-01;  0.0000000E+00;  6.1934519E-01;  1.3064630E+04;
  1.6680566E+00;  9.9999998E-03; -2.0308213E-02;8939;  1.2345189E+00;  0.0000000E+00; -1.5971543E-02;  1.0044948E+03;  2.3425709E-01;  3.7094241E+03;3;  1.8479208E+01;  0.0000000E+00;  2.8008592E+00;0;  1.6125259E+00;  7.5773003E+03;  0.0000000E+00;  1.7720671E-02;  4.0000000E+04;  0.0000000E+00;  3.8737426E+04;  1.0027961E+00;  0.0000000E+00;  6.0972983E-01;  1.3121104E+04;
  1.6680566E+00;  9.9999998E-03;  2.0308554E-02;8943;  1.2345189E+00;  0.0000000E+00;  1.5972013E-02;  1.0044947E+03;  2.3425712E-01;  3.7093257E+03;3;  1.8478312E+01;  0.0000000E+00; -2.8008208E+00;0;  1.6125238E+00;  7.5773032E+03;  0.0000000E+00;  1.7720880E-02;  4.0000000E+04;  0.0000000E+00;  3.8737426E+04;  1.0027939E+00;  0.0000000E+00;  6.0972995E-01;  1.3121127E+04;
  1.6681703E+00;  9.9999998E-03; -3.0464370E-02;8938;  1.2346590E+00;  0.0000000E+00; -2.3881670E-02;  1.0046395E+03;  2.3418678E-01;  3.8288323E+03;3;  1.8559132E+01;  0.0000000E+00;  4.1199627E+00;0;  1.6202502E+00;  7.5835581E+03;  0.0000000E+00;  4.1094076E-02;  4.0000000E+04;  0.0000000E+00;  3.8736898E+04;  1.0263999E+00;  0.0000000E+00;  5.9385031E-01;  1.3207088E+04;
  1.6681703E+00;  9.9999998E-03;  3.0464707E-02;8944;  1.2346590E+00;  0.0000000E+00;  2.3882164E-02;  1.0046395E+03;  2.3418640E-01;  3.8288323E+03;3;  1.8559311E+01;  0.0000000E+00; -4.1199751E+00;0;  1.6202492E+00;  7.5835610E+03;  0.0000000E+00;  4.1095145E-02;  4.0000000E+04;  0.0000000E+00;  3.8736891E+04;  1.0263985E+00;  0.0000000E+00;  5.9385061E-01;  1.3207138E+04;
  1.6686965E+00;  9.9999998E-03; -8.1262648E-02;8933;  1.2376357E+00;  0.0000000E+00; -6.1158352E-02;  1.0063674E+03;  2.3393333E-01;  5.2546826E+03;3;  1.8466467E+01;  0.0000000E+00;  9.2110291E+00;0;  1.7550950E+00;  7.6208115E+03;  0.0000000E+00;  5.0599194E-01;  4.0000000E+04;  0.0000000E+00;  3.8735020E+04;  1.3210335E+00;  0.0000000E+00;  4.3406150E-01;  1.3687800E+04;
  1.6683143E+00;  9.9999998E-03; -4.0623046E-02;8937;  1.2349092E+00;  0.0000000E+00; -3.1705525E-02;  1.0048561E+03;  2.3410045E-01;  4.0075544E+03;3;  1.8652651E+01;  0.0000000E+00;  5.3298149E+00;0;  1.6320298E+00;  7.5916572E+03;  0.0000000E+00;  7.8603953E-02;  4.0000000E+04;  0.0000000E+00;  3.8736258E+04;  1.0600632E+00;  0.0000000E+00;  5.7196653E-01;  1.3309810E+04;
  1.6683145E+00;  9.9999998E-03;  4.0623382E-02;8945;  1.2349092E+00;  0.0000000E+00;  3.1706054E-02;  1.0048557E+03;  2.3409986E-01;  4.0072595E+03;3;  1.8652945E+01;  0.0000000E+00; -5.3298402E+00;0;  1.6320295E+00;  7.5916611E+03;  0.0000000E+00;  7.8608476E-02;  4.0000000E+04;  0.0000000E+00;  3.8736266E+04;  1.0600630E+00;  0.0000000E+00;  5.7196659E-01;  1.3309838E+04;
  1.6686976E+00;  9.9999998E-03; -7.1108274E-02;8934;  1.2366638E+00;  0.0000000E+00; -5.4244127E-02;  1.0059360E+03;  2.3391493E-01;  4.8986577E+03;3;  1.8616602E+01;  0.0000000E+00;  8.3374510E+00;0;  1.7077622E+00;  7.6167476E+03;  0.0000000E+00;  3.5382852E-01;  4.0000000E+04;  0.0000000E+00;  3.8735113E+04;  1.2330269E+00;  0.0000000E+00;  4.7473532E-01;  1.3602664E+04;
  1.6684698E+00;  9.9999998E-03; -5.0783947E-02;8936;  1.2353046E+00;  0.0000000E+00; -3.9410498E-02;  1.0051615E+03;  2.3401606E-01;  4.2595620E+03;3;  1.8660774E+01;  0.0000000E+00;  6.4541669E+00;0;  1.6491332E+00;  7.6007368E+03;  0.0000000E+00;  1.3802288E-01;  4.0000000E+04;  0.0000000E+00;  3.8735754E+04;  1.1046818E+00;  0.0000000E+00;  5.4445142E-01;  1.3415540E+04;
  1.6684699E+00;  9.9999998E-03;  5.0784279E-02;8946;  1.2353047E+00;  0.0000000E+00;  3.9411027E-02;  1.0051614E+03;  2.3401710E-01;  4.2594639E+03;3;  1.8660389E+01;  0.0000000E+00; -6.4541349E+00;0;  1.6491339E+00;  7.6007388E+03;  0.0000000E+00;  1.3802834E-01;  4.0000000E+04;  0.0000000E+00;  3.8735758E+04;  1.1046818E+00;  0.0000000E+00;  5.4445213E-01;  1.3415593E+04;
  1.6686076E+00;  9.9999998E-03; -6.0946763E-02;8935;  1.2358841E+00;  0.0000000E+00; -4.6951205E-02;  1.0055234E+03;  2.3394831E-01;  4.5581021E+03;3;  1.8675104E+01;  0.0000000E+00;  7.4376488E+00;0;  1.6735705E+00;  7.6095195E+03;  0.0000000E+00;  2.2837493E-01;  4.0000000E+04;  0.0000000E+00;  3.8735250E+04;  1.1617599E+00;  0.0000000E+00;  5.1181066E-01;  1.3514255E+04;
  1.6686076E+00;  9.9999998E-03;  6.0947098E-02;8947;  1.2358842E+00;  0.0000000E+00;  4.6951730E-02;  1.0055236E+03;  2.3394881E-01;  4.5582988E+03;3;  1.8674860E+01;  0.0000000E+00; -7.4375982E+00;0;  1.6735712E+00;  7.6095122E+03;  0.0000000E+00;  2.2838175E-01;  4.0000000E+04;  0.0000000E+00;  3.8735258E+04;  1.1617607E+00;  0.0000000E+00;  5.1181054E-01;  1.3514249E+04;
  1.8204128E+00;  9.9999998E-03; -1.0218062E-01;9445;  1.2010454E+00;  0.0000000E+00; -4.1522253E-02;  9.9757886E+02;  1.4537986E-01; -1.9344430E+03;3;  3.3064529E+01;  0.0000000E+00; -1.6107014E+00;0; -3.2025188E-02;  1.9578752E+04;  0.0000000E+00; -1.7023632E-02;  4.0000000E+04;  0.0000000E+00;  3.8408121E+04; -3.2415175E-01;  0.0000000E+00;  2.9212657E-01;  2.2923496E+03;
  1.7908499E+00;  9.9999998E-03; -1.0213897E-01;9336;  1.2118050E+00;  0.0000000E+00; -5.0794974E-02;  9.9765234E+02;  1.5490519E-01; -1.8993568E+03;3;  3.1108641E+01;  0.0000000E+00;  6.0769713E-01;0;  5.2353680E-02;  1.7163037E+04;  0.0000000E+00; -1.0400748E-01;  4.0000000E+04;  0.0000000E+00;  3.8602914E+04; -3.1058782E-01;  0.0000000E+00;  3.6294150E-01;  3.5725132E+03;
  1.6892608E+00;  9.9999998E-03;  1.7333403E-07;9000;  1.2304465E+00;  0.0000000E+00;  1.9975434E-07;  1.0024941E+03;  2.1562956E-01;  2.0553452E+03;3;  2.1241510E+01;  0.0000000E+00; -1.1311666E-05;0;  9.5755756E-01;  8.9019102E+03;  0.0000000E+00;  5.4340487E-11;  4.0000000E+04;  0.0000000E+00;  3.8763047E+04;  2.8460643E-01;  0.0000000E+00;  6.7295110E-01;  8.3678535E+03;
  1.6892955E+00;  9.9999998E-03; -1.0142667E-02;8999;  1.2304949E+00;  0.0000000E+00; -8.0859214E-03;  1.0025374E+03;  2.1561240E-01;  2.0910000E+03;3;  2.1251465E+01;  0.0000000E+00;  1.2006787E+00;0;  9.5754623E-01;  8.9040732E+03;  0.0000000E+00;  6.4353566E-03;  4.0000000E+04;  0.0000000E+00;  3.8762785E+04;  2.8755414E-01;  0.0000000E+00;  6.6999209E-01;  8.4343369E+03;
  1.6892955E+00;  9.9999998E-03;  1.0143014E-02;9001;  1.2304950E+00;  0.0000000E+00;  8.0863275E-03;  1.0025375E+03;  2.1561237E-01;  2.0910984E+03;3;  2.1251541E+01;  0.0000000E+00; -1.2007246E+00;0;  9.5754588E-01;  8.9040742E+03;  0.0000000E+00;  6.4342665E-03;  4.0000000E+04;  0.0000000E+00;  3.8762777E+04;  2.8755417E-01;  0.0000000E+00;  6.6999167E-01;  8.4343223E+03;
  1.6894106E+00;  9.9999998E-03; -1.0139003E-01;8990;  1.2390968E+00;  0.0000000E+00; -7.2156265E-02;  1.0053702E+03;  2.1565063E-01;  4.4254922E+03;3;  2.2576454E+01;  0.0000000E+00;  7.8017120E+00;0;  1.1092492E+00;  8.9515195E+03;  0.0000000E+00;  6.5253401E-01;  4.0000000E+04;  0.0000000E+00;  3.8746008E+04;  6.8735009E-01;  0.0000000E+00;  4.2189914E-01;  1.0816563E+04;
  1.6893940E+00;  9.9999998E-03; -2.0285705E-02;8998;  1.2306474E+00;  0.0000000E+00; -1.6112274E-02;  1.0026769E+03;  2.1556744E-01;  2.2060200E+03;3;  2.1267666E+01;  0.0000000E+00;  2.3751557E+00;0;  9.5770603E-01;  8.9103076E+03;  0.0000000E+00;  2.6298411E-02;  4.0000000E+04;  0.0000000E+00;  3.8761086E+04;  2.9654139E-01;  0.0000000E+00;  6.6116464E-01;  8.6238125E+03;
  1.6893940E+00;  9.9999998E-03;  2.0286050E-02;9002;  1.2306476E+00;  0.0000000E+00;  1.6112693E-02;  1.0026769E+03;  2.1556728E-01;  2.2060200E+03;3;  2.1267864E+01;  0.0000000E+00; -2.3751976E+00;0;  9.5770538E-01;  8.9103135E+03;  0.0000000E+00;  2.6297426E-02;  4.0000000E+04;  0.0000000E+00;  3.8761094E+04;  2.9654109E-01;  0.0000000E+00;  6.6116428E-01;  8.6238057E+03;
  1.6895399E+00;  9.9999998E-03; -3.0428883E-02;8997;  1.2309293E+00;  0.0000000E+00; -2.4024907E-02;  1.0029023E+03;  2.1550103E-01;  2.3916609E+03;3;  2.1350025E+01;  0.0000000E+00;  3.4519353E+00;0;  9.5859015E-01;  8.9198682E+03;  0.0000000E+00;  6.1615687E-02;  4.0000000E+04;  0.0000000E+00;  3.8758996E+04;  3.1196848E-01;  0.0000000E+00;  6.4662164E-01;  8.9075352E+03;
  1.6895400E+00;  9.9999998E-03;  3.0429225E-02;9003;  1.2309293E+00;  0.0000000E+00;  2.4025312E-02;  1.0029026E+03;  2.1550126E-01;  2.3919556E+03;3;  2.1349960E+01;  0.0000000E+00; -3.4519775E+00;0;  9.5858932E-01;  8.9198721E+03;  0.0000000E+00;  6.1615534E-02;  4.0000000E+04;  0.0000000E+00;  3.8758996E+04;  3.1196800E-01;  0.0000000E+00;  6.4662135E-01;  8.9075674E+03;
  1.6897142E+00;  9.9999998E-03; -4.0572252E-02;8996;  1.2313679E+00;  0.0000000E+00; -3.1781469E-02;  1.0032155E+03;  2.1542333E-01;  2.6496909E+03;3;  2.1386768E+01;  0.0000000E+00;  4.4220829E+00;0;  9.6099460E-01;  8.9317686E+03;  0.0000000E+00;  1.1620944E-01;  4.0000000E+04;  0.0000000E+00;  3.8756441E+04;  3.3436552E-01;  0.0000000E+00;  6.2662911E-01;  9.2440840E+03;
  1.6897142E+00;  9.9999998E-03;  4.0572591E-02;9004;  1.2313679E+00;  0.0000000E+00;  3.1781889E-02;  1.0032153E+03;  2.1542369E-01;  2.6495928E+03;3;  2.1387077E+01;  0.0000000E+00; -4.4221435E+00;0;  9.6099573E-01;  8.9317686E+03;  0.0000000E+00;  1.1621098E-01;  4.0000000E+04;  0.0000000E+00;  3.8756438E+04;  3.3436590E-01;  0.0000000E+00;  6.2662983E-01;  9.2441084E+03;
  1.6898038E+00;  9.9999998E-03; -9.1259062E-02;8991;  1.2372129E+00;  0.0000000E+00; -6.6501155E-02;  1.0051884E+03;  2.1545768E-01;  4.2755469E+03;3;  2.2800903E+01;  0.0000000E+00;  7.4595895E+00;0;  1.0560191E+00;  8.9634590E+03;  0.0000000E+00;  6.2712616E-01;  4.0000000E+04;  0.0000000E+00;  3.8746977E+04;  5.9345233E-01;  0.0000000E+00;  4.6256679E-01;  1.0660539E+04;
  1.6898867E+00;  9.9999998E-03; -5.0714672E-02;8995;  1.2320185E+00;  0.0000000E+00; -3.9345756E-02;  1.0036088E+03;  2.1535107E-01;  2.9738252E+03;3;  2.1760668E+01;  0.0000000E+00;  5.2241297E+00;0;  9.6618879E-01;  8.9443477E+03;  0.0000000E+00;  1.9441842E-01;  4.0000000E+04;  0.0000000E+00;  3.8753816E+04;  3.6461684E-01;  0.0000000E+00;  6.0157198E-01;  9.5911475E+03;
  1.6898868E+00;  9.9999998E-03;  5.0715011E-02;9005;  1.2320185E+00;  0.0000000E+00;  3.9346222E-02;  1.0036088E+03;  2.1535124E-01;  2.9738252E+03;3;  2.1759993E+01;  0.0000000E+00; -5.2241645E+00;0;  9.6618903E-01;  8.9443486E+03;  0.0000000E+00;  1.9442241E-01;  4.0000000E+04;  0.0000000E+00;  3.8753797E+04;  3.6461654E-01;  0.0000000E+00;  6.0157245E-01;  9.5911533E+03;
  1.6900297E+00;  9.9999998E-03; -8.1125155E-02;8992;  1.2355273E+00;  0.0000000E+00; -6.0324296E-02;  1.0048822E+03;  2.1533807E-01;  4.0231101E+03;3;  2.2772787E+01;  0.0000000E+00;  7.0464559E+00;0;  1.0177087E+00;  8.9676641E+03;  0.0000000E+00;  5.3837121E-01;  4.0000000E+04;  0.0000000E+00;  3.8748371E+04;  5.1599306E-01;  0.0000000E+00;  5.0171560E-01;  1.0453245E+04;
  1.6900254E+00;  9.9999998E-03; -6.0854755E-02;8994;  1.2329130E+00;  0.0000000E+00; -4.6669628E-02;  1.0040435E+03;  2.1530330E-01;  3.3319480E+03;3;  2.2061550E+01;  0.0000000E+00;  5.9383235E+00;0;  9.7578973E-01;  8.9559854E+03;  0.0000000E+00;  2.9747969E-01;  4.0000000E+04;  0.0000000E+00;  3.8751590E+04;  4.0382522E-01;  0.0000000E+00;  5.7196450E-01;  9.9162061E+03;
  1.6900254E+00;  9.9999998E-03;  6.0855094E-02;9006;  1.2329130E+00;  0.0000000E+00;  4.6670083E-02;  1.0040436E+03;  2.1530177E-01;  3.3321443E+03;3;  2.2061928E+01;  0.0000000E+00; -5.9383206E+00;0;  9.7578889E-01;  8.9559912E+03;  0.0000000E+00;  2.9748523E-01;  4.0000000E+04;  0.0000000E+00;  3.8751578E+04;  4.0382463E-01;  0.0000000E+00;  5.7196426E-01;  9.9162344E+03;
  1.6900914E+00;  9.9999998E-03; -7.0991211E-02;8993;  1.2340846E+00;  0.0000000E+00; -5.3688202E-02;  1.0044875E+03;  2.1529135E-01;  3.6978442E+03;3;  2.2564291E+01;  0.0000000E+00;  6.5310755E+00;0;  9.9196005E-01;  8.9645684E+03;  0.0000000E+00;  4.1846323E-01;  4.0000000E+04;  0.0000000E+00;  3.8749816E+04;  4.5351538E-01;  0.0000000E+00;  5.3844464E-01;  1.0203905E+04;
  1.7088662E+00;  9.9999998E-03; -1.0131619E-01;9049;  1.2357527E+00;  0.0000000E+00; -6.9146737E-02;  1.0034885E+03;  2.0032752E-01;  2.8695835E+03;3;  2.4600927E+01;  0.0000000E+00;  6.7784209E+00;0;  6.4975291E-01;  1.0337759E+04;  0.0000000E+00;  4.2060530E-01;  4.0000000E+04;  0.0000000E+00;  3.8749660E+04;  1.9319379E-01;  0.0000000E+00;  4.5655912E-01;  7.7474736E+03;
  1.7090513E+00;  9.9999998E-03;  1.7455223E-07;9059;  1.2251897E+00;  0.0000000E+00;  1.8638823E-07;  1.0009837E+03;  2.0014584E-01;  8.0919037E+02;3;  2.3825954E+01;  0.0000000E+00; -2.0443009E-05;0;  6.0395837E-01;  1.0296303E+04;  0.0000000E+00; -4.4293093E-11;  4.0000000E+04;  0.0000000E+00;  3.8773930E+04; -7.5053364E-02;  0.0000000E+00;  6.7901176E-01;  4.4697520E+03;
  1.7090883E+00;  9.9999998E-03; -1.0134624E-02;9058;  1.2252694E+00;  0.0000000E+00; -7.9593556E-03;  1.0010345E+03;  2.0013209E-01;  8.5096057E+02;3;  2.3831926E+01;  0.0000000E+00;  1.0431087E+00;0;  6.0320628E-01;  1.0298898E+04;  0.0000000E+00;  1.0419660E-02;  4.0000000E+04;  0.0000000E+00;  3.8773180E+04; -7.3140211E-02;  0.0000000E+00;  6.7634648E-01;  4.5730527E+03;
  1.7090883E+00;  9.9999998E-03;  1.0134973E-02;9060;  1.2252694E+00;  0.0000000E+00;  7.9597281E-03;  1.0010346E+03;  2.0013261E-01;  8.5105865E+02;3;  2.3831903E+01;  0.0000000E+00; -1.0431688E+00;0;  6.0320669E-01;  1.0298897E+04;  0.0000000E+00;  1.0417538E-02;  4.0000000E+04;  0.0000000E+00;  3.8773180E+04; -7.3140107E-02;  0.0000000E+00;  6.7634678E-01;  4.5730249E+03;
  1.7093155E+00;  9.9999998E-03; -9.1173902E-02;9050;  1.2335218E+00;  0.0000000E+00; -6.3753664E-02;  1.0034083E+03;  2.0013684E-01;  2.8035522E+03;3;  2.4460239E+01;  0.0000000E+00;  6.5959063E+00;0;  6.2268913E-01;  1.0354609E+04;  0.0000000E+00;  4.9131098E-01;  4.0000000E+04;  0.0000000E+00;  3.8750406E+04;  1.3030106E-01;  0.0000000E+00;  4.9238810E-01;  7.6294395E+03;
  1.7091916E+00;  9.9999998E-03; -2.0269861E-02;9057;  1.2255154E+00;  0.0000000E+00; -1.5836064E-02;  1.0011902E+03;  2.0009547E-01;  9.7911365E+02;3;  2.3845394E+01;  0.0000000E+00;  2.0574906E+00;0;  6.0111409E-01;  1.0306320E+04;  0.0000000E+00;  4.1903827E-02;  4.0000000E+04;  0.0000000E+00;  3.8770910E+04; -6.7293935E-02;  0.0000000E+00;  6.6840804E-01;  4.8654727E+03;
  1.7091916E+00;  9.9999998E-03;  2.0270210E-02;9061;  1.2255154E+00;  0.0000000E+00;  1.5836444E-02;  1.0011902E+03;  2.0009547E-01;  9.7911365E+02;3;  2.3845470E+01;  0.0000000E+00; -2.0575786E+00;0;  6.0111392E-01;  1.0306326E+04;  0.0000000E+00;  4.1900676E-02;  4.0000000E+04;  0.0000000E+00;  3.8770910E+04; -6.7294046E-02;  0.0000000E+00;  6.6840798E-01;  4.8655210E+03;
  1.7093403E+00;  9.9999998E-03; -3.0405372E-02;9056;  1.2259429E+00;  0.0000000E+00; -2.3558212E-02;  1.0014404E+03;  2.0004207E-01;  1.1848215E+03;3;  2.3855619E+01;  0.0000000E+00;  3.0182302E+00;0;  5.9812570E-01;  1.0317688E+04;  0.0000000E+00;  9.4691537E-02;  4.0000000E+04;  0.0000000E+00;  3.8767082E+04; -5.7237063E-02;  0.0000000E+00;  6.5536278E-01;  5.2978799E+03;
  1.7093403E+00;  9.9999998E-03;  3.0405717E-02;9062;  1.2259429E+00;  0.0000000E+00;  2.3558587E-02;  1.0014406E+03;  2.0004201E-01;  1.1849197E+03;3;  2.3855612E+01;  0.0000000E+00; -3.0182283E+00;0;  5.9812552E-01;  1.0317695E+04;  0.0000000E+00;  9.4687521E-02;  4.0000000E+04;  0.0000000E+00;  3.8767082E+04; -5.7237174E-02;  0.0000000E+00;  6.5536267E-01;  5.2979087E+03;
  1.7096037E+00;  9.9999998E-03; -8.1047297E-02;9051;  1.2315699E+00;  0.0000000E+00; -5.7965752E-02;  1.0032135E+03;  2.0000672E-01;  2.6432456E+03;3;  2.3917969E+01;  0.0000000E+00;  6.2715287E+00;0;  6.0548568E-01;  1.0362632E+04;  0.0000000E+00;  4.9176696E-01;  4.0000000E+04;  0.0000000E+00;  3.8751207E+04;  7.8668609E-02;  0.0000000E+00;  5.2681708E-01;  7.4352607E+03;
  1.7095047E+00;  9.9999998E-03; -4.0540073E-02;9055;  1.2265736E+00;  0.0000000E+00; -3.1061662E-02;  1.0017676E+03;  1.9998544E-01;  1.4539624E+03;3;  2.3837997E+01;  0.0000000E+00;  3.8997188E+00;0;  5.9497291E-01;  1.0331155E+04;  0.0000000E+00;  1.6771814E-01;  4.0000000E+04;  0.0000000E+00;  3.8763297E+04; -4.2511418E-02;  0.0000000E+00;  6.3748431E-01;  5.8017124E+03;
  1.7095047E+00;  9.9999998E-03;  4.0540416E-02;9063;  1.2265737E+00;  0.0000000E+00;  3.1062035E-02;  1.0017674E+03;  1.9998528E-01;  1.4537662E+03;3;  2.3838173E+01;  0.0000000E+00; -3.8997700E+00;0;  5.9497285E-01;  1.0331160E+04;  0.0000000E+00;  1.6771641E-01;  4.0000000E+04;  0.0000000E+00;  3.8763297E+04; -4.2511493E-02;  0.0000000E+00;  6.3748437E-01;  5.8016763E+03;
  1.7096498E+00;  9.9999998E-03; -5.0672516E-02;9054;  1.2274294E+00;  0.0000000E+00; -3.8294483E-02;  1.0021486E+03;  1.9994037E-01;  1.7672212E+03;3;  2.3769871E+01;  0.0000000E+00;  4.7047238E+00;0;  5.9266537E-01;  1.0344608E+04;  0.0000000E+00;  2.5664809E-01;  4.0000000E+04;  0.0000000E+00;  3.8759332E+04; -2.2487210E-02;  0.0000000E+00;  6.1515260E-01;  6.3087544E+03;
  1.7096498E+00;  9.9999998E-03;  5.0672859E-02;9064;  1.2274294E+00;  0.0000000E+00;  3.8294863E-02;  1.0021481E+03;  1.9993953E-01;  1.7669270E+03;3;  2.3770397E+01;  0.0000000E+00; -4.7047648E+00;0;  5.9266520E-01;  1.0344613E+04;  0.0000000E+00;  2.5664702E-01;  4.0000000E+04;  0.0000000E+00;  3.8759336E+04; -2.2487333E-02;  0.0000000E+00;  6.1515254E-01;  6.3088394E+03;
  1.7097347E+00;  9.9999998E-03; -7.0925213E-02;9052;  1.2299174E+00;  0.0000000E+00; -5.1778987E-02;  1.0029222E+03;  1.9993983E-01;  2.4035676E+03;3;  2.3994883E+01;  0.0000000E+00;  5.8817396E+00;0;  5.9615266E-01;  1.0362423E+04;  0.0000000E+00;  4.3753469E-01;  4.0000000E+04;  0.0000000E+00;  3.8753336E+04;  3.6956668E-02;  0.0000000E+00;  5.5919600E-01;  7.1479277E+03;
  1.7097385E+00;  9.9999998E-03; -6.0800783E-02;9053;  1.2285296E+00;  0.0000000E+00; -4.5210950E-02;  1.0025488E+03;  1.9991992E-01;  2.0964656E+03;3;  2.3689390E+01;  0.0000000E+00;  5.3954697E+00;0;  5.9252036E-01;  1.0355781E+04;  0.0000000E+00;  3.5190082E-01;  4.0000000E+04;  0.0000000E+00;  3.8755977E+04;  3.6614444E-03;  0.0000000E+00;  5.8885890E-01;  6.7677427E+03;
  1.7097385E+00;  9.9999998E-03;  6.0801126E-02;9065;  1.2285296E+00;  0.0000000E+00;  4.5211349E-02;  1.0025489E+03;  1.9991922E-01;  2.0965635E+03;3;  2.3690119E+01;  0.0000000E+00; -5.3955159E+00;0;  5.9252083E-01;  1.0355777E+04;  0.0000000E+00;  3.5190189E-01;  4.0000000E+04;  0.0000000E+00;  3.8755980E+04;  3.6614249E-03;  0.0000000E+00;  5.8885938E-01;  6.7677451E+03;
  1.7269145E+00;  9.9999998E-03; -1.0135823E-01;9108;  1.2317063E+00;  0.0000000E+00; -6.5710552E-02;  1.0017003E+03;  1.8766361E-01;  1.3956062E+03;3;  2.5560469E+01;  0.0000000E+00;  5.9196134E+00;0;  4.0273082E-01;  1.1743237E+04;  0.0000000E+00;  2.0031174E-01;  4.0000000E+04;  0.0000000E+00;  3.8744215E+04; -5.9898987E-02;  0.0000000E+00;  4.6262980E-01;  4.7870244E+03;
  1.7273684E+00;  9.9999998E-03; -9.1192566E-02;9109;  1.2292726E+00;  0.0000000E+00; -6.0513947E-02;  1.0016968E+03;  1.8750149E-01;  1.3926814E+03;3;  2.5531168E+01;  0.0000000E+00;  5.7480421E+00;0;  3.9324555E-01;  1.1762334E+04;  0.0000000E+00;  3.2836938E-01;  4.0000000E+04;  0.0000000E+00;  3.8743648E+04; -1.0106799E-01;  0.0000000E+00;  4.9431354E-01;  4.7786641E+03;
  1.7277102E+00;  9.9999998E-03; -8.1047937E-02;9110;  1.2270885E+00;  0.0000000E+00; -5.5038873E-02;  1.0016079E+03;  1.8737593E-01;  1.3196287E+03;3;  2.5608339E+01;  0.0000000E+00;  5.4592319E+00;0;  3.8933781E-01;  1.1774368E+04;  0.0000000E+00;  3.9693969E-01;  4.0000000E+04;  0.0000000E+00;  3.8743738E+04; -1.3541695E-01;  0.0000000E+00;  5.2475476E-01;  4.7029746E+03;
  1.7277168E+00;  9.9999998E-03; -1.0131722E-02;9117;  1.2193130E+00;  0.0000000E+00; -7.6571596E-03;  9.9997174E+02;  1.8730296E-01; -2.3187405E+01;3;  2.6071329E+01;  0.0000000E+00;  8.8531595E-01;0;  4.1650468E-01;  1.1732776E+04;  0.0000000E+00;  1.4557656E-02;  4.0000000E+04;  0.0000000E+00;  3.8765383E+04; -2.4081957E-01;  0.0000000E+00;  6.5732425E-01;  1.8754611E+03;
  1.7276897E+00;  9.9999998E-03;  1.7448696E-07;9118;  1.2192010E+00;  0.0000000E+00;  1.7458409E-07;  9.9992426E+02;  1.8730955E-01; -6.2175739E+01;3;  2.6060278E+01;  0.0000000E+00; -4.5222008E-05;0;  4.1748688E-01;  1.1730484E+04;  0.0000000E+00; -1.5570513E-10;  4.0000000E+04;  0.0000000E+00;  3.8766320E+04; -2.4220893E-01;  0.0000000E+00;  6.5969580E-01;  1.7593060E+03;
  1.7277168E+00;  9.9999998E-03;  1.0132071E-02;9119;  1.2193130E+00;  0.0000000E+00;  7.6575065E-03;  9.9997180E+02;  1.8730199E-01; -2.3138487E+01;3;  2.6069714E+01;  0.0000000E+00; -8.8540679E-01;0;  4.1650367E-01;  1.1732778E+04;  0.0000000E+00;  1.4555942E-02;  4.0000000E+04;  0.0000000E+00;  3.8765387E+04; -2.4081974E-01;  0.0000000E+00;  6.5732342E-01;  1.8754320E+03;
  1.7279360E+00;  9.9999998E-03; -7.0915081E-02;9111;  1.2251662E+00;  0.0000000E+00; -4.9246922E-02;  1.0014303E+03;  1.8728660E-01;  1.1738142E+03;3;  2.5705816E+01;  0.0000000E+00;  5.0411258E+00;0;  3.8967833E-01;  1.1779513E+04;  0.0000000E+00;  4.0452108E-01;  4.0000000E+04;  0.0000000E+00;  3.8744984E+04; -1.6370896E-01;  0.0000000E+00;  5.5338728E-01;  4.5104399E+03;
  1.7277918E+00;  9.9999998E-03; -2.0263780E-02;9116;  1.2196530E+00;  0.0000000E+00; -1.5223381E-02;  1.0000970E+03;  1.8728378E-01;  7.9638611E+01;3;  2.6086655E+01;  0.0000000E+00;  1.7414482E+00;0;  4.1365325E-01;  1.1739297E+04;  0.0000000E+00;  5.7032812E-02;  4.0000000E+04;  0.0000000E+00;  3.8762609E+04; -2.3660654E-01;  0.0000000E+00;  6.5025979E-01;  2.2019607E+03;
  1.7277918E+00;  9.9999998E-03;  2.0264128E-02;9120;  1.2196531E+00;  0.0000000E+00;  1.5223726E-02;  1.0000971E+03;  1.8728305E-01;  7.9736443E+01;3;  2.6086823E+01;  0.0000000E+00; -1.7415291E+00;0;  4.1365299E-01;  1.1739299E+04;  0.0000000E+00;  5.7029665E-02;  4.0000000E+04;  0.0000000E+00;  3.8762605E+04; -2.3660645E-01;  0.0000000E+00;  6.5025944E-01;  2.2019431E+03;
  1.7278936E+00;  9.9999998E-03; -3.0396136E-02;9115;  1.2202308E+00;  0.0000000E+00; -2.2616606E-02;  1.0003091E+03;  1.8725707E-01;  2.5368547E+02;3;  2.6085979E+01;  0.0000000E+00;  2.5531859E+00;0;  4.0925431E-01;  1.1749083E+04;  0.0000000E+00;  1.2330698E-01;  4.0000000E+04;  0.0000000E+00;  3.8758734E+04; -2.2940068E-01;  0.0000000E+00;  6.3865501E-01;  2.6780967E+03;
  1.7278936E+00;  9.9999998E-03;  3.0396480E-02;9121;  1.2202308E+00;  0.0000000E+00;  2.2616947E-02;  1.0003091E+03;  1.8725613E-01;  2.5368547E+02;3;  2.6086203E+01;  0.0000000E+00; -2.5532789E+00;0;  4.0925378E-01;  1.1749080E+04;  0.0000000E+00;  1.2330417E-01;  4.0000000E+04;  0.0000000E+00;  3.8758738E+04; -2.2940074E-01;  0.0000000E+00;  6.3865453E-01;  2.6780942E+03;
  1.7280426E+00;  9.9999998E-03; -6.0787309E-02;9112;  1.2235229E+00;  0.0000000E+00; -4.3105405E-02;  1.0011814E+03;  1.8723838E-01;  9.6952209E+02;3;  2.5859938E+01;  0.0000000E+00;  4.5639911E+00;0;  3.9303106E-01;  1.1777681E+04;  0.0000000E+00;  3.6314726E-01;  4.0000000E+04;  0.0000000E+00;  3.8747430E+04; -1.8660629E-01;  0.0000000E+00;  5.7963735E-01;  4.1866890E+03;
  1.7280427E+00;  9.9999998E-03;  6.0787652E-02;9124;  1.2235228E+00;  0.0000000E+00;  4.3105751E-02;  1.0011813E+03;  1.8723820E-01;  9.6952209E+02;3;  2.5860710E+01;  0.0000000E+00; -4.5640521E+00;0;  3.9303154E-01;  1.1777683E+04;  0.0000000E+00;  3.6314628E-01;  4.0000000E+04;  0.0000000E+00;  3.8747430E+04; -1.8660624E-01;  0.0000000E+00;  5.7963777E-01;  4.1867114E+03;
  1.7279903E+00;  9.9999998E-03; -4.0528156E-02;9114;  1.2210608E+00;  0.0000000E+00; -2.9763673E-02;  1.0005818E+03;  1.8723297E-01;  4.7742706E+02;3;  2.6046293E+01;  0.0000000E+00;  3.3096185E+00;0;  4.0384492E-01;  1.1760233E+04;  0.0000000E+00;  2.0530476E-01;  4.0000000E+04;  0.0000000E+00;  3.8754699E+04; -2.1891966E-01;  0.0000000E+00;  6.2276459E-01;  3.2198416E+03;
  1.7279903E+00;  9.9999998E-03;  4.0528495E-02;9122;  1.2210608E+00;  0.0000000E+00;  2.9763993E-02;  1.0005818E+03;  1.8723387E-01;  4.7742706E+02;3;  2.6046610E+01;  0.0000000E+00; -3.3095989E+00;0;  4.0384457E-01;  1.1760230E+04;  0.0000000E+00;  2.0530219E-01;  4.0000000E+04;  0.0000000E+00;  3.8754703E+04; -2.1891955E-01;  0.0000000E+00;  6.2276411E-01;  3.2198513E+03;
  1.7280507E+00;  9.9999998E-03; -5.0658822E-02;9113;  1.2221551E+00;  0.0000000E+00; -3.6606576E-02;  1.0008815E+03;  1.8722391E-01;  7.2347192E+02;3;  2.5976131E+01;  0.0000000E+00;  3.9842339E+00;0;  3.9812908E-01;  1.1770564E+04;  0.0000000E+00;  2.9061741E-01;  4.0000000E+04;  0.0000000E+00;  3.8750520E+04; -2.0481101E-01;  0.0000000E+00;  6.0294008E-01;  3.7438889E+03;
  1.7280508E+00;  9.9999998E-03;  5.0659165E-02;9123;  1.2221551E+00;  0.0000000E+00;  3.6606885E-02;  1.0008817E+03;  1.8722312E-01;  7.2356976E+02;3;  2.5976425E+01;  0.0000000E+00; -3.9842172E+00;0;  3.9812922E-01;  1.1770565E+04;  0.0000000E+00;  2.9061717E-01;  4.0000000E+04;  0.0000000E+00;  3.8750520E+04; -2.0481086E-01;  0.0000000E+00;  6.0294008E-01;  3.7439382E+03;
  1.7438550E+00;  9.9999998E-03; -1.0150874E-01;9166;  1.2272967E+00;  0.0000000E+00; -6.2117729E-02;  1.0001794E+03;  1.7717175E-01;  1.4687256E+02;3;  2.6878103E+01;  0.0000000E+00;  4.5992761E+00;0;  2.5900042E-01;  1.3142755E+04;  0.0000000E+00;  4.5938358E-02;  4.0000000E+04;  0.0000000E+00;  3.8729098E+04; -1.9140409E-01;  0.0000000E+00;  4.5040452E-01;  2.0217275E+03;
  1.7442768E+00;  9.9999998E-03; -9.1299340E-02;9167;  1.2245914E+00;  0.0000000E+00; -5.7034679E-02;  1.0001783E+03;  1.7704627E-01;  1.4598338E+02;3;  2.7103968E+01;  0.0000000E+00;  4.4876938E+00;0;  2.5932145E-01;  1.3161180E+04;  0.0000000E+00;  1.7591228E-01;  4.0000000E+04;  0.0000000E+00;  3.8727281E+04; -2.1970534E-01;  0.0000000E+00;  4.7902679E-01;  2.1120166E+03;
  1.7446551E+00;  9.9999998E-03; -8.1120342E-02;9168;  1.2221355E+00;  0.0000000E+00; -5.1776100E-02;  1.0001651E+03;  1.7693114E-01;  1.3514264E+02;3;  2.7402525E+01;  0.0000000E+00;  4.3226461E+00;0;  2.6248699E-01;  1.3176375E+04;  0.0000000E+00;  2.6886269E-01;  4.0000000E+04;  0.0000000E+00;  3.8725801E+04; -2.4391200E-01;  0.0000000E+00;  5.0639898E-01;  2.1912297E+03;
  1.7449567E+00;  9.9999998E-03; -7.0963122E-02;9169;  1.2199440E+00;  0.0000000E+00; -4.6284005E-02;  1.0000997E+03;  1.7683847E-01;  8.1666656E+01;3;  2.7592655E+01;  0.0000000E+00;  4.0591049E+00;0;  2.6777667E-01;  1.3186633E+04;  0.0000000E+00;  3.1260943E-01;  4.0000000E+04;  0.0000000E+00;  3.8725480E+04; -2.6427054E-01;  0.0000000E+00;  5.3204721E-01;  2.1831143E+03;
  1.7451705E+00;  9.9999998E-03; -6.0818467E-02;9170;  1.2180314E+00;  0.0000000E+00; -4.0511090E-02;  9.9997406E+02;  1.7676838E-01; -2.1220810E+01;3;  2.7770397E+01;  0.0000000E+00;  3.6897190E+00;0;  2.7436268E-01;  1.3191339E+04;  0.0000000E+00;  3.0823949E-01;  4.0000000E+04;  0.0000000E+00;  3.8725973E+04; -2.8112704E-01;  0.0000000E+00;  5.5548972E-01;  2.0458981E+03;
  1.7451705E+00;  9.9999998E-03;  6.0818806E-02;9182;  1.2180316E+00;  0.0000000E+00;  4.0511385E-02;  9.9997400E+02;  1.7676863E-01; -2.1269592E+01;3;  2.7771029E+01;  0.0000000E+00; -3.6897006E+00;0;  2.7436361E-01;  1.3191338E+04;  0.0000000E+00;  3.0824095E-01;  4.0000000E+04;  0.0000000E+00;  3.8725973E+04; -2.8112689E-01;  0.0000000E+00;  5.5549049E-01;  2.0458905E+03;
  1.7453003E+00;  9.9999998E-03; -5.0678823E-02;9171;  1.2164102E+00;  0.0000000E+00; -3.4420837E-02;  9.9981091E+02;  1.7672479E-01; -1.5473755E+02;3;  2.7904160E+01;  0.0000000E+00;  3.2189541E+00;0;  2.8144598E-01;  1.3191115E+04;  0.0000000E+00;  2.6585916E-01;  4.0000000E+04;  0.0000000E+00;  3.8727785E+04; -2.9481351E-01;  0.0000000E+00;  5.7625949E-01;  1.7760837E+03;
  1.7453003E+00;  9.9999998E-03;  5.0679162E-02;9181;  1.2164102E+00;  0.0000000E+00;  3.4421120E-02;  9.9981055E+02;  1.7672418E-01; -1.5503024E+02;3;  2.7902937E+01;  0.0000000E+00; -3.2188978E+00;0;  2.8144544E-01;  1.3191116E+04;  0.0000000E+00;  2.6586092E-01;  4.0000000E+04;  0.0000000E+00;  3.8727785E+04; -2.9481333E-01;  0.0000000E+00;  5.7625878E-01;  1.7761018E+03;
  1.7453585E+00;  9.9999998E-03; -4.0540997E-02;9172;  1.2150861E+00;  0.0000000E+00; -2.8005837E-02;  9.9962549E+02;  1.7669846E-01; -3.0649619E+02;3;  2.7989399E+01;  0.0000000E+00;  2.6750453E+00;0;  2.8830805E-01;  1.3187433E+04;  0.0000000E+00;  2.0007135E-01;  4.0000000E+04;  0.0000000E+00;  3.8730746E+04; -3.0560651E-01;  0.0000000E+00;  5.9391457E-01;  1.4035044E+03;
  1.7453585E+00;  9.9999998E-03;  4.0541340E-02;9180;  1.2150860E+00;  0.0000000E+00;  2.8006120E-02;  9.9962555E+02;  1.7669842E-01; -3.0644742E+02;3;  2.7989677E+01;  0.0000000E+00; -2.6750336E+00;0;  2.8830877E-01;  1.3187433E+04;  0.0000000E+00;  2.0007226E-01;  4.0000000E+04;  0.0000000E+00;  3.8730738E+04; -3.0560574E-01;  0.0000000E+00;  5.9391451E-01;  1.4035090E+03;
  1.7453672E+00;  9.9999998E-03; -3.0404605E-02;9173;  1.2140616E+00;  0.0000000E+00; -2.1293635E-02;  9.9944727E+02;  1.7668825E-01; -4.5235312E+02;3;  2.8018030E+01;  0.0000000E+00;  2.0653005E+00;0;  2.9431826E-01;  1.3182032E+04;  0.0000000E+00;  1.2676230E-01;  4.0000000E+04;  0.0000000E+00;  3.8733895E+04; -3.1373930E-01;  0.0000000E+00;  6.0805756E-01;  9.8509937E+02;
  1.7453672E+00;  9.9999998E-03;  3.0404948E-02;9179;  1.2140616E+00;  0.0000000E+00;  2.1293936E-02;  9.9944751E+02;  1.7668952E-01; -4.5215799E+02;3;  2.8018280E+01;  0.0000000E+00; -2.0653710E+00;0;  2.9431874E-01;  1.3182030E+04;  0.0000000E+00;  1.2676270E-01;  4.0000000E+04;  0.0000000E+00;  3.8733895E+04; -3.1373948E-01;  0.0000000E+00;  6.0805821E-01;  9.8508856E+02;
  1.7453262E+00;  9.9999998E-03; -1.0134708E-02;9175;  1.2129029E+00;  0.0000000E+00; -7.2130617E-03;  9.9922321E+02;  1.7668790E-01; -6.3572839E+02;3;  2.8043236E+01;  0.0000000E+00;  7.1737957E-01;0;  3.0193105E-01;  1.3172766E+04;  0.0000000E+00;  1.6039206E-02;  4.0000000E+04;  0.0000000E+00;  3.8739070E+04; -3.2272455E-01;  0.0000000E+00;  6.2465560E-01;  3.2635992E+02;
  1.7453165E+00;  9.9999998E-03;  1.7191292E-07;9176;  1.2127593E+00;  0.0000000E+00;  1.6175845E-07;  9.9919629E+02;  1.7668937E-01; -6.5777905E+02;3;  2.8038572E+01;  0.0000000E+00; -6.5144734E-05;0;  3.0293912E-01;  1.3171323E+04;  0.0000000E+00; -2.2261397E-10;  4.0000000E+04;  0.0000000E+00;  3.8740020E+04; -3.2382250E-01;  0.0000000E+00;  6.2676162E-01;  2.2989775E+02;
  1.7453260E+00;  9.9999998E-03;  1.0135052E-02;9177;  1.2129028E+00;  0.0000000E+00;  7.2133816E-03;  9.9922296E+02;  1.7668879E-01; -6.3597229E+02;3;  2.8043518E+01;  0.0000000E+00; -7.1743780E-01;0;  3.0193147E-01;  1.3172771E+04;  0.0000000E+00;  1.6039049E-02;  4.0000000E+04;  0.0000000E+00;  3.8739074E+04; -3.2272437E-01;  0.0000000E+00;  6.2465584E-01;  3.2634900E+02;
  1.7453481E+00;  9.9999998E-03; -2.0269228E-02;9174;  1.2133359E+00;  0.0000000E+00; -1.4338548E-02;  9.9930658E+02;  1.7668787E-01; -5.6752875E+02;3;  2.8039356E+01;  0.0000000E+00;  1.4116840E+00;0;  2.9898533E-01;  1.3176614E+04;  0.0000000E+00;  6.1149042E-02;  4.0000000E+04;  0.0000000E+00;  3.8736723E+04; -3.1939456E-01;  0.0000000E+00;  6.1837989E-01;  5.9847833E+02;
  1.7453481E+00;  9.9999998E-03;  2.0269573E-02;9178;  1.2133359E+00;  0.0000000E+00;  1.4338861E-02;  9.9930658E+02;  1.7668734E-01; -5.6752875E+02;3;  2.8039751E+01;  0.0000000E+00; -1.4117200E+00;0;  2.9898489E-01;  1.3176612E+04;  0.0000000E+00;  6.1148897E-02;  4.0000000E+04;  0.0000000E+00;  3.8736730E+04; -3.1939465E-01;  0.0000000E+00;  6.1837953E-01;  5.9852472E+02;
  1.7600369E+00;  9.9999998E-03; -1.0171918E-01;9223;  1.2224396E+00;  0.0000000E+00; -5.8470007E-02;  9.9898151E+02;  1.6840884E-01; -8.3108862E+02;3;  2.8489672E+01;  0.0000000E+00;  3.1738403E+00;0;  1.6987193E-01;  1.4522542E+04;  0.0000000E+00; -4.1362721E-02;  4.0000000E+04;  0.0000000E+00;  3.8702926E+04; -2.5703529E-01;  0.0000000E+00;  4.2690721E-01;  6.5260773E+02;
  1.7603741E+00;  9.9999998E-03; -9.1472015E-02;9224;  1.2194731E+00;  0.0000000E+00; -5.3446166E-02;  9.9891193E+02;  1.6832717E-01; -8.8783191E+02;3;  2.8776939E+01;  0.0000000E+00;  3.2737105E+00;0;  1.7493227E-01;  1.4535141E+04;  0.0000000E+00;  5.0175942E-02;  4.0000000E+04;  0.0000000E+00;  3.8700477E+04; -2.7838081E-01;  0.0000000E+00;  4.5331308E-01;  3.9000323E+02;
  1.7607294E+00;  9.9999998E-03; -8.1254773E-02;9225;  1.2167665E+00;  0.0000000E+00; -4.8320547E-02;  9.9889044E+02;  1.6824104E-01; -9.0526849E+02;3;  2.9032940E+01;  0.0000000E+00;  3.2287557E+00;0;  1.8123120E-01;  1.4549407E+04;  0.0000000E+00;  1.2571324E-01;  4.0000000E+04;  0.0000000E+00;  3.8697609E+04; -2.9718420E-01;  0.0000000E+00;  4.7841540E-01;  1.3902863E+02;
  1.7610612E+00;  9.9999998E-03; -7.1063213E-02;9226;  1.2143317E+00;  0.0000000E+00; -4.3057811E-02;  9.9889423E+02;  1.6815972E-01; -9.0213739E+02;3;  2.9245731E+01;  0.0000000E+00;  3.0623915E+00;0;  1.8833792E-01;  1.4562435E+04;  0.0000000E+00;  1.7454697E-01;  4.0000000E+04;  0.0000000E+00;  3.8695246E+04; -3.1344914E-01;  0.0000000E+00;  5.0178707E-01;  1.5697301E+02;
  1.7613490E+00;  9.9999998E-03; -6.0890652E-02;9227;  1.2121866E+00;  0.0000000E+00; -3.7592027E-02;  9.9889191E+02;  1.6808720E-01; -9.0397516E+02;3;  2.9450397E+01;  0.0000000E+00;  2.8311250E+00;0;  1.9573998E-01;  1.4572806E+04;  0.0000000E+00;  1.9106241E-01;  4.0000000E+04;  0.0000000E+00;  3.8693848E+04; -3.2726824E-01;  0.0000000E+00;  5.2300823E-01;  2.6523242E+02;
  1.7613490E+00;  9.9999998E-03;  6.0890995E-02;9239;  1.2121867E+00;  0.0000000E+00;  3.7592296E-02;  9.9889197E+02;  1.6808818E-01; -9.0392657E+02;3;  2.9449511E+01;  0.0000000E+00; -2.8310778E+00;0;  1.9574058E-01;  1.4572802E+04;  0.0000000E+00;  1.9106264E-01;  4.0000000E+04;  0.0000000E+00;  3.8693855E+04; -3.2726800E-01;  0.0000000E+00;  5.2300858E-01;  2.6522867E+02;
  1.7615808E+00;  9.9999998E-03; -5.0730627E-02;9228;  1.2103392E+00;  0.0000000E+00; -3.1883072E-02;  9.9886243E+02;  1.6802838E-01; -9.2794684E+02;3;  2.9591761E+01;  0.0000000E+00;  2.4663231E+00;0;  2.0295793E-01;  1.4579952E+04;  0.0000000E+00;  1.7739037E-01;  4.0000000E+04;  0.0000000E+00;  3.8693039E+04; -3.3874643E-01;  0.0000000E+00;  5.4170436E-01;  2.8319028E+02;
  1.7615808E+00;  9.9999998E-03;  5.0730966E-02;9238;  1.2103393E+00;  0.0000000E+00;  3.1883344E-02;  9.9886243E+02;  1.6802838E-01; -9.2794684E+02;3;  2.9592600E+01;  0.0000000E+00; -2.4663005E+00;0;  2.0295814E-01;  1.4579954E+04;  0.0000000E+00;  1.7739391E-01;  4.0000000E+04;  0.0000000E+00;  3.8693039E+04; -3.3874592E-01;  0.0000000E+00;  5.4170406E-01;  2.8317911E+02;
  1.7617519E+00;  9.9999998E-03; -4.0578283E-02;9229;  1.2088077E+00;  0.0000000E+00; -2.5914984E-02;  9.9880743E+02;  1.6798313E-01; -9.7278687E+02;3;  2.9708166E+01;  0.0000000E+00;  2.0478644E+00;0;  2.0956126E-01;  1.4584055E+04;  0.0000000E+00;  1.4127962E-01;  4.0000000E+04;  0.0000000E+00;  3.8693145E+04; -3.4797540E-01;  0.0000000E+00;  5.5753666E-01;  2.3616551E+02;
  1.7617519E+00;  9.9999998E-03;  4.0578622E-02;9237;  1.2088079E+00;  0.0000000E+00;  2.5915259E-02;  9.9880762E+02;  1.6798270E-01; -9.7264105E+02;3;  2.9708799E+01;  0.0000000E+00; -2.0479126E+00;0;  2.0956168E-01;  1.4584054E+04;  0.0000000E+00;  1.4128326E-01;  4.0000000E+04;  0.0000000E+00;  3.8693152E+04; -3.4797487E-01;  0.0000000E+00;  5.5753654E-01;  2.3616713E+02;
  1.7618656E+00;  9.9999998E-03; -3.0430567E-02;9230;  1.2076086E+00;  0.0000000E+00; -1.9691369E-02;  9.9875287E+02;  1.6795048E-01; -1.0172477E+03;3;  2.9776497E+01;  0.0000000E+00;  1.5959026E+00;0;  2.1516484E-01;  1.4585632E+04;  0.0000000E+00;  9.3646698E-02;  4.0000000E+04;  0.0000000E+00;  3.8694082E+04; -3.5503852E-01;  0.0000000E+00;  5.7020336E-01;  2.2645160E+02;
  1.7618656E+00;  9.9999998E-03;  3.0430907E-02;9236;  1.2076086E+00;  0.0000000E+00;  1.9691644E-02;  9.9875293E+02;  1.6795076E-01; -1.0171991E+03;3;  2.9777107E+01;  0.0000000E+00; -1.5959048E+00;0;  2.1516412E-01;  1.4585634E+04;  0.0000000E+00;  9.3650557E-02;  4.0000000E+04;  0.0000000E+00;  3.8694086E+04; -3.5503864E-01;  0.0000000E+00;  5.7020277E-01;  2.2643546E+02;
  1.7619328E+00;  9.9999998E-03; -2.0285802E-02;9231;  1.2067480E+00;  0.0000000E+00; -1.3253997E-02;  9.9870898E+02;  1.6793120E-01; -1.0530636E+03;3;  2.9806028E+01;  0.0000000E+00;  1.0935811E+00;0;  2.1942830E-01;  1.4585822E+04;  0.0000000E+00;  4.6768740E-02;  4.0000000E+04;  0.0000000E+00;  3.8695391E+04; -3.6001259E-01;  0.0000000E+00;  5.7944089E-01;  3.2370016E+02;
  1.7619328E+00;  9.9999998E-03;  2.0286145E-02;9235;  1.2067481E+00;  0.0000000E+00;  1.3254287E-02;  9.9870929E+02;  1.6793235E-01; -1.0528204E+03;3;  2.9804300E+01;  0.0000000E+00; -1.0936081E+00;0;  2.1942875E-01;  1.4585827E+04;  0.0000000E+00;  4.6772182E-02;  4.0000000E+04;  0.0000000E+00;  3.8695387E+04; -3.6001232E-01;  0.0000000E+00;  5.7944107E-01;  3.2368665E+02;
  1.7619681E+00;  9.9999998E-03; -1.0142542E-02;9232;  1.2062298E+00;  0.0000000E+00; -6.6658515E-03;  9.9867499E+02;  1.6792032E-01; -1.0807671E+03;3;  2.9816980E+01;  0.0000000E+00;  5.5670720E-01;0;  2.2208694E-01;  1.4585626E+04;  0.0000000E+00;  1.2545625E-02;  4.0000000E+04;  0.0000000E+00;  3.8696176E+04; -3.6296788E-01;  0.0000000E+00;  5.8505481E-01;  4.3421127E+02;
  1.7619681E+00;  9.9999998E-03;  1.0142885E-02;9234;  1.2062298E+00;  0.0000000E+00;  6.6661518E-03;  9.9867487E+02;  1.6791984E-01; -1.0808643E+03;3;  2.9817038E+01;  0.0000000E+00; -5.5677104E-01;0;  2.2208726E-01;  1.4585625E+04;  0.0000000E+00;  1.2547461E-02;  4.0000000E+04;  0.0000000E+00;  3.8696180E+04; -3.6296755E-01;  0.0000000E+00;  5.8505481E-01;  4.3418945E+02;
  1.7619786E+00;  9.9999998E-03;  1.7131636E-07;9233;  1.2060573E+00;  0.0000000E+00;  1.4807702E-07;  9.9866400E+02;  1.6791564E-01; -1.0897100E+03;3;  2.9823961E+01;  0.0000000E+00; -1.4740126E-05;0;  2.2299105E-01;  1.4585461E+04;  0.0000000E+00; -2.2930487E-10;  4.0000000E+04;  0.0000000E+00;  3.8696742E+04; -3.6394668E-01;  0.0000000E+00;  5.8693773E-01;  4.7912094E+02;
  1.7756484E+00;  9.9999998E-03; -1.0195100E-01;9280;  1.2172204E+00;  0.0000000E+00; -5.4746728E-02;  9.9812750E+02;  1.6106719E-01; -1.5220612E+03;3;  2.9909924E+01;  0.0000000E+00;  1.7821909E+00;0;  1.0466510E-01;  1.5866272E+04;  0.0000000E+00; -8.7448314E-02;  4.0000000E+04;  0.0000000E+00;  3.8662523E+04; -2.9206848E-01;  0.0000000E+00;  3.9673358E-01;  2.4979490E+03;
  1.7758489E+00;  9.9999998E-03; -9.1682084E-02;9281;  1.2140063E+00;  0.0000000E+00; -4.9875252E-02;  9.9791302E+02;  1.6103385E-01; -1.6963386E+03;3;  3.0196854E+01;  0.0000000E+00;  2.0766792E+00;0;  1.1164761E-01;  1.5867728E+04;  0.0000000E+00; -4.2490054E-02;  4.0000000E+04;  0.0000000E+00;  3.8660793E+04; -3.0980587E-01;  0.0000000E+00;  4.2145348E-01;  2.4200813E+03;
  1.7761197E+00;  9.9999998E-03; -8.1430420E-02;9282;  1.2110903E+00;  0.0000000E+00; -4.4874545E-02;  9.9783203E+02;  1.6098467E-01; -1.7619974E+03;3;  3.0446377E+01;  0.0000000E+00;  2.2135699E+00;0;  1.1901042E-01;  1.5875936E+04;  0.0000000E+00; -2.4393362E-03;  4.0000000E+04;  0.0000000E+00;  3.8657723E+04; -3.2583478E-01;  0.0000000E+00;  4.4484520E-01;  2.1941848E+03;
  1.7764294E+00;  9.9999998E-03; -7.1202300E-02;9283;  1.2084590E+00;  0.0000000E+00; -3.9780855E-02;  9.9785229E+02;  1.6092785E-01; -1.7454237E+03;3;  3.0650377E+01;  0.0000000E+00;  2.1871679E+00;0;  1.2643352E-01;  1.5887854E+04;  0.0000000E+00;  2.8544376E-02;  4.0000000E+04;  0.0000000E+00;  3.8654211E+04; -3.4001547E-01;  0.0000000E+00;  4.6644899E-01;  1.9071146E+03;
  1.7767427E+00;  9.9999998E-03; -6.0995784E-02;9284;  1.2061235E+00;  0.0000000E+00; -3.4570765E-02;  9.9791479E+02;  1.6086628E-01; -1.6944613E+03;3;  3.0850798E+01;  0.0000000E+00;  2.0414057E+00;0;  1.3361871E-01;  1.5901066E+04;  0.0000000E+00;  4.8502538E-02;  4.0000000E+04;  0.0000000E+00;  3.8650523E+04; -3.5228151E-01;  0.0000000E+00;  4.8590022E-01;  1.6191851E+03;
  1.7767427E+00;  9.9999998E-03;  6.0996123E-02;9296;  1.2061236E+00;  0.0000000E+00;  3.4571003E-02;  9.9791461E+02;  1.6086680E-01; -1.6946067E+03;3;  3.0849934E+01;  0.0000000E+00; -2.0414569E+00;0;  1.3361892E-01;  1.5901062E+04;  0.0000000E+00;  4.8503570E-02;  4.0000000E+04;  0.0000000E+00;  3.8650527E+04; -3.5228133E-01;  0.0000000E+00;  4.8590025E-01;  1.6191825E+03;
  1.7770367E+00;  9.9999998E-03; -5.0807208E-02;9285;  1.2040987E+00;  0.0000000E+00; -2.9205896E-02;  9.9798987E+02;  1.6080755E-01; -1.6332972E+03;3;  3.1031609E+01;  0.0000000E+00;  1.8274655E+00;0;  1.4026812E-01;  1.5913815E+04;  0.0000000E+00;  5.5116545E-02;  4.0000000E+04;  0.0000000E+00;  3.8647324E+04; -3.6262193E-01;  0.0000000E+00;  5.0289005E-01;  1.3670116E+03;
  1.7770367E+00;  9.9999998E-03;  5.0807547E-02;9295;  1.2040988E+00;  0.0000000E+00;  2.9206149E-02;  9.9799011E+02;  1.6080773E-01; -1.6331035E+03;3;  3.1032595E+01;  0.0000000E+00; -1.8275175E+00;0;  1.4026818E-01;  1.5913812E+04;  0.0000000E+00;  5.5119395E-02;  4.0000000E+04;  0.0000000E+00;  3.8647324E+04; -3.6262205E-01;  0.0000000E+00;  5.0289023E-01;  1.3670143E+03;
  1.7772906E+00;  9.9999998E-03; -4.0632825E-02;9286;  1.2024060E+00;  0.0000000E+00; -2.3656864E-02;  9.9806494E+02;  1.6075571E-01; -1.5722092E+03;3;  3.1161928E+01;  0.0000000E+00;  1.5682980E+00;0;  1.4613101E-01;  1.5924953E+04;  0.0000000E+00;  4.9385980E-02;  4.0000000E+04;  0.0000000E+00;  3.8644469E+04; -3.7104264E-01;  0.0000000E+00;  5.1717365E-01;  1.1672626E+03;
  1.7772906E+00;  9.9999998E-03;  4.0633168E-02;9294;  1.2024060E+00;  0.0000000E+00;  2.3657123E-02;  9.9806458E+02;  1.6075470E-01; -1.5724998E+03;3;  3.1162998E+01;  0.0000000E+00; -1.5683061E+00;0;  1.4613068E-01;  1.5924954E+04;  0.0000000E+00;  4.9389988E-02;  4.0000000E+04;  0.0000000E+00;  3.8644465E+04; -3.7104237E-01;  0.0000000E+00;  5.1717305E-01;  1.1672228E+03;
  1.7774897E+00;  9.9999998E-03; -3.0468117E-02;9287;  1.2010645E+00;  0.0000000E+00; -1.7931156E-02;  9.9812439E+02;  1.6071601E-01; -1.5238405E+03;3;  3.1250612E+01;  0.0000000E+00;  1.2181381E+00;0;  1.5098751E-01;  1.5933527E+04;  0.0000000E+00;  3.5281301E-02;  4.0000000E+04;  0.0000000E+00;  3.8642465E+04; -3.7755954E-01;  0.0000000E+00;  5.2854705E-01;  1.0238035E+03;
  1.7774897E+00;  9.9999998E-03;  3.0468460E-02;9293;  1.2010646E+00;  0.0000000E+00;  1.7931422E-02;  9.9812457E+02;  1.6071600E-01; -1.5236467E+03;3;  3.1251425E+01;  0.0000000E+00; -1.2181050E+00;0;  1.5098792E-01;  1.5933535E+04;  0.0000000E+00;  3.5287574E-02;  4.0000000E+04;  0.0000000E+00;  3.8642465E+04; -3.7755954E-01;  0.0000000E+00;  5.2854747E-01;  1.0238082E+03;
  1.7776302E+00;  9.9999998E-03; -2.0309554E-02;9288;  1.2000933E+00;  0.0000000E+00; -1.2050417E-02;  9.9817108E+02;  1.6068698E-01; -1.4858157E+03;3;  3.1313049E+01;  0.0000000E+00;  8.2995981E-01;0;  1.5463078E-01;  1.5939519E+04;  0.0000000E+00;  1.8479217E-02;  4.0000000E+04;  0.0000000E+00;  3.8641020E+04; -3.8219488E-01;  0.0000000E+00;  5.3682566E-01;  9.3289960E+02;
  1.7776302E+00;  9.9999998E-03;  2.0309899E-02;9292;  1.2000933E+00;  0.0000000E+00;  1.2050686E-02;  9.9817090E+02;  1.6068675E-01; -1.4859609E+03;3;  3.1313540E+01;  0.0000000E+00; -8.2996273E-01;0;  1.5463141E-01;  1.5939520E+04;  0.0000000E+00;  1.8484209E-02;  4.0000000E+04;  0.0000000E+00;  3.8641023E+04; -3.8219431E-01;  0.0000000E+00;  5.3682572E-01;  9.3291046E+02;
  1.7777128E+00;  9.9999998E-03; -1.0154144E-02;9289;  1.1995056E+00;  0.0000000E+00; -6.0552331E-03;  9.9819574E+02;  1.6066922E-01; -1.4657340E+03;3;  3.1350723E+01;  0.0000000E+00;  4.1599983E-01;0;  1.5689230E-01;  1.5942950E+04;  0.0000000E+00;  5.0922455E-03;  4.0000000E+04;  0.0000000E+00;  3.8640645E+04; -3.8496721E-01;  0.0000000E+00;  5.4185951E-01;  8.8537048E+02;
  1.7777128E+00;  9.9999998E-03;  1.0154488E-02;9291;  1.1995056E+00;  0.0000000E+00;  6.0555092E-03;  9.9819586E+02;  1.6067010E-01; -1.4656371E+03;3;  3.1350895E+01;  0.0000000E+00; -4.1603261E-01;0;  1.5689221E-01;  1.5942948E+04;  0.0000000E+00;  5.0951578E-03;  4.0000000E+04;  0.0000000E+00;  3.8640648E+04; -3.8496730E-01;  0.0000000E+00;  5.4185951E-01;  8.8541937E+02;
  1.7777402E+00;  9.9999998E-03;  1.7189998E-07;9290;  1.1993089E+00;  0.0000000E+00;  1.3887377E-07;  9.9820447E+02;  1.6066331E-01; -1.4586530E+03;3;  3.1374964E+01;  0.0000000E+00;  8.4460480E-06;0;  1.5765774E-01;  1.5944035E+04;  0.0000000E+00; -1.7708419E-10;  4.0000000E+04;  0.0000000E+00;  3.8640090E+04; -3.8589054E-01;  0.0000000E+00;  5.4354829E-01;  8.7115479E+02;
  1.7908885E+00;  9.9999998E-03; -9.1878667E-02;9337;  1.2083405E+00;  0.0000000E+00; -4.6258755E-02;  9.9723169E+02;  1.5490864E-01; -2.2396843E+03;3;  3.1382637E+01;  0.0000000E+00;  9.0890712E-01;0;  5.9804499E-02;  1.7149469E+04;  0.0000000E+00; -1.0504573E-01;  4.0000000E+04;  0.0000000E+00;  3.8604250E+04; -3.2625595E-01;  0.0000000E+00;  3.8606045E-01;  3.8273748E+03;
  1.7910266E+00;  9.9999998E-03; -8.1609860E-02;9338;  1.2052386E+00;  0.0000000E+00; -4.1477423E-02;  9.9701752E+02;  1.5489553E-01; -2.4128325E+03;3;  3.1629633E+01;  0.0000000E+00;  1.1903831E+00;0;  6.7291647E-02;  1.7146525E+04;  0.0000000E+00; -9.0299882E-02;  4.0000000E+04;  0.0000000E+00;  3.8603074E+04; -3.4067735E-01;  0.0000000E+00;  4.0796900E-01;  3.7741108E+03;
  1.7912514E+00;  9.9999998E-03; -7.1352512E-02;9339;  1.2024566E+00;  0.0000000E+00; -3.6571402E-02;  9.9697443E+02;  1.5486850E-01; -2.4475061E+03;3;  3.1844194E+01;  0.0000000E+00;  1.2827730E+00;0;  7.4487716E-02;  1.7152189E+04;  0.0000000E+00; -7.5988077E-02;  4.0000000E+04;  0.0000000E+00;  3.8599664E+04; -3.5361758E-01;  0.0000000E+00;  4.2810529E-01;  3.5158884E+03;
  1.7915289E+00;  9.9999998E-03; -6.1114486E-02;9340;  1.1999862E+00;  0.0000000E+00; -3.1592917E-02;  9.9704517E+02;  1.5483129E-01; -2.3900439E+03;3;  3.2035892E+01;  0.0000000E+00;  1.2438668E+00;0;  8.1154734E-02;  1.7163346E+04;  0.0000000E+00; -6.2449005E-02;  4.0000000E+04;  0.0000000E+00;  3.8595016E+04; -3.6493114E-01;  0.0000000E+00;  4.4608587E-01;  3.1379756E+03;
  1.7915289E+00;  9.9999998E-03;  6.1114829E-02;9352;  1.1999863E+00;  0.0000000E+00;  3.1593136E-02;  9.9704523E+02;  1.5483099E-01; -2.3899956E+03;3;  3.2035339E+01;  0.0000000E+00; -1.2439626E+00;0;  8.1155568E-02;  1.7163348E+04;  0.0000000E+00; -6.2452395E-02;  4.0000000E+04;  0.0000000E+00;  3.8595020E+04; -3.6493027E-01;  0.0000000E+00;  4.4608584E-01;  3.1379856E+03;
  1.7918222E+00;  9.9999998E-03; -5.0896335E-02;9341;  1.1978375E+00;  0.0000000E+00; -2.6535336E-02;  9.9717029E+02;  1.5478708E-01; -2.2886147E+03;3;  3.2185478E+01;  0.0000000E+00;  1.1568010E+00;0;  8.7112576E-02;  1.7177771E+04;  0.0000000E+00; -4.7391050E-02;  4.0000000E+04;  0.0000000E+00;  3.8590027E+04; -3.7454048E-01;  0.0000000E+00;  4.6165305E-01;  2.7081226E+03;
  1.7918222E+00;  9.9999998E-03;  5.0896678E-02;9351;  1.1978376E+00;  0.0000000E+00;  2.6535565E-02;  9.9717035E+02;  1.5478757E-01; -2.2885667E+03;3;  3.2184723E+01;  0.0000000E+00; -1.1568636E+00;0;  8.7112367E-02;  1.7177779E+04;  0.0000000E+00; -4.7389701E-02;  4.0000000E+04;  0.0000000E+00;  3.8590023E+04; -3.7454021E-01;  0.0000000E+00;  4.6165258E-01;  2.7081208E+03;
  1.7921034E+00;  9.9999998E-03; -4.0696681E-02;9342;  1.1960309E+00;  0.0000000E+00; -2.1390501E-02;  9.9732343E+02;  1.5474309E-01; -2.1645112E+03;3;  3.2324074E+01;  0.0000000E+00;  9.9090767E-01;0;  9.2197090E-02;  1.7192553E+04;  0.0000000E+00; -3.2032099E-02;  4.0000000E+04;  0.0000000E+00;  3.8584930E+04; -3.8241559E-01;  0.0000000E+00;  4.7461268E-01;  2.2811492E+03;
  1.7921034E+00;  9.9999998E-03;  4.0697023E-02;9350;  1.1960309E+00;  0.0000000E+00;  2.1390747E-02;  9.9732343E+02;  1.5474275E-01; -2.1645112E+03;3;  3.2325138E+01;  0.0000000E+00; -9.9091417E-01;0;  9.2196882E-02;  1.7192557E+04;  0.0000000E+00; -3.2029342E-02;  4.0000000E+04;  0.0000000E+00;  3.8584930E+04; -3.8241494E-01;  0.0000000E+00;  4.7461182E-01;  2.2811167E+03;
  1.7923453E+00;  9.9999998E-03; -3.0511605E-02;9343;  1.1945941E+00;  0.0000000E+00; -1.6152563E-02;  9.9746613E+02;  1.5470552E-01; -2.0489421E+03;3;  3.2443233E+01;  0.0000000E+00;  8.1056386E-01;0;  9.6294403E-02;  1.7205754E+04;  0.0000000E+00; -1.8558398E-02;  4.0000000E+04;  0.0000000E+00;  3.8580156E+04; -3.8854522E-01;  0.0000000E+00;  4.8483962E-01;  1.9008060E+03;
  1.7923453E+00;  9.9999998E-03;  3.0511947E-02;9349;  1.1945943E+00;  0.0000000E+00;  1.6152820E-02;  9.9746619E+02;  1.5470535E-01; -2.0488940E+03;3;  3.2444103E+01;  0.0000000E+00; -8.1052774E-01;0;  9.6293747E-02;  1.7205756E+04;  0.0000000E+00; -1.8554363E-02;  4.0000000E+04;  0.0000000E+00;  3.8580156E+04; -3.8854569E-01;  0.0000000E+00;  4.8483944E-01;  1.9007817E+03;
  1.7925262E+00;  9.9999998E-03; -2.0336581E-02;9344;  1.1935529E+00;  0.0000000E+00; -1.0823441E-02;  9.9758624E+02;  1.5467718E-01; -1.9516993E+03;3;  3.2517654E+01;  0.0000000E+00;  5.8347350E-01;0;  9.9316865E-02;  1.7215926E+04;  0.0000000E+00; -8.3536487E-03;  4.0000000E+04;  0.0000000E+00;  3.8576793E+04; -3.9292672E-01;  0.0000000E+00;  4.9224359E-01;  1.6021052E+03;
  1.7925262E+00;  9.9999998E-03;  2.0336924E-02;9348;  1.1935529E+00;  0.0000000E+00;  1.0823690E-02;  9.9758630E+02;  1.5467626E-01; -1.9516511E+03;3;  3.2518391E+01;  0.0000000E+00; -5.8339608E-01;0;  9.9316686E-02;  1.7215918E+04;  0.0000000E+00; -8.3501497E-03;  4.0000000E+04;  0.0000000E+00;  3.8576793E+04; -3.9292654E-01;  0.0000000E+00;  4.9224323E-01;  1.6020963E+03;
  1.7926348E+00;  9.9999998E-03; -1.0167410E-02;9345;  1.1929225E+00;  0.0000000E+00; -5.4285289E-03;  9.9764221E+02;  1.5465723E-01; -1.9063716E+03;3;  3.2560757E+01;  0.0000000E+00;  3.1319359E-01;0;  1.0118189E-01;  1.7222168E+04;  0.0000000E+00; -2.0951505E-03;  4.0000000E+04;  0.0000000E+00;  3.8574629E+04; -3.9555702E-01;  0.0000000E+00;  4.9673891E-01;  1.4115548E+03;
  1.7926348E+00;  9.9999998E-03;  1.0167751E-02;9347;  1.1929225E+00;  0.0000000E+00;  5.4287720E-03;  9.9764221E+02;  1.5465723E-01; -1.9063716E+03;3;  3.2561050E+01;  0.0000000E+00; -3.1315327E-01;0;  1.0118216E-01;  1.7222170E+04;  0.0000000E+00; -2.0931461E-03;  4.0000000E+04;  0.0000000E+00;  3.8574621E+04; -3.9555708E-01;  0.0000000E+00;  4.9673924E-01;  1.4115542E+03;
  1.7926704E+00;  9.9999998E-03;  1.7061592E-07;9346;  1.1927114E+00;  0.0000000E+00;  1.2099572E-07;  9.9767584E+02;  1.5465261E-01; -1.8791672E+03;3;  3.2567463E+01;  0.0000000E+00; -2.5423709E-05;0;  1.0181478E-01;  1.7224246E+04;  0.0000000E+00; -9.4483976E-11;  4.0000000E+04;  0.0000000E+00;  3.8573859E+04; -3.9643416E-01;  0.0000000E+00;  4.9824893E-01;  1.3461080E+03;
  1.8056480E+00;  9.9999998E-03; -8.1754230E-02;9393;  1.1993550E+00;  0.0000000E+00; -3.8037125E-02;  9.9648688E+02;  1.4976233E-01; -2.8262820E+03;3;  3.2594498E+01;  0.0000000E+00;  1.2180015E-01;0;  2.1672785E-02;  1.8358465E+04;  0.0000000E+00; -1.3787396E-01;  4.0000000E+04;  0.0000000E+00;  3.8529023E+04; -3.4729004E-01;  0.0000000E+00;  3.6896282E-01;  4.6103394E+03;
  1.8057219E+00;  9.9999998E-03; -7.1487382E-02;9394;  1.1964451E+00;  0.0000000E+00; -3.3423625E-02;  9.9631134E+02;  1.4976534E-01; -2.9674077E+03;3;  3.2811596E+01;  0.0000000E+00;  3.9900330E-01;0;  2.8587192E-02;  1.8352402E+04;  0.0000000E+00; -1.2197298E-01;  4.0000000E+04;  0.0000000E+00;  3.8527996E+04; -3.5915902E-01;  0.0000000E+00;  3.8774621E-01;  4.5747090E+03;
  1.8056762E+00;  9.9999998E-03; -9.2009291E-02;9392;  1.2026461E+00;  0.0000000E+00; -4.2418629E-02;  9.9687006E+02;  1.4974409E-01; -2.5180176E+03;3;  3.2364841E+01;  0.0000000E+00; -1.8794778E-01;0;  1.4411062E-02;  1.8376135E+04;  0.0000000E+00; -1.3768978E-01;  4.0000000E+04;  0.0000000E+00;  3.8526324E+04; -3.3419690E-01;  0.0000000E+00;  3.4860796E-01;  4.2899668E+03;
  1.8058890E+00;  9.9999998E-03; -6.1228860E-02;9395;  1.1938804E+00;  0.0000000E+00; -2.8707128E-02;  9.9630011E+02;  1.4975585E-01; -2.9762603E+03;3;  3.2994232E+01;  0.0000000E+00;  5.1776242E-01;0;  3.4845859E-02;  1.8355738E+04;  0.0000000E+00; -1.0322829E-01;  4.0000000E+04;  0.0000000E+00;  3.8524402E+04; -3.6960506E-01;  0.0000000E+00;  4.0445092E-01;  4.2885303E+03;
  1.8058890E+00;  9.9999998E-03;  6.1229203E-02;9407;  1.1938807E+00;  0.0000000E+00;  2.8707320E-02;  9.9629999E+02;  1.4975673E-01; -2.9763562E+03;3;  3.2995861E+01;  0.0000000E+00; -5.1784390E-01;0;  3.4846067E-02;  1.8355744E+04;  0.0000000E+00; -1.0323462E-01;  4.0000000E+04;  0.0000000E+00;  3.8524406E+04; -3.6960462E-01;  0.0000000E+00;  4.0445068E-01;  4.2885151E+03;
  1.8061161E+00;  9.9999998E-03; -5.0986681E-02;9396;  1.1916568E+00;  0.0000000E+00; -2.3959942E-02;  9.9640210E+02;  1.4973633E-01; -2.8939448E+03;3;  3.3155373E+01;  0.0000000E+00;  5.2382237E-01;0;  4.0274680E-02;  1.8365848E+04;  0.0000000E+00; -8.3537221E-02;  4.0000000E+04;  0.0000000E+00;  3.8519125E+04; -3.7851372E-01;  0.0000000E+00;  4.1878840E-01;  3.8472346E+03;
  1.8061161E+00;  9.9999998E-03;  5.0987020E-02;9406;  1.1916569E+00;  0.0000000E+00;  2.3960143E-02;  9.9640198E+02;  1.4973654E-01; -2.8940408E+03;3;  3.3154713E+01;  0.0000000E+00; -5.2392787E-01;0;  4.0274680E-02;  1.8365844E+04;  0.0000000E+00; -8.3538227E-02;  4.0000000E+04;  0.0000000E+00;  3.8519121E+04; -3.7851316E-01;  0.0000000E+00;  4.1878784E-01;  3.8472104E+03;
  1.8063554E+00;  9.9999998E-03; -4.0762465E-02;9397;  1.1897929E+00;  0.0000000E+00; -1.9194717E-02;  9.9656909E+02;  1.4971197E-01; -2.7593303E+03;3;  3.3301819E+01;  0.0000000E+00;  4.7570363E-01;0;  4.4805706E-02;  1.8379057E+04;  0.0000000E+00; -6.1138123E-02;  4.0000000E+04;  0.0000000E+00;  3.8512836E+04; -3.8582957E-01;  0.0000000E+00;  4.3063527E-01;  3.3370955E+03;
  1.8063554E+00;  9.9999998E-03;  4.0762804E-02;9405;  1.1897930E+00;  0.0000000E+00;  1.9194938E-02;  9.9656879E+02;  1.4971237E-01; -2.7595701E+03;3;  3.3303101E+01;  0.0000000E+00; -4.7574583E-01;0;  4.4805795E-02;  1.8379051E+04;  0.0000000E+00; -6.1138753E-02;  4.0000000E+04;  0.0000000E+00;  3.8512836E+04; -3.8582897E-01;  0.0000000E+00;  4.3063477E-01;  3.3370867E+03;
  1.8065797E+00;  9.9999998E-03; -3.0554961E-02;9398;  1.1883082E+00;  0.0000000E+00; -1.4415147E-02;  9.9674982E+02;  1.4968738E-01; -2.6137341E+03;3;  3.3408489E+01;  0.0000000E+00;  3.9178407E-01;0;  4.8362941E-02;  1.8392588E+04;  0.0000000E+00; -3.8051277E-02;  4.0000000E+04;  0.0000000E+00;  3.8507367E+04; -3.9153054E-01;  0.0000000E+00;  4.3989348E-01;  2.8395176E+03;
  1.8065797E+00;  9.9999998E-03;  3.0555302E-02;9404;  1.1883082E+00;  0.0000000E+00;  1.4415381E-02;  9.9674988E+02;  1.4968719E-01; -2.6136863E+03;3;  3.3407104E+01;  0.0000000E+00; -3.9170545E-01;0;  4.8362970E-02;  1.8392596E+04;  0.0000000E+00; -3.8050920E-02;  4.0000000E+04;  0.0000000E+00;  3.8507379E+04; -3.9153031E-01;  0.0000000E+00;  4.3989328E-01;  2.8394851E+03;
  1.8067590E+00;  9.9999998E-03; -2.0361742E-02;9399;  1.1872283E+00;  0.0000000E+00; -9.6245091E-03;  9.9690479E+02;  1.4966783E-01; -2.4889180E+03;3;  3.3484329E+01;  0.0000000E+00;  2.7193359E-01;0;  5.0924689E-02;  1.8403934E+04;  0.0000000E+00; -1.8110784E-02;  4.0000000E+04;  0.0000000E+00;  3.8502496E+04; -3.9560828E-01;  0.0000000E+00;  4.4653296E-01;  2.4250557E+03;
  1.8067590E+00;  9.9999998E-03;  2.0362083E-02;9403;  1.1872284E+00;  0.0000000E+00;  9.6247364E-03;  9.9690472E+02;  1.4966802E-01; -2.4889658E+03;3;  3.3482803E+01;  0.0000000E+00; -2.7180734E-01;0;  5.0924480E-02;  1.8403939E+04;  0.0000000E+00; -1.8111039E-02;  4.0000000E+04;  0.0000000E+00;  3.8502496E+04; -3.9560854E-01;  0.0000000E+00;  4.4653302E-01;  2.4250317E+03;
  1.8068699E+00;  9.9999998E-03; -1.0178690E-02;9400;  1.1865765E+00;  0.0000000E+00; -4.8173033E-03;  9.9701129E+02;  1.4965713E-01; -2.4031545E+03;3;  3.3538380E+01;  0.0000000E+00;  1.5323295E-01;0;  5.2483082E-02;  1.8411266E+04;  0.0000000E+00; -4.7075883E-03;  4.0000000E+04;  0.0000000E+00;  3.8499191E+04; -3.9805877E-01;  0.0000000E+00;  4.5054185E-01;  2.1504023E+03;
  1.8068699E+00;  9.9999998E-03;  1.0179030E-02;9402;  1.1865765E+00;  0.0000000E+00;  4.8175165E-03;  9.9701141E+02;  1.4965726E-01; -2.4030586E+03;3;  3.3538620E+01;  0.0000000E+00; -1.5319450E-01;0;  5.2484185E-02;  1.8411266E+04;  0.0000000E+00; -4.7072591E-03;  4.0000000E+04;  0.0000000E+00;  3.8499188E+04; -3.9805806E-01;  0.0000000E+00;  4.5054224E-01;  2.1503982E+03;
  1.8069048E+00;  9.9999998E-03;  1.6963587E-07;9401;  1.1863596E+00;  0.0000000E+00;  1.0073882E-07;  9.9704639E+02;  1.4965270E-01; -2.3748901E+03;3;  3.3551952E+01;  0.0000000E+00;  2.5746413E-05;0;  5.3016186E-02;  1.8413596E+04;  0.0000000E+00; -8.6497199E-13;  4.0000000E+04;  0.0000000E+00;  3.8498379E+04; -3.9887607E-01;  0.0000000E+00;  4.5189226E-01;  2.0540288E+03;
  1.8200821E+00;  9.9999998E-03; -5.1061675E-02;9450;  1.1856278E+00;  0.0000000E+00; -2.1510907E-02;  9.9577417E+02;  1.4548522E-01; -3.3769424E+03;3;  3.3936142E+01;  0.0000000E+00; -2.3473851E-02;0; -1.3613403E-03;  1.9478113E+04;  0.0000000E+00; -5.6932580E-02;  4.0000000E+04;  0.0000000E+00;  3.8430602E+04; -3.7597677E-01;  0.0000000E+00;  3.7461543E-01;  4.5841016E+03;
  1.8200821E+00;  9.9999998E-03;  5.1062018E-02;9460;  1.1856279E+00;  0.0000000E+00;  2.1511093E-02;  9.9577417E+02;  1.4548522E-01; -3.3769424E+03;3;  3.3935616E+01;  0.0000000E+00;  2.3411555E-02;0; -1.3613403E-03;  1.9478113E+04;  0.0000000E+00; -5.6940079E-02;  4.0000000E+04;  0.0000000E+00;  3.8430602E+04; -3.7597656E-01;  0.0000000E+00;  3.7461522E-01;  4.5841279E+03;
  1.8199893E+00;  9.9999998E-03; -6.1317496E-02;9449;  1.1878945E+00;  0.0000000E+00; -2.5907313E-02;  9.9578687E+02;  1.4548096E-01; -3.3669568E+03;3;  3.3789028E+01;  0.0000000E+00; -1.8114752E-01;0; -6.4602196E-03;  1.9477727E+04;  0.0000000E+00; -9.2679232E-02;  4.0000000E+04;  0.0000000E+00;  3.8434121E+04; -3.6781296E-01;  0.0000000E+00;  3.6135274E-01;  4.8453638E+03;
  1.8199893E+00;  9.9999998E-03;  6.1317839E-02;9461;  1.1878947E+00;  0.0000000E+00;  2.5907489E-02;  9.9578687E+02;  1.4548096E-01; -3.3669568E+03;3;  3.3790760E+01;  0.0000000E+00;  1.8108132E-01;0; -6.4602792E-03;  1.9477730E+04;  0.0000000E+00; -9.2688955E-02;  4.0000000E+04;  0.0000000E+00;  3.8434121E+04; -3.6781281E-01;  0.0000000E+00;  3.6135253E-01;  4.8453877E+03;
  1.8202260E+00;  9.9999998E-03; -4.0820822E-02;9451;  1.1837382E+00;  0.0000000E+00; -1.7129073E-02;  9.9587433E+02;  1.4548244E-01; -3.2966318E+03;3;  3.4066994E+01;  0.0000000E+00;  2.8692275E-02;0;  2.8037429E-03;  1.9484412E+04;  0.0000000E+00; -3.1596601E-02;  4.0000000E+04;  0.0000000E+00;  3.8425902E+04; -3.8269460E-01;  0.0000000E+00;  3.8549834E-01;  4.1673091E+03;
  1.8202260E+00;  9.9999998E-03;  4.0821165E-02;9459;  1.1837384E+00;  0.0000000E+00;  1.7129268E-02;  9.9587439E+02;  1.4548232E-01; -3.2965840E+03;3;  3.4066124E+01;  0.0000000E+00; -2.8702457E-02;0;  2.8035045E-03;  1.9484412E+04;  0.0000000E+00; -3.1602226E-02;  4.0000000E+04;  0.0000000E+00;  3.8425902E+04; -3.8269439E-01;  0.0000000E+00;  3.8549790E-01;  4.1672822E+03;
  1.8199863E+00;  9.9999998E-03; -7.1579196E-02;9448;  1.1905367E+00;  0.0000000E+00; -3.0239185E-02;  9.9594232E+02;  1.4546618E-01; -3.2427341E+03;3;  3.3619576E+01;  0.0000000E+00; -4.8841596E-01;0; -1.2406290E-02;  1.9486785E+04;  0.0000000E+00; -1.3519846E-01;  4.0000000E+04;  0.0000000E+00;  3.8434504E+04; -3.5828528E-01;  0.0000000E+00;  3.4587899E-01;  4.8443872E+03;
  1.8200836E+00;  9.9999998E-03; -8.1827730E-02;9447;  1.1935803E+00;  0.0000000E+00; -3.4374341E-02;  9.9628381E+02;  1.4543796E-01; -2.9696475E+03;3;  3.3450863E+01;  0.0000000E+00; -8.5104507E-01;0; -1.8949598E-02;  1.9507322E+04;  0.0000000E+00; -1.6924605E-01;  4.0000000E+04;  0.0000000E+00;  3.8430812E+04; -3.4756351E-01;  0.0000000E+00;  3.2861391E-01;  4.4729302E+03;
  1.8203799E+00;  9.9999998E-03; -3.0596428E-02;9452;  1.1822408E+00;  0.0000000E+00; -1.2787481E-02;  9.9600531E+02;  1.4547496E-01; -3.1917419E+03;3;  3.4173317E+01;  0.0000000E+00;  6.0842674E-02;0;  6.0212314E-03;  1.9493473E+04;  0.0000000E+00; -1.4918208E-02;  4.0000000E+04;  0.0000000E+00;  3.8420328E+04; -3.8793296E-01;  0.0000000E+00;  3.9395419E-01;  3.7006057E+03;
  1.8203799E+00;  9.9999998E-03;  3.0596768E-02;9458;  1.1822410E+00;  0.0000000E+00;  1.2787676E-02;  9.9600562E+02;  1.4547549E-01; -3.1915039E+03;3;  3.4172096E+01;  0.0000000E+00; -6.0814962E-02;0;  6.0213506E-03;  1.9493475E+04;  0.0000000E+00; -1.4925404E-02;  4.0000000E+04;  0.0000000E+00;  3.8420328E+04; -3.8793314E-01;  0.0000000E+00;  3.9395449E-01;  3.7006106E+03;
  1.8205066E+00;  9.9999998E-03; -2.0387085E-02;9453;  1.1811585E+00;  0.0000000E+00; -8.4923105E-03;  9.9614331E+02;  1.4546992E-01; -3.0812922E+03;3;  3.4240963E+01;  0.0000000E+00;  6.2415000E-02;0;  8.3194077E-03;  1.9501957E+04;  0.0000000E+00; -5.4467251E-03;  4.0000000E+04;  0.0000000E+00;  3.8415594E+04; -3.9168248E-01;  0.0000000E+00;  4.0000188E-01;  3.2816602E+03;
  1.8205066E+00;  9.9999998E-03;  2.0387426E-02;9457;  1.1811587E+00;  0.0000000E+00;  8.4924996E-03;  9.9614337E+02;  1.4546987E-01; -3.0811970E+03;3;  3.4241745E+01;  0.0000000E+00; -6.2411074E-02;0;  8.3191991E-03;  1.9501959E+04;  0.0000000E+00; -5.4519684E-03;  4.0000000E+04;  0.0000000E+00;  3.8415594E+04; -3.9168248E-01;  0.0000000E+00;  4.0000167E-01;  3.2816460E+03;
  1.8206077E+00;  9.9999998E-03;  1.6934091E-07;9455;  1.1802881E+00;  0.0000000E+00;  8.9538133E-08;  9.9627393E+02;  1.4546666E-01; -2.9767527E+03;3;  3.4291599E+01;  0.0000000E+00;  8.4513675E-05;0;  1.0184616E-02;  1.9509471E+04;  0.0000000E+00;  8.6170848E-11;  4.0000000E+04;  0.0000000E+00;  3.8411086E+04; -3.9469191E-01;  0.0000000E+00;  4.0487653E-01;  2.8889194E+03;
  1.8205848E+00;  9.9999998E-03; -1.0190033E-02;9454;  1.1805054E+00;  0.0000000E+00; -4.2357198E-03;  9.9624231E+02;  1.4546773E-01; -3.0020735E+03;3;  3.4281998E+01;  0.0000000E+00;  3.5174642E-02;0;  9.7095072E-03;  1.9507496E+04;  0.0000000E+00; -1.1516522E-03;  4.0000000E+04;  0.0000000E+00;  3.8412148E+04; -3.9393708E-01;  0.0000000E+00;  4.0364659E-01;  2.9924495E+03;
  1.8205848E+00;  9.9999998E-03;  1.0190372E-02;9456;  1.1805056E+00;  0.0000000E+00;  4.2359047E-03;  9.9624231E+02;  1.4546797E-01; -3.0020735E+03;3;  3.4282299E+01;  0.0000000E+00; -3.5058104E-02;0;  9.7093284E-03;  1.9507496E+04;  0.0000000E+00; -1.1547393E-03;  4.0000000E+04;  0.0000000E+00;  3.8412148E+04; -3.9393705E-01;  0.0000000E+00;  4.0364638E-01;  2.9924358E+03;
  1.8202480E+00;  9.9999998E-03; -9.2037313E-02;9446;  1.1970642E+00;  0.0000000E+00; -3.8183577E-02;  9.9683789E+02;  1.4540732E-01; -2.5266572E+03;3;  3.3248627E+01;  0.0000000E+00; -1.2448325E+00;0; -2.5663555E-02;  1.9538979E+04;  0.0000000E+00; -1.5611431E-01;  4.0000000E+04;  0.0000000E+00;  3.8422113E+04; -3.3598924E-01;  0.0000000E+00;  3.1032568E-01;  3.6327625E+03;
  1.8339928E+00;  9.9999998E-03;  1.6927140E-07;9508;  1.1745051E+00;  0.0000000E+00;  8.1013724E-08;  9.9549377E+02;  1.4194380E-01; -3.5729551E+03;3;  3.4903164E+01;  0.0000000E+00;  9.7089760E-05;0; -2.7828604E-02;  2.0518637E+04;  0.0000000E+00;  1.2961719E-10;  4.0000000E+04;  0.0000000E+00;  3.8307676E+04; -3.8501576E-01;  0.0000000E+00;  3.5718715E-01;  3.5723706E+03;
  1.8339849E+00;  9.9999998E-03; -1.0206506E-02;9507;  1.1747171E+00;  0.0000000E+00; -3.7178495E-03;  9.9547528E+02;  1.4194004E-01; -3.5876235E+03;3;  3.4892891E+01;  0.0000000E+00; -3.2697331E-02;0; -2.8266281E-02;  2.0518002E+04;  0.0000000E+00;  5.3649829E-03;  4.0000000E+04;  0.0000000E+00;  3.8308680E+04; -3.8432431E-01;  0.0000000E+00;  3.5605803E-01;  3.6605466E+03;
  1.8339849E+00;  9.9999998E-03;  1.0206844E-02;9509;  1.1747173E+00;  0.0000000E+00;  3.7180085E-03;  9.9547528E+02;  1.4194004E-01; -3.5876235E+03;3;  3.4893379E+01;  0.0000000E+00;  3.2829560E-02;0; -2.8267026E-02;  2.0517996E+04;  0.0000000E+00;  5.3591481E-03;  4.0000000E+04;  0.0000000E+00;  3.8308676E+04; -3.8432461E-01;  0.0000000E+00;  3.5605758E-01;  3.6605315E+03;
  1.8339516E+00;  9.9999998E-03; -2.0416340E-02;9506;  1.1753594E+00;  0.0000000E+00; -7.4757389E-03;  9.9542145E+02;  1.4193535E-01; -3.6303740E+03;3;  3.4853401E+01;  0.0000000E+00; -9.9362776E-02;0; -2.9552400E-02;  2.0516045E+04;  0.0000000E+00;  1.6965283E-02;  4.0000000E+04;  0.0000000E+00;  3.8311621E+04; -3.8226482E-01;  0.0000000E+00;  3.5271242E-01;  3.8989485E+03;
  1.8339516E+00;  9.9999998E-03;  2.0416679E-02;9510;  1.1753594E+00;  0.0000000E+00;  7.4758925E-03;  9.9542133E+02;  1.4193535E-01; -3.6304685E+03;3;  3.4854088E+01;  0.0000000E+00;  9.9368952E-02;0; -2.9552221E-02;  2.0516043E+04;  0.0000000E+00;  1.6954750E-02;  4.0000000E+04;  0.0000000E+00;  3.8311617E+04; -3.8226485E-01;  0.0000000E+00;  3.5271263E-01;  3.8989226E+03;
  1.8338985E+00;  9.9999998E-03; -3.0635098E-02;9505;  1.1764309E+00;  0.0000000E+00; -1.1301832E-02;  9.9536871E+02;  1.4193015E-01; -3.6723201E+03;3;  3.4785137E+01;  0.0000000E+00; -1.9502147E-01;0; -3.1687438E-02;  2.0513203E+04;  0.0000000E+00;  2.3388039E-02;  4.0000000E+04;  0.0000000E+00;  3.8315148E+04; -3.7884933E-01;  0.0000000E+00;  3.4716189E-01;  4.2179722E+03;
  1.8338985E+00;  9.9999998E-03;  3.0635437E-02;9511;  1.1764312E+00;  0.0000000E+00;  1.1301987E-02;  9.9536865E+02;  1.4192963E-01; -3.6723674E+03;3;  3.4786125E+01;  0.0000000E+00;  1.9499648E-01;0; -3.1686991E-02;  2.0513207E+04;  0.0000000E+00;  2.3375910E-02;  4.0000000E+04;  0.0000000E+00;  3.8315156E+04; -3.7884897E-01;  0.0000000E+00;  3.4716198E-01;  4.2179351E+03;
  1.8338581E+00;  9.9999998E-03; -4.0868334E-02;9504;  1.1779202E+00;  0.0000000E+00; -1.5208599E-02;  9.9533301E+02;  1.4192005E-01; -3.7007217E+03;3;  3.4700756E+01;  0.0000000E+00; -3.5028484E-01;0; -3.4729779E-02;  2.0512721E+04;  0.0000000E+00;  1.0893260E-02;  4.0000000E+04;  0.0000000E+00;  3.8318875E+04; -3.7407947E-01;  0.0000000E+00;  3.3934969E-01;  4.5192417E+03;
  1.8338581E+00;  9.9999998E-03;  4.0868673E-02;9512;  1.1779202E+00;  0.0000000E+00;  1.5208756E-02;  9.9533295E+02;  1.4191969E-01; -3.7007690E+03;3;  3.4699841E+01;  0.0000000E+00;  3.5030103E-01;0; -3.4729511E-02;  2.0512721E+04;  0.0000000E+00;  1.0883540E-02;  4.0000000E+04;  0.0000000E+00;  3.8318879E+04; -3.7407917E-01;  0.0000000E+00;  3.3934966E-01;  4.5192290E+03;
  1.8338679E+00;  9.9999998E-03; -5.1115051E-02;9503;  1.1798111E+00;  0.0000000E+00; -1.9159378E-02;  9.9537836E+02;  1.4190368E-01; -3.6647322E+03;3;  3.4592827E+01;  0.0000000E+00; -5.5658114E-01;0; -3.8716793E-02;  2.0517801E+04;  0.0000000E+00; -3.1821962E-02;  4.0000000E+04;  0.0000000E+00;  3.8320820E+04; -3.6797771E-01;  0.0000000E+00;  3.2926092E-01;  4.6888218E+03;
  1.8338679E+00;  9.9999998E-03;  5.1115394E-02;9513;  1.1798111E+00;  0.0000000E+00;  1.9159529E-02;  9.9537866E+02;  1.4190327E-01; -3.6644958E+03;3;  3.4592278E+01;  0.0000000E+00;  5.5654067E-01;0; -3.8716525E-02;  2.0517803E+04;  0.0000000E+00; -3.1829029E-02;  4.0000000E+04;  0.0000000E+00;  3.8320812E+04; -3.6797717E-01;  0.0000000E+00;  3.2926065E-01;  4.6888125E+03;
  1.8339564E+00;  9.9999998E-03; -6.1367102E-02;9502;  1.1821046E+00;  0.0000000E+00; -2.3079563E-02;  9.9553070E+02;  1.4187545E-01; -3.5437339E+03;3;  3.4478230E+01;  0.0000000E+00; -8.4359223E-01;0; -4.3601662E-02;  2.0530980E+04;  0.0000000E+00; -1.0744771E-01;  4.0000000E+04;  0.0000000E+00;  3.8319828E+04; -3.6060899E-01;  0.0000000E+00;  3.1700733E-01;  4.6136543E+03;
  1.8339564E+00;  9.9999998E-03;  6.1367445E-02;9514;  1.1821047E+00;  0.0000000E+00;  2.3079704E-02;  9.9553076E+02;  1.4187579E-01; -3.5436865E+03;3;  3.4477951E+01;  0.0000000E+00;  8.4349966E-01;0; -4.3601573E-02;  2.0530975E+04;  0.0000000E+00; -1.0745579E-01;  4.0000000E+04;  0.0000000E+00;  3.8319824E+04; -3.6060864E-01;  0.0000000E+00;  3.1700706E-01;  4.6136406E+03;
  1.8341385E+00;  9.9999998E-03; -7.1606852E-02;9501;  1.1848249E+00;  0.0000000E+00; -2.6859529E-02;  9.9586713E+02;  1.4184301E-01; -3.2766248E+03;3;  3.4328804E+01;  0.0000000E+00; -1.2186894E+00;0; -4.9223840E-02;  2.0554746E+04;  0.0000000E+00; -2.0125021E-01;  4.0000000E+04;  0.0000000E+00;  3.8314965E+04; -3.5214278E-01;  0.0000000E+00;  3.0291894E-01;  4.1904473E+03;
  1.8343782E+00;  9.9999998E-03; -8.1811704E-02;9500;  1.1880146E+00;  0.0000000E+00; -3.0364940E-02;  9.9637787E+02;  1.4180988E-01; -2.8712649E+03;3;  3.4174904E+01;  0.0000000E+00; -1.6658109E+00;0; -5.5220366E-02;  2.0588729E+04;  0.0000000E+00; -2.6441213E-01;  4.0000000E+04;  0.0000000E+00;  3.8305223E+04; -3.4293684E-01;  0.0000000E+00;  2.8771648E-01;  3.3285417E+03;
  1.8347365E+00;  9.9999998E-03; -1.0201970E-01;9498;  1.1959622E+00;  0.0000000E+00; -3.6021620E-02;  9.9775305E+02;  1.4176154E-01; -1.7807915E+03;3;  3.3852932E+01;  0.0000000E+00; -2.2419493E+00;0; -6.6410333E-02;  2.0672561E+04;  0.0000000E+00;  1.9339110E-01;  4.0000000E+04;  0.0000000E+00;  3.8270754E+04; -3.2461125E-01;  0.0000000E+00;  2.5820091E-01;  1.1135463E+03;
  1.8345948E+00;  9.9999998E-03; -9.1956824E-02;9499;  1.1917232E+00;  0.0000000E+00; -3.3445287E-02;  9.9702576E+02;  1.4177909E-01; -2.3574009E+03;3;  3.4012001E+01;  0.0000000E+00; -1.9695975E+00;0; -6.1083704E-02;  2.0629609E+04;  0.0000000E+00; -1.9285473E-01;  4.0000000E+04;  0.0000000E+00;  3.8289895E+04; -3.3354062E-01;  0.0000000E+00;  2.7245691E-01;  1.9956815E+03;
  1.8472036E+00;  9.9999998E-03;  1.6893063E-07;9560;  1.1690137E+00;  0.0000000E+00;  6.8051996E-08;  9.9482007E+02;  1.3897255E-01; -4.0709226E+03;3;  3.5406448E+01;  0.0000000E+00;  7.0523958E-05;0; -6.1892062E-02;  2.1450316E+04;  0.0000000E+00;  1.4039969E-10;  4.0000000E+04;  0.0000000E+00;  3.8182520E+04; -3.7077856E-01;  0.0000000E+00;  3.0888650E-01;  3.7877463E+03;
  1.8472190E+00;  9.9999998E-03; -1.0229537E-02;9559;  1.1692195E+00;  0.0000000E+00; -3.2680270E-03;  9.9482269E+02;  1.3896723E-01; -4.0688162E+03;3;  3.5392387E+01;  0.0000000E+00; -1.4002080E-01;0; -6.2324017E-02;  2.1451576E+04;  0.0000000E+00;  7.1109938E-03;  4.0000000E+04;  0.0000000E+00;  3.8183035E+04; -3.7013984E-01;  0.0000000E+00;  3.0781582E-01;  3.8450732E+03;
  1.8472190E+00;  9.9999998E-03;  1.0229875E-02;9561;  1.1692195E+00;  0.0000000E+00;  3.2681569E-03;  9.9482257E+02;  1.3896601E-01; -4.0689099E+03;3;  3.5390602E+01;  0.0000000E+00;  1.4009532E-01;0; -6.2324017E-02;  2.1451574E+04;  0.0000000E+00;  7.1040671E-03;  4.0000000E+04;  0.0000000E+00;  3.8183039E+04; -3.7013969E-01;  0.0000000E+00;  3.0781567E-01;  3.8450693E+03;
  1.8472590E+00;  9.9999998E-03; -2.0455435E-02;9558;  1.1698420E+00;  0.0000000E+00; -6.5714847E-03;  9.9483600E+02;  1.3895337E-01; -4.0582522E+03;3;  3.5360867E+01;  0.0000000E+00; -2.9882595E-01;0; -6.3602030E-02;  2.1454865E+04;  0.0000000E+00;  1.9592263E-02;  4.0000000E+04;  0.0000000E+00;  3.8184672E+04; -3.6824134E-01;  0.0000000E+00;  3.0463931E-01;  3.9877224E+03;
  1.8472589E+00;  9.9999998E-03;  2.0455774E-02;9562;  1.1698420E+00;  0.0000000E+00;  6.5716063E-03;  9.9483612E+02;  1.3895351E-01; -4.0581584E+03;3;  3.5359276E+01;  0.0000000E+00;  2.9886329E-01;0; -6.3602239E-02;  2.1454863E+04;  0.0000000E+00;  1.9580772E-02;  4.0000000E+04;  0.0000000E+00;  3.8184672E+04; -3.6824146E-01;  0.0000000E+00;  3.0463922E-01;  3.9877144E+03;
  1.8473278E+00;  9.9999998E-03; -3.0683737E-02;9557;  1.1708853E+00;  0.0000000E+00; -9.9403998E-03;  9.9489520E+02;  1.3893688E-01; -4.0114900E+03;3;  3.5307194E+01;  0.0000000E+00; -4.9203995E-01;0; -6.5731406E-02;  2.1461164E+04;  0.0000000E+00;  1.4774671E-02;  4.0000000E+04;  0.0000000E+00;  3.8186383E+04; -3.6511305E-01;  0.0000000E+00;  2.9938164E-01;  4.1376626E+03;
  1.8473278E+00;  9.9999998E-03;  3.0684078E-02;9563;  1.1708854E+00;  0.0000000E+00;  9.9405181E-03;  9.9489514E+02;  1.3893658E-01; -4.0115371E+03;3;  3.5308331E+01;  0.0000000E+00;  4.9205148E-01;0; -6.5730959E-02;  2.1461160E+04;  0.0000000E+00;  1.4759700E-02;  4.0000000E+04;  0.0000000E+00;  3.8186387E+04; -3.6511248E-01;  0.0000000E+00;  2.9938152E-01;  4.1376602E+03;
  1.8474513E+00;  9.9999998E-03; -4.0918499E-02;9556;  1.1723485E+00;  0.0000000E+00; -1.3369782E-02;  9.9502423E+02;  1.3891281E-01; -3.9097776E+03;3;  3.5227818E+01;  0.0000000E+00; -7.2847348E-01;0; -6.8753481E-02;  2.1472531E+04;  0.0000000E+00; -3.3083770E-02;  4.0000000E+04;  0.0000000E+00;  3.8186848E+04; -3.6078304E-01;  0.0000000E+00;  2.9202956E-01;  4.1880693E+03;
  1.8474513E+00;  9.9999998E-03;  4.0918838E-02;9564;  1.1723485E+00;  0.0000000E+00;  1.3369897E-02;  9.9502435E+02;  1.3891290E-01; -3.9096838E+03;3;  3.5226921E+01;  0.0000000E+00;  7.2840840E-01;0; -6.8752915E-02;  2.1472531E+04;  0.0000000E+00; -3.3099242E-02;  4.0000000E+04;  0.0000000E+00;  3.8186852E+04; -3.6078250E-01;  0.0000000E+00;  2.9202959E-01;  4.1880718E+03;
  1.8476520E+00;  9.9999998E-03; -5.1156331E-02;9555;  1.1742347E+00;  0.0000000E+00; -1.6789202E-02;  9.9523560E+02;  1.3888003E-01; -3.7431047E+03;3;  3.5122242E+01;  0.0000000E+00; -1.0141580E+00;0; -7.2663665E-02;  2.1491777E+04;  0.0000000E+00; -1.4152513E-01;  4.0000000E+04;  0.0000000E+00;  3.8184516E+04; -3.5533172E-01;  0.0000000E+00;  2.8266805E-01;  4.0272751E+03;
  1.8476520E+00;  9.9999998E-03;  5.1156674E-02;9565;  1.1742349E+00;  0.0000000E+00;  1.6789315E-02;  9.9523560E+02;  1.3887899E-01; -3.7431047E+03;3;  3.5121883E+01;  0.0000000E+00;  1.0141025E+00;0; -7.2663933E-02;  2.1491773E+04;  0.0000000E+00; -1.4153738E-01;  4.0000000E+04;  0.0000000E+00;  3.8184520E+04; -3.5533190E-01;  0.0000000E+00;  2.8266796E-01;  4.0272539E+03;
  1.8479362E+00;  9.9999998E-03; -6.1383419E-02;9554;  1.1765723E+00;  0.0000000E+00; -2.0096803E-02;  9.9557898E+02;  1.3884109E-01; -3.4726042E+03;3;  3.5013161E+01;  0.0000000E+00; -1.3834138E+00;0; -7.7357113E-02;  2.1519900E+04;  0.0000000E+00; -3.0408594E-01;  4.0000000E+04;  0.0000000E+00;  3.8178438E+04; -3.4895816E-01;  0.0000000E+00;  2.7160105E-01;  3.5602634E+03;
  1.8479362E+00;  9.9999998E-03;  6.1383758E-02;9566;  1.1765724E+00;  0.0000000E+00;  2.0096915E-02;  9.9557898E+02;  1.3884109E-01; -3.4726042E+03;3;  3.5012936E+01;  0.0000000E+00;  1.3833721E+00;0; -7.7356815E-02;  2.1519891E+04;  0.0000000E+00; -3.0410233E-01;  4.0000000E+04;  0.0000000E+00;  3.8178430E+04; -3.4895819E-01;  0.0000000E+00;  2.7160138E-01;  3.5602722E+03;
  1.8482535E+00;  9.9999998E-03; -7.1580447E-02;9553;  1.1794026E+00;  0.0000000E+00; -2.3183037E-02;  9.9606628E+02;  1.3880299E-01; -3.0891423E+03;3;  3.4893768E+01;  0.0000000E+00; -1.8308533E+00;0; -8.2522213E-02;  2.1556336E+04;  0.0000000E+00; -4.6345833E-01;  4.0000000E+04;  0.0000000E+00;  3.8167531E+04; -3.4205458E-01;  0.0000000E+00;  2.5953236E-01;  2.7117195E+03;
  1.8485328E+00;  9.9999998E-03; -8.1724517E-02;9552;  1.1827767E+00;  0.0000000E+00; -2.5922837E-02;  9.9664740E+02;  1.3877009E-01; -2.6322275E+03;3;  3.4789062E+01;  0.0000000E+00; -2.1638253E+00;0; -8.7757558E-02;  2.1597586E+04;  0.0000000E+00; -4.8442569E-01;  4.0000000E+04;  0.0000000E+00;  3.8152016E+04; -3.3514151E-01;  0.0000000E+00;  2.4738395E-01;  1.4509062E+03;
  1.8487427E+00;  9.9999998E-03; -1.0179460E-01;9550;  1.1911520E+00;  0.0000000E+00; -3.0103644E-02;  9.9782654E+02;  1.3875002E-01; -1.7062108E+03;3;  3.4592319E+01;  0.0000000E+00; -2.6256802E+00;0; -9.7037852E-02;  2.1674678E+04;  0.0000000E+00;  9.0592301E-01;  4.0000000E+04;  0.0000000E+00;  3.8113473E+04; -3.2353166E-01;  0.0000000E+00;  2.2649381E-01;  3.4924536E+03;
  1.8487250E+00;  9.9999998E-03; -9.1791570E-02;9551;  1.1866900E+00;  0.0000000E+00; -2.8226538E-02;  9.9725598E+02;  1.3875067E-01; -2.1541165E+03;3;  3.4680851E+01;  0.0000000E+00; -2.4502890E+00;0; -9.2709154E-02;  2.1639211E+04;  0.0000000E+00; -1.3716766E-01;  4.0000000E+04;  0.0000000E+00;  3.8133023E+04; -3.2878667E-01;  0.0000000E+00;  2.3607752E-01;  9.6691589E+02;
  1.8603829E+00;  9.9999998E-03;  1.6950064E-07;9610;  1.1638136E+00;  0.0000000E+00;  5.5888364E-08;  9.9436902E+02;  1.3647120E-01; -4.3794521E+03;3;  3.5800224E+01;  0.0000000E+00;  6.6119246E-06;0; -9.2856258E-02;  2.2314840E+04;  0.0000000E+00;  1.2111451E-10;  4.0000000E+04;  0.0000000E+00;  3.8030500E+04; -3.5282367E-01;  0.0000000E+00;  2.5996742E-01;  3.3381172E+03;
  1.8604343E+00;  9.9999998E-03; -1.0273728E-02;9609;  1.1640121E+00;  0.0000000E+00; -2.8476014E-03;  9.9439716E+02;  1.3646398E-01; -4.3573794E+03;3;  3.5788212E+01;  0.0000000E+00; -2.1109755E-01;0; -9.3321890E-02;  2.2318248E+04;  0.0000000E+00; -8.4237400E-03;  4.0000000E+04;  0.0000000E+00;  3.8030734E+04; -3.5222426E-01;  0.0000000E+00;  2.5890237E-01;  3.3586653E+03;
  1.8604343E+00;  9.9999998E-03;  1.0274068E-02;9611;  1.1640121E+00;  0.0000000E+00;  2.8477025E-03;  9.9439716E+02;  1.3646398E-01; -4.3573794E+03;3;  3.5786201E+01;  0.0000000E+00;  2.1113722E-01;0; -9.3321264E-02;  2.2318256E+04;  0.0000000E+00; -8.4309159E-03;  4.0000000E+04;  0.0000000E+00;  3.8030727E+04; -3.5222363E-01;  0.0000000E+00;  2.5890237E-01;  3.3586475E+03;
  1.8605728E+00;  9.9999998E-03; -2.0526631E-02;9608;  1.1646156E+00;  0.0000000E+00; -5.7152165E-03;  9.9450775E+02;  1.3644575E-01; -4.2708823E+03;3;  3.5760418E+01;  0.0000000E+00; -4.5796007E-01;0; -9.4682395E-02;  2.2328273E+04;  0.0000000E+00; -4.5077786E-02;  4.0000000E+04;  0.0000000E+00;  3.8030734E+04; -3.5047650E-01;  0.0000000E+00;  2.5579411E-01;  3.3875142E+03;
  1.8605728E+00;  9.9999998E-03;  2.0526972E-02;9612;  1.1646155E+00;  0.0000000E+00;  5.7153096E-03;  9.9450781E+02;  1.3644601E-01; -4.2708359E+03;3;  3.5761265E+01;  0.0000000E+00;  4.5805132E-01;0; -9.4682783E-02;  2.2328275E+04;  0.0000000E+00; -4.5090504E-02;  4.0000000E+04;  0.0000000E+00;  3.8030738E+04; -3.5047698E-01;  0.0000000E+00;  2.5579420E-01;  3.3874885E+03;
  1.8607900E+00;  9.9999998E-03; -3.0763032E-02;9607;  1.1656379E+00;  0.0000000E+00; -8.6107347E-03;  9.9468701E+02;  1.3641739E-01; -4.1306904E+03;3;  3.5705048E+01;  0.0000000E+00; -7.6796532E-01;0; -9.6913397E-02;  2.2344873E+04;  0.0000000E+00; -1.3621370E-01;  4.0000000E+04;  0.0000000E+00;  3.8029852E+04; -3.4766808E-01;  0.0000000E+00;  2.5075468E-01;  3.3442383E+03;
  1.8607900E+00;  9.9999998E-03;  3.0763371E-02;9613;  1.1656379E+00;  0.0000000E+00;  8.6108176E-03;  9.9468726E+02;  1.3641772E-01; -4.1305054E+03;3;  3.5703888E+01;  0.0000000E+00;  7.6793820E-01;0; -9.6913010E-02;  2.2344873E+04;  0.0000000E+00; -1.3623135E-01;  4.0000000E+04;  0.0000000E+00;  3.8029848E+04; -3.4766749E-01;  0.0000000E+00;  2.5075448E-01;  3.3442346E+03;
  1.8610983E+00;  9.9999998E-03; -4.0990964E-02;9606;  1.1670930E+00;  0.0000000E+00; -1.1490123E-02;  9.9498749E+02;  1.3638283E-01; -3.8960491E+03;3;  3.5631191E+01;  0.0000000E+00; -1.0608959E+00;0; -1.0002005E-01;  2.2369490E+04;  0.0000000E+00; -3.0613330E-01;  4.0000000E+04;  0.0000000E+00;  3.8026402E+04; -3.4391150E-01;  0.0000000E+00;  2.4389145E-01;  3.1317415E+03;
  1.8610983E+00;  9.9999998E-03;  4.0991303E-02;9614;  1.1670933E+00;  0.0000000E+00;  1.1490203E-02;  9.9498743E+02;  1.3638298E-01; -3.8960955E+03;3;  3.5630394E+01;  0.0000000E+00;  1.0608143E+00;0; -1.0001972E-01;  2.2369492E+04;  0.0000000E+00; -3.0615184E-01;  4.0000000E+04;  0.0000000E+00;  3.8026402E+04; -3.4391126E-01;  0.0000000E+00;  2.4389154E-01;  3.1317256E+03;
  1.8614922E+00;  9.9999998E-03; -5.1203854E-02;9605;  1.1690029E+00;  0.0000000E+00; -1.4270426E-02;  9.9535614E+02;  1.3634041E-01; -3.6082737E+03;3;  3.5564217E+01;  0.0000000E+00; -1.3700771E+00;0; -1.0392472E-01;  2.2402318E+04;  0.0000000E+00; -5.5212629E-01;  4.0000000E+04;  0.0000000E+00;  3.8019496E+04; -3.3943745E-01;  0.0000000E+00;  2.3551273E-01;  2.6670786E+03;
  1.8614922E+00;  9.9999998E-03;  5.1204193E-02;9615;  1.1690030E+00;  0.0000000E+00;  1.4270508E-02;  9.9535614E+02;  1.3634063E-01; -3.6082737E+03;3;  3.5563641E+01;  0.0000000E+00;  1.3700364E+00;0; -1.0392439E-01;  2.2402307E+04;  0.0000000E+00; -5.5214548E-01;  4.0000000E+04;  0.0000000E+00;  3.8019500E+04; -3.3943701E-01;  0.0000000E+00;  2.3551261E-01;  2.6670774E+03;
  1.8619106E+00;  9.9999998E-03; -6.1389651E-02;9604;  1.1714170E+00;  0.0000000E+00; -1.6856400E-02;  9.9582977E+02;  1.3629785E-01; -3.2390911E+03;3;  3.5488766E+01;  0.0000000E+00; -1.8045136E+00;0; -1.0836819E-01;  2.2441914E+04;  0.0000000E+00; -8.1034750E-01;  4.0000000E+04;  0.0000000E+00;  3.8008363E+04; -3.3466834E-01;  0.0000000E+00;  2.2630015E-01;  1.8913550E+03;
  1.8619106E+00;  9.9999998E-03;  6.1389990E-02;9616;  1.1714171E+00;  0.0000000E+00;  1.6856477E-02;  9.9582971E+02;  1.3629806E-01; -3.2391375E+03;3;  3.5488842E+01;  0.0000000E+00;  1.8044595E+00;0; -1.0836871E-01;  2.2441918E+04;  0.0000000E+00; -8.1036693E-01;  4.0000000E+04;  0.0000000E+00;  3.8008363E+04; -3.3466849E-01;  0.0000000E+00;  2.2629978E-01;  1.8913619E+03;
  1.8622655E+00;  9.9999998E-03; -7.1530238E-02;9603;  1.1743908E+00;  0.0000000E+00; -1.9159688E-02;  9.9635724E+02;  1.3626328E-01; -2.8284937E+03;3;  3.5426235E+01;  0.0000000E+00; -2.1927955E+00;0; -1.1299458E-01;  2.2483496E+04;  0.0000000E+00; -9.1884071E-01;  4.0000000E+04;  0.0000000E+00;  3.7993547E+04; -3.3012670E-01;  0.0000000E+00;  2.1713212E-01;  7.6281909E+02;
  1.8622926E+00;  9.9999998E-03; -1.0162390E-01;9600;  1.1867110E+00;  0.0000000E+00; -2.4302172E-02;  9.9761884E+02;  1.3626257E-01; -1.8488555E+03;3;  3.5256512E+01;  0.0000000E+00; -2.8109417E+00;0; -1.2515187E-01;  2.2567090E+04;  0.0000000E+00;  2.9696558E+00;  4.0000000E+04;  0.0000000E+00;  3.7947816E+04; -3.2255417E-01;  0.0000000E+00;  1.9740230E-01;  7.1798047E+03;
  1.8625079E+00;  9.9999998E-03; -8.1602037E-02;9602;  1.1779294E+00;  0.0000000E+00; -2.1100510E-02;  9.9686243E+02;  1.3624491E-01; -2.4357390E+03;3;  3.5321644E+01;  0.0000000E+00; -2.4866526E+00;0; -1.1752006E-01;  2.2522096E+04;  0.0000000E+00; -5.9937060E-01;  4.0000000E+04;  0.0000000E+00;  3.7975699E+04; -3.2630897E-01;  0.0000000E+00;  2.0878890E-01;  9.9084399E+02;
  1.8625445E+00;  9.9999998E-03; -9.1620781E-02;9601;  1.1820375E+00;  0.0000000E+00; -2.2734357E-02;  9.9728741E+02;  1.3624160E-01; -2.1057544E+03;3;  3.5280163E+01;  0.0000000E+00; -2.5872943E+00;0; -1.2163852E-01;  2.2551623E+04;  0.0000000E+00;  5.3681892E-01;  4.0000000E+04;  0.0000000E+00;  3.7959277E+04; -3.2367936E-01;  0.0000000E+00;  2.0204084E-01;  3.4206680E+03;
  1.8736264E+00;  9.9999998E-03;  1.7045889E-07;9658;  1.1589307E+00;  0.0000000E+00;  3.8386812E-08;  9.9420801E+02;  1.3437128E-01; -4.4496025E+03;3;  3.6091076E+01;  0.0000000E+00;  5.3755939E-06;0; -1.2171118E-01;  2.3122047E+04;  0.0000000E+00;  9.3152312E-11;  4.0000000E+04;  0.0000000E+00;  3.7849918E+04; -3.3240712E-01;  0.0000000E+00;  2.1069594E-01;  2.2460203E+03;
  1.8737141E+00;  9.9999998E-03; -1.0339255E-02;9657;  1.1591268E+00;  0.0000000E+00; -2.4426423E-03;  9.9428180E+02;  1.3436456E-01; -4.3924819E+03;3;  3.6078083E+01;  0.0000000E+00; -2.8181821E-01;0; -1.2223236E-01;  2.3127680E+04;  0.0000000E+00; -5.1194262E-02;  4.0000000E+04;  0.0000000E+00;  3.7849664E+04; -3.3189213E-01;  0.0000000E+00;  2.0965977E-01;  2.2300044E+03;
  1.8737141E+00;  9.9999998E-03;  1.0339595E-02;9659;  1.1591268E+00;  0.0000000E+00;  2.4427141E-03;  9.9428186E+02;  1.3436487E-01; -4.3924365E+03;3;  3.6078526E+01;  0.0000000E+00;  2.8186753E-01;0; -1.2223215E-01;  2.3127680E+04;  0.0000000E+00; -5.1200733E-02;  4.0000000E+04;  0.0000000E+00;  3.7849664E+04; -3.3189207E-01;  0.0000000E+00;  2.0965992E-01;  2.2299932E+03;
  1.8739511E+00;  9.9999998E-03; -2.0632634E-02;9656;  1.1597278E+00;  0.0000000E+00; -4.8610857E-03;  9.9443408E+02;  1.3433862E-01; -4.2745249E+03;3;  3.6055172E+01;  0.0000000E+00; -5.8863980E-01;0; -1.2373306E-01;  2.3143818E+04;  0.0000000E+00; -2.0945227E-01;  4.0000000E+04;  0.0000000E+00;  3.7848020E+04; -3.3043477E-01;  0.0000000E+00;  2.0670171E-01;  2.1518584E+03;
  1.8739511E+00;  9.9999998E-03;  2.0632975E-02;9660;  1.1597279E+00;  0.0000000E+00;  4.8611495E-03;  9.9443396E+02;  1.3433897E-01; -4.2746167E+03;3;  3.6053623E+01;  0.0000000E+00;  5.8864754E-01;0; -1.2373306E-01;  2.3143809E+04;  0.0000000E+00; -2.0946433E-01;  4.0000000E+04;  0.0000000E+00;  3.7848020E+04; -3.3043492E-01;  0.0000000E+00;  2.0670186E-01;  2.1518506E+03;
  1.8743008E+00;  9.9999998E-03; -3.0882316E-02;9655;  1.1607583E+00;  0.0000000E+00; -7.2331149E-03;  9.9476996E+02;  1.3431196E-01; -4.0151641E+03;3;  3.6020000E+01;  0.0000000E+00; -9.1054559E-01;0; -1.2611961E-01;  2.3169148E+04;  0.0000000E+00; -4.7856593E-01;  4.0000000E+04;  0.0000000E+00;  3.7844266E+04; -3.2822719E-01;  0.0000000E+00;  2.0210758E-01;  1.9472809E+03;
  1.8743008E+00;  9.9999998E-03;  3.0882658E-02;9661;  1.1607583E+00;  0.0000000E+00;  7.2331741E-03;  9.9476978E+02;  1.3431196E-01; -4.0153013E+03;3;  3.6018799E+01;  0.0000000E+00;  9.1054636E-01;0; -1.2611921E-01;  2.3169146E+04;  0.0000000E+00; -4.7857907E-01;  4.0000000E+04;  0.0000000E+00;  3.7844266E+04; -3.2822686E-01;  0.0000000E+00;  2.0210765E-01;  1.9472639E+03;
  1.8747491E+00;  9.9999998E-03; -4.1097358E-02;9654;  1.1622428E+00;  0.0000000E+00; -9.5014730E-03;  9.9513574E+02;  1.3426943E-01; -3.7326440E+03;3;  3.5971989E+01;  0.0000000E+00; -1.2585152E+00;0; -1.2932420E-01;  2.3202738E+04;  0.0000000E+00; -8.3565795E-01;  4.0000000E+04;  0.0000000E+00;  3.7837379E+04; -3.2550892E-01;  0.0000000E+00;  1.9618472E-01;  1.5589153E+03;
  1.8747491E+00;  9.9999998E-03;  4.1097701E-02;9662;  1.1622429E+00;  0.0000000E+00;  9.5015196E-03;  9.9513586E+02;  1.3426894E-01; -3.7325525E+03;3;  3.5971226E+01;  0.0000000E+00;  1.2585363E+00;0; -1.2932433E-01;  2.3202738E+04;  0.0000000E+00; -8.3567864E-01;  4.0000000E+04;  0.0000000E+00;  3.7837375E+04; -3.2550910E-01;  0.0000000E+00;  1.9618477E-01;  1.5589014E+03;
  1.8751577E+00;  9.9999998E-03; -1.0162778E-01;9648;  1.1827277E+00;  0.0000000E+00; -1.8916912E-02;  9.9711029E+02;  1.3423349E-01; -2.2165073E+03;3;  3.5799564E+01;  0.0000000E+00; -2.8268702E+00;0; -1.5188237E-01;  2.3339771E+04;  0.0000000E+00;  7.8375421E+00;  4.0000000E+04;  0.0000000E+00;  3.7784129E+04; -3.2296905E-01;  0.0000000E+00;  1.7108668E-01;  1.2565916E+04;
  1.8752348E+00;  9.9999998E-03; -5.1275887E-02;9653;  1.1642286E+00;  0.0000000E+00; -1.1562381E-02;  9.9557422E+02;  1.3422924E-01; -3.3944661E+03;3;  3.5910030E+01;  0.0000000E+00; -1.6511896E+00;0; -1.3314092E-01;  2.3241721E+04;  0.0000000E+00; -1.1967382E+00;  4.0000000E+04;  0.0000000E+00;  3.7826777E+04; -3.2269111E-01;  0.0000000E+00;  1.8955019E-01;  9.5569501E+02;
  1.8752348E+00;  9.9999998E-03;  5.1276226E-02;9663;  1.1642284E+00;  0.0000000E+00;  1.1562427E-02;  9.9557422E+02;  1.3422924E-01; -3.3944661E+03;3;  3.5909508E+01;  0.0000000E+00;  1.6511924E+00;0; -1.3314095E-01;  2.3241723E+04;  0.0000000E+00; -1.1967579E+00;  4.0000000E+04;  0.0000000E+00;  3.7826789E+04; -3.2269096E-01;  0.0000000E+00;  1.8955001E-01;  9.5568738E+02;
  1.8756503E+00;  9.9999998E-03; -6.1412971E-02;9652;  1.1667749E+00;  0.0000000E+00; -1.3379167E-02;  9.9601581E+02;  1.3419564E-01; -3.0545046E+03;3;  3.5870537E+01;  0.0000000E+00; -2.0426762E+00;0; -1.3724120E-01;  2.3281043E+04;  0.0000000E+00; -1.3730146E+00;  4.0000000E+04;  0.0000000E+00;  3.7813273E+04; -3.2030010E-01;  0.0000000E+00;  1.8305890E-01;  1.8809509E+02;
  1.8756503E+00;  9.9999998E-03;  6.1413314E-02;9664;  1.1667750E+00;  0.0000000E+00;  1.3379206E-02;  9.9601581E+02;  1.3419564E-01; -3.0545046E+03;3;  3.5870491E+01;  0.0000000E+00;  2.0426171E+00;0; -1.3724087E-01;  2.3281039E+04;  0.0000000E+00; -1.3730375E+00;  4.0000000E+04;  0.0000000E+00;  3.7813273E+04; -3.2029974E-01;  0.0000000E+00;  1.8305887E-01;  1.8810092E+02;
  1.8757344E+00;  9.9999998E-03; -9.1569282E-02;9649;  1.1778866E+00;  0.0000000E+00; -1.7541805E-02;  9.9688824E+02;  1.3419013E-01; -2.3854458E+03;3;  3.5819237E+01;  0.0000000E+00; -2.7128766E+00;0; -1.4881144E-01;  2.3345744E+04;  0.0000000E+00;  2.9789979E+00;  4.0000000E+04;  0.0000000E+00;  3.7779535E+04; -3.1992429E-01;  0.0000000E+00;  1.7111285E-01;  6.9243110E+03;
  1.8759254E+00;  9.9999998E-03; -7.1496278E-02;9651;  1.1699096E+00;  0.0000000E+00; -1.4915127E-02;  9.9641522E+02;  1.3417622E-01; -2.7475176E+03;3;  3.5841690E+01;  0.0000000E+00; -2.2920823E+00;0; -1.4136711E-01;  2.3314730E+04;  0.0000000E+00; -1.0470347E+00;  4.0000000E+04;  0.0000000E+00;  3.7798707E+04; -3.1879485E-01;  0.0000000E+00;  1.7742774E-01;  1.2745967E+03;
  1.8759811E+00;  9.9999998E-03; -8.1537008E-02;9650;  1.1736057E+00;  0.0000000E+00; -1.6248714E-02;  9.9669196E+02;  1.3417193E-01; -2.5352656E+03;3;  3.5820751E+01;  0.0000000E+00; -2.5195811E+00;0; -1.4528897E-01;  2.3337410E+04;  0.0000000E+00;  2.2304007E-01;  4.0000000E+04;  0.0000000E+00;  3.7785910E+04; -3.1857714E-01;  0.0000000E+00;  1.7328817E-01;  3.3951619E+03;
  1.8869935E+00;  9.9999998E-03;  1.7052342E-07;9705;  1.1544043E+00;  0.0000000E+00;  2.1353282E-08;  9.9433167E+02;  1.3261081E-01; -4.2919263E+03;3;  3.6321941E+01;  0.0000000E+00; -1.6972423E-05;0; -1.4961426E-01;  2.3878238E+04;  0.0000000E+00;  6.4866716E-11;  4.0000000E+04;  0.0000000E+00;  3.7642129E+04; -3.1140175E-01;  0.0000000E+00;  1.6178750E-01;  7.6598273E+02;
  1.8870949E+00;  9.9999998E-03; -1.0414446E-02;9704;  1.1546121E+00;  0.0000000E+00; -1.9888913E-03;  9.9440472E+02;  1.3260628E-01; -4.2360942E+03;3;  3.6329445E+01;  0.0000000E+00; -3.2726547E-01;0; -1.5016490E-01;  2.3884539E+04;  0.0000000E+00; -1.0824178E-01;  4.0000000E+04;  0.0000000E+00;  3.7641055E+04; -3.1108487E-01;  0.0000000E+00;  1.6091996E-01;  7.1946741E+02;
  1.8870949E+00;  9.9999998E-03;  1.0414788E-02;9706;  1.1546119E+00;  0.0000000E+00;  1.9889313E-03;  9.9440485E+02;  1.3260534E-01; -4.2360039E+03;3;  3.6327419E+01;  0.0000000E+00;  3.2720986E-01;0; -1.5016496E-01;  2.3884539E+04;  0.0000000E+00; -1.0824719E-01;  4.0000000E+04;  0.0000000E+00;  3.7641059E+04; -3.1108484E-01;  0.0000000E+00;  1.6091987E-01;  7.1946265E+02;
  1.8872540E+00;  9.9999998E-03; -1.0191403E-01;9695;  1.1792337E+00;  0.0000000E+00; -1.4275285E-02;  9.9671472E+02;  1.3257936E-01; -2.4867810E+03;3;  3.6273342E+01;  0.0000000E+00; -2.7492964E+00;0; -1.7824143E-01;  2.4016598E+04;  0.0000000E+00;  1.7255768E+01;  4.0000000E+04;  0.0000000E+00;  3.7622117E+04; -3.2556692E-01;  0.0000000E+00;  1.4732549E-01;  2.0413654E+04;
  1.8873649E+00;  9.9999998E-03; -2.0760089E-02;9703;  1.1552470E+00;  0.0000000E+00; -3.9165271E-03;  9.9459937E+02;  1.3258500E-01; -4.0874666E+03;3;  3.6312588E+01;  0.0000000E+00; -6.9788563E-01;0; -1.5173383E-01;  2.3902279E+04;  0.0000000E+00; -4.1385984E-01;  4.0000000E+04;  0.0000000E+00;  3.7637844E+04; -3.1025144E-01;  0.0000000E+00;  1.5851761E-01;  5.8026318E+02;
  1.8873649E+00;  9.9999998E-03;  2.0760432E-02;9707;  1.1552470E+00;  0.0000000E+00;  3.9165611E-03;  9.9459949E+02;  1.3258506E-01; -4.0873760E+03;3;  3.6313427E+01;  0.0000000E+00;  6.9789004E-01;0; -1.5173401E-01;  2.3902275E+04;  0.0000000E+00; -4.1386953E-01;  4.0000000E+04;  0.0000000E+00;  3.7637836E+04; -3.1025153E-01;  0.0000000E+00;  1.5851752E-01;  5.8025183E+02;
  1.8877574E+00;  9.9999998E-03; -3.1028962E-02;9702;  1.1563354E+00;  0.0000000E+00; -5.7142000E-03;  9.9489191E+02;  1.3255772E-01; -3.8642773E+03;3;  3.6284012E+01;  0.0000000E+00; -1.0974423E+00;0; -1.5419188E-01;  2.3928801E+04;  0.0000000E+00; -8.5283136E-01;  4.0000000E+04;  0.0000000E+00;  3.7631836E+04; -3.0914405E-01;  0.0000000E+00;  1.5495217E-01;  3.9557721E+02;
  1.8877574E+00;  9.9999998E-03;  3.1029304E-02;9708;  1.1563354E+00;  0.0000000E+00;  5.7142279E-03;  9.9489197E+02;  1.3255759E-01; -3.8642322E+03;3;  3.6285404E+01;  0.0000000E+00;  1.0974758E+00;0; -1.5419218E-01;  2.3928803E+04;  0.0000000E+00; -8.5284561E-01;  4.0000000E+04;  0.0000000E+00;  3.7631836E+04; -3.0914426E-01;  0.0000000E+00;  1.5495208E-01;  3.9556552E+02;
  1.8881074E+00;  9.9999998E-03; -9.1732331E-02;9696;  1.1742736E+00;  0.0000000E+00; -1.2921549E-02;  9.9629718E+02;  1.3252863E-01; -2.8000161E+03;3;  3.6273388E+01;  0.0000000E+00; -2.6558881E+00;0; -1.7519112E-01;  2.4029312E+04;  0.0000000E+00;  8.8442822E+00;  4.0000000E+04;  0.0000000E+00;  3.7600336E+04; -3.1856030E-01;  0.0000000E+00;  1.4336918E-01;  1.2256812E+04;
  1.8882146E+00;  9.9999998E-03; -4.1234560E-02;9701;  1.1579158E+00;  0.0000000E+00; -7.3099779E-03;  9.9521497E+02;  1.3252664E-01; -3.6179326E+03;3;  3.6261032E+01;  0.0000000E+00; -1.4544286E+00;0; -1.5736845E-01;  2.3960338E+04;  0.0000000E+00; -1.2931094E+00;  4.0000000E+04;  0.0000000E+00;  3.7622621E+04; -3.0811062E-01;  0.0000000E+00;  1.5074217E-01;  4.4428699E+02;
  1.8882146E+00;  9.9999998E-03;  4.1234903E-02;9709;  1.1579159E+00;  0.0000000E+00;  7.3099937E-03;  9.9521497E+02;  1.3252664E-01; -3.6179326E+03;3;  3.6262772E+01;  0.0000000E+00;  1.4544460E+00;0; -1.5736854E-01;  2.3960336E+04;  0.0000000E+00; -1.2931281E+00;  4.0000000E+04;  0.0000000E+00;  3.7622621E+04; -3.0811056E-01;  0.0000000E+00;  1.5074202E-01;  4.4429947E+02;
  1.8886313E+00;  9.9999998E-03; -5.1385727E-02;9700;  1.1600366E+00;  0.0000000E+00; -8.6660124E-03;  9.9552637E+02;  1.3249896E-01; -3.3807893E+03;3;  3.6231247E+01;  0.0000000E+00; -1.8014200E+00;0; -1.6097865E-01;  2.3991564E+04;  0.0000000E+00; -1.5037695E+00;  4.0000000E+04;  0.0000000E+00;  3.7611473E+04; -3.0761975E-01;  0.0000000E+00;  1.4664111E-01;  8.9648889E+02;
  1.8886313E+00;  9.9999998E-03;  5.1386070E-02;9710;  1.1600367E+00;  0.0000000E+00;  8.6660292E-03;  9.9552637E+02;  1.3249959E-01; -3.3807893E+03;3;  3.6230984E+01;  0.0000000E+00;  1.8014008E+00;0; -1.6097867E-01;  2.3991561E+04;  0.0000000E+00; -1.5037808E+00;  4.0000000E+04;  0.0000000E+00;  3.7611473E+04; -3.0761981E-01;  0.0000000E+00;  1.4664114E-01;  8.9649860E+02;
  1.8886837E+00;  9.9999998E-03; -8.1630222E-02;9697;  1.1698558E+00;  0.0000000E+00; -1.1794287E-02;  9.9607751E+02;  1.3249485E-01; -2.9640818E+03;3;  3.6245262E+01;  0.0000000E+00; -2.5052493E+00;0; -1.7195159E-01;  2.4035887E+04;  0.0000000E+00;  3.4122787E+00;  4.0000000E+04;  0.0000000E+00;  3.7590969E+04; -3.1338826E-01;  0.0000000E+00;  1.4143667E-01;  6.8387173E+03;
  1.8889018E+00;  9.9999998E-03; -6.1489131E-02;9699;  1.1627352E+00;  0.0000000E+00; -9.8047080E-03;  9.9576349E+02;  1.3248223E-01; -3.2005732E+03;3;  3.6226143E+01;  0.0000000E+00; -2.0901775E+00;0; -1.6474205E-01;  2.4017137E+04;  0.0000000E+00; -1.1306795E+00;  4.0000000E+04;  0.0000000E+00;  3.7600105E+04; -3.0811575E-01;  0.0000000E+00;  1.4337370E-01;  1.7880784E+03;
  1.8889018E+00;  9.9999998E-03;  6.1489474E-02;9711;  1.1627353E+00;  0.0000000E+00;  9.8047312E-03;  9.9576343E+02;  1.3248172E-01; -3.2006187E+03;3;  3.6226284E+01;  0.0000000E+00;  2.0901659E+00;0; -1.6474169E-01;  2.4017131E+04;  0.0000000E+00; -1.1306922E+00;  4.0000000E+04;  0.0000000E+00;  3.7600109E+04; -3.0811554E-01;  0.0000000E+00;  1.4337385E-01;  1.7880796E+03;
  1.8889421E+00;  9.9999998E-03; -7.1560353E-02;9698;  1.1660073E+00;  0.0000000E+00; -1.0798731E-02;  9.9593365E+02;  1.3247924E-01; -3.0718662E+03;3;  3.6223804E+01;  0.0000000E+00; -2.2930870E+00;0; -1.6845138E-01;  2.4032451E+04;  0.0000000E+00;  3.0973372E-01;  4.0000000E+04;  0.0000000E+00;  3.7591734E+04; -3.0995387E-01;  0.0000000E+00;  1.4150248E-01;  3.5606924E+03;
  1.8998576E+00;  9.9999998E-03; -9.2170462E-02;9742;  1.1711266E+00;  0.0000000E+00; -9.0056853E-03;  9.9604535E+02;  1.3116768E-01; -2.9465308E+03;3;  3.6670834E+01;  0.0000000E+00; -2.5448728E+00;0; -2.0188844E-01;  2.4644682E+04;  0.0000000E+00;  1.9386505E+01;  4.0000000E+04;  0.0000000E+00;  3.7415754E+04; -3.1998631E-01;  0.0000000E+00;  1.1809786E-01;  1.9563018E+04;
  1.9004003E+00;  9.9999998E-03;  1.7019724E-07;9751;  1.1502748E+00;  0.0000000E+00;  3.6591148E-09;  9.9438019E+02;  1.3114755E-01; -4.1841719E+03;3;  3.6544170E+01;  0.0000000E+00; -8.3021820E-05;0; -1.7735255E-01;  2.4570328E+04;  0.0000000E+00;  4.0435422E-11;  4.0000000E+04;  0.0000000E+00;  3.7411590E+04; -2.9204509E-01;  0.0000000E+00;  1.1469254E-01;  6.1794128E+02;
  1.9004802E+00;  9.9999998E-03; -1.0452070E-02;9750;  1.1505080E+00;  0.0000000E+00; -1.4373380E-03;  9.9443610E+02;  1.3114448E-01; -4.1420996E+03;3;  3.6552341E+01;  0.0000000E+00; -3.7484697E-01;0; -1.7788211E-01;  2.4574863E+04;  0.0000000E+00; -1.3540305E-01;  4.0000000E+04;  0.0000000E+00;  3.7410027E+04; -2.9205704E-01;  0.0000000E+00;  1.1417493E-01;  6.8753741E+02;
  1.9004802E+00;  9.9999998E-03;  1.0452412E-02;9752;  1.1505082E+00;  0.0000000E+00;  1.4373454E-03;  9.9443610E+02;  1.3114448E-01; -4.1420996E+03;3;  3.6552971E+01;  0.0000000E+00;  3.7474805E-01;0; -1.7788167E-01;  2.4574861E+04;  0.0000000E+00; -1.3540837E-01;  4.0000000E+04;  0.0000000E+00;  3.7410031E+04; -2.9205659E-01;  0.0000000E+00;  1.1417492E-01;  6.8754553E+02;
  1.9006095E+00;  9.9999998E-03; -8.1916608E-02;9743;  1.1666149E+00;  0.0000000E+00; -7.9422826E-03;  9.9555255E+02;  1.3113388E-01; -3.3103694E+03;3;  3.6598145E+01;  0.0000000E+00; -2.3473880E+00;0; -1.9839016E-01;  2.4649504E+04;  0.0000000E+00;  1.0487599E+01;  4.0000000E+04;  0.0000000E+00;  3.7393195E+04; -3.1128165E-01;  0.0000000E+00;  1.1289149E-01;  1.2046638E+04;
  1.9006982E+00;  9.9999998E-03; -2.0835415E-02;9749;  1.1512130E+00;  0.0000000E+00; -2.7879400E-03;  9.9457910E+02;  1.3113686E-01; -4.0344624E+03;3;  3.6540691E+01;  0.0000000E+00; -7.6595861E-01;0; -1.7940944E-01;  2.4587520E+04;  0.0000000E+00; -4.8261765E-01;  4.0000000E+04;  0.0000000E+00;  3.7405199E+04; -2.9217947E-01;  0.0000000E+00;  1.1277001E-01;  8.9554321E+02;
  1.9006982E+00;  9.9999998E-03;  2.0835755E-02;9753;  1.1512130E+00;  0.0000000E+00;  2.7879481E-03;  9.9457910E+02;  1.3113633E-01; -4.0344624E+03;3;  3.6539200E+01;  0.0000000E+00;  7.6602125E-01;0; -1.7940977E-01;  2.4587520E+04;  0.0000000E+00; -4.8262757E-01;  4.0000000E+04;  0.0000000E+00;  3.7405199E+04; -2.9217973E-01;  0.0000000E+00;  1.1276997E-01;  8.9556262E+02;
  1.9009990E+00;  9.9999998E-03; -3.1136060E-02;9748;  1.1524112E+00;  0.0000000E+00; -3.9762617E-03;  9.9467841E+02;  1.3111606E-01; -3.9589487E+03;3;  3.6515121E+01;  0.0000000E+00; -1.2073574E+00;0; -1.8178096E-01;  2.4605043E+04;  0.0000000E+00; -8.7409848E-01;  4.0000000E+04;  0.0000000E+00;  3.7397715E+04; -2.9263985E-01;  0.0000000E+00;  1.1085889E-01;  1.2215782E+03;
  1.9009990E+00;  9.9999998E-03;  3.1136401E-02;9754;  1.1524111E+00;  0.0000000E+00;  3.9762696E-03;  9.9467822E+02;  1.3111639E-01; -3.9590818E+03;3;  3.6514057E+01;  0.0000000E+00;  1.2074128E+00;0; -1.8178096E-01;  2.4605041E+04;  0.0000000E+00; -8.7411386E-01;  4.0000000E+04;  0.0000000E+00;  3.7397715E+04; -2.9263991E-01;  0.0000000E+00;  1.1085894E-01;  1.2216035E+03;
  1.9011550E+00;  9.9999998E-03; -7.1749240E-02;9744;  1.1626567E+00;  0.0000000E+00; -7.1038944E-03;  9.9520386E+02;  1.3110605E-01; -3.5672749E+03;3;  3.6560394E+01;  0.0000000E+00; -2.1732168E+00;0; -1.9495326E-01;  2.4650689E+04;  0.0000000E+00;  4.5914698E+00;  4.0000000E+04;  0.0000000E+00;  3.7380285E+04; -3.0447882E-01;  0.0000000E+00;  1.0952557E-01;  6.9867842E+03;
  1.9012911E+00;  9.9999998E-03; -4.1351452E-02;9747;  1.1541413E+00;  0.0000000E+00; -4.9308049E-03;  9.9482513E+02;  1.3110372E-01; -3.8482539E+03;3;  3.6497013E+01;  0.0000000E+00; -1.4907081E+00;0; -1.8475266E-01;  2.4623324E+04;  0.0000000E+00; -1.0236638E+00;  4.0000000E+04;  0.0000000E+00;  3.7388828E+04; -2.9376593E-01;  0.0000000E+00;  1.0901327E-01;  1.6558130E+03;
  1.9012911E+00;  9.9999998E-03;  4.1351799E-02;9755;  1.1541415E+00;  0.0000000E+00;  4.9307970E-03;  9.9482520E+02;  1.3110335E-01; -3.8482097E+03;3;  3.6496292E+01;  0.0000000E+00;  1.4908296E+00;0; -1.8475267E-01;  2.4623316E+04;  0.0000000E+00; -1.0236870E+00;  4.0000000E+04;  0.0000000E+00;  3.7388828E+04; -2.9376581E-01;  0.0000000E+00;  1.0901313E-01;  1.6558195E+03;
  1.9014708E+00;  9.9999998E-03; -5.1501840E-02;9746;  1.1564204E+00;  0.0000000E+00; -5.7148961E-03;  9.9494800E+02;  1.3109726E-01; -3.7559839E+03;3;  3.6508854E+01;  0.0000000E+00; -1.7615103E+00;0; -1.8806750E-01;  2.4638064E+04;  0.0000000E+00; -5.2382386E-01;  4.0000000E+04;  0.0000000E+00;  3.7380703E+04; -2.9591909E-01;  0.0000000E+00;  1.0785159E-01;  2.3866489E+03;
  1.9014708E+00;  9.9999998E-03;  5.1502187E-02;9756;  1.1564205E+00;  0.0000000E+00;  5.7148905E-03;  9.9494812E+02;  1.3109800E-01; -3.7558508E+03;3;  3.6508442E+01;  0.0000000E+00;  1.7616340E+00;0; -1.8806739E-01;  2.4638074E+04;  0.0000000E+00; -5.2383888E-01;  4.0000000E+04;  0.0000000E+00;  3.7380711E+04; -2.9591897E-01;  0.0000000E+00;  1.0785158E-01;  2.3866575E+03;
  1.9014421E+00;  9.9999998E-03; -6.1622597E-02;9745;  1.1592597E+00;  0.0000000E+00; -6.4019808E-03;  9.9505670E+02;  1.3109730E-01; -3.6752991E+03;3;  3.6506519E+01;  0.0000000E+00; -1.9833326E+00;0; -1.9150305E-01;  2.4647309E+04;  0.0000000E+00;  1.1438258E+00;  4.0000000E+04;  0.0000000E+00;  3.7376594E+04; -2.9941213E-01;  0.0000000E+00;  1.0790908E-01;  3.9494355E+03;
  1.9014421E+00;  9.9999998E-03;  6.1622944E-02;9757;  1.1592598E+00;  0.0000000E+00;  6.4019775E-03;  9.9505682E+02;  1.3109738E-01; -3.6752104E+03;3;  3.6509068E+01;  0.0000000E+00;  1.9831452E+00;0; -1.9150293E-01;  2.4647307E+04;  0.0000000E+00;  1.1438172E+00;  4.0000000E+04;  0.0000000E+00;  3.7376598E+04; -2.9941207E-01;  0.0000000E+00;  1.0790914E-01;  3.9494438E+03;
  1.9115680E+00;  9.9999998E-03; -9.2928790E-02;9786;  1.1683232E+00;  0.0000000E+00; -5.5691316E-03;  9.9575665E+02;  1.3003042E-01; -3.1095271E+03;3;  3.7047077E+01;  0.0000000E+00; -2.4499543E+00;0; -2.3030111E-01;  2.5209072E+04;  0.0000000E+00;  3.2658298E+01;  4.0000000E+04;  0.0000000E+00;  3.7204766E+04; -3.2427949E-01;  0.0000000E+00;  9.3978368E-02;  2.6698383E+04;
  1.9122326E+00;  9.9999998E-03; -8.2445033E-02;9787;  1.1637534E+00;  0.0000000E+00; -4.6482068E-03;  9.9540399E+02;  1.3000450E-01; -3.3645549E+03;3;  3.6939247E+01;  0.0000000E+00; -2.2312312E+00;0; -2.2588342E-01;  2.5216760E+04;  0.0000000E+00;  2.1406639E+01;  4.0000000E+04;  0.0000000E+00;  3.7183723E+04; -3.1223059E-01;  0.0000000E+00;  8.6347170E-02;  1.8243107E+04;
  1.9128343E+00;  9.9999998E-03; -7.2040506E-02;9788;  1.1597022E+00;  0.0000000E+00; -3.9453995E-03;  9.9494879E+02;  1.2998387E-01; -3.6944182E+03;3;  3.6870304E+01;  0.0000000E+00; -2.0353856E+00;0; -2.2185352E-01;  2.5214814E+04;  0.0000000E+00;  1.2804700E+01;  4.0000000E+04;  0.0000000E+00;  3.7166340E+04; -3.0232131E-01;  0.0000000E+00;  8.0467790E-02;  1.1784048E+04;
  1.9132977E+00;  9.9999998E-03; -6.1707158E-02;9789;  1.1561950E+00;  0.0000000E+00; -3.4166554E-03;  9.9453510E+02;  1.2996602E-01; -3.9941865E+03;3;  3.6797653E+01;  0.0000000E+00; -1.8406595E+00;0; -2.1813382E-01;  2.5209041E+04;  0.0000000E+00;  6.8123288E+00;  4.0000000E+04;  0.0000000E+00;  3.7154598E+04; -2.9435518E-01;  0.0000000E+00;  7.6221362E-02;  7.2372383E+03;
  1.9132977E+00;  9.9999998E-03;  6.1707504E-02;9801;  1.1561950E+00;  0.0000000E+00;  3.4166411E-03;  9.9453516E+02;  1.2996580E-01; -3.9941431E+03;3;  3.6795334E+01;  0.0000000E+00;  1.8409308E+00;0; -2.1813369E-01;  2.5209031E+04;  0.0000000E+00;  6.8122945E+00;  4.0000000E+04;  0.0000000E+00;  3.7154602E+04; -2.9435495E-01;  0.0000000E+00;  7.6221250E-02;  7.2372305E+03;
  1.9134616E+00;  9.9999998E-03;  1.6977395E-07;9795;  1.1466410E+00;  0.0000000E+00; -1.1493587E-08;  9.9398602E+02;  1.2996277E-01; -4.3943955E+03;3;  3.6702976E+01;  0.0000000E+00; -5.1721931E-05;0; -2.0492344E-01;  2.5171117E+04;  0.0000000E+00;  2.3357181E-11;  4.0000000E+04;  0.0000000E+00;  3.7166469E+04; -2.7660665E-01;  0.0000000E+00;  7.1683213E-02;  1.3624208E+03;
  1.9134998E+00;  9.9999998E-03; -1.0406255E-02;9794;  1.1469018E+00;  0.0000000E+00; -8.1150269E-04;  9.9398810E+02;  1.2996159E-01; -4.3926147E+03;3;  3.6686264E+01;  0.0000000E+00; -4.4763523E-01;0; -2.0540369E-01;  2.5172936E+04;  0.0000000E+00; -6.6410348E-02;  4.0000000E+04;  0.0000000E+00;  3.7164426E+04; -2.7698264E-01;  0.0000000E+00;  7.1578957E-02;  1.4306033E+03;
  1.9134997E+00;  9.9999998E-03;  1.0406595E-02;9796;  1.1469020E+00;  0.0000000E+00;  8.1147673E-04;  9.9398804E+02;  1.2996134E-01; -4.3926582E+03;3;  3.6689228E+01;  0.0000000E+00;  4.4752604E-01;0; -2.0540369E-01;  2.5172945E+04;  0.0000000E+00; -6.6418365E-02;  4.0000000E+04;  0.0000000E+00;  3.7164430E+04; -2.7698269E-01;  0.0000000E+00;  7.1579002E-02;  1.4306132E+03;
  1.9135901E+00;  9.9999998E-03; -5.1457506E-02;9790;  1.1532507E+00;  0.0000000E+00; -2.9856015E-03;  9.9425250E+02;  1.2995845E-01; -4.1988447E+03;3;  3.6742393E+01;  0.0000000E+00; -1.6430411E+00;0; -2.1471551E-01;  2.5201777E+04;  0.0000000E+00;  2.9853311E+00;  4.0000000E+04;  0.0000000E+00;  3.7149207E+04; -2.8815886E-01;  0.0000000E+00;  7.3443361E-02;  4.3250337E+03;
  1.9135902E+00;  9.9999998E-03;  5.1457856E-02;9800;  1.1532508E+00;  0.0000000E+00;  2.9855710E-03;  9.9425250E+02;  1.2995845E-01; -4.1988442E+03;3;  3.6741936E+01;  0.0000000E+00;  1.6431031E+00;0; -2.1471578E-01;  2.5201771E+04;  0.0000000E+00;  2.9852774E+00;  4.0000000E+04;  0.0000000E+00;  3.7149207E+04; -2.8815898E-01;  0.0000000E+00;  7.3443204E-02;  4.3250283E+03;
  1.9135909E+00;  9.9999998E-03; -2.0755623E-02;9793;  1.1476901E+00;  0.0000000E+00; -1.5253057E-03;  9.9399854E+02;  1.2995847E-01; -4.3843813E+03;3;  3.6689377E+01;  0.0000000E+00; -8.0221546E-01;0; -2.0677951E-01;  2.5178562E+04;  0.0000000E+00; -1.5853696E-01;  4.0000000E+04;  0.0000000E+00;  3.7159992E+04; -2.7816224E-01;  0.0000000E+00;  7.1382739E-02;  1.6283101E+03;
  1.9135909E+00;  9.9999998E-03;  2.0755965E-02;9797;  1.1476901E+00;  0.0000000E+00;  1.5252820E-03;  9.9399847E+02;  1.2995873E-01; -4.3844248E+03;3;  3.6687668E+01;  0.0000000E+00;  8.0221760E-01;0; -2.0677933E-01;  2.5178562E+04;  0.0000000E+00; -1.5855703E-01;  4.0000000E+04;  0.0000000E+00;  3.7159996E+04; -2.7816203E-01;  0.0000000E+00;  7.1382701E-02;  1.6283035E+03;
  1.9136833E+00;  9.9999998E-03; -3.1030202E-02;9792;  1.1490064E+00;  0.0000000E+00; -2.1055241E-03;  9.9402118E+02;  1.2995490E-01; -4.3672168E+03;3;  3.6702663E+01;  0.0000000E+00; -1.1338885E+00;0; -2.0891029E-01;  2.5186076E+04;  0.0000000E+00;  1.7015595E-02;  4.0000000E+04;  0.0000000E+00;  3.7153961E+04; -2.8028160E-01;  0.0000000E+00;  7.1371324E-02;  1.9864932E+03;
  1.9136833E+00;  9.9999998E-03;  3.1030541E-02;9798;  1.1490065E+00;  0.0000000E+00;  2.1055029E-03;  9.9402112E+02;  1.2995467E-01; -4.3672603E+03;3;  3.6701691E+01;  0.0000000E+00;  1.1339290E+00;0; -2.0891012E-01;  2.5186082E+04;  0.0000000E+00;  1.7000016E-02;  4.0000000E+04;  0.0000000E+00;  3.7153965E+04; -2.8028142E-01;  0.0000000E+00;  7.1371302E-02;  1.9865189E+03;
  1.9137061E+00;  9.9999998E-03; -4.1248634E-02;9791;  1.1508563E+00;  0.0000000E+00; -2.5680473E-03;  9.9408893E+02;  1.2995400E-01; -4.3175635E+03;3;  3.6719341E+01;  0.0000000E+00; -1.4191135E+00;0; -2.1161363E-01;  2.5193951E+04;  0.0000000E+00;  8.9418662E-01;  4.0000000E+04;  0.0000000E+00;  3.7149453E+04; -2.8354093E-01;  0.0000000E+00;  7.1927309E-02;  2.7292244E+03;
  1.9137059E+00;  9.9999998E-03;  4.1248970E-02;9799;  1.1508563E+00;  0.0000000E+00;  2.5680268E-03;  9.9408881E+02;  1.2995394E-01; -4.3176509E+03;3;  3.6718647E+01;  0.0000000E+00;  1.4192506E+00;0; -2.1161343E-01;  2.5193951E+04;  0.0000000E+00;  8.9417613E-01;  4.0000000E+04;  0.0000000E+00;  3.7149457E+04; -2.8354079E-01;  0.0000000E+00;  7.1927354E-02;  2.7292458E+03;
  1.9234138E+00;  9.9999998E-03; -9.3855895E-02;9828;  1.1657157E+00;  0.0000000E+00; -2.1473041E-03;  9.9489874E+02;  1.2908196E-01; -3.6685386E+03;3;  3.7433586E+01;  0.0000000E+00; -2.4396262E+00;0; -2.6078597E-01;  2.5713461E+04;  0.0000000E+00;  4.2565269E+01;  4.0000000E+04;  0.0000000E+00;  3.6955562E+04; -3.3075741E-01;  0.0000000E+00;  6.9971442E-02;  3.0107965E+04;
  1.9239606E+00;  9.9999998E-03; -8.3214819E-02;9829;  1.1611284E+00;  0.0000000E+00; -1.5615943E-03;  9.9498322E+02;  1.2905735E-01; -3.6044927E+03;3;  3.7287350E+01;  0.0000000E+00; -2.2147613E+00;0; -2.5537449E-01;  2.5733615E+04;  0.0000000E+00;  3.2063431E+01;  4.0000000E+04;  0.0000000E+00;  3.6946375E+04; -3.1601757E-01;  0.0000000E+00;  6.0643081E-02;  2.2673443E+04;
  1.9244747E+00;  9.9999998E-03; -7.2564662E-02;9830;  1.1570222E+00;  0.0000000E+00; -1.1228619E-03;  9.9488501E+02;  1.2904234E-01; -3.6718425E+03;3;  3.7166561E+01;  0.0000000E+00; -1.9878606E+00;0; -2.5035977E-01;  2.5739545E+04;  0.0000000E+00;  2.3038979E+01;  4.0000000E+04;  0.0000000E+00;  3.6938844E+04; -3.0333295E-01;  0.0000000E+00;  5.2973170E-02;  1.6352671E+04;
  1.9249091E+00;  9.9999998E-03; -6.1947346E-02;9831;  1.1534356E+00;  0.0000000E+00; -8.2171441E-04;  9.9461163E+02;  1.2902685E-01; -3.8652683E+03;3;  3.7058537E+01;  0.0000000E+00; -1.7725192E+00;0; -2.4582067E-01;  2.5738092E+04;  0.0000000E+00;  1.5693568E+01;  4.0000000E+04;  0.0000000E+00;  3.6931750E+04; -2.9274598E-01;  0.0000000E+00;  4.6925299E-02;  1.1253506E+04;
  1.9249091E+00;  9.9999998E-03;  6.1947685E-02;9843;  1.1534357E+00;  0.0000000E+00;  8.2166732E-04;  9.9461157E+02;  1.2902676E-01; -3.8653110E+03;3;  3.7058624E+01;  0.0000000E+00;  1.7725998E+00;0; -2.4582067E-01;  2.5738092E+04;  0.0000000E+00;  1.5693636E+01;  4.0000000E+04;  0.0000000E+00;  3.6931746E+04; -2.9274604E-01;  0.0000000E+00;  4.6925366E-02;  1.1253549E+04;
  1.9252568E+00;  9.9999998E-03; -5.1454723E-02;9832;  1.1504134E+00;  0.0000000E+00; -6.1567663E-04;  9.9427057E+02;  1.2901960E-01; -4.1074951E+03;3;  3.6970982E+01;  0.0000000E+00; -1.5182626E+00;0; -2.4185875E-01;  2.5730500E+04;  0.0000000E+00;  9.7484503E+00;  4.0000000E+04;  0.0000000E+00;  3.6923051E+04; -2.8419697E-01;  0.0000000E+00;  4.2338222E-02;  7.2589688E+03;
  1.9252568E+00;  9.9999998E-03;  5.1455066E-02;9842;  1.1504135E+00;  0.0000000E+00;  6.1562442E-04;  9.9427057E+02;  1.2901933E-01; -4.1074951E+03;3;  3.6973129E+01;  0.0000000E+00;  1.5181741E+00;0; -2.4185918E-01;  2.5730498E+04;  0.0000000E+00;  9.7484360E+00;  4.0000000E+04;  0.0000000E+00;  3.6923051E+04; -2.8419739E-01;  0.0000000E+00;  4.2338204E-02;  7.2589780E+03;
  1.9254957E+00;  9.9999998E-03; -4.1086607E-02;9833;  1.1479554E+00;  0.0000000E+00; -4.7683829E-04;  9.9396228E+02;  1.2901409E-01; -4.3267417E+03;3;  3.6906010E+01;  0.0000000E+00; -1.2756075E+00;0; -2.3847696E-01;  2.5721820E+04;  0.0000000E+00;  5.3821650E+00;  4.0000000E+04;  0.0000000E+00;  3.6916477E+04; -2.7752310E-01;  0.0000000E+00;  3.9046146E-02;  4.4194761E+03;
  1.9254957E+00;  9.9999998E-03;  4.1086953E-02;9841;  1.1479554E+00;  0.0000000E+00;  4.7678451E-04;  9.9396228E+02;  1.2901336E-01; -4.3267417E+03;3;  3.6905300E+01;  0.0000000E+00;  1.2756908E+00;0; -2.3847705E-01;  2.5721828E+04;  0.0000000E+00;  5.3821311E+00;  4.0000000E+04;  0.0000000E+00;  3.6916473E+04; -2.7752319E-01;  0.0000000E+00;  3.9046135E-02;  4.4194751E+03;
  1.9256319E+00;  9.9999998E-03; -3.0807458E-02;9834;  1.1460502E+00;  0.0000000E+00; -3.6936943E-04;  9.9375671E+02;  1.2901296E-01; -4.4730234E+03;3;  3.6856461E+01;  0.0000000E+00; -1.0305474E+00;0; -2.3570991E-01;  2.5714002E+04;  0.0000000E+00;  2.5259776E+00;  4.0000000E+04;  0.0000000E+00;  3.6913574E+04; -2.7254647E-01;  0.0000000E+00;  3.6836572E-02;  2.6819880E+03;
  1.9256319E+00;  9.9999998E-03;  3.0807795E-02;9840;  1.1460505E+00;  0.0000000E+00;  3.6931396E-04;  9.9375659E+02;  1.2901255E-01; -4.4731089E+03;3;  3.6857788E+01;  0.0000000E+00;  1.0304742E+00;0; -2.3570991E-01;  2.5714004E+04;  0.0000000E+00;  2.5259657E+00;  4.0000000E+04;  0.0000000E+00;  3.6913578E+04; -2.7254653E-01;  0.0000000E+00;  3.6836620E-02;  2.6820146E+03;
  1.9256881E+00;  9.9999998E-03; -2.0564269E-02;9835;  1.1446846E+00;  0.0000000E+00; -2.6260226E-04;  9.9364343E+02;  1.2901083E-01; -4.5537666E+03;3;  3.6818314E+01;  0.0000000E+00; -7.6695222E-01;0; -2.3362924E-01;  2.5708256E+04;  0.0000000E+00;  9.1594177E-01;  4.0000000E+04;  0.0000000E+00;  3.6913555E+04; -2.6911771E-01;  0.0000000E+00;  3.5488471E-02;  1.8718344E+03;
  1.9256881E+00;  9.9999998E-03;  2.0564608E-02;9839;  1.1446848E+00;  0.0000000E+00;  2.6254766E-04;  9.9364337E+02;  1.2901096E-01; -4.5538096E+03;3;  3.6819210E+01;  0.0000000E+00;  7.6687193E-01;0; -2.3362947E-01;  2.5708256E+04;  0.0000000E+00;  9.1592258E-01;  4.0000000E+04;  0.0000000E+00;  3.6913559E+04; -2.6911795E-01;  0.0000000E+00;  3.5488479E-02;  1.8718405E+03;
  1.9257002E+00;  9.9999998E-03; -1.0299777E-02;9836;  1.1438555E+00;  0.0000000E+00; -1.3855875E-04;  9.9359717E+02;  1.2901014E-01; -4.5868071E+03;3;  3.6794704E+01;  0.0000000E+00; -4.2335176E-01;0; -2.3232809E-01;  2.5704959E+04;  0.0000000E+00;  1.9125763E-01;  4.0000000E+04;  0.0000000E+00;  3.6915234E+04; -2.6711228E-01;  0.0000000E+00;  3.4784194E-02;  1.6135599E+03;
  1.9257002E+00;  9.9999998E-03;  1.0300119E-02;9838;  1.1438555E+00;  0.0000000E+00;  1.3850468E-04;  9.9359723E+02;  1.2900990E-01; -4.5867642E+03;3;  3.6795120E+01;  0.0000000E+00;  4.2336765E-01;0; -2.3232800E-01;  2.5704945E+04;  0.0000000E+00;  1.9124557E-01;  4.0000000E+04;  0.0000000E+00;  3.6915230E+04; -2.6711214E-01;  0.0000000E+00;  3.4784134E-02;  1.6135240E+03;
  1.9257003E+00;  9.9999998E-03;  1.6984822E-07;9837;  1.1435757E+00;  0.0000000E+00; -2.4735082E-08;  9.9358887E+02;  1.2900929E-01; -4.5927407E+03;3;  3.6771133E+01;  0.0000000E+00; -1.0311604E-05;0; -2.3188503E-01;  2.5703877E+04;  0.0000000E+00;  1.4315916E-11;  4.0000000E+04;  0.0000000E+00;  3.6916238E+04; -2.6645163E-01;  0.0000000E+00;  3.4566596E-02;  1.5609391E+03;
  1.9352547E+00;  9.9999998E-03; -9.4713435E-02;9867;  1.1632026E+00;  0.0000000E+00;  1.8593590E-03;  9.9414899E+02;  1.2829337E-01; -4.1209766E+03;3;  3.7765121E+01;  0.0000000E+00; -2.2914190E+00;0; -2.9310086E-01;  2.6186391E+04;  0.0000000E+00;  4.3163746E+01;  4.0000000E+04;  0.0000000E+00;  3.6685707E+04; -3.3721069E-01;  0.0000000E+00;  4.4109829E-02;  2.7738088E+04;
  1.9357433E+00;  9.9999998E-03; -8.4035002E-02;9868;  1.1586339E+00;  0.0000000E+00;  1.9255958E-03;  9.9442877E+02;  1.2827322E-01; -3.9203772E+03;3;  3.7564167E+01;  0.0000000E+00; -2.0423779E+00;0; -2.8690946E-01;  2.6208840E+04;  0.0000000E+00;  3.6282719E+01;  4.0000000E+04;  0.0000000E+00;  3.6683977E+04; -3.2141542E-01;  0.0000000E+00;  3.4505952E-02;  2.2727961E+04;
  1.9361868E+00;  9.9999998E-03; -7.3295109E-02;9869;  1.1545473E+00;  0.0000000E+00;  1.8954278E-03;  9.9464972E+02;  1.2825716E-01; -3.7618000E+03;3;  3.7387806E+01;  0.0000000E+00; -1.7920703E+00;0; -2.8086206E-01;  2.6224148E+04;  0.0000000E+00;  2.9498245E+01;  4.0000000E+04;  0.0000000E+00;  3.6686117E+04; -3.0697456E-01;  0.0000000E+00;  2.6112484E-02;  1.7943695E+04;
  1.9365715E+00;  9.9999998E-03; -6.2517345E-02;9870;  1.1509516E+00;  0.0000000E+00;  1.7863568E-03;  9.9474896E+02;  1.2824561E-01; -3.6893809E+03;3;  3.7247356E+01;  0.0000000E+00; -1.5622745E+00;0; -2.7533278E-01;  2.6231396E+04;  0.0000000E+00;  2.3223740E+01;  4.0000000E+04;  0.0000000E+00;  3.6689789E+04; -2.9437342E-01;  0.0000000E+00;  1.9040637E-02;  1.3639660E+04;
  1.9365715E+00;  9.9999998E-03;  6.2517688E-02;9882;  1.1509517E+00;  0.0000000E+00; -1.7864263E-03;  9.9474896E+02;  1.2824561E-01; -3.6893809E+03;3;  3.7247456E+01;  0.0000000E+00;  1.5622582E+00;0; -2.7533299E-01;  2.6231398E+04;  0.0000000E+00;  2.3223719E+01;  4.0000000E+04;  0.0000000E+00;  3.6689785E+04; -2.9437363E-01;  0.0000000E+00;  1.9040653E-02;  1.3639689E+04;
  1.9368875E+00;  9.9999998E-03; -5.1783279E-02;9871;  1.1478945E+00;  0.0000000E+00;  1.6135481E-03;  9.9467853E+02;  1.2823597E-01; -3.7366343E+03;3;  3.7121792E+01;  0.0000000E+00; -1.3049666E+00;0; -2.7047244E-01;  2.6232225E+04;  0.0000000E+00;  1.7197840E+01;  4.0000000E+04;  0.0000000E+00;  3.6689160E+04; -2.8380787E-01;  0.0000000E+00;  1.3335433E-02;  9.7848428E+03;
  1.9368875E+00;  9.9999998E-03;  5.1783621E-02;9881;  1.1478947E+00;  0.0000000E+00; -1.6136316E-03;  9.9467847E+02;  1.2823586E-01; -3.7367178E+03;3;  3.7121254E+01;  0.0000000E+00;  1.3049402E+00;0; -2.7047262E-01;  2.6232223E+04;  0.0000000E+00;  1.7197802E+01;  4.0000000E+04;  0.0000000E+00;  3.6689160E+04; -2.8380805E-01;  0.0000000E+00;  1.3335428E-02;  9.7848232E+03;
  1.9371357E+00;  9.9999998E-03; -4.1168720E-02;9872;  1.1454072E+00;  0.0000000E+00;  1.3756143E-03;  9.9447949E+02;  1.2823124E-01; -3.8746265E+03;3;  3.7012161E+01;  0.0000000E+00; -1.0250814E+00;0; -2.6638287E-01;  2.6227615E+04;  0.0000000E+00;  1.1517448E+01;  4.0000000E+04;  0.0000000E+00;  3.6684207E+04; -2.7532253E-01;  0.0000000E+00;  8.9396415E-03;  6.4427480E+03;
  1.9371357E+00;  9.9999998E-03;  4.1169066E-02;9880;  1.1454073E+00;  0.0000000E+00; -1.3756867E-03;  9.9447955E+02;  1.2823114E-01; -3.8745845E+03;3;  3.7011597E+01;  0.0000000E+00;  1.0250907E+00;0; -2.6638293E-01;  2.6227602E+04;  0.0000000E+00;  1.1517382E+01;  4.0000000E+04;  0.0000000E+00;  3.6684215E+04; -2.7532256E-01;  0.0000000E+00;  8.9396313E-03;  6.4427368E+03;
  1.9373107E+00;  9.9999998E-03; -3.0713122E-02;9873;  1.1434969E+00;  0.0000000E+00;  1.0779506E-03;  9.9422229E+02;  1.2822849E-01; -4.0538113E+03;3;  3.6928619E+01;  0.0000000E+00; -7.5971174E-01;0; -2.6312128E-01;  2.6221641E+04;  0.0000000E+00;  6.6157112E+00;  4.0000000E+04;  0.0000000E+00;  3.6676641E+04; -2.6887140E-01;  0.0000000E+00;  5.7501225E-03;  3.8030637E+03;
  1.9373107E+00;  9.9999998E-03;  3.0713487E-02;9879;  1.1434969E+00;  0.0000000E+00; -1.0780301E-03;  9.9422235E+02;  1.2822844E-01; -4.0537693E+03;3;  3.6929657E+01;  0.0000000E+00;  7.5969261E-01;0; -2.6312166E-01;  2.6221625E+04;  0.0000000E+00;  6.6155801E+00;  4.0000000E+04;  0.0000000E+00;  3.6676637E+04; -2.6887164E-01;  0.0000000E+00;  5.7499651E-03;  3.8029868E+03;
  1.9374222E+00;  9.9999998E-03; -2.0405497E-02;9874;  1.1421474E+00;  0.0000000E+00;  7.3976582E-04;  9.9399371E+02;  1.2822686E-01; -4.2133115E+03;3;  3.6875530E+01;  0.0000000E+00; -5.0719059E-01;0; -2.6075956E-01;  2.6215973E+04;  0.0000000E+00;  2.9303350E+00;  4.0000000E+04;  0.0000000E+00;  3.6669684E+04; -2.6436940E-01;  0.0000000E+00;  3.6098226E-03;  2.1219458E+03;
  1.9374222E+00;  9.9999998E-03;  2.0405844E-02;9878;  1.1421474E+00;  0.0000000E+00; -7.3983398E-04;  9.9399371E+02;  1.2822686E-01; -4.2133115E+03;3;  3.6873974E+01;  0.0000000E+00;  5.0722861E-01;0; -2.6075923E-01;  2.6215969E+04;  0.0000000E+00;  2.9303031E+00;  4.0000000E+04;  0.0000000E+00;  3.6669680E+04; -2.6436904E-01;  0.0000000E+00;  3.6098084E-03;  2.1219277E+03;
  1.9374987E+00;  9.9999998E-03;  1.6959279E-07;9876;  1.1410750E+00;  0.0000000E+00; -3.4482230E-08;  9.9381177E+02;  1.2822777E-01; -4.3402974E+03;3;  3.6828712E+01;  0.0000000E+00;  1.3768673E-05;0; -2.5883943E-01;  2.6210861E+04;  0.0000000E+00;  1.7286684E-11;  4.0000000E+04;  0.0000000E+00;  3.6664336E+04; -2.6082578E-01;  0.0000000E+00;  1.9863606E-03;  1.5369708E+03;
  1.9374814E+00;  9.9999998E-03; -1.0190585E-02;9875;  1.1413430E+00;  0.0000000E+00;  3.7616864E-04;  9.9385651E+02;  1.2822746E-01; -4.3090830E+03;3;  3.6840225E+01;  0.0000000E+00; -2.5359946E-01;0; -2.5932348E-01;  2.6211898E+04;  0.0000000E+00;  7.1757805E-01;  4.0000000E+04;  0.0000000E+00;  3.6665680E+04; -2.6170763E-01;  0.0000000E+00;  2.3841488E-03;  1.5590443E+03;
  1.9374814E+00;  9.9999998E-03;  1.0190925E-02;9877;  1.1413431E+00;  0.0000000E+00; -3.7623930E-04;  9.9385651E+02;  1.2822789E-01; -4.3090830E+03;3;  3.6840611E+01;  0.0000000E+00;  2.5360963E-01;0; -2.5932366E-01;  2.6211900E+04;  0.0000000E+00;  7.1756828E-01;  4.0000000E+04;  0.0000000E+00;  3.6665680E+04; -2.6170781E-01;  0.0000000E+00;  2.3841518E-03;  1.5590427E+03;
  1.9470694E+00;  9.9999998E-03; -9.5357902E-02;9903;  1.1609273E+00;  0.0000000E+00;  5.7911146E-03;  9.9436859E+02;  1.2763253E-01; -3.8769272E+03;3;  3.8033527E+01;  0.0000000E+00; -1.9183472E+00;0; -3.2211632E-01;  2.6655781E+04;  0.0000000E+00;  3.2501030E+01;  4.0000000E+04;  0.0000000E+00;  3.6428168E+04; -3.3843815E-01;  0.0000000E+00;  1.6321827E-02;  2.0161188E+04;
  1.9475176E+00;  9.9999998E-03; -8.4706612E-02;9904;  1.1563678E+00;  0.0000000E+00;  5.3339698E-03;  9.9446497E+02;  1.2761773E-01; -3.8071360E+03;3;  3.7818188E+01;  0.0000000E+00; -1.7367474E+00;0; -3.1665468E-01;  2.6670080E+04;  0.0000000E+00;  3.0661581E+01;  4.0000000E+04;  0.0000000E+00;  3.6423180E+04; -3.2443649E-01;  0.0000000E+00;  7.7818041E-03;  1.8020238E+04;
  1.9479260E+00;  9.9999998E-03; -7.3983006E-02;9905;  1.1523018E+00;  0.0000000E+00;  4.8341928E-03;  9.9465295E+02;  1.2760536E-01; -3.6748369E+03;3;  3.7628792E+01;  0.0000000E+00; -1.5420485E+00;0; -3.1077400E-01;  2.6682635E+04;  0.0000000E+00;  2.7602669E+01;  4.0000000E+04;  0.0000000E+00;  3.6425254E+04; -3.1044880E-01;  0.0000000E+00; -3.2519587E-04;  1.5366958E+04;
  1.9482808E+00;  9.9999998E-03; -6.3196048E-02;9906;  1.1487401E+00;  0.0000000E+00;  4.2800796E-03;  9.9487457E+02;  1.2759359E-01; -3.5199626E+03;3;  3.7459782E+01;  0.0000000E+00; -1.3386897E+00;0; -3.0492291E-01;  2.6693379E+04;  0.0000000E+00;  2.3975311E+01;  4.0000000E+04;  0.0000000E+00;  3.6431770E+04; -2.9734111E-01;  0.0000000E+00; -7.5818109E-03;  1.2576434E+04;
  1.9482808E+00;  9.9999998E-03;  6.3196376E-02;9918;  1.1487402E+00;  0.0000000E+00; -4.2801700E-03;  9.9487457E+02;  1.2759407E-01; -3.5199631E+03;3;  3.7459869E+01;  0.0000000E+00;  1.3386734E+00;0; -3.0492321E-01;  2.6693387E+04;  0.0000000E+00;  2.3975548E+01;  4.0000000E+04;  0.0000000E+00;  3.6431770E+04; -2.9734141E-01;  0.0000000E+00; -7.5817942E-03;  1.2576544E+04;
  1.9485741E+00;  9.9999998E-03; -5.2369524E-02;9907;  1.1456984E+00;  0.0000000E+00;  3.6691129E-03;  9.9505341E+02;  1.2758443E-01; -3.3951377E+03;3;  3.7315006E+01;  0.0000000E+00; -1.1246992E+00;0; -2.9949316E-01;  2.6700717E+04;  0.0000000E+00;  2.0017481E+01;  4.0000000E+04;  0.0000000E+00;  3.6438957E+04; -2.8572965E-01;  0.0000000E+00; -1.3763529E-02;  9.8409727E+03;
  1.9485741E+00;  9.9999998E-03;  5.2369859E-02;9917;  1.1456985E+00;  0.0000000E+00; -3.6692084E-03;  9.9505334E+02;  1.2758467E-01; -3.3951790E+03;3;  3.7314552E+01;  0.0000000E+00;  1.1246941E+00;0; -2.9949340E-01;  2.6700715E+04;  0.0000000E+00;  2.0017551E+01;  4.0000000E+04;  0.0000000E+00;  3.6438961E+04; -2.8572989E-01;  0.0000000E+00; -1.3763511E-02;  9.8410215E+03;
  1.9488089E+00;  9.9999998E-03; -4.1569721E-02;9908;  1.1432047E+00;  0.0000000E+00;  3.0076881E-03;  9.9509320E+02;  1.2757738E-01; -3.3662031E+03;3;  3.7196217E+01;  0.0000000E+00; -9.0238774E-01;0; -2.9480234E-01;  2.6703422E+04;  0.0000000E+00;  1.5465313E+01;  4.0000000E+04;  0.0000000E+00;  3.6441945E+04; -2.7603251E-01;  0.0000000E+00; -1.8769832E-02;  7.1523203E+03;
  1.9488088E+00;  9.9999998E-03;  4.1570064E-02;9916;  1.1432047E+00;  0.0000000E+00; -3.0077850E-03;  9.9509314E+02;  1.2757745E-01; -3.3662439E+03;3;  3.7197578E+01;  0.0000000E+00;  9.0234822E-01;0; -2.9480320E-01;  2.6703439E+04;  0.0000000E+00;  1.5465319E+01;  4.0000000E+04;  0.0000000E+00;  3.6441949E+04; -2.7603334E-01;  0.0000000E+00; -1.8769845E-02;  7.1523296E+03;
  1.9489886E+00;  9.9999998E-03; -3.0893566E-02;9909;  1.1412858E+00;  0.0000000E+00;  2.3024515E-03;  9.9495477E+02;  1.2757547E-01; -3.4599258E+03;3;  3.7104763E+01;  0.0000000E+00; -6.7521894E-01;0; -2.9104912E-01;  2.6701332E+04;  0.0000000E+00;  1.0284203E+01;  4.0000000E+04;  0.0000000E+00;  3.6436812E+04; -2.6848489E-01;  0.0000000E+00; -2.2564227E-02;  4.5506030E+03;
  1.9489886E+00;  9.9999998E-03;  3.0893905E-02;9915;  1.1412858E+00;  0.0000000E+00; -2.3025419E-03;  9.9495477E+02;  1.2757550E-01; -3.4599260E+03;3;  3.7103611E+01;  0.0000000E+00;  6.7525738E-01;0; -2.9104894E-01;  2.6701340E+04;  0.0000000E+00;  1.0284189E+01;  4.0000000E+04;  0.0000000E+00;  3.6436816E+04; -2.6848471E-01;  0.0000000E+00; -2.2564219E-02;  4.5506021E+03;
  1.9491180E+00;  9.9999998E-03; -2.0428827E-02;9910;  1.1399431E+00;  0.0000000E+00;  1.5608154E-03;  9.9468744E+02;  1.2757568E-01; -3.6422932E+03;3;  3.7035606E+01;  0.0000000E+00; -4.4807243E-01;0; -2.8836483E-01;  2.6696107E+04;  0.0000000E+00;  5.1512394E+00;  4.0000000E+04;  0.0000000E+00;  3.6425656E+04; -2.6318064E-01;  0.0000000E+00; -2.5184197E-02;  2.3409001E+03;
  1.9491180E+00;  9.9999998E-03;  2.0429168E-02;9914;  1.1399432E+00;  0.0000000E+00; -1.5609051E-03;  9.9468750E+02;  1.2757540E-01; -3.6422522E+03;3;  3.7036587E+01;  0.0000000E+00;  4.4812256E-01;0; -2.8836507E-01;  2.6696109E+04;  0.0000000E+00;  5.1512127E+00;  4.0000000E+04;  0.0000000E+00;  3.6425660E+04; -2.6318088E-01;  0.0000000E+00; -2.5184194E-02;  2.3408921E+03;
  1.9491973E+00;  9.9999998E-03; -1.0165196E-02;9911;  1.1391528E+00;  0.0000000E+00;  7.8962173E-04;  9.9443805E+02;  1.2757848E-01; -3.8126558E+03;3;  3.6996643E+01;  0.0000000E+00; -2.2321433E-01;0; -2.8677636E-01;  2.6690875E+04;  0.0000000E+00;  1.3678859E+00;  4.0000000E+04;  0.0000000E+00;  3.6414836E+04; -2.6006564E-01;  0.0000000E+00; -2.6710713E-02;  1.2350920E+03;
  1.9491973E+00;  9.9999998E-03;  1.0165537E-02;9913;  1.1391529E+00;  0.0000000E+00; -7.8971032E-04;  9.9443805E+02;  1.2757781E-01; -3.8126558E+03;3;  3.6997154E+01;  0.0000000E+00;  2.2323269E-01;0; -2.8677648E-01;  2.6690881E+04;  0.0000000E+00;  1.3678745E+00;  4.0000000E+04;  0.0000000E+00;  3.6414836E+04; -2.6006582E-01;  0.0000000E+00; -2.6710670E-02;  1.2351313E+03;
  1.9492235E+00;  9.9999998E-03;  1.7070886E-07;9912;  1.1388919E+00;  0.0000000E+00; -4.2827882E-08;  9.9434241E+02;  1.2757845E-01; -3.8780256E+03;3;  3.6982632E+01;  0.0000000E+00;  2.1457672E-05;0; -2.8624845E-01;  2.6689047E+04;  0.0000000E+00;  1.8887407E-11;  4.0000000E+04;  0.0000000E+00;  3.6410734E+04; -2.5903693E-01;  0.0000000E+00; -2.7211515E-02;  1.1995797E+03;
  1.9588792E+00;  9.9999998E-03; -9.5796756E-02;9937;  1.1589270E+00;  0.0000000E+00;  9.6482020E-03;  9.9574097E+02;  1.2707600E-01; -2.8606851E+03;3;  3.8353489E+01;  0.0000000E+00; -1.7183486E+00;0; -3.4278297E-01;  2.7124676E+04;  0.0000000E+00;  1.3186014E+01;  4.0000000E+04;  0.0000000E+00;  3.6203383E+04; -3.2877690E-01;  0.0000000E+00; -1.4006077E-02;  9.9568984E+03;
  1.9592915E+00;  9.9999998E-03; -8.5174903E-02;9938;  1.1543295E+00;  0.0000000E+00;  8.6936951E-03;  9.9550385E+02;  1.2706850E-01; -3.0172468E+03;3;  3.8119514E+01;  0.0000000E+00; -1.5469345E+00;0; -3.4024176E-01;  2.7126146E+04;  0.0000000E+00;  1.6203667E+01;  4.0000000E+04;  0.0000000E+00;  3.6188551E+04; -3.2007265E-01;  0.0000000E+00; -2.0169104E-02;  1.0257840E+04;
  1.9596685E+00;  9.9999998E-03; -7.4493363E-02;9939;  1.1502584E+00;  0.0000000E+00;  7.7282400E-03;  9.9542609E+02;  1.2706012E-01; -3.0669326E+03;3;  3.7903992E+01;  0.0000000E+00; -1.3698900E+00;0; -3.3635399E-01;  2.7130760E+04;  0.0000000E+00;  1.7176748E+01;  4.0000000E+04;  0.0000000E+00;  3.6181699E+04; -3.0950770E-01;  0.0000000E+00; -2.6846288E-02;  9.6719570E+03;
  1.9600018E+00;  9.9999998E-03; -6.3758999E-02;9940;  1.1467189E+00;  0.0000000E+00;  6.7373603E-03;  9.9546558E+02;  1.2705228E-01; -3.0382295E+03;3;  3.7712666E+01;  0.0000000E+00; -1.1856576E+00;0; -3.3165845E-01;  2.7136133E+04;  0.0000000E+00;  1.6591274E+01;  4.0000000E+04;  0.0000000E+00;  3.6180391E+04; -2.9830292E-01;  0.0000000E+00; -3.3355538E-02;  8.4933457E+03;
  1.9600018E+00;  9.9999998E-03;  6.3759342E-02;9952;  1.1467190E+00;  0.0000000E+00; -6.7374711E-03;  9.9546558E+02;  1.2705307E-01; -3.0382297E+03;3;  3.7712669E+01;  0.0000000E+00;  1.1857077E+00;0; -3.3165893E-01;  2.7136121E+04;  0.0000000E+00;  1.6591368E+01;  4.0000000E+04;  0.0000000E+00;  3.6180383E+04; -2.9830337E-01;  0.0000000E+00; -3.3355553E-02;  8.4933721E+03;
  1.9602829E+00;  9.9999998E-03; -5.2969113E-02;9941;  1.1437105E+00;  0.0000000E+00;  5.7006166E-03;  9.9558777E+02;  1.2704624E-01; -2.9545464E+03;3;  3.7546299E+01;  0.0000000E+00; -9.9456930E-01;0; -3.2671437E-01;  2.7142268E+04;  0.0000000E+00;  1.5165149E+01;  4.0000000E+04;  0.0000000E+00;  3.6184004E+04; -2.8746453E-01;  0.0000000E+00; -3.9249834E-02;  7.0596392E+03;
  1.9602829E+00;  9.9999998E-03;  5.2969441E-02;9951;  1.1437106E+00;  0.0000000E+00; -5.7007312E-03;  9.9558771E+02;  1.2704644E-01; -2.9545867E+03;3;  3.7546001E+01;  0.0000000E+00;  9.9456018E-01;0; -3.2671413E-01;  2.7142266E+04;  0.0000000E+00;  1.5165529E+01;  4.0000000E+04;  0.0000000E+00;  3.6184000E+04; -2.8746432E-01;  0.0000000E+00; -3.9249815E-02;  7.0597603E+03;
  1.9605092E+00;  9.9999998E-03; -4.2134669E-02;9942;  1.1412377E+00;  0.0000000E+00;  4.6121338E-03;  9.9572229E+02;  1.2704104E-01; -2.8630486E+03;3;  3.7408360E+01;  0.0000000E+00; -7.9723859E-01;0; -3.2208613E-01;  2.7147350E+04;  0.0000000E+00;  1.3166927E+01;  4.0000000E+04;  0.0000000E+00;  3.6189387E+04; -2.7781963E-01;  0.0000000E+00; -4.4266485E-02;  5.5544028E+03;
  1.9605092E+00;  9.9999998E-03;  4.2135019E-02;9950;  1.1412377E+00;  0.0000000E+00; -4.6122372E-03;  9.9572235E+02;  1.2704074E-01; -2.8630088E+03;3;  3.7407742E+01;  0.0000000E+00;  7.9727930E-01;0; -3.2208604E-01;  2.7147361E+04;  0.0000000E+00;  1.3166809E+01;  4.0000000E+04;  0.0000000E+00;  3.6189395E+04; -2.7781951E-01;  0.0000000E+00; -4.4266511E-02;  5.5543589E+03;
  1.9606841E+00;  9.9999998E-03; -3.1321544E-02;9943;  1.1393173E+00;  0.0000000E+00;  3.4857900E-03;  9.9573309E+02;  1.2703852E-01; -2.8547368E+03;3;  3.7298679E+01;  0.0000000E+00; -5.9590089E-01;0; -3.1824180E-01;  2.7149191E+04;  0.0000000E+00;  1.0158589E+01;  4.0000000E+04;  0.0000000E+00;  3.6189547E+04; -2.7000463E-01;  0.0000000E+00; -4.8237167E-02;  3.9236511E+03;
  1.9606841E+00;  9.9999998E-03;  3.1321887E-02;9949;  1.1393173E+00;  0.0000000E+00; -3.4859024E-03;  9.9573309E+02;  1.2703852E-01; -2.8547368E+03;3;  3.7297657E+01;  0.0000000E+00;  5.9596819E-01;0; -3.1824139E-01;  2.7149188E+04;  0.0000000E+00;  1.0158571E+01;  4.0000000E+04;  0.0000000E+00;  3.6189543E+04; -2.7000421E-01;  0.0000000E+00; -4.8237182E-02;  3.9236519E+03;
  1.9608119E+00;  9.9999998E-03; -2.0661144E-02;9944;  1.1379701E+00;  0.0000000E+00;  2.3384830E-03;  9.9552850E+02;  1.2703779E-01; -2.9907615E+03;3;  3.7219299E+01;  0.0000000E+00; -3.9446563E-01;0; -3.1543529E-01;  2.7146812E+04;  0.0000000E+00;  5.8911071E+00;  4.0000000E+04;  0.0000000E+00;  3.6179445E+04; -2.6437950E-01;  0.0000000E+00; -5.1055800E-02;  2.1355659E+03;
  1.9608119E+00;  9.9999998E-03;  2.0661497E-02;9948;  1.1379701E+00;  0.0000000E+00; -2.3385971E-03;  9.9552850E+02;  1.2703781E-01; -2.9907615E+03;3;  3.7220119E+01;  0.0000000E+00;  3.9446729E-01;0; -3.1543559E-01;  2.7146809E+04;  0.0000000E+00;  5.8910074E+00;  4.0000000E+04;  0.0000000E+00;  3.6179449E+04; -2.6437980E-01;  0.0000000E+00; -5.1055796E-02;  2.1355474E+03;
  1.9608926E+00;  9.9999998E-03; -1.0248152E-02;9945;  1.1371853E+00;  0.0000000E+00;  1.1761360E-03;  9.9522607E+02;  1.2703964E-01; -3.1924810E+03;3;  3.7174461E+01;  0.0000000E+00; -1.9596118E-01;0; -3.1375939E-01;  2.7142000E+04;  0.0000000E+00;  1.7241563E+00;  4.0000000E+04;  0.0000000E+00;  3.6165066E+04; -2.6105124E-01;  0.0000000E+00; -5.2708164E-02;  7.2754938E+02;
  1.9608926E+00;  9.9999998E-03;  1.0248506E-02;9947;  1.1371853E+00;  0.0000000E+00; -1.1762435E-03;  9.9522614E+02;  1.2703939E-01; -3.1924407E+03;3;  3.7174789E+01;  0.0000000E+00;  1.9597787E-01;0; -3.1375951E-01;  2.7141992E+04;  0.0000000E+00;  1.7241029E+00;  4.0000000E+04;  0.0000000E+00;  3.6165066E+04; -2.6105127E-01;  0.0000000E+00; -5.2708231E-02;  7.2749933E+02;
  1.9609203E+00;  9.9999998E-03;  1.7260639E-07;9946;  1.1369288E+00;  0.0000000E+00; -5.3345772E-08;  9.9508618E+02;  1.2704083E-01; -3.2858318E+03;3;  3.7158607E+01;  0.0000000E+00;  4.6491623E-06;0; -3.1320512E-01;  2.7139824E+04;  0.0000000E+00;  2.1379471E-11;  4.0000000E+04;  0.0000000E+00;  3.6158172E+04; -2.5995597E-01;  0.0000000E+00; -5.3249147E-02;  5.6990692E+02;
  1.9706818E+00;  9.9999998E-03; -9.6156605E-02;9968;  1.1573664E+00;  0.0000000E+00;  1.3377577E-02;  9.9753503E+02;  1.2661026E-01; -1.6125454E+03;3;  3.8646198E+01;  0.0000000E+00; -1.5445600E+00;0; -3.4972039E-01;  2.7574770E+04;  0.0000000E+00; -6.4806590E+00;  4.0000000E+04;  0.0000000E+00;  3.5992480E+04; -3.0278203E-01;  0.0000000E+00; -4.6938352E-02;  2.0157964E+03;
  1.9710610E+00;  9.9999998E-03; -8.5552618E-02;9969;  1.1526823E+00;  0.0000000E+00;  1.1990529E-02;  9.9707532E+02;  1.2660733E-01; -1.9116265E+03;3;  3.8402199E+01;  0.0000000E+00; -1.3756641E+00;0; -3.5201919E-01;  2.7568203E+04;  0.0000000E+00; -2.1964612E+00;  4.0000000E+04;  0.0000000E+00;  3.5971090E+04; -3.0236554E-01;  0.0000000E+00; -4.9653634E-02;  2.6660747E+03;
  1.9714093E+00;  9.9999998E-03; -7.4900165E-02;9970;  1.1485517E+00;  0.0000000E+00;  1.0582278E-02;  9.9676025E+02;  1.2660471E-01; -2.1158621E+03;3;  3.8174385E+01;  0.0000000E+00; -1.2082331E+00;0; -3.5217202E-01;  2.7565117E+04;  0.0000000E+00;  1.2296780E+00;  4.0000000E+04;  0.0000000E+00;  3.5954973E+04; -2.9835835E-01;  0.0000000E+00; -5.3813651E-02;  3.1858364E+03;
  1.9717194E+00;  9.9999998E-03; -6.4202689E-02;9971;  1.1449844E+00;  0.0000000E+00;  9.1614909E-03;  9.9657910E+02;  1.2660189E-01; -2.2325635E+03;3;  3.7967461E+01;  0.0000000E+00; -1.0392693E+00;0; -3.5053027E-01;  2.7564463E+04;  0.0000000E+00;  3.4107254E+00;  4.0000000E+04;  0.0000000E+00;  3.5944441E+04; -2.9191628E-01;  0.0000000E+00; -5.8613971E-02;  3.2775315E+03;
  1.9717194E+00;  9.9999998E-03;  6.4203039E-02;9983;  1.1449845E+00;  0.0000000E+00; -9.1616288E-03;  9.9657910E+02;  1.2660189E-01; -2.2325635E+03;3;  3.7967403E+01;  0.0000000E+00;  1.0392728E+00;0; -3.5053036E-01;  2.7564438E+04;  0.0000000E+00;  3.4104271E+00;  4.0000000E+04;  0.0000000E+00;  3.5944445E+04; -2.9191631E-01;  0.0000000E+00; -5.8614045E-02;  3.2774729E+03;
  1.9719850E+00;  9.9999998E-03; -5.3460378E-02;9972;  1.1419814E+00;  0.0000000E+00;  7.7091013E-03;  9.9650702E+02;  1.2659830E-01; -2.2781931E+03;3;  3.7785778E+01;  0.0000000E+00; -8.6793572E-01;0; -3.4760886E-01;  2.7566051E+04;  0.0000000E+00;  4.5417519E+00;  4.0000000E+04;  0.0000000E+00;  3.5939207E+04; -2.8419194E-01;  0.0000000E+00; -6.3416936E-02;  3.0258762E+03;
  1.9719850E+00;  9.9999998E-03;  5.3460777E-02;9982;  1.1419815E+00;  0.0000000E+00; -7.7092419E-03;  9.9650708E+02;  1.2659858E-01; -2.2781543E+03;3;  3.7785686E+01;  0.0000000E+00;  8.6800611E-01;0; -3.4760925E-01;  2.7566041E+04;  0.0000000E+00;  4.5405564E+00;  4.0000000E+04;  0.0000000E+00;  3.5939207E+04; -2.8419217E-01;  0.0000000E+00; -6.3417077E-02;  3.0255898E+03;
  1.9722027E+00;  9.9999998E-03; -4.2675685E-02;9973;  1.1395291E+00;  0.0000000E+00;  6.2097101E-03;  9.9650647E+02;  1.2659541E-01; -2.2774341E+03;3;  3.7636063E+01;  0.0000000E+00; -6.9488829E-01;0; -3.4423041E-01;  2.7568373E+04;  0.0000000E+00;  4.9344401E+00;  4.0000000E+04;  0.0000000E+00;  3.5937551E+04; -2.7644542E-01;  0.0000000E+00; -6.7784987E-02;  2.5916897E+03;
  1.9722027E+00;  9.9999998E-03;  4.2676061E-02;9981;  1.1395292E+00;  0.0000000E+00; -6.2098466E-03;  9.9650653E+02;  1.2659515E-01; -2.2773950E+03;3;  3.7633720E+01;  0.0000000E+00;  6.9506800E-01;0; -3.4422880E-01;  2.7568383E+04;  0.0000000E+00;  4.9338408E+00;  4.0000000E+04;  0.0000000E+00;  3.5937547E+04; -2.7644378E-01;  0.0000000E+00; -6.7785040E-02;  2.5915681E+03;
  1.9723706E+00;  9.9999998E-03; -3.1858206E-02;9974;  1.1376154E+00;  0.0000000E+00;  4.6691652E-03;  9.9651630E+02;  1.2659338E-01; -2.2701389E+03;3;  3.7513020E+01;  0.0000000E+00; -5.2030271E-01;0; -3.4118718E-01;  2.7570705E+04;  0.0000000E+00;  4.7440677E+00;  4.0000000E+04;  0.0000000E+00;  3.5936902E+04; -2.6976222E-01;  0.0000000E+00; -7.1424969E-02;  2.0862534E+03;
  1.9723706E+00;  9.9999998E-03;  3.1858549E-02;9980;  1.1376154E+00;  0.0000000E+00; -4.6693049E-03;  9.9651630E+02;  1.2659305E-01; -2.2701392E+03;3;  3.7514324E+01;  0.0000000E+00;  5.2026892E-01;0; -3.4118798E-01;  2.7570701E+04;  0.0000000E+00;  4.7440696E+00;  4.0000000E+04;  0.0000000E+00;  3.5936906E+04; -2.6976302E-01;  0.0000000E+00; -7.1424954E-02;  2.0862378E+03;
  1.9724919E+00;  9.9999998E-03; -2.1079151E-02;9975;  1.1362500E+00;  0.0000000E+00;  3.1129993E-03;  9.9640765E+02;  1.2659247E-01; -2.3402881E+03;3;  3.7423733E+01;  0.0000000E+00; -3.4513998E-01;0; -3.3894411E-01;  2.7570322E+04;  0.0000000E+00;  3.4468746E+00;  4.0000000E+04;  0.0000000E+00;  3.5930629E+04; -2.6481667E-01;  0.0000000E+00; -7.4127436E-02;  1.3985132E+03;
  1.9724919E+00;  9.9999998E-03;  2.1079499E-02;9979;  1.1362501E+00;  0.0000000E+00; -3.1131399E-03;  9.9640759E+02;  1.2659222E-01; -2.3403271E+03;3;  3.7425278E+01;  0.0000000E+00;  3.4510243E-01;0; -3.3894476E-01;  2.7570361E+04;  0.0000000E+00;  3.4468546E+00;  4.0000000E+04;  0.0000000E+00;  3.5930629E+04; -2.6481733E-01;  0.0000000E+00; -7.4127428E-02;  1.3984049E+03;
  1.9725676E+00;  9.9999998E-03; -1.0461154E-02;9976;  1.1354482E+00;  0.0000000E+00;  1.5575320E-03;  9.9617273E+02;  1.2659284E-01; -2.4928792E+03;3;  3.7372494E+01;  0.0000000E+00; -1.7158508E-01;0; -3.3755893E-01;  2.7567469E+04;  0.0000000E+00;  1.1876749E+00;  4.0000000E+04;  0.0000000E+00;  3.5917832E+04; -2.6180193E-01;  0.0000000E+00; -7.5756982E-02;  5.9735352E+02;
  1.9725676E+00;  9.9999998E-03;  1.0461509E-02;9978;  1.1354483E+00;  0.0000000E+00; -1.5576624E-03;  9.9617267E+02;  1.2659256E-01; -2.4929182E+03;3;  3.7373020E+01;  0.0000000E+00;  1.7159379E-01;0; -3.3755919E-01;  2.7567471E+04;  0.0000000E+00;  1.1876253E+00;  4.0000000E+04;  0.0000000E+00;  3.5917828E+04; -2.6180220E-01;  0.0000000E+00; -7.5756997E-02;  5.9727966E+02;
  1.9725940E+00;  9.9999998E-03;  1.7784262E-07;9977;  1.1351858E+00;  0.0000000E+00; -6.3871958E-08;  9.9604236E+02;  1.2659372E-01; -2.5776279E+03;3;  3.7354206E+01;  0.0000000E+00;  2.3841858E-07;0; -3.3709666E-01;  2.7565727E+04;  0.0000000E+00;  2.5520084E-11;  4.0000000E+04;  0.0000000E+00;  3.5911258E+04; -2.6080170E-01;  0.0000000E+00; -7.6294966E-02;  3.0707874E+02;
  1.9824497E+00;  9.9999998E-03; -9.6525550E-02;9995;  1.1563820E+00;  0.0000000E+00;  1.6880749E-02;  9.9880511E+02;  1.2623581E-01; -7.6029626E+02;3;  3.8890884E+01;  0.0000000E+00; -1.3978696E+00;0; -3.4099171E-01;  2.7984889E+04;  0.0000000E+00; -5.2216349E+00;  4.0000000E+04;  0.0000000E+00;  3.5758996E+04; -2.5867024E-01;  0.0000000E+00; -8.2321472E-02;  2.9088909E+03;
  1.9828075E+00;  9.9999998E-03; -8.5943744E-02;9996;  1.1516248E+00;  0.0000000E+00;  1.5105608E-02;  9.9832214E+02;  1.2623613E-01; -1.0666869E+03;3;  3.8647373E+01;  0.0000000E+00; -1.2278003E+00;0; -3.4741741E-01;  2.7977156E+04;  0.0000000E+00; -9.0503311E+00;  4.0000000E+04;  0.0000000E+00;  3.5736461E+04; -2.6682746E-01;  0.0000000E+00; -8.0589935E-02;  2.7515449E+03;
  1.9831309E+00;  9.9999998E-03; -7.5314894E-02;9997;  1.1473963E+00;  0.0000000E+00;  1.3307990E-02;  9.9795020E+02;  1.2623349E-01; -1.3021217E+03;3;  3.8418530E+01;  0.0000000E+00; -1.0668544E+00;0; -3.5244116E-01;  2.7972607E+04;  0.0000000E+00; -9.3062677E+00;  4.0000000E+04;  0.0000000E+00;  3.5718418E+04; -2.7112713E-01;  0.0000000E+00; -8.1314035E-02;  2.4094622E+03;
  1.9834185E+00;  9.9999998E-03; -6.4642869E-02;9998;  1.1437418E+00;  0.0000000E+00;  1.1502502E-02;  9.9767017E+02;  1.2623011E-01; -1.4789757E+03;3;  3.8206860E+01;  0.0000000E+00; -9.0897065E-01;0; -3.5537711E-01;  2.7969830E+04;  0.0000000E+00; -7.9796910E+00;  4.0000000E+04;  0.0000000E+00;  3.5704375E+04; -2.7181932E-01;  0.0000000E+00; -8.3557792E-02;  2.0593413E+03;
  1.9834185E+00;  9.9999998E-03;  6.4643241E-02;10010;  1.1437420E+00;  0.0000000E+00; -1.1502663E-02;  9.9767017E+02;  1.2622997E-01; -1.4789757E+03;3;  3.8206501E+01;  0.0000000E+00;  9.0903389E-01;0; -3.5537699E-01;  2.7969805E+04;  0.0000000E+00; -7.9802136E+00;  4.0000000E+04;  0.0000000E+00;  3.5704379E+04; -2.7181920E-01;  0.0000000E+00; -8.3557785E-02;  2.0594414E+03;
  1.9836676E+00;  9.9999998E-03; -5.3935204E-02;9999;  1.1406887E+00;  0.0000000E+00;  9.6666431E-03;  9.9745605E+02;  1.2622662E-01; -1.6139131E+03;3;  3.8019810E+01;  0.0000000E+00; -7.5329876E-01;0; -3.5603282E-01;  2.7967857E+04;  0.0000000E+00; -6.2230692E+00;  4.0000000E+04;  0.0000000E+00;  3.5693469E+04; -2.6952252E-01;  0.0000000E+00; -8.6510301E-02;  1.7959814E+03;
  1.9836676E+00;  9.9999998E-03;  5.3935524E-02;10009;  1.1406888E+00;  0.0000000E+00; -9.6667875E-03;  9.9745605E+02;  1.2622662E-01; -1.6139132E+03;3;  3.8019333E+01;  0.0000000E+00;  7.5342631E-01;0; -3.5603225E-01;  2.7967887E+04;  0.0000000E+00; -6.2226148E+00;  4.0000000E+04;  0.0000000E+00;  3.5693469E+04; -2.6952189E-01;  0.0000000E+00; -8.6510375E-02;  1.7959774E+03;
  1.9838744E+00;  9.9999998E-03; -4.3201122E-02;10000;  1.1382084E+00;  0.0000000E+00;  7.7795056E-03;  9.9730182E+02;  1.2622456E-01; -1.7109194E+03;3;  3.7861320E+01;  0.0000000E+00; -6.0059530E-01;0; -3.5535961E-01;  2.7966885E+04;  0.0000000E+00; -4.5236850E+00;  4.0000000E+04;  0.0000000E+00;  3.5684828E+04; -2.6577735E-01;  0.0000000E+00; -8.9582272E-02;  1.6114408E+03;
  1.9838744E+00;  9.9999998E-03;  4.3201473E-02;10008;  1.1382085E+00;  0.0000000E+00; -7.7796816E-03;  9.9730164E+02;  1.2622395E-01; -1.7110328E+03;3;  3.7860672E+01;  0.0000000E+00;  6.0058451E-01;0; -3.5536122E-01;  2.7966889E+04;  0.0000000E+00; -4.5237827E+00;  4.0000000E+04;  0.0000000E+00;  3.5684832E+04; -2.6577884E-01;  0.0000000E+00; -8.9582369E-02;  1.6114633E+03;
  1.9840355E+00;  9.9999998E-03; -3.2441668E-02;10001;  1.1362672E+00;  0.0000000E+00;  5.8552697E-03;  9.9721271E+02;  1.2622273E-01; -1.7667341E+03;3;  3.7734676E+01;  0.0000000E+00; -4.5021439E-01;0; -3.5446107E-01;  2.7966803E+04;  0.0000000E+00; -2.9265990E+00;  4.0000000E+04;  0.0000000E+00;  3.5678992E+04; -2.6207820E-01;  0.0000000E+00; -9.2382886E-02;  1.4882638E+03;
  1.9840355E+00;  9.9999998E-03;  3.2441970E-02;10007;  1.1362672E+00;  0.0000000E+00; -5.8554187E-03;  9.9721259E+02;  1.2622182E-01; -1.7668098E+03;3;  3.7734840E+01;  0.0000000E+00;  4.5014501E-01;0; -3.5446194E-01;  2.7966854E+04;  0.0000000E+00; -2.9260986E+00;  4.0000000E+04;  0.0000000E+00;  3.5678996E+04; -2.6207900E-01;  0.0000000E+00; -9.2382930E-02;  1.4881877E+03;
  1.9841495E+00;  9.9999998E-03; -2.1648983E-02;10002;  1.1348635E+00;  0.0000000E+00;  3.9091068E-03;  9.9718622E+02;  1.2622228E-01; -1.7830162E+03;3;  3.7641499E+01;  0.0000000E+00; -3.0037296E-01;0; -3.5378733E-01;  2.7967561E+04;  0.0000000E+00; -1.4265954E+00;  4.0000000E+04;  0.0000000E+00;  3.5676512E+04; -2.5918010E-01;  0.0000000E+00; -9.4607234E-02;  1.4286891E+03;
  1.9841495E+00;  9.9999998E-03;  2.1649325E-02;10006;  1.1348636E+00;  0.0000000E+00; -3.9092568E-03;  9.9718622E+02;  1.2622195E-01; -1.7830162E+03;3;  3.7640606E+01;  0.0000000E+00;  3.0032909E-01;0; -3.5378608E-01;  2.7967541E+04;  0.0000000E+00; -1.4265823E+00;  4.0000000E+04;  0.0000000E+00;  3.5676512E+04; -2.5917885E-01;  0.0000000E+00; -9.4607234E-02;  1.4286577E+03;
  1.9842172E+00;  9.9999998E-03; -1.0826607E-02;10003;  1.1340132E+00;  0.0000000E+00;  1.9544663E-03;  9.9718335E+02;  1.2622051E-01; -1.7845739E+03;3;  3.7582993E+01;  0.0000000E+00; -1.5020025E-01;0; -3.5339856E-01;  2.7968270E+04;  0.0000000E+00; -3.5483295E-01;  4.0000000E+04;  0.0000000E+00;  3.5675430E+04; -2.5736549E-01;  0.0000000E+00; -9.6033059E-02;  1.4062213E+03;
  1.9842172E+00;  9.9999998E-03;  1.0826976E-02;10005;  1.1340132E+00;  0.0000000E+00; -1.9546128E-03;  9.9718341E+02;  1.2621981E-01; -1.7845361E+03;3;  3.7583389E+01;  0.0000000E+00;  1.5023184E-01;0; -3.5339886E-01;  2.7968262E+04;  0.0000000E+00; -3.5493115E-01;  4.0000000E+04;  0.0000000E+00;  3.5675434E+04; -2.5736576E-01;  0.0000000E+00; -9.6033096E-02;  1.4062817E+03;
  1.9842397E+00;  9.9999998E-03;  1.8710749E-07;10004;  1.1337303E+00;  0.0000000E+00; -7.2849254E-08;  9.9718091E+02;  1.2622027E-01; -1.7860244E+03;3;  3.7562458E+01;  0.0000000E+00;  1.3828278E-05;0; -3.5325256E-01;  2.7968709E+04;  0.0000000E+00;  1.4474651E-10;  4.0000000E+04;  0.0000000E+00;  3.5674875E+04; -2.5672907E-01;  0.0000000E+00; -9.6523501E-02;  1.3950776E+03;
  1.9941131E+00;  9.9999998E-03; -9.6738823E-02;10017;  1.1554267E+00;  0.0000000E+00;  2.0037608E-02;  1.0004723E+03;  1.2591653E-01;  2.9204770E+02;3;  3.9082775E+01;  0.0000000E+00; -1.3077509E+00;0; -3.2961920E-01;  2.8375496E+04;  0.0000000E+00;  4.2313641E+01;  4.0000000E+04;  0.0000000E+00;  3.5551852E+04; -2.0965394E-01;  0.0000000E+00; -1.1996526E-01;  8.4462158E+03;
  1.9944794E+00;  9.9999998E-03; -8.6232424E-02;10018;  1.1508048E+00;  0.0000000E+00;  1.7923497E-02;  9.9953516E+02;  1.2592335E-01; -2.8717850E+02;3;  3.8840569E+01;  0.0000000E+00; -1.1199539E+00;0; -3.3444250E-01;  2.8358961E+04;  0.0000000E+00;  2.1235086E+01;  4.0000000E+04;  0.0000000E+00;  3.5507383E+04; -2.2148155E-01;  0.0000000E+00; -1.1296095E-01;  4.9643911E+03;
  1.9948008E+00;  9.9999998E-03; -7.5665712E-02;10019;  1.1466268E+00;  0.0000000E+00;  1.5795302E-02;  9.9891034E+02;  1.2592921E-01; -6.7261285E+02;3;  3.8613750E+01;  0.0000000E+00; -9.5531291E-01;0; -3.4035340E-01;  2.8348697E+04;  0.0000000E+00;  8.1660709E+00;  4.0000000E+04;  0.0000000E+00;  3.5475887E+04; -2.3088142E-01;  0.0000000E+00; -1.0947198E-01;  3.1884492E+03;
  1.9950806E+00;  9.9999998E-03; -6.5053545E-02;10020;  1.1429642E+00;  0.0000000E+00;  1.3668464E-02;  9.9845557E+02;  1.2593167E-01; -9.5267847E+02;3;  3.8405807E+01;  0.0000000E+00; -8.0362839E-01;0; -3.4578589E-01;  2.8341600E+04;  0.0000000E+00;  7.9159623E-01;  4.0000000E+04;  0.0000000E+00;  3.5452371E+04; -2.3734526E-01;  0.0000000E+00; -1.0844062E-01;  2.4981616E+03;
  1.9950806E+00;  9.9999998E-03;  6.5053910E-02;10032;  1.1429644E+00;  0.0000000E+00; -1.3668649E-02;  9.9845557E+02;  1.2593129E-01; -9.5267847E+02;3;  3.8406078E+01;  0.0000000E+00;  8.0363423E-01;0; -3.4578606E-01;  2.8341613E+04;  0.0000000E+00;  7.9166549E-01;  4.0000000E+04;  0.0000000E+00;  3.5452363E+04; -2.3734525E-01;  0.0000000E+00; -1.0844081E-01;  2.4981438E+03;
  1.9953187E+00;  9.9999998E-03; -5.4395091E-02;10021;  1.1398994E+00;  0.0000000E+00;  1.1489936E-02;  9.9816119E+02;  1.2593229E-01; -1.1335988E+03;3;  3.8218079E+01;  0.0000000E+00; -6.5849882E-01;0; -3.4898287E-01;  2.8337781E+04;  0.0000000E+00; -2.7582917E+00;  4.0000000E+04;  0.0000000E+00;  3.5436164E+04; -2.4018501E-01;  0.0000000E+00; -1.0879785E-01;  2.2852129E+03;
  1.9953187E+00;  9.9999998E-03;  5.4395437E-02;10031;  1.1398995E+00;  0.0000000E+00; -1.1490107E-02;  9.9816125E+02;  1.2593220E-01; -1.1335620E+03;3;  3.8218590E+01;  0.0000000E+00;  6.5855682E-01;0; -3.4898251E-01;  2.8337773E+04;  0.0000000E+00; -2.7582753E+00;  4.0000000E+04;  0.0000000E+00;  3.5436172E+04; -2.4018466E-01;  0.0000000E+00; -1.0879786E-01;  2.2852100E+03;
  1.9955153E+00;  9.9999998E-03; -4.3704871E-02;10022;  1.1373705E+00;  0.0000000E+00;  9.2442678E-03;  9.9796503E+02;  1.2593187E-01; -1.2539124E+03;3;  3.8061745E+01;  0.0000000E+00; -5.2105832E-01;0; -3.5124606E-01;  2.8335293E+04;  0.0000000E+00; -3.9037035E+00;  4.0000000E+04;  0.0000000E+00;  3.5424941E+04; -2.4133675E-01;  0.0000000E+00; -1.0990931E-01;  2.1672964E+03;
  1.9955153E+00;  9.9999998E-03;  4.3705210E-02;10030;  1.1373705E+00;  0.0000000E+00; -9.2444448E-03;  9.9796497E+02;  1.2593193E-01; -1.2539491E+03;3;  3.8062103E+01;  0.0000000E+00;  5.2107358E-01;0; -3.5124749E-01;  2.8335291E+04;  0.0000000E+00; -3.9036713E+00;  4.0000000E+04;  0.0000000E+00;  3.5424945E+04; -2.4133807E-01;  0.0000000E+00; -1.0990942E-01;  2.1673008E+03;
  1.9956684E+00;  9.9999998E-03; -3.2994393E-02;10023;  1.1353693E+00;  0.0000000E+00;  6.9789761E-03;  9.9786414E+02;  1.2593076E-01; -1.3155891E+03;3;  3.7933800E+01;  0.0000000E+00; -3.8932246E-01;0; -3.5317767E-01;  2.8334287E+04;  0.0000000E+00; -3.6841624E+00;  4.0000000E+04;  0.0000000E+00;  3.5418855E+04; -2.4180131E-01;  0.0000000E+00; -1.1137637E-01;  2.0695654E+03;
  1.9956684E+00;  9.9999998E-03;  3.2994695E-02;10029;  1.1353692E+00;  0.0000000E+00; -6.9791437E-03;  9.9786395E+02;  1.2593049E-01; -1.3156995E+03;3;  3.7934475E+01;  0.0000000E+00;  3.8928771E-01;0; -3.5318080E-01;  2.8334275E+04;  0.0000000E+00; -3.6839559E+00;  4.0000000E+04;  0.0000000E+00;  3.5418871E+04; -2.4180423E-01;  0.0000000E+00; -1.1137658E-01;  2.0695227E+03;
  1.9957758E+00;  9.9999998E-03; -2.2229098E-02;10024;  1.1339091E+00;  0.0000000E+00;  4.6861582E-03;  9.9795087E+02;  1.2592889E-01; -1.2618326E+03;3;  3.7839394E+01;  0.0000000E+00; -2.6024169E-01;0; -3.5470200E-01;  2.8335928E+04;  0.0000000E+00; -2.6010489E+00;  4.0000000E+04;  0.0000000E+00;  3.5422383E+04; -2.4195051E-01;  0.0000000E+00; -1.1275149E-01;  2.1165320E+03;
  1.9957758E+00;  9.9999998E-03;  2.2229372E-02;10028;  1.1339091E+00;  0.0000000E+00; -4.6863095E-03;  9.9795074E+02;  1.2592912E-01; -1.2619060E+03;3;  3.7839279E+01;  0.0000000E+00;  2.6024103E-01;0; -3.5470256E-01;  2.8335961E+04;  0.0000000E+00; -2.6007943E+00;  4.0000000E+04;  0.0000000E+00;  3.5422391E+04; -2.4195103E-01;  0.0000000E+00; -1.1275152E-01;  2.1164619E+03;
  1.9958361E+00;  9.9999998E-03; -1.1263793E-02;10025;  1.1329986E+00;  0.0000000E+00;  2.3537583E-03;  9.9830444E+02;  1.2592351E-01; -1.0439496E+03;3;  3.7779022E+01;  0.0000000E+00; -1.3121319E-01;0; -3.5578972E-01;  2.8340818E+04;  0.0000000E+00; -9.5255715E-01;  4.0000000E+04;  0.0000000E+00;  3.5441043E+04; -2.4204643E-01;  0.0000000E+00; -1.1374331E-01;  2.4553303E+03;
  1.9958361E+00;  9.9999998E-03;  1.1264174E-02;10027;  1.1329986E+00;  0.0000000E+00; -2.3539239E-03;  9.9830438E+02;  1.2592351E-01; -1.0439862E+03;3;  3.7779121E+01;  0.0000000E+00;  1.3120174E-01;0; -3.5579014E-01;  2.8340828E+04;  0.0000000E+00; -9.5259684E-01;  4.0000000E+04;  0.0000000E+00;  3.5441043E+04; -2.4204683E-01;  0.0000000E+00; -1.1374332E-01;  2.4552876E+03;
  1.9958543E+00;  9.9999998E-03;  1.9324528E-07;10026;  1.1326804E+00;  0.0000000E+00; -8.1962831E-08;  9.9855817E+02;  1.2592064E-01; -8.8768567E+02;3;  3.7758358E+01;  0.0000000E+00; -6.5565109E-06;0; -3.5624436E-01;  2.8344490E+04;  0.0000000E+00;  6.4625499E-10;  4.0000000E+04;  0.0000000E+00;  3.5454406E+04; -2.4212092E-01;  0.0000000E+00; -1.1412344E-01;  2.7258828E+03;
  2.0069113E+00;  9.9999998E-03; -5.4621857E-02;10036;  1.1389254E+00;  0.0000000E+00;  1.3075432E-02;  9.9911749E+02;  1.2568088E-01; -5.2839691E+02;3;  3.8384693E+01;  0.0000000E+00; -6.0403872E-01;0; -3.4055272E-01;  2.8679332E+04;  0.0000000E+00;  2.8389267E+01;  4.0000000E+04;  0.0000000E+00;  3.5210434E+04; -2.0994379E-01;  0.0000000E+00; -1.3060893E-01;  5.7011611E+03;
  2.0069113E+00;  9.9999998E-03;  5.4622196E-02;10046;  1.1389256E+00;  0.0000000E+00; -1.3075609E-02;  9.9911755E+02;  1.2568095E-01; -5.2836127E+02;3;  3.8384548E+01;  0.0000000E+00;  6.0400784E-01;0; -3.4055227E-01;  2.8679332E+04;  0.0000000E+00;  2.8389166E+01;  4.0000000E+04;  0.0000000E+00;  3.5210426E+04; -2.0994325E-01;  0.0000000E+00; -1.3060901E-01;  5.7011875E+03;
  2.0071075E+00;  9.9999998E-03; -4.3985948E-02;10037;  1.1363790E+00;  0.0000000E+00;  1.0527658E-02;  9.9870325E+02;  1.2567839E-01; -7.7604248E+02;3;  3.8230614E+01;  0.0000000E+00; -4.6873376E-01;0; -3.4410107E-01;  2.8673314E+04;  0.0000000E+00;  1.8467493E+01;  4.0000000E+04;  0.0000000E+00;  3.5190008E+04; -2.1495982E-01;  0.0000000E+00; -1.2914127E-01;  4.2675532E+03;
  2.0071075E+00;  9.9999998E-03;  4.3986343E-02;10045;  1.1363791E+00;  0.0000000E+00; -1.0527858E-02;  9.9870331E+02;  1.2567770E-01; -7.7600671E+02;3;  3.8230785E+01;  0.0000000E+00;  4.6876979E-01;0; -3.4410080E-01;  2.8673301E+04;  0.0000000E+00;  1.8468294E+01;  4.0000000E+04;  0.0000000E+00;  3.5189996E+04; -2.1495916E-01;  0.0000000E+00; -1.2914164E-01;  4.2676553E+03;
  2.0072594E+00;  9.9999998E-03; -3.3329189E-02;10038;  1.1343471E+00;  0.0000000E+00;  7.9745781E-03;  9.9848096E+02;  1.2567538E-01; -9.0870660E+02;3;  3.8105133E+01;  0.0000000E+00; -3.4466714E-01;0; -3.4767196E-01;  2.8669740E+04;  0.0000000E+00;  1.1671153E+01;  4.0000000E+04;  0.0000000E+00;  3.5179531E+04; -2.1891485E-01;  0.0000000E+00; -1.2875710E-01;  3.4549187E+03;
  2.0072594E+00;  9.9999998E-03;  3.3329558E-02;10044;  1.1343471E+00;  0.0000000E+00; -7.9747569E-03;  9.9848102E+02;  1.2567519E-01; -9.0867090E+02;3;  3.8106194E+01;  0.0000000E+00;  3.4461427E-01;0; -3.4767306E-01;  2.8669717E+04;  0.0000000E+00;  1.1671446E+01;  4.0000000E+04;  0.0000000E+00;  3.5179527E+04; -2.1891594E-01;  0.0000000E+00; -1.2875710E-01;  3.4549651E+03;
  2.0073652E+00;  9.9999998E-03; -2.2622302E-02;10039;  1.1328552E+00;  0.0000000E+00;  5.3759711E-03;  9.9857574E+02;  1.2567054E-01; -8.5178412E+02;3;  3.8014088E+01;  0.0000000E+00; -2.2846651E-01;0; -3.5061562E-01;  2.8670154E+04;  0.0000000E+00;  6.7143817E+00;  4.0000000E+04;  0.0000000E+00;  3.5185820E+04; -2.2176175E-01;  0.0000000E+00; -1.2885386E-01;  3.2310505E+03;
  2.0073652E+00;  9.9999998E-03;  2.2622636E-02;10043;  1.1328553E+00;  0.0000000E+00; -5.3761401E-03;  9.9857581E+02;  1.2567000E-01; -8.5174847E+02;3;  3.8013069E+01;  0.0000000E+00;  2.2847867E-01;0; -3.5061210E-01;  2.8670166E+04;  0.0000000E+00;  6.7143979E+00;  4.0000000E+04;  0.0000000E+00;  3.5185816E+04; -2.2175822E-01;  0.0000000E+00; -1.2885390E-01;  3.2309956E+03;
  2.0074220E+00;  9.9999998E-03; -1.1616780E-02;10040;  1.1319084E+00;  0.0000000E+00;  2.7014259E-03;  9.9923468E+02;  1.2566127E-01; -4.5764105E+02;3;  3.7952309E+01;  0.0000000E+00; -1.1526489E-01;0; -3.5272014E-01;  2.8677244E+04;  0.0000000E+00;  2.3482764E+00;  4.0000000E+04;  0.0000000E+00;  3.5223289E+04; -2.2359544E-01;  0.0000000E+00; -1.2912470E-01;  3.7819312E+03;
  2.0074368E+00;  9.9999998E-03;  1.9683564E-07;10041;  1.1315650E+00;  0.0000000E+00; -8.7641901E-08;  9.9980554E+02;  1.2565644E-01; -1.1625928E+02;3;  3.7931423E+01;  0.0000000E+00;  2.0623207E-05;0; -3.5363978E-01;  2.8683895E+04;  0.0000000E+00;  1.4825745E-09;  4.0000000E+04;  0.0000000E+00;  3.5255273E+04; -2.2432519E-01;  0.0000000E+00; -1.2931457E-01;  4.3742959E+03;
  2.0074220E+00;  9.9999998E-03;  1.1617160E-02;10042;  1.1319084E+00;  0.0000000E+00; -2.7016075E-03;  9.9923456E+02;  1.2566161E-01; -4.5771234E+02;3;  3.7952183E+01;  0.0000000E+00;  1.1529422E-01;0; -3.5272080E-01;  2.8677234E+04;  0.0000000E+00;  2.3484521E+00;  4.0000000E+04;  0.0000000E+00;  3.5223293E+04; -2.2359595E-01;  0.0000000E+00; -1.2912484E-01;  3.7818450E+03;
  4.1782041E-03;  9.9999998E-03;  6.9969490E-02;2484;  6.2253082E-04;  0.0000000E+00;  8.5523789E-05;  9.8566797E+02;  1.0000000E-01; -1.1873837E+04;3;  8.1355614E+01;  0.0000000E+00; -1.3197070E-01;0; -1.7846428E-02;  3.8879480E+04;  0.0000000E+00; -3.7813666E-03;  4.0000000E+04;  0.0000000E+00;  3.9998746E+04; -1.8317197E-02;  0.0000000E+00;  4.7076930E-04;  1.0211160E+03;
  4.1930685E-03;  9.9999998E-03;  7.9965740E-02;2485;  6.4145389E-04;  0.0000000E+00;  8.9668465E-05;  9.8566614E+02;  1.0000000E-01; -1.1875318E+04;3;  8.0907738E+01;  0.0000000E+00; -3.7066305E-01;0; -1.7816672E-02;  3.8879742E+04;  0.0000000E+00; -6.0961847E-03;  4.0000000E+04;  0.0000000E+00;  3.9998348E+04; -1.8280078E-02;  0.0000000E+00;  4.6340501E-04;  9.5473914E+02;
  4.2033070E-03;  9.9999998E-03;  8.9964777E-02;2486;  6.5276836E-04;  0.0000000E+00;  9.4699913E-05;  9.8566608E+02;  1.0000000E-01; -1.1875368E+04;3;  8.0530914E+01;  0.0000000E+00; -6.8702352E-01;0; -1.7790077E-02;  3.8880438E+04;  0.0000000E+00; -1.0135887E-02;  4.0000000E+04;  0.0000000E+00;  3.9997715E+04; -1.8249530E-02;  0.0000000E+00;  4.5945364E-04;  8.8950043E+02;
  4.2075394E-03;  9.9999998E-03;  9.9966541E-02;2487;  6.5318338E-04;  0.0000000E+00;  1.0146626E-04;  9.8567297E+02;  1.0000000E-01; -1.1869689E+04;3;  8.0237846E+01;  0.0000000E+00; -1.0862309E+00;0; -1.7764237E-02;  3.8881375E+04;  0.0000000E+00; -1.7312495E-02;  4.0000000E+04;  0.0000000E+00;  3.9997277E+04; -1.8221311E-02;  0.0000000E+00;  4.5707481E-04;  8.2949353E+02;
  4.2046369E-03;  9.9999998E-03;  1.0997003E-01;2488;  6.4104534E-04;  0.0000000E+00;  1.1039111E-04;  9.8568610E+02;  1.0000000E-01; -1.1858775E+04;3;  8.0087524E+01;  0.0000000E+00; -1.5728364E+00;0; -1.7733039E-02;  3.8882578E+04;  0.0000000E+00; -2.9832778E-02;  4.0000000E+04;  0.0000000E+00;  3.9996605E+04; -1.8187542E-02;  0.0000000E+00;  4.5450154E-04;  7.7984894E+02;
  4.1940250E-03;  9.9999998E-03;  1.1997397E-01;2489;  6.1713409E-04;  0.0000000E+00;  1.2196112E-04;  9.8569934E+02;  1.0000000E-01; -1.1847813E+04;3;  8.0183228E+01;  0.0000000E+00; -2.1515858E+00;0; -1.7686587E-02;  3.8884363E+04;  0.0000000E+00; -5.0661676E-02;  4.0000000E+04;  0.0000000E+00;  3.9996848E+04; -1.8137157E-02;  0.0000000E+00;  4.5056990E-04;  7.4855090E+02;
  4.1757170E-03;  9.9999998E-03;  1.2997775E-01;2490;  5.8456702E-04;  0.0000000E+00;  1.3682336E-04;  9.8572235E+02;  1.0000000E-01; -1.1828752E+04;3;  8.0525475E+01;  0.0000000E+00; -2.8275809E+00;0; -1.7611582E-02;  3.8885836E+04;  0.0000000E+00; -8.3103083E-02;  4.0000000E+04;  0.0000000E+00;  3.9997461E+04; -1.8056501E-02;  0.0000000E+00;  4.4491907E-04;  7.4822864E+02;
  4.1500288E-03;  9.9999998E-03;  1.3998160E-01;2491;  5.4936425E-04;  0.0000000E+00;  1.5679641E-04;  9.8576105E+02;  1.0000000E-01; -1.1796703E+04;3;  8.1148338E+01;  0.0000000E+00; -3.6062477E+00;0; -1.7492974E-02;  3.8888391E+04;  0.0000000E+00; -1.2989838E-01;  4.0000000E+04;  0.0000000E+00;  3.9997535E+04; -1.7930696E-02;  0.0000000E+00;  4.3772219E-04;  7.9634875E+02;
  4.1172910E-03;  9.9999998E-03;  1.4998765E-01;2492;  5.1986234E-04;  0.0000000E+00;  1.8435469E-04;  9.8581720E+02;  1.0000000E-01; -1.1750187E+04;3;  8.2120140E+01;  0.0000000E+00; -4.5009384E+00;0; -1.7316142E-02;  3.8892367E+04;  0.0000000E+00; -1.9218063E-01;  4.0000000E+04;  0.0000000E+00;  3.9998719E+04; -1.7745027E-02;  0.0000000E+00;  4.2888458E-04;  9.1203418E+02;
  4.0768166E-03;  9.9999998E-03;  1.5999609E-01;2493;  5.0461158E-04;  0.0000000E+00;  2.2092520E-04;  9.8591614E+02;  1.0000000E-01; -1.1668213E+04;3;  8.3318214E+01;  0.0000000E+00; -5.5495658E+00;0; -1.7068198E-02;  3.8898922E+04;  0.0000000E+00; -2.6891536E-01;  4.0000000E+04;  0.0000000E+00;  3.9999156E+04; -1.7485373E-02;  0.0000000E+00;  4.1717451E-04;  1.1101561E+03;
  4.0253536E-03;  9.9999998E-03;  1.7000492E-01;2494;  5.1123468E-04;  0.0000000E+00;  2.6611218E-04;  9.8607300E+02;  1.0000000E-01; -1.1538241E+04;3;  8.4656021E+01;  0.0000000E+00; -6.8237314E+00;0; -1.6739214E-02;  3.8909105E+04;  0.0000000E+00; -3.5602018E-01;  4.0000000E+04;  0.0000000E+00;  4.0001680E+04; -1.7139068E-02;  0.0000000E+00;  3.9985450E-04;  1.3979817E+03;
  3.9566127E-03;  9.9999998E-03;  1.8001194E-01;2495;  5.4333376E-04;  0.0000000E+00;  3.1815720E-04;  9.8630994E+02;  1.0000000E-01; -1.1341951E+04;3;  8.5935768E+01;  0.0000000E+00; -8.4109631E+00;0; -1.6322067E-02;  3.8924684E+04;  0.0000000E+00; -4.4598436E-01;  4.0000000E+04;  0.0000000E+00;  4.0004520E+04; -1.6694680E-02;  0.0000000E+00;  3.7261206E-04;  1.7731714E+03;
  3.8623896E-03;  9.9999998E-03;  1.9001545E-01;2496;  5.9996714E-04;  0.0000000E+00;  3.7439476E-04;  9.8664557E+02;  1.0000000E-01; -1.1063885E+04;3;  8.6892998E+01;  0.0000000E+00; -1.0360355E+01;0; -1.5813759E-02;  3.8947133E+04;  0.0000000E+00; -5.2833754E-01;  4.0000000E+04;  0.0000000E+00;  4.0008301E+04; -1.6143654E-02;  0.0000000E+00;  3.2989410E-04;  2.2197354E+03;
  3.7317378E-03;  9.9999998E-03;  2.0001444E-01;2497;  6.7416817E-04;  0.0000000E+00;  4.3214852E-04;  9.8709845E+02;  1.0000000E-01; -1.0688686E+04;3;  8.7150093E+01;  0.0000000E+00; -1.2641137E+01;0; -1.5215045E-02;  3.8978148E+04;  0.0000000E+00; -5.9124738E-01;  4.0000000E+04;  0.0000000E+00;  4.0012934E+04; -1.5480801E-02;  0.0000000E+00;  2.6575685E-04;  2.7028972E+03;
  3.5544331E-03;  9.9999998E-03;  2.1000731E-01;2498;  7.5275148E-04;  0.0000000E+00;  4.8673013E-04;  9.8768372E+02;  1.0000000E-01; -1.0203811E+04;3;  8.6225876E+01;  0.0000000E+00; -1.5116549E+01;0; -1.4530665E-02;  3.9018824E+04;  0.0000000E+00; -6.2413031E-01;  4.0000000E+04;  0.0000000E+00;  4.0016684E+04; -1.4706071E-02;  0.0000000E+00;  1.7540602E-04;  3.1645654E+03;
  3.3199172E-03;  9.9999998E-03;  2.1999267E-01;2499;  8.1777066E-04;  0.0000000E+00;  5.3251552E-04;  9.8840448E+02;  1.0000000E-01; -9.6066914E+03;3;  8.3647423E+01;  0.0000000E+00; -1.7567347E+01;0; -1.3768154E-02;  3.9070770E+04;  0.0000000E+00; -6.2069869E-01;  4.0000000E+04;  0.0000000E+00;  4.0020211E+04; -1.3825029E-02;  0.0000000E+00;  5.6875346E-05;  3.5252737E+03;
  3.0227485E-03;  9.9999998E-03;  2.2997007E-01;2500;  8.4878312E-04;  0.0000000E+00;  5.6408241E-04;  9.8925702E+02;  1.0000000E-01; -8.9003408E+03;3;  7.8996643E+01;  0.0000000E+00; -1.9756969E+01;0; -1.2937765E-02;  3.9133941E+04;  0.0000000E+00; -5.8148575E-01;  4.0000000E+04;  0.0000000E+00;  4.0022234E+04; -1.2850147E-02;  0.0000000E+00; -8.7617780E-05;  3.6943855E+03;
  1.3571459E-02;  9.9999998E-03;  6.9979146E-02;2544; -2.0344550E-04;  0.0000000E+00;  5.7259971E-05;  9.8928467E+02;  1.0000000E-01; -8.8774277E+03;3;  4.2660980E+01;  0.0000000E+00;  2.1893795E-01;0; -1.9512808E-02;  3.9158000E+04;  0.0000000E+00; -6.2585487E-03;  4.0000000E+04;  0.0000000E+00;  3.9997391E+04; -2.0050673E-02;  0.0000000E+00;  5.3786422E-04;  6.4684167E+02;
  1.3583069E-02;  9.9999998E-03;  7.9976477E-02;2545; -1.9101788E-04;  0.0000000E+00;  5.9214672E-05;  9.8929218E+02;  1.0000000E-01; -8.8712061E+03;3;  4.2387444E+01;  0.0000000E+00;  2.7001465E-02;0; -1.9479297E-02;  3.9159172E+04;  0.0000000E+00; -9.3648015E-03;  4.0000000E+04;  0.0000000E+00;  3.9997270E+04; -2.0007152E-02;  0.0000000E+00;  5.2785489E-04;  5.9923706E+02;
  1.3590136E-02;  9.9999998E-03;  8.9976080E-02;2546; -1.8342292E-04;  0.0000000E+00;  6.1661311E-05;  9.8929626E+02;  1.0000000E-01; -8.8678477E+03;3;  4.2204315E+01;  0.0000000E+00; -2.2854181E-01;0; -1.9449972E-02;  3.9159996E+04;  0.0000000E+00; -1.4598355E-02;  4.0000000E+04;  0.0000000E+00;  3.9997633E+04; -1.9969765E-02;  0.0000000E+00;  5.1979342E-04;  5.5810724E+02;
  1.3591478E-02;  9.9999998E-03;  9.9977836E-02;2547; -1.8289054E-04;  0.0000000E+00;  6.4957436E-05;  9.8930542E+02;  1.0000000E-01; -8.8602432E+03;3;  4.2067043E+01;  0.0000000E+00; -5.4994500E-01;0; -1.9423289E-02;  3.9161328E+04;  0.0000000E+00; -2.3760855E-02;  4.0000000E+04;  0.0000000E+00;  3.9997508E+04; -1.9934593E-02;  0.0000000E+00;  5.1130285E-04;  5.2409229E+02;
  1.3586733E-02;  9.9999998E-03;  1.0998096E-01;2548; -1.9062033E-04;  0.0000000E+00;  6.9242589E-05;  9.8931525E+02;  1.0000000E-01; -8.8520957E+03;3;  4.2023224E+01;  0.0000000E+00; -9.4040632E-01;0; -1.9393897E-02;  3.9162219E+04;  0.0000000E+00; -3.9710559E-02;  4.0000000E+04;  0.0000000E+00;  3.9997543E+04; -1.9894283E-02;  0.0000000E+00;  5.0038629E-04;  4.9810690E+02;
  1.3576195E-02;  9.9999998E-03;  1.1998463E-01;2549; -2.0641480E-04;  0.0000000E+00;  7.4432552E-05;  9.8932434E+02;  1.0000000E-01; -8.8445898E+03;3;  4.2119308E+01;  0.0000000E+00; -1.4053264E+00;0; -1.9352023E-02;  3.9162949E+04;  0.0000000E+00; -6.6354565E-02;  4.0000000E+04;  0.0000000E+00;  3.9997062E+04; -1.9838123E-02;  0.0000000E+00;  4.8610062E-04;  4.8477109E+02;
  1.3560685E-02;  9.9999998E-03;  1.2998821E-01;2550; -2.2815987E-04;  0.0000000E+00;  8.0701306E-05;  9.8932550E+02;  1.0000000E-01; -8.8436016E+03;3;  4.2473129E+01;  0.0000000E+00; -1.9501629E+00;0; -1.9283731E-02;  3.9163078E+04;  0.0000000E+00; -1.0816237E-01;  4.0000000E+04;  0.0000000E+00;  3.9997422E+04; -1.9752508E-02;  0.0000000E+00;  4.6877662E-04;  4.9601303E+02;
  1.3541078E-02;  9.9999998E-03;  1.3999192E-01;2551; -2.5213161E-04;  0.0000000E+00;  8.8443943E-05;  9.8932928E+02;  1.0000000E-01; -8.8404902E+03;3;  4.3113926E+01;  0.0000000E+00; -2.5813007E+00;0; -1.9172501E-02;  3.9163488E+04;  0.0000000E+00; -1.6902758E-01;  4.0000000E+04;  0.0000000E+00;  3.9996887E+04; -1.9622201E-02;  0.0000000E+00;  4.4970121E-04;  5.5104968E+02;
  1.3518053E-02;  9.9999998E-03;  1.4999633E-01;2552; -2.7291637E-04;  0.0000000E+00;  9.9177778E-05;  9.8933801E+02;  1.0000000E-01; -8.8332314E+03;3;  4.4160194E+01;  0.0000000E+00; -3.3060191E+00;0; -1.9001422E-02;  3.9163582E+04;  0.0000000E+00; -2.5079888E-01;  4.0000000E+04;  0.0000000E+00;  3.9997344E+04; -1.9431585E-02;  0.0000000E+00;  4.3016294E-04;  6.6954175E+02;
  1.3491500E-02;  9.9999998E-03;  1.6000199E-01;2553; -2.8452839E-04;  0.0000000E+00;  1.1357821E-04;  9.8936719E+02;  1.0000000E-01; -8.8090840E+03;3;  4.5641640E+01;  0.0000000E+00; -4.1550670E+00;0; -1.8755412E-02;  3.9165172E+04;  0.0000000E+00; -3.5227418E-01;  4.0000000E+04;  0.0000000E+00;  3.9999023E+04; -1.9165747E-02;  0.0000000E+00;  4.1033604E-04;  8.6422870E+02;
  1.3459785E-02;  9.9999998E-03;  1.7000885E-01;2554; -2.8139434E-04;  0.0000000E+00;  1.3197864E-04;  9.8943719E+02;  1.0000000E-01; -8.7510615E+03;3;  4.7537167E+01;  0.0000000E+00; -5.1824789E+00;0; -1.8422244E-02;  3.9168688E+04;  0.0000000E+00; -4.6798328E-01;  4.0000000E+04;  0.0000000E+00;  4.0000035E+04; -1.8810835E-02;  0.0000000E+00;  3.8859100E-04;  1.1426526E+03;
  1.3417290E-02;  9.9999998E-03;  1.8001468E-01;2555; -2.5923335E-04;  0.0000000E+00;  1.5427500E-04;  9.8955902E+02;  1.0000000E-01; -8.6501748E+03;3;  4.9831848E+01;  0.0000000E+00; -6.4523125E+00;0; -1.7993549E-02;  3.9175863E+04;  0.0000000E+00; -5.8757561E-01;  4.0000000E+04;  0.0000000E+00;  4.0003215E+04; -1.8354662E-02;  0.0000000E+00;  3.6111247E-04;  1.5079929E+03;
  1.3356174E-02;  9.9999998E-03;  1.9001724E-01;2556; -2.1644839E-04;  0.0000000E+00;  1.8019458E-04;  9.8975500E+02;  1.0000000E-01; -8.4877598E+03;3;  5.2319473E+01;  0.0000000E+00; -8.0109539E+00;0; -1.7465623E-02;  3.9187793E+04;  0.0000000E+00; -6.9651091E-01;  4.0000000E+04;  0.0000000E+00;  4.0007043E+04; -1.7787650E-02;  0.0000000E+00;  3.2202798E-04;  1.9539084E+03;
  1.3266437E-02;  9.9999998E-03;  2.0001516E-01;2557; -1.5390124E-04;  0.0000000E+00;  2.1061211E-04;  9.9003955E+02;  1.0000000E-01; -8.2520625E+03;3;  5.4673630E+01;  0.0000000E+00; -9.8519106E+00;0; -1.6839933E-02;  3.9205840E+04;  0.0000000E+00; -7.7825862E-01;  4.0000000E+04;  0.0000000E+00;  4.0011973E+04; -1.7104154E-02;  0.0000000E+00;  2.6422157E-04;  2.4560906E+03;
  1.3137794E-02;  9.9999998E-03;  2.1000676E-01;2558; -7.4079457E-05;  0.0000000E+00;  2.4739644E-04;  9.9042926E+02;  1.0000000E-01; -7.9291587E+03;3;  5.6347702E+01;  0.0000000E+00; -1.1878419E+01;0; -1.6123081E-02;  3.9231785E+04;  0.0000000E+00; -8.1802118E-01;  4.0000000E+04;  0.0000000E+00;  4.0016156E+04; -1.6303878E-02;  0.0000000E+00;  1.8079705E-04;  2.9646021E+03;
  1.2958884E-02;  9.9999998E-03;  2.1998972E-01;2559;  1.7166589E-05;  0.0000000E+00;  2.8711834E-04;  9.9093573E+02;  1.0000000E-01; -7.5095654E+03;3;  5.6671715E+01;  0.0000000E+00; -1.3877941E+01;0; -1.5323826E-02;  3.9266770E+04;  0.0000000E+00; -8.0711848E-01;  4.0000000E+04;  0.0000000E+00;  4.0020293E+04; -1.5391204E-02;  0.0000000E+00;  6.7377172E-05;  3.4014526E+03;
  1.2720617E-02;  9.9999998E-03;  2.2996254E-01;2560;  1.0269661E-04;  0.0000000E+00;  3.1983940E-04;  9.9153912E+02;  1.0000000E-01; -7.0096782E+03;3;  5.5236885E+01;  0.0000000E+00; -1.5607952E+01;0; -1.4449060E-02;  3.9310402E+04;  0.0000000E+00; -7.4671394E-01;  4.0000000E+04;  0.0000000E+00;  4.0023355E+04; -1.4373378E-02;  0.0000000E+00; -7.5681834E-05;  3.6685955E+03;
  2.2958310E-02;  9.9999998E-03;  6.9987692E-02;2605; -8.1858801E-04;  0.0000000E+00;  6.0131453E-05;  9.9322357E+02;  1.0000000E-01; -5.6141621E+03;3;  3.3935077E+00;  0.0000000E+00;  1.5702738E-01;0; -2.0609971E-02;  3.9467527E+04;  0.0000000E+00; -9.0717077E-03;  4.0000000E+04;  0.0000000E+00;  3.9997664E+04; -2.1210574E-02;  0.0000000E+00;  6.0060213E-04;  2.4979697E+02;
  2.2967044E-02;  9.9999998E-03;  7.9985105E-02;2606; -8.0355885E-04;  0.0000000E+00;  6.2079409E-05;  9.9324341E+02;  1.0000000E-01; -5.5977183E+03;3;  3.1995602E+00;  0.0000000E+00; -5.5209652E-04;0; -2.0576356E-02;  3.9468766E+04;  0.0000000E+00; -1.2963316E-02;  4.0000000E+04;  0.0000000E+00;  3.9997949E+04; -2.1164574E-02;  0.0000000E+00;  5.8821758E-04;  2.2806212E+02;
  2.2971181E-02;  9.9999998E-03;  8.9983448E-02;2607; -7.9424796E-04;  0.0000000E+00;  6.4868014E-05;  9.9326233E+02;  1.0000000E-01; -5.5820151E+03;3;  3.1054261E+00;  0.0000000E+00; -2.0913410E-01;0; -2.0546410E-02;  3.9470684E+04;  0.0000000E+00; -1.9171972E-02;  4.0000000E+04;  0.0000000E+00;  3.9997340E+04; -2.1122223E-02;  0.0000000E+00;  5.7581184E-04;  2.2023003E+02;
  2.2969915E-02;  9.9999998E-03;  9.9982955E-02;2608; -7.9325272E-04;  0.0000000E+00;  6.8943598E-05;  9.9328015E+02;  1.0000000E-01; -5.5672500E+03;3;  3.1009524E+00;  0.0000000E+00; -4.7060320E-01;0; -2.0519247E-02;  3.9471906E+04;  0.0000000E+00; -2.9668143E-02;  4.0000000E+04;  0.0000000E+00;  3.9997305E+04; -2.1079615E-02;  0.0000000E+00;  5.6036806E-04;  2.2223015E+02;
  2.2963505E-02;  9.9999998E-03;  1.0998387E-01;2609; -8.0210558E-04;  0.0000000E+00;  7.4232426E-05;  9.9329211E+02;  1.0000000E-01; -5.5573735E+03;3;  3.2027771E+00;  0.0000000E+00; -7.8889561E-01;0; -2.0490248E-02;  3.9473102E+04;  0.0000000E+00; -4.7635589E-02;  4.0000000E+04;  0.0000000E+00;  3.9997402E+04; -2.1029865E-02;  0.0000000E+00;  5.3961691E-04;  2.2964296E+02;
  2.2952780E-02;  9.9999998E-03;  1.1998621E-01;2610; -8.2066469E-04;  0.0000000E+00;  8.0274367E-05;  9.9329352E+02;  1.0000000E-01; -5.5561885E+03;3;  3.4445162E+00;  0.0000000E+00; -1.1700327E+00;0; -2.0450078E-02;  3.9472984E+04;  0.0000000E+00; -7.7528007E-02;  4.0000000E+04;  0.0000000E+00;  3.9997617E+04; -2.0962939E-02;  0.0000000E+00;  5.1286147E-04;  2.4383875E+02;
  2.2939675E-02;  9.9999998E-03;  1.2998937E-01;2611; -8.4662973E-04;  0.0000000E+00;  8.6556414E-05;  9.9328101E+02;  1.0000000E-01; -5.5665586E+03;3;  3.8869841E+00;  0.0000000E+00; -1.6213570E+00;0; -2.0385234E-02;  3.9471801E+04;  0.0000000E+00; -1.2458856E-01;  4.0000000E+04;  0.0000000E+00;  3.9997852E+04; -2.0866480E-02;  0.0000000E+00;  4.8124636E-04;  2.7768378E+02;
  2.2925716E-02;  9.9999998E-03;  1.3999306E-01;2612; -8.7541272E-04;  0.0000000E+00;  9.3078765E-05;  9.9325446E+02;  1.0000000E-01; -5.5885332E+03;3;  4.6166358E+00;  0.0000000E+00; -2.1494629E+00;0; -2.0279132E-02;  3.9469953E+04;  0.0000000E+00; -1.9361231E-01;  4.0000000E+04;  0.0000000E+00;  3.9997215E+04; -2.0726498E-02;  0.0000000E+00;  4.4736572E-04;  3.5156812E+02;
  2.2912282E-02;  9.9999998E-03;  1.4999750E-01;2613; -9.0045074E-04;  0.0000000E+00;  1.0037538E-04;  9.9321814E+02;  1.0000000E-01; -5.6186558E+03;3;  5.7354879E+00;  0.0000000E+00; -2.7614150E+00;0; -2.0114597E-02;  3.9466922E+04;  0.0000000E+00; -2.8716624E-01;  4.0000000E+04;  0.0000000E+00;  3.9998062E+04; -2.0528749E-02;  0.0000000E+00;  4.1415213E-04;  4.7904672E+02;
  2.2900069E-02;  9.9999998E-03;  1.6000293E-01;2614; -9.1411744E-04;  0.0000000E+00;  1.0879943E-04;  9.9318097E+02;  1.0000000E-01; -5.6494204E+03;3;  7.3429303E+00;  0.0000000E+00; -3.4702060E+00;0; -1.9875910E-02;  3.9463570E+04;  0.0000000E+00; -4.0425149E-01;  4.0000000E+04;  0.0000000E+00;  3.9998629E+04; -2.0259352E-02;  0.0000000E+00;  3.8344233E-04;  6.6419659E+02;
  2.2888010E-02;  9.9999998E-03;  1.7000967E-01;2615; -9.0906816E-04;  0.0000000E+00;  1.1819236E-04;  9.9316028E+02;  1.0000000E-01; -5.6665557E+03;3;  9.4937840E+00;  0.0000000E+00; -4.2970557E+00;0; -1.9550005E-02;  3.9460707E+04;  0.0000000E+00; -5.3885674E-01;  4.0000000E+04;  0.0000000E+00;  4.0000172E+04; -1.9904910E-02;  0.0000000E+00;  3.5490509E-04;  9.1180145E+02;
  2.2871751E-02;  9.9999998E-03;  1.8001761E-01;2616; -8.7950646E-04;  0.0000000E+00;  1.2815575E-04;  9.9316718E+02;  1.0000000E-01; -5.6608770E+03;3;  1.2254464E+01;  0.0000000E+00; -5.2632327E+00;0; -1.9127371E-02;  3.9459297E+04;  0.0000000E+00; -6.7922062E-01;  4.0000000E+04;  0.0000000E+00;  4.0001457E+04; -1.9452715E-02;  0.0000000E+00;  3.2534514E-04;  1.2318367E+03;
  2.2843435E-02;  9.9999998E-03;  1.9002523E-01;2617; -8.2280452E-04;  0.0000000E+00;  1.3828315E-04;  9.9321594E+02;  1.0000000E-01; -5.6204829E+03;3;  1.5585376E+01;  0.0000000E+00; -6.3673797E+00;0; -1.8602820E-02;  3.9460320E+04;  0.0000000E+00; -8.0856508E-01;  4.0000000E+04;  0.0000000E+00;  4.0004605E+04; -1.8891556E-02;  0.0000000E+00;  2.8873608E-04;  1.6341206E+03;
  2.2792155E-02;  9.9999998E-03;  2.0003004E-01;2618; -7.4069283E-04;  0.0000000E+00;  1.4830884E-04;  9.9332947E+02;  1.0000000E-01; -5.5264116E+03;3;  1.9238083E+01;  0.0000000E+00; -7.5527477E+00;0; -1.7975513E-02;  3.9464887E+04;  0.0000000E+00; -9.0755063E-01;  4.0000000E+04;  0.0000000E+00;  4.0010000E+04; -1.8212605E-02;  0.0000000E+00;  2.3709313E-04;  2.1141182E+03;
  2.2706542E-02;  9.9999998E-03;  2.1002983E-01;2619; -6.3947437E-04;  0.0000000E+00;  1.5834555E-04;  9.9351453E+02;  1.0000000E-01; -5.3730825E+03;3;  2.2873997E+01;  0.0000000E+00; -8.6947012E+00;0; -1.7248495E-02;  3.9474875E+04;  0.0000000E+00; -9.5853412E-01;  4.0000000E+04;  0.0000000E+00;  4.0014941E+04; -1.7410595E-02;  0.0000000E+00;  1.6210113E-04;  2.6381240E+03;
  2.2575188E-02;  9.9999998E-03;  2.2002159E-01;2620; -5.2991405E-04;  0.0000000E+00;  1.6778029E-04;  9.9378333E+02;  1.0000000E-01; -5.1503730E+03;3;  2.5928965E+01;  0.0000000E+00; -9.6251650E+00;0; -1.6427618E-02;  3.9490590E+04;  0.0000000E+00; -9.5076740E-01;  4.0000000E+04;  0.0000000E+00;  4.0019008E+04; -1.6484972E-02;  0.0000000E+00;  5.7354948E-05;  3.1353113E+03;
  2.2386532E-02;  9.9999998E-03;  2.3000230E-01;2621; -4.2552478E-04;  0.0000000E+00;  1.7587519E-04;  9.9413043E+02;  1.0000000E-01; -4.8628252E+03;3;  2.7830528E+01;  0.0000000E+00; -1.0230528E+01;0; -1.5520133E-02;  3.9513477E+04;  0.0000000E+00; -8.8506997E-01;  4.0000000E+04;  0.0000000E+00;  4.0022652E+04; -1.5440792E-02;  0.0000000E+00; -7.9341553E-05;  3.5031699E+03;
  3.2396063E-02;  9.9999998E-03;  6.9996081E-02;2666; -1.4077906E-03;  0.0000000E+00;  6.1383929E-05;  9.9698450E+02;  1.0000000E-01; -2.4982998E+03;3; -2.5342485E+01;  0.0000000E+00;  1.0866543E-01;0; -2.1017175E-02;  3.9767105E+04;  0.0000000E+00; -1.1062662E-02;  4.0000000E+04;  0.0000000E+00;  3.9997055E+04; -2.1674488E-02;  0.0000000E+00;  6.5731321E-04;  1.1686310E+02;
  3.2402262E-02;  9.9999998E-03;  7.9993568E-02;2667; -1.3902618E-03;  0.0000000E+00;  6.3532301E-05;  9.9701282E+02;  1.0000000E-01; -2.4748435E+03;3; -2.5437847E+01;  0.0000000E+00; -1.5509608E-02;0; -2.0982740E-02;  3.9769328E+04;  0.0000000E+00; -1.5585530E-02;  4.0000000E+04;  0.0000000E+00;  3.9997406E+04; -2.1625921E-02;  0.0000000E+00;  6.4318045E-04;  1.1127878E+02;
  3.2403816E-02;  9.9999998E-03;  8.9991160E-02;2668; -1.3790925E-03;  0.0000000E+00;  6.7179659E-05;  9.9703699E+02;  1.0000000E-01; -2.4547947E+03;3; -2.5393095E+01;  0.0000000E+00; -1.7888215E-01;0; -2.0951401E-02;  3.9771566E+04;  0.0000000E+00; -2.2467023E-02;  4.0000000E+04;  0.0000000E+00;  3.9997730E+04; -2.1578055E-02;  0.0000000E+00;  6.2665303E-04;  8.6069267E+01;
  3.2400176E-02;  9.9999998E-03;  9.9989191E-02;2669; -1.3773845E-03;  0.0000000E+00;  7.2758063E-05;  9.9706494E+02;  1.0000000E-01; -2.4316350E+03;3; -2.5281530E+01;  0.0000000E+00; -3.8299716E-01;0; -2.0923272E-02;  3.9773070E+04;  0.0000000E+00; -3.3569850E-02;  4.0000000E+04;  0.0000000E+00;  3.9997637E+04; -2.1527234E-02;  0.0000000E+00;  6.0396234E-04;  6.2299377E+01;
  3.2392155E-02;  9.9999998E-03;  1.0998819E-01;2670; -1.3868873E-03;  0.0000000E+00;  7.9906371E-05;  9.9708386E+02;  1.0000000E-01; -2.4159810E+03;3; -2.5075588E+01;  0.0000000E+00; -6.3164693E-01;0; -2.0894708E-02;  3.9774098E+04;  0.0000000E+00; -5.1945589E-02;  4.0000000E+04;  0.0000000E+00;  3.9998277E+04; -2.1467224E-02;  0.0000000E+00;  5.7251554E-04;  7.5112831E+01;
  3.2381192E-02;  9.9999998E-03;  1.1998825E-01;2671; -1.4074879E-03;  0.0000000E+00;  8.7644854E-05;  9.9708325E+02;  1.0000000E-01; -2.4164749E+03;3; -2.4746910E+01;  0.0000000E+00; -9.3078524E-01;0; -2.0857343E-02;  3.9773609E+04;  0.0000000E+00; -8.1931069E-02;  4.0000000E+04;  0.0000000E+00;  3.9998707E+04; -2.1389246E-02;  0.0000000E+00;  5.3190190E-04;  1.1945160E+02;
  3.2369968E-02;  9.9999998E-03;  1.2998925E-01;2672; -1.4367695E-03;  0.0000000E+00;  9.4779389E-05;  9.9706287E+02;  1.0000000E-01; -2.4333633E+03;3; -2.4285244E+01;  0.0000000E+00; -1.2877975E+00;0; -2.0798150E-02;  3.9772066E+04;  0.0000000E+00; -1.2873659E-01;  4.0000000E+04;  0.0000000E+00;  3.9998844E+04; -2.1282371E-02;  0.0000000E+00;  4.8422068E-04;  1.8595296E+02;
  3.2361068E-02;  9.9999998E-03;  1.3999082E-01;2673; -1.4695204E-03;  0.0000000E+00;  1.0059885E-04;  9.9701440E+02;  1.0000000E-01; -2.4735103E+03;3; -2.3584572E+01;  0.0000000E+00; -1.7098259E+00;0; -2.0700796E-02;  3.9768371E+04;  0.0000000E+00; -1.9730988E-01;  4.0000000E+04;  0.0000000E+00;  3.9998168E+04; -2.1134410E-02;  0.0000000E+00;  4.3361384E-04;  2.8444925E+02;
  3.2356374E-02;  9.9999998E-03;  1.4999305E-01;2674; -1.4982974E-03;  0.0000000E+00;  1.0508634E-04;  9.9694110E+02;  1.0000000E-01; -2.5342493E+03;3; -2.2546589E+01;  0.0000000E+00; -2.2003784E+00;0; -2.0547699E-02;  3.9763211E+04;  0.0000000E+00; -2.9046366E-01;  4.0000000E+04;  0.0000000E+00;  3.9998090E+04; -2.0932678E-02;  0.0000000E+00;  3.8497924E-04;  4.1941071E+02;
  3.2356698E-02;  9.9999998E-03;  1.5999636E-01;2675; -1.5143446E-03;  0.0000000E+00;  1.0801425E-04;  9.9685840E+02;  1.0000000E-01; -2.6027412E+03;3; -2.1096796E+01;  0.0000000E+00; -2.7519991E+00;0; -2.0322414E-02;  3.9755820E+04;  0.0000000E+00; -4.0742114E-01;  4.0000000E+04;  0.0000000E+00;  3.9997574E+04; -2.0664573E-02;  0.0000000E+00;  3.4215837E-04;  5.8570776E+02;
  3.2361660E-02;  9.9999998E-03;  1.7000143E-01;2676; -1.5084633E-03;  0.0000000E+00;  1.0897186E-04;  9.9675488E+02;  1.0000000E-01; -2.6885166E+03;3; -1.8987408E+01;  0.0000000E+00; -3.3490865E+00;0; -2.0011172E-02;  3.9747363E+04;  0.0000000E+00; -5.4249680E-01;  4.0000000E+04;  0.0000000E+00;  3.9997652E+04; -2.0317551E-02;  0.0000000E+00;  3.0637885E-04;  7.7829175E+02;
  3.2367941E-02;  9.9999998E-03;  1.8000886E-01;2677; -1.4733471E-03;  0.0000000E+00;  1.0850128E-04;  9.9665637E+02;  1.0000000E-01; -2.7701438E+03;3; -1.6171566E+01;  0.0000000E+00; -3.9682751E+00;0; -1.9603716E-02;  3.9738117E+04;  0.0000000E+00; -6.8439293E-01;  4.0000000E+04;  0.0000000E+00;  3.9999691E+04; -1.9878983E-02;  0.0000000E+00;  2.7526703E-04;  1.0059581E+03;
  3.2368578E-02;  9.9999998E-03;  1.9001868E-01;2678; -1.4048002E-03;  0.0000000E+00;  1.0760070E-04;  9.9658185E+02;  1.0000000E-01; -2.8318706E+03;3; -1.2633792E+01;  0.0000000E+00; -4.5669713E+00;0; -1.9094119E-02;  3.9729188E+04;  0.0000000E+00; -8.1686223E-01;  4.0000000E+04;  0.0000000E+00;  4.0002387E+04; -1.9336853E-02;  0.0000000E+00;  2.4273513E-04;  1.2980023E+03;
  3.2353986E-02;  9.9999998E-03;  2.0002949E-01;2679; -1.3028826E-03;  0.0000000E+00;  1.0740503E-04;  9.9653101E+02;  1.0000000E-01; -2.8739927E+03;3; -8.3841906E+00;  0.0000000E+00; -5.0672593E+00;0; -1.8480791E-02;  3.9721199E+04;  0.0000000E+00; -9.2106450E-01;  4.0000000E+04;  0.0000000E+00;  4.0006641E+04; -1.8680576E-02;  0.0000000E+00;  1.9978630E-04;  1.6868044E+03;
  3.2310404E-02;  9.9999998E-03;  2.1003786E-01;2680; -1.1736049E-03;  0.0000000E+00;  1.0836587E-04;  9.9652997E+02;  1.0000000E-01; -2.8748323E+03;3; -3.7578714E+00;  0.0000000E+00; -5.3329668E+00;0; -1.7765535E-02;  3.9715797E+04;  0.0000000E+00; -9.7953743E-01;  4.0000000E+04;  0.0000000E+00;  4.0012148E+04; -1.7901741E-02;  0.0000000E+00;  1.3620549E-04;  2.1715747E+03;
  3.2224573E-02;  9.9999998E-03;  2.2004025E-01;2681; -1.0288612E-03;  0.0000000E+00;  1.0971822E-04;  9.9657251E+02;  1.0000000E-01; -2.8396233E+03;3;  8.7961823E-01;  0.0000000E+00; -5.2272925E+00;0; -1.6952662E-02;  3.9713543E+04;  0.0000000E+00; -9.8125225E-01;  4.0000000E+04;  0.0000000E+00;  4.0017574E+04; -1.6995687E-02;  0.0000000E+00;  4.3025691E-05;  2.6963477E+03;
  3.2082926E-02;  9.9999998E-03;  2.3003227E-01;2682; -8.8493782E-04;  0.0000000E+00;  1.1024813E-04;  9.9667163E+02;  1.0000000E-01; -2.7575022E+03;3;  4.9070897E+00;  0.0000000E+00; -4.6763844E+00;0; -1.6047675E-02;  3.9715711E+04;  0.0000000E+00; -9.2645353E-01;  4.0000000E+04;  0.0000000E+00;  4.0021129E+04; -1.5963146E-02;  0.0000000E+00; -8.4528481E-05;  3.1546428E+03;
  4.1909300E-02;  9.9999998E-03;  7.0003182E-02;2727; -1.8818236E-03;  0.0000000E+00;  6.1917664E-05;  1.0001293E+03;  1.0000000E-01;  1.0715746E+02;3; -4.0394886E+01;  0.0000000E+00;  7.5726926E-02;0; -2.0783981E-02;  4.0022082E+04;  0.0000000E+00; -1.0869987E-02;  4.0000000E+04;  0.0000000E+00;  3.9997543E+04; -2.1490218E-02;  0.0000000E+00;  7.0623757E-04;  3.9916083E+02;
  4.1913293E-02;  9.9999998E-03;  8.0002002E-02;2728; -1.8620904E-03;  0.0000000E+00;  6.4723230E-05;  1.0001610E+03;  1.0000000E-01;  1.3342833E+02;3; -4.0401352E+01;  0.0000000E+00; -1.7567318E-02;0; -2.0747647E-02;  4.0024711E+04;  0.0000000E+00; -1.5637849E-02;  4.0000000E+04;  0.0000000E+00;  3.9997820E+04; -2.1438874E-02;  0.0000000E+00;  6.9122808E-04;  3.6438263E+02;
  4.1912343E-02;  9.9999998E-03;  9.0000540E-02;2729; -1.8494063E-03;  0.0000000E+00;  6.9683156E-05;  1.0002039E+03;  1.0000000E-01;  1.6898288E+02;3; -4.0321079E+01;  0.0000000E+00; -1.4018516E-01;0; -2.0713378E-02;  4.0027023E+04;  0.0000000E+00; -2.2780409E-02;  4.0000000E+04;  0.0000000E+00;  3.9998055E+04; -2.1384556E-02;  0.0000000E+00;  6.7117834E-04;  2.9643927E+02;
  4.1906886E-02;  9.9999998E-03;  9.9998802E-02;2730; -1.8469049E-03;  0.0000000E+00;  7.7188190E-05;  1.0002387E+03;  1.0000000E-01;  1.9772281E+02;3; -4.0113880E+01;  0.0000000E+00; -2.9342920E-01;0; -2.0682743E-02;  4.0029336E+04;  0.0000000E+00; -3.3846658E-02;  4.0000000E+04;  0.0000000E+00;  3.9998312E+04; -2.1324208E-02;  0.0000000E+00;  6.4146484E-04;  2.1471465E+02;
  4.1897722E-02;  9.9999998E-03;  1.0999684E-01;2731; -1.8567467E-03;  0.0000000E+00;  8.6602158E-05;  1.0002634E+03;  1.0000000E-01;  2.1826543E+02;3; -3.9831005E+01;  0.0000000E+00; -4.8042545E-01;0; -2.0653492E-02;  4.0030406E+04;  0.0000000E+00; -5.1296420E-02;  4.0000000E+04;  0.0000000E+00;  3.9999277E+04; -2.1252602E-02;  0.0000000E+00;  5.9911044E-04;  1.5097717E+02;
  4.1886698E-02;  9.9999998E-03;  1.1999459E-01;2732; -1.8790058E-03;  0.0000000E+00;  9.6437296E-05;  1.0002700E+03;  1.0000000E-01;  2.2369737E+02;3; -3.9489120E+01;  0.0000000E+00; -7.0616537E-01;0; -2.0618426E-02;  4.0030441E+04;  0.0000000E+00; -7.8593515E-02;  4.0000000E+04;  0.0000000E+00;  4.0000156E+04; -2.1162452E-02;  0.0000000E+00;  5.4402649E-04;  1.4269279E+02;
  4.1877110E-02;  9.9999998E-03;  1.2999228E-01;2733; -1.9110484E-03;  0.0000000E+00;  1.0481223E-04;  1.0002477E+03;  1.0000000E-01;  2.0522876E+02;3; -3.9060722E+01;  0.0000000E+00; -9.7710025E-01;0; -2.0565405E-02;  4.0028754E+04;  0.0000000E+00; -1.1988609E-01;  4.0000000E+04;  0.0000000E+00;  3.9999777E+04; -2.1044808E-02;  0.0000000E+00;  4.7940132E-04;  1.9510963E+02;
  4.1872349E-02;  9.9999998E-03;  1.3999029E-01;2734; -1.9474796E-03;  0.0000000E+00;  1.1018581E-04;  1.0001934E+03;  1.0000000E-01;  1.6029176E+02;3; -3.8496284E+01;  0.0000000E+00; -1.3000162E+00;0; -2.0478308E-02;  4.0024578E+04;  0.0000000E+00; -1.7909640E-01;  4.0000000E+04;  0.0000000E+00;  4.0000078E+04; -2.0889439E-02;  0.0000000E+00;  4.1113055E-04;  2.9548071E+02;
  4.1874912E-02;  9.9999998E-03;  1.4998887E-01;2735; -1.9803189E-03;  0.0000000E+00;  1.1168564E-04;  1.0000999E+03;  1.0000000E-01;  8.2763092E+01;3; -3.7669144E+01;  0.0000000E+00; -1.6754220E+00;0; -2.0339290E-02;  4.0017812E+04;  0.0000000E+00; -2.5826854E-01;  4.0000000E+04;  0.0000000E+00;  3.9998348E+04; -2.0685645E-02;  0.0000000E+00;  3.4635511E-04;  4.3629553E+02;
  4.1885734E-02;  9.9999998E-03;  1.5998814E-01;2736; -2.0000404E-03;  0.0000000E+00;  1.0866445E-04;  9.9997314E+02;  1.0000000E-01; -2.2270975E+01;3; -3.6457417E+01;  0.0000000E+00; -2.0749054E+00;0; -2.0131271E-02;  4.0007996E+04;  0.0000000E+00; -3.5629237E-01;  4.0000000E+04;  0.0000000E+00;  3.9998016E+04; -2.0422474E-02;  0.0000000E+00;  2.9120149E-04;  5.9710376E+02;
  4.1904453E-02;  9.9999998E-03;  1.6998973E-01;2737; -1.9969582E-03;  0.0000000E+00;  1.0079816E-04;  9.9982147E+02;  1.0000000E-01; -1.4789705E+02;3; -3.4707783E+01;  0.0000000E+00; -2.4449427E+00;0; -1.9839505E-02;  3.9995461E+04;  0.0000000E+00; -4.6822193E-01;  4.0000000E+04;  0.0000000E+00;  3.9997336E+04; -2.0088181E-02;  0.0000000E+00;  2.4867544E-04;  7.4721759E+02;
  4.1928116E-02;  9.9999998E-03;  1.7999440E-01;2738; -1.9624992E-03;  0.0000000E+00;  8.8876543E-05;  9.9964618E+02;  1.0000000E-01; -2.9312750E+02;3; -3.2226788E+01;  0.0000000E+00; -2.7218015E+00;0; -1.9453226E-02;  3.9980684E+04;  0.0000000E+00; -5.8502209E-01;  4.0000000E+04;  0.0000000E+00;  3.9998219E+04; -1.9670650E-02;  0.0000000E+00;  2.1742488E-04;  8.6819574E+02;
  4.1950829E-02;  9.9999998E-03;  1.9000269E-01;2739; -1.8910116E-03;  0.0000000E+00;  7.5206262E-05;  9.9946423E+02;  1.0000000E-01; -4.4388867E+02;3; -2.8935265E+01;  0.0000000E+00; -2.8293238E+00;0; -1.8966051E-02;  3.9963664E+04;  0.0000000E+00; -6.9417095E-01;  4.0000000E+04;  0.0000000E+00;  4.0000258E+04; -1.9157484E-02;  0.0000000E+00;  1.9143373E-04;  9.8801141E+02;
  4.1964319E-02;  9.9999998E-03;  2.0001480E-01;2740; -1.7806527E-03;  0.0000000E+00;  6.3446598E-05;  9.9928406E+02;  1.0000000E-01; -5.9316840E+02;3; -2.4813965E+01;  0.0000000E+00; -2.6664801E+00;0; -1.8376147E-02;  3.9945199E+04;  0.0000000E+00; -7.8141254E-01;  4.0000000E+04;  0.0000000E+00;  4.0004012E+04; -1.8536758E-02;  0.0000000E+00;  1.6061038E-04;  1.1964457E+03;
  4.1956961E-02;  9.9999998E-03;  2.1002914E-01;2741; -1.6347967E-03;  0.0000000E+00;  5.7362970E-05;  9.9911737E+02;  1.0000000E-01; -7.3123859E+02;3; -2.0006645E+01;  0.0000000E+00; -2.0957088E+00;0; -1.7685646E-02;  3.9926562E+04;  0.0000000E+00; -8.3349872E-01;  4.0000000E+04;  0.0000000E+00;  4.0007895E+04; -1.7798087E-02;  0.0000000E+00;  1.1243956E-04;  1.5739297E+03;
  4.1913074E-02;  9.9999998E-03;  2.2004057E-01;2742; -1.4632645E-03;  0.0000000E+00;  5.8800873E-05;  9.9897406E+02;  1.0000000E-01; -8.4995129E+02;3; -1.4832777E+01;  0.0000000E+00; -9.8121166E-01;0; -1.6899491E-02;  3.9908797E+04;  0.0000000E+00; -8.4231526E-01;  4.0000000E+04;  0.0000000E+00;  4.0014758E+04; -1.6934380E-02;  0.0000000E+00;  3.4889919E-05;  2.0936543E+03;
  4.1816376E-02;  9.9999998E-03;  2.3004340E-01;2743; -1.2836640E-03;  0.0000000E+00;  6.3276064E-05;  9.9885162E+02;  1.0000000E-01; -9.5142987E+02;3; -9.7383537E+00;  0.0000000E+00;  6.8791497E-01;0; -1.6022921E-02;  3.9892898E+04;  0.0000000E+00; -8.0875075E-01;  4.0000000E+04;  0.0000000E+00;  4.0019277E+04; -1.5942920E-02;  0.0000000E+00; -8.0000958E-05;  2.6338530E+03;
  5.1510606E-02;  9.9999998E-03;  7.0009813E-02;2788; -2.2029397E-03;  0.0000000E+00;  6.0202838E-05;  1.0023903E+03;  1.0000000E-01;  1.9802897E+03;3; -4.3156792E+01;  0.0000000E+00;  5.1436681E-02;0; -2.0002151E-02;  4.0208070E+04;  0.0000000E+00; -7.7690557E-03;  4.0000000E+04;  0.0000000E+00;  3.9997809E+04; -2.0747647E-02;  0.0000000E+00;  7.4549497E-04;  5.6087292E+02;
  5.1513508E-02;  9.9999998E-03;  8.0011487E-02;2789; -2.1813789E-03;  0.0000000E+00;  6.4487758E-05;  1.0024268E+03;  1.0000000E-01;  2.0106097E+03;3; -4.3123840E+01;  0.0000000E+00; -1.4299211E-02;0; -1.9962307E-02;  4.0210457E+04;  0.0000000E+00; -1.2141651E-02;  4.0000000E+04;  0.0000000E+00;  3.9997781E+04; -2.0692874E-02;  0.0000000E+00;  7.3056697E-04;  5.0144901E+02;
  5.1511284E-02;  9.9999998E-03;  9.0012826E-02;2790; -2.1673350E-03;  0.0000000E+00;  7.1878341E-05;  1.0024752E+03;  1.0000000E-01;  2.0507075E+03;3; -4.2991657E+01;  0.0000000E+00; -1.0157751E-01;0; -1.9923104E-02;  4.0213133E+04;  0.0000000E+00; -1.8979432E-02;  4.0000000E+04;  0.0000000E+00;  3.9998637E+04; -2.0630948E-02;  0.0000000E+00;  7.0784352E-04;  3.9524103E+02;
  5.1504225E-02;  9.9999998E-03;  1.0001331E-01;2791; -2.1640877E-03;  0.0000000E+00;  8.2572857E-05;  1.0025172E+03;  1.0000000E-01;  2.0853730E+03;3; -4.2742462E+01;  0.0000000E+00; -2.1108866E-01;0; -1.9887561E-02;  4.0215504E+04;  0.0000000E+00; -2.9440578E-02;  4.0000000E+04;  0.0000000E+00;  3.9999926E+04; -2.0559318E-02;  0.0000000E+00;  6.7175709E-04;  2.6685852E+02;
  5.1494300E-02;  9.9999998E-03;  1.1001223E-01;2792; -2.1740680E-03;  0.0000000E+00;  9.5040697E-05;  1.0025511E+03;  1.0000000E-01;  2.1135205E+03;3; -4.2438717E+01;  0.0000000E+00; -3.4564885E-01;0; -1.9855101E-02;  4.0217242E+04;  0.0000000E+00; -4.5098290E-02;  4.0000000E+04;  0.0000000E+00;  4.0000617E+04; -2.0474005E-02;  0.0000000E+00;  6.1890396E-04;  1.5678676E+02;
  5.1483773E-02;  9.9999998E-03;  1.2000903E-01;2793; -2.1975359E-03;  0.0000000E+00;  1.0837438E-04;  1.0025677E+03;  1.0000000E-01;  2.1272485E+03;3; -4.2117062E+01;  0.0000000E+00; -5.0795633E-01;0; -1.9820269E-02;  4.0218121E+04;  0.0000000E+00; -6.7946054E-02;  4.0000000E+04;  0.0000000E+00;  4.0001109E+04; -2.0369807E-02;  0.0000000E+00;  5.4953771E-04;  1.1915928E+02;
  5.1475860E-02;  9.9999998E-03;  1.3000408E-01;2794; -2.2316945E-03;  0.0000000E+00;  1.1946235E-04;  1.0025562E+03;  1.0000000E-01;  2.1177673E+03;3; -4.1777733E+01;  0.0000000E+00; -7.0348144E-01;0; -1.9772017E-02;  4.0216703E+04;  0.0000000E+00; -1.0012120E-01;  4.0000000E+04;  0.0000000E+00;  4.0001469E+04; -2.0240085E-02;  0.0000000E+00;  4.6806806E-04;  1.5891464E+02;
  5.1474635E-02;  9.9999998E-03;  1.3999784E-01;2795; -2.2710669E-03;  0.0000000E+00;  1.2586066E-04;  1.0025042E+03;  1.0000000E-01;  2.0747068E+03;3; -4.1366032E+01;  0.0000000E+00; -9.3789786E-01;0; -1.9694963E-02;  4.0213180E+04;  0.0000000E+00; -1.4325094E-01;  4.0000000E+04;  0.0000000E+00;  4.0000512E+04; -2.0077296E-02;  0.0000000E+00;  3.8233123E-04;  2.5385941E+02;
  5.1483206E-02;  9.9999998E-03;  1.4999135E-01;2796; -2.3078045E-03;  0.0000000E+00;  1.2556808E-04;  1.0024136E+03;  1.0000000E-01;  1.9996471E+03;3; -4.0815346E+01;  0.0000000E+00; -1.2099570E+00;0; -1.9571096E-02;  4.0206473E+04;  0.0000000E+00; -1.9731252E-01;  4.0000000E+04;  0.0000000E+00;  4.0000590E+04; -1.9872997E-02;  0.0000000E+00;  3.0190189E-04;  4.0817017E+02;
  5.1502571E-02;  9.9999998E-03;  1.5998515E-01;2797; -2.3322327E-03;  0.0000000E+00;  1.1657320E-04;  1.0022717E+03;  1.0000000E-01;  1.8820209E+03;3; -3.9951298E+01;  0.0000000E+00; -1.4757470E+00;0; -1.9382825E-02;  4.0196191E+04;  0.0000000E+00; -2.5976768E-01;  4.0000000E+04;  0.0000000E+00;  3.9998062E+04; -1.9618176E-02;  0.0000000E+00;  2.3535120E-04;  5.9199298E+02;
  5.1532224E-02;  9.9999998E-03;  1.6998063E-01;2798; -2.3346413E-03;  0.0000000E+00;  9.9006211E-05;  1.0020926E+03;  1.0000000E-01;  1.7336793E+03;3; -3.8651344E+01;  0.0000000E+00; -1.6494349E+00;0; -1.9115018E-02;  4.0182004E+04;  0.0000000E+00; -3.2608488E-01;  4.0000000E+04;  0.0000000E+00;  3.9995945E+04; -1.9302636E-02;  0.0000000E+00;  1.8761860E-04;  7.4794012E+02;
  5.1569246E-02;  9.9999998E-03;  1.7998043E-01;2799; -2.3061808E-03;  0.0000000E+00;  7.5116041E-05;  1.0018689E+03;  1.0000000E-01;  1.5483019E+03;3; -3.6703987E+01;  0.0000000E+00; -1.6322193E+00;0; -1.8756257E-02;  4.0163652E+04;  0.0000000E+00; -3.9051807E-01;  4.0000000E+04;  0.0000000E+00;  3.9996594E+04; -1.8914763E-02;  0.0000000E+00;  1.5850541E-04;  8.1730280E+02;
  5.1607549E-02;  9.9999998E-03;  1.8998526E-01;2800; -2.2395537E-03;  0.0000000E+00;  4.8625014E-05;  1.0016230E+03;  1.0000000E-01;  1.3446533E+03;3; -3.4020626E+01;  0.0000000E+00; -1.3202859E+00;0; -1.8300079E-02;  4.0141867E+04;  0.0000000E+00; -4.4694686E-01;  4.0000000E+04;  0.0000000E+00;  3.9998504E+04; -1.8442089E-02;  0.0000000E+00;  1.4201071E-04;  7.7317242E+02;
  5.1639162E-02;  9.9999998E-03;  1.9999589E-01;2801; -2.1306644E-03;  0.0000000E+00;  2.4802632E-05;  1.0013536E+03;  1.0000000E-01;  1.1214497E+03;3; -3.0501984E+01;  0.0000000E+00; -6.0177433E-01;0; -1.7744945E-02;  4.0116371E+04;  0.0000000E+00; -4.8951599E-01;  4.0000000E+04;  0.0000000E+00;  4.0000598E+04; -1.7871566E-02;  0.0000000E+00;  1.2662125E-04;  6.9677533E+02;
  5.1655538E-02;  9.9999998E-03;  2.1001209E-01;2802; -1.9819913E-03;  0.0000000E+00;  8.5505417E-06;  1.0010723E+03;  1.0000000E-01;  8.8836993E+02;3; -2.6206738E+01;  0.0000000E+00;  6.5705347E-01;0; -1.7093280E-02;  4.0088188E+04;  0.0000000E+00; -5.1350611E-01;  4.0000000E+04;  0.0000000E+00;  4.0005305E+04; -1.7190473E-02;  0.0000000E+00;  9.7192613E-05;  8.6513434E+02;
  5.1643103E-02;  9.9999998E-03;  2.2003032E-01;2803; -1.8012195E-03;  0.0000000E+00;  4.4585349E-06;  1.0007823E+03;  1.0000000E-01;  6.4817920E+02;3; -2.1318085E+01;  0.0000000E+00;  2.5720422E+00;0; -1.6350718E-02;  4.0058660E+04;  0.0000000E+00; -5.1758295E-01;  4.0000000E+04;  0.0000000E+00;  4.0011172E+04; -1.6389076E-02;  0.0000000E+00;  3.8358237E-05;  1.3755107E+03;
  5.1583916E-02;  9.9999998E-03;  2.3004283E-01;2804; -1.6040248E-03;  0.0000000E+00;  1.1842118E-05;  1.0005016E+03;  1.0000000E-01;  4.1559317E+02;3; -1.6231327E+01;  0.0000000E+00;  5.1570425E+00;0; -1.5523639E-02;  4.0028980E+04;  0.0000000E+00; -5.0598389E-01;  4.0000000E+04;  0.0000000E+00;  4.0016027E+04; -1.5462376E-02;  0.0000000E+00; -6.1262690E-05;  2.0125459E+03;
  6.1207488E-02;  9.9999998E-03;  7.0016116E-02;2849; -2.3820538E-03;  0.0000000E+00;  4.8996411E-05;  1.0036620E+03;  1.0000000E-01;  3.0338894E+03;3; -3.7612034E+01;  0.0000000E+00;  2.7953843E-02;0; -1.8817652E-02;  4.0313605E+04;  0.0000000E+00; -2.3708257E-03;  4.0000000E+04;  0.0000000E+00;  3.9998316E+04; -1.9590795E-02;  0.0000000E+00;  7.7314349E-04;  5.7714044E+02;
  6.1210066E-02;  9.9999998E-03;  8.0021568E-02;2850; -2.3595181E-03;  0.0000000E+00;  5.3505166E-05;  1.0036978E+03;  1.0000000E-01;  3.0636169E+03;3; -3.7560410E+01;  0.0000000E+00; -1.8044928E-02;0; -1.8772766E-02;  4.0316020E+04;  0.0000000E+00; -5.6258184E-03;  4.0000000E+04;  0.0000000E+00;  3.9999371E+04; -1.9531883E-02;  0.0000000E+00;  7.5911701E-04;  4.9910712E+02;
  6.1207898E-02;  9.9999998E-03;  9.0027198E-02;2851; -2.3437045E-03;  0.0000000E+00;  6.5237116E-05;  1.0037406E+03;  1.0000000E-01;  3.0989741E+03;3; -3.7389160E+01;  0.0000000E+00; -7.6062568E-02;0; -1.8726189E-02;  4.0318840E+04;  0.0000000E+00; -1.1458585E-02;  4.0000000E+04;  0.0000000E+00;  3.9999840E+04; -1.9460768E-02;  0.0000000E+00;  7.3457946E-04;  3.5962378E+02;
  6.1200980E-02;  9.9999998E-03;  1.0003222E-01;2852; -2.3384935E-03;  0.0000000E+00;  8.3373903E-05;  1.0037902E+03;  1.0000000E-01;  3.1400593E+03;3; -3.7142040E+01;  0.0000000E+00; -1.4770615E-01;0; -1.8682666E-02;  4.0321105E+04;  0.0000000E+00; -2.0704621E-02;  4.0000000E+04;  0.0000000E+00;  4.0001441E+04; -1.9375658E-02;  0.0000000E+00;  6.9299078E-04;  1.8845020E+02;
  6.1190810E-02;  9.9999998E-03;  1.1003471E-01;2853; -2.3472547E-03;  0.0000000E+00;  1.0641626E-04;  1.0038323E+03;  1.0000000E-01;  3.1750212E+03;3; -3.6850399E+01;  0.0000000E+00; -2.3329835E-01;0; -1.8643640E-02;  4.0323582E+04;  0.0000000E+00; -3.4021039E-02;  4.0000000E+04;  0.0000000E+00;  4.0002617E+04; -1.9274125E-02;  0.0000000E+00;  6.3048437E-04;  5.3631996E+01;
  6.1180968E-02;  9.9999998E-03;  1.2003228E-01;2854; -2.3730355E-03;  0.0000000E+00;  1.2988878E-04;  1.0038654E+03;  1.0000000E-01;  3.2023787E+03;3; -3.6590500E+01;  0.0000000E+00; -3.3822110E-01;0; -1.8605281E-02;  4.0325098E+04;  0.0000000E+00; -5.1699281E-02;  4.0000000E+04;  0.0000000E+00;  4.0003367E+04; -1.9153016E-02;  0.0000000E+00;  5.4773595E-04;  1.1001466E+02;
  6.1175510E-02;  9.9999998E-03;  1.3002472E-01;2855; -2.4109446E-03;  0.0000000E+00;  1.4975628E-04;  1.0038687E+03;  1.0000000E-01;  3.2051438E+03;3; -3.6348648E+01;  0.0000000E+00; -4.6819681E-01;0; -1.8558349E-02;  4.0325035E+04;  0.0000000E+00; -7.3325194E-02;  4.0000000E+04;  0.0000000E+00;  4.0003410E+04; -1.9008867E-02;  0.0000000E+00;  4.5051830E-04;  1.3743919E+02;
  6.1177894E-02;  9.9999998E-03;  1.4001387E-01;2856; -2.4534862E-03;  0.0000000E+00;  1.5950065E-04;  1.0038333E+03;  1.0000000E-01;  3.1758115E+03;3; -3.6100376E+01;  0.0000000E+00; -6.2945312E-01;0; -1.8488713E-02;  4.0322672E+04;  0.0000000E+00; -9.7316310E-02;  4.0000000E+04;  0.0000000E+00;  4.0003602E+04; -1.8837435E-02;  0.0000000E+00;  3.4872181E-04;  1.3968297E+02;
  6.1191238E-02;  9.9999998E-03;  1.5000167E-01;2857; -2.4945557E-03;  0.0000000E+00;  1.5557295E-04;  1.0037574E+03;  1.0000000E-01;  3.1129983E+03;3; -3.5792469E+01;  0.0000000E+00; -8.1908208E-01;0; -1.8378939E-02;  4.0317645E+04;  0.0000000E+00; -1.2043148E-01;  4.0000000E+04;  0.0000000E+00;  4.0000781E+04; -1.8633312E-02;  0.0000000E+00;  2.5437132E-04;  2.7693787E+02;
  6.1216637E-02;  9.9999998E-03;  1.5998925E-01;2858; -2.5241107E-03;  0.0000000E+00;  1.3671021E-04;  1.0036306E+03;  1.0000000E-01;  3.0078162E+03;3; -3.5283455E+01;  0.0000000E+00; -9.7893983E-01;0; -1.8211616E-02;  4.0308645E+04;  0.0000000E+00; -1.3749194E-01;  4.0000000E+04;  0.0000000E+00;  3.9999324E+04; -1.8390112E-02;  0.0000000E+00;  1.7849494E-04;  5.0503699E+02;
  6.1253551E-02;  9.9999998E-03;  1.6997838E-01;2859; -2.5312349E-03;  0.0000000E+00;  1.0663535E-04;  1.0034526E+03;  1.0000000E-01;  2.8603635E+03;3; -3.4429047E+01;  0.0000000E+00; -1.0017234E+00;0; -1.7971516E-02;  4.0295297E+04;  0.0000000E+00; -1.4343940E-01;  4.0000000E+04;  0.0000000E+00;  3.9996242E+04; -1.8099554E-02;  0.0000000E+00;  1.2803827E-04;  7.1781714E+02;
  6.1299283E-02;  9.9999998E-03;  1.7997211E-01;2860; -2.5076573E-03;  0.0000000E+00;  7.0364353E-05;  1.0032231E+03;  1.0000000E-01;  2.6703442E+03;3; -3.3070148E+01;  0.0000000E+00; -7.6392329E-01;0; -1.7646983E-02;  4.0276836E+04;  0.0000000E+00; -1.3578057E-01;  4.0000000E+04;  0.0000000E+00;  3.9995953E+04; -1.7750941E-02;  0.0000000E+00;  1.0395801E-04;  8.2876868E+02;
  6.1347656E-02;  9.9999998E-03;  1.8997331E-01;2861; -2.4462729E-03;  0.0000000E+00;  3.4343480E-05;  1.0029519E+03;  1.0000000E-01;  2.4455605E+03;3; -3.1089407E+01;  0.0000000E+00; -1.4167476E-01;0; -1.7231407E-02;  4.0253391E+04;  0.0000000E+00; -1.1585782E-01;  4.0000000E+04;  0.0000000E+00;  3.9996305E+04; -1.7331416E-02;  0.0000000E+00;  1.0000954E-04;  7.6546198E+02;
  6.1390754E-02;  9.9999998E-03;  1.9998269E-01;2862; -2.3416176E-03;  0.0000000E+00;  3.8068433E-06;  1.0026400E+03;  1.0000000E-01;  2.1871975E+03;3; -2.8376211E+01;  0.0000000E+00;  9.8273671E-01;0; -1.6723702E-02;  4.0224793E+04;  0.0000000E+00; -8.8411748E-02;  4.0000000E+04;  0.0000000E+00;  3.9998957E+04; -1.6826697E-02;  0.0000000E+00;  1.0299557E-04;  4.8191611E+02;
  6.1420690E-02;  9.9999998E-03;  2.1000040E-01;2863; -2.1947261E-03;  0.0000000E+00; -1.6747539E-05;  1.0022940E+03;  1.0000000E-01;  1.9005883E+03;3; -2.4921011E+01;  0.0000000E+00;  2.7360239E+00;0; -1.6126934E-02;  4.0191516E+04;  0.0000000E+00; -6.0584735E-02;  4.0000000E+04;  0.0000000E+00;  4.0003391E+04; -1.6221872E-02;  0.0000000E+00;  9.4936775E-05;  9.0592987E+01;
  6.1427411E-02;  9.9999998E-03;  2.2002451E-01;2864; -2.0137068E-03;  0.0000000E+00; -2.2791632E-05;  1.0019247E+03;  1.0000000E-01;  1.5946216E+03;3; -2.0846560E+01;  0.0000000E+00;  5.2312284E+00;0; -1.5446716E-02;  4.0154953E+04;  0.0000000E+00; -4.1580893E-02;  4.0000000E+04;  0.0000000E+00;  4.0007289E+04; -1.5503612E-02;  0.0000000E+00;  5.6896166E-05;  7.3510510E+02;
  6.1394025E-02;  9.9999998E-03;  2.3004669E-01;2865; -1.8124873E-03;  0.0000000E+00; -1.2219113E-05;  1.0015330E+03;  1.0000000E-01;  1.2699888E+03;3; -1.6384409E+01;  0.0000000E+00;  8.4479275E+00;0; -1.4689753E-02;  4.0116039E+04;  0.0000000E+00; -4.3017462E-02;  4.0000000E+04;  0.0000000E+00;  4.0013664E+04; -1.4663674E-02;  0.0000000E+00; -2.6078660E-05;  1.4914873E+03;
  7.1011275E-02;  9.9999998E-03;  7.0022792E-02;2910; -2.4526927E-03;  0.0000000E+00;  3.8731341E-05;  1.0040087E+03;  1.0000000E-01;  3.3211899E+03;3; -2.8291359E+01;  0.0000000E+00;  1.4886962E-02;0; -1.7432433E-02;  4.0343148E+04;  0.0000000E+00;  3.3077656E-03;  4.0000000E+04;  0.0000000E+00;  3.9999746E+04; -1.8219737E-02;  0.0000000E+00;  7.8730384E-04;  4.4138608E+02;
  7.1014151E-02;  9.9999998E-03;  8.0031835E-02;2911; -2.4302953E-03;  0.0000000E+00;  4.1985320E-05;  1.0040374E+03;  1.0000000E-01;  3.3448931E+03;3; -2.8234825E+01;  0.0000000E+00; -1.5483555E-02;0; -1.7381562E-02;  4.0344562E+04;  0.0000000E+00;  1.6503800E-03;  4.0000000E+04;  0.0000000E+00;  4.0000559E+04; -1.8156147E-02;  0.0000000E+00;  7.7458483E-04;  3.5128387E+02;
  7.1012765E-02;  9.9999998E-03;  9.0041801E-02;2912; -2.4148608E-03;  0.0000000E+00;  5.4276894E-05;  1.0040786E+03;  1.0000000E-01;  3.3790649E+03;3; -2.8082970E+01;  0.0000000E+00; -5.3524811E-02;0; -1.7325504E-02;  4.0346879E+04;  0.0000000E+00; -2.5450329E-03;  4.0000000E+04;  0.0000000E+00;  4.0001805E+04; -1.8074328E-02;  0.0000000E+00;  7.4882503E-04;  1.8506200E+02;
  7.1007363E-02;  9.9999998E-03;  1.0005155E-01;2913; -2.4105553E-03;  0.0000000E+00;  7.9583675E-05;  1.0041262E+03;  1.0000000E-01;  3.4184712E+03;3; -2.7861660E+01;  0.0000000E+00; -9.7848237E-02;0; -1.7270584E-02;  4.0349277E+04;  0.0000000E+00; -9.9134399E-03;  4.0000000E+04;  0.0000000E+00;  4.0003523E+04; -1.7973155E-02;  0.0000000E+00;  7.0257188E-04;  2.8252970E+01;
  7.0999034E-02;  9.9999998E-03;  1.1005741E-01;2914; -2.4208610E-03;  0.0000000E+00;  1.1757288E-04;  1.0041794E+03;  1.0000000E-01;  3.4625193E+03;3; -2.7628242E+01;  0.0000000E+00; -1.4811748E-01;0; -1.7220616E-02;  4.0351875E+04;  0.0000000E+00; -2.0391649E-02;  4.0000000E+04;  0.0000000E+00;  4.0004824E+04; -1.7852146E-02;  0.0000000E+00;  6.3152926E-04;  2.2751198E+02;
  7.0990667E-02;  9.9999998E-03;  1.2005603E-01;2915; -2.4468475E-03;  0.0000000E+00;  1.5584599E-04;  1.0042195E+03;  1.0000000E-01;  3.4958022E+03;3; -2.7411682E+01;  0.0000000E+00; -2.1239407E-01;0; -1.7174350E-02;  4.0354352E+04;  0.0000000E+00; -3.2751568E-02;  4.0000000E+04;  0.0000000E+00;  4.0005633E+04; -1.7711231E-02;  0.0000000E+00;  5.3688092E-04;  3.6153784E+02;
  7.0986800E-02;  9.9999998E-03;  1.3004667E-01;2916; -2.4840916E-03;  0.0000000E+00;  1.8246965E-04;  1.0042472E+03;  1.0000000E-01;  3.5187153E+03;3; -2.7258518E+01;  0.0000000E+00; -2.9567549E-01;0; -1.7124293E-02;  4.0355898E+04;  0.0000000E+00; -4.4096187E-02;  4.0000000E+04;  0.0000000E+00;  4.0005176E+04; -1.7550154E-02;  0.0000000E+00;  4.2585970E-04;  3.7853943E+02;
  7.0991099E-02;  9.9999998E-03;  1.4003158E-01;2917; -2.5264993E-03;  0.0000000E+00;  1.9374574E-04;  1.0042363E+03;  1.0000000E-01;  3.5096292E+03;3; -2.7128157E+01;  0.0000000E+00; -4.0079901E-01;0; -1.7058009E-02;  4.0355723E+04;  0.0000000E+00; -4.9426194E-02;  4.0000000E+04;  0.0000000E+00;  4.0005465E+04; -1.7368414E-02;  0.0000000E+00;  3.1040391E-04;  2.5719745E+02;
  7.1006410E-02;  9.9999998E-03;  1.5001455E-01;2918; -2.5669860E-03;  0.0000000E+00;  1.8839548E-04;  1.0041896E+03;  1.0000000E-01;  3.4710129E+03;3; -2.6992987E+01;  0.0000000E+00; -5.2156550E-01;0; -1.6959587E-02;  4.0353203E+04;  0.0000000E+00; -4.1673668E-02;  4.0000000E+04;  0.0000000E+00;  4.0002922E+04; -1.7164456E-02;  0.0000000E+00;  2.0486936E-04;  5.8929783E+01;
  7.1034104E-02;  9.9999998E-03;  1.5999751E-01;2919; -2.5961427E-03;  0.0000000E+00;  1.6506700E-04;  1.0040894E+03;  1.0000000E-01;  3.3880522E+03;3; -2.6729942E+01;  0.0000000E+00; -5.9816539E-01;0; -1.6812233E-02;  4.0347355E+04;  0.0000000E+00; -1.2314301E-02;  4.0000000E+04;  0.0000000E+00;  4.0000230E+04; -1.6934860E-02;  0.0000000E+00;  1.2262678E-04;  3.2482825E+02;
  7.1073592E-02;  9.9999998E-03;  1.6998200E-01;2920; -2.6026214E-03;  0.0000000E+00;  1.2907978E-04;  1.0039373E+03;  1.0000000E-01;  3.2619324E+03;3; -2.6231197E+01;  0.0000000E+00; -5.1234627E-01;0; -1.6601043E-02;  4.0336957E+04;  0.0000000E+00;  4.5275286E-02;  4.0000000E+04;  0.0000000E+00;  3.9996840E+04; -1.6673595E-02;  0.0000000E+00;  7.2551593E-05;  6.3791528E+02;
  7.1122132E-02;  9.9999998E-03;  1.7997132E-01;2921; -2.5785672E-03;  0.0000000E+00;  8.4903506E-05;  1.0037377E+03;  1.0000000E-01;  3.0966038E+03;3; -2.5381788E+01;  0.0000000E+00; -1.2895803E-01;0; -1.6314678E-02;  4.0321207E+04;  0.0000000E+00;  1.3138571E-01;  4.0000000E+04;  0.0000000E+00;  3.9996242E+04; -1.6371112E-02;  0.0000000E+00;  5.6434288E-05;  8.6666241E+02;
  7.1174867E-02;  9.9999998E-03;  1.8997021E-01;2922; -2.5187745E-03;  0.0000000E+00;  4.4268570E-05;  1.0034821E+03;  1.0000000E-01;  2.8848567E+03;3; -2.4047359E+01;  0.0000000E+00;  6.8417555E-01;0; -1.5946789E-02;  4.0299523E+04;  0.0000000E+00;  2.3817311E-01;  4.0000000E+04;  0.0000000E+00;  3.9995758E+04; -1.6014380E-02;  0.0000000E+00;  6.7591704E-05;  9.4059271E+02;
  7.1223535E-02;  9.9999998E-03;  1.9998047E-01;2923; -2.4183101E-03;  0.0000000E+00;  1.1784345E-05;  1.0031753E+03;  1.0000000E-01;  2.6306416E+03;3; -2.2135735E+01;  0.0000000E+00;  2.0533862E+00;0; -1.5496684E-02;  4.0271664E+04;  0.0000000E+00;  3.5067108E-01;  4.0000000E+04;  0.0000000E+00;  3.9997613E+04; -1.5587782E-02;  0.0000000E+00;  9.1098453E-05;  8.3492334E+02;
  7.1260713E-02;  9.9999998E-03;  2.1000305E-01;2924; -2.2767596E-03;  0.0000000E+00; -8.3591885E-06;  1.0028203E+03;  1.0000000E-01;  2.3365266E+03;3; -1.9600416E+01;  0.0000000E+00;  4.1062398E+00;0; -1.4967560E-02;  4.0237656E+04;  0.0000000E+00;  4.4883871E-01;  4.0000000E+04;  0.0000000E+00;  4.0000969E+04; -1.5073688E-02;  0.0000000E+00;  1.0612789E-04;  6.7438080E+02;
  7.1277358E-02;  9.9999998E-03;  2.2003536E-01;2925; -2.1007690E-03;  0.0000000E+00; -9.9724848E-06;  1.0024194E+03;  1.0000000E-01;  2.0043877E+03;3; -1.6484022E+01;  0.0000000E+00;  6.9498286E+00;0; -1.4365042E-02;  4.0198414E+04;  0.0000000E+00;  5.0935662E-01;  4.0000000E+04;  0.0000000E+00;  4.0005770E+04; -1.4455236E-02;  0.0000000E+00;  9.0194109E-05;  8.7536914E+02;
  7.1258731E-02;  9.9999998E-03;  2.3006843E-01;2926; -1.9020699E-03;  0.0000000E+00;  1.1579134E-05;  1.0019858E+03;  1.0000000E-01;  1.6451880E+03;3; -1.2956201E+01;  0.0000000E+00;  1.0575888E+01;0; -1.3695177E-02;  4.0155387E+04;  0.0000000E+00;  5.1101106E-01;  4.0000000E+04;  0.0000000E+00;  4.0010844E+04; -1.3720009E-02;  0.0000000E+00;  2.4832721E-05;  1.4614056E+03;
  8.0932781E-02;  9.9999998E-03;  7.0027031E-02;2971; -2.4512841E-03;  0.0000000E+00;  4.0272960E-05;  1.0036308E+03;  1.0000000E-01;  3.0080137E+03;3; -1.8766830E+01;  0.0000000E+00;  1.1736050E-02;0; -1.6074561E-02;  4.0311387E+04;  0.0000000E+00;  6.4615137E-03;  4.0000000E+04;  0.0000000E+00;  4.0001266E+04; -1.6861018E-02;  0.0000000E+00;  7.8645773E-04;  1.6747290E+02;
  8.0936074E-02;  9.9999998E-03;  8.0037966E-02;2972; -2.4295689E-03;  0.0000000E+00;  4.1621523E-05;  1.0036408E+03;  1.0000000E-01;  3.0163098E+03;3; -1.8707796E+01;  0.0000000E+00; -7.0261871E-03;0; -1.6017605E-02;  4.0311910E+04;  0.0000000E+00;  6.3127335E-03;  4.0000000E+04;  0.0000000E+00;  4.0002637E+04; -1.6792540E-02;  0.0000000E+00;  7.7493495E-04;  7.1062363E+01;
  8.0935530E-02;  9.9999998E-03;  9.0050660E-02;2973; -2.4142694E-03;  0.0000000E+00;  5.4028857E-05;  1.0036704E+03;  1.0000000E-01;  3.0409016E+03;3; -1.8580355E+01;  0.0000000E+00; -3.0052708E-02;0; -1.5951116E-02;  4.0313031E+04;  0.0000000E+00;  4.0162615E-03;  4.0000000E+04;  0.0000000E+00;  4.0003957E+04; -1.6699171E-02;  0.0000000E+00;  7.4805494E-04;  1.1560642E+02;
  8.0930896E-02;  9.9999998E-03;  1.0006464E-01;2974; -2.4093408E-03;  0.0000000E+00;  8.2175284E-05;  1.0037171E+03;  1.0000000E-01;  3.0795178E+03;3; -1.8408394E+01;  0.0000000E+00; -5.7596326E-02;0; -1.5882693E-02;  4.0315062E+04;  0.0000000E+00; -9.3561813E-04;  4.0000000E+04;  0.0000000E+00;  4.0005930E+04; -1.6580386E-02;  0.0000000E+00;  6.9769257E-04;  3.5403656E+02;
  8.0922909E-02;  9.9999998E-03;  1.1007470E-01;2975; -2.4181129E-03;  0.0000000E+00;  1.2677166E-04;  1.0037709E+03;  1.0000000E-01;  3.1241584E+03;3; -1.8225086E+01;  0.0000000E+00; -8.7062135E-02;0; -1.5818318E-02;  4.0317285E+04;  0.0000000E+00; -8.0275647E-03;  4.0000000E+04;  0.0000000E+00;  4.0007363E+04; -1.6437633E-02;  0.0000000E+00;  6.1931537E-04;  5.8582550E+02;
  8.0913477E-02;  9.9999998E-03;  1.2007516E-01;2976; -2.4412705E-03;  0.0000000E+00;  1.7051585E-04;  1.0038224E+03;  1.0000000E-01;  3.1668240E+03;3; -1.8069536E+01;  0.0000000E+00; -1.2431671E-01;0; -1.5759315E-02;  4.0320184E+04;  0.0000000E+00; -1.4994726E-02;  4.0000000E+04;  0.0000000E+00;  4.0008516E+04; -1.6273998E-02;  0.0000000E+00;  5.1468151E-04;  7.4101782E+02;
  8.0906697E-02;  9.9999998E-03;  1.3006526E-01;2977; -2.4739243E-03;  0.0000000E+00;  2.0151964E-04;  1.0038628E+03;  1.0000000E-01;  3.2002058E+03;3; -1.7966831E+01;  0.0000000E+00; -1.7407720E-01;0; -1.5700702E-02;  4.0323125E+04;  0.0000000E+00; -1.7067248E-02;  4.0000000E+04;  0.0000000E+00;  4.0009391E+04; -1.6093090E-02;  0.0000000E+00;  3.9238884E-04;  7.6013232E+02;
  8.0907740E-02;  9.9999998E-03;  1.4004716E-01;2978; -2.5099902E-03;  0.0000000E+00;  2.1652102E-04;  1.0038823E+03;  1.0000000E-01;  3.2164028E+03;3; -1.7914522E+01;  0.0000000E+00; -2.3651804E-01;0; -1.5632167E-02;  4.0325781E+04;  0.0000000E+00; -6.4009996E-03;  4.0000000E+04;  0.0000000E+00;  4.0009453E+04; -1.5898459E-02;  0.0000000E+00;  2.6629196E-04;  6.1470099E+02;
  8.0919534E-02;  9.9999998E-03;  1.5002622E-01;2979; -2.5427332E-03;  0.0000000E+00;  2.1422279E-04;  1.0038691E+03;  1.0000000E-01;  3.2055391E+03;3; -1.7874090E+01;  0.0000000E+00; -3.0743814E-01;0; -1.5539855E-02;  4.0326723E+04;  0.0000000E+00;  2.7683523E-02;  4.0000000E+04;  0.0000000E+00;  4.0005672E+04; -1.5692692E-02;  0.0000000E+00;  1.5283789E-04;  3.2348553E+02;
  8.0944806E-02;  9.9999998E-03;  1.6000646E-01;2980; -2.5653886E-03;  0.0000000E+00;  1.9252715E-04;  1.0038192E+03;  1.0000000E-01;  3.1640586E+03;3; -1.7781540E+01;  0.0000000E+00; -3.2663652E-01;0; -1.5408352E-02;  4.0324852E+04;  0.0000000E+00;  9.6966892E-02;  4.0000000E+04;  0.0000000E+00;  4.0002270E+04; -1.5475765E-02;  0.0000000E+00;  6.7412948E-05;  1.5165982E+02;
  8.0982380E-02;  9.9999998E-03;  1.6998903E-01;2981; -2.5685297E-03;  0.0000000E+00;  1.5605705E-04;  1.0037178E+03;  1.0000000E-01;  3.0801104E+03;3; -1.7535067E+01;  0.0000000E+00; -1.7613012E-01;0; -1.5223724E-02;  4.0318871E+04;  0.0000000E+00;  2.1009493E-01;  4.0000000E+04;  0.0000000E+00;  3.9999133E+04; -1.5244226E-02;  0.0000000E+00;  2.0502217E-05;  5.3495898E+02;
  8.1030175E-02;  9.9999998E-03;  1.7997724E-01;2982; -2.5449677E-03;  0.0000000E+00;  1.1215654E-04;  1.0035679E+03;  1.0000000E-01;  2.9559658E+03;3; -1.7048597E+01;  0.0000000E+00;  2.8271070E-01;0; -1.4975527E-02;  4.0307645E+04;  0.0000000E+00;  3.6670208E-01;  4.0000000E+04;  0.0000000E+00;  3.9997117E+04; -1.4990007E-02;  0.0000000E+00;  1.4479148E-05;  8.9672137E+02;
  8.1083052E-02;  9.9999998E-03;  1.8997657E-01;2983; -2.4894241E-03;  0.0000000E+00;  7.3389288E-05;  1.0033621E+03;  1.0000000E-01;  2.7854026E+03;3; -1.6222868E+01;  0.0000000E+00;  1.1876899E+00;0; -1.4658289E-02;  4.0290695E+04;  0.0000000E+00;  5.5516142E-01;  4.0000000E+04;  0.0000000E+00;  3.9996480E+04; -1.4700459E-02;  0.0000000E+00;  4.2170075E-05;  1.1439789E+03;
  8.1133179E-02;  9.9999998E-03;  1.9999139E-01;2984; -2.3944047E-03;  0.0000000E+00;  4.4044682E-05;  1.0030967E+03;  1.0000000E-01;  2.5655571E+03;3; -1.4965540E+01;  0.0000000E+00;  2.6681881E+00;0; -1.4271206E-02;  4.0266449E+04;  0.0000000E+00;  7.5298947E-01;  4.0000000E+04;  0.0000000E+00;  3.9997090E+04; -1.4358296E-02;  0.0000000E+00;  8.7089415E-05;  1.2643727E+03;
  8.1173852E-02;  9.9999998E-03;  2.1002360E-01;2985; -2.2605804E-03;  0.0000000E+00;  3.0030527E-05;  1.0027727E+03;  1.0000000E-01;  2.2971201E+03;3; -1.3223752E+01;  0.0000000E+00;  4.8621473E+00;0; -1.3817322E-02;  4.0235512E+04;  0.0000000E+00;  9.2803168E-01;  4.0000000E+04;  0.0000000E+00;  3.9999938E+04; -1.3943141E-02;  0.0000000E+00;  1.2581891E-04;  1.3441660E+03;
  8.1194215E-02;  9.9999998E-03;  2.2006834E-01;2986; -2.0896215E-03;  0.0000000E+00;  4.2826021E-05;  1.0023971E+03;  1.0000000E-01;  1.9859192E+03;3; -1.1008433E+01;  0.0000000E+00;  7.8978205E+00;0; -1.3302054E-02;  4.0198086E+04;  0.0000000E+00;  1.0465178E+00;  4.0000000E+04;  0.0000000E+00;  4.0005328E+04; -1.3434703E-02;  0.0000000E+00;  1.3264800E-04;  1.5592013E+03;
  8.1182182E-02;  9.9999998E-03;  2.3011295E-01;2987; -1.8948551E-03;  0.0000000E+00;  8.5979234E-05;  1.0019641E+03;  1.0000000E-01;  1.6272133E+03;3; -8.4052391E+00;  0.0000000E+00;  1.1748518E+01;0; -1.2730192E-02;  4.0154688E+04;  0.0000000E+00;  1.0836463E+00;  4.0000000E+04;  0.0000000E+00;  4.0011066E+04; -1.2816056E-02;  0.0000000E+00;  8.5863256E-05;  1.9855289E+03;
  9.1000125E-02;  9.9999998E-03;  7.0023619E-02;3032; -2.4267002E-03;  0.0000000E+00;  4.7107202E-05;  1.0028011E+03;  1.0000000E-01;  2.3207246E+03;3; -1.1057769E+01;  0.0000000E+00;  1.0951138E-02;0; -1.4951302E-02;  4.0241430E+04;  0.0000000E+00;  4.5946934E-03;  4.0000000E+04;  0.0000000E+00;  4.0003805E+04; -1.5721044E-02;  0.0000000E+00;  7.6974218E-04;  2.1012784E+02;
  9.1002241E-02;  9.9999998E-03;  8.0034681E-02;3033; -2.4052779E-03;  0.0000000E+00;  4.5559209E-05;  1.0027957E+03;  1.0000000E-01;  2.3161814E+03;3; -1.1012716E+01;  0.0000000E+00; -7.8340212E-04;0; -1.4889095E-02;  4.0240207E+04;  0.0000000E+00;  5.0881854E-03;  4.0000000E+04;  0.0000000E+00;  4.0004453E+04; -1.5647994E-02;  0.0000000E+00;  7.5889967E-04;  3.1070117E+02;
  9.0998597E-02;  9.9999998E-03;  9.0048648E-02;3034; -2.3895425E-03;  0.0000000E+00;  5.6171095E-05;  1.0028084E+03;  1.0000000E-01;  2.3267490E+03;3; -1.0919559E+01;  0.0000000E+00; -1.4693366E-02;0; -1.4812437E-02;  4.0239812E+04;  0.0000000E+00;  4.2730779E-03;  4.0000000E+04;  0.0000000E+00;  4.0006113E+04; -1.5543038E-02;  0.0000000E+00;  7.3060155E-04;  5.1104675E+02;
  9.0988308E-02;  9.9999998E-03;  1.0006549E-01;3035; -2.3832247E-03;  0.0000000E+00;  8.3254665E-05;  1.0028375E+03;  1.0000000E-01;  2.3507483E+03;3; -1.0793607E+01;  0.0000000E+00; -3.0844683E-02;0; -1.4729776E-02;  4.0240277E+04;  0.0000000E+00;  1.8347926E-03;  4.0000000E+04;  0.0000000E+00;  4.0008305E+04; -1.5406159E-02;  0.0000000E+00;  6.7638233E-04;  7.7104803E+02;
  9.0971820E-02;  9.9999998E-03;  1.1008167E-01;3036; -2.3891802E-03;  0.0000000E+00;  1.2761162E-04;  1.0028807E+03;  1.0000000E-01;  2.3865991E+03;3; -1.0664232E+01;  0.0000000E+00; -4.7787730E-02;0; -1.4648779E-02;  4.0242141E+04;  0.0000000E+00; -1.4576529E-03;  4.0000000E+04;  0.0000000E+00;  4.0009793E+04; -1.5240524E-02;  0.0000000E+00;  5.9174484E-04;  1.0243965E+03;
  9.0951480E-02;  9.9999998E-03;  1.2008715E-01;3037; -2.4081662E-03;  0.0000000E+00;  1.7166782E-04;  1.0029366E+03;  1.0000000E-01;  2.4329189E+03;3; -1.0565951E+01;  0.0000000E+00; -6.8554327E-02;0; -1.4573201E-02;  4.0245191E+04;  0.0000000E+00; -2.8317100E-03;  4.0000000E+04;  0.0000000E+00;  4.0011922E+04; -1.5052276E-02;  0.0000000E+00;  4.7907530E-04;  1.1930133E+03;
  9.0932071E-02;  9.9999998E-03;  1.3007939E-01;3038; -2.4357408E-03;  0.0000000E+00;  2.0441646E-04;  1.0029913E+03;  1.0000000E-01;  2.4782510E+03;3; -1.0512335E+01;  0.0000000E+00; -9.5520280E-02;0; -1.4500853E-02;  4.0249188E+04;  0.0000000E+00;  3.4624219E-03;  4.0000000E+04;  0.0000000E+00;  4.0012105E+04; -1.4849022E-02;  0.0000000E+00;  3.4816973E-04;  1.2105415E+03;
  9.0919845E-02;  9.9999998E-03;  1.4006086E-01;3039; -2.4656141E-03;  0.0000000E+00;  2.2083800E-04;  1.0030365E+03;  1.0000000E-01;  2.5156819E+03;3; -1.0505010E+01;  0.0000000E+00; -1.2931222E-01;0; -1.4424153E-02;  4.0253801E+04;  0.0000000E+00;  2.6960382E-02;  4.0000000E+04;  0.0000000E+00;  4.0011625E+04; -1.4638671E-02;  0.0000000E+00;  2.1451758E-04;  1.0462841E+03;
  9.0920143E-02;  9.9999998E-03;  1.5003753E-01;3040; -2.4906881E-03;  0.0000000E+00;  2.2123627E-04;  1.0030591E+03;  1.0000000E-01;  2.5343481E+03;3; -1.0514138E+01;  0.0000000E+00; -1.6429530E-01;0; -1.4331493E-02;  4.0258070E+04;  0.0000000E+00;  8.0832280E-02;  4.0000000E+04;  0.0000000E+00;  4.0008863E+04; -1.4427792E-02;  0.0000000E+00;  9.6299409E-05;  7.2467053E+02;
  9.0935737E-02;  9.9999998E-03;  1.6001645E-01;3041; -2.5039641E-03;  0.0000000E+00;  2.0641420E-04;  1.0030549E+03;  1.0000000E-01;  2.5309902E+03;3; -1.0497164E+01;  0.0000000E+00; -1.4566913E-01;0; -1.4209645E-02;  4.0260793E+04;  0.0000000E+00;  1.7932343E-01;  4.0000000E+04;  0.0000000E+00;  4.0004902E+04; -1.4220044E-02;  0.0000000E+00;  1.0399583E-05;  3.8319403E+02;
  9.0967119E-02;  9.9999998E-03;  1.6999970E-01;3042; -2.5000926E-03;  0.0000000E+00;  1.7593436E-04;  1.0030169E+03;  1.0000000E-01;  2.4994849E+03;3; -1.0393358E+01;  0.0000000E+00;  3.5537384E-02;0; -1.4046389E-02;  4.0260156E+04;  0.0000000E+00;  3.3262661E-01;  4.0000000E+04;  0.0000000E+00;  4.0001410E+04; -1.4014831E-02;  0.0000000E+00; -3.1558237E-05;  4.9785925E+02;
  9.1011412E-02;  9.9999998E-03;  1.7999013E-01;3043; -2.4742489E-03;  0.0000000E+00;  1.4041836E-04;  1.0029315E+03;  1.0000000E-01;  2.4286721E+03;3; -1.0129414E+01;  0.0000000E+00;  5.1994669E-01;0; -1.3833083E-02;  4.0255195E+04;  0.0000000E+00;  5.4127687E-01;  4.0000000E+04;  0.0000000E+00;  3.9999445E+04; -1.3806339E-02;  0.0000000E+00; -2.6744046E-05;  9.1076038E+02;
  9.1063403E-02;  9.9999998E-03;  1.8999420E-01;3044; -2.4180575E-03;  0.0000000E+00;  1.0867427E-04;  1.0027945E+03;  1.0000000E-01;  2.3151938E+03;3; -9.6326828E+00;  0.0000000E+00;  1.4451588E+00;0; -1.3564770E-02;  4.0243812E+04;  0.0000000E+00;  7.9314864E-01;  4.0000000E+04;  0.0000000E+00;  3.9997980E+04; -1.3582105E-02;  0.0000000E+00;  1.7334762E-05;  1.2876482E+03;
  9.1114081E-02;  9.9999998E-03;  2.0001654E-01;3045; -2.3265122E-03;  0.0000000E+00;  8.6941342E-05;  1.0026039E+03;  1.0000000E-01;  2.1572722E+03;3; -8.8402567E+00;  0.0000000E+00;  2.9541309E+00;0; -1.3241026E-02;  4.0225895E+04;  0.0000000E+00;  1.0616387E+00;  4.0000000E+04;  0.0000000E+00;  3.9998262E+04; -1.3324058E-02;  0.0000000E+00;  8.3031875E-05;  1.5866816E+03;
  9.1153756E-02;  9.9999998E-03;  2.1005873E-01;3046; -2.1950128E-03;  0.0000000E+00;  8.7901841E-05;  1.0023435E+03;  1.0000000E-01;  1.9415747E+03;3; -7.6907144E+00;  0.0000000E+00;  5.2018461E+00;0; -1.2864789E-02;  4.0199887E+04;  0.0000000E+00;  1.3114177E+00;  4.0000000E+04;  0.0000000E+00;  4.0000875E+04; -1.3009686E-02;  0.0000000E+00;  1.4489688E-04;  1.8701323E+03;
  9.1173835E-02;  9.9999998E-03;  2.2010973E-01;3047; -2.0271395E-03;  0.0000000E+00;  1.2229021E-04;  1.0020184E+03;  1.0000000E-01;  1.6721503E+03;3; -6.1826658E+00;  0.0000000E+00;  8.3253202E+00;0; -1.2440750E-02;  4.0166703E+04;  0.0000000E+00;  1.5102401E+00;  4.0000000E+04;  0.0000000E+00;  4.0006539E+04; -1.2615252E-02;  0.0000000E+00;  1.7450159E-04;  2.2470603E+03;
  9.1163337E-02;  9.9999998E-03;  2.3015742E-01;3048; -1.8334251E-03;  0.0000000E+00;  1.9306943E-04;  1.0016246E+03;  1.0000000E-01;  1.3459373E+03;3; -4.3544445E+00;  0.0000000E+00;  1.2318402E+01;0; -1.1970841E-02;  4.0126777E+04;  0.0000000E+00;  1.6383170E+00;  4.0000000E+04;  0.0000000E+00;  4.0013117E+04; -1.2118571E-02;  0.0000000E+00;  1.4773029E-04;  2.7516929E+03;
  1.0130440E-01;  9.9999998E-03;  6.9982618E-02;3093; -2.4220573E-03;  0.0000000E+00;  4.5854515E-05;  1.0018217E+03;  1.0000000E-01;  1.5091919E+03;3; -5.7398520E+00;  0.0000000E+00;  6.7706266E-03;0; -1.4207190E-02;  4.0157016E+04;  0.0000000E+00; -3.1112288E-03;  4.0000000E+04;  0.0000000E+00;  4.0006871E+04; -1.4944041E-02;  0.0000000E+00;  7.3685107E-04;  6.3564240E+02;
  1.0130096E-01;  9.9999998E-03;  8.0000900E-02;3094; -2.4013247E-03;  0.0000000E+00;  4.2854052E-05;  1.0017910E+03;  1.0000000E-01;  1.4838099E+03;3; -5.7079210E+00;  0.0000000E+00; -7.2647949E-06;0; -1.4141041E-02;  4.0154121E+04;  0.0000000E+00; -3.5823882E-03;  4.0000000E+04;  0.0000000E+00;  4.0007195E+04; -1.4867041E-02;  0.0000000E+00;  7.2600023E-04;  7.4072888E+02;
  1.0128975E-01;  9.9999998E-03;  9.0020858E-02;3095; -2.3853362E-03;  0.0000000E+00;  5.2034564E-05;  1.0017808E+03;  1.0000000E-01;  1.4753163E+03;3; -5.6483388E+00;  0.0000000E+00; -7.6141814E-03;0; -1.4054964E-02;  4.0151645E+04;  0.0000000E+00; -4.2056832E-03;  4.0000000E+04;  0.0000000E+00;  4.0008527E+04; -1.4750754E-02;  0.0000000E+00;  6.9578935E-04;  9.5337518E+02;
  1.0126912E-01;  9.9999998E-03;  1.0003885E-01;3096; -2.3771299E-03;  0.0000000E+00;  7.7601675E-05;  1.0017864E+03;  1.0000000E-01;  1.4799581E+03;3; -5.5690770E+00;  0.0000000E+00; -1.5707204E-02;0; -1.3957638E-02;  4.0150426E+04;  0.0000000E+00; -4.8648696E-03;  4.0000000E+04;  0.0000000E+00;  4.0010680E+04; -1.4595420E-02;  0.0000000E+00;  6.3778216E-04;  1.2292919E+03;
  1.0123515E-01;  9.9999998E-03;  1.1005298E-01;3097; -2.3796696E-03;  0.0000000E+00;  1.1805783E-04;  1.0018171E+03;  1.0000000E-01;  1.5054390E+03;3; -5.4947076E+00;  0.0000000E+00; -2.4887232E-02;0; -1.3858177E-02;  4.0150656E+04;  0.0000000E+00; -4.5221243E-03;  4.0000000E+04;  0.0000000E+00;  4.0013352E+04; -1.4406051E-02;  0.0000000E+00;  5.4787472E-04;  1.4955742E+03;
  1.0118584E-01;  9.9999998E-03;  1.2006216E-01;3098; -2.3931395E-03;  0.0000000E+00;  1.6060669E-04;  1.0018661E+03;  1.0000000E-01;  1.5460304E+03;3; -5.4431996E+00;  0.0000000E+00; -3.4955911E-02;0; -1.3762652E-02;  4.0152887E+04;  0.0000000E+00; -2.6830778E-04;  4.0000000E+04;  0.0000000E+00;  4.0014793E+04; -1.4191639E-02;  0.0000000E+00;  4.2898697E-04;  1.6683789E+03;
  1.0111131E-01;  9.9999998E-03;  1.3006580E-01;3099; -2.4141923E-03;  0.0000000E+00;  1.9162496E-04;  1.0019213E+03;  1.0000000E-01;  1.5917574E+03;3; -5.4307156E+00;  0.0000000E+00; -4.8197839E-02;0; -1.3672969E-02;  4.0157574E+04;  0.0000000E+00;  1.3805496E-02;  4.0000000E+04;  0.0000000E+00;  4.0015199E+04; -1.3964878E-02;  0.0000000E+00;  2.9190924E-04;  1.6776453E+03;
  1.0105118E-01;  9.9999998E-03;  1.4005667E-01;3100; -2.4371420E-03;  0.0000000E+00;  2.0703505E-04;  1.0019814E+03;  1.0000000E-01;  1.6415338E+03;3; -5.4482713E+00;  0.0000000E+00; -6.4616568E-02;0; -1.3583066E-02;  4.0163910E+04;  0.0000000E+00;  4.7610350E-02;  4.0000000E+04;  0.0000000E+00;  4.0014578E+04; -1.3736425E-02;  0.0000000E+00;  1.5335888E-04;  1.4922556E+03;
  1.0102251E-01;  9.9999998E-03;  1.5003778E-01;3101; -2.4558853E-03;  0.0000000E+00;  2.0721718E-04;  1.0020363E+03;  1.0000000E-01;  1.6869646E+03;3; -5.4778695E+00;  0.0000000E+00; -7.8082390E-02;0; -1.3483554E-02;  4.0170902E+04;  0.0000000E+00;  1.1508730E-01;  4.0000000E+04;  0.0000000E+00;  4.0011684E+04; -1.3516387E-02;  0.0000000E+00;  3.2832460E-05;  1.1402544E+03;
  1.0101766E-01;  9.9999998E-03;  1.6002052E-01;3102; -2.4635659E-03;  0.0000000E+00;  1.9509341E-04;  1.0020819E+03;  1.0000000E-01;  1.7247908E+03;3; -5.4948139E+00;  0.0000000E+00; -3.8773995E-02;0; -1.3364578E-02;  4.0177758E+04;  0.0000000E+00;  2.3146044E-01;  4.0000000E+04;  0.0000000E+00;  4.0007648E+04; -1.3312765E-02;  0.0000000E+00; -5.1812465E-05;  7.3889105E+02;
  1.0103630E-01;  9.9999998E-03;  1.7000924E-01;3103; -2.4538666E-03;  0.0000000E+00;  1.7449183E-04;  1.0020980E+03;  1.0000000E-01;  1.7381237E+03;3; -5.4521008E+00;  0.0000000E+00;  1.5617236E-01;0; -1.3216413E-02;  4.0182703E+04;  0.0000000E+00;  4.0743154E-01;  4.0000000E+04;  0.0000000E+00;  4.0003875E+04; -1.3128057E-02;  0.0000000E+00; -8.8355824E-05;  6.1218805E+02;
  1.0107253E-01;  9.9999998E-03;  1.8000332E-01;3104; -2.4222380E-03;  0.0000000E+00;  1.4934648E-04;  1.0020820E+03;  1.0000000E-01;  1.7248895E+03;3; -5.3059402E+00;  0.0000000E+00;  6.3793892E-01;0; -1.3032334E-02;  4.0183500E+04;  0.0000000E+00;  6.4533138E-01;  4.0000000E+04;  0.0000000E+00;  4.0001102E+04; -1.2958832E-02;  0.0000000E+00; -7.3501622E-05;  9.3411859E+02;
  1.0111955E-01;  9.9999998E-03;  1.9000767E-01;3105; -2.3635353E-03;  0.0000000E+00;  1.2543800E-04;  1.0020276E+03;  1.0000000E-01;  1.6798538E+03;3; -5.0067582E+00;  0.0000000E+00;  1.5504100E+00;0; -1.2808651E-02;  4.0178980E+04;  0.0000000E+00;  9.3470258E-01;  4.0000000E+04;  0.0000000E+00;  3.9999203E+04; -1.2793846E-02;  0.0000000E+00; -1.4804375E-05;  1.3642991E+03;
  1.0116811E-01;  9.9999998E-03;  2.0002881E-01;3106; -2.2708056E-03;  0.0000000E+00;  1.1387584E-04;  1.0019152E+03;  1.0000000E-01;  1.5867206E+03;3; -4.5024920E+00;  0.0000000E+00;  3.0503159E+00;0; -1.2545304E-02;  4.0167582E+04;  0.0000000E+00;  1.2534357E+00;  4.0000000E+04;  0.0000000E+00;  4.0000434E+04; -1.2614787E-02;  0.0000000E+00;  6.9482034E-05;  1.7919557E+03;
  1.0120907E-01;  9.9999998E-03;  2.1006401E-01;3107; -2.1408075E-03;  0.0000000E+00;  1.2927844E-04;  1.0017350E+03;  1.0000000E-01;  1.4373915E+03;3; -3.7568569E+00;  0.0000000E+00;  5.3166590E+00;0; -1.2245297E-02;  4.0148414E+04;  0.0000000E+00;  1.5769653E+00;  4.0000000E+04;  0.0000000E+00;  4.0004340E+04; -1.2397932E-02;  0.0000000E+00;  1.5263507E-04;  2.2729900E+03;
  1.0123249E-01;  9.9999998E-03;  2.2010566E-01;3108; -1.9772639E-03;  0.0000000E+00;  1.8206661E-04;  1.0014823E+03;  1.0000000E-01;  1.2280146E+03;3; -2.7548630E+00;  0.0000000E+00;  8.5179691E+00;0; -1.1911562E-02;  4.0120770E+04;  0.0000000E+00;  1.8888607E+00;  4.0000000E+04;  0.0000000E+00;  4.0009562E+04; -1.2116280E-02;  0.0000000E+00;  2.0471861E-04;  2.8919700E+03;
  1.0123677E-01;  9.9999998E-03;  2.3014536E-01;3109; -1.7907107E-03;  0.0000000E+00;  2.6808371E-04;  1.0011448E+03;  1.0000000E-01;  9.4851636E+02;3; -1.5009410E+00;  0.0000000E+00;  1.2643184E+01;0; -1.1541774E-02;  4.0085684E+04;  0.0000000E+00;  2.1848454E+00;  4.0000000E+04;  0.0000000E+00;  4.0015000E+04; -1.1741878E-02;  0.0000000E+00;  2.0010455E-04;  3.6434917E+03;
  1.1194056E-01;  9.9999998E-03;  6.9940016E-02;3154; -2.4708183E-03;  0.0000000E+00;  3.5588964E-05;  1.0009460E+03;  1.0000000E-01;  7.8378027E+02;3; -2.5321522E+00;  0.0000000E+00;  1.0332082E-03;0; -1.3908676E-02;  4.0080359E+04;  0.0000000E+00; -1.5011935E-02;  4.0000000E+04;  0.0000000E+00;  4.0009477E+04; -1.4596750E-02;  0.0000000E+00;  6.8807416E-04;  1.0385135E+03;
  1.1189203E-01;  9.9999998E-03;  7.9943657E-02;3155; -2.4522431E-03;  0.0000000E+00;  3.4278819E-05;  1.0008962E+03;  1.0000000E-01;  7.4249750E+02;3; -2.5232923E+00;  0.0000000E+00; -2.5528634E-03;0; -1.3840216E-02;  4.0075645E+04;  0.0000000E+00; -1.8370446E-02;  4.0000000E+04;  0.0000000E+00;  4.0010215E+04; -1.4516936E-02;  0.0000000E+00;  6.7671982E-04;  1.1529860E+03;
  1.1179978E-01;  9.9999998E-03;  8.9963526E-02;3156; -2.4370365E-03;  0.0000000E+00;  4.2585285E-05;  1.0008627E+03;  1.0000000E-01;  7.1474524E+02;3; -2.5053451E+00;  0.0000000E+00; -6.8007782E-03;0; -1.3746522E-02;  4.0071625E+04;  0.0000000E+00; -2.0788008E-02;  4.0000000E+04;  0.0000000E+00;  4.0011602E+04; -1.4391046E-02;  0.0000000E+00;  6.4452394E-04;  1.3788594E+03;
  1.1168129E-01;  9.9999998E-03;  9.9986143E-02;3157; -2.4277354E-03;  0.0000000E+00;  6.6242006E-05;  1.0008423E+03;  1.0000000E-01;  6.9785681E+02;3; -2.4796214E+00;  0.0000000E+00; -1.1534424E-02;0; -1.3635902E-02;  4.0068383E+04;  0.0000000E+00; -2.1399561E-02;  4.0000000E+04;  0.0000000E+00;  4.0013703E+04; -1.4219162E-02;  0.0000000E+00;  5.8326015E-04;  1.6682452E+03;
  1.1150920E-01;  9.9999998E-03;  1.1000833E-01;3158; -2.4255707E-03;  0.0000000E+00;  1.0454677E-04;  1.0008550E+03;  1.0000000E-01;  7.0842444E+02;3; -2.4655788E+00;  0.0000000E+00; -1.5224997E-02;0; -1.3518274E-02;  4.0067184E+04;  0.0000000E+00; -1.8649446E-02;  4.0000000E+04;  0.0000000E+00;  4.0016465E+04; -1.4007754E-02;  0.0000000E+00;  4.8948004E-04;  1.9419479E+03;
  1.1140668E-01;  9.9999998E-03;  1.2001779E-01;3159; -2.4322842E-03;  0.0000000E+00;  1.4163286E-04;  1.0008803E+03;  1.0000000E-01;  7.2936206E+02;3; -2.4453185E+00;  0.0000000E+00; -1.9166330E-02;0; -1.3400153E-02;  4.0068105E+04;  0.0000000E+00; -9.5549589E-03;  4.0000000E+04;  0.0000000E+00;  4.0017367E+04; -1.3766187E-02;  0.0000000E+00;  3.6603372E-04;  2.1118770E+03;
  1.1135500E-01;  9.9999998E-03;  1.3000813E-01;3160; -2.4450296E-03;  0.0000000E+00;  1.6897952E-04;  1.0009261E+03;  1.0000000E-01;  7.6728693E+02;3; -2.4354715E+00;  0.0000000E+00; -2.4486367E-02;0; -1.3285214E-02;  4.0071457E+04;  0.0000000E+00;  1.1491079E-02;  4.0000000E+04;  0.0000000E+00;  4.0018379E+04; -1.3509718E-02;  0.0000000E+00;  2.2450414E-04;  2.1053621E+03;
  1.1131939E-01;  9.9999998E-03;  1.3998701E-01;3161; -2.4591926E-03;  0.0000000E+00;  1.8028379E-04;  1.0009814E+03;  1.0000000E-01;  8.1311279E+02;3; -2.4406250E+00;  0.0000000E+00; -3.0082636E-02;0; -1.3172798E-02;  4.0077926E+04;  0.0000000E+00;  5.3629093E-02;  4.0000000E+04;  0.0000000E+00;  4.0017223E+04; -1.3255505E-02;  0.0000000E+00;  8.2706974E-05;  1.8934052E+03;
  1.1129697E-01;  9.9999998E-03;  1.4996223E-01;3162; -2.4696195E-03;  0.0000000E+00;  1.7773529E-04;  1.0010492E+03;  1.0000000E-01;  8.6920996E+02;3; -2.4575174E+00;  0.0000000E+00; -3.2485750E-02;0; -1.3057841E-02;  4.0086738E+04;  0.0000000E+00;  1.2982588E-01;  4.0000000E+04;  0.0000000E+00;  4.0013098E+04; -1.3018850E-02;  0.0000000E+00; -3.8991147E-05;  1.5097311E+03;
  1.1128701E-01;  9.9999998E-03;  1.5994568E-01;3163; -2.4709832E-03;  0.0000000E+00;  1.6511302E-04;  1.0011277E+03;  1.0000000E-01;  9.3429456E+02;3; -2.4718361E+00;  0.0000000E+00;  1.5685966E-02;0; -1.2933516E-02;  4.0096453E+04;  0.0000000E+00;  2.5426471E-01;  4.0000000E+04;  0.0000000E+00;  4.0009707E+04; -1.2811302E-02;  0.0000000E+00; -1.2221346E-04;  1.0660779E+03;
  1.1128832E-01;  9.9999998E-03;  1.6994254E-01;3164; -2.4572178E-03;  0.0000000E+00;  1.4622053E-04;  1.0011979E+03;  1.0000000E-01;  9.9246576E+02;3; -2.4532998E+00;  0.0000000E+00;  2.1076581E-01;0; -1.2793321E-02;  4.0105699E+04;  0.0000000E+00;  4.3741792E-01;  4.0000000E+04;  0.0000000E+00;  4.0006051E+04; -1.2638998E-02;  0.0000000E+00; -1.5432324E-04;  8.1067450E+02;
  1.1130138E-01;  9.9999998E-03;  1.7994344E-01;3165; -2.4229360E-03;  0.0000000E+00;  1.2414003E-04;  1.0012512E+03;  1.0000000E-01;  1.0365139E+03;3; -2.3699856E+00;  0.0000000E+00;  6.8134606E-01;0; -1.2632140E-02;  4.0112219E+04;  0.0000000E+00;  6.8276161E-01;  4.0000000E+04;  0.0000000E+00;  4.0002867E+04; -1.2500587E-02;  0.0000000E+00; -1.3155292E-04;  9.8887988E+02;
  1.1133053E-01;  9.9999998E-03;  1.8994856E-01;3166; -2.3634541E-03;  0.0000000E+00;  1.0400167E-04;  1.0012697E+03;  1.0000000E-01;  1.0519209E+03;3; -2.1838853E+00;  0.0000000E+00;  1.5733413E+00;0; -1.2447345E-02;  4.0113793E+04;  0.0000000E+00;  9.8584533E-01;  4.0000000E+04;  0.0000000E+00;  4.0001801E+04; -1.2386175E-02;  0.0000000E+00; -6.1170620E-05;  1.4079219E+03;
  1.1136340E-01;  9.9999998E-03;  1.9996355E-01;3167; -2.2738716E-03;  0.0000000E+00;  9.5082403E-05;  1.0012383E+03;  1.0000000E-01;  1.0258475E+03;3; -1.8661504E+00;  0.0000000E+00;  3.0645435E+00;0; -1.2239858E-02;  4.0108996E+04;  0.0000000E+00;  1.3394121E+00;  4.0000000E+04;  0.0000000E+00;  4.0003008E+04; -1.2278476E-02;  0.0000000E+00;  3.8618211E-05;  1.9323357E+03;
  1.1139197E-01;  9.9999998E-03;  2.0998579E-01;3168; -2.1502206E-03;  0.0000000E+00;  1.1272208E-04;  1.0011371E+03;  1.0000000E-01;  9.4209680E+02;3; -1.3893652E+00;  0.0000000E+00;  5.3630743E+00;0; -1.2012267E-02;  4.0095969E+04;  0.0000000E+00;  1.7430267E+00;  4.0000000E+04;  0.0000000E+00;  4.0007391E+04; -1.2153020E-02;  0.0000000E+00;  1.4075226E-04;  2.6215247E+03;
  1.1140306E-01;  9.9999998E-03;  2.2001755E-01;3169; -1.9960080E-03;  0.0000000E+00;  1.6827091E-04;  1.0009575E+03;  1.0000000E-01;  7.9326154E+02;3; -7.2958875E-01;  0.0000000E+00;  8.6699581E+00;0; -1.1764916E-02;  4.0073859E+04;  0.0000000E+00;  2.2097294E+00;  4.0000000E+04;  0.0000000E+00;  4.0013992E+04; -1.1979903E-02;  0.0000000E+00;  2.1498755E-04;  3.5453801E+03;
  1.1138633E-01;  9.9999998E-03;  2.3005511E-01;3170; -1.8195061E-03;  0.0000000E+00;  2.6012587E-04;  1.0006815E+03;  1.0000000E-01;  5.6462598E+02;3;  1.3650464E-01;  0.0000000E+00;  1.2984905E+01;0; -1.1490389E-02;  4.0043422E+04;  0.0000000E+00;  2.7607372E+00;  4.0000000E+04;  0.0000000E+00;  4.0020746E+04; -1.1725749E-02;  0.0000000E+00;  2.3535994E-04;  4.6704146E+03;
  1.2193961E-01;  9.9999998E-03;  6.9942623E-02;3215; -2.5744571E-03;  0.0000000E+00;  2.6297468E-05;  1.0003667E+03;  1.0000000E-01;  3.0379388E+02;3; -9.4262481E-01;  0.0000000E+00; -4.7311289E-03;0; -1.4005288E-02;  4.0028691E+04;  0.0000000E+00; -2.6244348E-02;  4.0000000E+04;  0.0000000E+00;  4.0011477E+04; -1.4636576E-02;  0.0000000E+00;  6.3128874E-04;  1.3445117E+03;
  1.2195908E-01;  9.9999998E-03;  7.9942293E-02;3216; -2.5591156E-03;  0.0000000E+00;  2.8253027E-05;  1.0003011E+03;  1.0000000E-01;  2.4947443E+02;3; -9.3092054E-01;  0.0000000E+00; -7.2247456E-03;0; -1.3936107E-02;  4.0022590E+04;  0.0000000E+00; -3.3644956E-02;  4.0000000E+04;  0.0000000E+00;  4.0012902E+04; -1.4554331E-02;  0.0000000E+00;  6.1822432E-04;  1.4746007E+03;
  1.2197991E-01;  9.9999998E-03;  8.9944705E-02;3217; -2.5470622E-03;  0.0000000E+00;  3.9768482E-05;  1.0002391E+03;  1.0000000E-01;  1.9811786E+02;3; -9.1137600E-01;  0.0000000E+00; -9.4210748E-03;0; -1.3836992E-02;  4.0015863E+04;  0.0000000E+00; -3.9905991E-02;  4.0000000E+04;  0.0000000E+00;  4.0013695E+04; -1.4419774E-02;  0.0000000E+00;  5.8278133E-04;  1.7160742E+03;
  1.2199661E-01;  9.9999998E-03;  9.9946015E-02;3218; -2.5391944E-03;  0.0000000E+00;  6.1679115E-05;  1.0001906E+03;  1.0000000E-01;  1.5792146E+02;3; -8.8713872E-01;  0.0000000E+00; -1.2045730E-02;0; -1.3715460E-02;  4.0010441E+04;  0.0000000E+00; -4.3175250E-02;  4.0000000E+04;  0.0000000E+00;  4.0016422E+04; -1.4232695E-02;  0.0000000E+00;  5.1723490E-04;  2.0174703E+03;
  1.2199353E-01;  9.9999998E-03;  1.0994314E-01;3219; -2.5363828E-03;  0.0000000E+00;  9.2115144E-05;  1.0001649E+03;  1.0000000E-01;  1.3658873E+02;3; -8.6581862E-01;  0.0000000E+00; -1.2130319E-02;0; -1.3580536E-02;  4.0006043E+04;  0.0000000E+00; -4.0903307E-02;  4.0000000E+04;  0.0000000E+00;  4.0018691E+04; -1.3999174E-02;  0.0000000E+00;  4.1863919E-04;  2.2963074E+03;
  1.2190776E-01;  9.9999998E-03;  1.1994851E-01;3220; -2.5365523E-03;  0.0000000E+00;  1.2271623E-04;  1.0001640E+03;  1.0000000E-01;  1.3589738E+02;3; -8.5625005E-01;  0.0000000E+00; -1.1843923E-02;0; -1.3439449E-02;  4.0004613E+04;  0.0000000E+00; -2.9454358E-02;  4.0000000E+04;  0.0000000E+00;  4.0020199E+04; -1.3730738E-02;  0.0000000E+00;  2.9128999E-04;  2.4619009E+03;
  1.2176755E-01;  9.9999998E-03;  1.2994750E-01;3221; -2.5385632E-03;  0.0000000E+00;  1.4305257E-04;  1.0001865E+03;  1.0000000E-01;  1.5456352E+02;3; -8.6027622E-01;  0.0000000E+00; -1.2040965E-02;0; -1.3299147E-02;  4.0006809E+04;  0.0000000E+00; -3.7128939E-03;  4.0000000E+04;  0.0000000E+00;  4.0020871E+04; -1.3446195E-02;  0.0000000E+00;  1.4704802E-04;  2.4390967E+03;
  1.2161792E-01;  9.9999998E-03;  1.3993408E-01;3222; -2.5407108E-03;  0.0000000E+00;  1.4838914E-04;  1.0002366E+03;  1.0000000E-01;  1.9604384E+02;3; -8.7404168E-01;  0.0000000E+00; -1.3871132E-02;0; -1.3162545E-02;  4.0013121E+04;  0.0000000E+00;  4.4144120E-02;  4.0000000E+04;  0.0000000E+00;  4.0017875E+04; -1.3166430E-02;  0.0000000E+00;  3.8856706E-06;  2.2003860E+03;
  1.2150940E-01;  9.9999998E-03;  1.4991315E-01;3223; -2.5407611E-03;  0.0000000E+00;  1.4196834E-04;  1.0003167E+03;  1.0000000E-01;  2.6231357E+02;3; -8.9048451E-01;  0.0000000E+00; -1.1402369E-02;0; -1.3028560E-02;  4.0022555E+04;  0.0000000E+00;  1.2493386E-01;  4.0000000E+04;  0.0000000E+00;  4.0015512E+04; -1.2910690E-02;  0.0000000E+00; -1.1787043E-04;  1.7859274E+03;
  1.2145028E-01;  9.9999998E-03;  1.5989716E-01;3224; -2.5341816E-03;  0.0000000E+00;  1.2670290E-04;  1.0004127E+03;  1.0000000E-01;  3.4191626E+02;3; -8.9952320E-01;  0.0000000E+00;  3.9683420E-02;0; -1.2893680E-02;  4.0034055E+04;  0.0000000E+00;  2.5009117E-01;  4.0000000E+04;  0.0000000E+00;  4.0011645E+04; -1.2693921E-02;  0.0000000E+00; -1.9975872E-04;  1.3079852E+03;
  1.2143849E-01;  9.9999998E-03;  1.6989434E-01;3225; -2.5159027E-03;  0.0000000E+00;  1.0553675E-04;  1.0005165E+03;  1.0000000E-01;  4.2793851E+02;3; -8.8582224E-01;  0.0000000E+00;  2.3458150E-01;0; -1.2754325E-02;  4.0046648E+04;  0.0000000E+00;  4.2863008E-01;  4.0000000E+04;  0.0000000E+00;  4.0007238E+04; -1.2525380E-02;  0.0000000E+00; -2.2894559E-04;  9.8060315E+02;
  1.2145419E-01;  9.9999998E-03;  1.7989445E-01;3226; -2.4807984E-03;  0.0000000E+00;  8.1205217E-05;  1.0006140E+03;  1.0000000E-01;  5.0862759E+02;3; -8.2908827E-01;  0.0000000E+00;  6.9914466E-01;0; -1.2607751E-02;  4.0056941E+04;  0.0000000E+00;  6.6595089E-01;  4.0000000E+04;  0.0000000E+00;  4.0004160E+04; -1.2406728E-02;  0.0000000E+00; -2.0102318E-04;  1.0474788E+03;
  1.2148072E-01;  9.9999998E-03;  1.8989594E-01;3227; -2.4240601E-03;  0.0000000E+00;  5.8173435E-05;  1.0006925E+03;  1.0000000E-01;  5.7371216E+02;3; -7.1238339E-01;  0.0000000E+00;  1.5860189E+00;0; -1.2453359E-02;  4.0063469E+04;  0.0000000E+00;  9.6823049E-01;  4.0000000E+04;  0.0000000E+00;  4.0003316E+04; -1.2330951E-02;  0.0000000E+00; -1.2240783E-04;  1.4372610E+03;
  1.2149992E-01;  9.9999998E-03;  1.9990206E-01;3228; -2.3420353E-03;  0.0000000E+00;  4.3476903E-05;  1.0007295E+03;  1.0000000E-01;  6.0432861E+02;3; -5.1661551E-01;  0.0000000E+00;  3.0935230E+00;0; -1.2293017E-02;  4.0063477E+04;  0.0000000E+00;  1.3511471E+00;  4.0000000E+04;  0.0000000E+00;  4.0006074E+04; -1.2282368E-02;  0.0000000E+00; -1.0648730E-05;  2.0507532E+03;
  1.2150265E-01;  9.9999998E-03;  2.0991510E-01;3229; -2.2322540E-03;  0.0000000E+00;  4.8555448E-05;  1.0006976E+03;  1.0000000E-01;  5.7795898E+02;3; -2.1542121E-01;  0.0000000E+00;  5.4717846E+00;0; -1.2129263E-02;  4.0055324E+04;  0.0000000E+00;  1.8480744E+00;  4.0000000E+04;  0.0000000E+00;  4.0010980E+04; -1.2236909E-02;  0.0000000E+00;  1.0764592E-04;  2.9599133E+03;
  1.2149340E-01;  9.9999998E-03;  2.1993907E-01;3230; -2.0912173E-03;  0.0000000E+00;  9.0827249E-05;  1.0005734E+03;  1.0000000E-01;  4.7504828E+02;3;  2.2568801E-01;  0.0000000E+00;  8.9445410E+00;0; -1.1960498E-02;  4.0037648E+04;  0.0000000E+00;  2.5109560E+00;  4.0000000E+04;  0.0000000E+00;  4.0018820E+04; -1.2163050E-02;  0.0000000E+00;  2.0255147E-04;  4.2266475E+03;
  1.2145966E-01;  9.9999998E-03;  2.2996973E-01;3231; -1.9282179E-03;  0.0000000E+00;  1.6754059E-04;  1.0003350E+03;  1.0000000E-01;  2.7752301E+02;3;  8.6868948E-01;  0.0000000E+00;  1.3493279E+01;0; -1.1775502E-02;  4.0009859E+04;  0.0000000E+00;  3.3952374E+00;  4.0000000E+04;  0.0000000E+00;  4.0026020E+04; -1.2023888E-02;  0.0000000E+00;  2.4838574E-04;  5.8170283E+03;
  1.3181163E-01;  9.9999998E-03;  6.9933608E-02;3276; -2.7353426E-03;  0.0000000E+00;  1.9918298E-05;  1.0000438E+03;  1.0000000E-01;  3.6344650E+01;3; -1.9334956E-01;  0.0000000E+00; -7.4120318E-03;0; -1.4346943E-02;  3.9998199E+04;  0.0000000E+00; -3.2155298E-02;  4.0000000E+04;  0.0000000E+00;  4.0012672E+04; -1.4915171E-02;  0.0000000E+00;  5.6822825E-04;  1.5054139E+03;
  1.3183911E-01;  9.9999998E-03;  7.9935730E-02;3277; -2.7231283E-03;  0.0000000E+00;  2.4741741E-05;  9.9997742E+02;  1.0000000E-01; -1.8715521E+01;3; -1.8831271E-01;  0.0000000E+00; -8.6925188E-03;0; -1.4279125E-02;  3.9991887E+04;  0.0000000E+00; -4.2734206E-02;  4.0000000E+04;  0.0000000E+00;  4.0013930E+04; -1.4832627E-02;  0.0000000E+00;  5.5350189E-04;  1.6525258E+03;
  1.3187230E-01;  9.9999998E-03;  8.9939944E-02;3278; -2.7124225E-03;  0.0000000E+00;  3.8145878E-05;  9.9991211E+02;  1.0000000E-01; -7.2837448E+01;3; -1.8088004E-01;  0.0000000E+00; -9.1758333E-03;0; -1.4177930E-02;  3.9985230E+04;  0.0000000E+00; -5.2887470E-02;  4.0000000E+04;  0.0000000E+00;  4.0015805E+04; -1.4693429E-02;  0.0000000E+00;  5.1549939E-04;  1.9083766E+03;
  1.3190642E-01;  9.9999998E-03;  9.9942513E-02;3279; -2.7034504E-03;  0.0000000E+00;  5.8336984E-05;  9.9986011E+02;  1.0000000E-01; -1.1589796E+02;3; -1.7231713E-01;  0.0000000E+00; -8.9618964E-03;0; -1.4050190E-02;  3.9978715E+04;  0.0000000E+00; -6.0267720E-02;  4.0000000E+04;  0.0000000E+00;  4.0017664E+04; -1.4497028E-02;  0.0000000E+00;  4.4683777E-04;  2.2188264E+03;
  1.3193665E-01;  9.9999998E-03;  1.0993767E-01;3280; -2.6954375E-03;  0.0000000E+00;  8.1305647E-05;  9.9982074E+02;  1.0000000E-01; -1.4848962E+02;3; -1.6370410E-01;  0.0000000E+00; -8.5213939E-03;0; -1.3904981E-02;  3.9973742E+04;  0.0000000E+00; -6.1626572E-02;  4.0000000E+04;  0.0000000E+00;  4.0020043E+04; -1.4249933E-02;  0.0000000E+00;  3.4495210E-04;  2.4991248E+03;
  1.3195887E-01;  9.9999998E-03;  1.1992200E-01;3281; -2.6882098E-03;  0.0000000E+00;  1.0118242E-04;  9.9980518E+02;  1.0000000E-01; -1.6142754E+02;3; -1.5664867E-01;  0.0000000E+00; -8.5307397E-03;0; -1.3751390E-02;  3.9971383E+04;  0.0000000E+00; -5.2685816E-02;  4.0000000E+04;  0.0000000E+00;  4.0021105E+04; -1.3965726E-02;  0.0000000E+00;  2.1433592E-04;  2.6555854E+03;
  1.3196577E-01;  9.9999998E-03;  1.2989444E-01;3282; -2.6814414E-03;  0.0000000E+00;  1.1292295E-04;  9.9980902E+02;  1.0000000E-01; -1.5821774E+02;3; -1.5257400E-01;  0.0000000E+00; -8.6249486E-03;0; -1.3596082E-02;  3.9972039E+04;  0.0000000E+00; -2.7843373E-02;  4.0000000E+04;  0.0000000E+00;  4.0021379E+04; -1.3663298E-02;  0.0000000E+00;  6.7215580E-05;  2.6146055E+03;
  1.3193440E-01;  9.9999998E-03;  1.3986172E-01;3283; -2.6739447E-03;  0.0000000E+00;  1.1375335E-04;  9.9984418E+02;  1.0000000E-01; -1.2908276E+02;3; -1.5306257E-01;  0.0000000E+00; -8.7965038E-03;0; -1.3441840E-02;  3.9977223E+04;  0.0000000E+00;  2.0152414E-02;  4.0000000E+04;  0.0000000E+00;  4.0019535E+04; -1.3363726E-02;  0.0000000E+00; -7.8114463E-05;  2.3527749E+03;
  1.3182759E-01;  9.9999998E-03;  1.4984663E-01;3284; -2.6632962E-03;  0.0000000E+00;  1.0415324E-04;  9.9990942E+02;  1.0000000E-01; -7.5059608E+01;3; -1.5858459E-01;  0.0000000E+00; -4.2116079E-03;0; -1.3288436E-02;  3.9986215E+04;  0.0000000E+00;  9.9748008E-02;  4.0000000E+04;  0.0000000E+00;  4.0015660E+04; -1.3087492E-02;  0.0000000E+00; -2.0094386E-04;  1.9161371E+03;
  1.3169725E-01;  9.9999998E-03;  1.5984540E-01;3285; -2.6472481E-03;  0.0000000E+00;  8.6366890E-05;  1.0000065E+03;  1.0000000E-01;  5.4319453E+00;3; -1.6326323E-01;  0.0000000E+00;  4.9763072E-02;0; -1.3138112E-02;  3.9998398E+04;  0.0000000E+00;  2.1874480E-01;  4.0000000E+04;  0.0000000E+00;  4.0011785E+04; -1.2855391E-02;  0.0000000E+00; -2.8272063E-04;  1.4145648E+03;
  1.3162051E-01;  9.9999998E-03;  1.6985546E-01;3286; -2.6229476E-03;  0.0000000E+00;  6.2462146E-05;  1.0001287E+03;  1.0000000E-01;  1.0666365E+02;3; -1.5506811E-01;  0.0000000E+00;  2.4914010E-01;0; -1.2993186E-02;  4.0012148E+04;  0.0000000E+00;  3.8410932E-01;  4.0000000E+04;  0.0000000E+00;  4.0007414E+04; -1.2682451E-02;  0.0000000E+00; -3.1073502E-04;  1.0441565E+03;
  1.3158965E-01;  9.9999998E-03;  1.7986511E-01;3287; -2.5861659E-03;  0.0000000E+00;  3.5146943E-05;  1.0002599E+03;  1.0000000E-01;  2.1530255E+02;3; -1.2382137E-01;  0.0000000E+00;  7.2067899E-01;0; -1.2853785E-02;  4.0024848E+04;  0.0000000E+00;  6.0546184E-01;  4.0000000E+04;  0.0000000E+00;  4.0005246E+04; -1.2573730E-02;  0.0000000E+00; -2.8005484E-04;  1.0458331E+03;
  1.3158177E-01;  9.9999998E-03;  1.8987091E-01;3288; -2.5326139E-03;  0.0000000E+00;  8.0448863E-06;  1.0003775E+03;  1.0000000E-01;  3.1278128E+02;3; -6.0644254E-02;  0.0000000E+00;  1.6237737E+00;0; -1.2721443E-02;  4.0034383E+04;  0.0000000E+00;  9.0320116E-01;  4.0000000E+04;  0.0000000E+00;  4.0004672E+04; -1.2525192E-02;  0.0000000E+00; -1.9625049E-04;  1.4242373E+03;
  1.3157763E-01;  9.9999998E-03;  1.9987504E-01;3289; -2.4589451E-03;  0.0000000E+00; -1.2806177E-05;  1.0004545E+03;  1.0000000E-01;  3.7648318E+02;3;  4.5648675E-02;  0.0000000E+00;  3.1788514E+00;0; -1.2599630E-02;  4.0037395E+04;  0.0000000E+00;  1.3190944E+00;  4.0000000E+04;  0.0000000E+00;  4.0008383E+04; -1.2523745E-02;  0.0000000E+00; -7.5884665E-05;  2.1335071E+03;
  1.3156107E-01;  9.9999998E-03;  2.0987877E-01;3290; -2.3631644E-03;  0.0000000E+00; -1.9291982E-05;  1.0004681E+03;  1.0000000E-01;  3.8784088E+02;3;  2.1760350E-01;  0.0000000E+00;  5.6742668E+00;0; -1.2491670E-02;  4.0032133E+04;  0.0000000E+00;  1.9235175E+00;  4.0000000E+04;  0.0000000E+00;  4.0014141E+04; -1.2547182E-02;  0.0000000E+00;  5.5511235E-05;  3.2677522E+03;
  1.3152415E-01;  9.9999998E-03;  2.1988660E-01;3291; -2.2456269E-03;  0.0000000E+00; -3.6730244E-06;  1.0003748E+03;  1.0000000E-01;  3.1050974E+02;3;  5.1912612E-01;  0.0000000E+00;  9.3633366E+00;0; -1.2396382E-02;  4.0016137E+04;  0.0000000E+00;  2.8104379E+00;  4.0000000E+04;  0.0000000E+00;  4.0023004E+04; -1.2564924E-02;  0.0000000E+00;  1.6854102E-04;  4.8986206E+03;
  1.3145879E-01;  9.9999998E-03;  2.2989756E-01;3292; -2.1054081E-03;  0.0000000E+00;  4.1631640E-05;  1.0001577E+03;  1.0000000E-01;  1.3066296E+02;3;  1.0523620E+00;  0.0000000E+00;  1.4260804E+01;0; -1.2301345E-02;  3.9989871E+04;  0.0000000E+00;  4.0754275E+00;  4.0000000E+04;  0.0000000E+00;  4.0031027E+04; -1.2539002E-02;  0.0000000E+00;  2.3765652E-04;  7.0258740E+03;
  1.4164767E-01;  9.9999998E-03;  6.9917813E-02;3337; -2.9481044E-03;  0.0000000E+00;  1.2623263E-05;  9.9992957E+02;  1.0000000E-01; -5.8368721E+01;3;  1.0240128E-01;  0.0000000E+00; -8.2322061E-03;0; -1.4794791E-02;  3.9985531E+04;  0.0000000E+00; -3.1127071E-02;  4.0000000E+04;  0.0000000E+00;  4.0012008E+04; -1.5296953E-02;  0.0000000E+00;  5.0216122E-04;  1.4897386E+03;
  1.4168070E-01;  9.9999998E-03;  7.9922453E-02;3338; -2.9381479E-03;  0.0000000E+00;  1.7291772E-05;  9.9987708E+02;  1.0000000E-01; -1.0182428E+02;3;  1.0422722E-01;  0.0000000E+00; -9.0627866E-03;0; -1.4729626E-02;  3.9980227E+04;  0.0000000E+00; -4.2522505E-02;  4.0000000E+04;  0.0000000E+00;  4.0013391E+04; -1.5215388E-02;  0.0000000E+00;  4.8576080E-04;  1.6521954E+03;
  1.4172053E-01;  9.9999998E-03;  8.9930110E-02;3339; -2.9272176E-03;  0.0000000E+00;  2.8585082E-05;  9.9982239E+02;  1.0000000E-01; -1.4715633E+02;3;  1.0658843E-01;  0.0000000E+00; -9.6091637E-03;0; -1.4628394E-02;  3.9974309E+04;  0.0000000E+00; -5.4851692E-02;  4.0000000E+04;  0.0000000E+00;  4.0015496E+04; -1.5074202E-02;  0.0000000E+00;  4.4580820E-04;  1.9181617E+03;
  1.4176394E-01;  9.9999998E-03;  9.9935792E-02;3340; -2.9150797E-03;  0.0000000E+00;  4.4847689E-05;  9.9978094E+02;  1.0000000E-01; -1.8147635E+02;3;  1.0923969E-01;  0.0000000E+00; -9.9215051E-03;0; -1.4497320E-02;  3.9968598E+04;  0.0000000E+00; -6.6022620E-02;  4.0000000E+04;  0.0000000E+00;  4.0017980E+04; -1.4872497E-02;  0.0000000E+00;  3.7517646E-04;  2.2322087E+03;
  1.4180598E-01;  9.9999998E-03;  1.0993406E-01;3341; -2.9013231E-03;  0.0000000E+00;  6.3150510E-05;  9.9974615E+02;  1.0000000E-01; -2.1031503E+02;3;  1.1191747E-01;  0.0000000E+00; -9.9865384E-03;0; -1.4345286E-02;  3.9964277E+04;  0.0000000E+00; -7.2728097E-02;  4.0000000E+04;  0.0000000E+00;  4.0020098E+04; -1.4616801E-02;  0.0000000E+00;  2.7151543E-04;  2.5102332E+03;
  1.4184229E-01;  9.9999998E-03;  1.1992075E-01;3342; -2.8860327E-03;  0.0000000E+00;  7.9181002E-05;  9.9973413E+02;  1.0000000E-01; -2.2029007E+02;3;  1.1421026E-01;  0.0000000E+00; -9.8754922E-03;0; -1.4181563E-02;  3.9962270E+04;  0.0000000E+00; -7.0333354E-02;  4.0000000E+04;  0.0000000E+00;  4.0020930E+04; -1.4321026E-02;  0.0000000E+00;  1.3946390E-04;  2.6591670E+03;
  1.4186974E-01;  9.9999998E-03;  1.2989481E-01;3343; -2.8694270E-03;  0.0000000E+00;  8.7179651E-05;  9.9974060E+02;  1.0000000E-01; -2.1490750E+02;3;  1.1588838E-01;  0.0000000E+00; -9.5657175E-03;0; -1.4013534E-02;  3.9963453E+04;  0.0000000E+00; -5.2862249E-02;  4.0000000E+04;  0.0000000E+00;  4.0020938E+04; -1.4004746E-02;  0.0000000E+00; -8.7886192E-06;  2.6058267E+03;
  1.4188500E-01;  9.9999998E-03;  1.3985856E-01;3344; -2.8514110E-03;  0.0000000E+00;  8.4097424E-05;  9.9977130E+02;  1.0000000E-01; -1.8947612E+02;3;  1.1679693E-01;  0.0000000E+00; -9.1078067E-03;0; -1.3846173E-02;  3.9968617E+04;  0.0000000E+00; -1.3245216E-02;  4.0000000E+04;  0.0000000E+00;  4.0019152E+04; -1.3690896E-02;  0.0000000E+00; -1.5527637E-04;  2.3276328E+03;
  1.4188336E-01;  9.9999998E-03;  1.4981917E-01;3345; -2.8311375E-03;  0.0000000E+00;  7.0722483E-05;  9.9983459E+02;  1.0000000E-01; -1.3703316E+02;3;  1.1711216E-01;  0.0000000E+00; -3.4530859E-03;0; -1.3682688E-02;  3.9977352E+04;  0.0000000E+00;  5.5612002E-02;  4.0000000E+04;  0.0000000E+00;  4.0014215E+04; -1.3402856E-02;  0.0000000E+00; -2.7983205E-04;  1.8714039E+03;
  1.4185335E-01;  9.9999998E-03;  1.5979175E-01;3346; -2.8066677E-03;  0.0000000E+00;  4.9205526E-05;  9.9992749E+02;  1.0000000E-01; -6.0097065E+01;3;  1.1849201E-01;  0.0000000E+00;  5.4803826E-02;0; -1.3525166E-02;  3.9989441E+04;  0.0000000E+00;  1.5936281E-01;  4.0000000E+04;  0.0000000E+00;  4.0010969E+04; -1.3161249E-02;  0.0000000E+00; -3.6391694E-04;  1.3492119E+03;
  1.4178629E-01;  9.9999998E-03;  1.6980082E-01;3347; -2.7752665E-03;  0.0000000E+00;  2.1645410E-05;  1.0000505E+03;  1.0000000E-01;  4.1776596E+01;3;  1.2405466E-01;  0.0000000E+00;  2.6366895E-01;0; -1.3375544E-02;  4.0003238E+04;  0.0000000E+00;  3.0458298E-01;  4.0000000E+04;  0.0000000E+00;  4.0007332E+04; -1.2981769E-02;  0.0000000E+00; -3.9377512E-04;  9.5141528E+02;
  1.4169659E-01;  9.9999998E-03;  1.7983629E-01;3348; -2.7340243E-03;  0.0000000E+00; -9.4872230E-06;  1.0001898E+03;  1.0000000E-01;  1.5723012E+02;3;  1.3493057E-01;  0.0000000E+00;  7.5159943E-01;0; -1.3238225E-02;  4.0016707E+04;  0.0000000E+00;  5.0700939E-01;  4.0000000E+04;  0.0000000E+00;  4.0004352E+04; -1.2874882E-02;  0.0000000E+00; -3.6334369E-04;  9.2393176E+02;
  1.4162946E-01;  9.9999998E-03;  1.8986072E-01;3349; -2.6806779E-03;  0.0000000E+00; -4.0726231E-05;  1.0003223E+03;  1.0000000E-01;  2.6695541E+02;3;  1.4974613E-01;  0.0000000E+00;  1.6848010E+00;0; -1.3120998E-02;  4.0027238E+04;  0.0000000E+00;  8.0283284E-01;  4.0000000E+04;  0.0000000E+00;  4.0004441E+04; -1.2843374E-02;  0.0000000E+00; -2.7762368E-04;  1.3158685E+03;
  1.4159028E-01;  9.9999998E-03;  1.9986910E-01;3350; -2.6130383E-03;  0.0000000E+00; -6.6873414E-05;  1.0004198E+03;  1.0000000E-01;  3.4784201E+02;3;  1.7343292E-01;  0.0000000E+00;  3.3022184E+00;0; -1.3031115E-02;  4.0031520E+04;  0.0000000E+00;  1.2591343E+00;  4.0000000E+04;  0.0000000E+00;  4.0008793E+04; -1.2878736E-02;  0.0000000E+00; -1.5237973E-04;  2.1253826E+03;
  1.4155412E-01;  9.9999998E-03;  2.0986687E-01;3351; -2.5298872E-03;  0.0000000E+00; -8.1819060E-05;  1.0004449E+03;  1.0000000E-01;  3.6858215E+02;3;  2.3927911E-01;  0.0000000E+00;  5.9206934E+00;0; -1.2973863E-02;  4.0026859E+04;  0.0000000E+00;  1.9784048E+00;  4.0000000E+04;  0.0000000E+00;  4.0016402E+04; -1.2962178E-02;  0.0000000E+00; -1.1684060E-05;  3.4775466E+03;
  1.4149801E-01;  9.9999998E-03;  2.1986219E-01;3352; -2.4312742E-03;  0.0000000E+00; -7.9176163E-05;  1.0003656E+03;  1.0000000E-01;  3.0290500E+02;3;  4.3740302E-01;  0.0000000E+00;  9.8496885E+00;0; -1.2949577E-02;  4.0011211E+04;  0.0000000E+00;  3.0918162E+00;  4.0000000E+04;  0.0000000E+00;  4.0026117E+04; -1.3066132E-02;  0.0000000E+00;  1.1655534E-04;  5.4703271E+03;
  1.4141472E-01;  9.9999998E-03;  2.2985579E-01;3353; -2.3181972E-03;  0.0000000E+00; -5.8459140E-05;  1.0001529E+03;  1.0000000E-01;  1.2671246E+02;3;  9.3302971E-01;  0.0000000E+00;  1.5155031E+01;0; -1.2949689E-02;  3.9984012E+04;  0.0000000E+00;  4.7355442E+00;  4.0000000E+04;  0.0000000E+00;  4.0035379E+04; -1.3156072E-02;  0.0000000E+00;  2.0638327E-04;  8.1583364E+03;
  1.5148346E-01;  9.9999998E-03;  6.9915362E-02;3398; -3.1998155E-03;  0.0000000E+00;  3.8677240E-06;  9.9996204E+02;  1.0000000E-01; -3.1455900E+01;3;  1.8594523E-01;  0.0000000E+00; -9.5584132E-03;0; -1.5213711E-02;  3.9986680E+04;  0.0000000E+00; -2.5812775E-02;  4.0000000E+04;  0.0000000E+00;  4.0010328E+04; -1.5650423E-02;  0.0000000E+00;  4.3671206E-04;  1.2928920E+03;
  1.5152393E-01;  9.9999998E-03;  7.9915129E-02;3399; -3.1920557E-03;  0.0000000E+00;  7.5870043E-06;  9.9992944E+02;  1.0000000E-01; -5.8467484E+01;3;  1.8696874E-01;  0.0000000E+00; -1.0540229E-02;0; -1.5152453E-02;  3.9982883E+04;  0.0000000E+00; -3.5229247E-02;  4.0000000E+04;  0.0000000E+00;  4.0012320E+04; -1.5571263E-02;  0.0000000E+00;  4.1881049E-04;  1.4658530E+03;
  1.5156928E-01;  9.9999998E-03;  8.9918122E-02;3400; -3.1809779E-03;  0.0000000E+00;  1.7368235E-05;  9.9989819E+02;  1.0000000E-01; -8.4343292E+01;3;  1.8797471E-01;  0.0000000E+00; -1.1452263E-02;0; -1.5053276E-02;  3.9978344E+04;  0.0000000E+00; -4.6965726E-02;  4.0000000E+04;  0.0000000E+00;  4.0014414E+04; -1.5431124E-02;  0.0000000E+00;  3.7784796E-04;  1.7335095E+03;
  1.5161876E-01;  9.9999998E-03;  9.9922799E-02;3401; -3.1658402E-03;  0.0000000E+00;  3.1443924E-05;  9.9987488E+02;  1.0000000E-01; -1.0365139E+02;3;  1.8897922E-01;  0.0000000E+00; -1.1920620E-02;0; -1.4921931E-02;  3.9974402E+04;  0.0000000E+00; -5.9986651E-02;  4.0000000E+04;  0.0000000E+00;  4.0017012E+04; -1.5228729E-02;  0.0000000E+00;  3.0679774E-04;  2.0423301E+03;
  1.5166664E-01;  9.9999998E-03;  1.0992465E-01;3402; -3.1461846E-03;  0.0000000E+00;  4.7274974E-05;  9.9986078E+02;  1.0000000E-01; -1.1535476E+02;3;  1.8999170E-01;  0.0000000E+00; -1.2221159E-02;0; -1.4766886E-02;  3.9971723E+04;  0.0000000E+00; -7.1829818E-02;  4.0000000E+04;  0.0000000E+00;  4.0018781E+04; -1.4970129E-02;  0.0000000E+00;  2.0324335E-04;  2.3121260E+03;
  1.5170839E-01;  9.9999998E-03;  1.1991659E-01;3403; -3.1221465E-03;  0.0000000E+00;  6.0537230E-05;  9.9986249E+02;  1.0000000E-01; -1.1392271E+02;3;  1.9097757E-01;  0.0000000E+00; -1.2199401E-02;0; -1.4597276E-02;  3.9971008E+04;  0.0000000E+00; -7.8379743E-02;  4.0000000E+04;  0.0000000E+00;  4.0019820E+04; -1.4668932E-02;  0.0000000E+00;  7.1655835E-05;  2.4533789E+03;
  1.5174273E-01;  9.9999998E-03;  1.2989564E-01;3404; -3.0945493E-03;  0.0000000E+00;  6.5747859E-05;  9.9988153E+02;  1.0000000E-01; -9.8170067E+01;3;  1.9190612E-01;  0.0000000E+00; -1.1894806E-02;0; -1.4420833E-02;  3.9973320E+04;  0.0000000E+00; -7.3850729E-02;  4.0000000E+04;  0.0000000E+00;  4.0019789E+04; -1.4344708E-02;  0.0000000E+00; -7.6125434E-05;  2.3945361E+03;
  1.5176730E-01;  9.9999998E-03;  1.3986485E-01;3405; -3.0643039E-03;  0.0000000E+00;  5.9928825E-05;  9.9991724E+02;  1.0000000E-01; -6.8590652E+01;3;  1.9270086E-01;  0.0000000E+00; -1.1423333E-02;0; -1.4243595E-02;  3.9978914E+04;  0.0000000E+00; -5.1287491E-02;  4.0000000E+04;  0.0000000E+00;  4.0016789E+04; -1.4020867E-02;  0.0000000E+00; -2.2272891E-04;  2.1130061E+03;
  1.5178230E-01;  9.9999998E-03;  1.4982986E-01;3406; -3.0319449E-03;  0.0000000E+00;  4.3908436E-05;  9.9998132E+02;  1.0000000E-01; -1.5456353E+01;3;  1.9336988E-01;  0.0000000E+00; -4.9891113E-03;0; -1.4070719E-02;  3.9988070E+04;  0.0000000E+00; -3.9486843E-03;  4.0000000E+04;  0.0000000E+00;  4.0013469E+04; -1.3722070E-02;  0.0000000E+00; -3.4864937E-04;  1.6531764E+03;
  1.5178806E-01;  9.9999998E-03;  1.5980203E-01;3407; -2.9971576E-03;  0.0000000E+00;  1.9512814E-05;  1.0000753E+03;  1.0000000E-01;  6.2417988E+01;3;  1.9431722E-01;  0.0000000E+00;  5.8499176E-02;0; -1.3906765E-02;  4.0000461E+04;  0.0000000E+00;  7.3642544E-02;  4.0000000E+04;  0.0000000E+00;  4.0009387E+04; -1.3471168E-02;  0.0000000E+00; -4.3559721E-04;  1.1203833E+03;
  1.5177846E-01;  9.9999998E-03;  1.6980091E-01;3408; -2.9585795E-03;  0.0000000E+00; -1.1723794E-05;  1.0001984E+03;  1.0000000E-01;  1.6443979E+02;3;  1.9343989E-01;  0.0000000E+00;  2.7839714E-01;0; -1.3756200E-02;  4.0014203E+04;  0.0000000E+00;  1.9086611E-01;  4.0000000E+04;  0.0000000E+00;  4.0006473E+04; -1.3286699E-02;  0.0000000E+00; -4.6950119E-04;  6.9580884E+02;
  1.5173489E-01;  9.9999998E-03;  1.7982557E-01;3409; -2.9139612E-03;  0.0000000E+00; -4.7560774E-05;  1.0003319E+03;  1.0000000E-01;  2.7495520E+02;3;  1.8206586E-01;  0.0000000E+00;  7.8306770E-01;0; -1.3625341E-02;  4.0027812E+04;  0.0000000E+00;  3.7234154E-01;  4.0000000E+04;  0.0000000E+00;  4.0004215E+04; -1.3181997E-02;  0.0000000E+00; -4.4334424E-04;  6.5879822E+02;
  1.5165681E-01;  9.9999998E-03;  1.8985786E-01;3410; -2.8611741E-03;  0.0000000E+00; -8.3918647E-05;  1.0004627E+03;  1.0000000E-01;  3.8329779E+02;3;  1.4769734E-01;  0.0000000E+00;  1.7433139E+00;0; -1.3523594E-02;  4.0037828E+04;  0.0000000E+00;  6.7005455E-01;  4.0000000E+04;  0.0000000E+00;  4.0003727E+04; -1.3163278E-02;  0.0000000E+00; -3.6031584E-04;  1.0803744E+03;
  1.5157644E-01;  9.9999998E-03;  1.9988194E-01;3411; -2.7990285E-03;  0.0000000E+00; -1.1542305E-04;  1.0005577E+03;  1.0000000E-01;  4.6211038E+02;3;  9.0482712E-02;  0.0000000E+00;  3.4055042E+00;0; -1.3463146E-02;  4.0041602E+04;  0.0000000E+00;  1.1714991E+00;  4.0000000E+04;  0.0000000E+00;  4.0007930E+04; -1.3228361E-02;  0.0000000E+00; -2.3478575E-04;  1.9756566E+03;
  1.5150061E-01;  9.9999998E-03;  2.0988409E-01;3412; -2.7271551E-03;  0.0000000E+00; -1.3585191E-04;  1.0005824E+03;  1.0000000E-01;  4.8255426E+02;3;  5.3677782E-02;  0.0000000E+00;  6.1072135E+00;0; -1.3454475E-02;  4.0036371E+04;  0.0000000E+00;  2.0017774E+00;  4.0000000E+04;  0.0000000E+00;  4.0016203E+04; -1.3364862E-02;  0.0000000E+00; -8.9613735E-05;  3.5125405E+03;
  1.5143192E-01;  9.9999998E-03;  2.1987650E-01;3413; -2.6467838E-03;  0.0000000E+00; -1.3988184E-04;  1.0004969E+03;  1.0000000E-01;  4.1164267E+02;3;  1.6120432E-01;  0.0000000E+00;  1.0197695E+01;0; -1.3503565E-02;  4.0019496E+04;  0.0000000E+00;  3.3147936E+00;  4.0000000E+04;  0.0000000E+00;  4.0026785E+04; -1.3552607E-02;  0.0000000E+00;  4.9042137E-05;  5.8211499E+03;
  1.5135896E-01;  9.9999998E-03;  2.2985882E-01;3414; -2.5591203E-03;  0.0000000E+00; -1.2553419E-04;  1.0002710E+03;  1.0000000E-01;  2.2448747E+02;3;  6.5005821E-01;  0.0000000E+00;  1.5829965E+01;0; -1.3607381E-02;  3.9990215E+04;  0.0000000E+00;  5.2781973E+00;  4.0000000E+04;  0.0000000E+00;  4.0038008E+04; -1.3764580E-02;  0.0000000E+00;  1.5719883E-04;  9.0162764E+03;
  1.6139944E-01;  9.9999998E-03;  6.9949225E-02;3459; -3.4722472E-03;  0.0000000E+00; -3.2483724E-06;  1.0000720E+03;  1.0000000E-01;  5.9652634E+01;3;  2.0420069E-01;  0.0000000E+00; -1.1082016E-02;0; -1.5489834E-02;  3.9995680E+04;  0.0000000E+00; -2.1595338E-02;  4.0000000E+04;  0.0000000E+00;  4.0007758E+04; -1.5864840E-02;  0.0000000E+00;  3.7500513E-04;  9.3808838E+02;
  1.6144246E-01;  9.9999998E-03;  7.9948165E-02;3460; -3.4666311E-03;  0.0000000E+00; -4.0670895E-07;  1.0000641E+03;  1.0000000E-01;  5.3134300E+01;3;  2.0505668E-01;  0.0000000E+00; -1.2354158E-02;0; -1.5433218E-02;  3.9993824E+04;  0.0000000E+00; -2.6937960E-02;  4.0000000E+04;  0.0000000E+00;  4.0009559E+04; -1.5789092E-02;  0.0000000E+00;  3.5587314E-04;  1.1178733E+03;
  1.6149020E-01;  9.9999998E-03;  8.9949086E-02;3461; -3.4553192E-03;  0.0000000E+00;  7.9582023E-06;  1.0000583E+03;  1.0000000E-01;  4.8294930E+01;3;  2.0587495E-01;  0.0000000E+00; -1.3648716E-02;0; -1.5338077E-02;  3.9991582E+04;  0.0000000E+00; -3.5356626E-02;  4.0000000E+04;  0.0000000E+00;  4.0011902E+04; -1.5652966E-02;  0.0000000E+00;  3.1488863E-04;  1.3810547E+03;
  1.6153915E-01;  9.9999998E-03;  9.9950314E-02;3462; -3.4369982E-03;  0.0000000E+00;  2.1054128E-05;  1.0000576E+03;  1.0000000E-01;  4.7702354E+01;3;  2.0667204E-01;  0.0000000E+00; -1.4390672E-02;0; -1.5209541E-02;  3.9989195E+04;  0.0000000E+00; -4.7477875E-02;  4.0000000E+04;  0.0000000E+00;  4.0014312E+04; -1.5454644E-02;  0.0000000E+00;  2.4510379E-04;  1.6762358E+03;
  1.6158484E-01;  9.9999998E-03;  1.0994835E-01;3463; -3.4110327E-03;  0.0000000E+00;  3.5332247E-05;  1.0000679E+03;  1.0000000E-01;  5.6195942E+01;3;  2.0746580E-01;  0.0000000E+00; -1.4798479E-02;0; -1.5055691E-02;  3.9988453E+04;  0.0000000E+00; -6.2603630E-02;  4.0000000E+04;  0.0000000E+00;  4.0016480E+04; -1.5199564E-02;  0.0000000E+00;  1.4387381E-04;  1.9292332E+03;
  1.6162303E-01;  9.9999998E-03;  1.1993794E-01;3464; -3.3776143E-03;  0.0000000E+00;  4.6689773E-05;  1.0000855E+03;  1.0000000E-01;  7.0812813E+01;3;  2.0827262E-01;  0.0000000E+00; -1.4982685E-02;0; -1.4885184E-02;  3.9989508E+04;  0.0000000E+00; -7.8211196E-02;  4.0000000E+04;  0.0000000E+00;  4.0017566E+04; -1.4900355E-02;  0.0000000E+00;  1.5170670E-05;  2.0583025E+03;
  1.6165170E-01;  9.9999998E-03;  1.2991597E-01;3465; -3.3381016E-03;  0.0000000E+00;  5.0259634E-05;  1.0001209E+03;  1.0000000E-01;  1.0014532E+02;3;  2.0910950E-01;  0.0000000E+00; -1.4787760E-02;0; -1.4705751E-02;  3.9992973E+04;  0.0000000E+00; -8.9731008E-02;  4.0000000E+04;  0.0000000E+00;  4.0016727E+04; -1.4575807E-02;  0.0000000E+00; -1.2994383E-04;  1.9974017E+03;
  1.6167070E-01;  9.9999998E-03;  1.3988547E-01;3466; -3.2944723E-03;  0.0000000E+00;  4.3152151E-05;  1.0001703E+03;  1.0000000E-01;  1.4103305E+02;3;  2.0988654E-01;  0.0000000E+00; -1.4318977E-02;0; -1.4523990E-02;  3.9999855E+04;  0.0000000E+00; -9.0871781E-02;  4.0000000E+04;  0.0000000E+00;  4.0013703E+04; -1.4248886E-02;  0.0000000E+00; -2.7510320E-04;  1.7244128E+03;
  1.6168524E-01;  9.9999998E-03;  1.4985318E-01;3467; -3.2487160E-03;  0.0000000E+00;  2.6170892E-05;  1.0002430E+03;  1.0000000E-01;  2.0137701E+02;3;  2.1054363E-01;  0.0000000E+00; -7.1038273E-03;0; -1.4346262E-02;  4.0009629E+04;  0.0000000E+00; -7.4737132E-02;  4.0000000E+04;  0.0000000E+00;  4.0011074E+04; -1.3944474E-02;  0.0000000E+00; -4.0178749E-04;  1.2794183E+03;
  1.6169778E-01;  9.9999998E-03;  1.5982974E-01;3468; -3.2020861E-03;  0.0000000E+00;  7.4383081E-07;  1.0003385E+03;  1.0000000E-01;  2.8048590E+02;3;  2.0977910E-01;  0.0000000E+00;  6.0656283E-02;0; -1.4178675E-02;  4.0022023E+04;  0.0000000E+00; -3.3916544E-02;  4.0000000E+04;  0.0000000E+00;  4.0007348E+04; -1.3686629E-02;  0.0000000E+00; -4.9204554E-04;  7.5644464E+02;
  1.6170350E-01;  9.9999998E-03;  1.6983290E-01;3469; -3.1548142E-03;  0.0000000E+00; -3.1808842E-05;  1.0004579E+03;  1.0000000E-01;  3.7944604E+02;3;  1.9954750E-01;  0.0000000E+00;  2.8853974E-01;0; -1.4028064E-02;  4.0035734E+04;  0.0000000E+00;  4.7020383E-02;  4.0000000E+04;  0.0000000E+00;  4.0003109E+04; -1.3496557E-02;  0.0000000E+00; -5.3150638E-04;  3.0455859E+02;
  1.6168727E-01;  9.9999998E-03;  1.7985852E-01;3470; -3.1061436E-03;  0.0000000E+00; -6.9707006E-05;  1.0005822E+03;  1.0000000E-01;  4.8235672E+02;3;  1.6105998E-01;  0.0000000E+00;  8.0306548E-01;0; -1.3904098E-02;  4.0048645E+04;  0.0000000E+00;  2.0427981E-01;  4.0000000E+04;  0.0000000E+00;  4.0000930E+04; -1.3391627E-02;  0.0000000E+00; -5.1247160E-04;  2.9886899E+02;
  1.6163906E-01;  9.9999998E-03;  1.8988673E-01;3471; -3.0550142E-03;  0.0000000E+00; -1.0912729E-04;  1.0006997E+03;  1.0000000E-01;  5.7973669E+02;3;  7.0620596E-02;  0.0000000E+00;  1.7700001E+00;0; -1.3819955E-02;  4.0057738E+04;  0.0000000E+00;  5.0524271E-01;  4.0000000E+04;  0.0000000E+00;  4.0001961E+04; -1.3383023E-02;  0.0000000E+00; -4.3693194E-04;  7.4642853E+02;
  1.6152674E-01;  9.9999998E-03;  1.9991137E-01;3472; -2.9999521E-03;  0.0000000E+00; -1.4446498E-04;  1.0007835E+03;  1.0000000E-01;  6.4916681E+02;3; -7.6802634E-02;  0.0000000E+00;  3.4321558E+00;0; -1.3790324E-02;  4.0060398E+04;  0.0000000E+00;  1.0520657E+00;  4.0000000E+04;  0.0000000E+00;  4.0006090E+04; -1.3473404E-02;  0.0000000E+00; -3.1692022E-04;  1.6827728E+03;
  1.6141158E-01;  9.9999998E-03;  2.0992863E-01;3473; -2.9419439E-03;  0.0000000E+00; -1.6849526E-04;  1.0007919E+03;  1.0000000E-01;  6.5608020E+02;3; -2.2965679E-01;  0.0000000E+00;  6.1177301E+00;0; -1.3831959E-02;  4.0053844E+04;  0.0000000E+00;  1.9790744E+00;  4.0000000E+04;  0.0000000E+00;  4.0014309E+04; -1.3658791E-02;  0.0000000E+00; -1.7316824E-04;  3.3370847E+03;
  1.6133870E-01;  9.9999998E-03;  2.1992789E-01;3474; -2.8828427E-03;  0.0000000E+00; -1.7386109E-04;  1.0006891E+03;  1.0000000E-01;  5.7084802E+02;3; -2.3013853E-01;  0.0000000E+00;  1.0187616E+01;0; -1.3958177E-02;  4.0035781E+04;  0.0000000E+00;  3.4439170E+00;  4.0000000E+04;  0.0000000E+00;  4.0025387E+04; -1.3928808E-02;  0.0000000E+00; -2.9368515E-05;  5.8636812E+03;
  1.6129343E-01;  9.9999998E-03;  2.2991048E-01;3475; -2.8231659E-03;  0.0000000E+00; -1.5668181E-04;  1.0004467E+03;  1.0000000E-01;  3.7006360E+02;3;  2.3148869E-01;  0.0000000E+00;  1.5864906E+01;0; -1.4173721E-02;  4.0004418E+04;  0.0000000E+00;  5.6212606E+00;  4.0000000E+04;  0.0000000E+00;  4.0037141E+04; -1.4268622E-02;  0.0000000E+00;  9.4900810E-05;  9.4121611E+03;
  1.7132388E-01;  9.9999998E-03;  7.0012763E-02;3520; -3.7383430E-03;  0.0000000E+00; -8.0232630E-06;  1.0001978E+03;  1.0000000E-01;  1.6384721E+02;3;  2.1786866E-01;  0.0000000E+00; -1.2781019E-02;0; -1.5540675E-02;  4.0007527E+04;  0.0000000E+00; -2.3054281E-02;  4.0000000E+04;  0.0000000E+00;  4.0004086E+04; -1.5861234E-02;  0.0000000E+00;  3.2055812E-04;  4.6179904E+02;
  1.7136559E-01;  9.9999998E-03;  8.0014899E-02;3521; -3.7349060E-03;  0.0000000E+00; -6.0702123E-06;  1.0002082E+03;  1.0000000E-01;  1.7243956E+02;3;  2.1863018E-01;  0.0000000E+00; -1.4498962E-02;0; -1.5489647E-02;  4.0007031E+04;  0.0000000E+00; -2.3740102E-02;  4.0000000E+04;  0.0000000E+00;  4.0005609E+04; -1.5790163E-02;  0.0000000E+00;  3.0051565E-04;  6.4309460E+02;
  1.7141639E-01;  9.9999998E-03;  9.0016313E-02;3522; -3.7234831E-03;  0.0000000E+00;  1.6605744E-06;  1.0002162E+03;  1.0000000E-01;  1.7915543E+02;3;  2.1930473E-01;  0.0000000E+00; -1.6171750E-02;0; -1.5400625E-02;  4.0006180E+04;  0.0000000E+00; -2.7194524E-02;  4.0000000E+04;  0.0000000E+00;  4.0007723E+04; -1.5661184E-02;  0.0000000E+00;  2.6055932E-04;  8.9527588E+02;
  1.7147322E-01;  9.9999998E-03;  1.0001663E-01;3523; -3.7021791E-03;  0.0000000E+00;  1.4415783E-05;  1.0002356E+03;  1.0000000E-01;  1.9515497E+02;3;  2.2002496E-01;  0.0000000E+00; -1.7348047E-02;0; -1.5278286E-02;  4.0005895E+04;  0.0000000E+00; -3.5859205E-02;  4.0000000E+04;  0.0000000E+00;  4.0010426E+04; -1.5472047E-02;  0.0000000E+00;  1.9376064E-04;  1.1704869E+03;
  1.7153080E-01;  9.9999998E-03;  1.1001389E-01;3524; -3.6702056E-03;  0.0000000E+00;  2.8046750E-05;  1.0002689E+03;  1.0000000E-01;  2.2270975E+02;3;  2.2082628E-01;  0.0000000E+00; -1.7832790E-02;0; -1.5130215E-02;  4.0006699E+04;  0.0000000E+00; -5.1364809E-02;  4.0000000E+04;  0.0000000E+00;  4.0011660E+04; -1.5227336E-02;  0.0000000E+00;  9.7119955E-05;  1.4025272E+03;
  1.7158093E-01;  9.9999998E-03;  1.2000403E-01;3525; -3.6277219E-03;  0.0000000E+00;  3.8442395E-05;  1.0003032E+03;  1.0000000E-01;  2.5115340E+02;3;  2.2156304E-01;  0.0000000E+00; -1.8208271E-02;0; -1.4964429E-02;  4.0009234E+04;  0.0000000E+00; -7.3775701E-02;  4.0000000E+04;  0.0000000E+00;  4.0012035E+04; -1.4938273E-02;  0.0000000E+00; -2.6155898E-05;  1.5194972E+03;
  1.7161557E-01;  9.9999998E-03;  1.2998444E-01;3526; -3.5763530E-03;  0.0000000E+00;  4.1460673E-05;  1.0003541E+03;  1.0000000E-01;  2.9332504E+02;3;  2.2236988E-01;  0.0000000E+00; -1.8105729E-02;0; -1.4788336E-02;  4.0014352E+04;  0.0000000E+00; -1.0098340E-01;  4.0000000E+04;  0.0000000E+00;  4.0012090E+04; -1.4622157E-02;  0.0000000E+00; -1.6617907E-04;  1.4635300E+03;
  1.7163569E-01;  9.9999998E-03;  1.3995618E-01;3527; -3.5191185E-03;  0.0000000E+00;  3.4452903E-05;  1.0004171E+03;  1.0000000E-01;  3.4547171E+02;3;  2.2314751E-01;  0.0000000E+00; -1.7741503E-02;0; -1.4608615E-02;  4.0021652E+04;  0.0000000E+00; -1.2841508E-01;  4.0000000E+04;  0.0000000E+00;  4.0009473E+04; -1.4300664E-02;  0.0000000E+00; -3.0795080E-04;  1.2154795E+03;
  1.7164668E-01;  9.9999998E-03;  1.4992380E-01;3528; -3.4594184E-03;  0.0000000E+00;  1.8126522E-05;  1.0004995E+03;  1.0000000E-01;  4.1381546E+02;3;  2.2373657E-01;  0.0000000E+00; -9.8799914E-03;0; -1.4432265E-02;  4.0031918E+04;  0.0000000E+00; -1.4929052E-01;  4.0000000E+04;  0.0000000E+00;  4.0006703E+04; -1.3998087E-02;  0.0000000E+00; -4.3417801E-04;  8.1461584E+02;
  1.7165352E-01;  9.9999998E-03;  1.5989745E-01;3529; -3.4002075E-03;  0.0000000E+00; -6.1307260E-06;  1.0005944E+03;  1.0000000E-01;  4.9243051E+02;3;  2.2067170E-01;  0.0000000E+00;  5.9590962E-02;0; -1.4266370E-02;  4.0044242E+04;  0.0000000E+00; -1.5297313E-01;  4.0000000E+04;  0.0000000E+00;  4.0004188E+04; -1.3738789E-02;  0.0000000E+00; -5.2758155E-04;  3.6828836E+02;
  1.7165627E-01;  9.9999998E-03;  1.6989046E-01;3530; -3.3434767E-03;  0.0000000E+00; -3.7040878E-05;  1.0007057E+03;  1.0000000E-01;  5.8467480E+02;3;  1.9961645E-01;  0.0000000E+00;  2.8726649E-01;0; -1.4119728E-02;  4.0057504E+04;  0.0000000E+00; -1.1550231E-01;  4.0000000E+04;  0.0000000E+00;  3.9999559E+04; -1.3545904E-02;  0.0000000E+00; -5.7382311E-04;  2.1154279E+02;
  1.7163593E-01;  9.9999998E-03;  1.7990826E-01;3531; -3.2899559E-03;  0.0000000E+00; -7.3206196E-05;  1.0008216E+03;  1.0000000E-01;  6.8067212E+02;3;  1.3145773E-01;  0.0000000E+00;  7.9547870E-01;0; -1.4004924E-02;  4.0069371E+04;  0.0000000E+00;  1.3397691E-02;  4.0000000E+04;  0.0000000E+00;  3.9997820E+04; -1.3440255E-02;  0.0000000E+00; -5.6466920E-04;  3.6959357E+02;
  1.7156340E-01;  9.9999998E-03;  1.8992817E-01;3532; -3.2396538E-03;  0.0000000E+00; -1.1126748E-04;  1.0009193E+03;  1.0000000E-01;  7.6165747E+02;3; -1.8948091E-02;  0.0000000E+00;  1.7374595E+00;0; -1.3938822E-02;  4.0077531E+04;  0.0000000E+00;  3.1639192E-01;  4.0000000E+04;  0.0000000E+00;  3.9998918E+04; -1.3438179E-02;  0.0000000E+00; -5.0064246E-04;  5.2979425E+02;
  1.7144117E-01;  9.9999998E-03;  1.9995652E-01;3533; -3.1927298E-03;  0.0000000E+00; -1.4582487E-04;  1.0009816E+03;  1.0000000E-01;  8.1321155E+02;3; -2.6499513E-01;  0.0000000E+00;  3.3349469E+00;0; -1.3941374E-02;  4.0078871E+04;  0.0000000E+00;  9.0512180E-01;  4.0000000E+04;  0.0000000E+00;  4.0002090E+04; -1.3549726E-02;  0.0000000E+00; -3.9164722E-04;  1.3335825E+03;
  1.7130664E-01;  9.9999998E-03;  2.0999186E-01;3534; -3.1502079E-03;  0.0000000E+00; -1.6922076E-04;  1.0009697E+03;  1.0000000E-01;  8.0333533E+02;3; -5.5292058E-01;  0.0000000E+00;  5.8755422E+00;0; -1.4034255E-02;  4.0071777E+04;  0.0000000E+00;  1.9121453E+00;  4.0000000E+04;  0.0000000E+00;  4.0009676E+04; -1.3779297E-02;  0.0000000E+00; -2.5495808E-04;  3.0064214E+03;
  1.7122661E-01;  9.9999998E-03;  2.2001001E-01;3535; -3.1140684E-03;  0.0000000E+00; -1.7152475E-04;  1.0008505E+03;  1.0000000E-01;  7.0457269E+02;3; -7.0530760E-01;  0.0000000E+00;  9.6666002E+00;0; -1.4236910E-02;  4.0053043E+04;  0.0000000E+00;  3.4794786E+00;  4.0000000E+04;  0.0000000E+00;  4.0019379E+04; -1.4127130E-02;  0.0000000E+00; -1.0978027E-04;  5.6108833E+03;
  1.7120370E-01;  9.9999998E-03;  2.3000877E-01;3536; -3.0837299E-03;  0.0000000E+00; -1.4683027E-04;  1.0005764E+03;  1.0000000E-01;  4.7751736E+02;3; -3.6174095E-01;  0.0000000E+00;  1.4862928E+01;0; -1.4562768E-02;  4.0020789E+04;  0.0000000E+00;  5.7521596E+00;  4.0000000E+04;  0.0000000E+00;  4.0029801E+04; -1.4593901E-02;  0.0000000E+00;  3.1132804E-05;  9.2730371E+03;
  1.8133259E-01;  9.9999998E-03;  7.0061266E-02;3581; -3.9769597E-03;  0.0000000E+00; -1.0468161E-05;  1.0002845E+03;  1.0000000E-01;  2.3574641E+02;3;  2.3220530E-01;  0.0000000E+00; -1.4684633E-02;0; -1.5333103E-02;  4.0017574E+04;  0.0000000E+00; -2.9089615E-02;  4.0000000E+04;  0.0000000E+00;  3.9999605E+04; -1.5608357E-02;  0.0000000E+00;  2.7525442E-04;  1.0346095E+02;
  1.8133035E-01;  9.9999998E-03;  8.0066174E-02;3582; -3.9753406E-03;  0.0000000E+00; -1.0253859E-05;  1.0002911E+03;  1.0000000E-01;  2.4117836E+02;3;  2.3288655E-01;  0.0000000E+00; -1.6665783E-02;0; -1.5289949E-02;  4.0017402E+04;  0.0000000E+00; -2.5690826E-02;  4.0000000E+04;  0.0000000E+00;  4.0001086E+04; -1.5544752E-02;  0.0000000E+00;  2.5480200E-04;  8.7496315E+01;
  1.8134876E-01;  9.9999998E-03;  9.0068482E-02;3583; -3.9639794E-03;  0.0000000E+00; -4.7673598E-06;  1.0003130E+03;  1.0000000E-01;  2.5935068E+02;3;  2.3336174E-01;  0.0000000E+00; -1.8756194E-02;0; -1.5209995E-02;  4.0017277E+04;  0.0000000E+00; -2.3754003E-02;  4.0000000E+04;  0.0000000E+00;  4.0003238E+04; -1.5427132E-02;  0.0000000E+00;  2.1713716E-04;  3.1345328E+02;
  1.8138714E-01;  9.9999998E-03;  1.0006908E-01;3584; -3.9401478E-03;  0.0000000E+00;  6.2202962E-06;  1.0003430E+03;  1.0000000E-01;  2.8414011E+02;3;  2.3368824E-01;  0.0000000E+00; -2.1056166E-02;0; -1.5097496E-02;  4.0017684E+04;  0.0000000E+00; -2.7254846E-02;  4.0000000E+04;  0.0000000E+00;  4.0004977E+04; -1.5252838E-02;  0.0000000E+00;  1.5534172E-04;  5.6078625E+02;
  1.8143664E-01;  9.9999998E-03;  1.1006717E-01;3585; -3.9022288E-03;  0.0000000E+00;  2.0152980E-05;  1.0003806E+03;  1.0000000E-01;  3.1525034E+02;3;  2.3411629E-01;  0.0000000E+00; -2.2305317E-02;0; -1.4959463E-02;  4.0019340E+04;  0.0000000E+00; -4.0151093E-02;  4.0000000E+04;  0.0000000E+00;  4.0006281E+04; -1.5025405E-02;  0.0000000E+00;  6.5942419E-05;  7.6835419E+02;
  1.8148693E-01;  9.9999998E-03;  1.2006050E-01;3586; -3.8501916E-03;  0.0000000E+00;  3.2822223E-05;  1.0004301E+03;  1.0000000E-01;  3.5633560E+02;3;  2.3457658E-01;  0.0000000E+00; -2.3275450E-02;0; -1.4803406E-02;  4.0023059E+04;  0.0000000E+00; -6.5575115E-02;  4.0000000E+04;  0.0000000E+00;  4.0006875E+04; -1.4754466E-02;  0.0000000E+00; -4.8939688E-05;  8.7607642E+02;
  1.8153067E-01;  9.9999998E-03;  1.3004611E-01;3587; -3.7866365E-03;  0.0000000E+00;  3.8444374E-05;  1.0004860E+03;  1.0000000E-01;  4.0265527E+02;3;  2.3550484E-01;  0.0000000E+00; -2.2808542E-02;0; -1.4636290E-02;  4.0028531E+04;  0.0000000E+00; -1.0483975E-01;  4.0000000E+04;  0.0000000E+00;  4.0006500E+04; -1.4455291E-02;  0.0000000E+00; -1.8099959E-04;  8.3700525E+02;
  1.8156424E-01;  9.9999998E-03;  1.4002265E-01;3588; -3.7160157E-03;  0.0000000E+00;  3.3569569E-05;  1.0005551E+03;  1.0000000E-01;  4.5983884E+02;3;  2.3671964E-01;  0.0000000E+00; -2.1697633E-02;0; -1.4464813E-02;  4.0036227E+04;  0.0000000E+00; -1.5626857E-01;  4.0000000E+04;  0.0000000E+00;  4.0004480E+04; -1.4147842E-02;  0.0000000E+00; -3.1697084E-04;  6.4315625E+02;
  1.8158348E-01;  9.9999998E-03;  1.4999321E-01;3589; -3.6429565E-03;  0.0000000E+00;  1.9350051E-05;  1.0006381E+03;  1.0000000E-01;  5.2857764E+02;3;  2.3724490E-01;  0.0000000E+00; -1.3740430E-02;0; -1.4296037E-02;  4.0046367E+04;  0.0000000E+00; -2.1420750E-01;  4.0000000E+04;  0.0000000E+00;  4.0001902E+04; -1.3854913E-02;  0.0000000E+00; -4.4112364E-04;  3.8647406E+02;
  1.8158746E-01;  9.9999998E-03;  1.5996528E-01;3590; -3.5714575E-03;  0.0000000E+00; -1.8923163E-06;  1.0007335E+03;  1.0000000E-01;  6.0768652E+02;3;  2.3180957E-01;  0.0000000E+00;  5.3094696E-02;0; -1.4137872E-02;  4.0058027E+04;  0.0000000E+00; -2.6481190E-01;  4.0000000E+04;  0.0000000E+00;  3.9999004E+04; -1.3600693E-02;  0.0000000E+00; -5.3717877E-04;  4.2407843E+02;
  1.8157555E-01;  9.9999998E-03;  1.6994959E-01;3591; -3.5051673E-03;  0.0000000E+00; -2.8858654E-05;  1.0008336E+03;  1.0000000E-01;  6.9064716E+02;3;  2.0040423E-01;  0.0000000E+00;  2.6996708E-01;0; -1.4000468E-02;  4.0070426E+04;  0.0000000E+00; -2.7440146E-01;  4.0000000E+04;  0.0000000E+00;  3.9996219E+04; -1.3409394E-02;  0.0000000E+00; -5.9107458E-04;  7.1006329E+02;
  1.8153346E-01;  9.9999998E-03;  1.7995229E-01;3592; -3.4464435E-03;  0.0000000E+00; -6.0214246E-05;  1.0009359E+03;  1.0000000E-01;  7.7538550E+02;3;  1.0473987E-01;  0.0000000E+00;  7.5045550E-01;0; -1.3898689E-02;  4.0080973E+04;  0.0000000E+00; -1.7742331E-01;  4.0000000E+04;  0.0000000E+00;  3.9994160E+04; -1.3304567E-02;  0.0000000E+00; -5.9412199E-04;  8.5796692E+02;
  1.8144590E-01;  9.9999998E-03;  1.8997414E-01;3593; -3.3967565E-03;  0.0000000E+00; -9.3191644E-05;  1.0010172E+03;  1.0000000E-01;  8.4274158E+02;3; -1.0187884E-01;  0.0000000E+00;  1.6333865E+00;0; -1.3852380E-02;  4.0088102E+04;  0.0000000E+00;  1.2434300E-01;  4.0000000E+04;  0.0000000E+00;  3.9994410E+04; -1.3307152E-02;  0.0000000E+00; -5.4522819E-04;  7.8275208E+02;
  1.8132947E-01;  9.9999998E-03;  2.0001109E-01;3594; -3.3575927E-03;  0.0000000E+00; -1.2318452E-04;  1.0010548E+03;  1.0000000E-01;  8.7385181E+02;3; -4.4438353E-01;  0.0000000E+00;  3.1011577E+00;0; -1.3885582E-02;  4.0088953E+04;  0.0000000E+00;  7.4974930E-01;  4.0000000E+04;  0.0000000E+00;  3.9997898E+04; -1.3433953E-02;  0.0000000E+00; -4.5162934E-04;  1.1508387E+03;
  1.8119419E-01;  9.9999998E-03;  2.1006364E-01;3595; -3.3299681E-03;  0.0000000E+00; -1.4308059E-04;  1.0010262E+03;  1.0000000E-01;  8.5024756E+02;3; -8.7934083E-01;  0.0000000E+00;  5.3699627E+00;0; -1.4025587E-02;  4.0081719E+04;  0.0000000E+00;  1.8243407E+00;  4.0000000E+04;  0.0000000E+00;  4.0003180E+04; -1.3698989E-02;  0.0000000E+00; -3.2659763E-04;  2.6924443E+03;
  1.8109740E-01;  9.9999998E-03;  2.2011267E-01;3596; -3.3143095E-03;  0.0000000E+00; -1.4473536E-04;  1.0008842E+03;  1.0000000E-01;  7.3252252E+02;3; -1.2391549E+00;  0.0000000E+00;  8.5818529E+00;0; -1.4299037E-02;  4.0064418E+04;  0.0000000E+00;  3.4645514E+00;  4.0000000E+04;  0.0000000E+00;  4.0010160E+04; -1.4114367E-02;  0.0000000E+00; -1.8466987E-04;  5.2424678E+03;
  1.8107857E-01;  9.9999998E-03;  2.3013845E-01;3597; -3.3071744E-03;  0.0000000E+00; -1.2365915E-04;  1.0005860E+03;  1.0000000E-01;  4.8551712E+02;3; -1.1698304E+00;  0.0000000E+00;  1.2686499E+01;0; -1.4730189E-02;  4.0033594E+04;  0.0000000E+00;  5.7566414E+00;  4.0000000E+04;  0.0000000E+00;  4.0017855E+04; -1.4694766E-02;  0.0000000E+00; -3.5423014E-05;  8.8074512E+03;
  1.9140424E-01;  9.9999998E-03;  7.0082076E-02;3642; -4.1735522E-03;  0.0000000E+00; -9.0343328E-06;  1.0003060E+03;  1.0000000E-01;  2.5352370E+02;3;  2.4732649E-01;  0.0000000E+00; -1.6791051E-02;0; -1.4885031E-02;  4.0023414E+04;  0.0000000E+00; -3.2294117E-02;  4.0000000E+04;  0.0000000E+00;  3.9994945E+04; -1.5125600E-02;  0.0000000E+00;  2.4056887E-04;  6.6016901E+02;
  1.9137408E-01;  9.9999998E-03;  8.0087863E-02;3643; -4.1746479E-03;  0.0000000E+00; -1.0675897E-05;  1.0003082E+03;  1.0000000E-01;  2.5530142E+02;3;  2.4789739E-01;  0.0000000E+00; -1.9044572E-02;0; -1.4850619E-02;  4.0022590E+04;  0.0000000E+00; -2.5898214E-02;  4.0000000E+04;  0.0000000E+00;  3.9996277E+04; -1.5070439E-02;  0.0000000E+00;  2.1981983E-04;  5.0819635E+02;
  1.9135219E-01;  9.9999998E-03;  9.0091854E-02;3644; -4.1641570E-03;  0.0000000E+00; -7.9980828E-06;  1.0003187E+03;  1.0000000E-01;  2.6399252E+02;3;  2.4816056E-01;  0.0000000E+00; -2.1564508E-02;0; -1.4782687E-02;  4.0021969E+04;  0.0000000E+00; -1.9001216E-02;  4.0000000E+04;  0.0000000E+00;  3.9998055E+04; -1.4968054E-02;  0.0000000E+00;  1.8536799E-04;  3.0627097E+02;
  1.9134627E-01;  9.9999998E-03;  1.0009482E-01;3645; -4.1389302E-03;  0.0000000E+00; -3.4198280E-07;  1.0003415E+03;  1.0000000E-01;  2.8295496E+02;3;  2.4831633E-01;  0.0000000E+00; -2.3993487E-02;0; -1.4684476E-02;  4.0022246E+04;  0.0000000E+00; -1.6316751E-02;  4.0000000E+04;  0.0000000E+00;  3.9999480E+04; -1.4814825E-02;  0.0000000E+00;  1.3034868E-04;  9.4066635E+01;
  1.9136004E-01;  9.9999998E-03;  1.1009630E-01;3646; -4.0970524E-03;  0.0000000E+00;  1.0835648E-05;  1.0003745E+03;  1.0000000E-01;  3.1031223E+02;3;  2.4821164E-01;  0.0000000E+00; -2.6394565E-02;0; -1.4561658E-02;  4.0023605E+04;  0.0000000E+00; -2.3667974E-02;  4.0000000E+04;  0.0000000E+00;  4.0000832E+04; -1.4612334E-02;  0.0000000E+00;  5.0676015E-05;  9.4359703E+01;
  1.9138989E-01;  9.9999998E-03;  1.2009460E-01;3647; -4.0380107E-03;  0.0000000E+00;  2.2886190E-05;  1.0004167E+03;  1.0000000E-01;  3.4527420E+02;3;  2.4825805E-01;  0.0000000E+00; -2.8231623E-02;0; -1.4420816E-02;  4.0026973E+04;  0.0000000E+00; -4.7195148E-02;  4.0000000E+04;  0.0000000E+00;  4.0001707E+04; -1.4367959E-02;  0.0000000E+00; -5.2856358E-05;  1.9578102E+02;
  1.9142540E-01;  9.9999998E-03;  1.3008739E-01;3648; -3.9640609E-03;  0.0000000E+00;  3.1276639E-05;  1.0004724E+03;  1.0000000E-01;  3.9129758E+02;3;  2.4825233E-01;  0.0000000E+00; -2.9035425E-02;0; -1.4268529E-02;  4.0031633E+04;  0.0000000E+00; -9.2013836E-02;  4.0000000E+04;  0.0000000E+00;  4.0001379E+04; -1.4094649E-02;  0.0000000E+00; -1.7387954E-04;  2.0352463E+02;
  1.9145606E-01;  9.9999998E-03;  1.4007255E-01;3649; -3.8800377E-03;  0.0000000E+00;  3.2188258E-05;  1.0005360E+03;  1.0000000E-01;  4.4403683E+02;3;  2.4915732E-01;  0.0000000E+00; -2.8602188E-02;0; -1.4111352E-02;  4.0038855E+04;  0.0000000E+00; -1.6029324E-01;  4.0000000E+04;  0.0000000E+00;  3.9999199E+04; -1.3810060E-02;  0.0000000E+00; -3.0129173E-04;  2.2770680E+02;
  1.9147380E-01;  9.9999998E-03;  1.5005079E-01;3650; -3.7923630E-03;  0.0000000E+00;  2.5375386E-05;  1.0006169E+03;  1.0000000E-01;  5.1109665E+02;3;  2.4988875E-01;  0.0000000E+00; -2.0806469E-02;0; -1.3956320E-02;  4.0048168E+04;  0.0000000E+00; -2.4893054E-01;  4.0000000E+04;  0.0000000E+00;  3.9998082E+04; -1.3535058E-02;  0.0000000E+00; -4.2126240E-04;  4.6801489E+02;
  1.9147430E-01;  9.9999998E-03;  1.6002636E-01;3651; -3.7079293E-03;  0.0000000E+00;  1.0767125E-05;  1.0007026E+03;  1.0000000E-01;  5.8210699E+02;3;  2.4330567E-01;  0.0000000E+00;  4.0349916E-02;0; -1.3811649E-02;  4.0058254E+04;  0.0000000E+00; -3.4222364E-01;  4.0000000E+04;  0.0000000E+00;  3.9995445E+04; -1.3292825E-02;  0.0000000E+00; -5.1882380E-04;  8.2731403E+02;
  1.9145238E-01;  9.9999998E-03;  1.7000630E-01;3652; -3.6323550E-03;  0.0000000E+00; -1.0701729E-05;  1.0007900E+03;  1.0000000E-01;  6.5450000E+02;3;  2.0462821E-01;  0.0000000E+00;  2.3715714E-01;0; -1.3688469E-02;  4.0069000E+04;  0.0000000E+00; -3.9760473E-01;  4.0000000E+04;  0.0000000E+00;  3.9992262E+04; -1.3108047E-02;  0.0000000E+00; -5.8042264E-04;  1.1607367E+03;
  1.9140227E-01;  9.9999998E-03;  1.8000044E-01;3653; -3.5684765E-03;  0.0000000E+00; -3.5760244E-05;  1.0008755E+03;  1.0000000E-01;  7.2541156E+02;3;  8.8314481E-02;  0.0000000E+00;  6.7202270E-01;0; -1.3602678E-02;  4.0078738E+04;  0.0000000E+00; -3.3488882E-01;  4.0000000E+04;  0.0000000E+00;  3.9991070E+04; -1.3005768E-02;  0.0000000E+00; -5.9690978E-04;  1.3190959E+03;
  1.9131701E-01;  9.9999998E-03;  1.9002049E-01;3654; -3.5186189E-03;  0.0000000E+00; -6.1937746E-05;  1.0009399E+03;  1.0000000E-01;  7.7864465E+02;3; -1.6219309E-01;  0.0000000E+00;  1.4658220E+00;0; -1.3575845E-02;  4.0084801E+04;  0.0000000E+00; -4.0208660E-02;  4.0000000E+04;  0.0000000E+00;  3.9990898E+04; -1.3010401E-02;  0.0000000E+00; -5.6544453E-04;  1.2249888E+03;
  1.9120708E-01;  9.9999998E-03;  2.0006578E-01;3655; -3.4848605E-03;  0.0000000E+00; -8.5594620E-05;  1.0009634E+03;  1.0000000E-01;  7.9810089E+02;3; -5.8645636E-01;  0.0000000E+00;  2.7579749E+00;0; -1.3634996E-02;  4.0085719E+04;  0.0000000E+00;  6.1362082E-01;  4.0000000E+04;  0.0000000E+00;  3.9992914E+04; -1.3144935E-02;  0.0000000E+00; -4.9006171E-04;  1.3250491E+03;
  1.9108512E-01;  9.9999998E-03;  2.1012838E-01;3656; -3.4682939E-03;  0.0000000E+00; -1.0169502E-04;  1.0009189E+03;  1.0000000E-01;  7.6126239E+02;3; -1.1623765E+00;  0.0000000E+00;  4.6719790E+00;0; -1.3812101E-02;  4.0079672E+04;  0.0000000E+00;  1.7466332E+00;  4.0000000E+04;  0.0000000E+00;  3.9996406E+04; -1.3431936E-02;  0.0000000E+00; -3.8016547E-04;  2.6241433E+03;
  1.9096893E-01;  9.9999998E-03;  2.2020668E-01;3657; -3.4664909E-03;  0.0000000E+00; -1.0920229E-04;  1.0007553E+03;  1.0000000E-01;  6.2576007E+02;3; -1.7702533E+00;  0.0000000E+00;  7.1216106E+00;0; -1.4145133E-02;  4.0065129E+04;  0.0000000E+00;  3.4575086E+00;  4.0000000E+04;  0.0000000E+00;  3.9999133E+04; -1.3896202E-02;  0.0000000E+00; -2.4893176E-04;  5.1089375E+03;
  1.9092996E-01;  9.9999998E-03;  2.3025684E-01;3658; -3.4711906E-03;  0.0000000E+00; -1.1317652E-04;  1.0004444E+03;  1.0000000E-01;  3.6818710E+02;3; -2.1219285E+00;  0.0000000E+00;  9.7627649E+00;0; -1.4679118E-02;  4.0039074E+04;  0.0000000E+00;  5.7816305E+00;  4.0000000E+04;  0.0000000E+00;  4.0000125E+04; -1.4561663E-02;  0.0000000E+00; -1.1745436E-04;  8.6032510E+03;
  2.0150229E-01;  9.9999998E-03;  7.0071019E-02;3703; -4.3245680E-03;  0.0000000E+00; -3.1546690E-06;  1.0002762E+03;  1.0000000E-01;  2.2883304E+02;3;  2.6317719E-01;  0.0000000E+00; -1.9938301E-02;0; -1.4261387E-02;  4.0024945E+04;  0.0000000E+00; -2.4421524E-02;  4.0000000E+04;  0.0000000E+00;  3.9991008E+04; -1.4478313E-02;  0.0000000E+00;  2.1692556E-04;  1.1539574E+03;
  2.0145306E-01;  9.9999998E-03;  8.0083147E-02;3704; -4.3286658E-03;  0.0000000E+00; -6.3538478E-06;  1.0002601E+03;  1.0000000E-01;  2.1550008E+02;3;  2.6366168E-01;  0.0000000E+00; -2.2243647E-02;0; -1.4234041E-02;  4.0022891E+04;  0.0000000E+00; -1.5209028E-02;  4.0000000E+04;  0.0000000E+00;  3.9992008E+04; -1.4429992E-02;  0.0000000E+00;  1.9595097E-04;  1.0349757E+03;
  2.0140582E-01;  9.9999998E-03;  9.0092406E-02;3705; -4.3200143E-03;  0.0000000E+00; -6.3711354E-06;  1.0002498E+03;  1.0000000E-01;  2.0690773E+02;3;  2.6382431E-01;  0.0000000E+00; -2.4733743E-02;0; -1.4177636E-02;  4.0020957E+04;  0.0000000E+00; -3.6945918E-03;  4.0000000E+04;  0.0000000E+00;  3.9993125E+04; -1.4342930E-02;  0.0000000E+00;  1.6529420E-04;  8.7346136E+02;
  2.0136710E-01;  9.9999998E-03;  1.0010025E-01;3706; -4.2949147E-03;  0.0000000E+00; -2.1867527E-06;  1.0002472E+03;  1.0000000E-01;  2.0483371E+02;3;  2.6369914E-01;  0.0000000E+00; -2.7324731E-02;0; -1.4094958E-02;  4.0019715E+04;  0.0000000E+00;  5.7059270E-03;  4.0000000E+04;  0.0000000E+00;  3.9995047E+04; -1.4213269E-02;  0.0000000E+00;  1.1831045E-04;  7.0125787E+02;
  2.0134333E-01;  9.9999998E-03;  1.1010692E-01;3707; -4.2509101E-03;  0.0000000E+00;  5.6131025E-06;  1.0002589E+03;  1.0000000E-01;  2.1451245E+02;3;  2.6330119E-01;  0.0000000E+00; -3.0027865E-02;0; -1.3990602E-02;  4.0019535E+04;  0.0000000E+00;  6.4741732E-03;  4.0000000E+04;  0.0000000E+00;  3.9996020E+04; -1.4040953E-02;  0.0000000E+00;  5.0349936E-05;  5.5428088E+02;
  2.0133607E-01;  9.9999998E-03;  1.2011232E-01;3708; -4.1868202E-03;  0.0000000E+00;  1.6489892E-05;  1.0002822E+03;  1.0000000E-01;  2.3377116E+02;3;  2.6270124E-01;  0.0000000E+00; -3.3047166E-02;0; -1.3869893E-02;  4.0020773E+04;  0.0000000E+00; -9.6210595E-03;  4.0000000E+04;  0.0000000E+00;  3.9996734E+04; -1.3830616E-02;  0.0000000E+00; -3.9276998E-05;  4.6812354E+02;
  2.0134304E-01;  9.9999998E-03;  1.3011409E-01;3709; -4.1052676E-03;  0.0000000E+00;  2.6032925E-05;  1.0003160E+03;  1.0000000E-01;  2.6181976E+02;3;  2.6247206E-01;  0.0000000E+00; -3.4311630E-02;0; -1.3738215E-02;  4.0024117E+04;  0.0000000E+00; -5.1232971E-02;  4.0000000E+04;  0.0000000E+00;  3.9996516E+04; -1.3591812E-02;  0.0000000E+00; -1.4640273E-04;  4.7783914E+02;
  2.0135815E-01;  9.9999998E-03;  1.4011021E-01;3710; -4.0108808E-03;  0.0000000E+00;  3.1836043E-05;  1.0003683E+03;  1.0000000E-01;  3.0507779E+02;3;  2.6258144E-01;  0.0000000E+00; -3.4873102E-02;0; -1.3601191E-02;  4.0029281E+04;  0.0000000E+00; -1.2490635E-01;  4.0000000E+04;  0.0000000E+00;  3.9994641E+04; -1.3338790E-02;  0.0000000E+00; -2.6240136E-04;  6.0893555E+02;
  2.0136838E-01;  9.9999998E-03;  1.5009907E-01;3711; -3.9110286E-03;  0.0000000E+00;  3.2509790E-05;  1.0004285E+03;  1.0000000E-01;  3.5495291E+02;3;  2.6295456E-01;  0.0000000E+00; -2.8700000E-02;0; -1.3465581E-02;  4.0036371E+04;  0.0000000E+00; -2.3160663E-01;  4.0000000E+04;  0.0000000E+00;  3.9993508E+04; -1.3089928E-02;  0.0000000E+00; -3.7565388E-04;  8.5624280E+02;
  2.0136233E-01;  9.9999998E-03;  1.6008188E-01;3712; -3.8141811E-03;  0.0000000E+00;  2.6745278E-05;  1.0004953E+03;  1.0000000E-01;  4.1035876E+02;3;  2.5557154E-01;  0.0000000E+00;  2.2879820E-02;0; -1.3339564E-02;  4.0044930E+04;  0.0000000E+00; -3.5632846E-01;  4.0000000E+04;  0.0000000E+00;  3.9992234E+04; -1.2866720E-02;  0.0000000E+00; -4.7284452E-04;  1.1770740E+03;
  2.0133194E-01;  9.9999998E-03;  1.7006303E-01;3713; -3.7283923E-03;  0.0000000E+00;  1.3544173E-05;  1.0005681E+03;  1.0000000E-01;  4.7060397E+02;3;  2.1396570E-01;  0.0000000E+00;  1.9272880E-01;0; -1.3234547E-02;  4.0053715E+04;  0.0000000E+00; -4.5078862E-01;  4.0000000E+04;  0.0000000E+00;  3.9989891E+04; -1.2693422E-02;  0.0000000E+00; -5.4112531E-04;  1.4856930E+03;
  2.0127641E-01;  9.9999998E-03;  1.8005128E-01;3714; -3.6585701E-03;  0.0000000E+00; -5.7516681E-06;  1.0006379E+03;  1.0000000E-01;  5.2847888E+02;3;  8.7745592E-02;  0.0000000E+00;  5.7087964E-01;0; -1.3166439E-02;  4.0061414E+04;  0.0000000E+00; -4.2311147E-01;  4.0000000E+04;  0.0000000E+00;  3.9988324E+04; -1.2595582E-02;  0.0000000E+00; -5.7085720E-04;  1.6534348E+03;
  2.0119344E-01;  9.9999998E-03;  1.9006196E-01;3715; -3.6071003E-03;  0.0000000E+00; -2.7796872E-05;  1.0006901E+03;  1.0000000E-01;  5.7173694E+02;3; -1.8714274E-01;  0.0000000E+00;  1.2585074E+00;0; -1.3157518E-02;  4.0066695E+04;  0.0000000E+00; -1.4507174E-01;  4.0000000E+04;  0.0000000E+00;  3.9988406E+04; -1.2599833E-02;  0.0000000E+00; -5.5768393E-04;  1.5976844E+03;
  2.0108609E-01;  9.9999998E-03;  2.0010638E-01;3716; -3.5752102E-03;  0.0000000E+00; -4.8655675E-05;  1.0006951E+03;  1.0000000E-01;  5.7588495E+02;3; -6.6435748E-01;  0.0000000E+00;  2.3541582E+00;0; -1.3236803E-02;  4.0068266E+04;  0.0000000E+00;  5.2164614E-01;  4.0000000E+04;  0.0000000E+00;  3.9988520E+04; -1.2733867E-02;  0.0000000E+00; -5.0293567E-04;  1.6753154E+03;
  2.0097984E-01;  9.9999998E-03;  2.1016599E-01;3717; -3.5636467E-03;  0.0000000E+00; -6.6751774E-05;  1.0006460E+03;  1.0000000E-01;  5.3519476E+02;3; -1.3488268E+00;  0.0000000E+00;  3.9084740E+00;0; -1.3440084E-02;  4.0063820E+04;  0.0000000E+00;  1.6982777E+00;  4.0000000E+04;  0.0000000E+00;  3.9989816E+04; -1.3026193E-02;  0.0000000E+00; -4.1389134E-04;  2.8321003E+03;
  2.0086294E-01;  9.9999998E-03;  2.2025007E-01;3718; -3.5675417E-03;  0.0000000E+00; -9.0327310E-05;  1.0004813E+03;  1.0000000E-01;  3.9880353E+02;3; -2.1807692E+00;  0.0000000E+00;  5.6758132E+00;0; -1.3821205E-02;  4.0053125E+04;  0.0000000E+00;  3.4805119E+00;  4.0000000E+04;  0.0000000E+00;  3.9988523E+04; -1.3511529E-02;  0.0000000E+00; -3.0967593E-04;  5.3441826E+03;
  2.0079677E-01;  9.9999998E-03;  2.3030756E-01;3719; -3.5741958E-03;  0.0000000E+00; -1.3436095E-04;  1.0001840E+03;  1.0000000E-01;  1.5248952E+02;3; -2.9579425E+00;  0.0000000E+00;  7.0878272E+00;0; -1.4458880E-02;  4.0033977E+04;  0.0000000E+00;  5.9080772E+00;  4.0000000E+04;  0.0000000E+00;  3.9985453E+04; -1.4220994E-02;  0.0000000E+00; -2.3788618E-04;  8.9860098E+03;
  2.1163291E-01;  9.9999998E-03;  7.0015796E-02;3764; -4.4362750E-03;  0.0000000E+00;  6.7504025E-06;  1.0002050E+03;  1.0000000E-01;  1.6987173E+02;3;  2.7975833E-01;  0.0000000E+00; -2.3691479E-02;0; -1.3549562E-02;  4.0023070E+04;  0.0000000E+00; -3.0064429E-03;  4.0000000E+04;  0.0000000E+00;  3.9987613E+04; -1.3753241E-02;  0.0000000E+00;  2.0367904E-04;  1.5186846E+03;
  2.1162078E-01;  9.9999998E-03;  8.0024511E-02;3765; -4.4437717E-03;  0.0000000E+00;  2.3907189E-06;  1.0001733E+03;  1.0000000E-01;  1.4360088E+02;3;  2.8029373E-01;  0.0000000E+00; -2.5699934E-02;0; -1.3522204E-02;  4.0019758E+04;  0.0000000E+00;  1.0191100E-02;  4.0000000E+04;  0.0000000E+00;  3.9988121E+04; -1.3704727E-02;  0.0000000E+00;  1.8252349E-04;  1.4450806E+03;
  2.1158352E-01;  9.9999998E-03;  9.0035342E-02;3766; -4.4375835E-03;  0.0000000E+00;  4.0328243E-07;  1.0001360E+03;  1.0000000E-01;  1.1268817E+02;3;  2.8041399E-01;  0.0000000E+00; -2.8211094E-02;0; -1.3472803E-02;  4.0016004E+04;  0.0000000E+00;  2.6932064E-02;  4.0000000E+04;  0.0000000E+00;  3.9989145E+04; -1.3628894E-02;  0.0000000E+00;  1.5609182E-04;  1.3329407E+03;
  2.1151958E-01;  9.9999998E-03;  1.0005261E-01;3767; -4.4137952E-03;  0.0000000E+00;  1.3838359E-06;  1.0001044E+03;  1.0000000E-01;  8.6516075E+01;3;  2.8036201E-01;  0.0000000E+00; -3.0547785E-02;0; -1.3404408E-02;  4.0012598E+04;  0.0000000E+00;  4.3898623E-02;  4.0000000E+04;  0.0000000E+00;  3.9989922E+04; -1.3522502E-02;  0.0000000E+00;  1.1809329E-04;  1.2072902E+03;
  2.1143608E-01;  9.9999998E-03;  1.1007886E-01;3768; -4.3689855E-03;  0.0000000E+00;  6.1928281E-06;  1.0000825E+03;  1.0000000E-01;  6.8343742E+01;3;  2.7943799E-01;  0.0000000E+00; -3.3694603E-02;0; -1.3320681E-02;  4.0009879E+04;  0.0000000E+00;  5.5189397E-02;  4.0000000E+04;  0.0000000E+00;  3.9992152E+04; -1.3383957E-02;  0.0000000E+00;  6.3276326E-05;  1.0931567E+03;
  2.1136235E-01;  9.9999998E-03;  1.2010679E-01;3769; -4.3020528E-03;  0.0000000E+00;  1.5025716E-05;  1.0000704E+03;  1.0000000E-01;  5.8368721E+01;3;  2.7893069E-01;  0.0000000E+00; -3.6759309E-02;0; -1.3224039E-02;  4.0008395E+04;  0.0000000E+00;  5.1976088E-02;  4.0000000E+04;  0.0000000E+00;  3.9992148E+04; -1.3213469E-02;  0.0000000E+00; -1.0570186E-05;  1.0150466E+03;
  2.1132006E-01;  9.9999998E-03;  1.3012813E-01;3770; -4.2149383E-03;  0.0000000E+00;  2.6001106E-05;  1.0000717E+03;  1.0000000E-01;  5.9455109E+01;3;  2.7810064E-01;  0.0000000E+00; -3.9318245E-02;0; -1.3117375E-02;  4.0008688E+04;  0.0000000E+00;  2.3304284E-02;  4.0000000E+04;  0.0000000E+00;  3.9991961E+04; -1.3015890E-02;  0.0000000E+00; -1.0148492E-04;  9.9309155E+02;
  2.1129890E-01;  9.9999998E-03;  1.4014277E-01;3771; -4.1126572E-03;  0.0000000E+00;  3.6422705E-05;  1.0000883E+03;  1.0000000E-01;  7.3183113E+01;3;  2.7813524E-01;  0.0000000E+00; -3.9761059E-02;0; -1.3005667E-02;  4.0010820E+04;  0.0000000E+00; -4.1497145E-02;  4.0000000E+04;  0.0000000E+00;  3.9991484E+04; -1.2802166E-02;  0.0000000E+00; -2.0350174E-04;  1.0428781E+03;
  2.1128544E-01;  9.9999998E-03;  1.5014540E-01;3772; -4.0028705E-03;  0.0000000E+00;  4.4650795E-05;  1.0001231E+03;  1.0000000E-01;  1.0202180E+02;3;  2.7845103E-01;  0.0000000E+00; -3.5305522E-02;0; -1.2894607E-02;  4.0014855E+04;  0.0000000E+00; -1.4856952E-01;  4.0000000E+04;  0.0000000E+00;  3.9990613E+04; -1.2587214E-02;  0.0000000E+00; -3.0739291E-04;  1.1775226E+03;
  2.1126732E-01;  9.9999998E-03;  1.6013481E-01;3773; -3.8957940E-03;  0.0000000E+00;  4.7479512E-05;  1.0001658E+03;  1.0000000E-01;  1.3737883E+02;3;  2.7116996E-01;  0.0000000E+00;  4.5656823E-03;0; -1.2791475E-02;  4.0020418E+04;  0.0000000E+00; -2.8696513E-01;  4.0000000E+04;  0.0000000E+00;  3.9989430E+04; -1.2389823E-02;  0.0000000E+00; -4.0165259E-04;  1.3939304E+03;
  2.1123335E-01;  9.9999998E-03;  1.7011516E-01;3774; -3.8011107E-03;  0.0000000E+00;  4.1614974E-05;  1.0002181E+03;  1.0000000E-01;  1.8063687E+02;3;  2.3045669E-01;  0.0000000E+00;  1.4281102E-01;0; -1.2706982E-02;  4.0026531E+04;  0.0000000E+00; -4.0806621E-01;  4.0000000E+04;  0.0000000E+00;  3.9988148E+04; -1.2232671E-02;  0.0000000E+00; -4.7431054E-04;  1.6418004E+03;
  2.1117735E-01;  9.9999998E-03;  1.8009543E-01;3775; -3.7247967E-03;  0.0000000E+00;  2.7279126E-05;  1.0002637E+03;  1.0000000E-01;  2.1846295E+02;3;  1.0552876E-01;  0.0000000E+00;  4.5773414E-01;0; -1.2656532E-02;  4.0032520E+04;  0.0000000E+00; -4.1419154E-01;  4.0000000E+04;  0.0000000E+00;  3.9986484E+04; -1.2141115E-02;  0.0000000E+00; -5.1541760E-04;  1.8089590E+03;
  2.1109989E-01;  9.9999998E-03;  1.9008936E-01;3776; -3.6696801E-03;  0.0000000E+00;  6.6914922E-06;  1.0002985E+03;  1.0000000E-01;  2.4730165E+02;3; -1.7042588E-01;  0.0000000E+00;  1.0348514E+00;0; -1.2662072E-02;  4.0037059E+04;  0.0000000E+00; -1.6719288E-01;  4.0000000E+04;  0.0000000E+00;  3.9985645E+04; -1.2142597E-02;  0.0000000E+00; -5.1947468E-04;  1.8043638E+03;
  2.1099703E-01;  9.9999998E-03;  2.0011562E-01;3777; -3.6365392E-03;  0.0000000E+00; -1.7744975E-05;  1.0003082E+03;  1.0000000E-01;  2.5530142E+02;3; -6.6299766E-01;  0.0000000E+00;  1.9491774E+00;0; -1.2754546E-02;  4.0038801E+04;  0.0000000E+00;  4.8320094E-01;  4.0000000E+04;  0.0000000E+00;  3.9985746E+04; -1.2267618E-02;  0.0000000E+00; -4.8692781E-04;  1.9256449E+03;
  2.1089792E-01;  9.9999998E-03;  2.1016179E-01;3778; -3.6244902E-03;  0.0000000E+00; -4.4346882E-05;  1.0002594E+03;  1.0000000E-01;  2.1490750E+02;3; -1.4001429E+00;  0.0000000E+00;  3.2081594E+00;0; -1.2973711E-02;  4.0036613E+04;  0.0000000E+00;  1.6673238E+00;  4.0000000E+04;  0.0000000E+00;  3.9985828E+04; -1.2548614E-02;  0.0000000E+00; -4.2509651E-04;  3.0460847E+03;
  2.1079849E-01;  9.9999998E-03;  2.2022499E-01;3779; -3.6285447E-03;  0.0000000E+00; -8.3950981E-05;  1.0001250E+03;  1.0000000E-01;  1.0360201E+02;3; -2.3586314E+00;  0.0000000E+00;  4.5766182E+00;0; -1.3384722E-02;  4.0029734E+04;  0.0000000E+00;  3.4850669E+00;  4.0000000E+04;  0.0000000E+00;  3.9983492E+04; -1.3024591E-02;  0.0000000E+00; -3.6013086E-04;  5.5568726E+03;
  2.1071257E-01;  9.9999998E-03;  2.3027802E-01;3780; -3.6340780E-03;  0.0000000E+00; -1.6373636E-04;  9.9988287E+02;  1.0000000E-01; -9.7034294E+01;3; -3.4220200E+00;  0.0000000E+00;  5.4000292E+00;0; -1.4109370E-02;  4.0017293E+04;  0.0000000E+00;  6.0317764E+00;  4.0000000E+04;  0.0000000E+00;  3.9977250E+04; -1.3734831E-02;  0.0000000E+00; -3.7453941E-04;  9.3842012E+03;
  2.2160037E-01;  9.9999998E-03;  6.9996566E-02;3825; -4.5191809E-03;  0.0000000E+00;  1.8284516E-05;  1.0001099E+03;  1.0000000E-01;  9.1059151E+01;3;  2.9672730E-01;  0.0000000E+00; -2.7370423E-02;0; -1.2852307E-02;  4.0017902E+04;  0.0000000E+00;  2.6151923E-02;  4.0000000E+04;  0.0000000E+00;  3.9985883E+04; -1.3051615E-02;  0.0000000E+00;  1.9930777E-04;  1.7030900E+03;
  2.2163016E-01;  9.9999998E-03;  7.9997852E-02;3826; -4.5292946E-03;  0.0000000E+00;  1.3395103E-05;  1.0000667E+03;  1.0000000E-01;  5.5208317E+01;3;  2.9733667E-01;  0.0000000E+00; -2.9523466E-02;0; -1.2820579E-02;  4.0014199E+04;  0.0000000E+00;  4.4602767E-02;  4.0000000E+04;  0.0000000E+00;  3.9986191E+04; -1.2998687E-02;  0.0000000E+00;  1.7810822E-04;  1.6725278E+03;
  2.2164488E-01;  9.9999998E-03;  8.9998335E-02;3827; -4.5258668E-03;  0.0000000E+00;  9.9138497E-06;  1.0000155E+03;  1.0000000E-01;  1.2839143E+01;3;  2.9764548E-01;  0.0000000E+00; -3.1776380E-02;0; -1.2771606E-02;  4.0009414E+04;  0.0000000E+00;  6.7640319E-02;  4.0000000E+04;  0.0000000E+00;  3.9986484E+04; -1.2927591E-02;  0.0000000E+00;  1.5598547E-04;  1.6097371E+03;
  2.2163859E-01;  9.9999998E-03;  1.0000323E-01;3828; -4.5045707E-03;  0.0000000E+00;  8.7758899E-06;  9.9996033E+02;  1.0000000E-01; -3.2887959E+01;3;  2.9748216E-01;  0.0000000E+00; -3.4326948E-02;0; -1.2708881E-02;  4.0004570E+04;  0.0000000E+00;  9.3413129E-02;  4.0000000E+04;  0.0000000E+00;  3.9987520E+04; -1.2836161E-02;  0.0000000E+00;  1.2728022E-04;  1.5351276E+03;
  2.2160268E-01;  9.9999998E-03;  1.1001790E-01;3829; -4.4614244E-03;  0.0000000E+00;  1.1242219E-05;  9.9990088E+02;  1.0000000E-01; -8.2121132E+01;3;  2.9668900E-01;  0.0000000E+00; -3.7444964E-02;0; -1.2636837E-02;  3.9998863E+04;  0.0000000E+00;  1.1757933E-01;  4.0000000E+04;  0.0000000E+00;  3.9988355E+04; -1.2723401E-02;  0.0000000E+00;  8.6564323E-05;  1.4646025E+03;
  2.2153139E-01;  9.9999998E-03;  1.2004804E-01;3830; -4.3950672E-03;  0.0000000E+00;  1.7504566E-05;  9.9984772E+02;  1.0000000E-01; -1.2616927E+02;3;  2.9597551E-01;  0.0000000E+00; -4.0564731E-02;0; -1.2559401E-02;  3.9994379E+04;  0.0000000E+00;  1.3219512E-01;  4.0000000E+04;  0.0000000E+00;  3.9988762E+04; -1.2589576E-02;  0.0000000E+00;  3.0174764E-05;  1.4071198E+03;
  2.2142583E-01;  9.9999998E-03;  1.3009760E-01;3831; -4.3051341E-03;  0.0000000E+00;  2.9234083E-05;  9.9980994E+02;  1.0000000E-01; -1.5747702E+02;3;  2.9542163E-01;  0.0000000E+00; -4.3349620E-02;0; -1.2479451E-02;  3.9990891E+04;  0.0000000E+00;  1.2554774E-01;  4.0000000E+04;  0.0000000E+00;  3.9989129E+04; -1.2436796E-02;  0.0000000E+00; -4.2655705E-05;  1.3668163E+03;
  2.2132884E-01;  9.9999998E-03;  1.4014857E-01;3832; -4.1970364E-03;  0.0000000E+00;  4.4117522E-05;  9.9978394E+02;  1.0000000E-01; -1.7900728E+02;3;  2.9556507E-01;  0.0000000E+00; -4.3791119E-02;0; -1.2397216E-02;  3.9989277E+04;  0.0000000E+00;  8.4113583E-02;  4.0000000E+04;  0.0000000E+00;  3.9988613E+04; -1.2268581E-02;  0.0000000E+00; -1.2863382E-04;  1.3521534E+03;
  2.2126624E-01;  9.9999998E-03;  1.5017121E-01;3833; -4.0800166E-03;  0.0000000E+00;  5.9120965E-05;  9.9977850E+02;  1.0000000E-01; -1.8350098E+02;3;  2.9560059E-01;  0.0000000E+00; -4.1455854E-02;0; -1.2314634E-02;  3.9989348E+04;  0.0000000E+00; -3.3303185E-03;  4.0000000E+04;  0.0000000E+00;  3.9988641E+04; -1.2094000E-02;  0.0000000E+00; -2.2063397E-04;  1.3791566E+03;
  2.2123788E-01;  9.9999998E-03;  1.6016507E-01;3834; -3.9651375E-03;  0.0000000E+00;  6.9640919E-05;  9.9978760E+02;  1.0000000E-01; -1.7599503E+02;3;  2.8951421E-01;  0.0000000E+00; -1.3428170E-02;0; -1.2236656E-02;  3.9991000E+04;  0.0000000E+00; -1.3313819E-01;  4.0000000E+04;  0.0000000E+00;  3.9988062E+04; -1.1927771E-02;  0.0000000E+00; -3.0888474E-04;  1.4721608E+03;
  2.2121865E-01;  9.9999998E-03;  1.7013948E-01;3835; -3.8630562E-03;  0.0000000E+00;  7.0289025E-05;  9.9980414E+02;  1.0000000E-01; -1.6226701E+02;3;  2.5353816E-01;  0.0000000E+00;  9.1474973E-02;0; -1.2172891E-02;  3.9994203E+04;  0.0000000E+00; -2.6312101E-01;  4.0000000E+04;  0.0000000E+00;  3.9987051E+04; -1.1790399E-02;  0.0000000E+00; -3.8249232E-04;  1.6284823E+03;
  2.2117473E-01;  9.9999998E-03;  1.8010819E-01;3836; -3.7804544E-03;  0.0000000E+00;  5.9667254E-05;  9.9982568E+02;  1.0000000E-01; -1.4444035E+02;3;  1.4098535E-01;  0.0000000E+00;  3.4144351E-01;0; -1.2138326E-02;  3.9997770E+04;  0.0000000E+00; -2.9863518E-01;  4.0000000E+04;  0.0000000E+00;  3.9985984E+04; -1.1706654E-02;  0.0000000E+00; -4.3167145E-04;  1.7679895E+03;
  2.2109520E-01;  9.9999998E-03;  1.9008633E-01;3837; -3.7201277E-03;  0.0000000E+00;  3.9620823E-05;  9.9984412E+02;  1.0000000E-01; -1.2913216E+02;3; -1.1442421E-01;  0.0000000E+00;  8.1004739E-01;0; -1.2154160E-02;  4.0000664E+04;  0.0000000E+00; -1.0022821E-01;  4.0000000E+04;  0.0000000E+00;  3.9985516E+04; -1.1703986E-02;  0.0000000E+00; -4.5017386E-04;  1.7972770E+03;
  2.2097787E-01;  9.9999998E-03;  2.0009199E-01;3838; -3.6829857E-03;  0.0000000E+00;  1.1247892E-05;  9.9985339E+02;  1.0000000E-01; -1.2147804E+02;3; -5.8314699E-01;  0.0000000E+00;  1.5622216E+00;0; -1.2251796E-02;  4.0002758E+04;  0.0000000E+00;  4.9022612E-01;  4.0000000E+04;  0.0000000E+00;  3.9984949E+04; -1.1813642E-02;  0.0000000E+00; -4.3815447E-04;  1.9496760E+03;
  2.2086532E-01;  9.9999998E-03;  2.1012083E-01;3839; -3.6673155E-03;  0.0000000E+00; -2.4166400E-05;  9.9982758E+02;  1.0000000E-01; -1.4286015E+02;3; -1.3104393E+00;  0.0000000E+00;  2.6058722E+00;0; -1.2474155E-02;  4.0002227E+04;  0.0000000E+00;  1.6161863E+00;  4.0000000E+04;  0.0000000E+00;  3.9985039E+04; -1.2069623E-02;  0.0000000E+00; -4.0453189E-04;  3.0204639E+03;
  2.2077948E-01;  9.9999998E-03;  2.2015822E-01;3840; -3.6681537E-03;  0.0000000E+00; -7.2634168E-05;  9.9974426E+02;  1.0000000E-01; -2.1189525E+02;3; -2.2886240E+00;  0.0000000E+00;  3.7929597E+00;0; -1.2889137E-02;  3.9998871E+04;  0.0000000E+00;  3.3823750E+00;  4.0000000E+04;  0.0000000E+00;  3.9983562E+04; -1.2511258E-02;  0.0000000E+00; -3.7787968E-04;  5.4016309E+03;
  2.2070836E-01;  9.9999998E-03;  2.3019369E-01;3841; -3.6722412E-03;  0.0000000E+00; -1.6028188E-04;  9.9958423E+02;  1.0000000E-01; -3.4443469E+02;3; -3.4346981E+00;  0.0000000E+00;  4.6407361E+00;0; -1.3634373E-02;  3.9991656E+04;  0.0000000E+00;  5.8871689E+00;  4.0000000E+04;  0.0000000E+00;  3.9979652E+04; -1.3182051E-02;  0.0000000E+00; -4.5232204E-04;  9.0975635E+03;
  2.3148827E-01;  9.9999998E-03;  7.0004515E-02;3886; -4.5880396E-03;  0.0000000E+00;  2.9102304E-05;  1.0000016E+03;  1.0000000E-01;  1.3826770E+00;3;  3.1422034E-01;  0.0000000E+00; -3.1490698E-02;0; -1.2232631E-02;  4.0010492E+04;  0.0000000E+00;  5.3780388E-02;  4.0000000E+04;  0.0000000E+00;  3.9986203E+04; -1.2434358E-02;  0.0000000E+00;  2.0172670E-04;  1.7225990E+03;
  2.3154031E-01;  9.9999998E-03;  8.0002211E-02;3887; -4.5998809E-03;  0.0000000E+00;  2.3988076E-05;  9.9996429E+02;  1.0000000E-01; -2.9579411E+01;3;  3.1482634E-01;  0.0000000E+00; -3.3665705E-02;0; -1.2194375E-02;  4.0007402E+04;  0.0000000E+00;  7.7141784E-02;  4.0000000E+04;  0.0000000E+00;  3.9986160E+04; -1.2374972E-02;  0.0000000E+00;  1.8059785E-04;  1.7257975E+03;
  2.3158568E-01;  9.9999998E-03;  8.9996375E-02;3888; -4.5986450E-03;  0.0000000E+00;  1.9741592E-05;  9.9991351E+02;  1.0000000E-01; -7.1652298E+01;3;  3.1517252E-01;  0.0000000E+00; -3.5794798E-02;0; -1.2143870E-02;  4.0003035E+04;  0.0000000E+00;  1.0601064E-01;  4.0000000E+04;  0.0000000E+00;  3.9986066E+04; -1.2306506E-02;  0.0000000E+00;  1.6263583E-04;  1.7004469E+03;
  2.3162222E-01;  9.9999998E-03;  9.9991679E-02;3889; -4.5798938E-03;  0.0000000E+00;  1.7221266E-05;  9.9984601E+02;  1.0000000E-01; -1.2760133E+02;3;  3.1517750E-01;  0.0000000E+00; -3.8355142E-02;0; -1.2084685E-02;  3.9997535E+04;  0.0000000E+00;  1.4023197E-01;  4.0000000E+04;  0.0000000E+00;  3.9986246E+04; -1.2227547E-02;  0.0000000E+00;  1.4286165E-04;  1.6641398E+03;
  2.3164119E-01;  9.9999998E-03;  1.0999438E-01;3890; -4.5399228E-03;  0.0000000E+00;  1.7148646E-05;  9.9976947E+02;  1.0000000E-01; -1.9100694E+02;3;  3.1489304E-01;  0.0000000E+00; -4.0961269E-02;0; -1.2021167E-02;  3.9990926E+04;  0.0000000E+00;  1.7763707E-01;  4.0000000E+04;  0.0000000E+00;  3.9986613E+04; -1.2137047E-02;  0.0000000E+00;  1.1587993E-04;  1.6281957E+03;
  2.3163110E-01;  9.9999998E-03;  1.2001038E-01;3891; -4.4760597E-03;  0.0000000E+00;  2.1456042E-05;  9.9968420E+02;  1.0000000E-01; -2.6162222E+02;3;  3.1383237E-01;  0.0000000E+00; -4.4547454E-02;0; -1.1957100E-02;  3.9983633E+04;  0.0000000E+00;  2.1253613E-01;  4.0000000E+04;  0.0000000E+00;  3.9986609E+04; -1.2034295E-02;  0.0000000E+00;  7.7195546E-05;  1.5946968E+03;
  2.3158111E-01;  9.9999998E-03;  1.3004337E-01;3892; -4.3881168E-03;  0.0000000E+00;  3.1947002E-05;  9.9960522E+02;  1.0000000E-01; -3.2705249E+02;3;  3.1321618E-01;  0.0000000E+00; -4.7789034E-02;0; -1.1895362E-02;  3.9976891E+04;  0.0000000E+00;  2.3460902E-01;  4.0000000E+04;  0.0000000E+00;  3.9987094E+04; -1.1919560E-02;  0.0000000E+00;  2.4197641E-05;  1.5585713E+03;
  2.3149274E-01;  9.9999998E-03;  1.4008977E-01;3893; -4.2790216E-03;  0.0000000E+00;  4.9365368E-05;  9.9953479E+02;  1.0000000E-01; -3.8542120E+02;3;  3.1314158E-01;  0.0000000E+00; -4.9087096E-02;0; -1.1837223E-02;  3.9970945E+04;  0.0000000E+00;  2.2909802E-01;  4.0000000E+04;  0.0000000E+00;  3.9987559E+04; -1.1794326E-02;  0.0000000E+00; -4.2896569E-05;  1.5139412E+03;
  2.3141122E-01;  9.9999998E-03;  1.5012984E-01;3894; -4.1581411E-03;  0.0000000E+00;  6.9587331E-05;  9.9948413E+02;  1.0000000E-01; -4.2739532E+02;3;  3.1318644E-01;  0.0000000E+00; -4.8461102E-02;0; -1.1781688E-02;  3.9966633E+04;  0.0000000E+00;  1.7999661E-01;  4.0000000E+04;  0.0000000E+00;  3.9987863E+04; -1.1661725E-02;  0.0000000E+00; -1.1996248E-04;  1.4673046E+03;
  2.3135942E-01;  9.9999998E-03;  1.6013846E-01;3895; -4.0377588E-03;  0.0000000E+00;  8.6178377E-05;  9.9944897E+02;  1.0000000E-01; -4.5653030E+02;3;  3.0925539E-01;  0.0000000E+00; -3.1117339E-02;0; -1.1730107E-02;  3.9964387E+04;  0.0000000E+00;  8.2052015E-02;  4.0000000E+04;  0.0000000E+00;  3.9987816E+04; -1.1530969E-02;  0.0000000E+00; -1.9913810E-04;  1.4487091E+03;
  2.3133476E-01;  9.9999998E-03;  1.7011754E-01;3896; -3.9295377E-03;  0.0000000E+00;  9.2124385E-05;  9.9942847E+02;  1.0000000E-01; -4.7351749E+02;3;  2.8101531E-01;  0.0000000E+00;  4.2160012E-02;0; -1.1688128E-02;  3.9963828E+04;  0.0000000E+00; -3.5422146E-02;  4.0000000E+04;  0.0000000E+00;  3.9987734E+04; -1.1417849E-02;  0.0000000E+00; -2.7027912E-04;  1.4909408E+03;
  2.3128875E-01;  9.9999998E-03;  1.8008249E-01;3897; -3.8408800E-03;  0.0000000E+00;  8.4685576E-05;  9.9941815E+02;  1.0000000E-01; -4.8206046E+02;3;  1.8849073E-01;  0.0000000E+00;  2.3047958E-01;0; -1.1668440E-02;  3.9964117E+04;  0.0000000E+00; -9.0963088E-02;  4.0000000E+04;  0.0000000E+00;  3.9987277E+04; -1.1344594E-02;  0.0000000E+00; -3.2384574E-04;  1.5639185E+03;
  2.3121642E-01;  9.9999998E-03;  1.9004808E-01;3898; -3.7744483E-03;  0.0000000E+00;  6.5915134E-05;  9.9941876E+02;  1.0000000E-01; -4.8156662E+02;3; -2.9431729E-02;  0.0000000E+00;  5.9875757E-01;0; -1.1689607E-02;  3.9965152E+04;  0.0000000E+00;  4.3650780E-02;  4.0000000E+04;  0.0000000E+00;  3.9986594E+04; -1.1336655E-02;  0.0000000E+00; -3.5295149E-04;  1.5817540E+03;
  2.3111384E-01;  9.9999998E-03;  2.0002900E-01;3899; -3.7316657E-03;  0.0000000E+00;  3.6717069E-05;  9.9942450E+02;  1.0000000E-01; -4.7677664E+02;3; -4.3921718E-01;  0.0000000E+00;  1.2135557E+00;0; -1.1781922E-02;  3.9965742E+04;  0.0000000E+00;  5.1737118E-01;  4.0000000E+04;  0.0000000E+00;  3.9987355E+04; -1.1424447E-02;  0.0000000E+00; -3.5747440E-04;  1.6785925E+03;
  2.3097721E-01;  9.9999998E-03;  2.1004075E-01;3900; -3.7105510E-03;  0.0000000E+00;  1.0214205E-07;  9.9942249E+02;  1.0000000E-01; -4.7845560E+02;3; -1.0946373E+00;  0.0000000E+00;  2.1103556E+00;0; -1.1990065E-02;  3.9966238E+04;  0.0000000E+00;  1.4768006E+00;  4.0000000E+04;  0.0000000E+00;  3.9988348E+04; -1.1644059E-02;  0.0000000E+00; -3.4600627E-04;  2.5877434E+03;
  2.3083583E-01;  9.9999998E-03;  2.2007234E-01;3901; -3.7064413E-03;  0.0000000E+00; -4.9226961E-05;  9.9939648E+02;  1.0000000E-01; -4.9998587E+02;3; -2.0142870E+00;  0.0000000E+00;  3.2055106E+00;0; -1.2383402E-02;  3.9966070E+04;  0.0000000E+00;  3.0692987E+00;  4.0000000E+04;  0.0000000E+00;  3.9988145E+04; -1.2035786E-02;  0.0000000E+00; -3.4761630E-04;  4.7615552E+03;
  2.3075813E-01;  9.9999998E-03;  2.3009792E-01;3902; -3.7076604E-03;  0.0000000E+00; -1.1654073E-04;  9.9932587E+02;  1.0000000E-01; -5.5850275E+02;3; -3.1250288E+00;  0.0000000E+00;  4.2456098E+00;0; -1.3063960E-02;  3.9963535E+04;  0.0000000E+00;  5.3544292E+00;  4.0000000E+04;  0.0000000E+00;  3.9987348E+04; -1.2639060E-02;  0.0000000E+00; -4.2490024E-04;  8.0972881E+03;
  2.4138948E-01;  9.9999998E-03;  7.0013568E-02;3947; -4.6557849E-03;  0.0000000E+00;  3.7123918E-05;  9.9988770E+02;  1.0000000E-01; -9.3034409E+01;3;  3.3243501E-01;  0.0000000E+00; -3.5760343E-02;0; -1.1727041E-02;  4.0002000E+04;  0.0000000E+00;  7.1154021E-02;  4.0000000E+04;  0.0000000E+00;  3.9987172E+04; -1.1936287E-02;  0.0000000E+00;  2.0924710E-04;  1.6106407E+03;
  2.4142992E-01;  9.9999998E-03;  8.0011286E-02;3948; -4.6681687E-03;  0.0000000E+00;  3.2091652E-05;  9.9987354E+02;  1.0000000E-01; -1.0478716E+02;3;  3.3288959E-01;  0.0000000E+00; -3.8105827E-02;0; -1.1680510E-02;  4.0000832E+04;  0.0000000E+00;  9.7270884E-02;  4.0000000E+04;  0.0000000E+00;  3.9986613E+04; -1.1868725E-02;  0.0000000E+00;  1.8821510E-04;  1.6391404E+03;
  2.4148667E-01;  9.9999998E-03;  9.0003669E-02;3949; -4.6685431E-03;  0.0000000E+00;  2.7391960E-05;  9.9983966E+02;  1.0000000E-01; -1.3283575E+02;3;  3.3329606E-01;  0.0000000E+00; -4.0281687E-02;0; -1.1626163E-02;  3.9997855E+04;  0.0000000E+00;  1.2965435E-01;  4.0000000E+04;  0.0000000E+00;  3.9986645E+04; -1.1800180E-02;  0.0000000E+00;  1.7401656E-04;  1.6402794E+03;
  2.4154431E-01;  9.9999998E-03;  9.9995062E-02;3950; -4.6524084E-03;  0.0000000E+00;  2.3833622E-05;  9.9978754E+02;  1.0000000E-01; -1.7604440E+02;3;  3.3342507E-01;  0.0000000E+00; -4.2657260E-02;0; -1.1568566E-02;  3.9993430E+04;  0.0000000E+00;  1.6974680E-01;  4.0000000E+04;  0.0000000E+00;  3.9987133E+04; -1.1730926E-02;  0.0000000E+00;  1.6236005E-04;  1.6286128E+03;
  2.4159978E-01;  9.9999998E-03;  1.0999001E-01;3951; -4.6160561E-03;  0.0000000E+00;  2.2058872E-05;  9.9971173E+02;  1.0000000E-01; -2.3880806E+02;3;  3.3325294E-01;  0.0000000E+00; -4.5333277E-02;0; -1.1511681E-02;  3.9987262E+04;  0.0000000E+00;  2.1775365E-01;  4.0000000E+04;  0.0000000E+00;  3.9987160E+04; -1.1659703E-02;  0.0000000E+00;  1.4802220E-04;  1.6135588E+03;
  2.4165288E-01;  9.9999998E-03;  1.1999189E-01;3952; -4.5569087E-03;  0.0000000E+00;  2.3502365E-05;  9.9961798E+02;  1.0000000E-01; -3.1648486E+02;3;  3.3274209E-01;  0.0000000E+00; -4.8489016E-02;0; -1.1458492E-02;  3.9979359E+04;  0.0000000E+00;  2.7095282E-01;  4.0000000E+04;  0.0000000E+00;  3.9987129E+04; -1.1584534E-02;  0.0000000E+00;  1.2604237E-04;  1.5960544E+03;
  2.4170093E-01;  9.9999998E-03;  1.3000444E-01;3953; -4.4737430E-03;  0.0000000E+00;  3.1551044E-05;  9.9951556E+02;  1.0000000E-01; -4.0132199E+02;3;  3.3210438E-01;  0.0000000E+00; -5.2261386E-02;0; -1.1410843E-02;  3.9970547E+04;  0.0000000E+00;  3.2198712E-01;  4.0000000E+04;  0.0000000E+00;  3.9987410E+04; -1.1503515E-02;  0.0000000E+00;  9.2672213E-05;  1.5695850E+03;
  2.4170566E-01;  9.9999998E-03;  1.4002207E-01;3954; -4.3682898E-03;  0.0000000E+00;  4.8794780E-05;  9.9941290E+02;  1.0000000E-01; -4.8640601E+02;3;  3.3163351E-01;  0.0000000E+00; -5.5177189E-02;0; -1.1370858E-02;  3.9961621E+04;  0.0000000E+00;  3.5779384E-01;  4.0000000E+04;  0.0000000E+00;  3.9988043E+04; -1.1416784E-02;  0.0000000E+00;  4.5924920E-05;  1.5251300E+03;
  2.4166299E-01;  9.9999998E-03;  1.5004843E-01;3955; -4.2481818E-03;  0.0000000E+00;  7.1242226E-05;  9.9931854E+02;  1.0000000E-01; -5.6457660E+02;3;  3.3181590E-01;  0.0000000E+00; -5.5698238E-02;0; -1.1338036E-02;  3.9953621E+04;  0.0000000E+00;  3.6039591E-01;  4.0000000E+04;  0.0000000E+00;  3.9988477E+04; -1.1324648E-02;  0.0000000E+00; -1.3387638E-05;  1.4576123E+03;
  2.4158473E-01;  9.9999998E-03;  1.6007257E-01;3956; -4.1250158E-03;  0.0000000E+00;  9.2038921E-05;  9.9924066E+02;  1.0000000E-01; -6.2911798E+02;3;  3.2993552E-01;  0.0000000E+00; -4.6995766E-02;0; -1.1311391E-02;  3.9946828E+04;  0.0000000E+00;  3.1468660E-01;  4.0000000E+04;  0.0000000E+00;  3.9989137E+04; -1.1230900E-02;  0.0000000E+00; -8.0491445E-05;  1.3778210E+03;
  2.4148604E-01;  9.9999998E-03;  1.7007291E-01;3957; -4.0117702E-03;  0.0000000E+00;  1.0260915E-04;  9.9917468E+02;  1.0000000E-01; -6.8378314E+02;3;  3.1019944E-01;  0.0000000E+00; -8.1831362E-04;0; -1.1292239E-02;  3.9942066E+04;  0.0000000E+00;  2.3222734E-01;  4.0000000E+04;  0.0000000E+00;  3.9989305E+04; -1.1145703E-02;  0.0000000E+00; -1.4653629E-04;  1.3223232E+03;
  2.4138521E-01;  9.9999998E-03;  1.8005054E-01;3958; -3.9170976E-03;  0.0000000E+00;  9.9160701E-05;  9.9912933E+02;  1.0000000E-01; -7.2131293E+02;3;  2.4020155E-01;  0.0000000E+00;  1.3265052E-01;0; -1.1287075E-02;  3.9939012E+04;  0.0000000E+00;  1.7297380E-01;  4.0000000E+04;  0.0000000E+00;  3.9989879E+04; -1.1085739E-02;  0.0000000E+00; -2.0133599E-04;  1.3143180E+03;
  2.4128945E-01;  9.9999998E-03;  1.9001646E-01;3959; -3.8445715E-03;  0.0000000E+00;  8.2499748E-05;  9.9909650E+02;  1.0000000E-01; -7.4852203E+02;3;  6.6955633E-02;  0.0000000E+00;  4.1017884E-01;0; -1.1311307E-02;  3.9937156E+04;  0.0000000E+00;  2.4445958E-01;  4.0000000E+04;  0.0000000E+00;  3.9989254E+04; -1.1073775E-02;  0.0000000E+00; -2.3753158E-04;  1.3151057E+03;
  2.4119300E-01;  9.9999998E-03;  1.9998424E-01;3960; -3.7951393E-03;  0.0000000E+00;  5.4959710E-05;  9.9909491E+02;  1.0000000E-01; -7.4985535E+02;3; -2.7062750E-01;  0.0000000E+00;  8.9594465E-01;0; -1.1392823E-02;  3.9936352E+04;  0.0000000E+00;  5.7893145E-01;  4.0000000E+04;  0.0000000E+00;  3.9990949E+04; -1.1138305E-02;  0.0000000E+00; -2.5451818E-04;  1.3901359E+03;
  2.4109171E-01;  9.9999998E-03;  2.0996724E-01;3961; -3.7677181E-03;  0.0000000E+00;  2.4160297E-05;  9.9910999E+02;  1.0000000E-01; -7.3736188E+02;3; -8.2040989E-01;  0.0000000E+00;  1.6556592E+00;0; -1.1570292E-02;  3.9936078E+04;  0.0000000E+00;  1.3027384E+00;  4.0000000E+04;  0.0000000E+00;  3.9993797E+04; -1.1313231E-02;  0.0000000E+00; -2.5706060E-04;  2.0653552E+03;
  2.4096626E-01;  9.9999998E-03;  2.1998340E-01;3962; -3.7580677E-03;  0.0000000E+00; -6.0563548E-06;  9.9913190E+02;  1.0000000E-01; -7.1918951E+02;3; -1.6111872E+00;  0.0000000E+00;  2.6925468E+00;0; -1.1894901E-02;  3.9936777E+04;  0.0000000E+00;  2.5448380E+00;  4.0000000E+04;  0.0000000E+00;  3.9996586E+04; -1.1638990E-02;  0.0000000E+00; -2.5591199E-04;  3.8052246E+03;
  2.4086851E-01;  9.9999998E-03;  2.3001842E-01;3963; -3.7549906E-03;  0.0000000E+00; -5.1304232E-05;  9.9911658E+02;  1.0000000E-01; -7.3188055E+02;3; -2.6483190E+00;  0.0000000E+00;  3.7835066E+00;0; -1.2462073E-02;  3.9937449E+04;  0.0000000E+00;  4.3955102E+00;  4.0000000E+04;  0.0000000E+00;  3.9996539E+04; -1.2155926E-02;  0.0000000E+00; -3.0614738E-04;  6.5547393E+03;
  2.5138697E-01;  9.9999998E-03;  7.0008732E-02;4008; -4.7321557E-03;  0.0000000E+00;  4.1519015E-05;  9.9979578E+02;  1.0000000E-01; -1.6918040E+02;3;  3.5156226E-01;  0.0000000E+00; -4.0385745E-02;0; -1.1348241E-02;  3.9994176E+04;  0.0000000E+00;  7.2806582E-02;  4.0000000E+04;  0.0000000E+00;  3.9988668E+04; -1.1568874E-02;  0.0000000E+00;  2.2063320E-04;  1.4062581E+03;
  2.5142190E-01;  9.9999998E-03;  8.0008455E-02;4009; -4.7438270E-03;  0.0000000E+00;  3.6656977E-05;  9.9981219E+02;  1.0000000E-01; -1.5560054E+02;3;  3.5191306E-01;  0.0000000E+00; -4.2962540E-02;0; -1.1289467E-02;  3.9995852E+04;  0.0000000E+00;  9.8114304E-02;  4.0000000E+04;  0.0000000E+00;  3.9988215E+04; -1.1489144E-02;  0.0000000E+00;  1.9967632E-04;  1.4546182E+03;
  2.5146559E-01;  9.9999998E-03;  9.0002656E-02;4010; -4.7448375E-03;  0.0000000E+00;  3.1671272E-05;  9.9981049E+02;  1.0000000E-01; -1.5703259E+02;3;  3.5222685E-01;  0.0000000E+00; -4.5417748E-02;0; -1.1228599E-02;  3.9995715E+04;  0.0000000E+00;  1.3018478E-01;  4.0000000E+04;  0.0000000E+00;  3.9988184E+04; -1.1417191E-02;  0.0000000E+00;  1.8859221E-04;  1.4755287E+03;
  2.5152218E-01;  9.9999998E-03;  9.9993616E-02;4011; -4.7309613E-03;  0.0000000E+00;  2.7302051E-05;  9.9979114E+02;  1.0000000E-01; -1.7303215E+02;3;  3.5240769E-01;  0.0000000E+00; -4.7644235E-02;0; -1.1169793E-02;  3.9993863E+04;  0.0000000E+00;  1.7184526E-01;  4.0000000E+04;  0.0000000E+00;  3.9988547E+04; -1.1353635E-02;  0.0000000E+00;  1.8384174E-04;  1.4796647E+03;
  2.5159726E-01;  9.9999998E-03;  1.0998496E-01;4012; -4.6985303E-03;  0.0000000E+00;  2.4208372E-05;  9.9973920E+02;  1.0000000E-01; -2.1609265E+02;3;  3.5239312E-01;  0.0000000E+00; -5.0410766E-02;0; -1.1116753E-02;  3.9989078E+04;  0.0000000E+00;  2.2544087E-01;  4.0000000E+04;  0.0000000E+00;  3.9988668E+04; -1.1297266E-02;  0.0000000E+00;  1.8051271E-04;  1.4750540E+03;
  2.5168481E-01;  9.9999998E-03;  1.1997918E-01;4013; -4.6449145E-03;  0.0000000E+00;  2.3293696E-05;  9.9966046E+02;  1.0000000E-01; -2.8132538E+02;3;  3.5205182E-01;  0.0000000E+00; -5.3442519E-02;0; -1.1072370E-02;  3.9982621E+04;  0.0000000E+00;  2.9122558E-01;  4.0000000E+04;  0.0000000E+00;  3.9988750E+04; -1.1245733E-02;  0.0000000E+00;  1.7336266E-04;  1.4645134E+03;
  2.5177169E-01;  9.9999998E-03;  1.2997782E-01;4014; -4.5688311E-03;  0.0000000E+00;  2.6986743E-05;  9.9955969E+02;  1.0000000E-01; -3.6477982E+02;3;  3.5143128E-01;  0.0000000E+00; -5.7390183E-02;0; -1.1038251E-02;  3.9973805E+04;  0.0000000E+00;  3.6549360E-01;  4.0000000E+04;  0.0000000E+00;  3.9989211E+04; -1.1195947E-02;  0.0000000E+00;  1.5769622E-04;  1.4463284E+03;
  2.5183409E-01;  9.9999998E-03;  1.3998215E-01;4015; -4.4703488E-03;  0.0000000E+00;  4.0092698E-05;  9.9944409E+02;  1.0000000E-01; -4.6057956E+02;3;  3.5110965E-01;  0.0000000E+00; -6.1512668E-02;0; -1.1014709E-02;  3.9963609E+04;  0.0000000E+00;  4.3861490E-01;  4.0000000E+04;  0.0000000E+00;  3.9989738E+04; -1.1144801E-02;  0.0000000E+00;  1.3009185E-04;  1.4163898E+03;
  2.5184330E-01;  9.9999998E-03;  1.4999419E-01;4016; -4.3545915E-03;  0.0000000E+00;  6.2346924E-05;  9.9932410E+02;  1.0000000E-01; -5.5998419E+02;3;  3.5098508E-01;  0.0000000E+00; -6.3788429E-02;0; -1.1000666E-02;  3.9952961E+04;  0.0000000E+00;  4.9415958E-01;  4.0000000E+04;  0.0000000E+00;  3.9990406E+04; -1.1089767E-02;  0.0000000E+00;  8.9101595E-05;  1.3692795E+03;
  2.5176841E-01;  9.9999998E-03;  1.6000961E-01;4017; -4.2324457E-03;  0.0000000E+00;  8.5542611E-05;  9.9919946E+02;  1.0000000E-01; -6.6324048E+02;3;  3.5019195E-01;  0.0000000E+00; -6.1224014E-02;0; -1.0994243E-02;  3.9942594E+04;  0.0000000E+00;  5.1163632E-01;  4.0000000E+04;  0.0000000E+00;  3.9991496E+04; -1.1030662E-02;  0.0000000E+00;  3.6419726E-05;  1.2985286E+03;
  2.5163400E-01;  9.9999998E-03;  1.7001896E-01;4018; -4.1163550E-03;  0.0000000E+00;  1.0118102E-04;  9.9909076E+02;  1.0000000E-01; -7.5331201E+02;3;  3.3792433E-01;  0.0000000E+00; -3.6585856E-02;0; -1.0993120E-02;  3.9933410E+04;  0.0000000E+00;  4.8351339E-01;  4.0000000E+04;  0.0000000E+00;  3.9991680E+04; -1.0971867E-02;  0.0000000E+00; -2.1252530E-05;  1.2125043E+03;
  2.5148696E-01;  9.9999998E-03;  1.8001227E-01;4019; -4.0165251E-03;  0.0000000E+00;  1.0312014E-04;  9.9899689E+02;  1.0000000E-01; -8.3103821E+02;3;  2.9007357E-01;  0.0000000E+00;  5.0401375E-02;0; -1.0999243E-02;  3.9925914E+04;  0.0000000E+00;  4.4178641E-01;  4.0000000E+04;  0.0000000E+00;  3.9992090E+04; -1.0925136E-02;  0.0000000E+00; -7.4107513E-05;  1.1436110E+03;
  2.5135002E-01;  9.9999998E-03;  1.8998921E-01;4020; -3.9377753E-03;  0.0000000E+00;  9.1062444E-05;  9.9892834E+02;  1.0000000E-01; -8.8782672E+02;3;  1.6255629E-01;  0.0000000E+00;  2.4855655E-01;0; -1.1024153E-02;  3.9920535E+04;  0.0000000E+00;  4.6513289E-01;  4.0000000E+04;  0.0000000E+00;  3.9992129E+04; -1.0909850E-02;  0.0000000E+00; -1.1430299E-04;  1.1169318E+03;
  2.5122985E-01;  9.9999998E-03;  1.9995725E-01;4021; -3.8816163E-03;  0.0000000E+00;  6.6790315E-05;  9.9889581E+02;  1.0000000E-01; -9.1478894E+02;3; -9.9261351E-02;  0.0000000E+00;  6.1374050E-01;0; -1.1092460E-02;  3.9917398E+04;  0.0000000E+00;  6.6335404E-01;  4.0000000E+04;  0.0000000E+00;  3.9993809E+04; -1.0951642E-02;  0.0000000E+00; -1.4081830E-04;  1.1919763E+03;
  2.5112769E-01;  9.9999998E-03;  2.0993030E-01;4022; -3.8467939E-03;  0.0000000E+00;  4.1892126E-05;  9.9891241E+02;  1.0000000E-01; -9.0106091E+02;3; -5.4311162E-01;  0.0000000E+00;  1.2154520E+00;0; -1.1236629E-02;  3.9916148E+04;  0.0000000E+00;  1.1496135E+00;  4.0000000E+04;  0.0000000E+00;  3.9997395E+04; -1.1081593E-02;  0.0000000E+00; -1.5503610E-04;  1.7247693E+03;
  2.5104597E-01;  9.9999998E-03;  2.1992631E-01;4023; -3.8294750E-03;  0.0000000E+00;  3.7020032E-05;  9.9897168E+02;  1.0000000E-01; -8.5192651E+02;3; -1.1936929E+00;  0.0000000E+00;  2.1185584E+00;0; -1.1471657E-02;  3.9916777E+04;  0.0000000E+00;  2.0109084E+00;  4.0000000E+04;  0.0000000E+00;  4.0003383E+04; -1.1335617E-02;  0.0000000E+00; -1.3603983E-04;  3.0519497E+03;
  2.5095233E-01;  9.9999998E-03;  2.2996356E-01;4024; -3.8204382E-03;  0.0000000E+00;  2.1329393E-05;  9.9899951E+02;  1.0000000E-01; -8.2886542E+02;3; -2.1118944E+00;  0.0000000E+00;  3.1582599E+00;0; -1.1879656E-02;  3.9919684E+04;  0.0000000E+00;  3.3584797E+00;  4.0000000E+04;  0.0000000E+00;  4.0004898E+04; -1.1754243E-02;  0.0000000E+00; -1.2541394E-04;  5.0722339E+03;
  2.6140851E-01;  9.9999998E-03;  7.0002578E-02;4069; -4.8220758E-03;  0.0000000E+00;  4.2480497E-05;  9.9974695E+02;  1.0000000E-01; -2.0967308E+02;3;  3.7169504E-01;  0.0000000E+00; -4.5090906E-02;0; -1.1090115E-02;  3.9989219E+04;  0.0000000E+00;  5.8272783E-02;  4.0000000E+04;  0.0000000E+00;  3.9990613E+04; -1.1324900E-02;  0.0000000E+00;  2.3478591E-04;  1.1506635E+03;
  2.6141736E-01;  9.9999998E-03;  8.0003247E-02;4070; -4.8312708E-03;  0.0000000E+00;  3.7740287E-05;  9.9979932E+02;  1.0000000E-01; -1.6626691E+02;3;  3.7185335E-01;  0.0000000E+00; -4.7878575E-02;0; -1.1017101E-02;  3.9993781E+04;  0.0000000E+00;  7.8562625E-02;  4.0000000E+04;  0.0000000E+00;  3.9990277E+04; -1.1230919E-02;  0.0000000E+00;  2.1381809E-04;  1.2163608E+03;
  2.6144817E-01;  9.9999998E-03;  8.9998230E-02;4071; -4.8316638E-03;  0.0000000E+00;  3.2569453E-05;  9.9983575E+02;  1.0000000E-01; -1.3609491E+02;3;  3.7200394E-01;  0.0000000E+00; -5.0668288E-02;0; -1.0946358E-02;  3.9997004E+04;  0.0000000E+00;  1.0571446E-01;  4.0000000E+04;  0.0000000E+00;  3.9989969E+04; -1.1151332E-02;  0.0000000E+00;  2.0497433E-04;  1.2548755E+03;
  2.6150674E-01;  9.9999998E-03;  9.9990413E-02;4072; -4.8192679E-03;  0.0000000E+00;  2.7599253E-05;  9.9984827E+02;  1.0000000E-01; -1.2572484E+02;3;  3.7223706E-01;  0.0000000E+00; -5.3190060E-02;0; -1.0882539E-02;  3.9998277E+04;  0.0000000E+00;  1.4365096E-01;  4.0000000E+04;  0.0000000E+00;  3.9990035E+04; -1.1088037E-02;  0.0000000E+00;  2.0549864E-04;  1.2715190E+03;
  2.6158649E-01;  9.9999998E-03;  1.0998136E-01;4073; -4.7903550E-03;  0.0000000E+00;  2.3507584E-05;  9.9984131E+02;  1.0000000E-01; -1.3145308E+02;3;  3.7225455E-01;  0.0000000E+00; -5.6303155E-02;0; -1.0829695E-02;  3.9997180E+04;  0.0000000E+00;  1.9645123E-01;  4.0000000E+04;  0.0000000E+00;  3.9990348E+04; -1.1040590E-02;  0.0000000E+00;  2.1089506E-04;  1.2722473E+03;
  2.6168466E-01;  9.9999998E-03;  1.1997319E-01;4074; -4.7422890E-03;  0.0000000E+00;  2.0936017E-05;  9.9979834E+02;  1.0000000E-01; -1.6705701E+02;3;  3.7212440E-01;  0.0000000E+00; -5.9406891E-02;0; -1.0790338E-02;  3.9992961E+04;  0.0000000E+00;  2.6695609E-01;  4.0000000E+04;  0.0000000E+00;  3.9990480E+04; -1.1006232E-02;  0.0000000E+00;  2.1589446E-04;  1.2621171E+03;
  2.6178768E-01;  9.9999998E-03;  1.2996739E-01;4075; -4.6736118E-03;  0.0000000E+00;  2.1342254E-05;  9.9972217E+02;  1.0000000E-01; -2.3016634E+02;3;  3.7168750E-01;  0.0000000E+00; -6.3287295E-02;0; -1.0765367E-02;  3.9985938E+04;  0.0000000E+00;  3.5491598E-01;  4.0000000E+04;  0.0000000E+00;  3.9991035E+04; -1.0980608E-02;  0.0000000E+00;  2.1524067E-04;  1.2464548E+03;
  2.6187474E-01;  9.9999998E-03;  1.3996674E-01;4076; -4.5843730E-03;  0.0000000E+00;  2.8204575E-05;  9.9961206E+02;  1.0000000E-01; -3.2142300E+02;3;  3.7089908E-01;  0.0000000E+00; -6.8422079E-02;0; -1.0754098E-02;  3.9976250E+04;  0.0000000E+00;  4.5473531E-01;  4.0000000E+04;  0.0000000E+00;  3.9991387E+04; -1.0958523E-02;  0.0000000E+00;  2.0442392E-04;  1.2322002E+03;
  2.6190221E-01;  9.9999998E-03;  1.4996983E-01;4077; -4.4765803E-03;  0.0000000E+00;  4.6211884E-05;  9.9948004E+02;  1.0000000E-01; -4.3075323E+02;3;  3.7067544E-01;  0.0000000E+00; -7.2632372E-02;0; -1.0754576E-02;  3.9964340E+04;  0.0000000E+00;  5.5342972E-01;  4.0000000E+04;  0.0000000E+00;  3.9992168E+04; -1.0934881E-02;  0.0000000E+00;  1.8030520E-04;  1.2227407E+03;
  2.6185173E-01;  9.9999998E-03;  1.5997568E-01;4078; -4.3584388E-03;  0.0000000E+00;  7.0701513E-05;  9.9932965E+02;  1.0000000E-01; -5.5539172E+02;3;  3.7021187E-01;  0.0000000E+00; -7.4374095E-02;0; -1.0763017E-02;  3.9951062E+04;  0.0000000E+00;  6.3061517E-01;  4.0000000E+04;  0.0000000E+00;  3.9992988E+04; -1.0905497E-02;  0.0000000E+00;  1.4247997E-04;  1.2101724E+03;
  2.6173872E-01;  9.9999998E-03;  1.6998260E-01;4079; -4.2426484E-03;  0.0000000E+00;  9.0781818E-05;  9.9917395E+02;  1.0000000E-01; -6.8437573E+02;3;  3.6426869E-01;  0.0000000E+00; -6.3976780E-02;0; -1.0774843E-02;  3.9938102E+04;  0.0000000E+00;  6.6554981E-01;  4.0000000E+04;  0.0000000E+00;  3.9993766E+04; -1.0870103E-02;  0.0000000E+00;  9.5259194E-05;  1.1770702E+03;
  2.6159137E-01;  9.9999998E-03;  1.7998239E-01;4080; -4.1396455E-03;  0.0000000E+00;  9.9387806E-05;  9.9902863E+02;  1.0000000E-01; -8.0476733E+02;3;  3.3498585E-01;  0.0000000E+00; -1.4628372E-02;0; -1.0788854E-02;  3.9926125E+04;  0.0000000E+00;  6.6183507E-01;  4.0000000E+04;  0.0000000E+00;  3.9994590E+04; -1.0835820E-02;  0.0000000E+00;  4.6965517E-05;  1.1238219E+03;
  2.6143521E-01;  9.9999998E-03;  1.8996890E-01;4081; -4.0558265E-03;  0.0000000E+00;  9.3482908E-05;  9.9890881E+02;  1.0000000E-01; -9.0402380E+02;3;  2.4914499E-01;  0.0000000E+00;  1.1468220E-01;0; -1.0812392E-02;  3.9916457E+04;  0.0000000E+00;  6.6350055E-01;  4.0000000E+04;  0.0000000E+00;  3.9995176E+04; -1.0817713E-02;  0.0000000E+00;  5.3209824E-06;  1.0840221E+03;
  2.6128787E-01;  9.9999998E-03;  1.9994326E-01;4082; -3.9931536E-03;  0.0000000E+00;  7.4959724E-05;  9.9883691E+02;  1.0000000E-01; -9.6357770E+02;3;  6.0474969E-02;  0.0000000E+00;  3.7249640E-01;0; -1.0865674E-02;  3.9909445E+04;  0.0000000E+00;  7.4978900E-01;  4.0000000E+04;  0.0000000E+00;  3.9996852E+04; -1.0837867E-02;  0.0000000E+00; -2.7807464E-05;  1.1368295E+03;
  2.6116106E-01;  9.9999998E-03;  2.0991483E-01;4083; -3.9505763E-03;  0.0000000E+00;  5.6493642E-05;  9.9883124E+02;  1.0000000E-01; -9.6831830E+02;3; -2.7829838E-01;  0.0000000E+00;  8.1775016E-01;0; -1.0975183E-02;  3.9906348E+04;  0.0000000E+00;  1.0169419E+00;  4.0000000E+04;  0.0000000E+00;  4.0000996E+04; -1.0924052E-02;  0.0000000E+00; -5.1130410E-05;  1.5343751E+03;
  2.6106533E-01;  9.9999998E-03;  2.1990429E-01;4084; -3.9240089E-03;  0.0000000E+00;  6.6581160E-05;  9.9889044E+02;  1.0000000E-01; -9.1923328E+02;3; -7.9936332E-01;  0.0000000E+00;  1.5196126E+00;0; -1.1133184E-02;  3.9906586E+04;  0.0000000E+00;  1.5526557E+00;  4.0000000E+04;  0.0000000E+00;  4.0007652E+04; -1.1108268E-02;  0.0000000E+00; -2.4915829E-05;  2.5495352E+03;
  2.6099375E-01;  9.9999998E-03;  2.2993223E-01;4085; -3.9065531E-03;  0.0000000E+00;  8.7999237E-05;  9.9895215E+02;  1.0000000E-01; -8.6812360E+02;3; -1.5635196E+00;  0.0000000E+00;  2.4167795E+00;0; -1.1354066E-02;  3.9910078E+04;  0.0000000E+00;  2.4209254E+00;  4.0000000E+04;  0.0000000E+00;  4.0010805E+04; -1.1425721E-02;  0.0000000E+00;  7.1654627E-05;  3.9151729E+03;
  2.7145427E-01;  9.9999998E-03;  6.9992624E-02;4130; -4.9269665E-03;  0.0000000E+00;  4.0949242E-05;  9.9974847E+02;  1.0000000E-01; -2.0838918E+02;3;  3.9280996E-01;  0.0000000E+00; -4.9851421E-02;0; -1.0922963E-02;  3.9987941E+04;  0.0000000E+00;  3.2213137E-02;  4.0000000E+04;  0.0000000E+00;  3.9992930E+04; -1.1173913E-02;  0.0000000E+00;  2.5095031E-04;  8.8399884E+02;
  2.7145940E-01;  9.9999998E-03;  7.9996124E-02;4131; -4.9321353E-03;  0.0000000E+00;  3.6589990E-05;  9.9983453E+02;  1.0000000E-01; -1.3708255E+02;3;  3.9276940E-01;  0.0000000E+00; -5.3290062E-02;0; -1.0834182E-02;  3.9995352E+04;  0.0000000E+00;  4.3633081E-02;  4.0000000E+04;  0.0000000E+00;  3.9992066E+04; -1.1064088E-02;  0.0000000E+00;  2.2990631E-04;  9.6561322E+02;
  2.7147290E-01;  9.9999998E-03;  8.9995876E-02;4132; -4.9302764E-03;  0.0000000E+00;  3.1415977E-05;  9.9991187E+02;  1.0000000E-01; -7.3034973E+01;3;  3.9288500E-01;  0.0000000E+00; -5.6065049E-02;0; -1.0751701E-02;  4.0001926E+04;  0.0000000E+00;  6.1420750E-02;  4.0000000E+04;  0.0000000E+00;  3.9991703E+04; -1.0973965E-02;  0.0000000E+00;  2.2226351E-04;  1.0227475E+03;
  2.7151099E-01;  9.9999998E-03;  9.9991471E-02;4133; -4.9178964E-03;  0.0000000E+00;  2.6000784E-05;  9.9997406E+02;  1.0000000E-01; -2.1480873E+01;3;  3.9304358E-01;  0.0000000E+00; -5.9345048E-02;0; -1.0680510E-02;  4.0006785E+04;  0.0000000E+00;  9.0313256E-02;  4.0000000E+04;  0.0000000E+00;  3.9991363E+04; -1.0906603E-02;  0.0000000E+00;  2.2609362E-04;  1.0536697E+03;
  2.7157322E-01;  9.9999998E-03;  1.0998470E-01;4134; -4.8914826E-03;  0.0000000E+00;  2.1091268E-05;  1.0000060E+03;  1.0000000E-01;  5.0368948E+00;3;  3.9300480E-01;  0.0000000E+00; -6.2678002E-02;0; -1.0624549E-02;  4.0009191E+04;  0.0000000E+00;  1.3568676E-01;  4.0000000E+04;  0.0000000E+00;  3.9991512E+04; -1.0862041E-02;  0.0000000E+00;  2.3749219E-04;  1.0597203E+03;
  2.7165860E-01;  9.9999998E-03;  1.1997769E-01;4135; -4.8483168E-03;  0.0000000E+00;  1.7297794E-05;  1.0000040E+03;  1.0000000E-01;  3.2591672E+00;3;  3.9307198E-01;  0.0000000E+00; -6.6190332E-02;0; -1.0585940E-02;  4.0008555E+04;  0.0000000E+00;  2.0238283E-01;  4.0000000E+04;  0.0000000E+00;  3.9991902E+04; -1.0837351E-02;  0.0000000E+00;  2.5141065E-04;  1.0458964E+03;
  2.7175406E-01;  9.9999998E-03;  1.2997176E-01;4136; -4.7864900E-03;  0.0000000E+00;  1.6024766E-05;  9.9995709E+02;  1.0000000E-01; -3.5554550E+01;3;  3.9282089E-01;  0.0000000E+00; -7.0163146E-02;0; -1.0565065E-02;  4.0004152E+04;  0.0000000E+00;  2.9301095E-01;  4.0000000E+04;  0.0000000E+00;  3.9992422E+04; -1.0827425E-02;  0.0000000E+00;  2.6236053E-04;  1.0235967E+03;
  2.7183500E-01;  9.9999998E-03;  1.3996796E-01;4137; -4.7060316E-03;  0.0000000E+00;  1.9043358E-05;  9.9987128E+02;  1.0000000E-01; -1.0666365E+02;3;  3.9221036E-01;  0.0000000E+00; -7.5280540E-02;0; -1.0560584E-02;  3.9996184E+04;  0.0000000E+00;  4.0564287E-01;  4.0000000E+04;  0.0000000E+00;  3.9993207E+04; -1.0825674E-02;  0.0000000E+00;  2.6509023E-04;  1.0125250E+03;
  2.7187368E-01;  9.9999998E-03;  1.4996567E-01;4138; -4.6082251E-03;  0.0000000E+00;  3.0642335E-05;  9.9974109E+02;  1.0000000E-01; -2.1451245E+02;3;  3.9114058E-01;  0.0000000E+00; -8.1891321E-02;0; -1.0569463E-02;  3.9984141E+04;  0.0000000E+00;  5.3130382E-01;  4.0000000E+04;  0.0000000E+00;  3.9993973E+04; -1.0824811E-02;  0.0000000E+00;  2.5534784E-04;  1.0329119E+03;
  2.7185383E-01;  9.9999998E-03;  1.5996547E-01;4139; -4.4979849E-03;  0.0000000E+00;  5.2289852E-05;  9.9957452E+02;  1.0000000E-01; -3.5248386E+02;3;  3.9080700E-01;  0.0000000E+00; -8.6183488E-02;0; -1.0587225E-02;  3.9969617E+04;  0.0000000E+00;  6.5309900E-01;  4.0000000E+04;  0.0000000E+00;  3.9994895E+04; -1.0818226E-02;  0.0000000E+00;  2.3100153E-04;  1.0868265E+03;
  2.7178133E-01;  9.9999998E-03;  1.6996852E-01;4140; -4.3852809E-03;  0.0000000E+00;  7.6314871E-05;  9.9939056E+02;  1.0000000E-01; -5.0492398E+02;3;  3.8862208E-01;  0.0000000E+00; -8.4777527E-02;0; -1.0607870E-02;  3.9953539E+04;  0.0000000E+00;  7.4606586E-01;  4.0000000E+04;  0.0000000E+00;  3.9996383E+04; -1.0802050E-02;  0.0000000E+00;  1.9417959E-04;  1.1453369E+03;
  2.7166563E-01;  9.9999998E-03;  1.7996958E-01;4141; -4.2815316E-03;  0.0000000E+00;  9.2046575E-05;  9.9920416E+02;  1.0000000E-01; -6.5933936E+02;3;  3.7328839E-01;  0.0000000E+00; -6.2731989E-02;0; -1.0627186E-02;  3.9937859E+04;  0.0000000E+00;  7.9268998E-01;  4.0000000E+04;  0.0000000E+00;  3.9997141E+04; -1.0778676E-02;  0.0000000E+00;  1.5149008E-04;  1.1736199E+03;
  2.7152357E-01;  9.9999998E-03;  1.8996164E-01;4142; -4.1939975E-03;  0.0000000E+00;  9.4155286E-05;  9.9903003E+02;  1.0000000E-01; -8.0358221E+02;3;  3.2181481E-01;  0.0000000E+00;  1.1494455E-02;0; -1.0648049E-02;  3.9923727E+04;  0.0000000E+00;  8.0338538E-01;  4.0000000E+04;  0.0000000E+00;  3.9997785E+04; -1.0758443E-02;  0.0000000E+00;  1.1039332E-04;  1.1711813E+03;
  2.7137229E-01;  9.9999998E-03;  1.9994280E-01;4143; -4.1256002E-03;  0.0000000E+00;  8.2900333E-05;  9.9890521E+02;  1.0000000E-01; -9.0698669E+02;3;  1.9787216E-01;  0.0000000E+00;  1.7751636E-01;0; -1.0685676E-02;  3.9912711E+04;  0.0000000E+00;  8.2151890E-01;  4.0000000E+04;  0.0000000E+00;  3.9999230E+04; -1.0759179E-02;  0.0000000E+00;  7.3503310E-05;  1.1996935E+03;
  2.7122891E-01;  9.9999998E-03;  2.0991749E-01;4144; -4.0753516E-03;  0.0000000E+00;  7.0445545E-05;  9.9885364E+02;  1.0000000E-01; -9.4975092E+02;3; -4.2528089E-02;  0.0000000E+00;  4.8002517E-01;0; -1.0761099E-02;  3.9906312E+04;  0.0000000E+00;  9.1525298E-01;  4.0000000E+04;  0.0000000E+00;  4.0003289E+04; -1.0804744E-02;  0.0000000E+00;  4.3644759E-05;  1.4529216E+03;
  2.7110747E-01;  9.9999998E-03;  2.1990335E-01;4145; -4.0389737E-03;  0.0000000E+00;  8.9525209E-05;  9.9888855E+02;  1.0000000E-01; -9.2081348E+02;3; -4.3623948E-01;  0.0000000E+00;  9.7731817E-01;0; -1.0851328E-02;  3.9904246E+04;  0.0000000E+00;  1.1655426E+00;  4.0000000E+04;  0.0000000E+00;  4.0009188E+04; -1.0923203E-02;  0.0000000E+00;  7.1874922E-05;  2.1769714E+03;
  2.7101618E-01;  9.9999998E-03;  2.2992267E-01;4146; -4.0111500E-03;  0.0000000E+00;  1.3425667E-04;  9.9894763E+02;  1.0000000E-01; -8.7187659E+02;3; -1.0394093E+00;  0.0000000E+00;  1.6604568E+00;0; -1.0918606E-02;  3.9907234E+04;  0.0000000E+00;  1.6464094E+00;  4.0000000E+04;  0.0000000E+00;  4.0013562E+04; -1.1144993E-02;  0.0000000E+00;  2.2638652E-04;  3.0642798E+03;
  2.8142783E-01;  9.9999998E-03;  6.9993801E-02;4191; -5.0436803E-03;  0.0000000E+00;  3.8448776E-05;  9.9979425E+02;  1.0000000E-01; -1.7046431E+02;3;  4.1487205E-01;  0.0000000E+00; -5.4815877E-02;0; -1.0807759E-02;  3.9990242E+04;  0.0000000E+00;  2.5932882E-03;  4.0000000E+04;  0.0000000E+00;  3.9994598E+04; -1.1075952E-02;  0.0000000E+00;  2.6819267E-04;  6.3954230E+02;
  2.8144562E-01;  9.9999998E-03;  7.9992093E-02;4192; -5.0435057E-03;  0.0000000E+00;  3.4704713E-05;  9.9990405E+02;  1.0000000E-01; -7.9503922E+01;3;  4.1462532E-01;  0.0000000E+00; -5.8695026E-02;0; -1.0704461E-02;  3.9999984E+04;  0.0000000E+00;  2.6871099E-03;  4.0000000E+04;  0.0000000E+00;  3.9994031E+04; -1.0951474E-02;  0.0000000E+00;  2.4701309E-04;  7.3715259E+02;
  2.8146634E-01;  9.9999998E-03;  8.9991927E-02;4193; -5.0380542E-03;  0.0000000E+00;  2.9810495E-05;  1.0000146E+03;  1.0000000E-01;  1.2049042E+01;3;  4.1464728E-01;  0.0000000E+00; -6.2209979E-02;0; -1.0610061E-02;  4.0009090E+04;  0.0000000E+00;  7.8290552E-03;  4.0000000E+04;  0.0000000E+00;  3.9993422E+04; -1.0849550E-02;  0.0000000E+00;  2.3948921E-04;  8.1567010E+02;
  2.8149527E-01;  9.9999998E-03;  9.9992283E-02;4194; -5.0242511E-03;  0.0000000E+00;  2.4310853E-05;  1.0001115E+03;  1.0000000E-01;  9.2343071E+01;3;  4.1485232E-01;  0.0000000E+00; -6.5574452E-02;0; -1.0530030E-02;  4.0017191E+04;  0.0000000E+00;  2.3315413E-02;  4.0000000E+04;  0.0000000E+00;  3.9993496E+04; -1.0774556E-02;  0.0000000E+00;  2.4452517E-04;  8.6563666E+02;
  2.8153914E-01;  9.9999998E-03;  1.0999024E-01;4195; -4.9989736E-03;  0.0000000E+00;  1.8878303E-05;  1.0001886E+03;  1.0000000E-01;  1.5624249E+02;3;  4.1475797E-01;  0.0000000E+00; -6.9678031E-02;0; -1.0468296E-02;  4.0023113E+04;  0.0000000E+00;  5.5432662E-02;  4.0000000E+04;  0.0000000E+00;  3.9992918E+04; -1.0727271E-02;  0.0000000E+00;  2.5897514E-04;  8.8162189E+02;
  2.8160280E-01;  9.9999998E-03;  1.1998618E-01;4196; -4.9595898E-03;  0.0000000E+00;  1.4276715E-05;  1.0002280E+03;  1.0000000E-01;  1.8883417E+02;3;  4.1491306E-01;  0.0000000E+00; -7.3505551E-02;0; -1.0426704E-02;  4.0025941E+04;  0.0000000E+00;  1.1044442E-01;  4.0000000E+04;  0.0000000E+00;  3.9993250E+04; -1.0704952E-02;  0.0000000E+00;  2.7824813E-04;  8.6405157E+02;
  2.8167710E-01;  9.9999998E-03;  1.2998176E-01;4197; -4.9038711E-03;  0.0000000E+00;  1.2019375E-05;  1.0002212E+03;  1.0000000E-01;  1.8320470E+02;3;  4.1500321E-01;  0.0000000E+00; -7.7618860E-02;0; -1.0405188E-02;  4.0024801E+04;  0.0000000E+00;  1.9306086E-01;  4.0000000E+04;  0.0000000E+00;  3.9993941E+04; -1.0702109E-02;  0.0000000E+00;  2.9692007E-04;  8.2512354E+02;
  2.8174722E-01;  9.9999998E-03;  1.3997817E-01;4198; -4.8316061E-03;  0.0000000E+00;  1.3126851E-05;  1.0001634E+03;  1.0000000E-01;  1.3540358E+02;3;  4.1448084E-01;  0.0000000E+00; -8.3137229E-02;0; -1.0401828E-02;  4.0018988E+04;  0.0000000E+00;  3.0430821E-01;  4.0000000E+04;  0.0000000E+00;  3.9994984E+04; -1.0711221E-02;  0.0000000E+00;  3.0939316E-04;  7.9494879E+02;
  2.8178981E-01;  9.9999998E-03;  1.4997412E-01;4199; -4.7434089E-03;  0.0000000E+00;  2.1048736E-05;  1.0000442E+03;  1.0000000E-01;  3.6640938E+01;3;  4.1350970E-01;  0.0000000E+00; -9.0182059E-02;0; -1.0413313E-02;  4.0008262E+04;  0.0000000E+00;  4.3898585E-01;  4.0000000E+04;  0.0000000E+00;  3.9995957E+04; -1.0723899E-02;  0.0000000E+00;  3.1058543E-04;  8.1597217E+02;
  2.8179520E-01;  9.9999998E-03;  1.5997089E-01;4200; -4.6426845E-03;  0.0000000E+00;  3.8573613E-05;  9.9988263E+02;  1.0000000E-01; -9.7231819E+01;3;  4.1250044E-01;  0.0000000E+00; -9.8007776E-02;0; -1.0434911E-02;  3.9993441E+04;  0.0000000E+00;  5.8447981E-01;  4.0000000E+04;  0.0000000E+00;  3.9997055E+04; -1.0731914E-02;  0.0000000E+00;  2.9700377E-04;  9.1003027E+02;
  2.8176340E-01;  9.9999998E-03;  1.6997120E-01;4201; -4.5363638E-03;  0.0000000E+00;  6.2703402E-05;  9.9968152E+02;  1.0000000E-01; -2.6384439E+02;3;  4.1163200E-01;  0.0000000E+00; -1.0212523E-01;0; -1.0460070E-02;  3.9976039E+04;  0.0000000E+00;  7.1921349E-01;  4.0000000E+04;  0.0000000E+00;  3.9998344E+04; -1.0728910E-02;  0.0000000E+00;  2.6883930E-04;  1.0482450E+03;
  2.8169334E-01;  9.9999998E-03;  1.7997219E-01;4202; -4.4343211E-03;  0.0000000E+00;  8.4442690E-05;  9.9946301E+02;  1.0000000E-01; -4.4487631E+02;3;  4.0571630E-01;  0.0000000E+00; -9.6305452E-02;0; -1.0482248E-02;  3.9957305E+04;  0.0000000E+00;  8.1601775E-01;  4.0000000E+04;  0.0000000E+00;  3.9998984E+04; -1.0713466E-02;  0.0000000E+00;  2.3121764E-04;  1.1716401E+03;
  2.8158334E-01;  9.9999998E-03;  1.8996771E-01;4203; -4.3445867E-03;  0.0000000E+00;  9.5472045E-05;  9.9924860E+02;  1.0000000E-01; -6.2250092E+02;3;  3.7927908E-01;  0.0000000E+00; -6.2149726E-02;0; -1.0499842E-02;  3.9939586E+04;  0.0000000E+00;  8.6017299E-01;  4.0000000E+04;  0.0000000E+00;  3.9999781E+04; -1.0691321E-02;  0.0000000E+00;  1.9147883E-04;  1.2420303E+03;
  2.8145152E-01;  9.9999998E-03;  1.9995302E-01;4204; -4.2713983E-03;  0.0000000E+00;  9.2816481E-05;  9.9906854E+02;  1.0000000E-01; -7.7168188E+02;3;  3.0683550E-01;  0.0000000E+00;  3.0840740E-02;0; -1.0522234E-02;  3.9924770E+04;  0.0000000E+00;  8.6136657E-01;  4.0000000E+04;  0.0000000E+00;  4.0000941E+04; -1.0675633E-02;  0.0000000E+00;  1.5339952E-04;  1.2815208E+03;
  2.8131253E-01;  9.9999998E-03;  2.0993160E-01;4205; -4.2136642E-03;  0.0000000E+00;  8.7056505E-05;  9.9896307E+02;  1.0000000E-01; -8.5908679E+02;3;  1.5230833E-01;  0.0000000E+00;  2.1579549E-01;0; -1.0564444E-02;  3.9913910E+04;  0.0000000E+00;  8.5439509E-01;  4.0000000E+04;  0.0000000E+00;  4.0004355E+04; -1.0685845E-02;  0.0000000E+00;  1.2140161E-04;  1.4282684E+03;
  2.8118256E-01;  9.9999998E-03;  2.1991605E-01;4206; -4.1675605E-03;  0.0000000E+00;  1.0845288E-04;  9.9894318E+02;  1.0000000E-01; -8.7558020E+02;3; -1.2014364E-01;  0.0000000E+00;  5.3511387E-01;0; -1.0599725E-02;  3.9908461E+04;  0.0000000E+00;  8.9454740E-01;  4.0000000E+04;  0.0000000E+00;  4.0010090E+04; -1.0745727E-02;  0.0000000E+00;  1.4600133E-04;  1.9061122E+03;
  2.8107628E-01;  9.9999998E-03;  2.2992700E-01;4207; -4.1291281E-03;  0.0000000E+00;  1.5886269E-04;  9.9897729E+02;  1.0000000E-01; -8.4728467E+02;3; -5.5999404E-01;  0.0000000E+00;  9.9877220E-01;0; -1.0566565E-02;  3.9909066E+04;  0.0000000E+00;  1.0472666E+00;  4.0000000E+04;  0.0000000E+00;  4.0014098E+04; -1.0881166E-02;  0.0000000E+00;  3.1460079E-04;  2.4485962E+03;
  2.9142928E-01;  9.9999998E-03;  6.9997765E-02;4252; -5.1688896E-03;  0.0000000E+00;  3.6187281E-05;  9.9987329E+02;  1.0000000E-01; -1.0498469E+02;3;  4.3807042E-01;  0.0000000E+00; -5.9928298E-02;0; -1.0703406E-02;  3.9995129E+04;  0.0000000E+00; -2.2357021E-02;  4.0000000E+04;  0.0000000E+00;  3.9996492E+04; -1.0989156E-02;  0.0000000E+00;  2.8574973E-04;  4.3890237E+02;
  2.9141930E-01;  9.9999998E-03;  7.9997554E-02;4253; -5.1617497E-03;  0.0000000E+00;  3.3510234E-05;  9.9999512E+02;  1.0000000E-01; -4.0492682E+00;3;  4.3758100E-01;  0.0000000E+00; -6.4408347E-02;0; -1.0589080E-02;  4.0005996E+04;  0.0000000E+00; -3.3824503E-02;  4.0000000E+04;  0.0000000E+00;  3.9995461E+04; -1.0853311E-02;  0.0000000E+00;  2.6423100E-04;  5.5133557E+02;
  2.9142612E-01;  9.9999998E-03;  8.9996152E-02;4254; -5.1511112E-03;  0.0000000E+00;  2.9337598E-05;  1.0001205E+03;  1.0000000E-01;  9.9849030E+01;3;  4.3745908E-01;  0.0000000E+00; -6.8391435E-02;0; -1.0485042E-02;  4.0017152E+04;  0.0000000E+00; -4.2527474E-02;  4.0000000E+04;  0.0000000E+00;  3.9994777E+04; -1.0740725E-02;  0.0000000E+00;  2.5568367E-04;  6.5479004E+02;
  2.9144496E-01;  9.9999998E-03;  9.9995710E-02;4255; -5.1343762E-03;  0.0000000E+00;  2.4142853E-05;  1.0002443E+03;  1.0000000E-01;  2.0236465E+02;3;  4.3761897E-01;  0.0000000E+00; -7.2452083E-02;0; -1.0396921E-02;  4.0027492E+04;  0.0000000E+00; -4.2914066E-02;  4.0000000E+04;  0.0000000E+00;  3.9994301E+04; -1.0656715E-02;  0.0000000E+00;  2.5979412E-04;  7.3151929E+02;
  2.9147542E-01;  9.9999998E-03;  1.0999675E-01;4256; -5.1087313E-03;  0.0000000E+00;  1.8713195E-05;  1.0003539E+03;  1.0000000E-01;  2.9322629E+02;3;  4.3791327E-01;  0.0000000E+00; -7.6429926E-02;0; -1.0328581E-02;  4.0036184E+04;  0.0000000E+00; -2.8161872E-02;  4.0000000E+04;  0.0000000E+00;  3.9994289E+04; -1.0602850E-02;  0.0000000E+00;  2.7427013E-04;  7.6728973E+02;
  2.9151937E-01;  9.9999998E-03;  1.1999693E-01;4257; -5.0717345E-03;  0.0000000E+00;  1.3697470E-05;  1.0004277E+03;  1.0000000E-01;  3.5436035E+02;3;  4.3781596E-01;  0.0000000E+00; -8.1541970E-02;0; -1.0281799E-02;  4.0042070E+04;  0.0000000E+00;  8.9393808E-03;  4.0000000E+04;  0.0000000E+00;  3.9994227E+04; -1.0576985E-02;  0.0000000E+00;  2.9518560E-04;  7.5463055E+02;
  2.9157463E-01;  9.9999998E-03;  1.2999500E-01;4258; -5.0211926E-03;  0.0000000E+00;  1.0630976E-05;  1.0004584E+03;  1.0000000E-01;  3.7974234E+02;3;  4.3811879E-01;  0.0000000E+00; -8.5973255E-02;0; -1.0256195E-02;  4.0043625E+04;  0.0000000E+00;  7.4572064E-02;  4.0000000E+04;  0.0000000E+00;  3.9994512E+04; -1.0573648E-02;  0.0000000E+00;  3.1745309E-04;  6.9832904E+02;
  2.9163200E-01;  9.9999998E-03;  1.3999210E-01;4259; -4.9562636E-03;  0.0000000E+00;  1.0685872E-05;  1.0004276E+03;  1.0000000E-01;  3.5426160E+02;3;  4.3773660E-01;  0.0000000E+00; -9.2079423E-02;0; -1.0249713E-02;  4.0040512E+04;  0.0000000E+00;  1.7202319E-01;  4.0000000E+04;  0.0000000E+00;  3.9995684E+04; -1.0585115E-02;  0.0000000E+00;  3.3540258E-04;  6.2648993E+02;
  2.9167643E-01;  9.9999998E-03;  1.4998817E-01;4260; -4.8769298E-03;  0.0000000E+00;  1.6874335E-05;  1.0003417E+03;  1.0000000E-01;  2.8315250E+02;3;  4.3677902E-01;  0.0000000E+00; -1.0039911E-01;0; -1.0259015E-02;  4.0031840E+04;  0.0000000E+00;  2.9937747E-01;  4.0000000E+04;  0.0000000E+00;  3.9996758E+04; -1.0602455E-02;  0.0000000E+00;  3.4344039E-04;  6.0147034E+02;
  2.9169863E-01;  9.9999998E-03;  1.5998456E-01;4261; -4.7855955E-03;  0.0000000E+00;  3.1650561E-05;  1.0001926E+03;  1.0000000E-01;  1.5950166E+02;3;  4.3570864E-01;  0.0000000E+00; -1.0946519E-01;0; -1.0279514E-02;  4.0017863E+04;  0.0000000E+00;  4.4807327E-01;  4.0000000E+04;  0.0000000E+00;  3.9998195E+04; -1.0616566E-02;  0.0000000E+00;  3.3705248E-04;  6.8581726E+02;
  2.9169825E-01;  9.9999998E-03;  1.6998337E-01;4262; -4.6872180E-03;  0.0000000E+00;  5.4404460E-05;  9.9998987E+02;  1.0000000E-01; -8.3948240E+00;3;  4.3510342E-01;  0.0000000E+00; -1.1679734E-01;0; -1.0304910E-02;  4.0000320E+04;  0.0000000E+00;  6.0269207E-01;  4.0000000E+04;  0.0000000E+00;  3.9999699E+04; -1.0619785E-02;  0.0000000E+00;  3.1487425E-04;  8.6455829E+02;
  2.9167008E-01;  9.9999998E-03;  1.7998426E-01;4263; -4.5889900E-03;  0.0000000E+00;  7.9231344E-05;  9.9975525E+02;  1.0000000E-01; -2.0275970E+02;3;  4.3346477E-01;  0.0000000E+00; -1.2058951E-01;0; -1.0327385E-02;  3.9980430E+04;  0.0000000E+00;  7.3756605E-01;  4.0000000E+04;  0.0000000E+00;  4.0000871E+04; -1.0608026E-02;  0.0000000E+00;  2.8064076E-04;  1.0626647E+03;
  2.9160130E-01;  9.9999998E-03;  1.8998083E-01;4264; -4.4987183E-03;  0.0000000E+00;  9.7850178E-05;  9.9951263E+02;  1.0000000E-01; -4.0379105E+02;3;  4.2311993E-01;  0.0000000E+00; -1.1083209E-01;0; -1.0341397E-02;  3.9960094E+04;  0.0000000E+00;  8.2521313E-01;  4.0000000E+04;  0.0000000E+00;  4.0001805E+04; -1.0583250E-02;  0.0000000E+00;  2.4185274E-04;  1.2139076E+03;
  2.9149571E-01;  9.9999998E-03;  1.9997022E-01;4265; -4.4213077E-03;  0.0000000E+00;  1.0413258E-04;  9.9928900E+02;  1.0000000E-01; -5.8906976E+02;3;  3.8730410E-01;  0.0000000E+00; -6.9397219E-02;0; -1.0350163E-02;  3.9941570E+04;  0.0000000E+00;  8.5094845E-01;  4.0000000E+04;  0.0000000E+00;  4.0002875E+04; -1.0554203E-02;  0.0000000E+00;  2.0404019E-04;  1.3015769E+03;
  2.9137760E-01;  9.9999998E-03;  2.0995148E-01;4266; -4.3565328E-03;  0.0000000E+00;  1.0487318E-04;  9.9912909E+02;  1.0000000E-01; -7.2151044E+02;3;  3.0041564E-01;  0.0000000E+00;  2.8250279E-02;0; -1.0362679E-02;  3.9926980E+04;  0.0000000E+00;  8.1945956E-01;  4.0000000E+04;  0.0000000E+00;  4.0005578E+04; -1.0535633E-02;  0.0000000E+00;  1.7295420E-04;  1.4103375E+03;
  2.9125789E-01;  9.9999998E-03;  2.1993566E-01;4267; -4.3009012E-03;  0.0000000E+00;  1.2526914E-04;  9.9904919E+02;  1.0000000E-01; -7.8773083E+02;3;  1.3182113E-01;  0.0000000E+00;  2.0964034E-01;0; -1.0353849E-02;  3.9917602E+04;  0.0000000E+00;  7.5587434E-01;  4.0000000E+04;  0.0000000E+00;  4.0009668E+04; -1.0546731E-02;  0.0000000E+00;  1.9288181E-04;  1.7193217E+03;
  2.9114887E-01;  9.9999998E-03;  2.2994022E-01;4268; -4.2518112E-03;  0.0000000E+00;  1.6523206E-04;  9.9902972E+02;  1.0000000E-01; -8.0387848E+02;3; -1.5782462E-01;  0.0000000E+00;  4.8855025E-01;0; -1.0276650E-02;  3.9914301E+04;  0.0000000E+00;  7.0301914E-01;  4.0000000E+04;  0.0000000E+00;  4.0013246E+04; -1.0608980E-02;  0.0000000E+00;  3.3232942E-04;  2.0489924E+03;
  3.0145502E-01;  9.9999998E-03;  6.9994293E-02;4313; -5.2972343E-03;  0.0000000E+00;  3.5013854E-05;  9.9996826E+02;  1.0000000E-01; -2.6270863E+01;3;  4.6282738E-01;  0.0000000E+00; -6.4406835E-02;0; -1.0578437E-02;  4.0002320E+04;  0.0000000E+00; -3.7112180E-02;  4.0000000E+04;  0.0000000E+00;  3.9997961E+04; -1.0880656E-02;  0.0000000E+00;  3.0221918E-04;  2.9496765E+02;
  3.0143672E-01;  9.9999998E-03;  7.9993837E-02;4314; -5.2827443E-03;  0.0000000E+00;  3.3922734E-05;  1.0000911E+03;  1.0000000E-01;  7.5454659E+01;3;  4.6204892E-01;  0.0000000E+00; -7.0179962E-02;0; -1.0457486E-02;  4.0012992E+04;  0.0000000E+00; -5.7981603E-02;  4.0000000E+04;  0.0000000E+00;  3.9996828E+04; -1.0737763E-02;  0.0000000E+00;  2.8027658E-04;  4.1825095E+02;
  3.0141824E-01;  9.9999998E-03;  8.9996599E-02;4315; -5.2657952E-03;  0.0000000E+00;  3.1030897E-05;  1.0002239E+03;  1.0000000E-01;  1.8547624E+02;3;  4.6150348E-01;  0.0000000E+00; -7.5625949E-02;0; -1.0347469E-02;  4.0024254E+04;  0.0000000E+00; -7.9159871E-02;  4.0000000E+04;  0.0000000E+00;  3.9995871E+04; -1.0617117E-02;  0.0000000E+00;  2.6964865E-04;  5.4508221E+02;
  3.0140722E-01;  9.9999998E-03;  1.0000043E-01;4316; -5.2446281E-03;  0.0000000E+00;  2.6693979E-05;  1.0003569E+03;  1.0000000E-01;  2.9569534E+02;3;  4.6154192E-01;  0.0000000E+00; -8.0244482E-02;0; -1.0253784E-02;  4.0035895E+04;  0.0000000E+00; -9.5291846E-02;  4.0000000E+04;  0.0000000E+00;  3.9994891E+04; -1.0524600E-02;  0.0000000E+00;  2.7081525E-04;  6.5294098E+02;
  3.0141172E-01;  9.9999998E-03;  1.1000366E-01;4317; -5.2170656E-03;  0.0000000E+00;  2.1646410E-05;  1.0004794E+03;  1.0000000E-01;  3.9722333E+02;3;  4.6187666E-01;  0.0000000E+00; -8.4733583E-02;0; -1.0180028E-02;  4.0046152E+04;  0.0000000E+00; -9.9473089E-02;  4.0000000E+04;  0.0000000E+00;  3.9994723E+04; -1.0462432E-02;  0.0000000E+00;  2.8240422E-04;  7.1965576E+02;
  3.0143145E-01;  9.9999998E-03;  1.2000662E-01;4318; -5.1807542E-03;  0.0000000E+00;  1.6904320E-05;  1.0005769E+03;  1.0000000E-01;  4.7791241E+02;3;  4.6189773E-01;  0.0000000E+00; -9.0112440E-02;0; -1.0127753E-02;  4.0054543E+04;  0.0000000E+00; -8.3999425E-02;  4.0000000E+04;  0.0000000E+00;  3.9994621E+04; -1.0429061E-02;  0.0000000E+00;  3.0130838E-04;  7.2869025E+02;
  3.0146635E-01;  9.9999998E-03;  1.3000728E-01;4319; -5.1339422E-03;  0.0000000E+00;  1.3328232E-05;  1.0006356E+03;  1.0000000E-01;  5.2650360E+02;3;  4.6231011E-01;  0.0000000E+00; -9.5353797E-02;0; -1.0096543E-02;  4.0058434E+04;  0.0000000E+00; -4.1626111E-02;  4.0000000E+04;  0.0000000E+00;  3.9994871E+04; -1.0419551E-02;  0.0000000E+00;  3.2300813E-04;  6.7383820E+02;
  3.0150944E-01;  9.9999998E-03;  1.4000610E-01;4320; -5.0750459E-03;  0.0000000E+00;  1.2859613E-05;  1.0006390E+03;  1.0000000E-01;  5.2936774E+02;3;  4.6192741E-01;  0.0000000E+00; -1.0258817E-01;0; -1.0084403E-02;  4.0057668E+04;  0.0000000E+00;  3.2768495E-02;  4.0000000E+04;  0.0000000E+00;  3.9995941E+04; -1.0426417E-02;  0.0000000E+00;  3.4201442E-04;  5.6637048E+02;
  3.0155155E-01;  9.9999998E-03;  1.5000333E-01;4321; -5.0036148E-03;  0.0000000E+00;  1.8058325E-05;  1.0005800E+03;  1.0000000E-01;  4.8057901E+02;3;  4.6113560E-01;  0.0000000E+00; -1.1181854E-01;0; -1.0088261E-02;  4.0051543E+04;  0.0000000E+00;  1.4015652E-01;  4.0000000E+04;  0.0000000E+00;  3.9997094E+04; -1.0440757E-02;  0.0000000E+00;  3.5249625E-04;  4.5458209E+02;
  3.0158442E-01;  9.9999998E-03;  1.6000019E-01;4322; -4.9209204E-03;  0.0000000E+00;  3.1241179E-05;  1.0004504E+03;  1.0000000E-01;  3.7312524E+02;3;  4.6000510E-01;  0.0000000E+00; -1.2275813E-01;0; -1.0104035E-02;  4.0039469E+04;  0.0000000E+00;  2.7583995E-01;  4.0000000E+04;  0.0000000E+00;  3.9998750E+04; -1.0453346E-02;  0.0000000E+00;  3.4931127E-04;  4.5058820E+02;
  3.0160496E-01;  9.9999998E-03;  1.6999942E-01;4323; -4.8303171E-03;  0.0000000E+00;  5.2507523E-05;  1.0002628E+03;  1.0000000E-01;  2.1767285E+02;3;  4.5931277E-01;  0.0000000E+00; -1.3173030E-01;0; -1.0125957E-02;  4.0022738E+04;  0.0000000E+00;  4.2934307E-01;  4.0000000E+04;  0.0000000E+00;  3.9999684E+04; -1.0455964E-02;  0.0000000E+00;  3.3000650E-04;  6.1371228E+02;
  3.0160588E-01;  9.9999998E-03;  1.8000032E-01;4324; -4.7371648E-03;  0.0000000E+00;  7.7885728E-05;  1.0000325E+03;  1.0000000E-01;  2.6863438E+01;3;  4.5905149E-01;  0.0000000E+00; -1.3977280E-01;0; -1.0146144E-02;  4.0002496E+04;  0.0000000E+00;  5.8276862E-01;  4.0000000E+04;  0.0000000E+00;  4.0000969E+04; -1.0443225E-02;  0.0000000E+00;  2.9708075E-04;  8.5157434E+02;
  3.0157346E-01;  9.9999998E-03;  1.8999779E-01;4325; -4.6477094E-03;  0.0000000E+00;  1.0086517E-04;  9.9977496E+02;  1.0000000E-01; -1.8641447E+02;3;  4.5650905E-01;  0.0000000E+00; -1.4333031E-01;0; -1.0156395E-02;  3.9981055E+04;  0.0000000E+00;  7.0811379E-01;  4.0000000E+04;  0.0000000E+00;  4.0002188E+04; -1.0414387E-02;  0.0000000E+00;  2.5799253E-04;  1.0699834E+03;
  3.0150414E-01;  9.9999998E-03;  1.9999012E-01;4326; -4.5669377E-03;  0.0000000E+00;  1.1434384E-04;  9.9952252E+02;  1.0000000E-01; -3.9559375E+02;3;  4.4323993E-01;  0.0000000E+00; -1.3344619E-01;0; -1.0154150E-02;  3.9960211E+04;  0.0000000E+00;  7.7794421E-01;  4.0000000E+04;  0.0000000E+00;  4.0003754E+04; -1.0374522E-02;  0.0000000E+00;  2.2037182E-04;  1.2224249E+03;
  3.0141070E-01;  9.9999998E-03;  2.0997491E-01;4327; -4.4957157E-03;  0.0000000E+00;  1.1922620E-04;  9.9931287E+02;  1.0000000E-01; -5.6926782E+02;3;  4.0319231E-01;  0.0000000E+00; -9.2976704E-02;0; -1.0144325E-02;  3.9942449E+04;  0.0000000E+00;  7.7638447E-01;  4.0000000E+04;  0.0000000E+00;  4.0005453E+04; -1.0334036E-02;  0.0000000E+00;  1.8971134E-04;  1.3422544E+03;
  3.0130935E-01;  9.9999998E-03;  2.1995895E-01;4328; -4.4310540E-03;  0.0000000E+00;  1.3428539E-04;  9.9917389E+02;  1.0000000E-01; -6.8442511E+02;3;  3.1358483E-01;  0.0000000E+00; -7.1563753E-03;0; -1.0108973E-02;  3.9929098E+04;  0.0000000E+00;  7.0416224E-01;  4.0000000E+04;  0.0000000E+00;  4.0009039E+04; -1.0307574E-02;  0.0000000E+00;  1.9860074E-04;  1.5576139E+03;
  3.0120936E-01;  9.9999998E-03;  2.2995797E-01;4329; -4.3712719E-03;  0.0000000E+00;  1.5987321E-04;  9.9909497E+02;  1.0000000E-01; -7.4980597E+02;3;  1.4660975E-01;  0.0000000E+00;  1.4197022E-01;0; -1.0018890E-02;  3.9921363E+04;  0.0000000E+00;  5.7884717E-01;  4.0000000E+04;  0.0000000E+00;  4.0011703E+04; -1.0312169E-02;  0.0000000E+00;  2.9327915E-04;  1.7662440E+03;
  3.1152317E-01;  9.9999998E-03;  6.9991484E-02;4374; -5.4238108E-03;  0.0000000E+00;  3.4862464E-05;  1.0000859E+03;  1.0000000E-01;  7.1109100E+01;3;  4.8933828E-01;  0.0000000E+00; -6.7699246E-02;0; -1.0413884E-02;  4.0010602E+04;  0.0000000E+00; -3.9763678E-02;  4.0000000E+04;  0.0000000E+00;  3.9998641E+04; -1.0729396E-02;  0.0000000E+00;  3.1551172E-04;  2.0489920E+02;
  3.1148365E-01;  9.9999998E-03;  7.9989612E-02;4375; -5.4018642E-03;  0.0000000E+00;  3.6090056E-05;  1.0001893E+03;  1.0000000E-01;  1.5683507E+02;3;  4.8809654E-01;  0.0000000E+00; -7.5711615E-02;0; -1.0291901E-02;  4.0020047E+04;  0.0000000E+00; -6.6284835E-02;  4.0000000E+04;  0.0000000E+00;  3.9997980E+04; -1.0584983E-02;  0.0000000E+00;  2.9308128E-04;  3.3225079E+02;
  3.1144050E-01;  9.9999998E-03;  8.9990973E-02;4376; -5.3782430E-03;  0.0000000E+00;  3.5144581E-05;  1.0003041E+03;  1.0000000E-01;  2.5194350E+02;3;  4.8730516E-01;  0.0000000E+00; -8.2779236E-02;0; -1.0180585E-02;  4.0030660E+04;  0.0000000E+00; -9.6417315E-02;  4.0000000E+04;  0.0000000E+00;  3.9997105E+04; -1.0460154E-02;  0.0000000E+00;  2.7956869E-04;  4.7707047E+02;
  3.1140271E-01;  9.9999998E-03;  9.9995054E-02;4377; -5.3517930E-03;  0.0000000E+00;  3.2403776E-05;  1.0004313E+03;  1.0000000E-01;  3.5732324E+02;3;  4.8708546E-01;  0.0000000E+00; -8.8523552E-02;0; -1.0084917E-02;  4.0041703E+04;  0.0000000E+00; -1.2556107E-01;  4.0000000E+04;  0.0000000E+00;  3.9995723E+04; -1.0361025E-02;  0.0000000E+00;  2.7610816E-04;  6.1391125E+02;
  3.1137383E-01;  9.9999998E-03;  1.1000317E-01;4378; -5.3209383E-03;  0.0000000E+00;  2.8401208E-05;  1.0005551E+03;  1.0000000E-01;  4.5993762E+02;3;  4.8696345E-01;  0.0000000E+00; -9.4418876E-02;0; -1.0008194E-02;  4.0052391E+04;  0.0000000E+00; -1.4732647E-01;  4.0000000E+04;  0.0000000E+00;  3.9994797E+04; -1.0290453E-02;  0.0000000E+00;  2.8225954E-04;  7.1603986E+02;
  3.1135935E-01;  9.9999998E-03;  1.2001142E-01;4379; -5.2837962E-03;  0.0000000E+00;  2.4177702E-05;  1.0006622E+03;  1.0000000E-01;  5.4862646E+02;3;  4.8735017E-01;  0.0000000E+00; -9.9766314E-02;0; -9.9517712E-03;  4.0061223E+04;  0.0000000E+00; -1.5402311E-01;  4.0000000E+04;  0.0000000E+00;  3.9994719E+04; -1.0247631E-02;  0.0000000E+00;  2.9586014E-04;  7.6055200E+02;
  3.1136888E-01;  9.9999998E-03;  1.3001573E-01;4380; -5.2388823E-03;  0.0000000E+00;  2.0640375E-05;  1.0007344E+03;  1.0000000E-01;  6.0847662E+02;3;  4.8748678E-01;  0.0000000E+00; -1.0622225E-01;0; -9.9150948E-03;  4.0066914E+04;  0.0000000E+00; -1.3769765E-01;  4.0000000E+04;  0.0000000E+00;  3.9994750E+04; -1.0228216E-02;  0.0000000E+00;  3.1312084E-04;  7.3252032E+02;
  3.1139538E-01;  9.9999998E-03;  1.4001748E-01;4381; -5.1843249E-03;  0.0000000E+00;  2.0076846E-05;  1.0007603E+03;  1.0000000E-01;  6.2980933E+02;3;  4.8703301E-01;  0.0000000E+00; -1.1531632E-01;0; -9.8964702E-03;  4.0068211E+04;  0.0000000E+00; -9.1632240E-02;  4.0000000E+04;  0.0000000E+00;  3.9995504E+04; -1.0225439E-02;  0.0000000E+00;  3.2896941E-04;  6.2903510E+02;
  3.1143039E-01;  9.9999998E-03;  1.5001683E-01;4382; -5.1192958E-03;  0.0000000E+00;  2.4487530E-05;  1.0007241E+03;  1.0000000E-01;  5.9988428E+02;3;  4.8613873E-01;  0.0000000E+00; -1.2615612E-01;0; -9.8933093E-03;  4.0064168E+04;  0.0000000E+00; -1.2206487E-02;  4.0000000E+04;  0.0000000E+00;  3.9996469E+04; -1.0230927E-02;  0.0000000E+00;  3.3761712E-04;  4.6514310E+02;
  3.1146777E-01;  9.9999998E-03;  1.6001487E-01;4383; -5.0440845E-03;  0.0000000E+00;  3.6174071E-05;  1.0006287E+03;  1.0000000E-01;  5.2087415E+02;3;  4.8528391E-01;  0.0000000E+00; -1.3777325E-01;0; -9.9021392E-03;  4.0054414E+04;  0.0000000E+00;  9.9531762E-02;  4.0000000E+04;  0.0000000E+00;  3.9998125E+04; -1.0235799E-02;  0.0000000E+00;  3.3365973E-04;  3.0555408E+02;
  3.1149971E-01;  9.9999998E-03;  1.7001477E-01;4384; -4.9605533E-03;  0.0000000E+00;  5.5489556E-05;  1.0004640E+03;  1.0000000E-01;  3.8438419E+02;3;  4.8448572E-01;  0.0000000E+00; -1.4812742E-01;0; -9.9180350E-03;  4.0039555E+04;  0.0000000E+00;  2.3724818E-01;  4.0000000E+04;  0.0000000E+00;  3.9999793E+04; -1.0232074E-02;  0.0000000E+00;  3.1403947E-04;  3.4262961E+02;
  3.1151706E-01;  9.9999998E-03;  1.8001653E-01;4385; -4.8724390E-03;  0.0000000E+00;  7.9643512E-05;  1.0002452E+03;  1.0000000E-01;  2.0315475E+02;3;  4.8421228E-01;  0.0000000E+00; -1.5777436E-01;0; -9.9337455E-03;  4.0020633E+04;  0.0000000E+00;  3.8925320E-01;  4.0000000E+04;  0.0000000E+00;  4.0001238E+04; -1.0214077E-02;  0.0000000E+00;  2.8033197E-04;  5.7613538E+02;
  3.1151116E-01;  9.9999998E-03;  1.9001597E-01;4386; -4.7846357E-03;  0.0000000E+00;  1.0378646E-04;  9.9999414E+02;  1.0000000E-01; -4.8393693E+00;3;  4.8422331E-01;  0.0000000E+00; -1.6661875E-01;0; -9.9399257E-03;  3.9999387E+04;  0.0000000E+00;  5.3535593E-01;  4.0000000E+04;  0.0000000E+00;  4.0002402E+04; -1.0179518E-02;  0.0000000E+00;  2.3959202E-04;  8.3388312E+02;
  3.1147924E-01;  9.9999998E-03;  2.0001103E-01;4387; -4.7015776E-03;  0.0000000E+00;  1.2052056E-04;  9.9973010E+02;  1.0000000E-01; -2.2359862E+02;3;  4.8152336E-01;  0.0000000E+00; -1.7316642E-01;0; -9.9300826E-03;  3.9977730E+04;  0.0000000E+00;  6.4695632E-01;  4.0000000E+04;  0.0000000E+00;  4.0003320E+04; -1.0130584E-02;  0.0000000E+00;  2.0050177E-04;  1.0417100E+03;
  3.1142148E-01;  9.9999998E-03;  2.0999950E-01;4388; -4.6249828E-03;  0.0000000E+00;  1.2595356E-04;  9.9948657E+02;  1.0000000E-01; -4.2537070E+02;3;  4.6846375E-01;  0.0000000E+00; -1.6481519E-01;0; -9.9071432E-03;  3.9957566E+04;  0.0000000E+00;  6.9749230E-01;  4.0000000E+04;  0.0000000E+00;  4.0004668E+04; -1.0074230E-02;  0.0000000E+00;  1.6708714E-04;  1.1933591E+03;
  3.1134844E-01;  9.9999998E-03;  2.1998423E-01;4389; -4.5525357E-03;  0.0000000E+00;  1.3207813E-04;  9.9929895E+02;  1.0000000E-01; -5.8082306E+02;3;  4.3088502E-01;  0.0000000E+00; -1.3350694E-01;0; -9.8642185E-03;  3.9941070E+04;  0.0000000E+00;  6.7088556E-01;  4.0000000E+04;  0.0000000E+00;  4.0007289E+04; -1.0021095E-02;  0.0000000E+00;  1.5687695E-04;  1.3628971E+03;
  3.1126818E-01;  9.9999998E-03;  2.2997762E-01;4390; -4.4826916E-03;  0.0000000E+00;  1.4381661E-04;  9.9916443E+02;  1.0000000E-01; -6.9227673E+02;3;  3.5079539E-01;  0.0000000E+00; -6.8042599E-02;0; -9.7822426E-03;  3.9929105E+04;  0.0000000E+00;  5.6470037E-01;  4.0000000E+04;  0.0000000E+00;  4.0009746E+04; -9.9839568E-03;  0.0000000E+00;  2.0171383E-04;  1.5191296E+03;
  3.2156897E-01;  9.9999998E-03;  6.9994710E-02;4435; -5.5438164E-03;  0.0000000E+00;  3.5147823E-05;  1.0002035E+03;  1.0000000E-01;  1.6858783E+02;3;  5.1735109E-01;  0.0000000E+00; -7.0358872E-02;0; -1.0207466E-02;  4.0019840E+04;  0.0000000E+00; -3.1871941E-02;  4.0000000E+04;  0.0000000E+00;  3.9999117E+04; -1.0530221E-02;  0.0000000E+00;  3.2275560E-04;  1.5819690E+02;
  3.2154515E-01;  9.9999998E-03;  7.9989061E-02;4436; -5.5155116E-03;  0.0000000E+00;  3.9609458E-05;  1.0002813E+03;  1.0000000E-01;  2.3307983E+02;3;  5.1568067E-01;  0.0000000E+00; -8.1314512E-02;0; -1.0089045E-02;  4.0027051E+04;  0.0000000E+00; -5.9714492E-02;  4.0000000E+04;  0.0000000E+00;  3.9998293E+04; -1.0388967E-02;  0.0000000E+00;  2.9992091E-04;  2.8136008E+02;
  3.2151282E-01;  9.9999998E-03;  8.9986593E-02;4437; -5.4857512E-03;  0.0000000E+00;  4.1639316E-05;  1.0003723E+03;  1.0000000E-01;  3.0843573E+02;3;  5.1455474E-01;  0.0000000E+00; -9.0974264E-02;0; -9.9805230E-03;  4.0035633E+04;  0.0000000E+00; -9.4079174E-02;  4.0000000E+04;  0.0000000E+00;  3.9997434E+04; -1.0263575E-02;  0.0000000E+00;  2.8305224E-04;  4.3446024E+02;
  3.2146868E-01;  9.9999998E-03;  9.9988744E-02;4438; -5.4539121E-03;  0.0000000E+00;  4.1249026E-05;  1.0004755E+03;  1.0000000E-01;  3.9386542E+02;3;  5.1382118E-01;  0.0000000E+00; -9.9160232E-02;0; -9.8864287E-03;  4.0045148E+04;  0.0000000E+00; -1.3162144E-01;  4.0000000E+04;  0.0000000E+00;  3.9996238E+04; -1.0160198E-02;  0.0000000E+00;  2.7376966E-04;  5.9220715E+02;
  3.2141054E-01;  9.9999998E-03;  1.0999659E-01;4439; -5.4189130E-03;  0.0000000E+00;  3.8992523E-05;  1.0005770E+03;  1.0000000E-01;  4.7801117E+02;3;  5.1347828E-01;  0.0000000E+00; -1.0644742E-01;0; -9.8097939E-03;  4.0054574E+04;  0.0000000E+00; -1.6702639E-01;  4.0000000E+04;  0.0000000E+00;  3.9995168E+04; -1.0082309E-02;  0.0000000E+00;  2.7251555E-04;  7.2621497E+02;
  3.2135135E-01;  9.9999998E-03;  1.2000932E-01;4440; -5.3795646E-03;  0.0000000E+00;  3.5715075E-05;  1.0006747E+03;  1.0000000E-01;  5.5899652E+02;3;  5.1346713E-01;  0.0000000E+00; -1.1320349E-01;0; -9.7516049E-03;  4.0062891E+04;  0.0000000E+00; -1.9316699E-01;  4.0000000E+04;  0.0000000E+00;  3.9994645E+04; -1.0029759E-02;  0.0000000E+00;  2.7815459E-04;  8.0952118E+02;
  3.2131594E-01;  9.9999998E-03;  1.3002056E-01;4441; -5.3345677E-03;  0.0000000E+00;  3.2764885E-05;  1.0007531E+03;  1.0000000E-01;  6.2388361E+02;3;  5.1346457E-01;  0.0000000E+00; -1.2055183E-01;0; -9.7110607E-03;  4.0069184E+04;  0.0000000E+00; -2.0181838E-01;  4.0000000E+04;  0.0000000E+00;  3.9994879E+04; -9.9988319E-03;  0.0000000E+00;  2.8777076E-04;  8.2168256E+02;
  3.2131222E-01;  9.9999998E-03;  1.4002635E-01;4442; -5.2824477E-03;  0.0000000E+00;  3.1933527E-05;  1.0007949E+03;  1.0000000E-01;  6.5854926E+02;3;  5.1313996E-01;  0.0000000E+00; -1.2976487E-01;0; -9.6866069E-03;  4.0071566E+04;  0.0000000E+00; -1.8498866E-01;  4.0000000E+04;  0.0000000E+00;  3.9995039E+04; -9.9834818E-03;  0.0000000E+00;  2.9687508E-04;  7.5189648E+02;
  3.2132968E-01;  9.9999998E-03;  1.5002827E-01;4443; -5.2219303E-03;  0.0000000E+00;  3.5277404E-05;  1.0007810E+03;  1.0000000E-01;  6.4709283E+02;3;  5.1243395E-01;  0.0000000E+00; -1.4118116E-01;0; -9.6763009E-03;  4.0069516E+04;  0.0000000E+00; -1.3665885E-01;  4.0000000E+04;  0.0000000E+00;  3.9996105E+04; -9.9762790E-03;  0.0000000E+00;  2.9997830E-04;  6.0127026E+02;
  3.2135949E-01;  9.9999998E-03;  1.6002767E-01;4444; -5.1526264E-03;  0.0000000E+00;  4.4540680E-05;  1.0007084E+03;  1.0000000E-01;  5.8694635E+02;3;  5.1136220E-01;  0.0000000E+00; -1.5442672E-01;0; -9.6775023E-03;  4.0062160E+04;  0.0000000E+00; -5.4430064E-02;  4.0000000E+04;  0.0000000E+00;  3.9997688E+04; -9.9692643E-03;  0.0000000E+00;  2.9176229E-04;  3.8661423E+02;
  3.2139289E-01;  9.9999998E-03;  1.7002733E-01;4445; -5.0750929E-03;  0.0000000E+00;  6.0549391E-05;  1.0005736E+03;  1.0000000E-01;  4.7524582E+02;3;  5.1057482E-01;  0.0000000E+00; -1.6541971E-01;0; -9.6860947E-03;  4.0049859E+04;  0.0000000E+00;  5.9222367E-02;  4.0000000E+04;  0.0000000E+00;  3.9999359E+04; -9.9550383E-03;  0.0000000E+00;  2.6894335E-04;  1.7726762E+02;
  3.2142007E-01;  9.9999998E-03;  1.8002914E-01;4446; -4.9915086E-03;  0.0000000E+00;  8.2130369E-05;  1.0003851E+03;  1.0000000E-01;  3.1910208E+02;3;  5.1008743E-01;  0.0000000E+00; -1.7581855E-01;0; -9.6957237E-03;  4.0032875E+04;  0.0000000E+00;  1.9637370E-01;  4.0000000E+04;  0.0000000E+00;  4.0000793E+04; -9.9282358E-03;  0.0000000E+00;  2.3251190E-04;  2.8679459E+02;
  3.2143599E-01;  9.9999998E-03;  1.9003130E-01;4447; -4.9057016E-03;  0.0000000E+00;  1.0460347E-04;  1.0001480E+03;  1.0000000E-01;  1.2266320E+02;3;  5.1015455E-01;  0.0000000E+00; -1.8705116E-01;0; -9.6972613E-03;  4.0012926E+04;  0.0000000E+00;  3.4383321E-01;  4.0000000E+04;  0.0000000E+00;  4.0001879E+04; -9.8860282E-03;  0.0000000E+00;  1.8876691E-04;  5.5400110E+02;
  3.2143790E-01;  9.9999998E-03;  2.0003042E-01;4448; -4.8213992E-03;  0.0000000E+00;  1.2042504E-04;  9.9988538E+02;  1.0000000E-01; -9.4960274E+01;3;  5.1066899E-01;  0.0000000E+00; -1.9772111E-01;0; -9.6830651E-03;  3.9991371E+04;  0.0000000E+00;  4.8015505E-01;  4.0000000E+04;  0.0000000E+00;  4.0003031E+04; -9.8290183E-03;  0.0000000E+00;  1.4595305E-04;  7.9018585E+02;
  3.2142827E-01;  9.9999998E-03;  2.1002319E-01;4449; -4.7406065E-03;  0.0000000E+00;  1.2363245E-04;  9.9963129E+02;  1.0000000E-01; -3.0547284E+02;3;  5.0941020E-01;  0.0000000E+00; -2.0287926E-01;0; -9.6549056E-03;  3.9970422E+04;  0.0000000E+00;  5.7752037E-01;  4.0000000E+04;  0.0000000E+00;  4.0003480E+04; -9.7612785E-03;  0.0000000E+00;  1.0637282E-04;  9.6535797E+02;
  3.2139859E-01;  9.9999998E-03;  2.2000811E-01;4450; -4.6620551E-03;  0.0000000E+00;  1.2010308E-04;  9.9940735E+02;  1.0000000E-01; -4.9099847E+02;3;  5.0010264E-01;  0.0000000E+00; -1.9719684E-01;0; -9.6170744E-03;  3.9951723E+04;  0.0000000E+00;  6.1115235E-01;  4.0000000E+04;  0.0000000E+00;  4.0005383E+04; -9.6905334E-03;  0.0000000E+00;  7.3459014E-05;  1.1312727E+03;
  3.2134536E-01;  9.9999998E-03;  2.2999619E-01;4451; -4.5839124E-03;  0.0000000E+00;  1.2003504E-04;  9.9923145E+02;  1.0000000E-01; -6.3672272E+02;3;  4.7182742E-01;  0.0000000E+00; -1.7729700E-01;0; -9.5563000E-03;  3.9936832E+04;  0.0000000E+00;  5.6605577E-01;  4.0000000E+04;  0.0000000E+00;  4.0007703E+04; -9.6262693E-03;  0.0000000E+00;  6.9969443E-05;  1.2977302E+03;
  3.3161670E-01;  9.9999998E-03;  6.9997258E-02;4496; -5.6549013E-03;  0.0000000E+00;  3.6070858E-05;  1.0003163E+03;  1.0000000E-01;  2.6201727E+02;3;  5.4655522E-01;  0.0000000E+00; -7.5498991E-02;0; -9.9695986E-03;  4.0029273E+04;  0.0000000E+00; -1.6787866E-02;  4.0000000E+04;  0.0000000E+00;  3.9999328E+04; -1.0290293E-02;  0.0000000E+00;  3.2069482E-04;  1.4698546E+02;
  3.3160532E-01;  9.9999998E-03;  7.9992108E-02;4497; -5.6214565E-03;  0.0000000E+00;  4.3931763E-05;  1.0003612E+03;  1.0000000E-01;  2.9925079E+02;3;  5.4470462E-01;  0.0000000E+00; -8.7075934E-02;0; -9.8589873E-03;  4.0033656E+04;  0.0000000E+00; -4.2115957E-02;  4.0000000E+04;  0.0000000E+00;  3.9998488E+04; -1.0156550E-02;  0.0000000E+00;  2.9756327E-04;  2.5622150E+02;
  3.3158144E-01;  9.9999998E-03;  8.9988500E-02;4498; -5.5862749E-03;  0.0000000E+00;  4.9572736E-05;  1.0004211E+03;  1.0000000E-01;  3.4892841E+02;3;  5.4319167E-01;  0.0000000E+00; -9.8879442E-02;0; -9.7571472E-03;  4.0039426E+04;  0.0000000E+00; -7.6087467E-02;  4.0000000E+04;  0.0000000E+00;  3.9997172E+04; -1.0034357E-02;  0.0000000E+00;  2.7721038E-04;  4.0616095E+02;
  3.3154240E-01;  9.9999998E-03;  9.9987924E-02;4499; -5.5493284E-03;  0.0000000E+00;  5.2235991E-05;  1.0004900E+03;  1.0000000E-01;  4.0591446E+02;3;  5.4210383E-01;  0.0000000E+00; -1.0985366E-01;0; -9.6678920E-03;  4.0046680E+04;  0.0000000E+00; -1.1674999E-01;  4.0000000E+04;  0.0000000E+00;  3.9996148E+04; -9.9294549E-03;  0.0000000E+00;  2.6156241E-04;  5.7331403E+02;
  3.3148828E-01;  9.9999998E-03;  1.0999171E-01;4500; -5.5101486E-03;  0.0000000E+00;  5.2203643E-05;  1.0005695E+03;  1.0000000E-01;  4.7178912E+02;3;  5.4124331E-01;  0.0000000E+00; -1.2007105E-01;0; -9.5936032E-03;  4.0053762E+04;  0.0000000E+00; -1.6018398E-01;  4.0000000E+04;  0.0000000E+00;  3.9994883E+04; -9.8453620E-03;  0.0000000E+00;  2.5175887E-04;  7.2946100E+02;
  3.3142009E-01;  9.9999998E-03;  1.2000260E-01;4501; -5.4678801E-03;  0.0000000E+00;  5.0371891E-05;  1.0006448E+03;  1.0000000E-01;  5.3420709E+02;3;  5.4081082E-01;  0.0000000E+00; -1.2906429E-01;0; -9.5352251E-03;  4.0060613E+04;  0.0000000E+00; -2.0034970E-01;  4.0000000E+04;  0.0000000E+00;  3.9994082E+04; -9.7828461E-03;  0.0000000E+00;  2.4762121E-04;  8.4574744E+02;
  3.3134809E-01;  9.9999998E-03;  1.3002047E-01;4502; -5.4214816E-03;  0.0000000E+00;  4.7984340E-05;  1.0007079E+03;  1.0000000E-01;  5.8645258E+02;3;  5.4062057E-01;  0.0000000E+00; -1.3729514E-01;0; -9.4923219E-03;  4.0066121E+04;  0.0000000E+00; -2.2938289E-01;  4.0000000E+04;  0.0000000E+00;  3.9994043E+04; -9.7396038E-03;  0.0000000E+00;  2.4728163E-04;  8.9807874E+02;
  3.3129439E-01;  9.9999998E-03;  1.4003253E-01;4503; -5.3698774E-03;  0.0000000E+00;  4.6548161E-05;  1.0007490E+03;  1.0000000E-01;  6.2052563E+02;3;  5.4016668E-01;  0.0000000E+00; -1.4700739E-01;0; -9.4635151E-03;  4.0068988E+04;  0.0000000E+00; -2.3855624E-01;  4.0000000E+04;  0.0000000E+00;  3.9994426E+04; -9.7105727E-03;  0.0000000E+00;  2.4705750E-04;  8.7081293E+02;
  3.3127242E-01;  9.9999998E-03;  1.5003699E-01;4504; -5.3118891E-03;  0.0000000E+00;  4.7854748E-05;  1.0007488E+03;  1.0000000E-01;  6.2042688E+02;3;  5.3926378E-01;  0.0000000E+00; -1.5855792E-01;0; -9.4470326E-03;  4.0068207E+04;  0.0000000E+00; -2.1987870E-01;  4.0000000E+04;  0.0000000E+00;  3.9995172E+04; -9.6889418E-03;  0.0000000E+00;  2.4190928E-04;  7.5820880E+02;
  3.3127880E-01;  9.9999998E-03;  1.6003686E-01;4505; -5.2465010E-03;  0.0000000E+00;  5.3857355E-05;  1.0006965E+03;  1.0000000E-01;  5.7697131E+02;3;  5.3830224E-01;  0.0000000E+00; -1.7106065E-01;0; -9.4408644E-03;  4.0062645E+04;  0.0000000E+00; -1.6792637E-01;  4.0000000E+04;  0.0000000E+00;  3.9996523E+04; -9.6677039E-03;  0.0000000E+00;  2.2683943E-04;  5.6704578E+02;
  3.3130503E-01;  9.9999998E-03;  1.7003579E-01;4506; -5.1735393E-03;  0.0000000E+00;  6.5616703E-05;  1.0005950E+03;  1.0000000E-01;  4.9292432E+02;3;  5.3720200E-01;  0.0000000E+00; -1.8274562E-01;0; -9.4417920E-03;  4.0052582E+04;  0.0000000E+00; -8.1609413E-02;  4.0000000E+04;  0.0000000E+00;  3.9998301E+04; -9.6404133E-03;  0.0000000E+00;  1.9862148E-04;  3.1589969E+02;
  3.3134210E-01;  9.9999998E-03;  1.8003693E-01;4507; -5.0939023E-03;  0.0000000E+00;  8.2658516E-05;  1.0004301E+03;  1.0000000E-01;  3.5633560E+02;3;  5.3656280E-01;  0.0000000E+00; -1.9410937E-01;0; -9.4444389E-03;  4.0038285E+04;  0.0000000E+00;  3.4572113E-02;  4.0000000E+04;  0.0000000E+00;  3.9999965E+04; -9.6022068E-03;  0.0000000E+00;  1.5776830E-04;  7.4308517E+01;
  3.3138499E-01;  9.9999998E-03;  1.9004054E-01;4508; -5.0102146E-03;  0.0000000E+00;  1.0095304E-04;  1.0002225E+03;  1.0000000E-01;  1.8438985E+02;3;  5.3619623E-01;  0.0000000E+00; -2.0714173E-01;0; -9.4407555E-03;  4.0020312E+04;  0.0000000E+00;  1.7054860E-01;  4.0000000E+04;  0.0000000E+00;  4.0001500E+04; -9.5503638E-03;  0.0000000E+00;  1.0960861E-04;  2.8378223E+02;
  3.3141813E-01;  9.9999998E-03;  2.0004344E-01;4509; -4.9253786E-03;  0.0000000E+00;  1.1388477E-04;  9.9998627E+02;  1.0000000E-01; -1.1357703E+01;3;  5.3704637E-01;  0.0000000E+00; -2.1749961E-01;0; -9.4235865E-03;  4.0000355E+04;  0.0000000E+00;  3.1123370E-01;  4.0000000E+04;  0.0000000E+00;  4.0002270E+04; -9.4853295E-03;  0.0000000E+00;  6.1742816E-05;  5.2695374E+02;
  3.3142772E-01;  9.9999998E-03;  2.1003973E-01;4510; -4.8413770E-03;  0.0000000E+00;  1.1412877E-04;  9.9973145E+02;  1.0000000E-01; -2.2251222E+02;3;  5.3858292E-01;  0.0000000E+00; -2.2612952E-01;0; -9.3950164E-03;  3.9979859E+04;  0.0000000E+00;  4.3547580E-01;  4.0000000E+04;  0.0000000E+00;  4.0002469E+04; -9.4101848E-03;  0.0000000E+00;  1.5168092E-05;  7.1873584E+02;
  3.3141410E-01;  9.9999998E-03;  2.2002688E-01;4511; -4.7581424E-03;  0.0000000E+00;  1.0275297E-04;  9.9949548E+02;  1.0000000E-01; -4.1796350E+02;3;  5.3972822E-01;  0.0000000E+00; -2.3022999E-01;0; -9.3673095E-03;  3.9960168E+04;  0.0000000E+00;  5.1983964E-01;  4.0000000E+04;  0.0000000E+00;  4.0003312E+04; -9.3298545E-03;  0.0000000E+00; -3.7454553E-05;  8.9481738E+02;
  3.3137918E-01;  9.9999998E-03;  2.3001178E-01;4512; -4.6740221E-03;  0.0000000E+00;  9.2783710E-05;  9.9929407E+02;  1.0000000E-01; -5.8487238E+02;3;  5.3556669E-01;  0.0000000E+00; -2.2954102E-01;0; -9.3338052E-03;  3.9942965E+04;  0.0000000E+00;  5.4564494E-01;  4.0000000E+04;  0.0000000E+00;  4.0005824E+04; -9.2507228E-03;  0.0000000E+00; -8.3082072E-05;  1.1000287E+03;
  3.4157285E-01;  9.9999998E-03;  7.0004225E-02;4557; -5.7553123E-03;  0.0000000E+00;  3.7769547E-05;  1.0004077E+03;  1.0000000E-01;  3.3776822E+02;3;  5.7697362E-01;  0.0000000E+00; -8.1698142E-02;0; -9.7227450E-03;  4.0036207E+04;  0.0000000E+00;  1.5247012E-03;  4.0000000E+04;  0.0000000E+00;  3.9999125E+04; -1.0028746E-02;  0.0000000E+00;  3.0600102E-04;  1.6578247E+02;
  3.4157440E-01;  9.9999998E-03;  7.9999328E-02;4558; -5.7184235E-03;  0.0000000E+00;  4.8451297E-05;  1.0004219E+03;  1.0000000E-01;  3.4952097E+02;3;  5.7484108E-01;  0.0000000E+00; -9.5284387E-02;0; -9.6226465E-03;  4.0038359E+04;  0.0000000E+00; -1.8450735E-02;  4.0000000E+04;  0.0000000E+00;  3.9998410E+04; -9.9054230E-03;  0.0000000E+00;  2.8277672E-04;  2.5477107E+02;
  3.4157321E-01;  9.9999998E-03;  8.9994639E-02;4559; -5.6792595E-03;  0.0000000E+00;  5.7178371E-05;  1.0004493E+03;  1.0000000E-01;  3.7223639E+02;3;  5.7299918E-01;  0.0000000E+00; -1.0813311E-01;0; -9.5296819E-03;  4.0041562E+04;  0.0000000E+00; -4.8179857E-02;  4.0000000E+04;  0.0000000E+00;  3.9997254E+04; -9.7888960E-03;  0.0000000E+00;  2.5921376E-04;  3.9079800E+02;
  3.4156725E-01;  9.9999998E-03;  9.9991180E-02;4560; -5.6381850E-03;  0.0000000E+00;  6.2896172E-05;  1.0004851E+03;  1.0000000E-01;  4.0186517E+02;3;  5.7130021E-01;  0.0000000E+00; -1.2141088E-01;0; -9.4469693E-03;  4.0045949E+04;  0.0000000E+00; -8.7024383E-02;  4.0000000E+04;  0.0000000E+00;  3.9996195E+04; -9.6843001E-03;  0.0000000E+00;  2.3733122E-04;  5.5371344E+02;
  3.4155208E-01;  9.9999998E-03;  1.0999056E-01;4561; -5.5951946E-03;  0.0000000E+00;  6.5197753E-05;  1.0005334E+03;  1.0000000E-01;  4.4196280E+02;3;  5.7010996E-01;  0.0000000E+00; -1.3420634E-01;0; -9.3763070E-03;  4.0050887E+04;  0.0000000E+00; -1.3251151E-01;  4.0000000E+04;  0.0000000E+00;  3.9995020E+04; -9.5950607E-03;  0.0000000E+00;  2.1875375E-04;  7.1752148E+02;
  3.4152094E-01;  9.9999998E-03;  1.1999505E-01;4562; -5.5499007E-03;  0.0000000E+00;  6.4761829E-05;  1.0005821E+03;  1.0000000E-01;  4.8225797E+02;3;  5.6936079E-01;  0.0000000E+00; -1.4493266E-01;0; -9.3185259E-03;  4.0055957E+04;  0.0000000E+00; -1.7995420E-01;  4.0000000E+04;  0.0000000E+00;  3.9993953E+04; -9.5226159E-03;  0.0000000E+00;  2.0409022E-04;  8.5417993E+02;
  3.4146768E-01;  9.9999998E-03;  1.3000742E-01;4563; -5.5015530E-03;  0.0000000E+00;  6.2721228E-05;  1.0006252E+03;  1.0000000E-01;  5.1801007E+02;3;  5.6898940E-01;  0.0000000E+00; -1.5422544E-01;0; -9.2735346E-03;  4.0059875E+04;  0.0000000E+00; -2.2239478E-01;  4.0000000E+04;  0.0000000E+00;  3.9993477E+04; -9.4660027E-03;  0.0000000E+00;  1.9246775E-04;  9.3800568E+02;
  3.4139568E-01;  9.9999998E-03;  1.4002311E-01;4564; -5.4492424E-03;  0.0000000E+00;  6.0405462E-05;  1.0006520E+03;  1.0000000E-01;  5.4013287E+02;3;  5.6818140E-01;  0.0000000E+00; -1.6377823E-01;0; -9.2406627E-03;  4.0062141E+04;  0.0000000E+00; -2.5111121E-01;  4.0000000E+04;  0.0000000E+00;  3.9993340E+04; -9.4219334E-03;  0.0000000E+00;  1.8127097E-04;  9.4986816E+02;
  3.4133071E-01;  9.9999998E-03;  1.5003508E-01;4565; -5.3918804E-03;  0.0000000E+00;  5.9527341E-05;  1.0006544E+03;  1.0000000E-01;  5.4210815E+02;3;  5.6727928E-01;  0.0000000E+00; -1.7425759E-01;0; -9.2186611E-03;  4.0061656E+04;  0.0000000E+00; -2.5688535E-01;  4.0000000E+04;  0.0000000E+00;  3.9994160E+04; -9.3848743E-03;  0.0000000E+00;  1.6621346E-04;  8.7889832E+02;
  3.4129712E-01;  9.9999998E-03;  1.6004017E-01;4566; -5.3285556E-03;  0.0000000E+00;  6.1588398E-05;  1.0006180E+03;  1.0000000E-01;  5.1208429E+02;3;  5.6592375E-01;  0.0000000E+00; -1.8677801E-01;0; -9.2056924E-03;  4.0057660E+04;  0.0000000E+00; -2.3194408E-01;  4.0000000E+04;  0.0000000E+00;  3.9995527E+04; -9.3484372E-03;  0.0000000E+00;  1.4274486E-04;  7.2555658E+02;
  3.4129810E-01;  9.9999998E-03;  1.7004153E-01;4567; -5.2584391E-03;  0.0000000E+00;  6.8112087E-05;  1.0005385E+03;  1.0000000E-01;  4.4611084E+02;3;  5.6462753E-01;  0.0000000E+00; -2.0082195E-01;0; -9.1991611E-03;  4.0049492E+04;  0.0000000E+00; -1.7221232E-01;  4.0000000E+04;  0.0000000E+00;  3.9996758E+04; -9.3069859E-03;  0.0000000E+00;  1.0782442E-04;  5.0260666E+02;
  3.4132352E-01;  9.9999998E-03;  1.8004295E-01;4568; -5.1816558E-03;  0.0000000E+00;  7.8888079E-05;  1.0004057E+03;  1.0000000E-01;  3.3608926E+02;3;  5.6336248E-01;  0.0000000E+00; -2.1380331E-01;0; -9.1949478E-03;  4.0037660E+04;  0.0000000E+00; -7.9153962E-02;  4.0000000E+04;  0.0000000E+00;  3.9998492E+04; -9.2564998E-03;  0.0000000E+00;  6.1551807E-05;  2.3351624E+02;
  3.4135491E-01;  9.9999998E-03;  1.9004619E-01;4569; -5.0996048E-03;  0.0000000E+00;  9.1316622E-05;  1.0002336E+03;  1.0000000E-01;  1.9357477E+02;3;  5.6278217E-01;  0.0000000E+00; -2.2555883E-01;0; -9.1868294E-03;  4.0021898E+04;  0.0000000E+00;  3.9693289E-02;  4.0000000E+04;  0.0000000E+00;  4.0000125E+04; -9.1950875E-03;  0.0000000E+00;  8.2584584E-06;  5.6090046E+01;
  3.4137806E-01;  9.9999998E-03;  2.0005044E-01;4570; -5.0146165E-03;  0.0000000E+00;  9.9804362E-05;  1.0000220E+03;  1.0000000E-01;  1.8271088E+01;3;  5.6307924E-01;  0.0000000E+00; -2.3633194E-01;0; -9.1686491E-03;  4.0004242E+04;  0.0000000E+00;  1.7148834E-01;  4.0000000E+04;  0.0000000E+00;  4.0001207E+04; -9.1230264E-03;  0.0000000E+00; -4.5622735E-05;  2.9584845E+02;
  3.4139132E-01;  9.9999998E-03;  2.1005128E-01;4571; -4.9285749E-03;  0.0000000E+00;  9.6185096E-05;  9.9978198E+02;  1.0000000E-01; -1.8063687E+02;3;  5.6470692E-01;  0.0000000E+00; -2.4415205E-01;0; -9.1433413E-03;  3.9984824E+04;  0.0000000E+00;  3.0048013E-01;  4.0000000E+04;  0.0000000E+00;  4.0001453E+04; -9.0422807E-03;  0.0000000E+00; -1.0106062E-04;  4.8089633E+02;
  3.4139559E-01;  9.9999998E-03;  2.2004119E-01;4572; -4.8425994E-03;  0.0000000E+00;  7.6701181E-05;  9.9954297E+02;  1.0000000E-01; -3.7865594E+02;3;  5.6752008E-01;  0.0000000E+00; -2.4997884E-01;0; -9.1325399E-03;  3.9965664E+04;  0.0000000E+00;  4.0947136E-01;  4.0000000E+04;  0.0000000E+00;  4.0001926E+04; -8.9563243E-03;  0.0000000E+00; -1.7621524E-04;  6.5507556E+02;
  3.4138551E-01;  9.9999998E-03;  2.3002352E-01;4573; -4.7547799E-03;  0.0000000E+00;  6.1007217E-05;  9.9933801E+02;  1.0000000E-01; -5.4842896E+02;3;  5.7070351E-01;  0.0000000E+00; -2.5336897E-01;0; -9.1255158E-03;  3.9947492E+04;  0.0000000E+00;  4.8074818E-01;  4.0000000E+04;  0.0000000E+00;  4.0004340E+04; -8.8698538E-03;  0.0000000E+00; -2.5566239E-04;  9.0046796E+02;
  3.5151315E-01;  9.9999998E-03;  7.0009589E-02;4618; -5.8469260E-03;  0.0000000E+00;  3.9312141E-05;  1.0004589E+03;  1.0000000E-01;  3.8023615E+02;3;  6.0837114E-01;  0.0000000E+00; -8.9366101E-02;0; -9.4887083E-03;  4.0040477E+04;  0.0000000E+00;  1.9880803E-02;  4.0000000E+04;  0.0000000E+00;  3.9998453E+04; -9.7642681E-03;  0.0000000E+00;  2.7555984E-04;  2.0538788E+02;
  3.5151246E-01;  9.9999998E-03;  8.0006786E-02;4619; -5.8082882E-03;  0.0000000E+00;  5.1730953E-05;  1.0004489E+03;  1.0000000E-01;  3.7184134E+02;3;  6.0573369E-01;  0.0000000E+00; -1.0462736E-01;0; -9.4004013E-03;  4.0040777E+04;  0.0000000E+00;  7.0058759E-03;  4.0000000E+04;  0.0000000E+00;  3.9997875E+04; -9.6529759E-03;  0.0000000E+00;  2.5257451E-04;  2.7332227E+02;
  3.5151145E-01;  9.9999998E-03;  9.0003408E-02;4620; -5.7664695E-03;  0.0000000E+00;  6.2490930E-05;  1.0004535E+03;  1.0000000E-01;  3.7569308E+02;3;  6.0349798E-01;  0.0000000E+00; -1.1904777E-01;0; -9.3177436E-03;  4.0041574E+04;  0.0000000E+00; -1.5762463E-02;  4.0000000E+04;  0.0000000E+00;  3.9996879E+04; -9.5442282E-03;  0.0000000E+00;  2.2648416E-04;  3.8799887E+02;
  3.5150909E-01;  9.9999998E-03;  1.0000022E-01;4621; -5.7221423E-03;  0.0000000E+00;  7.0103590E-05;  1.0004612E+03;  1.0000000E-01;  3.8211264E+02;3;  6.0150892E-01;  0.0000000E+00; -1.3444601E-01;0; -9.2430096E-03;  4.0043652E+04;  0.0000000E+00; -4.8900723E-02;  4.0000000E+04;  0.0000000E+00;  3.9995742E+04; -9.4422847E-03;  0.0000000E+00;  1.9927484E-04;  5.3501416E+02;
  3.5150295E-01;  9.9999998E-03;  1.0999811E-01;4622; -5.6757126E-03;  0.0000000E+00;  7.3888565E-05;  1.0004805E+03;  1.0000000E-01;  3.9811218E+02;3;  5.9984702E-01;  0.0000000E+00; -1.4884546E-01;0; -9.1774724E-03;  4.0046543E+04;  0.0000000E+00; -9.1250606E-02;  4.0000000E+04;  0.0000000E+00;  3.9994594E+04; -9.3503483E-03;  0.0000000E+00;  1.7287623E-04;  6.9270471E+02;
  3.5148895E-01;  9.9999998E-03;  1.1999800E-01;4623; -5.6272466E-03;  0.0000000E+00;  7.4249947E-05;  1.0005034E+03;  1.0000000E-01;  4.1707462E+02;3;  5.9857911E-01;  0.0000000E+00; -1.6112246E-01;0; -9.1215372E-03;  4.0049406E+04;  0.0000000E+00; -1.3948724E-01;  4.0000000E+04;  0.0000000E+00;  3.9993613E+04; -9.2700077E-03;  0.0000000E+00;  1.4847006E-04;  8.3582300E+02;
  3.5146287E-01;  9.9999998E-03;  1.3000089E-01;4624; -5.5764290E-03;  0.0000000E+00;  7.2212686E-05;  1.0005228E+03;  1.0000000E-01;  4.3307416E+02;3;  5.9763825E-01;  0.0000000E+00; -1.7183377E-01;0; -9.0751024E-03;  4.0051871E+04;  0.0000000E+00; -1.8779692E-01;  4.0000000E+04;  0.0000000E+00;  3.9993270E+04; -9.2010312E-03;  0.0000000E+00;  1.2592846E-04;  9.3899933E+02;
  3.5142210E-01;  9.9999998E-03;  1.4000849E-01;4625; -5.5225976E-03;  0.0000000E+00;  6.9006383E-05;  1.0005359E+03;  1.0000000E-01;  4.4403683E+02;3;  5.9671944E-01;  0.0000000E+00; -1.8190783E-01;0; -9.0378700E-03;  4.0053164E+04;  0.0000000E+00; -2.2804484E-01;  4.0000000E+04;  0.0000000E+00;  3.9992918E+04; -9.1413511E-03;  0.0000000E+00;  1.0348154E-04;  9.8058435E+02;
  3.5136938E-01;  9.9999998E-03;  1.5002091E-01;4626; -5.4648118E-03;  0.0000000E+00;  6.5889661E-05;  1.0005319E+03;  1.0000000E-01;  4.4067889E+02;3;  5.9572750E-01;  0.0000000E+00; -1.9181970E-01;0; -9.0096099E-03;  4.0052422E+04;  0.0000000E+00; -2.5070205E-01;  4.0000000E+04;  0.0000000E+00;  3.9993383E+04; -9.0874359E-03;  0.0000000E+00;  7.7826175E-05;  9.4529175E+02;
  3.5132122E-01;  9.9999998E-03;  1.6003232E-01;4627; -5.4020183E-03;  0.0000000E+00;  6.4181455E-05;  1.0004990E+03;  1.0000000E-01;  4.1342041E+02;3;  5.9418142E-01;  0.0000000E+00; -2.0315586E-01;0; -8.9893583E-03;  4.0048859E+04;  0.0000000E+00; -2.4672304E-01;  4.0000000E+04;  0.0000000E+00;  3.9994496E+04; -9.0346439E-03;  0.0000000E+00;  4.5285506E-05;  8.2813275E+02;
  3.5129216E-01;  9.9999998E-03;  1.7003904E-01;4628; -5.3333133E-03;  0.0000000E+00;  6.4979053E-05;  1.0004377E+03;  1.0000000E-01;  3.6265640E+02;3;  5.9251380E-01;  0.0000000E+00; -2.1550240E-01;0; -8.9752842E-03;  4.0042289E+04;  0.0000000E+00; -2.1005815E-01;  4.0000000E+04;  0.0000000E+00;  3.9995734E+04; -8.9784842E-03;  0.0000000E+00;  3.2003638E-06;  6.3702924E+02;
  3.5128650E-01;  9.9999998E-03;  1.8004288E-01;4629; -5.2582240E-03;  0.0000000E+00;  6.8942463E-05;  1.0003295E+03;  1.0000000E-01;  2.7297992E+02;3;  5.9087741E-01;  0.0000000E+00; -2.2924988E-01;0; -8.9642899E-03;  4.0032219E+04;  0.0000000E+00; -1.3988836E-01;  4.0000000E+04;  0.0000000E+00;  3.9997203E+04; -8.9154942E-03;  0.0000000E+00; -4.8795471E-05;  3.9137622E+02;
  3.5129967E-01;  9.9999998E-03;  1.9004725E-01;4630; -5.1773163E-03;  0.0000000E+00;  7.5044780E-05;  1.0001821E+03;  1.0000000E-01;  1.5090932E+02;3;  5.8980334E-01;  0.0000000E+00; -2.4204950E-01;0; -8.9515643E-03;  4.0019051E+04;  0.0000000E+00; -4.1469082E-02;  4.0000000E+04;  0.0000000E+00;  3.9999215E+04; -8.8438913E-03;  0.0000000E+00; -1.0767305E-04;  1.2566776E+02;
  3.5132188E-01;  9.9999998E-03;  2.0005329E-01;4631; -5.0924690E-03;  0.0000000E+00;  7.8604702E-05;  1.0000021E+03;  1.0000000E-01;  1.7777275E+00;3;  5.8951974E-01;  0.0000000E+00; -2.5262454E-01;0; -8.9323707E-03;  4.0003348E+04;  0.0000000E+00;  7.4647561E-02;  4.0000000E+04;  0.0000000E+00;  4.0000578E+04; -8.7638255E-03;  0.0000000E+00; -1.6854507E-04;  1.1615335E+02;
  3.5134405E-01;  9.9999998E-03;  2.1005683E-01;4632; -5.0055757E-03;  0.0000000E+00;  7.1146038E-05;  9.9978516E+02;  1.0000000E-01; -1.7797028E+02;3;  5.9083819E-01;  0.0000000E+00; -2.5970265E-01;0; -8.9112325E-03;  3.9985832E+04;  0.0000000E+00;  1.9466458E-01;  4.0000000E+04;  0.0000000E+00;  4.0000977E+04; -8.6771790E-03;  0.0000000E+00; -2.3405335E-04;  2.9401492E+02;
  3.5136023E-01;  9.9999998E-03;  2.2004880E-01;4633; -4.9182242E-03;  0.0000000E+00;  4.7624166E-05;  9.9955768E+02;  1.0000000E-01; -3.6645877E+02;3;  5.9357584E-01;  0.0000000E+00; -2.6254818E-01;0; -8.9131948E-03;  3.9967727E+04;  0.0000000E+00;  3.0396110E-01;  4.0000000E+04;  0.0000000E+00;  4.0001035E+04; -8.5870549E-03;  0.0000000E+00; -3.2613942E-04;  4.6103076E+02;
  3.5136360E-01;  9.9999998E-03;  2.3003006E-01;4634; -4.8286528E-03;  0.0000000E+00;  3.0401810E-05;  9.9936188E+02;  1.0000000E-01; -5.2867639E+02;3;  5.9700418E-01;  0.0000000E+00; -2.6814023E-01;0; -8.9224735E-03;  3.9949855E+04;  0.0000000E+00;  3.8901046E-01;  4.0000000E+04;  0.0000000E+00;  4.0003105E+04; -8.4971618E-03;  0.0000000E+00; -4.2531142E-04;  7.2842938E+02;
  3.6145878E-01;  9.9999998E-03;  7.0013687E-02;4679; -5.9325602E-03;  0.0000000E+00;  3.8386082E-05;  1.0004624E+03;  1.0000000E-01;  3.8310028E+02;3;  6.4103496E-01;  0.0000000E+00; -9.7094946E-02;0; -9.2887413E-03;  4.0040938E+04;  0.0000000E+00;  3.6080435E-02;  4.0000000E+04;  0.0000000E+00;  3.9998504E+04; -9.5154699E-03;  0.0000000E+00;  2.2672847E-04;  2.5495738E+02;
  3.6145639E-01;  9.9999998E-03;  8.0012947E-02;4680; -5.8938186E-03;  0.0000000E+00;  5.1178344E-05;  1.0004393E+03;  1.0000000E-01;  3.6394034E+02;3;  6.3838017E-01;  0.0000000E+00; -1.1330584E-01;0; -9.2113428E-03;  4.0039719E+04;  0.0000000E+00;  3.0906608E-02;  4.0000000E+04;  0.0000000E+00;  3.9997945E+04; -9.4157252E-03;  0.0000000E+00;  2.0438244E-04;  3.0626678E+02;
  3.6145744E-01;  9.9999998E-03;  9.0010941E-02;4681; -5.8508790E-03;  0.0000000E+00;  6.2477142E-05;  1.0004233E+03;  1.0000000E-01;  3.5070612E+02;3;  6.3575423E-01;  0.0000000E+00; -1.3007802E-01;0; -9.1380505E-03;  4.0039047E+04;  0.0000000E+00;  1.6633755E-02;  4.0000000E+04;  0.0000000E+00;  3.9997035E+04; -9.3147531E-03;  0.0000000E+00;  1.7670308E-04;  3.9795288E+02;
  3.6146113E-01;  9.9999998E-03;  1.0000829E-01;4682; -5.8045308E-03;  0.0000000E+00;  7.0661539E-05;  1.0004161E+03;  1.0000000E-01;  3.4468161E+02;3;  6.3293803E-01;  0.0000000E+00; -1.4790446E-01;0; -9.0705054E-03;  4.0039598E+04;  0.0000000E+00; -8.0952868E-03;  4.0000000E+04;  0.0000000E+00;  3.9995895E+04; -9.2160255E-03;  0.0000000E+00;  1.4551995E-04;  5.2153778E+02;
  3.6146194E-01;  9.9999998E-03;  1.1000535E-01;4683; -5.7554105E-03;  0.0000000E+00;  7.4952521E-05;  1.0004177E+03;  1.0000000E-01;  3.4606430E+02;3;  6.3056022E-01;  0.0000000E+00; -1.6366796E-01;0; -9.0095410E-03;  4.0040695E+04;  0.0000000E+00; -4.3237679E-02;  4.0000000E+04;  0.0000000E+00;  3.9994684E+04; -9.1224378E-03;  0.0000000E+00;  1.1289724E-04;  6.6122009E+02;
  3.6145449E-01;  9.9999998E-03;  1.2000267E-01;4684; -5.7039903E-03;  0.0000000E+00;  7.5449003E-05;  1.0004199E+03;  1.0000000E-01;  3.4794077E+02;3;  6.2869251E-01;  0.0000000E+00; -1.7715217E-01;0; -8.9552738E-03;  4.0042129E+04;  0.0000000E+00; -8.6747639E-02;  4.0000000E+04;  0.0000000E+00;  3.9993844E+04; -9.0356916E-03;  0.0000000E+00;  8.0417376E-05;  7.9638098E+02;
  3.6143655E-01;  9.9999998E-03;  1.3000126E-01;4685; -5.6503532E-03;  0.0000000E+00;  7.3003110E-05;  1.0004219E+03;  1.0000000E-01;  3.4952097E+02;3;  6.2717253E-01;  0.0000000E+00; -1.8851504E-01;0; -8.9075668E-03;  4.0043312E+04;  0.0000000E+00; -1.3409020E-01;  4.0000000E+04;  0.0000000E+00;  3.9992918E+04; -8.9561064E-03;  0.0000000E+00;  4.8539310E-05;  9.0452435E+02;
  3.6140808E-01;  9.9999998E-03;  1.4000259E-01;4686; -5.5942023E-03;  0.0000000E+00;  6.8731773E-05;  1.0004183E+03;  1.0000000E-01;  3.4655811E+02;3;  6.2586075E-01;  0.0000000E+00; -1.9908564E-01;0; -8.8663232E-03;  4.0043355E+04;  0.0000000E+00; -1.7813525E-01;  4.0000000E+04;  0.0000000E+00;  3.9992918E+04; -8.8825151E-03;  0.0000000E+00;  1.6192309E-05;  9.6380273E+02;
  3.6136949E-01;  9.9999998E-03;  1.5000848E-01;4687; -5.5348543E-03;  0.0000000E+00;  6.3778811E-05;  1.0004023E+03;  1.0000000E-01;  3.3332391E+02;3;  6.2447119E-01;  0.0000000E+00; -2.0926014E-01;0; -8.8317692E-03;  4.0042098E+04;  0.0000000E+00; -2.0978335E-01;  4.0000000E+04;  0.0000000E+00;  3.9993070E+04; -8.8126119E-03;  0.0000000E+00; -1.9157640E-05;  9.5555676E+02;
  3.6132228E-01;  9.9999998E-03;  1.6001919E-01;4688; -5.4713278E-03;  0.0000000E+00;  5.9141534E-05;  1.0003704E+03;  1.0000000E-01;  3.0685553E+02;3;  6.2276530E-01;  0.0000000E+00; -2.1964379E-01;0; -8.8037532E-03;  4.0038551E+04;  0.0000000E+00; -2.1977277E-01;  4.0000000E+04;  0.0000000E+00;  3.9993867E+04; -8.7434556E-03;  0.0000000E+00; -6.0297636E-05;  8.6888892E+02;
  3.6128125E-01;  9.9999998E-03;  1.7002995E-01;4689; -5.4026679E-03;  0.0000000E+00;  5.5733497E-05;  1.0003063E+03;  1.0000000E-01;  2.5372122E+02;3;  6.2089074E-01;  0.0000000E+00; -2.3041503E-01;0; -8.7812459E-03;  4.0032805E+04;  0.0000000E+00; -2.0120795E-01;  4.0000000E+04;  0.0000000E+00;  3.9995355E+04; -8.6718909E-03;  0.0000000E+00; -1.0935479E-04;  7.0671631E+02;
  3.6125934E-01;  9.9999998E-03;  1.8003781E-01;4690; -5.3282646E-03;  0.0000000E+00;  5.4112537E-05;  1.0002250E+03;  1.0000000E-01;  1.8646387E+02;3;  6.1919224E-01;  0.0000000E+00; -2.4106371E-01;0; -8.7622879E-03;  4.0024125E+04;  0.0000000E+00; -1.5190734E-01;  4.0000000E+04;  0.0000000E+00;  3.9996824E+04; -8.5953297E-03;  0.0000000E+00; -1.6695786E-04;  4.8613190E+02;
  3.6125690E-01;  9.9999998E-03;  1.9004421E-01;4691; -5.2481694E-03;  0.0000000E+00;  5.3954984E-05;  1.0000987E+03;  1.0000000E-01;  8.1775467E+01;3;  6.1762267E-01;  0.0000000E+00; -2.5234041E-01;0; -8.7438785E-03;  4.0012703E+04;  0.0000000E+00; -7.5374968E-02;  4.0000000E+04;  0.0000000E+00;  3.9998191E+04; -8.5125072E-03;  0.0000000E+00; -2.3137158E-04;  2.3832635E+02;
  3.6126971E-01;  9.9999998E-03;  2.0005050E-01;4692; -5.1634805E-03;  0.0000000E+00;  5.2747135E-05;  9.9993921E+02;  1.0000000E-01; -5.0368946E+01;3;  6.1683196E-01;  0.0000000E+00; -2.6232532E-01;0; -8.7228687E-03;  3.9998996E+04;  0.0000000E+00;  1.9907933E-02;  4.0000000E+04;  0.0000000E+00;  3.9999578E+04; -8.4237093E-03;  0.0000000E+00; -2.9915915E-04;  3.8393909E+01;
  3.6129084E-01;  9.9999998E-03;  2.1005447E-01;4693; -5.0762696E-03;  0.0000000E+00;  4.3642616E-05;  9.9975348E+02;  1.0000000E-01; -2.0424113E+02;3;  6.1751860E-01;  0.0000000E+00; -2.6999381E-01;0; -8.7031070E-03;  3.9983375E+04;  0.0000000E+00;  1.2227175E-01;  4.0000000E+04;  0.0000000E+00;  3.9999973E+04; -8.3306096E-03;  0.0000000E+00; -3.7249754E-04;  1.7861636E+02;
  3.6131057E-01;  9.9999998E-03;  2.2004776E-01;4694; -4.9883388E-03;  0.0000000E+00;  2.1120533E-05;  9.9955121E+02;  1.0000000E-01; -3.7179196E+02;3;  6.1921710E-01;  0.0000000E+00; -2.7699620E-01;0; -8.7068332E-03;  3.9966645E+04;  0.0000000E+00;  2.1874970E-01;  4.0000000E+04;  0.0000000E+00;  4.0000668E+04; -8.2360655E-03;  0.0000000E+00; -4.7076782E-04;  3.4153018E+02;
  3.6132064E-01;  9.9999998E-03;  2.3003015E-01;4695; -4.8983195E-03;  0.0000000E+00;  7.8062512E-06;  9.9937012E+02;  1.0000000E-01; -5.2186176E+02;3;  6.2199944E-01;  0.0000000E+00; -2.8294528E-01;0; -8.7101348E-03;  3.9949418E+04;  0.0000000E+00;  2.9673511E-01;  4.0000000E+04;  0.0000000E+00;  4.0003516E+04; -8.1432834E-03;  0.0000000E+00; -5.6685129E-04;  6.4630048E+02;
  3.7141567E-01;  9.9999998E-03;  7.0013873E-02;4740; -6.0152495E-03;  0.0000000E+00;  3.3452045E-05;  1.0004232E+03;  1.0000000E-01;  3.5060736E+02;3;  6.7516297E-01;  0.0000000E+00; -1.0388426E-01;0; -9.1387527E-03;  4.0037941E+04;  0.0000000E+00;  4.9231488E-02;  4.0000000E+04;  0.0000000E+00;  3.9997676E+04; -9.2965262E-03;  0.0000000E+00;  1.5777336E-04;  3.0810886E+02;
  3.7142017E-01;  9.9999998E-03;  8.0014795E-02;4741; -5.9777275E-03;  0.0000000E+00;  4.5052107E-05;  1.0003958E+03;  1.0000000E-01;  3.2789197E+02;3;  6.7220008E-01;  0.0000000E+00; -1.2202289E-01;0; -9.0695461E-03;  4.0035961E+04;  0.0000000E+00;  5.1276956E-02;  4.0000000E+04;  0.0000000E+00;  3.9997371E+04; -9.2060054E-03;  0.0000000E+00;  1.3645923E-04;  3.4858862E+02;
  3.7143239E-01;  9.9999998E-03;  9.0014577E-02;4742; -5.9349742E-03;  0.0000000E+00;  5.5387081E-05;  1.0003739E+03;  1.0000000E-01;  3.0981839E+02;3;  6.6917127E-01;  0.0000000E+00; -1.4014515E-01;0; -9.0030450E-03;  4.0035043E+04;  0.0000000E+00;  4.5758668E-02;  4.0000000E+04;  0.0000000E+00;  3.9996926E+04; -9.1112927E-03;  0.0000000E+00;  1.0824739E-04;  4.2061447E+02;
  3.7144956E-01;  9.9999998E-03;  1.0001218E-01;4743; -5.8877384E-03;  0.0000000E+00;  6.3011823E-05;  1.0003588E+03;  1.0000000E-01;  2.9727554E+02;3;  6.6596156E-01;  0.0000000E+00; -1.5890872E-01;0; -8.9404080E-03;  4.0034656E+04;  0.0000000E+00;  3.0738220E-02;  4.0000000E+04;  0.0000000E+00;  3.9996195E+04; -9.0151569E-03;  0.0000000E+00;  7.4749260E-05;  5.1905267E+02;
  3.7146357E-01;  9.9999998E-03;  1.1000788E-01;4744; -5.8368593E-03;  0.0000000E+00;  6.6929111E-05;  1.0003515E+03;  1.0000000E-01;  2.9125101E+02;3;  6.6281319E-01;  0.0000000E+00; -1.7598577E-01;0; -8.8820253E-03;  4.0034973E+04;  0.0000000E+00;  5.3885346E-03;  4.0000000E+04;  0.0000000E+00;  3.9995340E+04; -8.9200130E-03;  0.0000000E+00;  3.7987371E-05;  6.3380151E+02;
  3.7146670E-01;  9.9999998E-03;  1.2000273E-01;4745; -5.7829884E-03;  0.0000000E+00;  6.7190653E-05;  1.0003431E+03;  1.0000000E-01;  2.8423886E+02;3;  6.6024327E-01;  0.0000000E+00; -1.9016898E-01;0; -8.8278139E-03;  4.0035316E+04;  0.0000000E+00; -2.9383985E-02;  4.0000000E+04;  0.0000000E+00;  3.9994141E+04; -8.8275420E-03;  0.0000000E+00; -2.7211223E-07;  7.4990576E+02;
  3.7145555E-01;  9.9999998E-03;  1.2999803E-01;4746; -5.7265507E-03;  0.0000000E+00;  6.4422937E-05;  1.0003330E+03;  1.0000000E-01;  2.7584406E+02;3;  6.5808213E-01;  0.0000000E+00; -2.0160717E-01;0; -8.7775998E-03;  4.0035547E+04;  0.0000000E+00; -7.0378795E-02;  4.0000000E+04;  0.0000000E+00;  3.9993426E+04; -8.7384284E-03;  0.0000000E+00; -3.9171249E-05;  8.4916895E+02;
  3.7143224E-01;  9.9999998E-03;  1.3999519E-01;4747; -5.6676613E-03;  0.0000000E+00;  5.9424168E-05;  1.0003194E+03;  1.0000000E-01;  2.6458511E+02;3;  6.5608209E-01;  0.0000000E+00; -2.1193972E-01;0; -8.7314760E-03;  4.0034758E+04;  0.0000000E+00; -1.1181297E-01;  4.0000000E+04;  0.0000000E+00;  3.9993215E+04; -8.6522335E-03;  0.0000000E+00; -7.9242767E-05;  9.1171570E+02;
  3.7139934E-01;  9.9999998E-03;  1.4999545E-01;4748; -5.6059998E-03;  0.0000000E+00;  5.3082655E-05;  1.0002975E+03;  1.0000000E-01;  2.4641278E+02;3;  6.5428501E-01;  0.0000000E+00; -2.2203544E-01;0; -8.6900052E-03;  4.0033004E+04;  0.0000000E+00; -1.4567846E-01;  4.0000000E+04;  0.0000000E+00;  3.9993422E+04; -8.5676098E-03;  0.0000000E+00; -1.2239555E-04;  9.1812469E+02;
  3.7136084E-01;  9.9999998E-03;  1.5999991E-01;4749; -5.5408790E-03;  0.0000000E+00;  4.6261575E-05;  1.0002549E+03;  1.0000000E-01;  2.1125328E+02;3;  6.5231365E-01;  0.0000000E+00; -2.3169945E-01;0; -8.6534219E-03;  4.0029297E+04;  0.0000000E+00; -1.6331536E-01;  4.0000000E+04;  0.0000000E+00;  3.9993906E+04; -8.4826397E-03;  0.0000000E+00; -1.7078235E-04;  8.5322815E+02;
  3.7132087E-01;  9.9999998E-03;  1.7000909E-01;4750; -5.4713846E-03;  0.0000000E+00;  3.9723080E-05;  1.0001932E+03;  1.0000000E-01;  1.6009424E+02;3;  6.4977938E-01;  0.0000000E+00; -2.4289030E-01;0; -8.6214142E-03;  4.0023594E+04;  0.0000000E+00; -1.5796916E-01;  4.0000000E+04;  0.0000000E+00;  3.9995059E+04; -8.3954567E-03;  0.0000000E+00; -2.2595708E-04;  7.1231860E+02;
  3.7128705E-01;  9.9999998E-03;  1.8002000E-01;4751; -5.3967019E-03;  0.0000000E+00;  3.4311332E-05;  1.0001169E+03;  1.0000000E-01;  9.6886147E+01;3;  6.4753813E-01;  0.0000000E+00; -2.5359988E-01;0; -8.5931355E-03;  4.0015305E+04;  0.0000000E+00; -1.2699515E-01;  4.0000000E+04;  0.0000000E+00;  3.9996660E+04; -8.3046369E-03;  0.0000000E+00; -2.8849870E-04;  5.0799069E+02;
  3.7126645E-01;  9.9999998E-03;  1.9002984E-01;4752; -5.3167385E-03;  0.0000000E+00;  3.0095269E-05;  1.0000097E+03;  1.0000000E-01;  7.9997740E+00;3;  6.4554334E-01;  0.0000000E+00; -2.6405048E-01;0; -8.5670501E-03;  4.0005117E+04;  0.0000000E+00; -7.2668433E-02;  4.0000000E+04;  0.0000000E+00;  3.9998281E+04; -8.2095591E-03;  0.0000000E+00; -3.5749059E-04;  2.6925943E+02;
  3.7126026E-01;  9.9999998E-03;  2.0003843E-01;4753; -5.2322033E-03;  0.0000000E+00;  2.5700283E-05;  9.9987158E+02;  1.0000000E-01; -1.0636736E+02;3;  6.4417815E-01;  0.0000000E+00; -2.7395234E-01;0; -8.5413409E-03;  3.9992543E+04;  0.0000000E+00; -1.6006037E-03;  4.0000000E+04;  0.0000000E+00;  3.9999719E+04; -8.1107328E-03;  0.0000000E+00; -4.3060823E-04;  4.4418079E+01;
  3.7126568E-01;  9.9999998E-03;  2.1004353E-01;4754; -5.1450008E-03;  0.0000000E+00;  1.6031445E-05;  9.9970520E+02;  1.0000000E-01; -2.4424001E+02;3;  6.4395589E-01;  0.0000000E+00; -2.8263602E-01;0; -8.5191866E-03;  3.9978633E+04;  0.0000000E+00;  7.6771446E-02;  4.0000000E+04;  0.0000000E+00;  4.0000809E+04; -8.0098575E-03;  0.0000000E+00; -5.0932926E-04;  1.4046852E+02;
  3.7127617E-01;  9.9999998E-03;  2.2003895E-01;4755; -5.0568571E-03;  0.0000000E+00; -1.5867873E-06;  9.9952954E+02;  1.0000000E-01; -3.8976675E+02;3;  6.4508069E-01;  0.0000000E+00; -2.8907818E-01;0; -8.5139079E-03;  3.9962809E+04;  0.0000000E+00;  1.5169539E-01;  4.0000000E+04;  0.0000000E+00;  4.0001605E+04; -7.9094851E-03;  0.0000000E+00; -6.0442253E-04;  3.2572061E+02;
  3.7128544E-01;  9.9999998E-03;  2.3002544E-01;4756; -4.9670795E-03;  0.0000000E+00; -9.6465801E-06;  9.9936163E+02;  1.0000000E-01; -5.2887390E+02;3;  6.4694625E-01;  0.0000000E+00; -2.9612103E-01;0; -8.4986500E-03;  3.9946945E+04;  0.0000000E+00;  2.1256204E-01;  4.0000000E+04;  0.0000000E+00;  4.0004332E+04; -7.8124651E-03;  0.0000000E+00; -6.8618456E-04;  6.7084125E+02;
  3.8141084E-01;  9.9999998E-03;  7.0009232E-02;4801; -6.0980828E-03;  0.0000000E+00;  2.3659957E-05;  1.0003530E+03;  1.0000000E-01;  2.9243619E+02;3;  7.1074271E-01;  0.0000000E+00; -1.0920298E-01;0; -9.0462398E-03;  4.0032375E+04;  0.0000000E+00;  5.9493888E-02;  4.0000000E+04;  0.0000000E+00;  3.9997484E+04; -9.1140587E-03;  0.0000000E+00;  6.7819186E-05;  3.6363187E+02;
  3.8143420E-01;  9.9999998E-03;  8.0010109E-02;4802; -6.0625635E-03;  0.0000000E+00;  3.2668944E-05;  1.0003298E+03;  1.0000000E-01;  2.7327621E+02;3;  7.0746154E-01;  0.0000000E+00; -1.2909555E-01;0; -8.9814421E-03;  4.0031148E+04;  0.0000000E+00;  6.7526214E-02;  4.0000000E+04;  0.0000000E+00;  3.9997145E+04; -9.0292925E-03;  0.0000000E+00;  4.7849990E-05;  3.9890213E+02;
  3.8146225E-01;  9.9999998E-03;  9.0009697E-02;4803; -6.0207979E-03;  0.0000000E+00;  4.0928739E-05;  1.0003162E+03;  1.0000000E-01;  2.6201727E+02;3;  7.0408702E-01;  0.0000000E+00; -1.4831117E-01;0; -8.9181820E-03;  4.0030418E+04;  0.0000000E+00;  6.9922946E-02;  4.0000000E+04;  0.0000000E+00;  3.9996695E+04; -8.9383936E-03;  0.0000000E+00;  2.0211235E-05;  4.5631598E+02;
  3.8148838E-01;  9.9999998E-03;  1.0000709E-01;4804; -5.9734662E-03;  0.0000000E+00;  4.7046437E-05;  1.0003071E+03;  1.0000000E-01;  2.5441255E+02;3;  7.0035762E-01;  0.0000000E+00; -1.6719669E-01;0; -8.8571981E-03;  4.0030160E+04;  0.0000000E+00;  6.4528354E-02;  4.0000000E+04;  0.0000000E+00;  3.9996188E+04; -8.8434611E-03;  0.0000000E+00; -1.3736642E-05;  5.3241858E+02;
  3.8150445E-01;  9.9999998E-03;  1.1000227E-01;4805; -5.9214020E-03;  0.0000000E+00;  5.0149436E-05;  1.0003003E+03;  1.0000000E-01;  2.4878308E+02;3;  6.9653589E-01;  0.0000000E+00; -1.8514298E-01;0; -8.7985368E-03;  4.0030207E+04;  0.0000000E+00;  4.9924351E-02;  4.0000000E+04;  0.0000000E+00;  3.9995293E+04; -8.7463697E-03;  0.0000000E+00; -5.2166695E-05;  6.2072583E+02;
  3.8150963E-01;  9.9999998E-03;  1.1999586E-01;4806; -5.8655138E-03;  0.0000000E+00;  5.0103528E-05;  1.0002916E+03;  1.0000000E-01;  2.4157341E+02;3;  6.9309366E-01;  0.0000000E+00; -2.0014969E-01;0; -8.7419432E-03;  4.0030051E+04;  0.0000000E+00;  2.6042540E-02;  4.0000000E+04;  0.0000000E+00;  3.9994363E+04; -8.6485269E-03;  0.0000000E+00; -9.3416413E-05;  7.1148145E+02;
  3.8150549E-01;  9.9999998E-03;  1.2998927E-01;4807; -5.8065481E-03;  0.0000000E+00;  4.7202582E-05;  1.0002784E+03;  1.0000000E-01;  2.3061076E+02;3;  6.8999034E-01;  0.0000000E+00; -2.1247573E-01;0; -8.6871376E-03;  4.0029727E+04;  0.0000000E+00; -5.2579590E-03;  4.0000000E+04;  0.0000000E+00;  3.9993617E+04; -8.5506141E-03;  0.0000000E+00; -1.3652389E-04;  7.9128278E+02;
  3.8149229E-01;  9.9999998E-03;  1.3998370E-01;4808; -5.7449006E-03;  0.0000000E+00;  4.2067652E-05;  1.0002551E+03;  1.0000000E-01;  2.1135205E+02;3;  6.8730408E-01;  0.0000000E+00; -2.2279435E-01;0; -8.6343959E-03;  4.0028824E+04;  0.0000000E+00; -3.9801139E-02;  4.0000000E+04;  0.0000000E+00;  3.9993457E+04; -8.4527256E-03;  0.0000000E+00; -1.8167053E-04;  8.4387921E+02;
  3.8147101E-01;  9.9999998E-03;  1.4998037E-01;4809; -5.6805792E-03;  0.0000000E+00;  3.5365047E-05;  1.0002219E+03;  1.0000000E-01;  1.8389603E+02;3;  6.8510181E-01;  0.0000000E+00; -2.3167716E-01;0; -8.5845450E-03;  4.0026133E+04;  0.0000000E+00; -7.1174070E-02;  4.0000000E+04;  0.0000000E+00;  3.9993180E+04; -8.3542634E-03;  0.0000000E+00; -2.3028144E-04;  8.5165076E+02;
  3.8144237E-01;  9.9999998E-03;  1.5998073E-01;4810; -5.6132465E-03;  0.0000000E+00;  2.7514436E-05;  1.0001760E+03;  1.0000000E-01;  1.4577365E+02;3;  6.8259889E-01;  0.0000000E+00; -2.4150853E-01;0; -8.5381549E-03;  4.0022207E+04;  0.0000000E+00; -9.2028886E-02;  4.0000000E+04;  0.0000000E+00;  3.9993805E+04; -8.2541937E-03;  0.0000000E+00; -2.8396156E-04;  7.9753198E+02;
  3.8140672E-01;  9.9999998E-03;  1.6998558E-01;4811; -5.5422699E-03;  0.0000000E+00;  1.9134970E-05;  1.0001161E+03;  1.0000000E-01;  9.6194809E+01;3;  6.7983454E-01;  0.0000000E+00; -2.5225616E-01;0; -8.4953783E-03;  4.0016066E+04;  0.0000000E+00; -9.6447341E-02;  4.0000000E+04;  0.0000000E+00;  3.9994812E+04; -8.1515787E-03;  0.0000000E+00; -3.4379962E-04;  6.6980713E+02;
  3.8136804E-01;  9.9999998E-03;  1.7999436E-01;4812; -5.4668621E-03;  0.0000000E+00;  1.1181392E-05;  1.0000294E+03;  1.0000000E-01;  2.4394371E+01;3;  6.7683065E-01;  0.0000000E+00; -2.6326200E-01;0; -8.4560933E-03;  4.0008078E+04;  0.0000000E+00; -8.1828818E-02;  4.0000000E+04;  0.0000000E+00;  3.9996500E+04; -8.0458233E-03;  0.0000000E+00; -4.1026957E-04;  4.7050204E+02;
  3.8133484E-01;  9.9999998E-03;  1.9000523E-01;4813; -5.3867875E-03;  0.0000000E+00;  4.3152263E-06;  9.9993018E+02;  1.0000000E-01; -5.7825523E+01;3;  6.7428088E-01;  0.0000000E+00; -2.7316236E-01;0; -8.4199049E-03;  3.9998078E+04;  0.0000000E+00; -4.9468178E-02;  4.0000000E+04;  0.0000000E+00;  3.9998316E+04; -7.9369843E-03;  0.0000000E+00; -4.8292041E-04;  2.2309962E+02;
  3.8131201E-01;  9.9999998E-03;  2.0001626E-01;4814; -5.3022816E-03;  0.0000000E+00; -1.3330250E-06;  9.9980872E+02;  1.0000000E-01; -1.5846466E+02;3;  6.7201811E-01;  0.0000000E+00; -2.8344211E-01;0; -8.3856797E-03;  3.9986348E+04;  0.0000000E+00; -4.1466532E-03;  4.0000000E+04;  0.0000000E+00;  4.0000230E+04; -7.8260340E-03;  0.0000000E+00; -5.5964541E-04;  3.5511303E+01;
  3.8129818E-01;  9.9999998E-03;  2.1002463E-01;4815; -5.2149915E-03;  0.0000000E+00; -8.7276039E-06;  9.9966467E+02;  1.0000000E-01; -2.7781931E+02;3;  6.7092532E-01;  0.0000000E+00; -2.9242849E-01;0; -8.3540445E-03;  3.9973121E+04;  0.0000000E+00;  4.6985041E-02;  4.0000000E+04;  0.0000000E+00;  4.0001777E+04; -7.7148643E-03;  0.0000000E+00; -6.3917978E-04;  2.4157806E+02;
  3.8128951E-01;  9.9999998E-03;  2.2002500E-01;4816; -5.1266863E-03;  0.0000000E+00; -2.0026453E-05;  9.9950421E+02;  1.0000000E-01; -4.1075381E+02;3;  6.7107123E-01;  0.0000000E+00; -2.9977655E-01;0; -8.3303107E-03;  3.9958559E+04;  0.0000000E+00;  9.5726781E-02;  4.0000000E+04;  0.0000000E+00;  4.0003066E+04; -7.6060575E-03;  0.0000000E+00; -7.2425307E-04;  4.5537509E+02;
  3.8128188E-01;  9.9999998E-03;  2.3001832E-01;4817; -5.0374335E-03;  0.0000000E+00; -2.4478148E-05;  9.9934821E+02;  1.0000000E-01; -5.3998474E+02;3;  6.7201817E-01;  0.0000000E+00; -3.0716375E-01;0; -8.2916031E-03;  3.9943516E+04;  0.0000000E+00;  1.3408267E-01;  4.0000000E+04;  0.0000000E+00;  4.0005727E+04; -7.5022993E-03;  0.0000000E+00; -7.8930397E-04;  7.7444421E+02;
  3.9145666E-01;  9.9999998E-03;  7.0000783E-02;4862; -6.1830352E-03;  0.0000000E+00;  1.0156880E-05;  1.0002705E+03;  1.0000000E-01;  2.2409242E+02;3;  7.4753493E-01;  0.0000000E+00; -1.1093581E-01;0; -9.0102805E-03;  4.0025898E+04;  0.0000000E+00;  6.7301042E-02;  4.0000000E+04;  0.0000000E+00;  3.9996844E+04; -8.9673279E-03;  0.0000000E+00; -4.2952826E-05;  4.2406912E+02;
  3.9148152E-01;  9.9999998E-03;  8.0001242E-02;4863; -6.1493996E-03;  0.0000000E+00;  1.5686401E-05;  1.0002668E+03;  1.0000000E-01;  2.2103079E+02;3;  7.4430609E-01;  0.0000000E+00; -1.3061704E-01;0; -8.9457240E-03;  4.0026113E+04;  0.0000000E+00;  7.9868548E-02;  4.0000000E+04;  0.0000000E+00;  3.9996496E+04; -8.8846562E-03;  0.0000000E+00; -6.1067913E-05;  4.5859717E+02;
  3.9150369E-01;  9.9999998E-03;  9.0001136E-02;4864; -6.1087469E-03;  0.0000000E+00;  2.0882819E-05;  1.0002672E+03;  1.0000000E-01;  2.2132707E+02;3;  7.4060059E-01;  0.0000000E+00; -1.5092461E-01;0; -8.8816294E-03;  4.0026516E+04;  0.0000000E+00;  8.8706471E-02;  4.0000000E+04;  0.0000000E+00;  3.9996398E+04; -8.7947510E-03;  0.0000000E+00; -8.6878834E-05;  5.0609558E+02;
  3.9151880E-01;  9.9999998E-03;  9.9999584E-02;4865; -6.0615786E-03;  0.0000000E+00;  2.4868956E-05;  1.0002758E+03;  1.0000000E-01;  2.2843799E+02;3;  7.3645920E-01;  0.0000000E+00; -1.7039719E-01;0; -8.8184569E-03;  4.0027039E+04;  0.0000000E+00;  9.1762982E-02;  4.0000000E+04;  0.0000000E+00;  3.9995883E+04; -8.6991098E-03;  0.0000000E+00; -1.1934681E-04;  5.6388843E+02;
  3.9152572E-01;  9.9999998E-03;  1.0999607E-01;4866; -6.0087461E-03;  0.0000000E+00;  2.6868482E-05;  1.0002751E+03;  1.0000000E-01;  2.2794417E+02;3;  7.3180795E-01;  0.0000000E+00; -1.8906176E-01;0; -8.7560490E-03;  4.0027414E+04;  0.0000000E+00;  8.7322526E-02;  4.0000000E+04;  0.0000000E+00;  3.9995457E+04; -8.5990308E-03;  0.0000000E+00; -1.5701851E-04;  6.2781946E+02;
  3.9152548E-01;  9.9999998E-03;  1.1999094E-01;4867; -5.9512774E-03;  0.0000000E+00;  2.6488553E-05;  1.0002684E+03;  1.0000000E-01;  2.2231470E+02;3;  7.2752875E-01;  0.0000000E+00; -2.0452075E-01;0; -8.6940713E-03;  4.0027855E+04;  0.0000000E+00;  7.4532777E-02;  4.0000000E+04;  0.0000000E+00;  3.9994605E+04; -8.4956009E-03;  0.0000000E+00; -1.9846998E-04;  6.9145343E+02;
  3.9151940E-01;  9.9999998E-03;  1.2998484E-01;4868; -5.8901012E-03;  0.0000000E+00;  2.3741091E-05;  1.0002540E+03;  1.0000000E-01;  2.1046318E+02;3;  7.2336560E-01;  0.0000000E+00; -2.1789832E-01;0; -8.6322520E-03;  4.0027219E+04;  0.0000000E+00;  5.3960059E-02;  4.0000000E+04;  0.0000000E+00;  3.9994105E+04; -8.3894553E-03;  0.0000000E+00; -2.4279683E-04;  7.4574371E+02;
  3.9150906E-01;  9.9999998E-03;  1.3997898E-01;4869; -5.8258870E-03;  0.0000000E+00;  1.8907782E-05;  1.0002314E+03;  1.0000000E-01;  1.9169829E+02;3;  7.1966732E-01;  0.0000000E+00; -2.2949088E-01;0; -8.5709170E-03;  4.0025668E+04;  0.0000000E+00;  2.8081249E-02;  4.0000000E+04;  0.0000000E+00;  3.9993898E+04; -8.2808360E-03;  0.0000000E+00; -2.9008064E-04;  7.7875012E+02;
  3.9149684E-01;  9.9999998E-03;  1.4997435E-01;4870; -5.7589421E-03;  0.0000000E+00;  1.2429987E-05;  1.0001945E+03;  1.0000000E-01;  1.6118063E+02;3;  7.1659160E-01;  0.0000000E+00; -2.3895060E-01;0; -8.5109901E-03;  4.0022719E+04;  0.0000000E+00;  1.4141098E-03;  4.0000000E+04;  0.0000000E+00;  3.9993816E+04; -8.1694927E-03;  0.0000000E+00; -3.4149727E-04;  7.7608008E+02;
  3.9148149E-01;  9.9999998E-03;  1.5997200E-01;4871; -5.6892331E-03;  0.0000000E+00;  4.5831507E-06;  1.0001432E+03;  1.0000000E-01;  1.1871269E+02;3;  7.1343368E-01;  0.0000000E+00; -2.4873400E-01;0; -8.4532853E-03;  4.0018148E+04;  0.0000000E+00; -2.0484712E-02;  4.0000000E+04;  0.0000000E+00;  3.9994090E+04; -8.0549913E-03;  0.0000000E+00; -3.9829413E-04;  7.2188409E+02;
  3.9145979E-01;  9.9999998E-03;  1.6997288E-01;4872; -5.6163752E-03;  0.0000000E+00; -4.1428498E-06;  1.0000712E+03;  1.0000000E-01;  5.8961296E+01;3;  7.1044391E-01;  0.0000000E+00; -2.5822705E-01;0; -8.3981790E-03;  4.0011383E+04;  0.0000000E+00; -3.2926962E-02;  4.0000000E+04;  0.0000000E+00;  3.9995363E+04; -7.9369918E-03;  0.0000000E+00; -4.6118724E-04;  6.0107825E+02;
  3.9143288E-01;  9.9999998E-03;  1.7997758E-01;4873; -5.5398513E-03;  0.0000000E+00; -1.3051786E-05;  9.9998572E+02;  1.0000000E-01; -1.1851517E+01;3;  7.0723039E-01;  0.0000000E+00; -2.6854691E-01;0; -8.3459262E-03;  4.0003348E+04;  0.0000000E+00; -3.3484984E-02;  4.0000000E+04;  0.0000000E+00;  3.9996633E+04; -7.8154923E-03;  0.0000000E+00; -5.3043349E-04;  4.0657758E+02;
  3.9140201E-01;  9.9999998E-03;  1.8998548E-01;4874; -5.4594222E-03;  0.0000000E+00; -2.1252934E-05;  9.9988757E+02;  1.0000000E-01; -9.3133171E+01;3;  7.0354229E-01;  0.0000000E+00; -2.8019193E-01;0; -8.2968920E-03;  3.9993207E+04;  0.0000000E+00; -2.2500787E-02;  4.0000000E+04;  0.0000000E+00;  3.9998699E+04; -7.6913009E-03;  0.0000000E+00; -6.0559140E-04;  1.4923103E+02;
  3.9137122E-01;  9.9999998E-03;  1.9999540E-01;4875; -5.3750267E-03;  0.0000000E+00; -2.7443080E-05;  9.9976746E+02;  1.0000000E-01; -1.9263652E+02;3;  7.0043397E-01;  0.0000000E+00; -2.9112485E-01;0; -8.2504041E-03;  3.9981559E+04;  0.0000000E+00; -2.8409073E-03;  4.0000000E+04;  0.0000000E+00;  4.0000918E+04; -7.5659044E-03;  0.0000000E+00; -6.8449962E-04;  1.4189307E+02;
  3.9134488E-01;  9.9999998E-03;  2.1000506E-01;4876; -5.2877301E-03;  0.0000000E+00; -3.2028587E-05;  9.9963367E+02;  1.0000000E-01; -3.0349759E+02;3;  6.9826245E-01;  0.0000000E+00; -3.0089271E-01;0; -8.2040811E-03;  3.9968609E+04;  0.0000000E+00;  2.0884460E-02;  4.0000000E+04;  0.0000000E+00;  4.0002891E+04; -7.4414359E-03;  0.0000000E+00; -7.6264486E-04;  4.0805933E+02;
  3.9132360E-01;  9.9999998E-03;  2.2001068E-01;4877; -5.1991674E-03;  0.0000000E+00; -3.6845438E-05;  9.9948865E+02;  1.0000000E-01; -4.2364233E+02;3;  6.9712150E-01;  0.0000000E+00; -3.0934951E-01;0; -8.1552593E-03;  3.9954836E+04;  0.0000000E+00;  4.3257549E-02;  4.0000000E+04;  0.0000000E+00;  4.0004637E+04; -7.3205656E-03;  0.0000000E+00; -8.3469367E-04;  6.4556915E+02;
  3.9130515E-01;  9.9999998E-03;  2.3001128E-01;4878; -5.1103840E-03;  0.0000000E+00; -4.1090720E-05;  9.9933124E+02;  1.0000000E-01; -5.5405841E+02;3;  6.9719046E-01;  0.0000000E+00; -3.1653500E-01;0; -8.0951806E-03;  3.9940066E+04;  0.0000000E+00;  5.9042539E-02;  4.0000000E+04;  0.0000000E+00;  4.0006742E+04; -7.2060758E-03;  0.0000000E+00; -8.8910462E-04;  8.9712439E+02;
  4.0148014E-01;  9.9999998E-03;  6.9995172E-02;4923; -6.2704333E-03;  0.0000000E+00; -5.3377898E-06;  1.0001891E+03;  1.0000000E-01;  1.5673631E+02;3;  7.8529489E-01;  0.0000000E+00; -1.1099396E-01;0; -9.0217926E-03;  4.0019773E+04;  0.0000000E+00;  7.2672099E-02;  4.0000000E+04;  0.0000000E+00;  3.9996035E+04; -8.8493796E-03;  0.0000000E+00; -1.7241329E-04;  4.9157690E+02;
  4.0149873E-01;  9.9999998E-03;  7.9995967E-02;4924; -6.2380126E-03;  0.0000000E+00; -3.5875626E-06;  1.0002094E+03;  1.0000000E-01;  1.7352596E+02;3;  7.8199226E-01;  0.0000000E+00; -1.3179339E-01;0; -8.9533115E-03;  4.0021871E+04;  0.0000000E+00;  8.8474602E-02;  4.0000000E+04;  0.0000000E+00;  3.9996148E+04; -8.7649375E-03;  0.0000000E+00; -1.8837415E-04;  5.2849310E+02;
  4.0151289E-01;  9.9999998E-03;  8.9996800E-02;4925; -6.1982046E-03;  0.0000000E+00; -1.8222171E-06;  1.0002376E+03;  1.0000000E-01;  1.9683394E+02;3;  7.7797055E-01;  0.0000000E+00; -1.5183558E-01;0; -8.8842958E-03;  4.0023887E+04;  0.0000000E+00;  1.0211844E-01;  4.0000000E+04;  0.0000000E+00;  3.9995809E+04; -8.6727617E-03;  0.0000000E+00; -2.1153450E-04;  5.6929926E+02;
  4.0152034E-01;  9.9999998E-03;  9.9996954E-02;4926; -6.1513181E-03;  0.0000000E+00; -4.9798393E-07;  1.0002548E+03;  1.0000000E-01;  2.1115453E+02;3;  7.7336794E-01;  0.0000000E+00; -1.7119338E-01;0; -8.8151330E-03;  4.0025664E+04;  0.0000000E+00;  1.1179169E-01;  4.0000000E+04;  0.0000000E+00;  3.9995422E+04; -8.5739633E-03;  0.0000000E+00; -2.4117006E-04;  6.1214502E+02;
  4.0152106E-01;  9.9999998E-03;  1.0999578E-01;4927; -6.0981023E-03;  0.0000000E+00; -1.5303459E-07;  1.0002683E+03;  1.0000000E-01;  2.2231470E+02;3;  7.6831400E-01;  0.0000000E+00; -1.8956891E-01;0; -8.7456135E-03;  4.0027070E+04;  0.0000000E+00;  1.1570759E-01;  4.0000000E+04;  0.0000000E+00;  3.9995148E+04; -8.4694214E-03;  0.0000000E+00; -2.7619183E-04;  6.5442401E+02;
  4.0151596E-01;  9.9999998E-03;  1.1999305E-01;4928; -6.0395431E-03;  0.0000000E+00; -1.2139978E-06;  1.0002727E+03;  1.0000000E-01;  2.2596892E+02;3;  7.6290035E-01;  0.0000000E+00; -2.0660076E-01;0; -8.6753480E-03;  4.0027816E+04;  0.0000000E+00;  1.1245798E-01;  4.0000000E+04;  0.0000000E+00;  3.9994645E+04; -8.3598420E-03;  0.0000000E+00; -3.1550607E-04;  6.9211768E+02;
  4.0150633E-01;  9.9999998E-03;  1.2998910E-01;4929; -5.9766374E-03;  0.0000000E+00; -3.8849312E-06;  1.0002675E+03;  1.0000000E-01;  2.2162337E+02;3;  7.5784820E-01;  0.0000000E+00; -2.2080052E-01;0; -8.6040711E-03;  4.0027188E+04;  0.0000000E+00;  1.0149948E-01;  4.0000000E+04;  0.0000000E+00;  3.9994449E+04; -8.2456227E-03;  0.0000000E+00; -3.5844804E-04;  7.1932489E+02;
  4.0149519E-01;  9.9999998E-03;  1.3998447E-01;4930; -5.9102378E-03;  0.0000000E+00; -8.1595808E-06;  1.0002419E+03;  1.0000000E-01;  2.0038939E+02;3;  7.5325668E-01;  0.0000000E+00; -2.3233619E-01;0; -8.5320724E-03;  4.0025344E+04;  0.0000000E+00;  8.3699137E-02;  4.0000000E+04;  0.0000000E+00;  3.9994641E+04; -8.1268707E-03;  0.0000000E+00; -4.0520154E-04;  7.2778021E+02;
  4.0148240E-01;  9.9999998E-03;  1.4998002E-01;4931; -5.8408915E-03;  0.0000000E+00; -1.3950165E-05;  1.0002039E+03;  1.0000000E-01;  1.6898288E+02;3;  7.4903566E-01;  0.0000000E+00; -2.4249178E-01;0; -8.4603708E-03;  4.0021938E+04;  0.0000000E+00;  6.1629288E-02;  4.0000000E+04;  0.0000000E+00;  3.9994410E+04; -8.0035171E-03;  0.0000000E+00; -4.5685400E-04;  7.0667126E+02;
  4.0146685E-01;  9.9999998E-03;  1.5997677E-01;4932; -5.7688020E-03;  0.0000000E+00; -2.1111311E-05;  1.0001477E+03;  1.0000000E-01;  1.2236691E+02;3;  7.4483383E-01;  0.0000000E+00; -2.5373948E-01;0; -8.3898744E-03;  4.0017047E+04;  0.0000000E+00;  3.8951229E-02;  4.0000000E+04;  0.0000000E+00;  3.9994824E+04; -7.8753745E-03;  0.0000000E+00; -5.1450013E-04;  6.4335437E+02;
  4.0145025E-01;  9.9999998E-03;  1.6997564E-01;4933; -5.6939097E-03;  0.0000000E+00; -2.9327770E-05;  1.0000668E+03;  1.0000000E-01;  5.5307079E+01;3;  7.4092054E-01;  0.0000000E+00; -2.6437539E-01;0; -8.3210273E-03;  4.0010344E+04;  0.0000000E+00;  1.9119479E-02;  4.0000000E+04;  0.0000000E+00;  3.9995691E+04; -7.7423393E-03;  0.0000000E+00; -5.7868764E-04;  5.2423541E+02;
  4.0143102E-01;  9.9999998E-03;  1.7997707E-01;4934; -5.6158942E-03;  0.0000000E+00; -3.8018839E-05;  9.9997522E+02;  1.0000000E-01; -2.0542629E+01;3;  7.3706686E-01;  0.0000000E+00; -2.7478787E-01;0; -8.2542310E-03;  4.0001535E+04;  0.0000000E+00;  4.4184257E-03;  4.0000000E+04;  0.0000000E+00;  3.9996984E+04; -7.6048570E-03;  0.0000000E+00; -6.4937409E-04;  3.3905411E+02;
  4.0140834E-01;  9.9999998E-03;  1.8998124E-01;4935; -5.5346289E-03;  0.0000000E+00; -4.6414734E-05;  9.9987244E+02;  1.0000000E-01; -1.0567603E+02;3;  7.3323619E-01;  0.0000000E+00; -2.8544715E-01;0; -8.1900582E-03;  3.9990688E+04;  0.0000000E+00; -4.4711838E-03;  4.0000000E+04;  0.0000000E+00;  3.9999008E+04; -7.4641262E-03;  0.0000000E+00; -7.2593224E-04;  8.9121994E+01;
  4.0138263E-01;  9.9999998E-03;  1.9998749E-01;4936; -5.4500271E-03;  0.0000000E+00; -5.2934902E-05;  9.9975226E+02;  1.0000000E-01; -2.0522876E+02;3;  7.2905785E-01;  0.0000000E+00; -2.9719776E-01;0; -8.1281783E-03;  3.9978754E+04;  0.0000000E+00; -8.4195584E-03;  4.0000000E+04;  0.0000000E+00;  4.0001238E+04; -7.3221605E-03;  0.0000000E+00; -8.0601737E-04;  2.0853067E+02;
  4.0135634E-01;  9.9999998E-03;  2.0999466E-01;4937; -5.3626294E-03;  0.0000000E+00; -5.6205641E-05;  9.9961896E+02;  1.0000000E-01; -3.1569476E+02;3;  7.2569102E-01;  0.0000000E+00; -3.0779842E-01;0; -8.0646845E-03;  3.9965551E+04;  0.0000000E+00; -9.4599882E-03;  4.0000000E+04;  0.0000000E+00;  4.0003773E+04; -7.1815420E-03;  0.0000000E+00; -8.8314246E-04;  5.1354456E+02;
  4.0133139E-01;  9.9999998E-03;  2.2000086E-01;4938; -5.2736877E-03;  0.0000000E+00; -5.6578374E-05;  9.9947607E+02;  1.0000000E-01; -4.3406180E+02;3;  7.2332627E-01;  0.0000000E+00; -3.1726876E-01;0; -7.9902569E-03;  3.9951652E+04;  0.0000000E+00; -1.0220744E-02;  4.0000000E+04;  0.0000000E+00;  4.0005719E+04; -7.0451754E-03;  0.0000000E+00; -9.4508176E-04;  7.9195795E+02;
  4.0130678E-01;  9.9999998E-03;  2.3000555E-01;4939; -5.1847133E-03;  0.0000000E+00; -5.9027432E-05;  9.9931915E+02;  1.0000000E-01; -5.6408282E+02;3;  7.2233671E-01;  0.0000000E+00; -3.2428578E-01;0; -7.9007810E-03;  3.9937219E+04;  0.0000000E+00; -1.3249527E-02;  4.0000000E+04;  0.0000000E+00;  4.0007402E+04; -6.9160387E-03;  0.0000000E+00; -9.8474207E-04;  1.0103187E+03;
  4.1147920E-01;  9.9999998E-03;  6.9993474E-02;4984; -6.3602366E-03;  0.0000000E+00; -2.1372229E-05;  1.0001258E+03;  1.0000000E-01;  1.0419459E+02;3;  8.2268918E-01;  0.0000000E+00; -1.1587080E-01;0; -9.0658125E-03;  4.0014969E+04;  0.0000000E+00;  7.5276569E-02;  4.0000000E+04;  0.0000000E+00;  3.9995949E+04; -8.7472675E-03;  0.0000000E+00; -3.1854480E-04;  5.6436646E+02;
  4.1149309E-01;  9.9999998E-03;  7.9995088E-02;4985; -6.3280277E-03;  0.0000000E+00; -2.2934582E-05;  1.0001741E+03;  1.0000000E-01;  1.4419345E+02;3;  8.1981313E-01;  0.0000000E+00; -1.3094272E-01;0; -8.9900969E-03;  4.0019039E+04;  0.0000000E+00;  9.3124241E-02;  4.0000000E+04;  0.0000000E+00;  3.9995398E+04; -8.6577451E-03;  0.0000000E+00; -3.3235160E-04;  6.0526257E+02;
  4.1150156E-01;  9.9999998E-03;  8.9997031E-02;4986; -6.2884106E-03;  0.0000000E+00; -2.4469033E-05;  1.0002213E+03;  1.0000000E-01;  1.8330345E+02;3;  8.1618404E-01;  0.0000000E+00; -1.4665443E-01;0; -8.9130169E-03;  4.0022895E+04;  0.0000000E+00;  1.0991789E-01;  4.0000000E+04;  0.0000000E+00;  3.9995223E+04; -8.5605709E-03;  0.0000000E+00; -3.5244564E-04;  6.4133447E+02;
  4.1150469E-01;  9.9999998E-03;  9.9998854E-02;4987; -6.2416005E-03;  0.0000000E+00; -2.6089472E-05;  1.0002614E+03;  1.0000000E-01;  2.1648770E+02;3;  8.1157947E-01;  0.0000000E+00; -1.6364181E-01;0; -8.8349385E-03;  4.0025965E+04;  0.0000000E+00;  1.2405063E-01;  4.0000000E+04;  0.0000000E+00;  3.9994980E+04; -8.4565533E-03;  0.0000000E+00; -3.7838507E-04;  6.7153625E+02;
  4.1150111E-01;  9.9999998E-03;  1.0999998E-01;4988; -6.1881561E-03;  0.0000000E+00; -2.7936079E-05;  1.0002846E+03;  1.0000000E-01;  2.3574641E+02;3;  8.0603004E-01;  0.0000000E+00; -1.8213427E-01;0; -8.7557053E-03;  4.0028328E+04;  0.0000000E+00;  1.3374513E-01;  4.0000000E+04;  0.0000000E+00;  3.9995098E+04; -8.3462894E-03;  0.0000000E+00; -4.0941633E-04;  6.9461932E+02;
  4.1149238E-01;  9.9999998E-03;  1.1999977E-01;4989; -6.1289161E-03;  0.0000000E+00; -3.0195853E-05;  1.0003027E+03;  1.0000000E-01;  2.5085710E+02;3;  8.0006379E-01;  0.0000000E+00; -1.9988038E-01;0; -8.6748684E-03;  4.0029484E+04;  0.0000000E+00;  1.3724972E-01;  4.0000000E+04;  0.0000000E+00;  3.9994977E+04; -8.2300194E-03;  0.0000000E+00; -4.4484888E-04;  7.0861035E+02;
  4.1148117E-01;  9.9999998E-03;  1.2999821E-01;4990; -6.0648313E-03;  0.0000000E+00; -3.3183915E-05;  1.0002972E+03;  1.0000000E-01;  2.4621526E+02;3;  7.9392660E-01;  0.0000000E+00; -2.1632828E-01;0; -8.5921744E-03;  4.0029301E+04;  0.0000000E+00;  1.3321801E-01;  4.0000000E+04;  0.0000000E+00;  3.9994879E+04; -8.1077861E-03;  0.0000000E+00; -4.8438800E-04;  7.0999457E+02;
  4.1146713E-01;  9.9999998E-03;  1.3999566E-01;4991; -5.9967656E-03;  0.0000000E+00; -3.7175530E-05;  1.0002775E+03;  1.0000000E-01;  2.2991942E+02;3;  7.8792453E-01;  0.0000000E+00; -2.3118921E-01;0; -8.5078431E-03;  4.0027309E+04;  0.0000000E+00;  1.2118736E-01;  4.0000000E+04;  0.0000000E+00;  3.9994773E+04; -7.9794135E-03;  0.0000000E+00; -5.2842934E-04;  6.9299414E+02;
  4.1145101E-01;  9.9999998E-03;  1.4999275E-01;4992; -5.9254053E-03;  0.0000000E+00; -4.2290398E-05;  1.0002369E+03;  1.0000000E-01;  1.9624136E+02;3;  7.8219986E-01;  0.0000000E+00; -2.4514365E-01;0; -8.4228963E-03;  4.0023867E+04;  0.0000000E+00;  1.0205184E-01;  4.0000000E+04;  0.0000000E+00;  3.9994938E+04; -7.8447033E-03;  0.0000000E+00; -5.7819340E-04;  6.4990997E+02;
  4.1143438E-01;  9.9999998E-03;  1.5999015E-01;4993; -5.8511584E-03;  0.0000000E+00; -4.8515147E-05;  1.0001718E+03;  1.0000000E-01;  1.4231696E+02;3;  7.7682054E-01;  0.0000000E+00; -2.5836310E-01;0; -8.3382512E-03;  4.0018078E+04;  0.0000000E+00;  7.7822365E-02;  4.0000000E+04;  0.0000000E+00;  3.9995652E+04; -7.7034174E-03;  0.0000000E+00; -6.3483405E-04;  5.7182239E+02;
  4.1141695E-01;  9.9999998E-03;  1.6998851E-01;4994; -5.7742009E-03;  0.0000000E+00; -5.5796478E-05;  1.0000903E+03;  1.0000000E-01;  7.4862083E+01;3;  7.7167553E-01;  0.0000000E+00; -2.7051076E-01;0; -8.2544088E-03;  4.0010645E+04;  0.0000000E+00;  5.0935876E-02;  4.0000000E+04;  0.0000000E+00;  3.9996523E+04; -7.5556492E-03;  0.0000000E+00; -6.9876009E-04;  4.4925140E+02;
  4.1139889E-01;  9.9999998E-03;  1.7998834E-01;4995; -5.6943954E-03;  0.0000000E+00; -6.3621439E-05;  9.9999353E+02;  1.0000000E-01; -5.3825636E+00;3;  7.6686758E-01;  0.0000000E+00; -2.8093088E-01;0; -8.1717251E-03;  4.0001148E+04;  0.0000000E+00;  2.3699822E-02;  4.0000000E+04;  0.0000000E+00;  3.9997883E+04; -7.4020573E-03;  0.0000000E+00; -7.6966803E-04;  2.7451779E+02;
  4.1137928E-01;  9.9999998E-03;  1.8998967E-01;4996; -5.6117889E-03;  0.0000000E+00; -7.1661983E-05;  9.9987793E+02;  1.0000000E-01; -1.0113294E+02;3;  7.6219934E-01;  0.0000000E+00; -2.9163355E-01;0; -8.0907242E-03;  3.9990277E+04;  0.0000000E+00; -2.1287212E-03;  4.0000000E+04;  0.0000000E+00;  3.9999594E+04; -7.2441474E-03;  0.0000000E+00; -8.4657676E-04;  4.6827091E+01;
  4.1135827E-01;  9.9999998E-03;  1.9999224E-01;4997; -5.5262647E-03;  0.0000000E+00; -7.8458761E-05;  9.9975146E+02;  1.0000000E-01; -2.0592010E+02;3;  7.5757587E-01;  0.0000000E+00; -3.0260411E-01;0; -8.0112526E-03;  3.9977758E+04;  0.0000000E+00; -2.5579441E-02;  4.0000000E+04;  0.0000000E+00;  4.0001559E+04; -7.0843007E-03;  0.0000000E+00; -9.2695176E-04;  2.2921812E+02;
  4.1133574E-01;  9.9999998E-03;  2.0999521E-01;4998; -5.4382207E-03;  0.0000000E+00; -8.2372855E-05;  9.9961475E+02;  1.0000000E-01; -3.1915146E+02;3;  7.5332576E-01;  0.0000000E+00; -3.1291452E-01;0; -7.9296101E-03;  3.9964250E+04;  0.0000000E+00; -4.6393204E-02;  4.0000000E+04;  0.0000000E+00;  4.0003836E+04; -6.9254762E-03;  0.0000000E+00; -1.0041338E-03;  5.3279889E+02;
  4.1131291E-01;  9.9999998E-03;  2.1999788E-01;4999; -5.3484761E-03;  0.0000000E+00; -8.1074904E-05;  9.9947095E+02;  1.0000000E-01; -4.3830859E+02;3;  7.4963415E-01;  0.0000000E+00; -3.2322875E-01;0; -7.8318557E-03;  3.9950184E+04;  0.0000000E+00; -6.4865351E-02;  4.0000000E+04;  0.0000000E+00;  4.0006348E+04; -6.7709312E-03;  0.0000000E+00; -1.0609245E-03;  8.4685852E+02;
  4.1129079E-01;  9.9999998E-03;  2.3000230E-01;5000; -5.2585062E-03;  0.0000000E+00; -8.0552767E-05;  9.9931311E+02;  1.0000000E-01; -5.6907031E+02;3;  7.4735159E-01;  0.0000000E+00; -3.3097473E-01;0; -7.7085337E-03;  3.9935801E+04;  0.0000000E+00; -8.1405193E-02;  4.0000000E+04;  0.0000000E+00;  4.0008059E+04; -6.6237883E-03;  0.0000000E+00; -1.0847456E-03;  1.0828342E+03;
  4.2148018E-01;  9.9999998E-03;  6.9994919E-02;5045; -6.4517898E-03;  0.0000000E+00; -3.7404316E-05;  1.0000894E+03;  1.0000000E-01;  7.4071976E+01;3;  8.6068034E-01;  0.0000000E+00; -1.1995076E-01;0; -9.1259200E-03;  4.0012160E+04;  0.0000000E+00;  7.4762814E-02;  4.0000000E+04;  0.0000000E+00;  3.9995105E+04; -8.6461417E-03;  0.0000000E+00; -4.7977801E-04;  6.3643256E+02;
  4.2148742E-01;  9.9999998E-03;  7.9997413E-02;5046; -6.4187194E-03;  0.0000000E+00; -4.1879328E-05;  1.0001566E+03;  1.0000000E-01;  1.2967534E+02;3;  8.5735518E-01;  0.0000000E+00; -1.3542263E-01;0; -9.0409918E-03;  4.0017883E+04;  0.0000000E+00;  9.3402594E-02;  4.0000000E+04;  0.0000000E+00;  3.9994891E+04; -8.5494295E-03;  0.0000000E+00; -4.9156195E-04;  6.8156104E+02;
  4.2149073E-01;  9.9999998E-03;  9.0000309E-02;5047; -6.3784961E-03;  0.0000000E+00; -4.6141213E-05;  1.0002221E+03;  1.0000000E-01;  1.8399480E+02;3;  8.5343146E-01;  0.0000000E+00; -1.5048756E-01;0; -8.9539504E-03;  4.0023320E+04;  0.0000000E+00;  1.1158825E-01;  4.0000000E+04;  0.0000000E+00;  3.9994707E+04; -8.4454622E-03;  0.0000000E+00; -5.0848856E-04;  7.1412903E+02;
  4.2148757E-01;  9.9999998E-03;  1.0000338E-01;5048; -6.3312394E-03;  0.0000000E+00; -5.0181839E-05;  1.0002797E+03;  1.0000000E-01;  2.3169714E+02;3;  8.4896076E-01;  0.0000000E+00; -1.6449903E-01;0; -8.8652261E-03;  4.0027602E+04;  0.0000000E+00;  1.2782578E-01;  4.0000000E+04;  0.0000000E+00;  3.9994602E+04; -8.3349561E-03;  0.0000000E+00; -5.3026958E-04;  7.3349158E+02;
  4.2147908E-01;  9.9999998E-03;  1.1000612E-01;5049; -6.2774080E-03;  0.0000000E+00; -5.4089414E-05;  1.0003228E+03;  1.0000000E-01;  2.6735046E+02;3;  8.4359366E-01;  0.0000000E+00; -1.7974064E-01;0; -8.7747062E-03;  4.0030949E+04;  0.0000000E+00;  1.4036082E-01;  4.0000000E+04;  0.0000000E+00;  3.9994570E+04; -8.2181878E-03;  0.0000000E+00; -5.5651803E-04;  7.3976611E+02;
  4.2146733E-01;  9.9999998E-03;  1.2000801E-01;5050; -6.2176865E-03;  0.0000000E+00; -5.7967303E-05;  1.0003461E+03;  1.0000000E-01;  2.8670795E+02;3;  8.3761334E-01;  0.0000000E+00; -1.9531861E-01;0; -8.6819790E-03;  4.0032820E+04;  0.0000000E+00;  1.4728045E-01;  4.0000000E+04;  0.0000000E+00;  3.9994844E+04; -8.0950251E-03;  0.0000000E+00; -5.8695377E-04;  7.3281451E+02;
  4.2145291E-01;  9.9999998E-03;  1.3000870E-01;5051; -6.1528431E-03;  0.0000000E+00; -6.1967679E-05;  1.0003478E+03;  1.0000000E-01;  2.8818939E+02;3;  8.3092743E-01;  0.0000000E+00; -2.1162967E-01;0; -8.5866898E-03;  4.0032641E+04;  0.0000000E+00;  1.4676589E-01;  4.0000000E+04;  0.0000000E+00;  3.9995125E+04; -7.9650246E-03;  0.0000000E+00; -6.2166539E-04;  7.1089838E+02;
  4.2143673E-01;  9.9999998E-03;  1.4000830E-01;5052; -6.0836500E-03;  0.0000000E+00; -6.6297296E-05;  1.0003290E+03;  1.0000000E-01;  2.7258487E+02;3;  8.2378179E-01;  0.0000000E+00; -2.2886956E-01;0; -8.4890742E-03;  4.0030598E+04;  0.0000000E+00;  1.3749488E-01;  4.0000000E+04;  0.0000000E+00;  3.9995039E+04; -7.8276498E-03;  0.0000000E+00; -6.6142419E-04;  6.7043207E+02;
  4.2142022E-01;  9.9999998E-03;  1.5000719E-01;5053; -6.0107573E-03;  0.0000000E+00; -7.1125323E-05;  1.0002852E+03;  1.0000000E-01;  2.3633899E+02;3;  8.1646889E-01;  0.0000000E+00; -2.4608482E-01;0; -8.3899992E-03;  4.0026906E+04;  0.0000000E+00;  1.1914736E-01;  4.0000000E+04;  0.0000000E+00;  3.9995762E+04; -7.6822750E-03;  0.0000000E+00; -7.0772378E-04;  6.0575085E+02;
  4.2140338E-01;  9.9999998E-03;  1.6000582E-01;5054; -5.9346613E-03;  0.0000000E+00; -7.6611279E-05;  1.0002167E+03;  1.0000000E-01;  1.7955048E+02;3;  8.0954075E-01;  0.0000000E+00; -2.6128867E-01;0; -8.2903886E-03;  4.0020629E+04;  0.0000000E+00;  9.2527933E-02;  4.0000000E+04;  0.0000000E+00;  3.9996355E+04; -7.5285248E-03;  0.0000000E+00; -7.6186360E-04;  5.1108667E+02;
  4.2138618E-01;  9.9999998E-03;  1.7000479E-01;5055; -5.8556171E-03;  0.0000000E+00; -8.2818355E-05;  1.0001309E+03;  1.0000000E-01;  1.0844138E+02;3;  8.0296665E-01;  0.0000000E+00; -2.7482009E-01;0; -8.1907026E-03;  4.0012559E+04;  0.0000000E+00;  5.9430558E-02;  4.0000000E+04;  0.0000000E+00;  3.9997211E+04; -7.3664538E-03;  0.0000000E+00; -8.2424929E-04;  3.8175665E+02;
  4.2136878E-01;  9.9999998E-03;  1.8000424E-01;5056; -5.7737920E-03;  0.0000000E+00; -8.9782799E-05;  1.0000224E+03;  1.0000000E-01;  1.8567375E+01;3;  7.9686809E-01;  0.0000000E+00; -2.8699923E-01;0; -8.0912421E-03;  4.0002703E+04;  0.0000000E+00;  2.2333898E-02;  4.0000000E+04;  0.0000000E+00;  3.9998535E+04; -7.1969177E-03;  0.0000000E+00; -8.9432433E-04;  2.1565961E+02;
  4.2135119E-01;  9.9999998E-03;  1.9000408E-01;5057; -5.6892675E-03;  0.0000000E+00; -9.7231365E-05;  9.9989893E+02;  1.0000000E-01; -8.3750717E+01;3;  7.9095441E-01;  0.0000000E+00; -2.9833582E-01;0; -7.9923049E-03;  3.9990871E+04;  0.0000000E+00; -1.6050793E-02;  4.0000000E+04;  0.0000000E+00;  3.9999977E+04; -7.0216605E-03;  0.0000000E+00; -9.7064482E-04;  2.9304935E+01;
  4.2133331E-01;  9.9999998E-03;  2.0000371E-01;5058; -5.6020776E-03;  0.0000000E+00; -1.0445547E-04;  9.9976245E+02;  1.0000000E-01; -1.9678456E+02;3;  7.8554076E-01;  0.0000000E+00; -3.0864865E-01;0; -7.8937924E-03;  3.9978000E+04;  0.0000000E+00; -5.3262629E-02;  4.0000000E+04;  0.0000000E+00;  4.0001512E+04; -6.8433234E-03;  0.0000000E+00; -1.0504687E-03;  2.2850713E+02;
  4.2131540E-01;  9.9999998E-03;  2.1000227E-01;5059; -5.5125393E-03;  0.0000000E+00; -1.1000826E-04;  9.9961761E+02;  1.0000000E-01; -3.1678116E+02;3;  7.8064799E-01;  0.0000000E+00; -3.1771448E-01;0; -7.7929115E-03;  3.9964004E+04;  0.0000000E+00; -8.7375663E-02;  4.0000000E+04;  0.0000000E+00;  4.0003828E+04; -6.6652144E-03;  0.0000000E+00; -1.1276968E-03;  5.0487662E+02;
  4.2129862E-01;  9.9999998E-03;  2.1999989E-01;5060; -5.4212790E-03;  0.0000000E+00; -1.0987412E-04;  9.9946661E+02;  1.0000000E-01; -4.4191342E+02;3;  7.7604645E-01;  0.0000000E+00; -3.2747430E-01;0; -7.6746033E-03;  3.9949602E+04;  0.0000000E+00; -1.1712521E-01;  4.0000000E+04;  0.0000000E+00;  4.0006035E+04; -6.4908289E-03;  0.0000000E+00; -1.1837743E-03;  8.3649823E+02;
  4.2128488E-01;  9.9999998E-03;  2.3000175E-01;5061; -5.3295670E-03;  0.0000000E+00; -1.0745756E-04;  9.9931293E+02;  1.0000000E-01; -5.6921844E+02;3;  7.7241379E-01;  0.0000000E+00; -3.3541557E-01;0; -7.5201117E-03;  3.9935141E+04;  0.0000000E+00; -1.4174616E-01;  4.0000000E+04;  0.0000000E+00;  4.0008324E+04; -6.3234330E-03;  0.0000000E+00; -1.1966787E-03;  1.1030767E+03;
  4.3148974E-01;  9.9999998E-03;  6.9998443E-02;5106; -6.5436610E-03;  0.0000000E+00; -5.2068473E-05;  1.0000719E+03;  1.0000000E-01;  5.9553871E+01;3;  8.9946485E-01;  0.0000000E+00; -1.2250271E-01;0; -9.1870250E-03;  4.0011449E+04;  0.0000000E+00;  7.0959009E-02;  4.0000000E+04;  0.0000000E+00;  3.9994480E+04; -8.5323676E-03;  0.0000000E+00; -6.5465720E-04;  6.9892664E+02;
  4.3148962E-01;  9.9999998E-03;  8.0001764E-02;5107; -6.5087434E-03;  0.0000000E+00; -5.9274651E-05;  1.0001603E+03;  1.0000000E-01;  1.3283575E+02;3;  8.9548498E-01;  0.0000000E+00; -1.3884197E-01;0; -9.0923719E-03;  4.0018781E+04;  0.0000000E+00;  8.8968277E-02;  4.0000000E+04;  0.0000000E+00;  3.9994160E+04; -8.4276851E-03;  0.0000000E+00; -6.6468678E-04;  7.4749829E+02;
  4.3148559E-01;  9.9999998E-03;  9.0005532E-02;5108; -6.4671421E-03;  0.0000000E+00; -6.6099514E-05;  1.0002399E+03;  1.0000000E-01;  1.9871043E+02;3;  8.9108604E-01;  0.0000000E+00; -1.5393412E-01;0; -8.9948531E-03;  4.0025051E+04;  0.0000000E+00;  1.0663410E-01;  4.0000000E+04;  0.0000000E+00;  3.9994074E+04; -8.3162952E-03;  0.0000000E+00; -6.7855802E-04;  7.7741785E+02;
  4.3147784E-01;  9.9999998E-03;  1.0000943E-01;5109; -6.4189686E-03;  0.0000000E+00; -7.2486262E-05;  1.0003088E+03;  1.0000000E-01;  2.5579523E+02;3;  8.8610154E-01;  0.0000000E+00; -1.6858196E-01;0; -8.8950396E-03;  4.0030523E+04;  0.0000000E+00;  1.2253074E-01;  4.0000000E+04;  0.0000000E+00;  3.9994047E+04; -8.1988750E-03;  0.0000000E+00; -6.9616444E-04;  7.8826965E+02;
  4.3146604E-01;  9.9999998E-03;  1.1001316E-01;5110; -6.3645467E-03;  0.0000000E+00; -7.8413963E-05;  1.0003601E+03;  1.0000000E-01;  2.9836194E+02;3;  8.8069749E-01;  0.0000000E+00; -1.8195672E-01;0; -8.7928381E-03;  4.0034375E+04;  0.0000000E+00;  1.3496988E-01;  4.0000000E+04;  0.0000000E+00;  3.9994191E+04; -8.0754682E-03;  0.0000000E+00; -7.1736996E-04;  7.8104163E+02;
  4.3145052E-01;  9.9999998E-03;  1.2001621E-01;5111; -6.3043749E-03;  0.0000000E+00; -8.3969848E-05;  1.0003951E+03;  1.0000000E-01;  3.2739816E+02;3;  8.7440711E-01;  0.0000000E+00; -1.9687288E-01;0; -8.6878696E-03;  4.0036406E+04;  0.0000000E+00;  1.4204513E-01;  4.0000000E+04;  0.0000000E+00;  3.9994199E+04; -7.9456242E-03;  0.0000000E+00; -7.4224541E-04;  7.5690479E+02;
  4.3143314E-01;  9.9999998E-03;  1.3001832E-01;5112; -6.2390086E-03;  0.0000000E+00; -8.9173518E-05;  1.0003989E+03;  1.0000000E-01;  3.3045978E+02;3;  8.6730015E-01;  0.0000000E+00; -2.1265061E-01;0; -8.5797915E-03;  4.0036422E+04;  0.0000000E+00;  1.4182259E-01;  4.0000000E+04;  0.0000000E+00;  3.9994848E+04; -7.8084646E-03;  0.0000000E+00; -7.7132683E-04;  7.1591730E+02;
  4.3141553E-01;  9.9999998E-03;  1.4001955E-01;5113; -6.1690286E-03;  0.0000000E+00; -9.4175070E-05;  1.0003791E+03;  1.0000000E-01;  3.1406519E+02;3;  8.5977471E-01;  0.0000000E+00; -2.2818151E-01;0; -8.4687248E-03;  4.0034379E+04;  0.0000000E+00;  1.3261835E-01;  4.0000000E+04;  0.0000000E+00;  3.9995363E+04; -7.6629212E-03;  0.0000000E+00; -8.0580387E-04;  6.5602887E+02;
  4.3139845E-01;  9.9999998E-03;  1.5001996E-01;5114; -6.0949936E-03;  0.0000000E+00; -9.9274796E-05;  1.0003370E+03;  1.0000000E-01;  2.7920197E+02;3;  8.5158676E-01;  0.0000000E+00; -2.4532518E-01;0; -8.3554434E-03;  4.0030184E+04;  0.0000000E+00;  1.1345869E-01;  4.0000000E+04;  0.0000000E+00;  3.9995836E+04; -7.5079375E-03;  0.0000000E+00; -8.4750575E-04;  5.7321753E+02;
  4.3138257E-01;  9.9999998E-03;  1.6001989E-01;5115; -6.0172738E-03;  0.0000000E+00; -1.0454810E-04;  1.0002699E+03;  1.0000000E-01;  2.2359862E+02;3;  8.4316051E-01;  0.0000000E+00; -2.6219013E-01;0; -8.2407985E-03;  4.0023980E+04;  0.0000000E+00;  8.4430836E-02;  4.0000000E+04;  0.0000000E+00;  3.9996711E+04; -7.3427921E-03;  0.0000000E+00; -8.9800643E-04;  4.6414954E+02;
  4.3136767E-01;  9.9999998E-03;  1.7001966E-01;5116; -5.9362170E-03;  0.0000000E+00; -1.1024746E-04;  1.0001773E+03;  1.0000000E-01;  1.4686005E+02;3;  8.3504951E-01;  0.0000000E+00; -2.7757922E-01;0; -8.1251878E-03;  4.0015469E+04;  0.0000000E+00;  4.7009986E-02;  4.0000000E+04;  0.0000000E+00;  3.9997598E+04; -7.1673943E-03;  0.0000000E+00; -9.5779396E-04;  3.2851700E+02;
  4.3135363E-01;  9.9999998E-03;  1.8001920E-01;5117; -5.8520632E-03;  0.0000000E+00; -1.1650650E-04;  1.0000651E+03;  1.0000000E-01;  5.3924400E+01;3;  8.2723087E-01;  0.0000000E+00; -2.9146454E-01;0; -8.0087818E-03;  4.0005234E+04;  0.0000000E+00;  3.8857812E-03;  4.0000000E+04;  0.0000000E+00;  3.9998863E+04; -6.9826841E-03;  0.0000000E+00; -1.0260976E-03;  1.7119713E+02;
  4.3134031E-01;  9.9999998E-03;  1.9001810E-01;5118; -5.7650376E-03;  0.0000000E+00; -1.2353313E-04;  9.9992786E+02;  1.0000000E-01; -5.9751396E+01;3;  8.2005453E-01;  0.0000000E+00; -3.0318484E-01;0; -7.8915916E-03;  3.9993035E+04;  0.0000000E+00; -4.1556150E-02;  4.0000000E+04;  0.0000000E+00;  4.0000227E+04; -6.7906021E-03;  0.0000000E+00; -1.1009895E-03;  5.9375694E+01;
  4.3132737E-01;  9.9999998E-03;  2.0001560E-01;5119; -5.6754220E-03;  0.0000000E+00; -1.3138486E-04;  9.9977979E+02;  1.0000000E-01; -1.8246397E+02;3;  8.1357205E-01;  0.0000000E+00; -3.1333846E-01;0; -7.7735567E-03;  3.9979840E+04;  0.0000000E+00; -8.5923567E-02;  4.0000000E+04;  0.0000000E+00;  4.0001328E+04; -6.5941005E-03;  0.0000000E+00; -1.1794561E-03;  2.2978699E+02;
  4.3131569E-01;  9.9999998E-03;  2.1001066E-01;5120; -5.5835405E-03;  0.0000000E+00; -1.3875675E-04;  9.9963062E+02;  1.0000000E-01; -3.0601602E+02;3;  8.0773407E-01;  0.0000000E+00; -3.2191473E-01;0; -7.6524741E-03;  3.9965430E+04;  0.0000000E+00; -1.2634884E-01;  4.0000000E+04;  0.0000000E+00;  4.0003215E+04; -6.3966941E-03;  0.0000000E+00; -1.2557800E-03;  4.7030164E+02;
  4.3130618E-01;  9.9999998E-03;  2.2000428E-01;5121; -5.4898392E-03;  0.0000000E+00; -1.4073776E-04;  9.9947852E+02;  1.0000000E-01; -4.3203717E+02;3;  8.0227447E-01;  0.0000000E+00; -3.3014312E-01;0; -7.5135576E-03;  3.9950969E+04;  0.0000000E+00; -1.6078483E-01;  4.0000000E+04;  0.0000000E+00;  4.0005758E+04; -6.2021003E-03;  0.0000000E+00; -1.3114574E-03;  7.9259998E+02;
  4.3129987E-01;  9.9999998E-03;  2.3000342E-01;5122; -5.3955209E-03;  0.0000000E+00; -1.3947119E-04;  9.9932654E+02;  1.0000000E-01; -5.5795953E+02;3;  7.9740721E-01;  0.0000000E+00; -3.3754185E-01;0; -7.3352624E-03;  3.9936250E+04;  0.0000000E+00; -1.8795457E-01;  4.0000000E+04;  0.0000000E+00;  4.0007801E+04; -6.0137785E-03;  0.0000000E+00; -1.3214836E-03;  1.0712456E+03;
  4.4149622E-01;  9.9999998E-03;  7.0002295E-02;5167; -6.6341222E-03;  0.0000000E+00; -6.4670421E-05;  1.0000916E+03;  1.0000000E-01;  7.5849709E+01;3;  9.3901432E-01;  0.0000000E+00; -1.2431735E-01;0; -9.2377122E-03;  4.0013105E+04;  0.0000000E+00;  6.3819490E-02;  4.0000000E+04;  0.0000000E+00;  3.9994164E+04; -8.3957724E-03;  0.0000000E+00; -8.4194017E-04;  7.4123865E+02;
  4.4149110E-01;  9.9999998E-03;  8.0006391E-02;5168; -6.5966258E-03;  0.0000000E+00; -7.4347117E-05;  1.0001846E+03;  1.0000000E-01;  1.5288457E+02;3;  9.3442243E-01;  0.0000000E+00; -1.4109166E-01;0; -9.1341045E-03;  4.0020758E+04;  0.0000000E+00;  7.9641737E-02;  4.0000000E+04;  0.0000000E+00;  3.9993758E+04; -8.2835359E-03;  0.0000000E+00; -8.5056823E-04;  7.9212280E+02;
  4.4148272E-01;  9.9999998E-03;  9.0011068E-02;5169; -6.5530855E-03;  0.0000000E+00; -8.3594095E-05;  1.0002676E+03;  1.0000000E-01;  2.2172212E+02;3;  9.2917544E-01;  0.0000000E+00; -1.5748909E-01;0; -9.0268785E-03;  4.0027586E+04;  0.0000000E+00;  9.4849728E-02;  4.0000000E+04;  0.0000000E+00;  3.9993523E+04; -8.1651546E-03;  0.0000000E+00; -8.6172414E-04;  8.2064117E+02;
  4.4147128E-01;  9.9999998E-03;  1.0001576E-01;5170; -6.5035871E-03;  0.0000000E+00; -9.2213857E-05;  1.0003436E+03;  1.0000000E-01;  2.8473270E+02;3;  9.2348456E-01;  0.0000000E+00; -1.7273383E-01;0; -8.9166556E-03;  4.0033473E+04;  0.0000000E+00;  1.0810473E-01;  4.0000000E+04;  0.0000000E+00;  3.9993832E+04; -8.0412766E-03;  0.0000000E+00; -8.7537908E-04;  8.2625220E+02;
  4.4145700E-01;  9.9999998E-03;  1.1001985E-01;5171; -6.4483457E-03;  0.0000000E+00; -1.0015104E-04;  1.0004013E+03;  1.0000000E-01;  3.3243503E+02;3;  9.1752511E-01;  0.0000000E+00; -1.8670951E-01;0; -8.8034282E-03;  4.0037664E+04;  0.0000000E+00;  1.1787953E-01;  4.0000000E+04;  0.0000000E+00;  3.9993902E+04; -7.9118023E-03;  0.0000000E+00; -8.9162606E-04;  8.1044812E+02;
  4.4144061E-01;  9.9999998E-03;  1.2002317E-01;5172; -6.3876747E-03;  0.0000000E+00; -1.0744030E-04;  1.0004354E+03;  1.0000000E-01;  3.6068115E+02;3;  9.1112888E-01;  0.0000000E+00; -1.9979456E-01;0; -8.6868582E-03;  4.0039902E+04;  0.0000000E+00;  1.2249978E-01;  4.0000000E+04;  0.0000000E+00;  3.9994113E+04; -7.7759903E-03;  0.0000000E+00; -9.1086770E-04;  7.7524866E+02;
  4.4142237E-01;  9.9999998E-03;  1.3002582E-01;5173; -6.3219131E-03;  0.0000000E+00; -1.1418359E-04;  1.0004438E+03;  1.0000000E-01;  3.6769330E+02;3;  9.0371603E-01;  0.0000000E+00; -2.1468505E-01;0; -8.5665928E-03;  4.0040336E+04;  0.0000000E+00;  1.2022873E-01;  4.0000000E+04;  0.0000000E+00;  3.9994727E+04; -7.6325811E-03;  0.0000000E+00; -9.3401194E-04;  7.2178387E+02;
  4.4140455E-01;  9.9999998E-03;  1.4002784E-01;5174; -6.2513812E-03;  0.0000000E+00; -1.2042936E-04;  1.0004272E+03;  1.0000000E-01;  3.5396530E+02;3;  8.9565349E-01;  0.0000000E+00; -2.3002976E-01;0; -8.4426925E-03;  4.0038121E+04;  0.0000000E+00;  1.0947406E-01;  4.0000000E+04;  0.0000000E+00;  3.9994988E+04; -7.4800188E-03;  0.0000000E+00; -9.6267357E-04;  6.4930145E+02;
  4.4138795E-01;  9.9999998E-03;  1.5002914E-01;5175; -6.1764158E-03;  0.0000000E+00; -1.2639567E-04;  1.0003892E+03;  1.0000000E-01;  3.2246002E+02;3;  8.8656402E-01;  0.0000000E+00; -2.4661908E-01;0; -8.3159022E-03;  4.0033859E+04;  0.0000000E+00;  8.9112915E-02;  4.0000000E+04;  0.0000000E+00;  3.9995840E+04; -7.3168366E-03;  0.0000000E+00; -9.9906570E-04;  5.5505365E+02;
  4.4137347E-01;  9.9999998E-03;  1.6002977E-01;5176; -6.0972511E-03;  0.0000000E+00; -1.3221103E-04;  1.0003149E+03;  1.0000000E-01;  2.6083212E+02;3;  8.7724894E-01;  0.0000000E+00; -2.6276767E-01;0; -8.1869289E-03;  4.0027266E+04;  0.0000000E+00;  5.8943864E-02;  4.0000000E+04;  0.0000000E+00;  3.9996816E+04; -7.1418500E-03;  0.0000000E+00; -1.0450794E-03;  4.3762421E+02;
  4.4136137E-01;  9.9999998E-03;  1.7002992E-01;5177; -6.0141780E-03;  0.0000000E+00; -1.3817668E-04;  1.0002198E+03;  1.0000000E-01;  1.8211830E+02;3;  8.6739188E-01;  0.0000000E+00; -2.7928779E-01;0; -8.0561573E-03;  4.0018574E+04;  0.0000000E+00;  2.0262241E-02;  4.0000000E+04;  0.0000000E+00;  3.9997535E+04; -6.9547868E-03;  0.0000000E+00; -1.1013706E-03;  3.0032532E+02;
  4.4135159E-01;  9.9999998E-03;  1.8002947E-01;5178; -5.9274314E-03;  0.0000000E+00; -1.4443602E-04;  1.0001062E+03;  1.0000000E-01;  8.7997513E+01;3;  8.5784853E-01;  0.0000000E+00; -2.9427540E-01;0; -7.9235835E-03;  4.0008152E+04;  0.0000000E+00; -2.4176706E-02;  4.0000000E+04;  0.0000000E+00;  3.9998609E+04; -6.7565325E-03;  0.0000000E+00; -1.1670513E-03;  1.5701050E+02;
  4.4134399E-01;  9.9999998E-03;  1.9002780E-01;5179; -5.8373818E-03;  0.0000000E+00; -1.5144916E-04;  9.9996588E+02;  1.0000000E-01; -2.8246115E+01;3;  8.4936261E-01;  0.0000000E+00; -3.0621907E-01;0; -7.7889324E-03;  3.9995953E+04;  0.0000000E+00; -7.0758663E-02;  4.0000000E+04;  0.0000000E+00;  4.0000055E+04; -6.5491768E-03;  0.0000000E+00; -1.2397555E-03;  1.0019061E+02;
  4.4133794E-01;  9.9999998E-03;  2.0002404E-01;5180; -5.7445401E-03;  0.0000000E+00; -1.5967491E-04;  9.9981866E+02;  1.0000000E-01; -1.5021797E+02;3;  8.4165394E-01;  0.0000000E+00; -3.1612825E-01;0; -7.6517425E-03;  3.9982281E+04;  0.0000000E+00; -1.1578839E-01;  4.0000000E+04;  0.0000000E+00;  4.0001281E+04; -6.3358643E-03;  0.0000000E+00; -1.3158785E-03;  2.3674283E+02;
  4.4133314E-01;  9.9999998E-03;  2.1001714E-01;5181; -5.6494260E-03;  0.0000000E+00; -1.6885935E-04;  9.9965857E+02;  1.0000000E-01; -2.8285620E+02;3;  8.3468986E-01;  0.0000000E+00; -3.2423350E-01;0; -7.5105447E-03;  3.9968148E+04;  0.0000000E+00; -1.5612131E-01;  4.0000000E+04;  0.0000000E+00;  4.0002973E+04; -6.1203516E-03;  0.0000000E+00; -1.3901929E-03;  4.4288864E+02;
  4.4132978E-01;  9.9999998E-03;  2.2000918E-01;5182; -5.5524153E-03;  0.0000000E+00; -1.7377915E-04;  9.9950818E+02;  1.0000000E-01; -4.0744525E+02;3;  8.2829791E-01;  0.0000000E+00; -3.3128226E-01;0; -7.3520467E-03;  3.9953734E+04;  0.0000000E+00; -1.8949848E-01;  4.0000000E+04;  0.0000000E+00;  4.0005363E+04; -5.9065889E-03;  0.0000000E+00; -1.4454580E-03;  7.2994696E+02;
  4.4132787E-01;  9.9999998E-03;  2.3000664E-01;5183; -5.4546990E-03;  0.0000000E+00; -1.7753210E-04;  9.9935132E+02;  1.0000000E-01; -5.3741687E+02;3;  8.2227838E-01;  0.0000000E+00; -3.3779806E-01;0; -7.1612457E-03;  3.9939219E+04;  0.0000000E+00; -2.1440668E-01;  4.0000000E+04;  0.0000000E+00;  4.0007016E+04; -5.6982362E-03;  0.0000000E+00; -1.4630094E-03;  9.9040320E+02;
  4.5149004E-01;  9.9999998E-03;  7.0005022E-02;5228; -6.7216805E-03;  0.0000000E+00; -7.5101714E-05;  1.0001277E+03;  1.0000000E-01;  1.0577479E+02;3;  9.7927940E-01;  0.0000000E+00; -1.2553802E-01;0; -9.2717279E-03;  4.0016020E+04;  0.0000000E+00;  5.3171597E-02;  4.0000000E+04;  0.0000000E+00;  3.9994238E+04; -8.2306908E-03;  0.0000000E+00; -1.0410370E-03;  7.5389221E+02;
  4.5147949E-01;  9.9999998E-03;  8.0009490E-02;5229; -6.6811875E-03;  0.0000000E+00; -8.6947883E-05;  1.0002164E+03;  1.0000000E-01;  1.7935295E+02;3;  9.7409165E-01;  0.0000000E+00; -1.4255427E-01;0; -9.1608549E-03;  4.0023383E+04;  0.0000000E+00;  6.5324739E-02;  4.0000000E+04;  0.0000000E+00;  3.9993641E+04; -8.1123998E-03;  0.0000000E+00; -1.0484547E-03;  8.0564056E+02;
  4.5146722E-01;  9.9999998E-03;  9.0014502E-02;5230; -6.6353763E-03;  0.0000000E+00; -9.8436460E-05;  1.0003016E+03;  1.0000000E-01;  2.4986948E+02;3;  9.6818358E-01;  0.0000000E+00; -1.5926830E-01;0; -9.0454929E-03;  4.0030430E+04;  0.0000000E+00;  7.6357342E-02;  4.0000000E+04;  0.0000000E+00;  3.9993586E+04; -7.9883235E-03;  0.0000000E+00; -1.0571694E-03;  8.3433575E+02;
  4.5145321E-01;  9.9999998E-03;  1.0001943E-01;5231; -6.5843272E-03;  0.0000000E+00; -1.0929910E-04;  1.0003752E+03;  1.0000000E-01;  3.1080603E+02;3;  9.6161830E-01;  0.0000000E+00; -1.7556742E-01;0; -8.9263478E-03;  4.0035980E+04;  0.0000000E+00;  8.5145608E-02;  4.0000000E+04;  0.0000000E+00;  3.9993621E+04; -7.8591751E-03;  0.0000000E+00; -1.0671727E-03;  8.3925775E+02;
  4.5143795E-01;  9.9999998E-03;  1.1002374E-01;5232; -6.5281275E-03;  0.0000000E+00; -1.1934216E-04;  1.0004326E+03;  1.0000000E-01;  3.5840961E+02;3;  9.5445144E-01;  0.0000000E+00; -1.9146003E-01;0; -8.8034738E-03;  4.0040148E+04;  0.0000000E+00;  9.0477847E-02;  4.0000000E+04;  0.0000000E+00;  3.9993750E+04; -7.7247629E-03;  0.0000000E+00; -1.0787111E-03;  8.2175714E+02;
  4.5142230E-01;  9.9999998E-03;  1.2002724E-01;5233; -6.4668683E-03;  0.0000000E+00; -1.2852135E-04;  1.0004670E+03;  1.0000000E-01;  3.8685327E+02;3;  9.4719982E-01;  0.0000000E+00; -2.0549665E-01;0; -8.6765662E-03;  4.0042801E+04;  0.0000000E+00;  9.1112971E-02;  4.0000000E+04;  0.0000000E+00;  3.9994191E+04; -7.5841048E-03;  0.0000000E+00; -1.0924612E-03;  7.8411755E+02;
  4.5140690E-01;  9.9999998E-03;  1.3002980E-01;5234; -6.4006895E-03;  0.0000000E+00; -1.3705029E-04;  1.0004770E+03;  1.0000000E-01;  3.9514932E+02;3;  9.3964303E-01;  0.0000000E+00; -2.1856031E-01;0; -8.5453261E-03;  4.0042945E+04;  0.0000000E+00;  8.5789353E-02;  4.0000000E+04;  0.0000000E+00;  3.9994586E+04; -7.4356510E-03;  0.0000000E+00; -1.1096748E-03;  7.2780212E+02;
  4.5139191E-01;  9.9999998E-03;  1.4003167E-01;5235; -6.3296701E-03;  0.0000000E+00; -1.4505988E-04;  1.0004622E+03;  1.0000000E-01;  3.8290274E+02;3;  9.3110073E-01;  0.0000000E+00; -2.3271026E-01;0; -8.4098522E-03;  4.0040895E+04;  0.0000000E+00;  7.3315613E-02;  4.0000000E+04;  0.0000000E+00;  3.9995332E+04; -7.2775413E-03;  0.0000000E+00; -1.1323111E-03;  6.5267542E+02;
  4.5137864E-01;  9.9999998E-03;  1.5003297E-01;5236; -6.2538753E-03;  0.0000000E+00; -1.5265741E-04;  1.0004205E+03;  1.0000000E-01;  3.4843460E+02;3;  9.2154336E-01;  0.0000000E+00; -2.4799228E-01;0; -8.2707945E-03;  4.0036641E+04;  0.0000000E+00;  5.2771635E-02;  4.0000000E+04;  0.0000000E+00;  3.9995840E+04; -7.1078129E-03;  0.0000000E+00; -1.1629818E-03;  5.5673291E+02;
  4.5136830E-01;  9.9999998E-03;  1.6003376E-01;5237; -6.1733476E-03;  0.0000000E+00; -1.5994564E-04;  1.0003517E+03;  1.0000000E-01;  2.9144855E+02;3;  9.1117555E-01;  0.0000000E+00; -2.6370284E-01;0; -8.1288964E-03;  4.0030258E+04;  0.0000000E+00;  2.3931302E-02;  4.0000000E+04;  0.0000000E+00;  3.9996734E+04; -6.9249831E-03;  0.0000000E+00; -1.2039130E-03;  4.3987469E+02;
  4.5136100E-01;  9.9999998E-03;  1.7003390E-01;5238; -6.0882187E-03;  0.0000000E+00; -1.6710882E-04;  1.0002587E+03;  1.0000000E-01;  2.1431493E+02;3;  9.0011507E-01;  0.0000000E+00; -2.7976683E-01;0; -7.9844296E-03;  4.0021461E+04;  0.0000000E+00; -1.2109225E-02;  4.0000000E+04;  0.0000000E+00;  3.9997508E+04; -6.7284619E-03;  0.0000000E+00; -1.2559675E-03;  3.0773425E+02;
  4.5135674E-01;  9.9999998E-03;  1.8003307E-01;5239; -5.9987116E-03;  0.0000000E+00; -1.7438823E-04;  1.0001362E+03;  1.0000000E-01;  1.1278693E+02;3;  8.8917804E-01;  0.0000000E+00; -2.9466766E-01;0; -7.8373477E-03;  4.0011129E+04;  0.0000000E+00; -5.2883524E-02;  4.0000000E+04;  0.0000000E+00;  3.9998941E+04; -6.5190727E-03;  0.0000000E+00; -1.3182751E-03;  1.7953168E+02;
  4.5135519E-01;  9.9999998E-03;  1.9003093E-01;5240; -5.9052715E-03;  0.0000000E+00; -1.8215545E-04;  1.0000015E+03;  1.0000000E-01;  1.1851517E+00;3;  8.7901020E-01;  0.0000000E+00; -3.0680254E-01;0; -7.6870811E-03;  3.9998949E+04;  0.0000000E+00; -9.5091701E-02;  4.0000000E+04;  0.0000000E+00;  3.9999898E+04; -6.2988969E-03;  0.0000000E+00; -1.3881841E-03;  1.3469765E+02;
  4.5135611E-01;  9.9999998E-03;  2.0002680E-01;5241; -5.8085821E-03;  0.0000000E+00; -1.9121618E-04;  9.9985297E+02;  1.0000000E-01; -1.2182372E+02;3;  8.6948282E-01;  0.0000000E+00; -3.1718346E-01;0; -7.5327884E-03;  3.9985848E+04;  0.0000000E+00; -1.3536201E-01;  4.0000000E+04;  0.0000000E+00;  4.0001078E+04; -6.0711987E-03;  0.0000000E+00; -1.4615898E-03;  2.4170758E+02;
  4.5135924E-01;  9.9999998E-03;  2.1002026E-01;5242; -5.7093683E-03;  0.0000000E+00; -2.0142153E-04;  9.9969934E+02;  1.0000000E-01; -2.4907938E+02;3;  8.6153328E-01;  0.0000000E+00; -3.2442406E-01;0; -7.3725241E-03;  3.9971895E+04;  0.0000000E+00; -1.7084001E-01;  4.0000000E+04;  0.0000000E+00;  4.0002543E+04; -5.8398778E-03;  0.0000000E+00; -1.5326462E-03;  4.1892673E+02;
  4.5136392E-01;  9.9999998E-03;  2.2001326E-01;5243; -5.6083212E-03;  0.0000000E+00; -2.1049945E-04;  9.9954303E+02;  1.0000000E-01; -3.7860657E+02;3;  8.5412836E-01;  0.0000000E+00; -3.3055821E-01;0; -7.1980208E-03;  3.9957387E+04;  0.0000000E+00; -1.9942209E-01;  4.0000000E+04;  0.0000000E+00;  4.0004504E+04; -5.6090541E-03;  0.0000000E+00; -1.5889667E-03;  6.5817755E+02;
  4.5136836E-01;  9.9999998E-03;  2.3001087E-01;5244; -5.5064699E-03;  0.0000000E+00; -2.2136079E-04;  9.9939209E+02;  1.0000000E-01; -5.0364008E+02;3;  8.4692806E-01;  0.0000000E+00; -3.3571607E-01;0; -7.0033427E-03;  3.9943215E+04;  0.0000000E+00; -2.1950519E-01;  4.0000000E+04;  0.0000000E+00;  4.0006371E+04; -5.3826370E-03;  0.0000000E+00; -1.6207057E-03;  8.6581909E+02;
  4.6146864E-01;  9.9999998E-03;  7.0006855E-02;5289; -6.8053380E-03;  0.0000000E+00; -8.3898136E-05;  1.0001725E+03;  1.0000000E-01;  1.4290955E+02;3;  1.0202627E+00;  0.0000000E+00; -1.2608780E-01;0; -9.2884032E-03;  4.0019355E+04;  0.0000000E+00;  3.8515341E-02;  4.0000000E+04;  0.0000000E+00;  3.9994242E+04; -8.0362558E-03;  0.0000000E+00; -1.2521475E-03;  7.3130963E+02;
  4.6145284E-01;  9.9999998E-03;  8.0010936E-02;5290; -6.7618103E-03;  0.0000000E+00; -9.7631564E-05;  1.0002564E+03;  1.0000000E-01;  2.1243843E+02;3;  1.0144460E+00;  0.0000000E+00; -1.4322995E-01;0; -9.1722328E-03;  4.0026375E+04;  0.0000000E+00;  4.5786984E-02;  4.0000000E+04;  0.0000000E+00;  3.9994203E+04; -7.9139303E-03;  0.0000000E+00; -1.2583021E-03;  7.8293500E+02;
  4.6143582E-01;  9.9999998E-03;  9.0015449E-02;5291; -6.7136623E-03;  0.0000000E+00; -1.1117424E-04;  1.0003261E+03;  1.0000000E-01;  2.7021457E+02;3;  1.0078743E+00;  0.0000000E+00; -1.6008534E-01;0; -9.0506338E-03;  4.0032348E+04;  0.0000000E+00;  5.1460993E-02;  4.0000000E+04;  0.0000000E+00;  3.9993973E+04; -7.7860048E-03;  0.0000000E+00; -1.2646292E-03;  8.1401239E+02;
  4.6141863E-01;  9.9999998E-03;  1.0001989E-01;5292; -6.6609974E-03;  0.0000000E+00; -1.2424494E-04;  1.0003935E+03;  1.0000000E-01;  3.2601547E+02;3;  1.0005574E+00;  0.0000000E+00; -1.7660078E-01;0; -8.9243371E-03;  4.0037555E+04;  0.0000000E+00;  5.4765128E-02;  4.0000000E+04;  0.0000000E+00;  3.9993844E+04; -7.6532229E-03;  0.0000000E+00; -1.2711145E-03;  8.2361871E+02;
  4.6140221E-01;  9.9999998E-03;  1.1002379E-01;5293; -6.6037951E-03;  0.0000000E+00; -1.3662211E-04;  1.0004439E+03;  1.0000000E-01;  3.6779205E+02;3;  9.9260795E-01;  0.0000000E+00; -1.9271031E-01;0; -8.7934518E-03;  4.0041391E+04;  0.0000000E+00;  5.4987833E-02;  4.0000000E+04;  0.0000000E+00;  3.9993789E+04; -7.5153457E-03;  0.0000000E+00; -1.2781065E-03;  8.1257605E+02;
  4.6138674E-01;  9.9999998E-03;  1.2002676E-01;5294; -6.5419511E-03;  0.0000000E+00; -1.4818928E-04;  1.0004772E+03;  1.0000000E-01;  3.9534683E+02;3;  9.8407423E-01;  0.0000000E+00; -2.0832586E-01;0; -8.6577553E-03;  4.0043691E+04;  0.0000000E+00;  5.1482353E-02;  4.0000000E+04;  0.0000000E+00;  3.9994160E+04; -7.3712929E-03;  0.0000000E+00; -1.2864624E-03;  7.8255640E+02;
  4.6137348E-01;  9.9999998E-03;  1.3002883E-01;5295; -6.4752973E-03;  0.0000000E+00; -1.5895600E-04;  1.0004886E+03;  1.0000000E-01;  4.0482806E+02;3;  9.7502679E-01;  0.0000000E+00; -2.2326466E-01;0; -8.5170399E-03;  4.0044066E+04;  0.0000000E+00;  4.3604285E-02;  4.0000000E+04;  0.0000000E+00;  3.9994262E+04; -7.2193076E-03;  0.0000000E+00; -1.2977322E-03;  7.3465009E+02;
  4.6136260E-01;  9.9999998E-03;  1.4003009E-01;5296; -6.4036506E-03;  0.0000000E+00; -1.6905050E-04;  1.0004700E+03;  1.0000000E-01;  3.8932233E+02;3;  9.6583927E-01;  0.0000000E+00; -2.3662698E-01;0; -8.3714705E-03;  4.0042012E+04;  0.0000000E+00;  3.0712953E-02;  4.0000000E+04;  0.0000000E+00;  3.9994992E+04; -7.0572603E-03;  0.0000000E+00; -1.3142100E-03;  6.6825842E+02;
  4.6135485E-01;  9.9999998E-03;  1.5003069E-01;5297; -6.3269236E-03;  0.0000000E+00; -1.7883361E-04;  1.0004290E+03;  1.0000000E-01;  3.5544675E+02;3;  9.5632911E-01;  0.0000000E+00; -2.4898115E-01;0; -8.2217455E-03;  4.0038008E+04;  0.0000000E+00;  1.2221836E-02;  4.0000000E+04;  0.0000000E+00;  3.9995633E+04; -6.8828966E-03;  0.0000000E+00; -1.3388485E-03;  5.8133301E+02;
  4.6135134E-01;  9.9999998E-03;  1.6003081E-01;5298; -6.2450003E-03;  0.0000000E+00; -1.8844401E-04;  1.0003627E+03;  1.0000000E-01;  3.0043594E+02;3;  9.4522244E-01;  0.0000000E+00; -2.6335326E-01;0; -8.0686295E-03;  4.0031828E+04;  0.0000000E+00; -1.2066348E-02;  4.0000000E+04;  0.0000000E+00;  3.9996254E+04; -6.6944277E-03;  0.0000000E+00; -1.3742016E-03;  4.7336523E+02;
  4.6135229E-01;  9.9999998E-03;  1.7003036E-01;5299; -6.1578145E-03;  0.0000000E+00; -1.9787828E-04;  1.0002731E+03;  1.0000000E-01;  2.2626521E+02;3;  9.3303168E-01;  0.0000000E+00; -2.7864969E-01;0; -7.9124067E-03;  4.0023809E+04;  0.0000000E+00; -4.1407280E-02;  4.0000000E+04;  0.0000000E+00;  3.9997645E+04; -6.4910157E-03;  0.0000000E+00; -1.4213914E-03;  3.4924457E+02;
  4.6135753E-01;  9.9999998E-03;  1.8002923E-01;5300; -6.0654636E-03;  0.0000000E+00; -2.0711073E-04;  1.0001635E+03;  1.0000000E-01;  1.3550233E+02;3;  9.2080092E-01;  0.0000000E+00; -2.9282537E-01;0; -7.7529657E-03;  4.0013621E+04;  0.0000000E+00; -7.4039564E-02;  4.0000000E+04;  0.0000000E+00;  3.9998605E+04; -6.2732929E-03;  0.0000000E+00; -1.4796726E-03;  2.2474785E+02;
  4.6136600E-01;  9.9999998E-03;  1.9002737E-01;5301; -5.9684273E-03;  0.0000000E+00; -2.1652543E-04;  1.0000354E+03;  1.0000000E-01;  2.9332504E+01;3;  9.0880471E-01;  0.0000000E+00; -3.0519855E-01;0; -7.5896112E-03;  4.0002059E+04;  0.0000000E+00; -1.0753591E-01;  4.0000000E+04;  0.0000000E+00;  3.9999805E+04; -6.0432977E-03;  0.0000000E+00; -1.5463136E-03;  1.5722466E+02;
  4.6137676E-01;  9.9999998E-03;  2.0002443E-01;5302; -5.8675185E-03;  0.0000000E+00; -2.2687431E-04;  9.9988745E+02;  1.0000000E-01; -9.3231934E+01;3;  8.9774197E-01;  0.0000000E+00; -3.1532070E-01;0; -7.4210698E-03;  3.9989141E+04;  0.0000000E+00; -1.3937090E-01;  4.0000000E+04;  0.0000000E+00;  4.0001215E+04; -5.8042463E-03;  0.0000000E+00; -1.6168234E-03;  2.3170204E+02;
  4.6138915E-01;  9.9999998E-03;  2.1002066E-01;5303; -5.7636709E-03;  0.0000000E+00; -2.3844351E-04;  9.9974036E+02;  1.0000000E-01; -2.1510503E+02;3;  8.8805121E-01;  0.0000000E+00; -3.2256585E-01;0; -7.2450265E-03;  3.9975500E+04;  0.0000000E+00; -1.6734128E-01;  4.0000000E+04;  0.0000000E+00;  4.0002242E+04; -5.5601210E-03;  0.0000000E+00; -1.6849053E-03;  3.8408240E+02;
  4.6140116E-01;  9.9999998E-03;  2.2001702E-01;5304; -5.6578727E-03;  0.0000000E+00; -2.5254075E-04;  9.9957941E+02;  1.0000000E-01; -3.4843460E+02;3;  8.7983727E-01;  0.0000000E+00; -3.2715359E-01;0; -7.0596845E-03;  3.9961477E+04;  0.0000000E+00; -1.8964261E-01;  4.0000000E+04;  0.0000000E+00;  4.0003840E+04; -5.3152125E-03;  0.0000000E+00; -1.7444720E-03;  5.6408459E+02;
  4.6141154E-01;  9.9999998E-03;  2.3001486E-01;5305; -5.5514034E-03;  0.0000000E+00; -2.7187588E-04;  9.9942322E+02;  1.0000000E-01; -4.7786304E+02;3;  8.7137067E-01;  0.0000000E+00; -3.3155939E-01;0; -6.8701757E-03;  3.9947770E+04;  0.0000000E+00; -2.0433912E-01;  4.0000000E+04;  0.0000000E+00;  4.0004855E+04; -5.0736521E-03;  0.0000000E+00; -1.7965236E-03;  7.2855078E+02;
  4.7142678E-01;  9.9999998E-03;  7.0010021E-02;5350; -6.8845479E-03;  0.0000000E+00; -9.2124486E-05;  1.0002149E+03;  1.0000000E-01;  1.7806903E+02;3;  1.0617790E+00;  0.0000000E+00; -1.2597366E-01;0; -9.2917839E-03;  4.0022840E+04;  0.0000000E+00;  1.9225961E-02;  4.0000000E+04;  0.0000000E+00;  3.9994855E+04; -7.8157969E-03;  0.0000000E+00; -1.4759873E-03;  6.7424414E+02;
  4.7140777E-01;  9.9999998E-03;  8.0013297E-02;5351; -6.8382979E-03;  0.0000000E+00; -1.0754108E-04;  1.0002798E+03;  1.0000000E-01;  2.3179591E+02;3;  1.0553436E+00;  0.0000000E+00; -1.4311703E-01;0; -9.1720279E-03;  4.0028070E+04;  0.0000000E+00;  2.0844586E-02;  4.0000000E+04;  0.0000000E+00;  3.9994238E+04; -7.6915147E-03;  0.0000000E+00; -1.4805134E-03;  7.2574561E+02;
  4.7138846E-01;  9.9999998E-03;  9.0016760E-02;5352; -6.7880326E-03;  0.0000000E+00; -1.2301050E-04;  1.0003388E+03;  1.0000000E-01;  2.8068341E+02;3;  1.0480847E+00;  0.0000000E+00; -1.5995258E-01;0; -9.0458356E-03;  4.0032949E+04;  0.0000000E+00;  2.0685034E-02;  4.0000000E+04;  0.0000000E+00;  3.9993949E+04; -7.5616064E-03;  0.0000000E+00; -1.4842292E-03;  7.6220837E+02;
  4.7136930E-01;  9.9999998E-03;  1.0002004E-01;5353; -6.7338543E-03;  0.0000000E+00; -1.3827134E-04;  1.0003918E+03;  1.0000000E-01;  3.2463278E+02;3;  1.0400573E+00;  0.0000000E+00; -1.7642678E-01;0; -8.9139491E-03;  4.0037289E+04;  0.0000000E+00;  1.8486135E-02;  4.0000000E+04;  0.0000000E+00;  3.9993852E+04; -7.4268854E-03;  0.0000000E+00; -1.4870634E-03;  7.8240393E+02;
  4.7135162E-01;  9.9999998E-03;  1.1002270E-01;5354; -6.6756634E-03;  0.0000000E+00; -1.5310009E-04;  1.0004322E+03;  1.0000000E-01;  3.5801456E+02;3;  1.0312891E+00;  0.0000000E+00; -1.9248423E-01;0; -8.7765120E-03;  4.0040488E+04;  0.0000000E+00;  1.4150457E-02;  4.0000000E+04;  0.0000000E+00;  3.9994215E+04; -7.2870930E-03;  0.0000000E+00; -1.4894188E-03;  7.8609778E+02;
  4.7133669E-01;  9.9999998E-03;  1.2002444E-01;5355; -6.6131880E-03;  0.0000000E+00; -1.6734560E-04;  1.0004603E+03;  1.0000000E-01;  3.8132254E+02;3;  1.0218767E+00;  0.0000000E+00; -2.0804426E-01;0; -8.6333919E-03;  4.0042535E+04;  0.0000000E+00;  7.6887701E-03;  4.0000000E+04;  0.0000000E+00;  3.9994480E+04; -7.1410867E-03;  0.0000000E+00; -1.4923048E-03;  7.7365442E+02;
  4.7132549E-01;  9.9999998E-03;  1.3002522E-01;5356; -6.5460298E-03;  0.0000000E+00; -1.8094596E-04;  1.0004675E+03;  1.0000000E-01;  3.8734708E+02;3;  1.0118458E+00;  0.0000000E+00; -2.2300741E-01;0; -8.4845237E-03;  4.0042734E+04;  0.0000000E+00; -8.9978823E-04;  4.0000000E+04;  0.0000000E+00;  3.9994266E+04; -6.9870371E-03;  0.0000000E+00; -1.4974866E-03;  7.4450153E+02;
  4.7131833E-01;  9.9999998E-03;  1.4002514E-01;5357; -6.4737443E-03;  0.0000000E+00; -1.9393435E-04;  1.0004515E+03;  1.0000000E-01;  3.7411288E+02;3;  1.0012296E+00;  0.0000000E+00; -2.3730247E-01;0; -8.3302371E-03;  4.0041176E+04;  0.0000000E+00; -1.1752173E-02;  4.0000000E+04;  0.0000000E+00;  3.9994719E+04; -6.8226941E-03;  0.0000000E+00; -1.5075431E-03;  6.9655249E+02;
  4.7131556E-01;  9.9999998E-03;  1.5002453E-01;5358; -6.3959337E-03;  0.0000000E+00; -2.0643935E-04;  1.0004141E+03;  1.0000000E-01;  3.4300266E+02;3;  9.9009293E-01;  0.0000000E+00; -2.5071692E-01;0; -8.1713777E-03;  4.0037562E+04;  0.0000000E+00; -2.5196237E-02;  4.0000000E+04;  0.0000000E+00;  3.9995191E+04; -6.6456371E-03;  0.0000000E+00; -1.5257410E-03;  6.2630933E+02;
  4.7131759E-01;  9.9999998E-03;  1.6002375E-01;5359; -6.3123512E-03;  0.0000000E+00; -2.1872098E-04;  1.0003541E+03;  1.0000000E-01;  2.9342380E+02;3;  9.7886115E-01;  0.0000000E+00; -2.6251313E-01;0; -8.0087576E-03;  4.0032078E+04;  0.0000000E+00; -4.1556399E-02;  4.0000000E+04;  0.0000000E+00;  3.9996121E+04; -6.4538247E-03;  0.0000000E+00; -1.5549331E-03;  5.3151215E+02;
  4.7132456E-01;  9.9999998E-03;  1.7002299E-01;5360; -6.2229498E-03;  0.0000000E+00; -2.3103612E-04;  1.0002685E+03;  1.0000000E-01;  2.2241347E+02;3;  9.6635163E-01;  0.0000000E+00; -2.7504519E-01;0; -7.8427549E-03;  4.0024246E+04;  0.0000000E+00; -6.0709376E-02;  4.0000000E+04;  0.0000000E+00;  3.9996719E+04; -6.2462357E-03;  0.0000000E+00; -1.5965190E-03;  4.1390576E+02;
  4.7133613E-01;  9.9999998E-03;  1.8002230E-01;5361; -6.1277687E-03;  0.0000000E+00; -2.4324482E-04;  1.0001691E+03;  1.0000000E-01;  1.4014418E+02;3;  9.5296520E-01;  0.0000000E+00; -2.8803915E-01;0; -7.6732691E-03;  4.0014980E+04;  0.0000000E+00; -8.1953451E-02;  4.0000000E+04;  0.0000000E+00;  3.9997715E+04; -6.0232361E-03;  0.0000000E+00; -1.6500332E-03;  2.8255466E+02;
  4.7135141E-01;  9.9999998E-03;  1.9002169E-01;5362; -6.0270899E-03;  0.0000000E+00; -2.5528608E-04;  1.0000430E+03;  1.0000000E-01;  3.5653313E+01;3;  9.3915015E-01;  0.0000000E+00; -3.0086482E-01;0; -7.4995770E-03;  4.0003578E+04;  0.0000000E+00; -1.0414038E-01;  4.0000000E+04;  0.0000000E+00;  3.9999145E+04; -5.7866662E-03;  0.0000000E+00; -1.7129108E-03;  1.7331599E+02;
  4.7136819E-01;  9.9999998E-03;  2.0002128E-01;5363; -5.9218165E-03;  0.0000000E+00; -2.6770402E-04;  9.9990631E+02;  1.0000000E-01; -7.7627434E+01;3;  9.2641258E-01;  0.0000000E+00; -3.1075379E-01;0; -7.3202238E-03;  3.9991250E+04;  0.0000000E+00; -1.2588400E-01;  4.0000000E+04;  0.0000000E+00;  4.0000457E+04; -5.5396585E-03;  0.0000000E+00; -1.7805652E-03;  1.9356792E+02;
  4.7138456E-01;  9.9999998E-03;  2.1002111E-01;5364; -5.8131604E-03;  0.0000000E+00; -2.8216475E-04;  9.9975555E+02;  1.0000000E-01; -2.0251279E+02;3;  9.1486084E-01;  0.0000000E+00; -3.1811610E-01;0; -7.1338569E-03;  3.9978117E+04;  0.0000000E+00; -1.4570242E-01;  4.0000000E+04;  0.0000000E+00;  4.0001887E+04; -5.2861562E-03;  0.0000000E+00; -1.8477008E-03;  3.1858487E+02;
  4.7139832E-01;  9.9999998E-03;  2.2002065E-01;5365; -5.7023671E-03;  0.0000000E+00; -3.0161274E-04;  9.9959802E+02;  1.0000000E-01; -3.3302762E+02;3;  9.0437025E-01;  0.0000000E+00; -3.2303685E-01;0; -6.9438070E-03;  3.9964617E+04;  0.0000000E+00; -1.6187885E-01;  4.0000000E+04;  0.0000000E+00;  4.0002852E+04; -5.0305719E-03;  0.0000000E+00; -1.9132349E-03;  4.4914822E+02;
  4.7140875E-01;  9.9999998E-03;  2.3001796E-01;5366; -5.5908728E-03;  0.0000000E+00; -3.2665613E-04;  9.9944366E+02;  1.0000000E-01; -4.6092523E+02;3;  8.9451408E-01;  0.0000000E+00; -3.2684618E-01;0; -6.7587104E-03;  3.9951012E+04;  0.0000000E+00; -1.7188941E-01;  4.0000000E+04;  0.0000000E+00;  4.0004184E+04; -4.7772620E-03;  0.0000000E+00; -1.9814481E-03;  5.9993994E+02;
  4.8133329E-01;  9.9999998E-03;  1.1002224E-01;5415; -6.7445352E-03;  0.0000000E+00; -1.7049162E-04;  1.0004144E+03;  1.0000146E-01;  3.4329892E+02;3;  1.0704873E+00;  0.0000000E+00; -1.9113180E-01;0; -8.7573947E-03;  4.0037652E+04;  0.0000000E+00; -2.9013792E-02;  4.0000000E+04;  0.0000000E+00;  3.9994324E+04; -7.0440508E-03;  0.0000000E+00; -1.7133440E-03;  7.5049408E+02;
  4.8131824E-01;  9.9999998E-03;  1.2002283E-01;5416; -6.6813612E-03;  0.0000000E+00; -1.8760528E-04;  1.0004327E+03;  1.0000150E-01;  3.5850839E+02;3;  1.0601335E+00;  0.0000000E+00; -2.0648344E-01;0; -8.6076418E-03;  4.0039387E+04;  0.0000000E+00; -3.6211278E-02;  4.0000000E+04;  0.0000000E+00;  3.9994047E+04; -6.8973433E-03;  0.0000000E+00; -1.7102986E-03;  7.6316284E+02;
  4.8135257E-01;  9.9999998E-03;  1.0002074E-01;5414; -6.8036597E-03;  0.0000000E+00; -1.5311649E-04;  1.0003840E+03;  1.0000148E-01;  3.1821323E+02;3;  1.0801083E+00;  0.0000000E+00; -1.7525572E-01;0; -8.9005688E-03;  4.0035262E+04;  0.0000000E+00; -2.1708824E-02;  4.0000000E+04;  0.0000000E+00;  3.9994488E+04; -7.1844338E-03;  0.0000000E+00; -1.7161351E-03;  7.2497961E+02;
  4.8130786E-01;  9.9999998E-03;  1.3002247E-01;5417; -6.6135558E-03;  0.0000000E+00; -2.0433428E-04;  1.0004387E+03;  1.0000146E-01;  3.6344650E+02;3;  1.0490911E+00;  0.0000000E+00; -2.2122185E-01;0; -8.4514404E-03;  4.0039340E+04;  0.0000000E+00; -4.2802427E-02;  4.0000000E+04;  0.0000000E+00;  3.9994184E+04; -6.7425258E-03;  0.0000000E+00; -1.7089142E-03;  7.5976166E+02;
  4.8137468E-01;  9.9999998E-03;  9.0018682E-02;5413; -6.8591456E-03;  0.0000000E+00; -1.3565246E-04;  1.0003478E+03;  1.0000148E-01;  2.8809061E+02;3;  1.0889246E+00;  0.0000000E+00; -1.5893160E-01;0; -9.0371771E-03;  4.0032070E+04;  0.0000000E+00; -1.4922222E-02;  4.0000000E+04;  0.0000000E+00;  3.9994855E+04; -7.3196078E-03;  0.0000000E+00; -1.7175693E-03;  6.8867267E+02;
  4.8139855E-01;  9.9999998E-03;  8.0016270E-02;5412; -6.9111730E-03;  0.0000000E+00; -1.1830177E-04;  1.0003083E+03;  1.0000142E-01;  2.5540018E+02;3;  1.0969061E+00;  0.0000000E+00; -1.4222506E-01;0; -9.1670062E-03;  4.0028633E+04;  0.0000000E+00; -9.2062103E-03;  4.0000000E+04;  0.0000000E+00;  3.9995234E+04; -7.4497648E-03;  0.0000000E+00; -1.7172414E-03;  6.4341992E+02;
  4.8130184E-01;  9.9999998E-03;  1.4002134E-01;5418; -6.5404670E-03;  0.0000000E+00; -2.2061908E-04;  1.0004194E+03;  1.0000150E-01;  3.4744696E+02;3;  1.0373476E+00;  0.0000000E+00; -2.3525432E-01;0; -8.2893251E-03;  4.0038422E+04;  0.0000000E+00; -4.8616312E-02;  4.0000000E+04;  0.0000000E+00;  3.9994250E+04; -6.5773339E-03;  0.0000000E+00; -1.7119909E-03;  7.3565668E+02;
  4.8142284E-01;  9.9999998E-03;  7.0013739E-02;5411; -6.9596334E-03;  0.0000000E+00; -1.0127294E-04;  1.0002678E+03;  1.0000142E-01;  2.2182089E+02;3;  1.1039749E+00;  0.0000000E+00; -1.2519152E-01;0; -9.2893643E-03;  4.0025297E+04;  0.0000000E+00; -4.8852274E-03;  4.0000000E+04;  0.0000000E+00;  3.9995496E+04; -7.5741103E-03;  0.0000000E+00; -1.7152543E-03;  5.9109454E+02;
  4.8129964E-01;  9.9999998E-03;  1.5001985E-01;5419; -6.4614778E-03;  0.0000000E+00; -2.3647011E-04;  1.0003843E+03;  1.0000141E-01;  3.1841074E+02;3;  1.0250065E+00;  0.0000000E+00; -2.4849100E-01;0; -8.1223790E-03;  4.0035191E+04;  0.0000000E+00; -5.3960487E-02;  4.0000000E+04;  0.0000000E+00;  3.9994871E+04; -6.3993190E-03;  0.0000000E+00; -1.7230596E-03;  6.8508923E+02;
  4.8130053E-01;  9.9999998E-03;  1.6001852E-01;5420; -6.3761305E-03;  0.0000000E+00; -2.5196173E-04;  1.0003342E+03;  1.0000144E-01;  2.7683167E+02;3;  1.0121367E+00;  0.0000000E+00; -2.6077992E-01;0; -7.9515558E-03;  4.0030059E+04;  0.0000000E+00; -5.9567511E-02;  4.0000000E+04;  0.0000000E+00;  3.9995496E+04; -6.2063015E-03;  0.0000000E+00; -1.7452542E-03;  6.0363733E+02;
  4.8130429E-01;  9.9999998E-03;  1.7001763E-01;5421; -6.2842825E-03;  0.0000000E+00; -2.6730163E-04;  1.0002558E+03;  1.0000145E-01;  2.1194463E+02;3;  9.9887639E-01;  0.0000000E+00; -2.7186733E-01;0; -7.7773267E-03;  4.0022781E+04;  0.0000000E+00; -6.6244751E-02;  4.0000000E+04;  0.0000000E+00;  3.9996332E+04; -5.9970599E-03;  0.0000000E+00; -1.7802669E-03;  4.9028998E+02;
  4.8131031E-01;  9.9999998E-03;  1.8001759E-01;5422; -6.1861547E-03;  0.0000000E+00; -2.8275375E-04;  1.0001578E+03;  1.0000140E-01;  1.3076173E+02;3;  9.8488396E-01;  0.0000000E+00; -2.8254160E-01;0; -7.5996183E-03;  4.0014105E+04;  0.0000000E+00; -7.4613184E-02;  4.0000000E+04;  0.0000000E+00;  3.9997371E+04; -5.7716626E-03;  0.0000000E+00; -1.8279557E-03;  3.4963406E+02;
  4.8131812E-01;  9.9999998E-03;  1.9001859E-01;5423; -6.0819788E-03;  0.0000000E+00; -2.9803798E-04;  1.0000416E+03;  1.0000148E-01;  3.4468163E+01;3;  9.6990359E-01;  0.0000000E+00; -2.9380074E-01;0; -7.4178213E-03;  4.0003406E+04;  0.0000000E+00; -8.4927082E-02;  4.0000000E+04;  0.0000000E+00;  3.9998641E+04; -5.5316519E-03;  0.0000000E+00; -1.8861694E-03;  2.0150323E+02;
  4.8132709E-01;  9.9999998E-03;  2.0002091E-01;5424; -5.9725377E-03;  0.0000000E+00; -3.1362206E-04;  9.9990509E+02;  1.0000140E-01; -7.8615059E+01;3;  9.5502186E-01;  0.0000000E+00; -3.0421087E-01;0; -7.2306646E-03;  3.9991137E+04;  0.0000000E+00; -9.6907988E-02;  4.0000000E+04;  0.0000000E+00;  4.0000039E+04; -5.2798567E-03;  0.0000000E+00; -1.9508078E-03;  1.3544649E+02;
  4.8133540E-01;  9.9999998E-03;  2.1002366E-01;5425; -5.8591738E-03;  0.0000000E+00; -3.3172590E-04;  9.9975574E+02;  1.0000147E-01; -2.0236465E+02;3;  9.4170463E-01;  0.0000000E+00; -3.1148338E-01;0; -7.0380773E-03;  3.9978254E+04;  0.0000000E+00; -1.0962055E-01;  4.0000000E+04;  0.0000000E+00;  4.0001086E+04; -5.0201570E-03;  0.0000000E+00; -2.0179201E-03;  2.1936642E+02;
  4.8134357E-01;  9.9999998E-03;  2.2002420E-01;5426; -5.7435674E-03;  0.0000000E+00; -3.5620277E-04;  9.9960107E+02;  1.0000146E-01; -3.3050919E+02;3;  9.2919040E-01;  0.0000000E+00; -3.1684253E-01;0; -6.8473755E-03;  3.9964898E+04;  0.0000000E+00; -1.2129261E-01;  4.0000000E+04;  0.0000000E+00;  4.0001848E+04; -4.7569550E-03;  0.0000000E+00; -2.0904206E-03;  3.2516098E+02;
  4.8135296E-01;  9.9999998E-03;  2.3001967E-01;5427; -5.6269793E-03;  0.0000000E+00; -3.8316529E-04;  9.9945197E+02;  1.0000141E-01; -4.5401184E+02;3;  9.1749626E-01;  0.0000000E+00; -3.2066494E-01;0; -6.6607487E-03;  3.9951496E+04;  0.0000000E+00; -1.2908910E-01;  4.0000000E+04;  0.0000000E+00;  4.0003258E+04; -4.4947737E-03;  0.0000000E+00; -2.1659750E-03;  5.0408810E+02;
  4.9149737E-01;  9.9999998E-03;  7.0004478E-02;5472; -7.0311087E-03;  0.0000000E+00; -1.1300841E-04;  1.0002985E+03;  1.0000208E-01;  2.4730165E+02;3;  1.1469456E+00;  0.0000000E+00; -1.2370103E-01;0; -9.2905723E-03;  4.0026098E+04;  0.0000000E+00; -3.2963157E-02;  4.0000000E+04;  0.0000000E+00;  3.9996129E+04; -7.3178010E-03;  0.0000000E+00; -1.9727717E-03;  4.9580240E+02;
  4.9147055E-01;  9.9999998E-03;  8.0005318E-02;5473; -6.9811032E-03;  0.0000000E+00; -1.3174380E-04;  1.0003148E+03;  1.0000209E-01;  2.6083212E+02;3;  1.1391933E+00;  0.0000000E+00; -1.4052439E-01;0; -9.1656242E-03;  4.0027891E+04;  0.0000000E+00; -4.2992689E-02;  4.0000000E+04;  0.0000000E+00;  3.9995637E+04; -7.1946522E-03;  0.0000000E+00; -1.9709715E-03;  5.5061383E+02;
  4.9144199E-01;  9.9999998E-03;  9.0006307E-02;5474; -6.9277720E-03;  0.0000000E+00; -1.5104280E-04;  1.0003363E+03;  1.0000204E-01;  2.7860941E+02;3;  1.1304692E+00;  0.0000000E+00; -1.5700907E-01;0; -9.0321479E-03;  4.0029988E+04;  0.0000000E+00; -5.3368792E-02;  4.0000000E+04;  0.0000000E+00;  3.9995496E+04; -7.0654489E-03;  0.0000000E+00; -1.9666993E-03;  6.0747565E+02;
  4.9141377E-01;  9.9999998E-03;  1.0000728E-01;5475; -6.8712193E-03;  0.0000000E+00; -1.7076639E-04;  1.0003567E+03;  1.0000208E-01;  2.9549780E+02;3;  1.1208134E+00;  0.0000000E+00; -1.7309353E-01;0; -8.8907955E-03;  4.0031762E+04;  0.0000000E+00; -6.3139945E-02;  4.0000000E+04;  0.0000000E+00;  3.9995137E+04; -6.9309692E-03;  0.0000000E+00; -1.9598261E-03;  6.6347949E+02;
  4.9138790E-01;  9.9999998E-03;  1.1000801E-01;5476; -6.8112146E-03;  0.0000000E+00; -1.9074834E-04;  1.0003693E+03;  1.0000202E-01;  3.0596664E+02;3;  1.1102470E+00;  0.0000000E+00; -1.8871096E-01;0; -8.7418612E-03;  4.0033566E+04;  0.0000000E+00; -7.1202926E-02;  4.0000000E+04;  0.0000000E+00;  3.9994430E+04; -6.7910701E-03;  0.0000000E+00; -1.9507908E-03;  7.1462494E+02;
  4.9136668E-01;  9.9999998E-03;  1.2000816E-01;5477; -6.7472453E-03;  0.0000000E+00; -2.1081047E-04;  1.0003791E+03;  1.0000196E-01;  3.1406519E+02;3;  1.0988836E+00;  0.0000000E+00; -2.0378731E-01;0; -8.5855024E-03;  4.0035012E+04;  0.0000000E+00; -7.6481365E-02;  4.0000000E+04;  0.0000000E+00;  3.9994340E+04; -6.6447207E-03;  0.0000000E+00; -1.9407818E-03;  7.5570251E+02;
  4.9135149E-01;  9.9999998E-03;  1.3000754E-01;5478; -6.6786101E-03;  0.0000000E+00; -2.3077700E-04;  1.0003801E+03;  1.0000198E-01;  3.1485529E+02;3;  1.0867225E+00;  0.0000000E+00; -2.1823554E-01;0; -8.4220460E-03;  4.0034969E+04;  0.0000000E+00; -7.8224510E-02;  4.0000000E+04;  0.0000000E+00;  3.9994094E+04; -6.4901887E-03;  0.0000000E+00; -1.9318576E-03;  7.8022772E+02;
  4.9134272E-01;  9.9999998E-03;  1.4000626E-01;5479; -6.6045173E-03;  0.0000000E+00; -2.5049740E-04;  1.0003679E+03;  1.0000201E-01;  3.0478149E+02;3;  1.0738194E+00;  0.0000000E+00; -2.3196125E-01;0; -8.2522919E-03;  4.0033738E+04;  0.0000000E+00; -7.6254174E-02;  4.0000000E+04;  0.0000000E+00;  3.9993977E+04; -6.3252682E-03;  0.0000000E+00; -1.9270238E-03;  7.8065533E+02;
  4.9134001E-01;  9.9999998E-03;  1.5000476E-01;5480; -6.5242127E-03;  0.0000000E+00; -2.6986719E-04;  1.0003331E+03;  1.0000207E-01;  2.7594281E+02;3;  1.0602101E+00;  0.0000000E+00; -2.4487250E-01;0; -8.0775702E-03;  4.0031109E+04;  0.0000000E+00; -7.1156487E-02;  4.0000000E+04;  0.0000000E+00;  3.9994246E+04; -6.1475136E-03;  0.0000000E+00; -1.9300563E-03;  7.4870599E+02;
  4.9134269E-01;  9.9999998E-03;  1.6000359E-01;5481; -6.4371275E-03;  0.0000000E+00; -2.8885485E-04;  1.0002841E+03;  1.0000201E-01;  2.3535136E+02;3;  1.0459682E+00;  0.0000000E+00; -2.5687918E-01;0; -7.8990534E-03;  4.0026254E+04;  0.0000000E+00; -6.4380802E-02;  4.0000000E+04;  0.0000000E+00;  3.9994664E+04; -5.9546810E-03;  0.0000000E+00; -1.9443725E-03;  6.7735706E+02;
  4.9134937E-01;  9.9999998E-03;  1.7000344E-01;5482; -6.3429936E-03;  0.0000000E+00; -3.0752321E-04;  1.0002098E+03;  1.0000210E-01;  1.7382225E+02;3;  1.0312064E+00;  0.0000000E+00; -2.6784387E-01;0; -7.7172336E-03;  4.0020027E+04;  0.0000000E+00; -5.7919726E-02;  4.0000000E+04;  0.0000000E+00;  3.9995871E+04; -5.7452815E-03;  0.0000000E+00; -1.9719522E-03;  5.6239697E+02;
  4.9135849E-01;  9.9999998E-03;  1.8000460E-01;5483; -6.2419991E-03;  0.0000000E+00; -3.2606450E-04;  1.0001208E+03;  1.0000210E-01;  1.0014532E+02;3;  1.0159222E+00;  0.0000000E+00; -2.7779970E-01;0; -7.5320303E-03;  4.0011129E+04;  0.0000000E+00; -5.3880077E-02;  4.0000000E+04;  0.0000000E+00;  3.9996855E+04; -5.5190814E-03;  0.0000000E+00; -2.0129492E-03;  4.0459210E+02;
  4.9136743E-01;  9.9999998E-03;  1.9000745E-01;5484; -6.1346171E-03;  0.0000000E+00; -3.4455795E-04;  1.0000063E+03;  1.0000215E-01;  5.2344198E+00;3;  1.0002770E+00;  0.0000000E+00; -2.8693062E-01;0; -7.3428736E-03;  4.0000660E+04;  0.0000000E+00; -5.3941347E-02;  4.0000000E+04;  0.0000000E+00;  3.9998422E+04; -5.2772802E-03;  0.0000000E+00; -2.0655934E-03;  2.1636151E+02;
  4.9137414E-01;  9.9999998E-03;  2.0001200E-01;5485; -6.0215257E-03;  0.0000000E+00; -3.6296720E-04;  9.9987457E+02;  1.0000195E-01; -1.0389829E+02;3;  9.8395461E-01;  0.0000000E+00; -2.9616129E-01;0; -7.1485792E-03;  3.9988496E+04;  0.0000000E+00; -5.8841527E-02;  4.0000000E+04;  0.0000000E+00;  3.9999961E+04; -5.0224578E-03;  0.0000000E+00; -2.1261214E-03;  8.0776169E+01;
  4.9138108E-01;  9.9999998E-03;  2.1001795E-01;5486; -5.9039202E-03;  0.0000000E+00; -3.8314515E-04;  9.9972620E+02;  1.0000203E-01; -2.2685779E+02;3;  9.6839082E-01;  0.0000000E+00; -3.0388266E-01;0; -6.9487090E-03;  3.9975562E+04;  0.0000000E+00; -6.8100266E-02;  4.0000000E+04;  0.0000000E+00;  4.0001219E+04; -4.7582258E-03;  0.0000000E+00; -2.1904833E-03;  1.9735890E+02;
  4.9138743E-01;  9.9999998E-03;  2.2002167E-01;5487; -5.7837637E-03;  0.0000000E+00; -4.1012184E-04;  9.9956940E+02;  1.0000205E-01; -3.5673065E+02;3;  9.5417058E-01;  0.0000000E+00; -3.0894023E-01;0; -6.7523057E-03;  3.9961895E+04;  0.0000000E+00; -7.9919077E-02;  4.0000000E+04;  0.0000000E+00;  4.0001777E+04; -4.4891029E-03;  0.0000000E+00; -2.2632028E-03;  3.1444867E+02;
  4.9139163E-01;  9.9999998E-03;  2.3001787E-01;5488; -5.6624049E-03;  0.0000000E+00; -4.3867060E-04;  9.9941339E+02;  1.0000207E-01; -4.8601096E+02;3;  9.4078177E-01;  0.0000000E+00; -3.1281665E-01;0; -6.5599699E-03;  3.9948039E+04;  0.0000000E+00; -9.1138504E-02;  4.0000000E+04;  0.0000000E+00;  4.0003613E+04; -4.2199427E-03;  0.0000000E+00; -2.3400269E-03;  5.2440533E+02;
  5.0150251E-01;  9.9999998E-03;  6.9995441E-02;5533; -7.0984699E-03;  0.0000000E+00; -1.2869795E-04;  1.0003136E+03;  1.0000388E-01;  2.5984451E+02;3;  1.1900504E+00;  0.0000000E+00; -1.2155569E-01;0; -9.3042850E-03;  4.0025395E+04;  0.0000000E+00; -6.2408727E-02;  4.0000000E+04;  0.0000000E+00;  3.9997121E+04; -7.0579336E-03;  0.0000000E+00; -2.2463517E-03;  4.0925702E+02;
  5.0148380E-01;  9.9999998E-03;  7.9993933E-02;5534; -7.0475973E-03;  0.0000000E+00; -1.4938859E-04;  1.0003174E+03;  1.0000373E-01;  2.6290616E+02;3;  1.1816425E+00;  0.0000000E+00; -1.3806990E-01;0; -9.1758221E-03;  4.0025387E+04;  0.0000000E+00; -7.7346094E-02;  4.0000000E+04;  0.0000000E+00;  3.9996570E+04; -6.9363602E-03;  0.0000000E+00; -2.2394625E-03;  4.6820227E+02;
  5.0146109E-01;  9.9999998E-03;  8.9992806E-02;5535; -6.9934512E-03;  0.0000000E+00; -1.7080529E-04;  1.0003157E+03;  1.0000387E-01;  2.6152347E+02;3;  1.1721666E+00;  0.0000000E+00; -1.5423575E-01;0; -9.0377592E-03;  4.0026387E+04;  0.0000000E+00; -9.1010571E-02;  4.0000000E+04;  0.0000000E+00;  3.9995957E+04; -6.8084272E-03;  0.0000000E+00; -2.2293320E-03;  5.3736993E+02;
  5.0143570E-01;  9.9999998E-03;  9.9992283E-02;5536; -6.9361227E-03;  0.0000000E+00; -1.9288214E-04;  1.0003209E+03;  1.0000372E-01;  2.6586902E+02;3;  1.1616534E+00;  0.0000000E+00; -1.6999282E-01;0; -8.8907946E-03;  4.0027570E+04;  0.0000000E+00; -1.0188746E-01;  4.0000000E+04;  0.0000000E+00;  3.9995348E+04; -6.6749747E-03;  0.0000000E+00; -2.2158201E-03;  6.1272632E+02;
  5.0141019E-01;  9.9999998E-03;  1.0999215E-01;5537; -6.8753418E-03;  0.0000000E+00; -2.1549630E-04;  1.0003294E+03;  1.0000384E-01;  2.7288116E+02;3;  1.1501700E+00;  0.0000000E+00; -1.8527889E-01;0; -8.7352786E-03;  4.0028453E+04;  0.0000000E+00; -1.0845806E-01;  4.0000000E+04;  0.0000000E+00;  3.9994738E+04; -6.5358863E-03;  0.0000000E+00; -2.1993921E-03;  6.8796826E+02;
  5.0138688E-01;  9.9999998E-03;  1.1999204E-01;5538; -6.8105338E-03;  0.0000000E+00; -2.3847049E-04;  1.0003281E+03;  1.0000389E-01;  2.7189355E+02;3;  1.1377420E+00;  0.0000000E+00; -2.0001589E-01;0; -8.5715633E-03;  4.0029508E+04;  0.0000000E+00; -1.0945228E-01;  4.0000000E+04;  0.0000000E+00;  3.9994320E+04; -6.3902666E-03;  0.0000000E+00; -2.1812972E-03;  7.5499286E+02;
  5.0136787E-01;  9.9999998E-03;  1.2999161E-01;5539; -6.7409310E-03;  0.0000000E+00; -2.6158616E-04;  1.0003264E+03;  1.0000384E-01;  2.7041211E+02;3;  1.1244431E+00;  0.0000000E+00; -2.1412250E-01;0; -8.4001999E-03;  4.0029457E+04;  0.0000000E+00; -1.0416468E-01;  4.0000000E+04;  0.0000000E+00;  3.9994020E+04; -6.2364880E-03;  0.0000000E+00; -2.1637122E-03;  8.0416071E+02;
  5.0135416E-01;  9.9999998E-03;  1.3999099E-01;5540; -6.6656708E-03;  0.0000000E+00; -2.8460665E-04;  1.0003137E+03;  1.0000389E-01;  2.5984451E+02;3;  1.1102810E+00;  0.0000000E+00; -2.2750662E-01;0; -8.2222670E-03;  4.0028398E+04;  0.0000000E+00; -9.2714228E-02;  4.0000000E+04;  0.0000000E+00;  3.9993738E+04; -6.0724402E-03;  0.0000000E+00; -2.1498264E-03;  8.2510327E+02;
  5.0134641E-01;  9.9999998E-03;  1.4999048E-01;5541; -6.5839444E-03;  0.0000000E+00; -3.0731852E-04;  1.0002825E+03;  1.0000379E-01;  2.3406746E+02;3;  1.0953679E+00;  0.0000000E+00; -2.4007739E-01;0; -8.0393627E-03;  4.0025938E+04;  0.0000000E+00; -7.6248072E-02;  4.0000000E+04;  0.0000000E+00;  3.9993637E+04; -5.8957059E-03;  0.0000000E+00; -2.1436566E-03;  8.0724664E+02;
  5.0134456E-01;  9.9999998E-03;  1.5999056E-01;5542; -6.4951424E-03;  0.0000000E+00; -3.2959727E-04;  1.0002283E+03;  1.0000366E-01;  1.8913045E+02;3;  1.0796951E+00;  0.0000000E+00; -2.5175625E-01;0; -7.8528328E-03;  4.0021504E+04;  0.0000000E+00; -5.7127587E-02;  4.0000000E+04;  0.0000000E+00;  3.9994496E+04; -5.7039056E-03;  0.0000000E+00; -2.1489272E-03;  7.4142896E+02;
  5.0134772E-01;  9.9999998E-03;  1.6999173E-01;5543; -6.3989828E-03;  0.0000000E+00; -3.5143524E-04;  1.0001614E+03;  1.0000373E-01;  1.3372461E+02;3;  1.0634129E+00;  0.0000000E+00; -2.6244277E-01;0; -7.6632239E-03;  4.0015113E+04;  0.0000000E+00; -3.8602851E-02;  4.0000000E+04;  0.0000000E+00;  3.9994883E+04; -5.4952973E-03;  0.0000000E+00; -2.1679266E-03;  6.2161383E+02;
  5.0135440E-01;  9.9999998E-03;  1.7999424E-01;5544; -6.2955725E-03;  0.0000000E+00; -3.7289542E-04;  1.0000715E+03;  1.0000380E-01;  5.9257584E+01;3;  1.0465529E+00;  0.0000000E+00; -2.7209467E-01;0; -7.4703470E-03;  4.0006605E+04;  0.0000000E+00; -2.4130579E-02;  4.0000000E+04;  0.0000000E+00;  3.9996434E+04; -5.2692257E-03;  0.0000000E+00; -2.2011215E-03;  4.4694565E+02;
  5.0136268E-01;  9.9999998E-03;  1.8999821E-01;5545; -6.1854799E-03;  0.0000000E+00; -3.9410882E-04;  9.9995831E+02;  1.0000368E-01; -3.4517544E+01;3;  1.0293248E+00;  0.0000000E+00; -2.8074884E-01;0; -7.2735604E-03;  3.9995859E+04;  0.0000000E+00; -1.6516328E-02;  4.0000000E+04;  0.0000000E+00;  3.9998148E+04; -5.0264774E-03;  0.0000000E+00; -2.2470828E-03;  2.2593990E+02;
  5.0137347E-01;  9.9999998E-03;  2.0000386E-01;5546; -6.0694125E-03;  0.0000000E+00; -4.1493657E-04;  9.9982593E+02;  1.0000372E-01; -1.4419345E+02;3;  1.0117401E+00;  0.0000000E+00; -2.8863344E-01;0; -7.0716161E-03;  3.9983340E+04;  0.0000000E+00; -1.7240291E-02;  4.0000000E+04;  0.0000000E+00;  4.0000164E+04; -4.7692489E-03;  0.0000000E+00; -2.3023670E-03;  2.7882730E+01;
  5.0138670E-01;  9.9999998E-03;  2.1001101E-01;5547; -5.9485221E-03;  0.0000000E+00; -4.3673933E-04;  9.9967487E+02;  1.0000365E-01; -2.6937509E+02;3;  9.9485743E-01;  0.0000000E+00; -2.9539806E-01;0; -6.8637123E-03;  3.9970090E+04;  0.0000000E+00; -2.6197201E-02;  4.0000000E+04;  0.0000000E+00;  4.0001895E+04; -4.5011151E-03;  0.0000000E+00; -2.3625975E-03;  2.3443968E+02;
  5.0140023E-01;  9.9999998E-03;  2.2001602E-01;5548; -5.8246301E-03;  0.0000000E+00; -4.6396145E-04;  9.9951013E+02;  1.0000384E-01; -4.0586505E+02;3;  9.7841674E-01;  0.0000000E+00; -3.0072612E-01;0; -6.6567552E-03;  3.9955715E+04;  0.0000000E+00; -4.1721869E-02;  4.0000000E+04;  0.0000000E+00;  4.0003039E+04; -4.2266818E-03;  0.0000000E+00; -2.4300735E-03;  3.9988562E+02;
  5.0141197E-01;  9.9999998E-03;  2.3001418E-01;5549; -5.6991414E-03;  0.0000000E+00; -4.9185276E-04;  9.9935461E+02;  1.0000373E-01; -5.3470093E+02;3;  9.6343285E-01;  0.0000000E+00; -3.0416879E-01;0; -6.4487886E-03;  3.9941445E+04;  0.0000000E+00; -6.0682483E-02;  4.0000000E+04;  0.0000000E+00;  4.0004793E+04; -3.9510154E-03;  0.0000000E+00; -2.4977729E-03;  6.3077405E+02;
  5.1148999E-01;  9.9999998E-03;  6.9989815E-02;5594; -7.1629179E-03;  0.0000000E+00; -1.4943136E-04;  1.0003011E+03;  1.0000610E-01;  2.4947443E+02;3;  1.2334087E+00;  0.0000000E+00; -1.1878504E-01;0; -9.3372660E-03;  4.0021590E+04;  0.0000000E+00; -8.8949218E-02;  4.0000000E+04;  0.0000000E+00;  3.9997566E+04; -6.7988033E-03;  0.0000000E+00; -2.5384626E-03;  3.4999457E+02;
  5.1147819E-01;  9.9999998E-03;  7.9986721E-02;5595; -7.1115680E-03;  0.0000000E+00; -1.7245612E-04;  1.0002891E+03;  1.0000617E-01;  2.3949940E+02;3;  1.2243032E+00;  0.0000000E+00; -1.3488524E-01;0; -9.2035951E-03;  4.0020988E+04;  0.0000000E+00; -1.0729636E-01;  4.0000000E+04;  0.0000000E+00;  3.9997227E+04; -6.6789086E-03;  0.0000000E+00; -2.5246865E-03;  4.1300671E+02;
  5.1146233E-01;  9.9999998E-03;  8.9983717E-02;5596; -7.0568779E-03;  0.0000000E+00; -1.9625200E-04;  1.0002850E+03;  1.0000612E-01;  2.3614146E+02;3;  1.2140694E+00;  0.0000000E+00; -1.5063660E-01;0; -9.0593267E-03;  4.0021066E+04;  0.0000000E+00; -1.2250154E-01;  4.0000000E+04;  0.0000000E+00;  3.9996324E+04; -6.5523251E-03;  0.0000000E+00; -2.5070019E-03;  4.9186353E+02;
  5.1144278E-01;  9.9999998E-03;  9.9981226E-02;5597; -6.9989031E-03;  0.0000000E+00; -2.2082188E-04;  1.0002818E+03;  1.0000619E-01;  2.3347488E+02;3;  1.2027038E+00;  0.0000000E+00; -1.6597864E-01;0; -8.9051640E-03;  4.0021801E+04;  0.0000000E+00; -1.3261637E-01;  4.0000000E+04;  0.0000000E+00;  3.9995980E+04; -6.4199036E-03;  0.0000000E+00; -2.4852601E-03;  5.8176746E+02;
  5.1142073E-01;  9.9999998E-03;  1.0997948E-01;5598; -6.9373446E-03;  0.0000000E+00; -2.4608325E-04;  1.0002800E+03;  1.0000629E-01;  2.3199344E+02;3;  1.1902350E+00;  0.0000000E+00; -1.8084677E-01;0; -8.7416135E-03;  4.0022328E+04;  0.0000000E+00; -1.3592507E-01;  4.0000000E+04;  0.0000000E+00;  3.9995012E+04; -6.2816818E-03;  0.0000000E+00; -2.4599314E-03;  6.7502319E+02;
  5.1139820E-01;  9.9999998E-03;  1.1997838E-01;5599; -6.8716072E-03;  0.0000000E+00; -2.7186450E-04;  1.0002770E+03;  1.0000619E-01;  2.2942561E+02;3;  1.1767570E+00;  0.0000000E+00; -1.9517229E-01;0; -8.5691502E-03;  4.0023066E+04;  0.0000000E+00; -1.3121822E-01;  4.0000000E+04;  0.0000000E+00;  3.9994391E+04; -6.1368402E-03;  0.0000000E+00; -2.4323100E-03;  7.6122888E+02;
  5.1137727E-01;  9.9999998E-03;  1.2997779E-01;5600; -6.8009021E-03;  0.0000000E+00; -2.9790969E-04;  1.0002718E+03;  1.0000630E-01;  2.2517882E+02;3;  1.1622776E+00;  0.0000000E+00; -2.0887084E-01;0; -8.3886012E-03;  4.0023180E+04;  0.0000000E+00; -1.1808923E-01;  4.0000000E+04;  0.0000000E+00;  3.9993547E+04; -5.9839152E-03;  0.0000000E+00; -2.4046856E-03;  8.2815289E+02;
  5.1135987E-01;  9.9999998E-03;  1.3997765E-01;5601; -6.7243632E-03;  0.0000000E+00; -3.2390945E-04;  1.0002573E+03;  1.0000619E-01;  2.1322853E+02;3;  1.1468550E+00;  0.0000000E+00; -2.2185507E-01;0; -8.2012806E-03;  4.0022281E+04;  0.0000000E+00; -9.7179137E-02;  4.0000000E+04;  0.0000000E+00;  3.9993281E+04; -5.8208592E-03;  0.0000000E+00; -2.3804209E-03;  8.6269781E+02;
  5.1134735E-01;  9.9999998E-03;  1.4997819E-01;5602; -6.6411877E-03;  0.0000000E+00; -3.4955790E-04;  1.0002258E+03;  1.0000607E-01;  1.8705644E+02;3;  1.1305782E+00;  0.0000000E+00; -2.3404293E-01;0; -8.0089895E-03;  4.0019996E+04;  0.0000000E+00; -7.0318729E-02;  4.0000000E+04;  0.0000000E+00;  3.9993484E+04; -5.6452239E-03;  0.0000000E+00; -2.3637654E-03;  8.5224988E+02;
  5.1134044E-01;  9.9999998E-03;  1.5997967E-01;5603; -6.5507977E-03;  0.0000000E+00; -3.7465728E-04;  1.0001772E+03;  1.0000635E-01;  1.4686005E+02;3;  1.1134164E+00;  0.0000000E+00; -2.4540162E-01;0; -7.8132339E-03;  4.0015500E+04;  0.0000000E+00; -4.0778738E-02;  4.0000000E+04;  0.0000000E+00;  3.9993992E+04; -5.4544997E-03;  0.0000000E+00; -2.3587339E-03;  7.8582092E+02;
  5.1133859E-01;  9.9999998E-03;  1.6998239E-01;5604; -6.4529385E-03;  0.0000000E+00; -3.9917789E-04;  1.0001056E+03;  1.0000616E-01;  8.7503700E+01;3;  1.0954050E+00;  0.0000000E+00; -2.5589347E-01;0; -7.6145916E-03;  4.0009000E+04;  0.0000000E+00; -1.2933997E-02;  4.0000000E+04;  0.0000000E+00;  3.9995121E+04; -5.2466346E-03;  0.0000000E+00; -2.3679570E-03;  6.5649274E+02;
  5.1134068E-01;  9.9999998E-03;  1.7998634E-01;5605; -6.3477135E-03;  0.0000000E+00; -4.2313337E-04;  1.0000145E+03;  1.0000625E-01;  1.2049042E+01;3;  1.0767258E+00;  0.0000000E+00; -2.6538870E-01;0; -7.4127028E-03;  4.0000172E+04;  0.0000000E+00;  8.7220278E-03;  4.0000000E+04;  0.0000000E+00;  3.9996281E+04; -5.0205081E-03;  0.0000000E+00; -2.3921947E-03;  4.6372565E+02;
  5.1134670E-01;  9.9999998E-03;  1.8999147E-01;5606; -6.2356130E-03;  0.0000000E+00; -4.4653279E-04;  9.9989807E+02;  1.0000610E-01; -8.4442055E+01;3;  1.0577674E+00;  0.0000000E+00; -2.7375805E-01;0; -7.2067948E-03;  3.9989078E+04;  0.0000000E+00;  2.0656690E-02;  4.0000000E+04;  0.0000000E+00;  3.9998289E+04; -4.7765016E-03;  0.0000000E+00; -2.4302930E-03;  2.1781334E+02;
  5.1135635E-01;  9.9999998E-03;  1.9999778E-01;5607; -6.1174151E-03;  0.0000000E+00; -4.6932619E-04;  9.9975879E+02;  1.0000618E-01; -1.9984621E+02;3;  1.0387599E+00;  0.0000000E+00; -2.8095675E-01;0; -6.9956370E-03;  3.9976137E+04;  0.0000000E+00;  2.1030115E-02;  4.0000000E+04;  0.0000000E+00;  4.0000234E+04; -4.5166379E-03;  0.0000000E+00; -2.4789989E-03;  6.9867836E+01;
  5.1136839E-01;  9.9999998E-03;  2.1000500E-01;5608; -5.9941593E-03;  0.0000000E+00; -4.9202994E-04;  9.9960791E+02;  1.0000617E-01; -3.2483032E+02;3;  1.0197403E+00;  0.0000000E+00; -2.8714368E-01;0; -6.7775147E-03;  3.9961746E+04;  0.0000000E+00;  9.8718964E-03;  4.0000000E+04;  0.0000000E+00;  4.0002312E+04; -4.2444384E-03;  0.0000000E+00; -2.5330761E-03;  3.2164578E+02;
  5.1138037E-01;  9.9999998E-03;  2.2000991E-01;5609; -5.8674216E-03;  0.0000000E+00; -5.1806343E-04;  9.9943622E+02;  1.0000622E-01; -4.6709790E+02;3;  1.0023376E+00;  0.0000000E+00; -2.9154661E-01;0; -6.5556085E-03;  3.9946578E+04;  0.0000000E+00; -1.1097799E-02;  4.0000000E+04;  0.0000000E+00;  4.0003895E+04; -3.9645992E-03;  0.0000000E+00; -2.5910095E-03;  5.4399530E+02;
  5.1139086E-01;  9.9999998E-03;  2.3000936E-01;5610; -5.7386439E-03;  0.0000000E+00; -5.4383965E-04;  9.9927039E+02;  1.0000625E-01; -6.0447675E+02;3;  9.8566246E-01;  0.0000000E+00; -2.9437658E-01;0; -6.3241809E-03;  3.9931270E+04;  0.0000000E+00; -3.8709342E-02;  4.0000000E+04;  0.0000000E+00;  4.0005930E+04; -3.6823081E-03;  0.0000000E+00; -2.6418727E-03;  8.0854883E+02;
  5.2146548E-01;  9.9999998E-03;  6.9988050E-02;5655; -7.2254813E-03;  0.0000000E+00; -1.7559656E-04;  1.0002596E+03;  1.0001037E-01;  2.1510503E+02;3;  1.2769300E+00;  0.0000000E+00; -1.1537452E-01;0; -9.3928147E-03;  4.0013598E+04;  0.0000000E+00; -1.0724498E-01;  4.0000000E+04;  0.0000000E+00;  3.9997703E+04; -6.5428191E-03;  0.0000000E+00; -2.8499961E-03;  3.2499106E+02;
  5.2145833E-01;  9.9999998E-03;  7.9984635E-02;5656; -7.1737729E-03;  0.0000000E+00; -2.0141246E-04;  1.0002451E+03;  1.0001046E-01;  2.0305598E+02;3;  1.2671458E+00;  0.0000000E+00; -1.3097666E-01;0; -9.2519345E-03;  4.0013273E+04;  0.0000000E+00; -1.2678911E-01;  4.0000000E+04;  0.0000000E+00;  3.9997191E+04; -6.4244177E-03;  0.0000000E+00; -2.8275165E-03;  3.8980276E+02;
  5.2144760E-01;  9.9999998E-03;  8.9981101E-02;5657; -7.1185548E-03;  0.0000000E+00; -2.2791143E-04;  1.0002408E+03;  1.0001046E-01;  1.9950053E+02;3;  1.2560875E+00;  0.0000000E+00; -1.4622660E-01;0; -9.0994947E-03;  4.0013516E+04;  0.0000000E+00; -1.4145878E-01;  4.0000000E+04;  0.0000000E+00;  3.9996711E+04; -6.2990207E-03;  0.0000000E+00; -2.8004739E-03;  4.7341501E+02;
  5.2143335E-01;  9.9999998E-03;  9.9977769E-02;5658; -7.0598717E-03;  0.0000000E+00; -2.5515264E-04;  1.0002425E+03;  1.0001040E-01;  2.0088321E+02;3;  1.2438405E+00;  0.0000000E+00; -1.6106677E-01;0; -8.9363018E-03;  4.0013957E+04;  0.0000000E+00; -1.4914626E-01;  4.0000000E+04;  0.0000000E+00;  3.9995914E+04; -6.1675352E-03;  0.0000000E+00; -2.7687664E-03;  5.7119910E+02;
  5.2141589E-01;  9.9999998E-03;  1.0997504E-01;5659; -6.9974056E-03;  0.0000000E+00; -2.8308859E-04;  1.0002385E+03;  1.0001045E-01;  1.9752528E+02;3;  1.2304009E+00;  0.0000000E+00; -1.7543532E-01;0; -8.7629501E-03;  4.0015082E+04;  0.0000000E+00; -1.4819600E-01;  4.0000000E+04;  0.0000000E+00;  3.9995164E+04; -6.0300627E-03;  0.0000000E+00; -2.7328872E-03;  6.7467334E+02;
  5.2139652E-01;  9.9999998E-03;  1.1997319E-01;5660; -6.9305925E-03;  0.0000000E+00; -3.1154777E-04;  1.0002431E+03;  1.0001054E-01;  2.0137701E+02;3;  1.2158144E+00;  0.0000000E+00; -1.8926464E-01;0; -8.5801017E-03;  4.0016031E+04;  0.0000000E+00; -1.3767929E-01;  4.0000000E+04;  0.0000000E+00;  3.9994391E+04; -5.8859065E-03;  0.0000000E+00; -2.6941951E-03;  7.7176453E+02;
  5.2137703E-01;  9.9999998E-03;  1.2997237E-01;5661; -6.8586422E-03;  0.0000000E+00; -3.4023900E-04;  1.0002379E+03;  1.0001041E-01;  1.9713023E+02;3;  1.2001489E+00;  0.0000000E+00; -2.0247515E-01;0; -8.3887232E-03;  4.0016508E+04;  0.0000000E+00; -1.1765565E-01;  4.0000000E+04;  0.0000000E+00;  3.9993590E+04; -5.7336688E-03;  0.0000000E+00; -2.6550542E-03;  8.4793866E+02;
  5.2135921E-01;  9.9999998E-03;  1.3997267E-01;5662; -6.7807329E-03;  0.0000000E+00; -3.6878869E-04;  1.0002211E+03;  1.0001052E-01;  1.8310593E+02;3;  1.1834911E+00;  0.0000000E+00; -2.1498145E-01;0; -8.1903553E-03;  4.0015727E+04;  0.0000000E+00; -8.9336194E-02;  4.0000000E+04;  0.0000000E+00;  3.9993121E+04; -5.5713560E-03;  0.0000000E+00; -2.6189990E-03;  8.8777222E+02;
  5.2134466E-01;  9.9999998E-03;  1.4997417E-01;5663; -6.6961208E-03;  0.0000000E+00; -3.9681597E-04;  1.0001903E+03;  1.0001054E-01;  1.5762517E+02;3;  1.1658490E+00;  0.0000000E+00; -2.2671406E-01;0; -7.9869712E-03;  4.0013473E+04;  0.0000000E+00; -5.5141311E-02;  4.0000000E+04;  0.0000000E+00;  3.9992832E+04; -5.3964662E-03;  0.0000000E+00; -2.5905047E-03;  8.7679773E+02;
  5.2133441E-01;  9.9999998E-03;  1.5997681E-01;5664; -6.6042962E-03;  0.0000000E+00; -4.2408978E-04;  1.0001407E+03;  1.0001034E-01;  1.1653992E+02;3;  1.1471537E+00;  0.0000000E+00; -2.3772745E-01;0; -7.7801645E-03;  4.0008961E+04;  0.0000000E+00; -1.8984411E-02;  4.0000000E+04;  0.0000000E+00;  3.9993492E+04; -5.2062809E-03;  0.0000000E+00; -2.5738836E-03;  8.0330640E+02;
  5.2132851E-01;  9.9999998E-03;  1.6998054E-01;5665; -6.5050805E-03;  0.0000000E+00; -4.5058946E-04;  1.0000660E+03;  1.0001042E-01;  5.4714500E+01;3;  1.1271697E+00;  0.0000000E+00; -2.4814108E-01;0; -7.5704139E-03;  4.0002199E+04;  0.0000000E+00;  1.4021663E-02;  4.0000000E+04;  0.0000000E+00;  3.9994910E+04; -4.9983207E-03;  0.0000000E+00; -2.5720934E-03;  6.6097113E+02;
  5.2132690E-01;  9.9999998E-03;  1.7998524E-01;5666; -6.3985907E-03;  0.0000000E+00; -4.7634653E-04;  9.9996832E+02;  1.0001040E-01; -2.6221481E+01;3;  1.1065404E+00;  0.0000000E+00; -2.5747082E-01;0; -7.3573133E-03;  3.9992836E+04;  0.0000000E+00;  3.8802858E-02;  4.0000000E+04;  0.0000000E+00;  3.9996465E+04; -4.7711101E-03;  0.0000000E+00; -2.5862034E-03;  4.5190137E+02;
  5.2132982E-01;  9.9999998E-03;  1.8999077E-01;5667; -6.2852306E-03;  0.0000000E+00; -5.0129177E-04;  9.9984717E+02;  1.0001057E-01; -1.2661370E+02;3;  1.0858797E+00;  0.0000000E+00; -2.6550484E-01;0; -7.1399300E-03;  3.9980871E+04;  0.0000000E+00;  5.1544596E-02;  4.0000000E+04;  0.0000000E+00;  3.9998508E+04; -4.5247143E-03;  0.0000000E+00; -2.6152157E-03;  1.9410498E+02;
  5.2133673E-01;  9.9999998E-03;  1.9999669E-01;5668; -6.1657610E-03;  0.0000000E+00; -5.2539486E-04;  9.9970233E+02;  1.0001054E-01; -2.4661031E+02;3;  1.0648977E+00;  0.0000000E+00; -2.7240476E-01;0; -6.9168480E-03;  3.9966953E+04;  0.0000000E+00;  5.0350036E-02;  4.0000000E+04;  0.0000000E+00;  4.0000652E+04; -4.2610150E-03;  0.0000000E+00; -2.6558330E-03;  1.4241098E+02;
  5.2134645E-01;  9.9999998E-03;  2.1000229E-01;5669; -6.0410607E-03;  0.0000000E+00; -5.4907630E-04;  9.9953650E+02;  1.0001054E-01; -3.8398914E+02;3;  1.0442827E+00;  0.0000000E+00; -2.7827373E-01;0; -6.6859676E-03;  3.9951512E+04;  0.0000000E+00;  3.5300795E-02;  4.0000000E+04;  0.0000000E+00;  4.0002969E+04; -3.9835479E-03;  0.0000000E+00; -2.7024199E-03;  4.2166953E+02;
  5.2135664E-01;  9.9999998E-03;  2.2000556E-01;5670; -5.9125167E-03;  0.0000000E+00; -5.7392305E-04;  9.9935614E+02;  1.0001040E-01; -5.3341699E+02;3;  1.0242759E+00;  0.0000000E+00; -2.8257704E-01;0; -6.4461376E-03;  3.9935309E+04;  0.0000000E+00;  8.1234751E-03;  4.0000000E+04;  0.0000000E+00;  4.0004832E+04; -3.6970139E-03;  0.0000000E+00; -2.7491236E-03;  6.9775897E+02;
  5.2136546E-01;  9.9999998E-03;  2.3000534E-01;5671; -5.7812785E-03;  0.0000000E+00; -5.9753913E-04;  9.9917993E+02;  1.0001051E-01; -6.7938818E+02;3;  1.0071259E+00;  0.0000000E+00; -2.8423959E-01;0; -6.1877025E-03;  3.9918637E+04;  0.0000000E+00; -2.8055981E-02;  4.0000000E+04;  0.0000000E+00;  4.0007355E+04; -3.4066881E-03;  0.0000000E+00; -2.7810144E-03;  9.9548157E+02;
  5.3142810E-01;  9.9999998E-03;  6.9991879E-02;5716; -7.2870059E-03;  0.0000000E+00; -2.0681226E-04;  1.0001899E+03;  1.0001725E-01;  1.5732889E+02;3;  1.3205696E+00;  0.0000000E+00; -1.1133206E-01;0; -9.4702775E-03;  4.0001621E+04;  0.0000000E+00; -1.1192838E-01;  4.0000000E+04;  0.0000000E+00;  3.9997801E+04; -6.2891748E-03;  0.0000000E+00; -3.1811025E-03;  3.2841260E+02;
  5.3142506E-01;  9.9999998E-03;  7.9988904E-02;5717; -7.2347936E-03;  0.0000000E+00; -2.3589982E-04;  1.0001863E+03;  1.0001741E-01;  1.5436600E+02;3;  1.3100514E+00;  0.0000000E+00; -1.2635143E-01;0; -9.3203578E-03;  4.0002254E+04;  0.0000000E+00; -1.2983094E-01;  4.0000000E+04;  0.0000000E+00;  3.9997145E+04; -6.1719972E-03;  0.0000000E+00; -3.1483606E-03;  3.9205240E+02;
  5.3141880E-01;  9.9999998E-03;  8.9985587E-02;5718; -7.1788500E-03;  0.0000000E+00; -2.6545767E-04;  1.0001921E+03;  1.0001743E-01;  1.5910661E+02;3;  1.2981958E+00;  0.0000000E+00; -1.4101386E-01;0; -9.1580031E-03;  4.0003207E+04;  0.0000000E+00; -1.4169978E-01;  4.0000000E+04;  0.0000000E+00;  3.9996465E+04; -6.0476395E-03;  0.0000000E+00; -3.1103634E-03;  4.7636276E+02;
  5.3140944E-01;  9.9999998E-03;  9.9982195E-02;5719; -7.1192216E-03;  0.0000000E+00; -2.9558773E-04;  1.0002006E+03;  1.0001730E-01;  1.6611876E+02;3;  1.2849915E+00;  0.0000000E+00; -1.5526633E-01;0; -8.9841066E-03;  4.0004770E+04;  0.0000000E+00; -1.4559773E-01;  4.0000000E+04;  0.0000000E+00;  3.9995684E+04; -5.9170038E-03;  0.0000000E+00; -3.0671030E-03;  5.7647552E+02;
  5.3139651E-01;  9.9999998E-03;  1.0997932E-01;5720; -7.0556230E-03;  0.0000000E+00; -3.2625985E-04;  1.0002111E+03;  1.0001743E-01;  1.7480988E+02;3;  1.2705561E+00;  0.0000000E+00; -1.6904728E-01;0; -8.7993694E-03;  4.0006766E+04;  0.0000000E+00; -1.4022966E-01;  4.0000000E+04;  0.0000000E+00;  3.9994773E+04; -5.7802573E-03;  0.0000000E+00; -3.0191122E-03;  6.8324481E+02;
  5.3138077E-01;  9.9999998E-03;  1.1997744E-01;5721; -6.9875047E-03;  0.0000000E+00; -3.5729140E-04;  1.0002204E+03;  1.0001743E-01;  1.8261212E+02;3;  1.2548587E+00;  0.0000000E+00; -1.8229128E-01;0; -8.6045656E-03;  4.0008344E+04;  0.0000000E+00; -1.2514560E-01;  4.0000000E+04;  0.0000000E+00;  3.9993992E+04; -5.6367600E-03;  0.0000000E+00; -2.9678056E-03;  7.8320007E+02;
  5.3136349E-01;  9.9999998E-03;  1.2997681E-01;5722; -6.9141421E-03;  0.0000000E+00; -3.8835077E-04;  1.0002219E+03;  1.0001732E-01;  1.8389603E+02;3;  1.2380264E+00;  0.0000000E+00; -1.9492018E-01;0; -8.4008118E-03;  4.0009117E+04;  0.0000000E+00; -1.0089684E-01;  4.0000000E+04;  0.0000000E+00;  3.9993188E+04; -5.4851496E-03;  0.0000000E+00; -2.9156622E-03;  8.6001233E+02;
  5.3134602E-01;  9.9999998E-03;  1.3997753E-01;5723; -6.8347738E-03;  0.0000000E+00; -4.1900104E-04;  1.0002109E+03;  1.0001726E-01;  1.7471111E+02;3;  1.2200882E+00;  0.0000000E+00; -2.0684436E-01;0; -8.1897406E-03;  4.0008793E+04;  0.0000000E+00; -6.9132991E-02;  4.0000000E+04;  0.0000000E+00;  3.9992879E+04; -5.3233677E-03;  0.0000000E+00; -2.8663727E-03;  8.9650330E+02;
  5.3132993E-01;  9.9999998E-03;  1.4997979E-01;5724; -6.7487205E-03;  0.0000000E+00; -4.4880749E-04;  1.0001850E+03;  1.0001729E-01;  1.5327962E+02;3;  1.2010906E+00;  0.0000000E+00; -2.1803753E-01;0; -7.9733990E-03;  4.0006688E+04;  0.0000000E+00; -3.2547705E-02;  4.0000000E+04;  0.0000000E+00;  3.9992812E+04; -5.1487740E-03;  0.0000000E+00; -2.8246255E-03;  8.7704181E+02;
  5.3131646E-01;  9.9999998E-03;  1.5998343E-01;5725; -6.6555589E-03;  0.0000000E+00; -4.7755564E-04;  1.0001336E+03;  1.0001763E-01;  1.1071292E+02;3;  1.1806883E+00;  0.0000000E+00; -2.2877149E-01;0; -7.7533741E-03;  4.0002125E+04;  0.0000000E+00;  4.8292424E-03;  4.0000000E+04;  0.0000000E+00;  3.9993609E+04; -4.9583213E-03;  0.0000000E+00; -2.7950527E-03;  7.9040143E+02;
  5.3130686E-01;  9.9999998E-03;  1.6998808E-01;5726; -6.5552392E-03;  0.0000000E+00; -5.0529395E-04;  1.0000591E+03;  1.0001736E-01;  4.8986267E+01;3;  1.1590765E+00;  0.0000000E+00; -2.3878723E-01;0; -7.5301407E-03;  3.9995027E+04;  0.0000000E+00;  3.7810251E-02;  4.0000000E+04;  0.0000000E+00;  3.9994895E+04; -4.7491584E-03;  0.0000000E+00; -2.7809823E-03;  6.3308313E+02;
  5.3130174E-01;  9.9999998E-03;  1.7999327E-01;5727; -6.4478768E-03;  0.0000000E+00; -5.3209125E-04;  9.9995380E+02;  1.0001744E-01; -3.8270523E+01;3;  1.1363528E+00;  0.0000000E+00; -2.4806750E-01;0; -7.3032249E-03;  3.9984836E+04;  0.0000000E+00;  6.1330970E-02;  4.0000000E+04;  0.0000000E+00;  3.9996832E+04; -4.5194607E-03;  0.0000000E+00; -2.7837644E-03;  4.1293994E+02;
  5.3130162E-01;  9.9999998E-03;  1.8999863E-01;5728; -6.3338201E-03;  0.0000000E+00; -5.5797340E-04;  9.9982123E+02;  1.0001754E-01; -1.4809457E+02;3;  1.1129326E+00;  0.0000000E+00; -2.5631985E-01;0; -7.0715859E-03;  3.9972195E+04;  0.0000000E+00;  7.1705513E-02;  4.0000000E+04;  0.0000000E+00;  3.9998652E+04; -4.2691212E-03;  0.0000000E+00; -2.8024646E-03;  1.6300919E+02;
  5.3130627E-01;  9.9999998E-03;  2.0000339E-01;5729; -6.2135588E-03;  0.0000000E+00; -5.8309874E-04;  9.9966211E+02;  1.0001753E-01; -2.7994269E+02;3;  1.0902201E+00;  0.0000000E+00; -2.6290324E-01;0; -6.8336269E-03;  3.9957492E+04;  0.0000000E+00;  6.7164980E-02;  4.0000000E+04;  0.0000000E+00;  4.0001098E+04; -3.9999341E-03;  0.0000000E+00; -2.8336931E-03;  1.9897189E+02;
  5.3131503E-01;  9.9999998E-03;  2.1000621E-01;5730; -6.0881497E-03;  0.0000000E+00; -6.0825137E-04;  9.9948212E+02;  1.0001735E-01; -4.2907428E+02;3;  1.0676852E+00;  0.0000000E+00; -2.6819178E-01;0; -6.5873549E-03;  3.9940816E+04;  0.0000000E+00;  4.7792941E-02;  4.0000000E+04;  0.0000000E+00;  4.0003137E+04; -3.7153638E-03;  0.0000000E+00; -2.8719911E-03;  4.8112878E+02;
  5.3132653E-01;  9.9999998E-03;  2.2000578E-01;5731; -5.9585385E-03;  0.0000000E+00; -6.3336588E-04;  9.9929126E+02;  1.0001730E-01; -5.8719330E+02;3;  1.0464211E+00;  0.0000000E+00; -2.7215517E-01;0; -6.3289637E-03;  3.9923508E+04;  0.0000000E+00;  1.5133772E-02;  4.0000000E+04;  0.0000000E+00;  4.0005777E+04; -3.4200940E-03;  0.0000000E+00; -2.9088696E-03;  7.9242828E+02;
  5.3133881E-01;  9.9999998E-03;  2.3000352E-01;5732; -5.8257263E-03;  0.0000000E+00; -6.5571337E-04;  9.9910144E+02;  1.0001736E-01; -7.4442340E+02;3;  1.0259503E+00;  0.0000000E+00; -2.7396598E-01;0; -6.0434579E-03;  3.9905516E+04;  0.0000000E+00; -2.7998829E-02;  4.0000000E+04;  0.0000000E+00;  4.0008207E+04; -3.1193569E-03;  0.0000000E+00; -2.9241010E-03;  1.1346996E+03;
  5.4138672E-01;  9.9999998E-03;  7.0000008E-02;5777; -7.3479991E-03;  0.0000000E+00; -2.4200068E-04;  1.0001251E+03;  1.0002947E-01;  1.0370077E+02;3;  1.3642665E+00;  0.0000000E+00; -1.0666332E-01;0; -9.5657501E-03;  3.9986520E+04;  0.0000000E+00; -9.8762579E-02;  4.0000000E+04;  0.0000000E+00;  3.9997332E+04; -6.0340394E-03;  0.0000000E+00; -3.5317102E-03;  3.5387936E+02;
  5.4138744E-01;  9.9999998E-03;  7.9998039E-02;5778; -7.2949138E-03;  0.0000000E+00; -2.7481146E-04;  1.0001423E+03;  1.0002926E-01;  1.1782383E+02;3;  1.3529845E+00;  0.0000000E+00; -1.2100975E-01;0; -9.4056129E-03;  3.9988234E+04;  0.0000000E+00; -1.1184482E-01;  4.0000000E+04;  0.0000000E+00;  3.9996867E+04; -5.9181093E-03;  0.0000000E+00; -3.4875039E-03;  4.1392233E+02;
  5.4138529E-01;  9.9999998E-03;  8.9995615E-02;5779; -7.2378679E-03;  0.0000000E+00; -3.0778802E-04;  1.0001632E+03;  1.0002936E-01;  1.3520605E+02;3;  1.3402576E+00;  0.0000000E+00; -1.3499777E-01;0; -9.2322268E-03;  3.9990855E+04;  0.0000000E+00; -1.1865045E-01;  4.0000000E+04;  0.0000000E+00;  3.9996352E+04; -5.7949112E-03;  0.0000000E+00; -3.4373153E-03;  4.9601678E+02;
  5.4138023E-01;  9.9999998E-03;  9.9993020E-02;5780; -7.1769445E-03;  0.0000000E+00; -3.4105658E-04;  1.0001877E+03;  1.0002934E-01;  1.5555116E+02;3;  1.3261400E+00;  0.0000000E+00; -1.4857554E-01;0; -9.0465657E-03;  3.9993605E+04;  0.0000000E+00; -1.1780404E-01;  4.0000000E+04;  0.0000000E+00;  3.9995250E+04; -5.6653479E-03;  0.0000000E+00; -3.3812181E-03;  5.9435803E+02;
  5.4137164E-01;  9.9999998E-03;  1.0999066E-01;5781; -7.1119126E-03;  0.0000000E+00; -3.7458615E-04;  1.0002167E+03;  1.0002936E-01;  1.7955048E+02;3;  1.3106437E+00;  0.0000000E+00; -1.6168228E-01;0; -8.8494001E-03;  3.9996848E+04;  0.0000000E+00; -1.0866159E-01;  4.0000000E+04;  0.0000000E+00;  3.9994609E+04; -5.5295876E-03;  0.0000000E+00; -3.3198125E-03;  6.9858881E+02;
  5.4135942E-01;  9.9999998E-03;  1.1998904E-01;5782; -7.0422511E-03;  0.0000000E+00; -4.0816344E-04;  1.0002381E+03;  1.0002952E-01;  1.9722899E+02;3;  1.2938346E+00;  0.0000000E+00; -1.7424464E-01;0; -8.6415811E-03;  3.9999805E+04;  0.0000000E+00; -9.1374733E-02;  4.0000000E+04;  0.0000000E+00;  3.9993695E+04; -5.3870040E-03;  0.0000000E+00; -3.2545768E-03;  7.9407532E+02;
  5.4134423E-01;  9.9999998E-03;  1.2998861E-01;5783; -6.9673159E-03;  0.0000000E+00; -4.4140470E-04;  1.0002512E+03;  1.0002955E-01;  2.0809288E+02;3;  1.2757759E+00;  0.0000000E+00; -1.8618527E-01;0; -8.4242662E-03;  4.0001340E+04;  0.0000000E+00; -6.6927314E-02;  4.0000000E+04;  0.0000000E+00;  3.9993188E+04; -5.2361642E-03;  0.0000000E+00; -3.1881023E-03;  8.6333978E+02;
  5.4132706E-01;  9.9999998E-03;  1.3998970E-01;5784; -6.8864082E-03;  0.0000000E+00; -4.7381045E-04;  1.0002529E+03;  1.0002943E-01;  2.0947556E+02;3;  1.2565662E+00;  0.0000000E+00; -1.9741291E-01;0; -8.1991339E-03;  4.0001578E+04;  0.0000000E+00; -3.7084524E-02;  4.0000000E+04;  0.0000000E+00;  3.9992941E+04; -5.0748922E-03;  0.0000000E+00; -3.1242419E-03;  8.8835931E+02;
  5.4130960E-01;  9.9999998E-03;  1.4999254E-01;5785; -6.7988504E-03;  0.0000000E+00; -5.0490175E-04;  1.0002260E+03;  1.0002962E-01;  1.8725397E+02;3;  1.2362553E+00;  0.0000000E+00; -2.0786767E-01;0; -7.9681808E-03;  3.9999598E+04;  0.0000000E+00; -4.2892350E-03;  4.0000000E+04;  0.0000000E+00;  3.9992879E+04; -4.9002692E-03;  0.0000000E+00; -3.0679116E-03;  8.5342352E+02;
  5.4129320E-01;  9.9999998E-03;  1.5999691E-01;5786; -6.7043514E-03;  0.0000000E+00; -5.3452316E-04;  1.0001780E+03;  1.0002933E-01;  1.4755138E+02;3;  1.2142226E+00;  0.0000000E+00; -2.1818621E-01;0; -7.7329474E-03;  3.9994996E+04;  0.0000000E+00;  2.8018380E-02;  4.0000000E+04;  0.0000000E+00;  3.9993828E+04; -4.7088834E-03;  0.0000000E+00; -3.0240640E-03;  7.4897552E+02;
  5.4127997E-01;  9.9999998E-03;  1.7000224E-01;5787; -6.6029388E-03;  0.0000000E+00; -5.6284870E-04;  1.0000986E+03;  1.0002951E-01;  8.1676704E+01;3;  1.1905494E+00;  0.0000000E+00; -2.2821936E-01;0; -7.4939579E-03;  3.9987543E+04;  0.0000000E+00;  5.5405155E-02;  4.0000000E+04;  0.0000000E+00;  3.9995129E+04; -4.4975239E-03;  0.0000000E+00; -2.9964342E-03;  5.7612683E+02;
  5.4127145E-01;  9.9999998E-03;  1.8000790E-01;5788; -6.4948136E-03;  0.0000000E+00; -5.9001351E-04;  9.9999036E+02;  1.0002954E-01; -7.9997740E+00;3;  1.1659133E+00;  0.0000000E+00; -2.3707840E-01;0; -7.2507337E-03;  3.9976965E+04;  0.0000000E+00;  7.3472813E-02;  4.0000000E+04;  0.0000000E+00;  3.9997125E+04; -4.2641084E-03;  0.0000000E+00; -2.9866255E-03;  3.5077460E+02;
  5.4126918E-01;  9.9999998E-03;  1.9001308E-01;5789; -6.3801557E-03;  0.0000000E+00; -6.1609998E-04;  9.9984814E+02;  1.0002946E-01; -1.2582360E+02;3;  1.1405257E+00;  0.0000000E+00; -2.4505036E-01;0; -7.0020184E-03;  3.9963855E+04;  0.0000000E+00;  7.8963436E-02;  4.0000000E+04;  0.0000000E+00;  3.9999242E+04; -4.0083700E-03;  0.0000000E+00; -2.9936486E-03;  1.3000220E+02;
  5.4127401E-01;  9.9999998E-03;  2.0001659E-01;5790; -6.2593888E-03;  0.0000000E+00; -6.4170192E-04;  9.9967743E+02;  1.0002949E-01; -2.6725171E+02;3;  1.1151570E+00;  0.0000000E+00; -2.5153396E-01;0; -6.7457613E-03;  3.9948043E+04;  0.0000000E+00;  7.0193850E-02;  4.0000000E+04;  0.0000000E+00;  4.0001191E+04; -3.7319628E-03;  0.0000000E+00; -3.0137985E-03;  2.3007603E+02;
  5.4128575E-01;  9.9999998E-03;  2.1001630E-01;5791; -6.1333068E-03;  0.0000000E+00; -6.6837447E-04;  9.9948340E+02;  1.0002949E-01; -4.2798788E+02;3;  1.0894748E+00;  0.0000000E+00; -2.5701800E-01;0; -6.4801620E-03;  3.9930715E+04;  0.0000000E+00;  4.7008689E-02;  4.0000000E+04;  0.0000000E+00;  4.0003016E+04; -3.4382648E-03;  0.0000000E+00; -3.0418970E-03;  4.8179968E+02;
  5.4130334E-01;  9.9999998E-03;  2.2001097E-01;5792; -6.0029691E-03;  0.0000000E+00; -6.9535687E-04;  9.9928033E+02;  1.0002942E-01; -5.9623004E+02;3;  1.0661390E+00;  0.0000000E+00; -2.6091999E-01;0; -6.2011685E-03;  3.9912195E+04;  0.0000000E+00;  1.0529257E-02;  4.0000000E+04;  0.0000000E+00;  4.0005438E+04; -3.1318036E-03;  0.0000000E+00; -3.0693647E-03;  7.9464606E+02;
  5.4132485E-01;  9.9999998E-03;  2.3000498E-01;5793; -5.8688219E-03;  0.0000000E+00; -7.1817072E-04;  9.9908069E+02;  1.0002951E-01; -7.6160809E+02;3;  1.0451871E+00;  0.0000000E+00; -2.6230422E-01;0; -5.8891140E-03;  3.9893426E+04;  0.0000000E+00; -3.6965884E-02;  4.0000000E+04;  0.0000000E+00;  4.0008258E+04; -2.8177514E-03;  0.0000000E+00; -3.0713626E-03;  1.1651558E+03;
  5.5135816E-01;  9.9999998E-03;  7.0009105E-02;5838; -7.4084024E-03;  0.0000000E+00; -2.7959479E-04;  1.0000805E+03;  1.0004856E-01;  6.6664780E+01;3;  1.4079684E+00;  0.0000000E+00; -1.0134953E-01;0; -9.6736802E-03;  3.9967652E+04;  0.0000000E+00; -6.5935828E-02;  4.0000000E+04;  0.0000000E+00;  3.9996570E+04; -5.7720491E-03;  0.0000000E+00; -3.9016313E-03;  4.0137180E+02;
  5.5136251E-01;  9.9999998E-03;  8.0008484E-02;5839; -7.3539489E-03;  0.0000000E+00; -3.1650282E-04;  1.0001207E+03;  1.0004842E-01;  9.9947792E+01;3;  1.3959224E+00;  0.0000000E+00; -1.1493243E-01;0; -9.5030302E-03;  3.9971180E+04;  0.0000000E+00; -7.1128674E-02;  4.0000000E+04;  0.0000000E+00;  3.9996105E+04; -5.6578075E-03;  0.0000000E+00; -3.8452230E-03;  4.5653125E+02;
  5.5136311E-01;  9.9999998E-03;  9.0007357E-02;5840; -7.2953515E-03;  0.0000000E+00; -3.5322693E-04;  1.0001639E+03;  1.0004833E-01;  1.3579863E+02;3;  1.3823173E+00;  0.0000000E+00; -1.2816179E-01;0; -9.3183545E-03;  3.9975605E+04;  0.0000000E+00; -7.0952453E-02;  4.0000000E+04;  0.0000000E+00;  3.9995367E+04; -5.5363569E-03;  0.0000000E+00; -3.7819974E-03;  5.3385675E+02;
  5.5136019E-01;  9.9999998E-03;  1.0000584E-01;5841; -7.2327638E-03;  0.0000000E+00; -3.8989793E-04;  1.0002142E+03;  1.0004845E-01;  1.7747646E+02;3;  1.3672028E+00;  0.0000000E+00; -1.4097878E-01;0; -9.1206692E-03;  3.9980086E+04;  0.0000000E+00; -6.4975269E-02;  4.0000000E+04;  0.0000000E+00;  3.9994910E+04; -5.4085394E-03;  0.0000000E+00; -3.7121298E-03;  6.2613507E+02;
  5.5135322E-01;  9.9999998E-03;  1.1000413E-01;5842; -7.1659875E-03;  0.0000000E+00; -4.2646445E-04;  1.0002640E+03;  1.0004858E-01;  2.1875925E+02;3;  1.3506328E+00;  0.0000000E+00; -1.5332192E-01;0; -8.9108087E-03;  3.9984801E+04;  0.0000000E+00; -5.3429030E-02;  4.0000000E+04;  0.0000000E+00;  3.9994293E+04; -5.2744849E-03;  0.0000000E+00; -3.6363234E-03;  7.2188837E+02;
  5.5134213E-01;  9.9999998E-03;  1.2000293E-01;5843; -7.0945434E-03;  0.0000000E+00; -4.6266761E-04;  1.0002978E+03;  1.0004846E-01;  2.4670908E+02;3;  1.3326361E+00;  0.0000000E+00; -1.6511197E-01;0; -8.6896010E-03;  3.9988699E+04;  0.0000000E+00; -3.7093826E-02;  4.0000000E+04;  0.0000000E+00;  3.9993219E+04; -5.1334770E-03;  0.0000000E+00; -3.5561239E-03;  8.0564502E+02;
  5.5132771E-01;  9.9999998E-03;  1.3000277E-01;5844; -7.0178919E-03;  0.0000000E+00; -4.9806386E-04;  1.0003235E+03;  1.0004845E-01;  2.6804181E+02;3;  1.3133187E+00;  0.0000000E+00; -1.7626172E-01;0; -8.4582288E-03;  3.9991586E+04;  0.0000000E+00; -1.7167451E-02;  4.0000000E+04;  0.0000000E+00;  3.9993117E+04; -4.9839597E-03;  0.0000000E+00; -3.4742691E-03;  8.5972272E+02;
  5.5131042E-01;  9.9999998E-03;  1.4000425E-01;5845; -6.9353851E-03;  0.0000000E+00; -5.3209194E-04;  1.0003411E+03;  1.0004857E-01;  2.8265866E+02;3;  1.2927958E+00;  0.0000000E+00; -1.8666361E-01;0; -8.2182270E-03;  3.9992492E+04;  0.0000000E+00;  4.9181259E-03;  4.0000000E+04;  0.0000000E+00;  3.9993070E+04; -4.8234859E-03;  0.0000000E+00; -3.3947413E-03;  8.6639679E+02;
  5.5129206E-01;  9.9999998E-03;  1.5000756E-01;5846; -6.8462789E-03;  0.0000000E+00; -5.6423119E-04;  1.0003221E+03;  1.0004828E-01;  2.6685666E+02;3;  1.2711685E+00;  0.0000000E+00; -1.9622976E-01;0; -7.9715289E-03;  3.9991008E+04;  0.0000000E+00;  2.7607806E-02;  4.0000000E+04;  0.0000000E+00;  3.9993355E+04; -4.6488568E-03;  0.0000000E+00; -3.3226721E-03;  8.1072168E+02;
  5.5127406E-01;  9.9999998E-03;  1.6001253E-01;5847; -6.7502800E-03;  0.0000000E+00; -5.9432635E-04;  1.0002780E+03;  1.0004862E-01;  2.3031447E+02;3;  1.2477990E+00;  0.0000000E+00; -2.0570582E-01;0; -7.7196429E-03;  3.9986605E+04;  0.0000000E+00;  4.8807267E-02;  4.0000000E+04;  0.0000000E+00;  3.9994262E+04; -4.4563003E-03;  0.0000000E+00; -3.2633427E-03;  6.8606195E+02;
  5.5125880E-01;  9.9999998E-03;  1.7001854E-01;5848; -6.6475328E-03;  0.0000000E+00; -6.2275917E-04;  1.0002000E+03;  1.0004863E-01;  1.6562494E+02;3;  1.2223701E+00;  0.0000000E+00; -2.1521817E-01;0; -7.4631507E-03;  3.9978848E+04;  0.0000000E+00;  6.5633789E-02;  4.0000000E+04;  0.0000000E+00;  3.9995641E+04; -4.2422577E-03;  0.0000000E+00; -3.2208932E-03;  4.9895132E+02;
  5.5124915E-01;  9.9999998E-03;  1.8002477E-01;5849; -6.5383348E-03;  0.0000000E+00; -6.4979756E-04;  1.0000870E+03;  1.0004853E-01;  7.2096725E+01;3;  1.1954896E+00;  0.0000000E+00; -2.2405156E-01;0; -7.2015924E-03;  3.9968246E+04;  0.0000000E+00;  7.4927554E-02;  4.0000000E+04;  0.0000000E+00;  3.9997781E+04; -4.0044310E-03;  0.0000000E+00; -3.1971617E-03;  2.7463364E+02;
  5.5124772E-01;  9.9999998E-03;  1.9003014E-01;5850; -6.4227753E-03;  0.0000000E+00; -6.7552493E-04;  9.9994293E+02;  1.0004846E-01; -4.7257923E+01;3;  1.1677709E+00;  0.0000000E+00; -2.3177417E-01;0; -6.9332570E-03;  3.9954809E+04;  0.0000000E+00;  7.4007429E-02;  4.0000000E+04;  0.0000000E+00;  3.9999566E+04; -3.7423221E-03;  0.0000000E+00; -3.1909349E-03;  1.0414600E+02;
  5.5125600E-01;  9.9999998E-03;  2.0003287E-01;5851; -6.3010962E-03;  0.0000000E+00; -7.0116407E-04;  9.9975989E+02;  1.0004871E-01; -1.9890796E+02;3;  1.1399862E+00;  0.0000000E+00; -2.3800096E-01;0; -6.6553680E-03;  3.9938609E+04;  0.0000000E+00;  6.1078012E-02;  4.0000000E+04;  0.0000000E+00;  4.0001062E+04; -3.4573702E-03;  0.0000000E+00; -3.1979976E-03;  2.3240363E+02;
  5.5127472E-01;  9.9999998E-03;  2.1002977E-01;5852; -6.1741751E-03;  0.0000000E+00; -7.2926184E-04;  9.9955707E+02;  1.0004868E-01; -3.6695258E+02;3;  1.1136675E+00;  0.0000000E+00; -2.4236475E-01;0; -6.3661980E-03;  3.9920805E+04;  0.0000000E+00;  3.5434552E-02;  4.0000000E+04;  0.0000000E+00;  4.0002758E+04; -3.1526925E-03;  0.0000000E+00; -3.2135057E-03;  4.2369272E+02;
  5.5130255E-01;  9.9999998E-03;  2.2001967E-01;5853; -6.0424171E-03;  0.0000000E+00; -7.5895817E-04;  9.9934540E+02;  1.0004873E-01; -5.4230566E+02;3;  1.0885683E+00;  0.0000000E+00; -2.4539374E-01;0; -6.0628345E-03;  3.9901957E+04;  0.0000000E+00; -2.5496574E-03;  4.0000000E+04;  0.0000000E+00;  4.0004922E+04; -2.8328309E-03;  0.0000000E+00; -3.2300036E-03;  6.9706354E+02;
  5.5133772E-01;  9.9999998E-03;  2.3000938E-01;5854; -5.9066992E-03;  0.0000000E+00; -7.8495563E-04;  9.9913660E+02;  1.0004845E-01; -7.1533777E+02;3;  1.0630814E+00;  0.0000000E+00; -2.4791084E-01;0; -5.7261223E-03;  3.9882629E+04;  0.0000000E+00; -5.1450163E-02;  4.0000000E+04;  0.0000000E+00;  4.0007500E+04; -2.5027650E-03;  0.0000000E+00; -3.2233575E-03;  1.0630629E+03;
  5.6136578E-01;  9.9999998E-03;  7.0013806E-02;5899; -7.4678087E-03;  0.0000000E+00; -3.1780940E-04;  1.0000789E+03;  1.0007960E-01;  6.5380867E+01;3;  1.4516300E+00;  0.0000000E+00; -9.5359236E-02;0; -9.7881705E-03;  3.9943012E+04;  0.0000000E+00; -1.5289998E-02;  4.0000000E+04;  0.0000000E+00;  3.9995773E+04; -5.4975334E-03;  0.0000000E+00; -4.2906376E-03;  4.6987161E+02;
  5.6137103E-01;  9.9999998E-03;  8.0014311E-02;5900; -7.4114935E-03;  0.0000000E+00; -3.5906854E-04;  1.0001430E+03;  1.0007960E-01;  1.1851517E+02;3;  1.4387578E+00;  0.0000000E+00; -1.0808889E-01;0; -9.6076820E-03;  3.9948523E+04;  0.0000000E+00; -1.0283386E-02;  4.0000000E+04;  0.0000000E+00;  3.9995480E+04; -5.3860000E-03;  0.0000000E+00; -4.2216815E-03;  5.2099377E+02;
  5.6137133E-01;  9.9999998E-03;  9.0014331E-02;5901; -7.3509170E-03;  0.0000000E+00; -3.9980849E-04;  1.0002097E+03;  1.0007951E-01;  1.7372348E+02;3;  1.4242589E+00;  0.0000000E+00; -1.2046832E-01;0; -9.4123688E-03;  3.9954438E+04;  0.0000000E+00; -2.0502633E-03;  4.0000000E+04;  0.0000000E+00;  3.9994848E+04; -5.2673956E-03;  0.0000000E+00; -4.1449727E-03;  5.9165906E+02;
  5.6136686E-01;  9.9999998E-03;  1.0001392E-01;5902; -7.2862967E-03;  0.0000000E+00; -4.4014628E-04;  1.0002798E+03;  1.0007958E-01;  2.3189467E+02;3;  1.4081376E+00;  0.0000000E+00; -1.3244365E-01;0; -9.2032775E-03;  3.9960672E+04;  0.0000000E+00;  8.6471504E-03;  4.0000000E+04;  0.0000000E+00;  3.9994215E+04; -5.1424620E-03;  0.0000000E+00; -4.0608160E-03;  6.7378461E+02;
  5.6135798E-01;  9.9999998E-03;  1.1001320E-01;5903; -7.2175153E-03;  0.0000000E+00; -4.7999708E-04;  1.0003475E+03;  1.0007960E-01;  2.8789310E+02;3;  1.3904363E+00;  0.0000000E+00; -1.4394079E-01;0; -8.9812176E-03;  3.9966797E+04;  0.0000000E+00;  2.0615079E-02;  4.0000000E+04;  0.0000000E+00;  3.9993430E+04; -5.0112265E-03;  0.0000000E+00; -3.9699911E-03;  7.5511755E+02;
  5.6134510E-01;  9.9999998E-03;  1.2001268E-01;5904; -7.1441932E-03;  0.0000000E+00; -5.1904493E-04;  1.0004048E+03;  1.0007966E-01;  3.3539792E+02;3;  1.3712121E+00;  0.0000000E+00; -1.5487368E-01;0; -8.7469826E-03;  3.9971922E+04;  0.0000000E+00;  3.2556310E-02;  4.0000000E+04;  0.0000000E+00;  3.9993238E+04; -4.8728064E-03;  0.0000000E+00; -3.8741759E-03;  8.2048083E+02;
  5.6132865E-01;  9.9999998E-03;  1.3001299E-01;5905; -7.0657828E-03;  0.0000000E+00; -5.5677362E-04;  1.0004498E+03;  1.0007964E-01;  3.7263144E+02;3;  1.3506335E+00;  0.0000000E+00; -1.6513970E-01;0; -8.5016536E-03;  3.9975508E+04;  0.0000000E+00;  4.3405227E-02;  4.0000000E+04;  0.0000000E+00;  3.9993344E+04; -4.7254520E-03;  0.0000000E+00; -3.7762013E-03;  8.5283606E+02;
  5.6130928E-01;  9.9999998E-03;  1.4001492E-01;5906; -6.9815749E-03;  0.0000000E+00; -5.9256481E-04;  1.0004693E+03;  1.0007980E-01;  3.8882852E+02;3;  1.3287427E+00;  0.0000000E+00; -1.7460576E-01;0; -8.2466761E-03;  3.9977242E+04;  0.0000000E+00;  5.2602861E-02;  4.0000000E+04;  0.0000000E+00;  3.9992789E+04; -4.5664981E-03;  0.0000000E+00; -3.6801777E-03;  8.3579028E+02;
  5.6128877E-01;  9.9999998E-03;  1.5001890E-01;5907; -6.8908837E-03;  0.0000000E+00; -6.2586571E-04;  1.0004604E+03;  1.0007989E-01;  3.8142133E+02;3;  1.3057390E+00;  0.0000000E+00; -1.8313894E-01;0; -7.9838019E-03;  3.9976211E+04;  0.0000000E+00;  6.0108058E-02;  4.0000000E+04;  0.0000000E+00;  3.9993625E+04; -4.3924120E-03;  0.0000000E+00; -3.5913894E-03;  7.5659039E+02;
  5.6126976E-01;  9.9999998E-03;  1.6002476E-01;5908; -6.7932112E-03;  0.0000000E+00; -6.5641938E-04;  1.0004247E+03;  1.0007964E-01;  3.5179251E+02;3;  1.2810997E+00;  0.0000000E+00; -1.9141313E-01;0; -7.7145351E-03;  3.9971910E+04;  0.0000000E+00;  6.5774001E-02;  4.0000000E+04;  0.0000000E+00;  3.9994820E+04; -4.1990522E-03;  0.0000000E+00; -3.5154826E-03;  6.1197266E+02;
  5.6125593E-01;  9.9999998E-03;  1.7003176E-01;5909; -6.6886502E-03;  0.0000000E+00; -6.8474392E-04;  1.0003505E+03;  1.0007987E-01;  2.9036215E+02;3;  1.2542008E+00;  0.0000000E+00; -2.0004721E-01;0; -7.4395896E-03;  3.9964832E+04;  0.0000000E+00;  6.8770781E-02;  4.0000000E+04;  0.0000000E+00;  3.9996355E+04; -3.9825933E-03;  0.0000000E+00; -3.4569963E-03;  4.1398010E+02;
  5.6124979E-01;  9.9999998E-03;  1.8003885E-01;5910; -6.5777437E-03;  0.0000000E+00; -7.1143411E-04;  1.0002445E+03;  1.0007997E-01;  2.0256218E+02;3;  1.2255363E+00;  0.0000000E+00; -2.0836718E-01;0; -7.1583306E-03;  3.9954430E+04;  0.0000000E+00;  6.7531921E-02;  4.0000000E+04;  0.0000000E+00;  3.9998195E+04; -3.7404131E-03;  0.0000000E+00; -3.4179178E-03;  1.9659900E+02;
  5.6125432E-01;  9.9999998E-03;  1.9004488E-01;5911; -6.4603663E-03;  0.0000000E+00; -7.3643285E-04;  1.0000972E+03;  1.0007988E-01;  8.0590317E+01;3;  1.1965735E+00;  0.0000000E+00; -2.1479045E-01;0; -6.8683289E-03;  3.9941090E+04;  0.0000000E+00;  5.9986182E-02;  4.0000000E+04;  0.0000000E+00;  4.0000043E+04; -3.4716923E-03;  0.0000000E+00; -3.3966368E-03;  9.3220070E+01;
  5.6127107E-01;  9.9999998E-03;  2.0004749E-01;5912; -6.3367621E-03;  0.0000000E+00; -7.6138729E-04;  9.9991534E+02;  1.0007979E-01; -7.0121475E+01;3;  1.1659892E+00;  0.0000000E+00; -2.2150376E-01;0; -6.5654945E-03;  3.9925492E+04;  0.0000000E+00;  4.4002071E-02;  4.0000000E+04;  0.0000000E+00;  4.0000910E+04; -3.1775264E-03;  0.0000000E+00; -3.3879678E-03;  2.1022220E+02;
  5.6130075E-01;  9.9999998E-03;  2.1004269E-01;5913; -6.2079299E-03;  0.0000000E+00; -7.9053623E-04;  9.9970599E+02;  1.0007975E-01; -2.4359805E+02;3;  1.1370286E+00;  0.0000000E+00; -2.2572106E-01;0; -6.2481677E-03;  3.9908035E+04;  0.0000000E+00;  1.7962275E-02;  4.0000000E+04;  0.0000000E+00;  4.0001656E+04; -2.8607866E-03;  0.0000000E+00; -3.3873813E-03;  3.2021667E+02;
  5.6134224E-01;  9.9999998E-03;  2.2002921E-01;5914; -6.0745352E-03;  0.0000000E+00; -8.2429848E-04;  9.9948419E+02;  1.0008001E-01; -4.2734595E+02;3;  1.1083159E+00;  0.0000000E+00; -2.2870386E-01;0; -5.9171640E-03;  3.9889312E+04;  0.0000000E+00; -1.9101163E-02;  4.0000000E+04;  0.0000000E+00;  4.0003109E+04; -2.5258407E-03;  0.0000000E+00; -3.3913234E-03;  5.1714471E+02;
  5.6139237E-01;  9.9999998E-03;  2.3001543E-01;5915; -5.9364997E-03;  0.0000000E+00; -8.5706217E-04;  9.9926752E+02;  1.0007983E-01; -6.0684705E+02;3;  1.0832515E+00;  0.0000000E+00; -2.2983408E-01;0; -5.5610104E-03;  3.9869945E+04;  0.0000000E+00; -6.7602418E-02;  4.0000000E+04;  0.0000000E+00;  4.0005336E+04; -2.1777123E-03;  0.0000000E+00; -3.3832982E-03;  8.3283978E+02;
  5.7143241E-01;  9.9999998E-03;  7.0010088E-02;5960; -7.5256983E-03;  0.0000000E+00; -3.5494982E-04;  1.0001271E+03;  1.0013084E-01;  1.0528098E+02;3;  1.4951751E+00;  0.0000000E+00; -8.8646285E-02;0; -9.9040493E-03;  3.9906965E+04;  0.0000000E+00;  4.6564482E-02;  4.0000000E+04;  0.0000000E+00;  3.9994594E+04; -5.2056480E-03;  0.0000000E+00; -4.6984009E-03;  5.4999646E+02;
  5.7143289E-01;  9.9999998E-03;  8.0011375E-02;5961; -7.4670776E-03;  0.0000000E+00; -4.0068204E-04;  1.0002073E+03;  1.0013099E-01;  1.7174823E+02;3;  1.4814721E+00;  0.0000000E+00; -1.0042899E-01;0; -9.7151231E-03;  3.9913496E+04;  0.0000000E+00;  6.2472746E-02;  4.0000000E+04;  0.0000000E+00;  3.9994641E+04; -5.0982782E-03;  0.0000000E+00; -4.6168445E-03;  5.9930432E+02;
  5.7142758E-01;  9.9999998E-03;  9.0012349E-02;5962; -7.4042012E-03;  0.0000000E+00; -4.4563162E-04;  1.0002924E+03;  1.0013097E-01;  2.4226476E+02;3;  1.4660281E+00;  0.0000000E+00; -1.1187400E-01;0; -9.5105376E-03;  3.9920504E+04;  0.0000000E+00;  7.8436852E-02;  4.0000000E+04;  0.0000000E+00;  3.9994008E+04; -4.9839765E-03;  0.0000000E+00; -4.5265616E-03;  6.6315851E+02;
  5.7141650E-01;  9.9999998E-03;  1.0001299E-01;5963; -7.3373215E-03;  0.0000000E+00; -4.8988528E-04;  1.0003768E+03;  1.0013086E-01;  3.1218869E+02;3;  1.4488354E+00;  0.0000000E+00; -1.2292094E-01;0; -9.2913006E-03;  3.9928051E+04;  0.0000000E+00;  9.2428915E-02;  4.0000000E+04;  0.0000000E+00;  3.9993570E+04; -4.8633749E-03;  0.0000000E+00; -4.4279252E-03;  7.3257111E+02;
  5.7139993E-01;  9.9999998E-03;  1.1001346E-01;5964; -7.2663832E-03;  0.0000000E+00; -5.3331011E-04;  1.0004541E+03;  1.0013118E-01;  3.7618689E+02;3;  1.4299994E+00;  0.0000000E+00; -1.3349850E-01;0; -9.0581011E-03;  3.9934930E+04;  0.0000000E+00;  1.0239388E-01;  4.0000000E+04;  0.0000000E+00;  3.9993242E+04; -4.7363034E-03;  0.0000000E+00; -4.3217973E-03;  7.9567615E+02;
  5.7137948E-01;  9.9999998E-03;  1.2001400E-01;5965; -7.1911309E-03;  0.0000000E+00; -5.7553325E-04;  1.0005269E+03;  1.0013115E-01;  4.3653085E+02;3;  1.4095119E+00;  0.0000000E+00; -1.4350852E-01;0; -8.8116862E-03;  3.9940801E+04;  0.0000000E+00;  1.0681953E-01;  4.0000000E+04;  0.0000000E+00;  3.9992656E+04; -4.6017077E-03;  0.0000000E+00; -4.2099790E-03;  8.3815295E+02;
  5.7135665E-01;  9.9999998E-03;  1.3001509E-01;5966; -7.1109505E-03;  0.0000000E+00; -6.1597506E-04;  1.0005805E+03;  1.0013101E-01;  4.8097406E+02;3;  1.3875558E+00;  0.0000000E+00; -1.5282297E-01;0; -8.5530374E-03;  3.9945270E+04;  0.0000000E+00;  1.0520585E-01;  4.0000000E+04;  0.0000000E+00;  3.9992625E+04; -4.4576055E-03;  0.0000000E+00; -4.0954314E-03;  8.4498157E+02;
  5.7133293E-01;  9.9999998E-03;  1.4001766E-01;5967; -7.0251855E-03;  0.0000000E+00; -6.5397640E-04;  1.0006169E+03;  1.0013114E-01;  5.1109665E+02;3;  1.3642493E+00;  0.0000000E+00; -1.6128644E-01;0; -8.2834829E-03;  3.9947531E+04;  0.0000000E+00;  9.8367013E-02;  4.0000000E+04;  0.0000000E+00;  3.9993172E+04; -4.3011126E-03;  0.0000000E+00; -3.9823703E-03;  8.0207764E+02;
  5.7131112E-01;  9.9999998E-03;  1.5002218E-01;5968; -6.9329930E-03;  0.0000000E+00; -6.8896578E-04;  1.0006223E+03;  1.0013122E-01;  5.1554095E+02;3;  1.3397107E+00;  0.0000000E+00; -1.6874285E-01;0; -8.0045974E-03;  3.9946820E+04;  0.0000000E+00;  8.8175736E-02;  4.0000000E+04;  0.0000000E+00;  3.9994184E+04; -4.1283956E-03;  0.0000000E+00; -3.8762020E-03;  6.9983069E+02;
  5.7129377E-01;  9.9999998E-03;  1.6002868E-01;5969; -6.8336078E-03;  0.0000000E+00; -7.2058133E-04;  1.0005906E+03;  1.0013103E-01;  4.8927011E+02;3;  1.3140268E+00;  0.0000000E+00; -1.7513447E-01;0; -7.7179223E-03;  3.9943527E+04;  0.0000000E+00;  7.6661520E-02;  4.0000000E+04;  0.0000000E+00;  3.9995277E+04; -3.9350884E-03;  0.0000000E+00; -3.7828339E-03;  5.3845300E+02;
  5.7128406E-01;  9.9999998E-03;  1.7003642E-01;5970; -6.7268806E-03;  0.0000000E+00; -7.4907864E-04;  1.0005304E+03;  1.0013123E-01;  4.3939499E+02;3;  1.2857881E+00;  0.0000000E+00; -1.8248697E-01;0; -7.4242493E-03;  3.9937059E+04;  0.0000000E+00;  6.5183215E-02;  4.0000000E+04;  0.0000000E+00;  3.9996883E+04; -3.7171268E-03;  0.0000000E+00; -3.7071223E-03;  3.3411539E+02;
  5.7128531E-01;  9.9999998E-03;  1.8004423E-01;5971; -6.6132015E-03;  0.0000000E+00; -7.7528344E-04;  1.0004272E+03;  1.0013138E-01;  3.5396530E+02;3;  1.2556946E+00;  0.0000000E+00; -1.8978497E-01;0; -7.1225590E-03;  3.9927469E+04;  0.0000000E+00;  5.3792093E-02;  4.0000000E+04;  0.0000000E+00;  3.9998477E+04; -3.4714483E-03;  0.0000000E+00; -3.6511107E-03;  1.2712897E+02;
  5.7129967E-01;  9.9999998E-03;  1.9005090E-01;5972; -6.4929267E-03;  0.0000000E+00; -7.9962151E-04;  1.0002905E+03;  1.0013139E-01;  2.4068456E+02;3;  1.2243863E+00;  0.0000000E+00; -1.9637352E-01;0; -6.8093846E-03;  3.9915184E+04;  0.0000000E+00;  4.0940940E-02;  4.0000000E+04;  0.0000000E+00;  3.9999945E+04; -3.1966562E-03;  0.0000000E+00; -3.6127283E-03;  9.6800270E+01;
  5.7132924E-01;  9.9999998E-03;  2.0005386E-01;5973; -6.3659619E-03;  0.0000000E+00; -8.2385598E-04;  1.0001082E+03;  1.0013146E-01;  8.9676476E+01;3;  1.1933750E+00;  0.0000000E+00; -2.0102131E-01;0; -6.4793769E-03;  3.9900266E+04;  0.0000000E+00;  2.3962393E-02;  4.0000000E+04;  0.0000000E+00;  4.0000727E+04; -2.8934709E-03;  0.0000000E+00; -3.5859060E-03;  1.8378928E+02;
  5.7137358E-01;  9.9999998E-03;  2.1004885E-01;5974; -6.2333364E-03;  0.0000000E+00; -8.5286680E-04;  9.9989783E+02;  1.0013153E-01; -8.4639580E+01;3;  1.1631541E+00;  0.0000000E+00; -2.0354106E-01;0; -6.1295433E-03;  3.9883305E+04;  0.0000000E+00; -1.4247796E-04;  4.0000000E+04;  0.0000000E+00;  4.0000512E+04; -2.5644710E-03;  0.0000000E+00; -3.5650725E-03;  2.1865321E+02;
  5.7143098E-01;  9.9999998E-03;  2.2003485E-01;5975; -6.0960185E-03;  0.0000000E+00; -8.8904012E-04;  9.9967859E+02;  1.0013144E-01; -2.6626407E+02;3;  1.1330487E+00;  0.0000000E+00; -2.0667724E-01;0; -5.7628807E-03;  3.9865227E+04;  0.0000000E+00; -3.4598816E-02;  4.0000000E+04;  0.0000000E+00;  4.0001410E+04; -2.2137158E-03;  0.0000000E+00; -3.5491649E-03;  3.2161484E+02;
  5.7149696E-01;  9.9999998E-03;  2.3002045E-01;5976; -5.9546712E-03;  0.0000000E+00; -9.3053083E-04;  9.9946228E+02;  1.0013144E-01; -4.4546887E+02;3;  1.1065743E+00;  0.0000000E+00; -2.0805396E-01;0; -5.3849267E-03;  3.9846691E+04;  0.0000000E+00; -8.3640441E-02;  4.0000000E+04;  0.0000000E+00;  4.0002883E+04; -1.8460738E-03;  0.0000000E+00; -3.5388528E-03;  5.3691699E+02;
  5.8154035E-01;  9.9999998E-03;  7.0001811E-02;6021; -7.5811343E-03;  0.0000000E+00; -3.8964057E-04;  1.0001802E+03;  1.0021388E-01;  1.4923035E+02;3;  1.5384116E+00;  0.0000000E+00; -8.1193052E-02;0; -1.0017308E-02;  3.9846902E+04;  0.0000000E+00;  1.0827107E-01;  4.0000000E+04;  0.0000000E+00;  3.9993762E+04; -4.8943926E-03;  0.0000000E+00; -5.1229158E-03;  6.2409979E+02;
  5.8153051E-01;  9.9999998E-03;  8.0004007E-02;6022; -7.5199422E-03;  0.0000000E+00; -4.3985093E-04;  1.0002646E+03;  1.0021397E-01;  2.1925305E+02;3;  1.5238478E+00;  0.0000000E+00; -9.1933347E-02;0; -9.8217800E-03;  3.9853648E+04;  0.0000000E+00;  1.3350071E-01;  4.0000000E+04;  0.0000000E+00;  3.9993742E+04; -4.7927112E-03;  0.0000000E+00; -5.0290683E-03;  6.7294128E+02;
  5.8151168E-01;  9.9999998E-03;  9.0006433E-02;6023; -7.4545927E-03;  0.0000000E+00; -4.8911048E-04;  1.0003559E+03;  1.0021431E-01;  2.9480649E+02;3;  1.5074164E+00;  0.0000000E+00; -1.0235146E-01;0; -9.6095428E-03;  3.9861105E+04;  0.0000000E+00;  1.5503666E-01;  4.0000000E+04;  0.0000000E+00;  3.9993219E+04; -4.6842238E-03;  0.0000000E+00; -4.9253195E-03;  7.3035236E+02;
  5.8148539E-01;  9.9999998E-03;  1.0000875E-01;6024; -7.3854057E-03;  0.0000000E+00; -5.3747598E-04;  1.0004457E+03;  1.0021400E-01;  3.6927350E+02;3;  1.4891195E+00;  0.0000000E+00; -1.1239948E-01;0; -9.3815541E-03;  3.9868746E+04;  0.0000000E+00;  1.6980836E-01;  4.0000000E+04;  0.0000000E+00;  3.9992855E+04; -4.5693708E-03;  0.0000000E+00; -4.8121833E-03;  7.8701440E+02;
  5.8145487E-01;  9.9999998E-03;  1.1001074E-01;6025; -7.3124291E-03;  0.0000000E+00; -5.8477640E-04;  1.0005319E+03;  1.0021417E-01;  4.4067889E+02;3;  1.4690785E+00;  0.0000000E+00; -1.2199521E-01;0; -9.1384258E-03;  3.9875852E+04;  0.0000000E+00;  1.7528515E-01;  4.0000000E+04;  0.0000000E+00;  3.9992559E+04; -4.4476916E-03;  0.0000000E+00; -4.6907337E-03;  8.3179535E+02;
  5.8142340E-01;  9.9999998E-03;  1.2001261E-01;6026; -7.2353212E-03;  0.0000000E+00; -6.3058833E-04;  1.0006041E+03;  1.0021426E-01;  5.0052905E+02;3;  1.4473602E+00;  0.0000000E+00; -1.3102953E-01;0; -8.8808555E-03;  3.9881902E+04;  0.0000000E+00;  1.7016040E-01;  4.0000000E+04;  0.0000000E+00;  3.9992223E+04; -4.3179309E-03;  0.0000000E+00; -4.5629251E-03;  8.5196252E+02;
  5.8139330E-01;  9.9999998E-03;  1.3001479E-01;6027; -7.1535944E-03;  0.0000000E+00; -6.7429477E-04;  1.0006662E+03;  1.0021437E-01;  5.5188562E+02;3;  1.4240268E+00;  0.0000000E+00; -1.3935100E-01;0; -8.6097019E-03;  3.9886512E+04;  0.0000000E+00;  1.5490441E-01;  4.0000000E+04;  0.0000000E+00;  3.9992723E+04; -4.1779326E-03;  0.0000000E+00; -4.4317693E-03;  8.3476227E+02;
  5.8136749E-01;  9.9999998E-03;  1.4001784E-01;6028; -7.0663993E-03;  0.0000000E+00; -7.1521243E-04;  1.0007055E+03;  1.0021447E-01;  5.8447729E+02;3;  1.3991915E+00;  0.0000000E+00; -1.4679497E-01;0; -8.3261933E-03;  3.9888941E+04;  0.0000000E+00;  1.3191266E-01;  4.0000000E+04;  0.0000000E+00;  3.9993012E+04; -4.0246374E-03;  0.0000000E+00; -4.3015564E-03;  7.6917944E+02;
  5.8134717E-01;  9.9999998E-03;  1.5002240E-01;6029; -6.9728428E-03;  0.0000000E+00; -7.5276726E-04;  1.0007190E+03;  1.0021443E-01;  5.9563745E+02;3;  1.3728373E+00;  0.0000000E+00; -1.5326987E-01;0; -8.0317706E-03;  3.9889117E+04;  0.0000000E+00;  1.0495470E-01;  4.0000000E+04;  0.0000000E+00;  3.9994082E+04; -3.8540929E-03;  0.0000000E+00; -4.1776774E-03;  6.4891986E+02;
  5.8133417E-01;  9.9999998E-03;  1.6002858E-01;6030; -6.8720053E-03;  0.0000000E+00; -7.8656187E-04;  1.0007043E+03;  1.0021445E-01;  5.8348969E+02;3;  1.3455608E+00;  0.0000000E+00; -1.5833190E-01;0; -7.7279173E-03;  3.9886402E+04;  0.0000000E+00;  7.8075297E-02;  4.0000000E+04;  0.0000000E+00;  3.9995445E+04; -3.6617357E-03;  0.0000000E+00; -4.0661814E-03;  4.7789258E+02;
  5.8133155E-01;  9.9999998E-03;  1.7003568E-01;6031; -6.7630894E-03;  0.0000000E+00; -8.1640633E-04;  1.0006537E+03;  1.0021455E-01;  5.4161432E+02;3;  1.3169808E+00;  0.0000000E+00; -1.6247588E-01;0; -7.4154614E-03;  3.9880836E+04;  0.0000000E+00;  5.4514077E-02;  4.0000000E+04;  0.0000000E+00;  3.9996922E+04; -3.4432681E-03;  0.0000000E+00; -3.9721932E-03;  2.7492834E+02;
  5.8134222E-01;  9.9999998E-03;  1.8004268E-01;6032; -6.6462178E-03;  0.0000000E+00; -8.4299070E-04;  1.0005670E+03;  1.0021462E-01;  4.6971512E+02;3;  1.2853806E+00;  0.0000000E+00; -1.6865052E-01;0; -7.0928624E-03;  3.9872320E+04;  0.0000000E+00;  3.5551421E-02;  4.0000000E+04;  0.0000000E+00;  3.9998301E+04; -3.1950944E-03;  0.0000000E+00; -3.8977677E-03;  8.0190430E+01;
  5.8136892E-01;  9.9999998E-03;  1.9004843E-01;6033; -6.5217977E-03;  0.0000000E+00; -8.6737477E-04;  1.0004377E+03;  1.0021471E-01;  3.6265640E+02;3;  1.2528718E+00;  0.0000000E+00; -1.7401241E-01;0; -6.7558009E-03;  3.9861043E+04;  0.0000000E+00;  1.9887242E-02;  4.0000000E+04;  0.0000000E+00;  3.9999445E+04; -2.9151875E-03;  0.0000000E+00; -3.8406132E-03;  9.2251167E+01;
  5.8141285E-01;  9.9999998E-03;  2.0005049E-01;6034; -6.3900081E-03;  0.0000000E+00; -8.9132553E-04;  1.0002713E+03;  1.0021479E-01;  2.2478377E+02;3;  1.2207532E+00;  0.0000000E+00; -1.7701949E-01;0; -6.3975528E-03;  3.9847359E+04;  0.0000000E+00;  4.1794013E-03;  4.0000000E+04;  0.0000000E+00;  3.9999828E+04; -2.6037060E-03;  0.0000000E+00; -3.7938466E-03;  1.5121292E+02;
  5.8147365E-01;  9.9999998E-03;  2.1004502E-01;6035; -6.2514083E-03;  0.0000000E+00; -9.1932435E-04;  1.0000736E+03;  1.0021475E-01;  6.0936546E+01;3;  1.1892602E+00;  0.0000000E+00; -1.7989261E-01;0; -6.0127284E-03;  3.9832160E+04;  0.0000000E+00; -1.6187504E-02;  4.0000000E+04;  0.0000000E+00;  3.9999637E+04; -2.2628487E-03;  0.0000000E+00; -3.7498795E-03;  1.4661200E+02;
  5.8154857E-01;  9.9999998E-03;  2.2003236E-01;6036; -6.1074444E-03;  0.0000000E+00; -9.5566810E-04;  9.9986292E+02;  1.0021487E-01; -1.1357703E+02;3;  1.1604681E+00;  0.0000000E+00; -1.8002619E-01;0; -5.6043221E-03;  3.9815340E+04;  0.0000000E+00; -4.7446489E-02;  4.0000000E+04;  0.0000000E+00;  3.9999891E+04; -1.8962658E-03;  0.0000000E+00; -3.7080562E-03;  1.8758090E+02;
  5.8163202E-01;  9.9999998E-03;  2.3002054E-01;6037; -5.9607713E-03;  0.0000000E+00; -1.0043029E-03;  9.9964844E+02;  1.0021494E-01; -2.9125101E+02;3;  1.1320797E+00;  0.0000000E+00; -1.7855982E-01;0; -5.1953672E-03;  3.9798008E+04;  0.0000000E+00; -9.9375077E-02;  4.0000000E+04;  0.0000000E+00;  4.0000590E+04; -1.5085246E-03;  0.0000000E+00; -3.6868423E-03;  3.0103879E+02;
  5.9163088E-01;  9.9999998E-03;  6.9997974E-02;6082; -7.6329606E-03;  0.0000000E+00; -4.2118735E-04;  1.0001737E+03;  1.0034806E-01;  1.4389717E+02;3;  1.5809121E+00;  0.0000000E+00; -7.3036224E-02;0; -1.0126457E-02;  3.9742598E+04;  0.0000000E+00;  1.5548749E-01;  4.0000000E+04;  0.0000000E+00;  3.9992758E+04; -4.5659696E-03;  0.0000000E+00; -5.5604870E-03;  6.7014221E+02;
  5.9160924E-01;  9.9999998E-03;  8.0000214E-02;6083; -7.5692688E-03;  0.0000000E+00; -4.7578951E-04;  1.0002560E+03;  1.0034810E-01;  2.1204338E+02;3;  1.5655078E+00;  0.0000000E+00; -8.2632519E-02;0; -9.9259298E-03;  3.9749281E+04;  0.0000000E+00;  1.8589979E-01;  4.0000000E+04;  0.0000000E+00;  3.9992586E+04; -4.4709267E-03;  0.0000000E+00; -5.4550027E-03;  7.1753668E+02;
  5.9157854E-01;  9.9999998E-03;  9.0002567E-02;6084; -7.5016120E-03;  0.0000000E+00; -5.2939926E-04;  1.0003420E+03;  1.0034801E-01;  2.8335001E+02;3;  1.5481176E+00;  0.0000000E+00; -9.1928571E-02;0; -9.7075105E-03;  3.9756125E+04;  0.0000000E+00;  2.0905621E-01;  4.0000000E+04;  0.0000000E+00;  3.9992004E+04; -4.3690237E-03;  0.0000000E+00; -5.3384872E-03;  7.6897693E+02;
  5.9154063E-01;  9.9999998E-03;  1.0000525E-01;6085; -7.4303434E-03;  0.0000000E+00; -5.8204430E-04;  1.0004213E+03;  1.0034835E-01;  3.4902716E+02;3;  1.5288106E+00;  0.0000000E+00; -1.0088173E-01;0; -9.4719622E-03;  3.9762848E+04;  0.0000000E+00;  2.2136286E-01;  4.0000000E+04;  0.0000000E+00;  3.9991945E+04; -4.2604436E-03;  0.0000000E+00; -5.2115181E-03;  8.1528156E+02;
  5.9149802E-01;  9.9999998E-03;  1.1000852E-01;6086; -7.3556290E-03;  0.0000000E+00; -6.3351326E-04;  1.0005022E+03;  1.0034828E-01;  4.1608701E+02;3;  1.5076032E+00;  0.0000000E+00; -1.0942094E-01;0; -9.2197834E-03;  3.9769129E+04;  0.0000000E+00;  2.2031574E-01;  4.0000000E+04;  0.0000000E+00;  3.9991730E+04; -4.1445736E-03;  0.0000000E+00; -5.0752098E-03;  8.4597919E+02;
  5.9145492E-01;  9.9999998E-03;  1.2001240E-01;6087; -7.2770873E-03;  0.0000000E+00; -6.8334647E-04;  1.0005732E+03;  1.0034828E-01;  4.7485077E+02;3;  1.4846094E+00;  0.0000000E+00; -1.1742951E-01;0; -8.9516006E-03;  3.9774750E+04;  0.0000000E+00;  2.0522813E-01;  4.0000000E+04;  0.0000000E+00;  3.9991691E+04; -4.0199771E-03;  0.0000000E+00; -4.9316236E-03;  8.4999353E+02;
  5.9141582E-01;  9.9999998E-03;  1.3001683E-01;6088; -7.1941214E-03;  0.0000000E+00; -7.3090964E-04;  1.0006340E+03;  1.0034844E-01;  5.2521973E+02;3;  1.4598920E+00;  0.0000000E+00; -1.2474549E-01;0; -8.6682811E-03;  3.9778973E+04;  0.0000000E+00;  1.7772241E-01;  4.0000000E+04;  0.0000000E+00;  3.9991738E+04; -3.8843642E-03;  0.0000000E+00; -4.7839168E-03;  8.1654395E+02;
  5.9138495E-01;  9.9999998E-03;  1.4002171E-01;6089; -7.1057766E-03;  0.0000000E+00; -7.7552692E-04;  1.0006715E+03;  1.0034855E-01;  5.5632996E+02;3;  1.4334246E+00;  0.0000000E+00; -1.3125025E-01;0; -8.3710253E-03;  3.9781344E+04;  0.0000000E+00;  1.4162773E-01;  4.0000000E+04;  0.0000000E+00;  3.9992375E+04; -3.7345998E-03;  0.0000000E+00; -4.6364251E-03;  7.3729211E+02;
  5.9136426E-01;  9.9999998E-03;  1.5002720E-01;6090; -7.0110820E-03;  0.0000000E+00; -8.1665488E-04;  1.0006879E+03;  1.0034860E-01;  5.6986041E+02;3;  1.4052782E+00;  0.0000000E+00; -1.3672815E-01;0; -8.0611147E-03;  3.9781750E+04;  0.0000000E+00;  1.0221602E-01;  4.0000000E+04;  0.0000000E+00;  3.9993469E+04; -3.5666011E-03;  0.0000000E+00; -4.4945134E-03;  6.0928308E+02;
  5.9135544E-01;  9.9999998E-03;  1.6003330E-01;6091; -6.9089425E-03;  0.0000000E+00; -8.5393118E-04;  1.0006787E+03;  1.0034893E-01;  5.6225568E+02;3;  1.3758993E+00;  0.0000000E+00; -1.4080653E-01;0; -7.7399579E-03;  3.9779598E+04;  0.0000000E+00;  6.4921454E-02;  4.0000000E+04;  0.0000000E+00;  3.9994570E+04; -3.3756332E-03;  0.0000000E+00; -4.3643247E-03;  4.4011993E+02;
  5.9135962E-01;  9.9999998E-03;  1.7003945E-01;6092; -6.7983493E-03;  0.0000000E+00; -8.8714610E-04;  1.0006396E+03;  1.0034908E-01;  5.2986157E+02;3;  1.3451570E+00;  0.0000000E+00; -1.4367965E-01;0; -7.4080611E-03;  3.9774973E+04;  0.0000000E+00;  3.4092084E-02;  4.0000000E+04;  0.0000000E+00;  3.9996062E+04; -3.1569658E-03;  0.0000000E+00; -4.2510955E-03;  2.5164793E+02;
  5.9137899E-01;  9.9999998E-03;  1.8004455E-01;6093; -6.6785528E-03;  0.0000000E+00; -9.1630663E-04;  1.0005677E+03;  1.0034906E-01;  4.7040646E+02;3;  1.3143580E+00;  0.0000000E+00; -1.4515896E-01;0; -7.0637157E-03;  3.9767488E+04;  0.0000000E+00;  1.1556078E-02;  4.0000000E+04;  0.0000000E+00;  3.9997500E+04; -2.9065998E-03;  0.0000000E+00; -4.1571162E-03;  7.9674736E+01;
  5.9141594E-01;  9.9999998E-03;  1.9004746E-01;6094; -6.5498021E-03;  0.0000000E+00; -9.4275613E-04;  1.0004572E+03;  1.0034942E-01;  3.7875473E+02;3;  1.2808806E+00;  0.0000000E+00; -1.4843214E-01;0; -6.7021996E-03;  3.9757746E+04;  0.0000000E+00; -3.9961268E-03;  4.0000000E+04;  0.0000000E+00;  3.9998074E+04; -2.6219322E-03;  0.0000000E+00; -4.0802672E-03;  3.3256351E+01;
  5.9147084E-01;  9.9999998E-03;  2.0004585E-01;6095; -6.4125652E-03;  0.0000000E+00; -9.6935779E-04;  1.0003051E+03;  1.0034940E-01;  2.5273360E+02;3;  1.2475147E+00;  0.0000000E+00; -1.5151347E-01;0; -6.3167997E-03;  3.9745648E+04;  0.0000000E+00; -1.6329618E-02;  4.0000000E+04;  0.0000000E+00;  3.9998277E+04; -2.3024215E-03;  0.0000000E+00; -4.0143779E-03;  6.2545376E+01;
  5.9154302E-01;  9.9999998E-03;  2.1003646E-01;6096; -6.2672184E-03;  0.0000000E+00; -9.9946430E-04;  1.0001263E+03;  1.0034940E-01;  1.0468840E+02;3;  1.2153406E+00;  0.0000000E+00; -1.5304303E-01;0; -5.9019662E-03;  3.9731527E+04;  0.0000000E+00; -3.1039771E-02;  4.0000000E+04;  0.0000000E+00;  3.9997992E+04; -1.9499233E-03;  0.0000000E+00; -3.9520427E-03;  6.1387882E+01;
  5.9163064E-01;  9.9999998E-03;  2.2002220E-01;6097; -6.1140796E-03;  0.0000000E+00; -1.0344918E-03;  9.9993091E+02;  1.0034967E-01; -5.7232948E+01;3;  1.1898134E+00;  0.0000000E+00; -1.4854564E-01;0; -5.4554204E-03;  3.9716289E+04;  0.0000000E+00; -5.6535602E-02;  4.0000000E+04;  0.0000000E+00;  3.9998219E+04; -1.5681833E-03;  0.0000000E+00; -3.8872370E-03;  1.2354446E+02;
  5.9172744E-01;  9.9999998E-03;  2.3001340E-01;6098; -5.9584905E-03;  0.0000000E+00; -1.0839637E-03;  9.9973077E+02;  1.0034961E-01; -2.2305542E+02;3;  1.1616694E+00;  0.0000000E+00; -1.4947951E-01;0; -5.0051357E-03;  3.9700285E+04;  0.0000000E+00; -1.0692446E-01;  4.0000000E+04;  0.0000000E+00;  3.9998676E+04; -1.1612097E-03;  0.0000000E+00; -3.8439259E-03;  2.1267581E+02;
  6.0164654E-01;  9.9999998E-03;  7.0005029E-02;6143; -7.6802601E-03;  0.0000000E+00; -4.4985741E-04;  1.0000496E+03;  1.0056140E-01;  4.1085258E+01;3;  1.6224191E+00;  0.0000000E+00; -6.4235248E-02;0; -1.0233820E-02;  3.9567910E+04;  0.0000000E+00;  1.7515692E-01;  4.0000000E+04;  0.0000000E+00;  3.9991332E+04; -4.2260676E-03;  0.0000000E+00; -6.0077528E-03;  6.6991180E+02;
  6.0162395E-01;  9.9999998E-03;  8.0005750E-02;6144; -7.6144901E-03;  0.0000000E+00; -5.0874794E-04;  1.0001202E+03;  1.0056169E-01;  9.9651505E+01;3;  1.6062038E+00;  0.0000000E+00; -7.2576717E-02;0; -1.0029154E-02;  3.9573500E+04;  0.0000000E+00;  2.0443942E-01;  4.0000000E+04;  0.0000000E+00;  3.9991227E+04; -4.1373051E-03;  0.0000000E+00; -5.8918488E-03;  7.1412213E+02;
  6.0159290E-01;  9.9999998E-03;  9.0005994E-02;6145; -7.5450595E-03;  0.0000000E+00; -5.6670996E-04;  1.0001937E+03;  1.0056166E-01;  1.6048929E+02;3;  1.5878946E+00;  0.0000000E+00; -8.0636352E-02;0; -9.8050963E-03;  3.9579070E+04;  0.0000000E+00;  2.2377041E-01;  4.0000000E+04;  0.0000000E+00;  3.9990789E+04; -4.0414287E-03;  0.0000000E+00; -5.7636672E-03;  7.6028076E+02;
  6.0155439E-01;  9.9999998E-03;  1.0000649E-01;6146; -7.4723889E-03;  0.0000000E+00; -6.2374398E-04;  1.0002635E+03;  1.0056184E-01;  2.1826543E+02;3;  1.5676174E+00;  0.0000000E+00; -8.8379174E-02;0; -9.5622223E-03;  3.9584785E+04;  0.0000000E+00;  2.2976394E-01;  4.0000000E+04;  0.0000000E+00;  3.9990781E+04; -3.9384114E-03;  0.0000000E+00; -5.6238114E-03;  7.9994897E+02;
  6.0151017E-01;  9.9999998E-03;  1.1000792E-01;6147; -7.3965411E-03;  0.0000000E+00; -6.7960972E-04;  1.0003297E+03;  1.0056213E-01;  2.7317746E+02;3;  1.5453771E+00;  0.0000000E+00; -9.5756024E-02;0; -9.3009742E-03;  3.9590027E+04;  0.0000000E+00;  2.2057487E-01;  4.0000000E+04;  0.0000000E+00;  3.9990523E+04; -3.8275297E-03;  0.0000000E+00; -5.4734447E-03;  8.2377441E+02;
  6.0146344E-01;  9.9999998E-03;  1.2001085E-01;6148; -7.3170648E-03;  0.0000000E+00; -7.3382916E-04;  1.0003840E+03;  1.0056242E-01;  3.1821323E+02;3;  1.5212688E+00;  0.0000000E+00; -1.0265765E-01;0; -9.0219174E-03;  3.9594031E+04;  0.0000000E+00;  1.9653381E-01;  4.0000000E+04;  0.0000000E+00;  3.9990195E+04; -3.7072836E-03;  0.0000000E+00; -5.3146333E-03;  8.2181403E+02;
  6.0141802E-01;  9.9999998E-03;  1.3001560E-01;6149; -7.2333147E-03;  0.0000000E+00; -7.8576757E-04;  1.0004332E+03;  1.0056223E-01;  3.5890344E+02;3;  1.4952457E+00;  0.0000000E+00; -1.0894684E-01;0; -8.7259067E-03;  3.9597340E+04;  0.0000000E+00;  1.6037279E-01;  4.0000000E+04;  0.0000000E+00;  3.9990613E+04; -3.5753530E-03;  0.0000000E+00; -5.1505538E-03;  7.8471460E+02;
  6.0137892E-01;  9.9999998E-03;  1.4002210E-01;6150; -7.1442341E-03;  0.0000000E+00; -8.3478924E-04;  1.0004676E+03;  1.0056274E-01;  3.8734708E+02;3;  1.4670669E+00;  0.0000000E+00; -1.1462054E-01;0; -8.4141362E-03;  3.9599004E+04;  0.0000000E+00;  1.1689753E-01;  4.0000000E+04;  0.0000000E+00;  3.9990961E+04; -3.4285630E-03;  0.0000000E+00; -4.9855728E-03;  7.0574347E+02;
  6.0135126E-01;  9.9999998E-03;  1.5002964E-01;6151; -7.0487186E-03;  0.0000000E+00; -8.8042911E-04;  1.0004820E+03;  1.0056295E-01;  3.9929736E+02;3;  1.4366274E+00;  0.0000000E+00; -1.1943328E-01;0; -8.0877841E-03;  3.9599285E+04;  0.0000000E+00;  7.2036028E-02;  4.0000000E+04;  0.0000000E+00;  3.9991828E+04; -3.2626926E-03;  0.0000000E+00; -4.8250919E-03;  5.8435455E+02;
  6.0133892E-01;  9.9999998E-03;  1.6003709E-01;6152; -6.9455849E-03;  0.0000000E+00; -9.2240435E-04;  1.0004757E+03;  1.0056322E-01;  3.9416168E+02;3;  1.4046227E+00;  0.0000000E+00; -1.2286142E-01;0; -7.7480311E-03;  3.9597312E+04;  0.0000000E+00;  3.1514343E-02;  4.0000000E+04;  0.0000000E+00;  3.9993438E+04; -3.0726569E-03;  0.0000000E+00; -4.6753739E-03;  4.3122110E+02;
  6.0134369E-01;  9.9999998E-03;  1.7004307E-01;6153; -6.8336232E-03;  0.0000000E+00; -9.6062402E-04;  1.0004443E+03;  1.0056351E-01;  3.6808835E+02;3;  1.3718705E+00;  0.0000000E+00; -1.2462624E-01;0; -7.3949918E-03;  3.9593211E+04;  0.0000000E+00; -2.8502088E-04;  4.0000000E+04;  0.0000000E+00;  3.9994461E+04; -2.8531691E-03;  0.0000000E+00; -4.5418227E-03;  2.7205121E+02;
  6.0136676E-01;  9.9999998E-03;  1.8004636E-01;6154; -6.7116506E-03;  0.0000000E+00; -9.9523843E-04;  1.0003765E+03;  1.0056404E-01;  3.1199118E+02;3;  1.3394054E+00;  0.0000000E+00; -1.2471429E-01;0; -7.0269303E-03;  3.9586832E+04;  0.0000000E+00; -2.1677766E-02;  4.0000000E+04;  0.0000000E+00;  3.9995340E+04; -2.5997225E-03;  0.0000000E+00; -4.4272081E-03;  1.4547626E+02;
  6.0140818E-01;  9.9999998E-03;  1.9004546E-01;6155; -6.5792943E-03;  0.0000000E+00; -1.0274696E-03;  1.0002725E+03;  1.0056406E-01;  2.2577139E+02;3;  1.3060093E+00;  0.0000000E+00; -1.2410714E-01;0; -6.6397246E-03;  3.9578113E+04;  0.0000000E+00; -3.3920083E-02;  4.0000000E+04;  0.0000000E+00;  3.9995773E+04; -2.3092406E-03;  0.0000000E+00; -4.3304842E-03;  8.9026566E+01;
  6.0146743E-01;  9.9999998E-03;  2.0003776E-01;6156; -6.4369515E-03;  0.0000000E+00; -1.0605099E-03;  1.0001296E+03;  1.0056403E-01;  1.0735499E+02;3;  1.2727832E+00;  0.0000000E+00; -1.2325679E-01;0; -6.2285373E-03;  3.9566801E+04;  0.0000000E+00; -4.0299870E-02;  4.0000000E+04;  0.0000000E+00;  3.9995637E+04; -1.9807816E-03;  0.0000000E+00; -4.2477557E-03;  9.0026268E+01;
  6.0154355E-01;  9.9999998E-03;  2.1002108E-01;6157; -6.2854094E-03;  0.0000000E+00; -1.0966810E-03;  9.9997223E+02;  1.0056417E-01; -2.3011694E+01;3;  1.2385924E+00;  0.0000000E+00; -1.2650996E-01;0; -5.7902643E-03;  3.9554078E+04;  0.0000000E+00; -4.5941371E-02;  4.0000000E+04;  0.0000000E+00;  3.9995980E+04; -1.6159136E-03;  0.0000000E+00; -4.1743508E-03;  7.0021065E+01;
  6.0163540E-01;  9.9999998E-03;  2.2000238E-01;6158; -6.1227698E-03;  0.0000000E+00; -1.1293466E-03;  9.9981274E+02;  1.0056438E-01; -1.5515611E+02;3;  1.2144707E+00;  0.0000000E+00; -1.1933696E-01;0; -5.3124190E-03;  3.9539852E+04;  0.0000000E+00; -5.8908988E-02;  4.0000000E+04;  0.0000000E+00;  3.9997293E+04; -1.2189364E-03;  0.0000000E+00; -4.0934826E-03;  1.7643594E+02;
  6.0173821E-01;  9.9999998E-03;  2.2999696E-01;6159; -5.9544342E-03;  0.0000000E+00; -1.1700805E-03;  9.9963678E+02;  1.0056425E-01; -3.0092975E+02;3;  1.1934539E+00;  0.0000000E+00; -1.1570234E-01;0; -4.8073796E-03;  3.9525344E+04;  0.0000000E+00; -9.3600474E-02;  4.0000000E+04;  0.0000000E+00;  3.9998500E+04; -7.9386606E-04;  0.0000000E+00; -4.0135137E-03;  3.2783136E+02;
  6.1158699E-01;  9.9999998E-03;  7.0019148E-02;6204; -7.7231876E-03;  0.0000000E+00; -4.7683003E-04;  9.9981854E+02;  1.0089495E-01; -1.5031674E+02;3;  1.6628013E+00;  0.0000000E+00; -5.4819640E-02;0; -1.0346009E-02;  3.9293871E+04;  0.0000000E+00;  1.5891002E-01;  4.0000000E+04;  0.0000000E+00;  3.9989203E+04; -3.8814081E-03;  0.0000000E+00; -6.4646015E-03;  6.1825397E+02;
  6.1156899E-01;  9.9999998E-03;  8.0019869E-02;6205; -7.6559503E-03;  0.0000000E+00; -5.3993618E-04;  9.9986786E+02;  1.0089531E-01; -1.0947839E+02;3;  1.6457534E+00;  0.0000000E+00; -6.1795518E-02;0; -1.0136564E-02;  3.9297496E+04;  0.0000000E+00;  1.7944902E-01;  4.0000000E+04;  0.0000000E+00;  3.9989301E+04; -3.7975768E-03;  0.0000000E+00; -6.3389875E-03;  6.5711584E+02;
  6.1154205E-01;  9.9999998E-03;  9.0019457E-02;6206; -7.5854450E-03;  0.0000000E+00; -6.0222927E-04;  9.9992358E+02;  1.0089567E-01; -6.3306850E+01;3;  1.6266314E+00;  0.0000000E+00; -6.8500645E-02;0; -9.9058794E-03;  3.9301410E+04;  0.0000000E+00;  1.8873495E-01;  4.0000000E+04;  0.0000000E+00;  3.9988789E+04; -3.7061831E-03;  0.0000000E+00; -6.1996966E-03;  6.9919501E+02;
  6.1150670E-01;  9.9999998E-03;  1.0001842E-01;6207; -7.5120479E-03;  0.0000000E+00; -6.6368520E-04;  9.9997375E+02;  1.0089583E-01; -2.1727781E+01;3;  1.6054323E+00;  0.0000000E+00; -7.4912943E-02;0; -9.6544344E-03;  3.9305160E+04;  0.0000000E+00;  1.8445586E-01;  4.0000000E+04;  0.0000000E+00;  3.9988406E+04; -3.6070705E-03;  0.0000000E+00; -6.0473634E-03;  7.3771350E+02;
  6.1146528E-01;  9.9999998E-03;  1.1001743E-01;6208; -7.4357367E-03;  0.0000000E+00; -7.2405272E-04;  1.0000172E+03;  1.0089607E-01;  1.4221820E+01;3;  1.5822573E+00;  0.0000000E+00; -8.1000052E-02;0; -9.3825804E-03;  3.9308566E+04;  0.0000000E+00;  1.6607320E-01;  4.0000000E+04;  0.0000000E+00;  3.9988273E+04; -3.4993771E-03;  0.0000000E+00; -5.8832034E-03;  7.6450562E+02;
  6.1142105E-01;  9.9999998E-03;  1.2001705E-01;6209; -7.3561058E-03;  0.0000000E+00; -7.8286504E-04;  1.0000628E+03;  1.0089671E-01;  5.2047909E+01;3;  1.5571553E+00;  0.0000000E+00; -8.6684667E-02;0; -9.0909414E-03;  3.9311324E+04;  0.0000000E+00;  1.3517129E-01;  4.0000000E+04;  0.0000000E+00;  3.9988012E+04; -3.3815245E-03;  0.0000000E+00; -5.7094167E-03;  7.7023383E+02;
  6.1137819E-01;  9.9999998E-03;  1.3001795E-01;6210; -7.2721294E-03;  0.0000000E+00; -8.3950988E-04;  1.0000960E+03;  1.0089687E-01;  7.9503922E+01;3;  1.5300697E+00;  0.0000000E+00; -9.1831535E-02;0; -8.7804738E-03;  3.9313406E+04;  0.0000000E+00;  9.5371783E-02;  4.0000000E+04;  0.0000000E+00;  3.9988309E+04; -3.2512783E-03;  0.0000000E+00; -5.5291960E-03;  7.4549060E+02;
  6.1134070E-01;  9.9999998E-03;  1.4002070E-01;6211; -7.1827425E-03;  0.0000000E+00; -8.9343672E-04;  1.0001180E+03;  1.0089706E-01;  9.7775009E+01;3;  1.5002930E+00;  0.0000000E+00; -9.6708223E-02;0; -8.4523102E-03;  3.9314176E+04;  0.0000000E+00;  5.1749013E-02;  4.0000000E+04;  0.0000000E+00;  3.9988766E+04; -3.1054863E-03;  0.0000000E+00; -5.3468239E-03;  6.8371899E+02;
  6.1131316E-01;  9.9999998E-03;  1.5002516E-01;6212; -7.0868400E-03;  0.0000000E+00; -9.4430841E-04;  1.0001238E+03;  1.0089783E-01;  1.0251562E+02;3;  1.4675090E+00;  0.0000000E+00; -1.0101169E-01;0; -8.1074256E-03;  3.9313582E+04;  0.0000000E+00;  9.7608594E-03;  4.0000000E+04;  0.0000000E+00;  3.9989137E+04; -2.9398075E-03;  0.0000000E+00; -5.1676179E-03;  5.8529156E+02;
  6.1129999E-01;  9.9999998E-03;  1.6003020E-01;6213; -6.9832364E-03;  0.0000000E+00; -9.9197950E-04;  1.0001167E+03;  1.0089833E-01;  9.6688622E+01;3;  1.4326569E+00;  0.0000000E+00; -1.0402130E-01;0; -7.7464487E-03;  3.9311523E+04;  0.0000000E+00; -2.5865199E-02;  4.0000000E+04;  0.0000000E+00;  3.9990301E+04; -2.7487006E-03;  0.0000000E+00; -4.9977484E-03;  4.6213986E+02;
  6.1130428E-01;  9.9999998E-03;  1.7003399E-01;6214; -6.8704197E-03;  0.0000000E+00; -1.0365441E-03;  1.0000823E+03;  1.0089871E-01;  6.8244980E+01;3;  1.3968768E+00;  0.0000000E+00; -1.0545557E-01;0; -7.3691732E-03;  3.9307539E+04;  0.0000000E+00; -5.1844493E-02;  4.0000000E+04;  0.0000000E+00;  3.9991273E+04; -2.5262944E-03;  0.0000000E+00; -4.8428788E-03;  3.3975494E+02;
  6.1132729E-01;  9.9999998E-03;  1.8003432E-01;6215; -6.7469385E-03;  0.0000000E+00; -1.0783719E-03;  1.0000208E+03;  1.0089894E-01;  1.7184700E+01;3;  1.3618885E+00;  0.0000000E+00; -1.0456755E-01;0; -6.9739409E-03;  3.9301363E+04;  0.0000000E+00; -6.7126580E-02;  4.0000000E+04;  0.0000000E+00;  3.9992230E+04; -2.2674215E-03;  0.0000000E+00; -4.7065197E-03;  2.4990236E+02;
  6.1136895E-01;  9.9999998E-03;  1.9002871E-01;6216; -6.6119782E-03;  0.0000000E+00; -1.1190185E-03;  9.9991937E+02;  1.0089947E-01; -6.6812927E+01;3;  1.3278667E+00;  0.0000000E+00; -1.0294943E-01;0; -6.5579503E-03;  3.9292875E+04;  0.0000000E+00; -7.2398826E-02;  4.0000000E+04;  0.0000000E+00;  3.9992590E+04; -1.9685291E-03;  0.0000000E+00; -4.5894212E-03;  2.0604837E+02;
  6.1142731E-01;  9.9999998E-03;  2.0001437E-01;6217; -6.4658453E-03;  0.0000000E+00; -1.1612087E-03;  9.9979126E+02;  1.0089987E-01; -1.7293338E+02;3;  1.2932894E+00;  0.0000000E+00; -1.0054013E-01;0; -6.1195465E-03;  3.9282582E+04;  0.0000000E+00; -6.9419868E-02;  4.0000000E+04;  0.0000000E+00;  3.9992621E+04; -1.6285633E-03;  0.0000000E+00; -4.4909832E-03;  1.6884756E+02;
  6.1150092E-01;  9.9999998E-03;  2.0999032E-01;6218; -6.3086892E-03;  0.0000000E+00; -1.2036820E-03;  9.9965576E+02;  1.0089972E-01; -2.8517712E+02;3;  1.2607853E+00;  0.0000000E+00; -9.8100208E-02;0; -5.6579146E-03;  3.9270059E+04;  0.0000000E+00; -6.1237600E-02;  4.0000000E+04;  0.0000000E+00;  3.9993961E+04; -1.2492854E-03;  0.0000000E+00; -4.4086291E-03;  9.5365875E+01;
  6.1159033E-01;  9.9999998E-03;  2.1996918E-01;6219; -6.1378633E-03;  0.0000000E+00; -1.2316614E-03;  9.9952179E+02;  1.0089993E-01; -3.9618634E+02;3;  1.2371426E+00;  0.0000000E+00; -9.0494700E-02;0; -5.1461724E-03;  3.9256586E+04;  0.0000000E+00; -5.3594198E-02;  4.0000000E+04;  0.0000000E+00;  3.9997430E+04; -8.3514658E-04;  0.0000000E+00; -4.3110256E-03;  4.8853171E+02;
  6.1169261E-01;  9.9999998E-03;  2.2997206E-01;6220; -5.9556747E-03;  0.0000000E+00; -1.2558848E-03;  9.9938159E+02;  1.0090013E-01; -5.1233118E+02;3;  1.2272855E+00;  0.0000000E+00; -7.5551689E-02;0; -4.5668446E-03;  3.9243117E+04;  0.0000000E+00; -5.8208242E-02;  4.0000000E+04;  0.0000000E+00;  3.9999695E+04; -3.9087847E-04;  0.0000000E+00; -4.1759661E-03;  7.6292041E+02;
  6.2148130E-01;  9.9999998E-03;  7.0031472E-02;6265; -7.7625779E-03;  0.0000000E+00; -5.0376623E-04;  9.9960150E+02;  1.0140128E-01; -3.3016351E+02;3;  1.7020704E+00;  0.0000000E+00; -4.4781428E-02;0; -1.0472565E-02;  3.8890660E+04;  0.0000000E+00;  1.0380780E-01;  4.0000000E+04;  0.0000000E+00;  3.9986293E+04; -3.5393483E-03;  0.0000000E+00; -6.9332165E-03;  5.2178766E+02;
  6.2146550E-01;  9.9999998E-03;  8.0032833E-02;6266; -7.6946579E-03;  0.0000000E+00; -5.7109108E-04;  9.9962903E+02;  1.0140149E-01; -3.0734933E+02;3;  1.6842308E+00;  0.0000000E+00; -5.0293695E-02;0; -1.0256205E-02;  3.8892406E+04;  0.0000000E+00;  1.0816759E-01;  4.0000000E+04;  0.0000000E+00;  3.9986109E+04; -3.4582829E-03;  0.0000000E+00; -6.7979214E-03;  5.5611761E+02;
  6.2144107E-01;  9.9999998E-03;  9.0032682E-02;6267; -7.6237810E-03;  0.0000000E+00; -6.3771865E-04;  9.9965717E+02;  1.0140219E-01; -2.8404135E+02;3;  1.6642674E+00;  0.0000000E+00; -5.5511381E-02;0; -1.0016499E-02;  3.8894273E+04;  0.0000000E+00;  1.0180178E-01;  4.0000000E+04;  0.0000000E+00;  3.9985773E+04; -3.3690485E-03;  0.0000000E+00; -6.6474504E-03;  6.0002875E+02;
  6.2140894E-01;  9.9999998E-03;  1.0003129E-01;6268; -7.5503667E-03;  0.0000000E+00; -7.0361100E-04;  9.9968164E+02;  1.0140278E-01; -2.6374564E+02;3;  1.6422251E+00;  0.0000000E+00; -6.0451664E-02;0; -9.7537776E-03;  3.8895828E+04;  0.0000000E+00;  8.4162064E-02;  4.0000000E+04;  0.0000000E+00;  3.9985285E+04; -3.2713155E-03;  0.0000000E+00; -6.4824624E-03;  6.4869128E+02;
  6.2137121E-01;  9.9999998E-03;  1.1002930E-01;6269; -7.4742930E-03;  0.0000000E+00; -7.6851289E-04;  9.9970312E+02;  1.0140337E-01; -2.4596835E+02;3;  1.6182108E+00;  0.0000000E+00; -6.5094493E-02;0; -9.4684176E-03;  3.8897191E+04;  0.0000000E+00;  5.6427743E-02;  4.0000000E+04;  0.0000000E+00;  3.9984941E+04; -3.1641610E-03;  0.0000000E+00; -6.3042566E-03;  6.9381866E+02;
  6.2133092E-01;  9.9999998E-03;  1.2002717E-01;6270; -7.3949229E-03;  0.0000000E+00; -8.3197077E-04;  9.9972473E+02;  1.0140344E-01; -2.2804294E+02;3;  1.5922744E+00;  0.0000000E+00; -6.9404230E-02;0; -9.1610774E-03;  3.8898281E+04;  0.0000000E+00;  2.1532150E-02;  4.0000000E+04;  0.0000000E+00;  3.9984695E+04; -3.0460437E-03;  0.0000000E+00; -6.1150333E-03;  7.2427014E+02;
  6.2129229E-01;  9.9999998E-03;  1.3002528E-01;6271; -7.3111397E-03;  0.0000000E+00; -8.9341035E-04;  9.9974146E+02;  1.0140459E-01; -2.1421617E+02;3;  1.5643381E+00;  0.0000000E+00; -7.3283754E-02;0; -8.8328384E-03;  3.8898809E+04;  0.0000000E+00; -1.6359605E-02;  4.0000000E+04;  0.0000000E+00;  3.9984566E+04; -2.9147340E-03;  0.0000000E+00; -5.9181042E-03;  7.2830975E+02;
  6.2125999E-01;  9.9999998E-03;  1.4002384E-01;6272; -7.2217309E-03;  0.0000000E+00; -9.5238362E-04;  9.9974890E+02;  1.0140541E-01; -2.0804350E+02;3;  1.5331062E+00;  0.0000000E+00; -7.7423990E-02;0; -8.4848600E-03;  3.8898348E+04;  0.0000000E+00; -5.2690413E-02;  4.0000000E+04;  0.0000000E+00;  3.9984805E+04; -2.7670658E-03;  0.0000000E+00; -5.7177944E-03;  6.9788055E+02;
  6.2123823E-01;  9.9999998E-03;  1.5002297E-01;6273; -7.1258950E-03;  0.0000000E+00; -1.0088349E-03;  9.9974799E+02;  1.0140602E-01; -2.0878423E+02;3;  1.4968081E+00;  0.0000000E+00; -8.1997737E-02;0; -8.1177326E-03;  3.8896754E+04;  0.0000000E+00; -8.3540067E-02;  4.0000000E+04;  0.0000000E+00;  3.9985309E+04; -2.5984633E-03;  0.0000000E+00; -5.5192690E-03;  6.3328467E+02;
  6.2123048E-01;  9.9999998E-03;  1.6002227E-01;6274; -7.0224241E-03;  0.0000000E+00; -1.0627228E-03;  9.9972919E+02;  1.0140680E-01; -2.2433934E+02;3;  1.4577028E+00;  0.0000000E+00; -8.5259907E-02;0; -7.7314740E-03;  3.8894043E+04;  0.0000000E+00; -1.0642075E-01;  4.0000000E+04;  0.0000000E+00;  3.9986188E+04; -2.4029191E-03;  0.0000000E+00; -5.3285551E-03;  5.4612897E+02;
  6.2123895E-01;  9.9999998E-03;  1.7002009E-01;6275; -6.9095278E-03;  0.0000000E+00; -1.1142466E-03;  9.9968774E+02;  1.0140770E-01; -2.5870874E+02;3;  1.4191519E+00;  0.0000000E+00; -8.5953958E-02;0; -7.3254621E-03;  3.8889492E+04;  0.0000000E+00; -1.2021520E-01;  4.0000000E+04;  0.0000000E+00;  3.9986754E+04; -2.1739353E-03;  0.0000000E+00; -5.1515265E-03;  4.5697150E+02;
  6.2126452E-01;  9.9999998E-03;  1.8001413E-01;6276; -6.7854398E-03;  0.0000000E+00; -1.1641332E-03;  9.9962219E+02;  1.0140860E-01; -3.1302820E+02;3;  1.3828984E+00;  0.0000000E+00; -8.4923752E-02;0; -6.8982560E-03;  3.8883074E+04;  0.0000000E+00; -1.2459624E-01;  4.0000000E+04;  0.0000000E+00;  3.9987723E+04; -1.9057101E-03;  0.0000000E+00; -4.9925460E-03;  3.8412772E+02;
  6.2130666E-01;  9.9999998E-03;  1.9000164E-01;6277; -6.6493643E-03;  0.0000000E+00; -1.2141356E-03;  9.9952277E+02;  1.0140942E-01; -3.9539621E+02;3;  1.3462623E+00;  0.0000000E+00; -8.2630970E-02;0; -6.4487513E-03;  3.8874152E+04;  0.0000000E+00; -1.1896344E-01;  4.0000000E+04;  0.0000000E+00;  3.9988148E+04; -1.5943714E-03;  0.0000000E+00; -4.8543802E-03;  3.2024817E+02;
  6.2136239E-01;  9.9999998E-03;  1.9997996E-01;6278; -6.5011606E-03;  0.0000000E+00; -1.2658673E-03;  9.9940833E+02;  1.0140961E-01; -4.9020834E+02;3;  1.3116645E+00;  0.0000000E+00; -7.9620048E-02;0; -5.9786933E-03;  3.8863738E+04;  0.0000000E+00; -1.0244635E-01;  4.0000000E+04;  0.0000000E+00;  3.9989145E+04; -1.2389403E-03;  0.0000000E+00; -4.7397530E-03;  2.0012102E+02;
  6.2143099E-01;  9.9999998E-03;  2.0995063E-01;6279; -6.3404641E-03;  0.0000000E+00; -1.3139492E-03;  9.9928827E+02;  1.0141014E-01; -5.8966235E+02;3;  1.2781925E+00;  0.0000000E+00; -7.6488115E-02;0; -5.4884739E-03;  3.8851477E+04;  0.0000000E+00; -7.5049177E-02;  4.0000000E+04;  0.0000000E+00;  3.9992223E+04; -8.4137823E-04;  0.0000000E+00; -4.6470957E-03;  2.7815891E+02;
  6.2151361E-01;  9.9999998E-03;  2.1993181E-01;6280; -6.1647161E-03;  0.0000000E+00; -1.3357598E-03;  9.9919067E+02;  1.0141039E-01; -6.7049957E+02;3;  1.2496288E+00;  0.0000000E+00; -7.1186513E-02;0; -4.9352869E-03;  3.8838305E+04;  0.0000000E+00; -3.9727878E-02;  4.0000000E+04;  0.0000000E+00;  3.9997734E+04; -4.0590504E-04;  0.0000000E+00; -4.5293821E-03;  9.7040912E+02;
  6.2161016E-01;  9.9999998E-03;  2.2994626E-01;6281; -5.9739035E-03;  0.0000000E+00; -1.3471778E-03;  9.9905609E+02;  1.0141005E-01; -7.8200256E+02;3;  1.2506804E+00;  0.0000000E+00; -4.6736315E-02;0; -4.2863176E-03;  3.8824910E+04;  0.0000000E+00; -4.8523853E-03;  4.0000000E+04;  0.0000000E+00;  4.0000895E+04;  6.2322244E-05;  0.0000000E+00; -4.3486399E-03;  1.3886935E+03;
  6.3146901E-01;  9.9999998E-03;  7.0029646E-02;6326; -7.7984040E-03;  0.0000000E+00; -5.3271919E-04;  9.9959253E+02;  1.0213829E-01; -3.3757071E+02;3;  1.7407036E+00;  0.0000000E+00; -3.4006495E-02;0; -1.0626722E-02;  3.8335363E+04;  0.0000000E+00;  1.5316533E-02;  4.0000000E+04;  0.0000000E+00;  3.9982164E+04; -3.2045094E-03;  0.0000000E+00; -7.4222130E-03;  4.1060352E+02;
  6.3143736E-01;  9.9999998E-03;  8.0032885E-02;6327; -7.7304039E-03;  0.0000000E+00; -6.0440076E-04;  9.9958209E+02;  1.0213865E-01; -3.4621243E+02;3;  1.7220052E+00;  0.0000000E+00; -3.7933853E-02;0; -1.0399759E-02;  3.8334477E+04;  0.0000000E+00; -1.7066037E-03;  4.0000000E+04;  0.0000000E+00;  3.9981945E+04; -3.1237733E-03;  0.0000000E+00; -7.2759851E-03;  4.5194992E+02;
  6.3139451E-01;  9.9999998E-03;  9.0035282E-02;6328; -7.6597752E-03;  0.0000000E+00; -6.7543233E-04;  9.9957764E+02;  1.0213952E-01; -3.4991602E+02;3;  1.7011198E+00;  0.0000000E+00; -4.1553233E-02;0; -1.0147013E-02;  3.8333168E+04;  0.0000000E+00; -2.7215367E-02;  4.0000000E+04;  0.0000000E+00;  3.9981207E+04; -3.0342094E-03;  0.0000000E+00; -7.1128029E-03;  5.1466437E+02;
  6.3134313E-01;  9.9999998E-03;  1.0003688E-01;6329; -7.5868769E-03;  0.0000000E+00; -7.4576581E-04;  9.9957562E+02;  1.0214072E-01; -3.5159500E+02;3;  1.6781621E+00;  0.0000000E+00; -4.4875167E-02;0; -9.8687941E-03;  3.8332520E+04;  0.0000000E+00; -5.9594281E-02;  4.0000000E+04;  0.0000000E+00;  3.9980770E+04; -2.9353753E-03;  0.0000000E+00; -6.9334190E-03;  5.9224359E+02;
  6.3128871E-01;  9.9999998E-03;  1.1003741E-01;6330; -7.5114309E-03;  0.0000000E+00; -8.1514800E-04;  9.9957147E+02;  1.0214174E-01; -3.5505170E+02;3;  1.6532956E+00;  0.0000000E+00; -4.7917541E-02;0; -9.5655518E-03;  3.8331637E+04;  0.0000000E+00; -9.5736079E-02;  4.0000000E+04;  0.0000000E+00;  3.9980090E+04; -2.8262516E-03;  0.0000000E+00; -6.7393002E-03;  6.7208728E+02;
  6.3123745E-01;  9.9999998E-03;  1.2003636E-01;6331; -7.4326159E-03;  0.0000000E+00; -8.8314456E-04;  9.9956689E+02;  1.0214268E-01; -3.5880466E+02;3;  1.6265804E+00;  0.0000000E+00; -5.0655261E-02;0; -9.2381537E-03;  3.8330594E+04;  0.0000000E+00; -1.3147870E-01;  4.0000000E+04;  0.0000000E+00;  3.9979812E+04; -2.7052136E-03;  0.0000000E+00; -6.5329396E-03;  7.3836652E+02;
  6.3119423E-01;  9.9999998E-03;  1.3003384E-01;6332; -7.3491731E-03;  0.0000000E+00; -9.4921654E-04;  9.9956500E+02;  1.0214432E-01; -3.6038486E+02;3;  1.5980223E+00;  0.0000000E+00; -5.3042255E-02;0; -8.8877119E-03;  3.8329398E+04;  0.0000000E+00; -1.6251342E-01;  4.0000000E+04;  0.0000000E+00;  3.9979469E+04; -2.5699702E-03;  0.0000000E+00; -6.3177422E-03;  7.7635529E+02;
  6.3116235E-01;  9.9999998E-03;  1.4003019E-01;6333; -7.2597042E-03;  0.0000000E+00; -1.0129812E-03;  9.9955450E+02;  1.0214541E-01; -3.6907599E+02;3;  1.5661551E+00;  0.0000000E+00; -5.5965126E-02;0; -8.5153133E-03;  3.8327449E+04;  0.0000000E+00; -1.8543793E-01;  4.0000000E+04;  0.0000000E+00;  3.9979461E+04; -2.4172950E-03;  0.0000000E+00; -6.0980185E-03;  7.7700867E+02;
  6.3114375E-01;  9.9999998E-03;  1.5002577E-01;6334; -7.1641076E-03;  0.0000000E+00; -1.0748728E-03;  9.9954248E+02;  1.0214674E-01; -3.7905099E+02;3;  1.5246394E+00;  0.0000000E+00; -6.1670732E-02;0; -8.1210583E-03;  3.8324500E+04;  0.0000000E+00; -1.9869816E-01;  4.0000000E+04;  0.0000000E+00;  3.9979980E+04; -2.2423100E-03;  0.0000000E+00; -5.8787479E-03;  7.4106512E+02;
  6.3113987E-01;  9.9999998E-03;  1.6002020E-01;6335; -7.0616934E-03;  0.0000000E+00; -1.1350099E-03;  9.9951215E+02;  1.0214814E-01; -4.0418610E+02;3;  1.4800367E+00;  0.0000000E+00; -6.4949907E-02;0; -7.7042975E-03;  3.8320633E+04;  0.0000000E+00; -2.0288956E-01;  4.0000000E+04;  0.0000000E+00;  3.9980461E+04; -2.0384439E-03;  0.0000000E+00; -5.6658536E-03;  6.8034912E+02;
  6.3115174E-01;  9.9999998E-03;  1.7001237E-01;6336; -6.9495160E-03;  0.0000000E+00; -1.1932768E-03;  9.9946283E+02;  1.0214947E-01; -4.4502444E+02;3;  1.4408479E+00;  0.0000000E+00; -6.5441921E-02;0; -7.2641121E-03;  3.8315250E+04;  0.0000000E+00; -1.9954659E-01;  4.0000000E+04;  0.0000000E+00;  3.9980809E+04; -1.7986457E-03;  0.0000000E+00; -5.4654665E-03;  6.1176941E+02;
  6.3117903E-01;  9.9999998E-03;  1.8000033E-01;6337; -6.8261181E-03;  0.0000000E+00; -1.2507145E-03;  9.9938367E+02;  1.0215106E-01; -5.1060284E+02;3;  1.3994957E+00;  0.0000000E+00; -6.4600453E-02;0; -6.7993812E-03;  3.8308105E+04;  0.0000000E+00; -1.8877220E-01;  4.0000000E+04;  0.0000000E+00;  3.9981527E+04; -1.5165887E-03;  0.0000000E+00; -5.2827923E-03;  5.4337952E+02;
  6.3121974E-01;  9.9999998E-03;  1.8998167E-01;6338; -6.6903247E-03;  0.0000000E+00; -1.3090852E-03;  9.9928491E+02;  1.0215215E-01; -5.9242767E+02;3;  1.3631145E+00;  0.0000000E+00; -6.2741518E-02;0; -6.3106185E-03;  3.8298621E+04;  0.0000000E+00; -1.6806145E-01;  4.0000000E+04;  0.0000000E+00;  3.9982191E+04; -1.1882551E-03;  0.0000000E+00; -5.1223636E-03;  4.4951865E+02;
  6.3127112E-01;  9.9999998E-03;  1.9995439E-01;6339; -6.5420847E-03;  0.0000000E+00; -1.3692382E-03;  9.9916046E+02;  1.0215345E-01; -6.9553589E+02;3;  1.3269578E+00;  0.0000000E+00; -6.0523149E-02;0; -5.8024093E-03;  3.8287027E+04;  0.0000000E+00; -1.3349448E-01;  4.0000000E+04;  0.0000000E+00;  3.9983605E+04; -8.1271678E-04;  0.0000000E+00; -4.9896925E-03;  2.4461296E+02;
  6.3133138E-01;  9.9999998E-03;  2.0992294E-01;6340; -6.3811573E-03;  0.0000000E+00; -1.4219393E-03;  9.9905487E+02;  1.0215411E-01; -7.8303961E+02;3;  1.2926257E+00;  0.0000000E+00; -5.7781674E-02;0; -5.2753836E-03;  3.8274254E+04;  0.0000000E+00; -8.2320943E-02;  4.0000000E+04;  0.0000000E+00;  3.9988395E+04; -3.9192438E-04;  0.0000000E+00; -4.8834593E-03;  4.4243997E+02;
  6.3140219E-01;  9.9999998E-03;  2.1990862E-01;6341; -6.2025799E-03;  0.0000000E+00; -1.4396243E-03;  9.9896533E+02;  1.0215443E-01; -8.5721033E+02;3;  1.2646381E+00;  0.0000000E+00; -5.1779196E-02;0; -4.6754694E-03;  3.8260418E+04;  0.0000000E+00; -1.6047325E-02;  4.0000000E+04;  0.0000000E+00;  3.9995648E+04;  7.0121721E-05;  0.0000000E+00; -4.7455910E-03;  1.3457863E+03;
  6.3148582E-01;  9.9999998E-03;  2.2993273E-01;6342; -6.0099764E-03;  0.0000000E+00; -1.4426939E-03;  9.9883350E+02;  1.0215427E-01; -9.6644177E+02;3;  1.2580569E+00;  0.0000000E+00; -3.3700112E-02;0; -3.9591184E-03;  3.8246121E+04;  0.0000000E+00;  5.7895340E-02;  4.0000000E+04;  0.0000000E+00;  3.9999961E+04;  5.6873955E-04;  0.0000000E+00; -4.5278580E-03;  1.8934607E+03;
  6.4152372E-01;  9.9999998E-03;  7.0012234E-02;6387; -7.8264810E-03;  0.0000000E+00; -5.6527206E-04;  9.9987573E+02;  1.0315657E-01; -1.0296005E+02;3;  1.7786311E+00;  0.0000000E+00; -2.2534490E-02;0; -1.0819724E-02;  3.7606094E+04;  0.0000000E+00; -9.1822125E-02;  4.0000000E+04;  0.0000000E+00;  3.9976379E+04; -2.8865873E-03;  0.0000000E+00; -7.9331370E-03;  3.4739789E+02;
  6.4149255E-01;  9.9999998E-03;  8.0013327E-02;6388; -7.7592279E-03;  0.0000000E+00; -6.4164959E-04;  9.9984930E+02;  1.0315756E-01; -1.2483598E+02;3;  1.7590885E+00;  0.0000000E+00; -2.4739504E-02;0; -1.0578208E-02;  3.7603137E+04;  0.0000000E+00; -1.3207553E-01;  4.0000000E+04;  0.0000000E+00;  3.9976094E+04; -2.8020348E-03;  0.0000000E+00; -7.7761733E-03;  4.2122968E+02;
  6.4145195E-01;  9.9999998E-03;  9.0014122E-02;6389; -7.6895277E-03;  0.0000000E+00; -7.1737124E-04;  9.9982153E+02;  1.0315905E-01; -1.4784767E+02;3;  1.7372055E+00;  0.0000000E+00; -2.6606400E-02;0; -1.0308345E-02;  3.7600207E+04;  0.0000000E+00; -1.7732970E-01;  4.0000000E+04;  0.0000000E+00;  3.9975344E+04; -2.7078644E-03;  0.0000000E+00; -7.6004807E-03;  5.2217346E+02;
  6.4140290E-01;  9.9999998E-03;  1.0001473E-01;6390; -7.6176599E-03;  0.0000000E+00; -7.9236779E-04;  9.9979535E+02;  1.0316058E-01; -1.6952606E+02;3;  1.7133826E+00;  0.0000000E+00; -2.8099990E-02;0; -1.0010368E-02;  3.7597406E+04;  0.0000000E+00; -2.2365108E-01;  4.0000000E+04;  0.0000000E+00;  3.9974449E+04; -2.6037341E-03;  0.0000000E+00; -7.4066338E-03;  6.3767413E+02;
  6.4134818E-01;  9.9999998E-03;  1.1001535E-01;6391; -7.5432127E-03;  0.0000000E+00; -8.6635799E-04;  9.9977454E+02;  1.0316254E-01; -1.8680952E+02;3;  1.6877258E+00;  0.0000000E+00; -2.9263312E-02;0; -9.6847545E-03;  3.7594953E+04;  0.0000000E+00; -2.6602319E-01;  4.0000000E+04;  0.0000000E+00;  3.9973906E+04; -2.4887633E-03;  0.0000000E+00; -7.1959915E-03;  7.5103381E+02;
  6.4129198E-01;  9.9999998E-03;  1.2001601E-01;6392; -7.4651525E-03;  0.0000000E+00; -9.3887834E-04;  9.9975818E+02;  1.0316449E-01; -2.0034001E+02;3;  1.6603932E+00;  0.0000000E+00; -3.0126192E-02;0; -9.3324147E-03;  3.7591980E+04;  0.0000000E+00; -2.9924893E-01;  4.0000000E+04;  0.0000000E+00;  3.9973148E+04; -2.3613791E-03;  0.0000000E+00; -6.9710361E-03;  8.4426935E+02;
  6.4123875E-01;  9.9999998E-03;  1.3001645E-01;6393; -7.3819952E-03;  0.0000000E+00; -1.0093641E-03;  9.9973456E+02;  1.0316669E-01; -2.1989502E+02;3;  1.6313772E+00;  0.0000000E+00; -3.0659864E-02;0; -8.9545576E-03;  3.7589340E+04;  0.0000000E+00; -3.1929553E-01;  4.0000000E+04;  0.0000000E+00;  3.9972617E+04; -2.2192167E-03;  0.0000000E+00; -6.7353412E-03;  9.0218439E+02;
  6.4119202E-01;  9.9999998E-03;  1.4001648E-01;6394; -7.2921533E-03;  0.0000000E+00; -1.0773558E-03;  9.9971381E+02;  1.0316910E-01; -2.3712909E+02;3;  1.5996515E+00;  0.0000000E+00; -3.1569451E-02;0; -8.5521620E-03;  3.7585867E+04;  0.0000000E+00; -3.2451022E-01;  4.0000000E+04;  0.0000000E+00;  3.9972656E+04; -2.0587449E-03;  0.0000000E+00; -6.4934166E-03;  9.1698273E+02;
  6.4115369E-01;  9.9999998E-03;  1.5001611E-01;6395; -7.1969363E-03;  0.0000000E+00; -1.1441517E-03;  9.9968567E+02;  1.0317156E-01; -2.6043707E+02;3;  1.5484409E+00;  0.0000000E+00; -3.9836437E-02;0; -8.1249876E-03;  3.7581844E+04;  0.0000000E+00; -3.1625664E-01;  4.0000000E+04;  0.0000000E+00;  3.9972758E+04; -1.8746844E-03;  0.0000000E+00; -6.2503032E-03;  8.9131165E+02;
  6.4112473E-01;  9.9999998E-03;  1.6001521E-01;6396; -7.0959562E-03;  0.0000000E+00; -1.2097871E-03;  9.9964154E+02;  1.0317384E-01; -2.9697925E+02;3;  1.4992931E+00;  0.0000000E+00; -4.3042772E-02;0; -7.6719746E-03;  3.7576430E+04;  0.0000000E+00; -2.9855350E-01;  4.0000000E+04;  0.0000000E+00;  3.9973047E+04; -1.6598922E-03;  0.0000000E+00; -6.0120826E-03;  8.3817169E+02;
  6.4110839E-01;  9.9999998E-03;  1.7001164E-01;6397; -6.9852909E-03;  0.0000000E+00; -1.2735896E-03;  9.9957550E+02;  1.0317647E-01; -3.5169376E+02;3;  1.4555811E+00;  0.0000000E+00; -4.3683190E-02;0; -7.1920292E-03;  3.7569516E+04;  0.0000000E+00; -2.7529415E-01;  4.0000000E+04;  0.0000000E+00;  3.9973336E+04; -1.4065214E-03;  0.0000000E+00; -5.7855076E-03;  7.7429224E+02;
  6.4111298E-01;  9.9999998E-03;  1.8000068E-01;6398; -6.8627344E-03;  0.0000000E+00; -1.3365825E-03;  9.9948633E+02;  1.0317879E-01; -4.2556821E+02;3;  1.4175923E+00;  0.0000000E+00; -4.3403301E-02;0; -6.6845212E-03;  3.7560938E+04;  0.0000000E+00; -2.4645364E-01;  4.0000000E+04;  0.0000000E+00;  3.9973734E+04; -1.1075739E-03;  0.0000000E+00; -5.5769472E-03;  7.0307416E+02;
  6.4113992E-01;  9.9999998E-03;  1.8998054E-01;6399; -6.7280666E-03;  0.0000000E+00; -1.4002981E-03;  9.9937115E+02;  1.0318115E-01; -5.2097290E+02;3;  1.3774747E+00;  0.0000000E+00; -4.1778538E-02;0; -6.1506573E-03;  3.7550051E+04;  0.0000000E+00; -2.0750393E-01;  4.0000000E+04;  0.0000000E+00;  3.9974227E+04; -7.5867964E-04;  0.0000000E+00; -5.3919777E-03;  5.8508936E+02;
  6.4118004E-01;  9.9999998E-03;  1.9995302E-01;6400; -6.5819030E-03;  0.0000000E+00; -1.4653421E-03;  9.9924115E+02;  1.0318273E-01; -6.2867358E+02;3;  1.3412751E+00;  0.0000000E+00; -3.9822482E-02;0; -5.5959490E-03;  3.7537629E+04;  0.0000000E+00; -1.5212692E-01;  4.0000000E+04;  0.0000000E+00;  3.9976445E+04; -3.5890038E-04;  0.0000000E+00; -5.2370485E-03;  3.1817395E+02;
  6.4122719E-01;  9.9999998E-03;  2.0992537E-01;6401; -6.4228387E-03;  0.0000000E+00; -1.5209705E-03;  9.9912494E+02;  1.0318427E-01; -7.2496716E+02;3;  1.3079828E+00;  0.0000000E+00; -3.8163699E-02;0; -5.0204019E-03;  3.7523367E+04;  0.0000000E+00; -7.7047206E-02;  4.0000000E+04;  0.0000000E+00;  3.9981223E+04;  9.0027184E-05;  0.0000000E+00; -5.1104291E-03;  4.2418051E+02;
  6.4128065E-01;  9.9999998E-03;  2.1991694E-01;6402; -6.2458050E-03;  0.0000000E+00; -1.5407624E-03;  9.9902228E+02;  1.0318518E-01; -8.1000177E+02;3;  1.2782099E+00;  0.0000000E+00; -3.4526024E-02;0; -4.3703876E-03;  3.7508273E+04;  0.0000000E+00;  1.4571057E-02;  4.0000000E+04;  0.0000000E+00;  3.9988723E+04;  5.8454683E-04;  0.0000000E+00; -4.9549346E-03;  1.3603346E+03;
  6.4134300E-01;  9.9999998E-03;  2.2994411E-01;6403; -6.0543884E-03;  0.0000000E+00; -1.5426350E-03;  9.9887067E+02;  1.0318498E-01; -9.3562787E+02;3;  1.2574977E+00;  0.0000000E+00; -2.5171338E-02;0; -3.5946681E-03;  3.7492863E+04;  0.0000000E+00;  1.0962071E-01;  4.0000000E+04;  0.0000000E+00;  3.9993906E+04;  1.1199758E-03;  0.0000000E+00; -4.7146440E-03;  1.9804587E+03;
  6.5152586E-01;  9.9999998E-03;  6.9998965E-02;6448; -7.8416904E-03;  0.0000000E+00; -6.0241664E-04;  1.0003777E+03;  1.0447907E-01;  3.1297879E+02;3;  1.8155096E+00;  0.0000000E+00; -1.0586105E-02;0; -1.1054558E-02;  3.6695090E+04;  0.0000000E+00; -1.9534181E-01;  4.0000000E+04;  0.0000000E+00;  3.9968680E+04; -2.5920032E-03;  0.0000000E+00; -8.4625548E-03;  3.8706525E+02;
  6.5148669E-01;  9.9999998E-03;  7.9999179E-02;6449; -7.7754450E-03;  0.0000000E+00; -6.8385719E-04;  1.0003323E+03;  1.0448135E-01;  2.7535025E+02;3;  1.7948692E+00;  0.0000000E+00; -1.1038745E-02;0; -1.0793977E-02;  3.6690543E+04;  0.0000000E+00; -2.5630575E-01;  4.0000000E+04;  0.0000000E+00;  3.9968023E+04; -2.5003625E-03;  0.0000000E+00; -8.2936147E-03;  5.0015866E+02;
  6.5144050E-01;  9.9999998E-03;  8.9999415E-02;6450; -7.7067898E-03;  0.0000000E+00; -7.6452707E-04;  1.0002977E+03;  1.0448404E-01;  2.4670908E+02;3;  1.7718741E+00;  0.0000000E+00; -1.1066585E-02;0; -1.0502498E-02;  3.6686020E+04;  0.0000000E+00; -3.1823096E-01;  4.0000000E+04;  0.0000000E+00;  3.9967430E+04; -2.3984106E-03;  0.0000000E+00; -8.1040869E-03;  6.3237177E+02;
  6.5138888E-01;  9.9999998E-03;  9.9999823E-02;6451; -7.6359347E-03;  0.0000000E+00; -8.4434258E-04;  1.0002618E+03;  1.0448698E-01;  2.1688275E+02;3;  1.7471644E+00;  0.0000000E+00; -1.0627930E-02;0; -1.0180415E-02;  3.6682125E+04;  0.0000000E+00; -3.7496325E-01;  4.0000000E+04;  0.0000000E+00;  3.9966336E+04; -2.2859853E-03;  0.0000000E+00; -7.8944294E-03;  7.7063361E+02;
  6.5133458E-01;  9.9999998E-03;  1.1000077E-01;6452; -7.5623146E-03;  0.0000000E+00; -9.2298526E-04;  1.0002363E+03;  1.0449031E-01;  1.9574754E+02;3;  1.7205606E+00;  0.0000000E+00; -9.7411545E-03;0; -9.8282862E-03;  3.6678445E+04;  0.0000000E+00; -4.1977349E-01;  4.0000000E+04;  0.0000000E+00;  3.9965508E+04; -2.1623187E-03;  0.0000000E+00; -7.6659671E-03;  8.9835168E+02;
  6.5128106E-01;  9.9999998E-03;  1.2000199E-01;6453; -7.4847918E-03;  0.0000000E+00; -9.9993451E-04;  1.0002093E+03;  1.0449348E-01;  1.7342720E+02;3;  1.6922863E+00;  0.0000000E+00; -8.4570618E-03;0; -9.4470419E-03;  3.6674555E+04;  0.0000000E+00; -4.4679311E-01;  4.0000000E+04;  0.0000000E+00;  3.9964590E+04; -2.0258757E-03;  0.0000000E+00; -7.4211662E-03;  9.9794623E+02;
  6.5123326E-01;  9.9999998E-03;  1.3000305E-01;6454; -7.4017183E-03;  0.0000000E+00; -1.0745632E-03;  1.0001879E+03;  1.0449734E-01;  1.5564992E+02;3;  1.6626160E+00;  0.0000000E+00; -6.7732469E-03;0; -9.0378877E-03;  3.6671160E+04;  0.0000000E+00; -4.5270550E-01;  4.0000000E+04;  0.0000000E+00;  3.9964070E+04; -1.8740523E-03;  0.0000000E+00; -7.1638357E-03;  1.0556400E+03;
  6.5119505E-01;  9.9999998E-03;  1.4000376E-01;6455; -7.3114848E-03;  0.0000000E+00; -1.1463100E-03;  1.0001641E+03;  1.0450092E-01;  1.3589738E+02;3;  1.6281990E+00;  0.0000000E+00; -5.2289153E-03;0; -8.6015258E-03;  3.6666676E+04;  0.0000000E+00; -4.3798250E-01;  4.0000000E+04;  0.0000000E+00;  3.9963895E+04; -1.7028364E-03;  0.0000000E+00; -6.8986891E-03;  1.0659261E+03;
  6.5116942E-01;  9.9999998E-03;  1.5000382E-01;6456; -7.2154226E-03;  0.0000000E+00; -1.2164947E-03;  1.0001318E+03;  1.0450477E-01;  1.0923148E+02;3;  1.5724415E+00;  0.0000000E+00; -1.4284439E-02;0; -8.1374459E-03;  3.6661621E+04;  0.0000000E+00; -4.0704772E-01;  4.0000000E+04;  0.0000000E+00;  3.9963805E+04; -1.5064785E-03;  0.0000000E+00; -6.6309669E-03;  1.0338634E+03;
  6.5115798E-01;  9.9999998E-03;  1.6000278E-01;6457; -7.1153454E-03;  0.0000000E+00; -1.2864444E-03;  1.0000806E+03;  1.0450928E-01;  6.6763542E+01;3;  1.5202421E+00;  0.0000000E+00; -1.7413087E-02;0; -7.6444931E-03;  3.6655145E+04;  0.0000000E+00; -3.6707404E-01;  4.0000000E+04;  0.0000000E+00;  3.9963742E+04; -1.2774159E-03;  0.0000000E+00; -6.3670771E-03;  9.7262402E+02;
  6.5116018E-01;  9.9999998E-03;  1.7000023E-01;6458; -7.0055360E-03;  0.0000000E+00; -1.3545593E-03;  1.0000101E+03;  1.0451332E-01;  8.2960615E+00;3;  1.4783517E+00;  0.0000000E+00; -1.8563941E-02;0; -7.1210298E-03;  3.6647262E+04;  0.0000000E+00; -3.2352901E-01;  4.0000000E+04;  0.0000000E+00;  3.9964102E+04; -1.0068780E-03;  0.0000000E+00; -6.1141518E-03;  8.9414148E+02;
  6.5117401E-01;  9.9999998E-03;  1.7999503E-01;6459; -6.8840832E-03;  0.0000000E+00; -1.4206313E-03;  9.9991119E+02;  1.0451718E-01; -7.3578163E+01;3;  1.4333754E+00;  0.0000000E+00; -1.7472232E-02;0; -6.5662898E-03;  3.6637406E+04;  0.0000000E+00; -2.7586237E-01;  4.0000000E+04;  0.0000000E+00;  3.9964656E+04; -6.8755407E-04;  0.0000000E+00; -5.8787358E-03;  7.9645447E+02;
  6.5119523E-01;  9.9999998E-03;  1.8998627E-01;6460; -6.7505580E-03;  0.0000000E+00; -1.4860051E-03;  9.9978711E+02;  1.0452078E-01; -1.7639008E+02;3;  1.3946750E+00;  0.0000000E+00; -1.7189814E-02;0; -5.9812069E-03;  3.6625512E+04;  0.0000000E+00; -2.1793793E-01;  4.0000000E+04;  0.0000000E+00;  3.9965523E+04; -3.1487877E-04;  0.0000000E+00; -5.6663281E-03;  6.4851123E+02;
  6.5121573E-01;  9.9999998E-03;  1.9997461E-01;6461; -6.6056154E-03;  0.0000000E+00; -1.5507482E-03;  9.9964203E+02;  1.0452393E-01; -2.9658420E+02;3;  1.3595334E+00;  0.0000000E+00; -1.6074829E-02;0; -5.3696306E-03;  3.6611227E+04;  0.0000000E+00; -1.4296308E-01;  4.0000000E+04;  0.0000000E+00;  3.9967430E+04;  1.1260092E-04;  0.0000000E+00; -5.4822317E-03;  3.7812900E+02;
  6.5122503E-01;  9.9999998E-03;  2.0996511E-01;6462; -6.4493036E-03;  0.0000000E+00; -1.6095232E-03;  9.9948785E+02;  1.0452615E-01; -4.2428430E+02;3;  1.3250223E+00;  0.0000000E+00; -1.5778387E-02;0; -4.7340351E-03;  3.6595809E+04;  0.0000000E+00; -4.9336564E-02;  4.0000000E+04;  0.0000000E+00;  3.9971012E+04;  5.9342041E-04;  0.0000000E+00; -5.3274557E-03;  1.9303119E+02;
  6.5124649E-01;  9.9999998E-03;  2.2998571E-01;6464; -6.0884967E-03;  0.0000000E+00; -1.6508648E-03;  9.9916925E+02;  1.0452833E-01; -6.8827686E+02;3;  1.2691880E+00;  0.0000000E+00; -6.7421747E-03;0; -3.2168250E-03;  3.6562082E+04;  0.0000000E+00;  1.3329728E-01;  4.0000000E+04;  0.0000000E+00;  3.9981617E+04;  1.7029677E-03;  0.0000000E+00; -4.9197925E-03;  1.5453531E+03;
  6.5122700E-01;  9.9999998E-03;  2.1996565E-01;6463; -6.2776166E-03;  0.0000000E+00; -1.6434918E-03;  9.9934161E+02;  1.0452796E-01; -5.4546606E+02;3;  1.2928486E+00;  0.0000000E+00; -1.2960989E-02;0; -4.0407022E-03;  3.6579047E+04;  0.0000000E+00;  5.2113228E-02;  4.0000000E+04;  0.0000000E+00;  3.9976809E+04;  1.1247301E-03;  0.0000000E+00; -5.1654321E-03;  9.0305963E+02;
  6.6155666E-01;  9.9999998E-03;  6.9980755E-02;6509; -7.8445822E-03;  0.0000000E+00; -6.4502150E-04;  1.0008072E+03;  1.0609844E-01;  6.6872180E+02;3;  1.8517355E+00;  0.0000000E+00;  1.8777869E-03;0; -1.1330065E-02;  3.5609523E+04;  0.0000000E+00; -2.7039692E-01;  4.0000000E+04;  0.0000000E+00;  3.9958820E+04; -2.3120821E-03;  0.0000000E+00; -9.0179835E-03;  4.7576801E+02;
  6.6152394E-01;  9.9999998E-03;  7.9979353E-02;6510; -7.7792117E-03;  0.0000000E+00; -7.3213468E-04;  1.0007651E+03;  1.0610209E-01;  6.3385864E+02;3;  1.8300794E+00;  0.0000000E+00;  3.2333559E-03;0; -1.1046810E-02;  3.5603898E+04;  0.0000000E+00; -3.4518972E-01;  4.0000000E+04;  0.0000000E+00;  3.9958145E+04; -2.2099260E-03;  0.0000000E+00; -8.8368841E-03;  6.1300983E+02;
  6.6148472E-01;  9.9999998E-03;  8.9978658E-02;6511; -7.7113030E-03;  0.0000000E+00; -8.1827777E-04;  1.0007309E+03;  1.0610646E-01;  6.0551373E+02;3;  1.8055836E+00;  0.0000000E+00;  5.0537046E-03;0; -1.0730034E-02;  3.5599090E+04;  0.0000000E+00; -4.1707402E-01;  4.0000000E+04;  0.0000000E+00;  3.9957379E+04; -2.0970216E-03;  0.0000000E+00; -8.6330120E-03;  7.6076837E+02;
  6.6143954E-01;  9.9999998E-03;  9.9978842E-02;6512; -7.6409485E-03;  0.0000000E+00; -9.0331805E-04;  1.0007048E+03;  1.0611106E-01;  5.8388470E+02;3;  1.7797157E+00;  0.0000000E+00;  7.5071561E-03;0; -1.0380218E-02;  3.5594773E+04;  0.0000000E+00; -4.7793940E-01;  4.0000000E+04;  0.0000000E+00;  3.9956324E+04; -1.9735792E-03;  0.0000000E+00; -8.4066391E-03;  9.0578235E+02;
  6.6139001E-01;  9.9999998E-03;  1.0998009E-01;6513; -7.5675570E-03;  0.0000000E+00; -9.8686258E-04;  1.0006890E+03;  1.0611635E-01;  5.7084802E+02;3;  1.7518767E+00;  0.0000000E+00;  1.0564430E-02;0; -9.9980608E-03;  3.5591066E+04;  0.0000000E+00; -5.1967782E-01;  4.0000000E+04;  0.0000000E+00;  3.9955293E+04; -1.8391353E-03;  0.0000000E+00; -8.1589250E-03;  1.0315175E+03;
  6.6133893E-01;  9.9999998E-03;  1.1998273E-01;6514; -7.4899304E-03;  0.0000000E+00; -1.0682904E-03;  1.0006771E+03;  1.0612210E-01;  5.6097180E+02;3;  1.7218530E+00;  0.0000000E+00;  1.4158742E-02;0; -9.5846104E-03;  3.5587379E+04;  0.0000000E+00; -5.3618574E-01;  4.0000000E+04;  0.0000000E+00;  3.9954516E+04; -1.6922361E-03;  0.0000000E+00; -7.8923739E-03;  1.1215109E+03;
  6.6128999E-01;  9.9999998E-03;  1.2998673E-01;6515; -7.4063228E-03;  0.0000000E+00; -1.1468440E-03;  1.0006727E+03;  1.0612793E-01;  5.5731757E+02;3;  1.6912605E+00;  0.0000000E+00;  1.8352596E-02;0; -9.1409776E-03;  3.5583266E+04;  0.0000000E+00; -5.2536446E-01;  4.0000000E+04;  0.0000000E+00;  3.9953602E+04; -1.5300831E-03;  0.0000000E+00; -7.6108943E-03;  1.1642551E+03;
  6.6124755E-01;  9.9999998E-03;  1.3999166E-01;6516; -7.3148729E-03;  0.0000000E+00; -1.2218010E-03;  1.0006663E+03;  1.0613424E-01;  5.5198438E+02;3;  1.6588557E+00;  0.0000000E+00;  2.3016082E-02;0; -8.6676432E-03;  3.5579070E+04;  0.0000000E+00; -4.9009758E-01;  4.0000000E+04;  0.0000000E+00;  3.9953438E+04; -1.3480615E-03;  0.0000000E+00; -7.3195817E-03;  1.1570607E+03;
  6.6121536E-01;  9.9999998E-03;  1.4999698E-01;6517; -7.2147879E-03;  0.0000000E+00; -1.2931159E-03;  1.0006426E+03;  1.0614111E-01;  5.3233063E+02;3;  1.6173635E+00;  0.0000000E+00;  2.3606323E-02;0; -8.1635602E-03;  3.5573680E+04;  0.0000000E+00; -4.3774173E-01;  4.0000000E+04;  0.0000000E+00;  3.9953141E+04; -1.1395190E-03;  0.0000000E+00; -7.0240414E-03;  1.1071226E+03;
  6.6119570E-01;  9.9999998E-03;  1.6000244E-01;6518; -7.1116285E-03;  0.0000000E+00; -1.3647776E-03;  1.0005977E+03;  1.0614753E-01;  4.9519586E+02;3;  1.5529422E+00;  0.0000000E+00;  1.2438625E-02;0; -7.6281722E-03;  3.5566941E+04;  0.0000000E+00; -3.7769291E-01;  4.0000000E+04;  0.0000000E+00;  3.9953043E+04; -8.9689239E-04;  0.0000000E+00; -6.7312797E-03;  1.0270374E+03;
  6.6118968E-01;  9.9999998E-03;  1.7000781E-01;6519; -7.0008649E-03;  0.0000000E+00; -1.4346682E-03;  1.0005313E+03;  1.0615346E-01;  4.4018509E+02;3;  1.5065047E+00;  0.0000000E+00;  1.1590485E-02;0; -7.0597450E-03;  3.5558145E+04;  0.0000000E+00; -3.1586459E-01;  4.0000000E+04;  0.0000000E+00;  3.9953500E+04; -6.1055977E-04;  0.0000000E+00; -6.4491853E-03;  9.2542151E+02;
  6.6119689E-01;  9.9999998E-03;  1.8001238E-01;6520; -6.8794577E-03;  0.0000000E+00; -1.5019519E-03;  1.0004352E+03;  1.0615946E-01;  3.6058240E+02;3;  1.4585391E+00;  0.0000000E+00;  1.0875292E-02;0; -6.4566005E-03;  3.5547383E+04;  0.0000000E+00; -2.5100714E-01;  4.0000000E+04;  0.0000000E+00;  3.9954062E+04; -2.7194005E-04;  0.0000000E+00; -6.1846604E-03;  7.9963141E+02;
  6.6121501E-01;  9.9999998E-03;  1.9001666E-01;6521; -6.7460285E-03;  0.0000000E+00; -1.5659963E-03;  1.0003043E+03;  1.0616504E-01;  2.5204225E+02;3;  1.4190342E+00;  0.0000000E+00;  1.2275336E-02;0; -5.8174124E-03;  3.5534316E+04;  0.0000000E+00; -1.7684807E-01;  4.0000000E+04;  0.0000000E+00;  3.9955008E+04;  1.2490567E-04;  0.0000000E+00; -5.9423181E-03;  6.3408716E+02;
  6.6123992E-01;  9.9999998E-03;  2.0002177E-01;6522; -6.6012512E-03;  0.0000000E+00; -1.6281067E-03;  1.0001375E+03;  1.0617018E-01;  1.1387332E+02;3;  1.3825076E+00;  0.0000000E+00;  1.1449272E-02;0; -5.1420340E-03;  3.5519277E+04;  0.0000000E+00; -8.7802015E-02;  4.0000000E+04;  0.0000000E+00;  3.9956402E+04;  5.8297603E-04;  0.0000000E+00; -5.7250098E-03;  4.0461694E+02;
  6.6126704E-01;  9.9999998E-03;  2.1002881E-01;6523; -6.4459280E-03;  0.0000000E+00; -1.6880515E-03;  9.9994598E+02;  1.0617392E-01; -4.4739475E+01;3;  1.3474230E+00;  0.0000000E+00;  1.2327669E-02;0; -4.4323178E-03;  3.5501973E+04;  0.0000000E+00;  1.3281400E-02;  4.0000000E+04;  0.0000000E+00;  3.9958527E+04;  1.1022009E-03;  0.0000000E+00; -5.5345190E-03;  9.3135048E+01;
  6.6129231E-01;  9.9999998E-03;  2.2003765E-01;6524; -6.2786392E-03;  0.0000000E+00; -1.7399655E-03;  9.9973987E+02;  1.0617704E-01; -2.1550008E+02;3;  1.3141379E+00;  0.0000000E+00;  1.4071763E-02;0; -3.6814534E-03;  3.5483469E+04;  0.0000000E+00;  1.0634483E-01;  4.0000000E+04;  0.0000000E+00;  3.9961383E+04;  1.6801738E-03;  0.0000000E+00; -5.3616273E-03;  3.3936893E+02;
  6.6131324E-01;  9.9999998E-03;  2.3004889E-01;6525; -6.0956595E-03;  0.0000000E+00; -1.7686571E-03;  9.9952594E+02;  1.0617924E-01; -3.9272964E+02;3;  1.2885640E+00;  0.0000000E+00;  1.4905316E-02;0; -2.8307454E-03;  3.5464445E+04;  0.0000000E+00;  1.4348526E-01;  4.0000000E+04;  0.0000000E+00;  3.9965836E+04;  2.3123582E-03;  0.0000000E+00; -5.1431037E-03;  8.6835059E+02;
  6.7153251E-01;  9.9999998E-03;  6.9969267E-02;6570; -7.8443429E-03;  0.0000000E+00; -6.9276197E-04;  1.0008558E+03;  1.0798641E-01;  7.0901697E+02;3;  1.8872875E+00;  0.0000000E+00;  1.4631524E-02;0; -1.1634454E-02;  3.4373434E+04;  0.0000000E+00; -2.9499587E-01;  4.0000000E+04;  0.0000000E+00;  3.9946941E+04; -2.0368160E-03;  0.0000000E+00; -9.5976386E-03;  5.2962128E+02;
  6.7151976E-01;  9.9999998E-03;  7.9965957E-02;6571; -7.7791400E-03;  0.0000000E+00; -7.8620121E-04;  1.0008309E+03;  1.0799275E-01;  6.8837561E+02;3;  1.8645409E+00;  0.0000000E+00;  1.7766675E-02;0; -1.1325930E-02;  3.4367828E+04;  0.0000000E+00; -3.7226617E-01;  4.0000000E+04;  0.0000000E+00;  3.9946328E+04; -1.9217249E-03;  0.0000000E+00; -9.4042057E-03;  6.7365417E+02;
  6.7150372E-01;  9.9999998E-03;  8.9963421E-02;6572; -7.7111060E-03;  0.0000000E+00; -8.7842927E-04;  1.0008154E+03;  1.0799950E-01;  6.7553644E+02;3;  1.8383899E+00;  0.0000000E+00;  2.1451619E-02;0; -1.0981492E-02;  3.4362922E+04;  0.0000000E+00; -4.4348869E-01;  4.0000000E+04;  0.0000000E+00;  3.9945355E+04; -1.7956164E-03;  0.0000000E+00; -9.1858758E-03;  8.2197479E+02;
  6.7148399E-01;  9.9999998E-03;  9.9962018E-02;6573; -7.6402468E-03;  0.0000000E+00; -9.6925366E-04;  1.0008124E+03;  1.0800669E-01;  6.7306738E+02;3;  1.8110594E+00;  0.0000000E+00;  2.5837833E-02;0; -1.0601900E-02;  3.4358930E+04;  0.0000000E+00; -4.9933133E-01;  4.0000000E+04;  0.0000000E+00;  3.9944160E+04; -1.6592658E-03;  0.0000000E+00; -8.9426339E-03;  9.6028589E+02;
  6.7146033E-01;  9.9999998E-03;  1.0996196E-01;6574; -7.5659100E-03;  0.0000000E+00; -1.0581749E-03;  1.0008289E+03;  1.0801467E-01;  6.8669666E+02;3;  1.7824583E+00;  0.0000000E+00;  3.1049011E-02;0; -1.0188102E-02;  3.4355723E+04;  0.0000000E+00; -5.3110868E-01;  4.0000000E+04;  0.0000000E+00;  3.9943398E+04; -1.5126605E-03;  0.0000000E+00; -8.6754411E-03;  1.0723372E+03;
  6.7143363E-01;  9.9999998E-03;  1.1996417E-01;6575; -7.4869813E-03;  0.0000000E+00; -1.1444340E-03;  1.0008524E+03;  1.0802379E-01;  7.0615289E+02;3;  1.7520354E+00;  0.0000000E+00;  3.7034355E-02;0; -9.7412523E-03;  3.4352613E+04;  0.0000000E+00; -5.3314459E-01;  4.0000000E+04;  0.0000000E+00;  3.9942367E+04; -1.3545925E-03;  0.0000000E+00; -8.3866594E-03;  1.1434517E+03;
  6.7140538E-01;  9.9999998E-03;  1.2996921E-01;6576; -7.4018091E-03;  0.0000000E+00; -1.2271038E-03;  1.0008743E+03;  1.0803253E-01;  7.2432520E+02;3;  1.7206191E+00;  0.0000000E+00;  4.3729689E-02;0; -9.2624780E-03;  3.4349320E+04;  0.0000000E+00; -5.0481081E-01;  4.0000000E+04;  0.0000000E+00;  3.9941645E+04; -1.1821680E-03;  0.0000000E+00; -8.0803102E-03;  1.1647643E+03;
  6.7137831E-01;  9.9999998E-03;  1.3997686E-01;6577; -7.3083336E-03;  0.0000000E+00; -1.3052750E-03;  1.0008969E+03;  1.0804205E-01;  7.4299133E+02;3;  1.6892009E+00;  0.0000000E+00;  5.1126525E-02;0; -8.7519055E-03;  3.4345445E+04;  0.0000000E+00; -4.5104796E-01;  4.0000000E+04;  0.0000000E+00;  3.9941094E+04; -9.9023536E-04;  0.0000000E+00; -7.7616698E-03;  1.1358151E+03;
  6.7135501E-01;  9.9999998E-03;  1.4998668E-01;6578; -7.2049322E-03;  0.0000000E+00; -1.3783312E-03;  1.0008972E+03;  1.0805163E-01;  7.4328760E+02;3;  1.6569027E+00;  0.0000000E+00;  5.8399539E-02;0; -8.2079396E-03;  3.4340715E+04;  0.0000000E+00; -3.8114944E-01;  4.0000000E+04;  0.0000000E+00;  3.9941316E+04; -7.7118125E-04;  0.0000000E+00; -7.4367579E-03;  1.0641870E+03;
  6.7133868E-01;  9.9999998E-03;  1.5999822E-01;6579; -7.0925634E-03;  0.0000000E+00; -1.4476903E-03;  1.0008812E+03;  1.0806111E-01;  7.3005341E+02;3;  1.6057409E+00;  0.0000000E+00;  5.3590920E-02;0; -7.6290308E-03;  3.4334004E+04;  0.0000000E+00; -3.0550846E-01;  4.0000000E+04;  0.0000000E+00;  3.9941434E+04; -5.1567191E-04;  0.0000000E+00; -7.1133589E-03;  9.5880402E+02;
  6.7133069E-01;  9.9999998E-03;  1.7001159E-01;6580; -6.9770738E-03;  0.0000000E+00; -1.5173148E-03;  1.0008241E+03;  1.0807063E-01;  6.8274609E+02;3;  1.5452592E+00;  0.0000000E+00;  4.5281887E-02;0; -7.0154718E-03;  3.4325168E+04;  0.0000000E+00; -2.2984244E-01;  4.0000000E+04;  0.0000000E+00;  3.9941895E+04; -2.1534908E-04;  0.0000000E+00; -6.8001226E-03;  8.2175037E+02;
  6.7133063E-01;  9.9999998E-03;  1.8002756E-01;6581; -6.8530180E-03;  0.0000000E+00; -1.5838464E-03;  1.0007380E+03;  1.0807890E-01;  6.1143951E+02;3;  1.4997731E+00;  0.0000000E+00;  4.5442700E-02;0; -6.3635041E-03;  3.4313801E+04;  0.0000000E+00; -1.5307872E-01;  4.0000000E+04;  0.0000000E+00;  3.9942777E+04;  1.4060545E-04;  0.0000000E+00; -6.5041096E-03;  6.5003613E+02;
  6.7133546E-01;  9.9999998E-03;  1.9004732E-01;6582; -6.7175762E-03;  0.0000000E+00; -1.6457803E-03;  1.0006083E+03;  1.0808765E-01;  5.0398575E+02;3;  1.4544015E+00;  0.0000000E+00;  4.5448009E-02;0; -5.6677740E-03;  3.4300098E+04;  0.0000000E+00; -7.0316844E-02;  4.0000000E+04;  0.0000000E+00;  3.9944051E+04;  5.6101737E-04;  0.0000000E+00; -6.2287915E-03;  4.4997049E+02;
  6.7134225E-01;  9.9999998E-03;  2.0007172E-01;6583; -6.5702698E-03;  0.0000000E+00; -1.7037697E-03;  1.0004392E+03;  1.0809516E-01;  3.6384155E+02;3;  1.4182305E+00;  0.0000000E+00;  4.8078999E-02;0; -4.9224878E-03;  3.4283809E+04;  0.0000000E+00;  2.0864425E-02;  4.0000000E+04;  0.0000000E+00;  3.9945184E+04;  1.0511857E-03;  0.0000000E+00; -5.9736734E-03;  2.7000629E+02;
  6.7134750E-01;  9.9999998E-03;  2.1009830E-01;6584; -6.4114286E-03;  0.0000000E+00; -1.7634768E-03;  1.0002200E+03;  1.0810217E-01;  1.8231583E+02;3;  1.3874547E+00;  0.0000000E+00;  4.9434293E-02;0; -4.1271835E-03;  3.4265379E+04;  0.0000000E+00;  1.1098325E-01;  4.0000000E+04;  0.0000000E+00;  3.9945680E+04;  1.6130678E-03;  0.0000000E+00; -5.7402514E-03;  2.2494507E+02;
  6.7134994E-01;  9.9999998E-03;  2.2011618E-01;6585; -6.2450538E-03;  0.0000000E+00; -1.8334334E-03;  9.9996869E+02;  1.0810784E-01; -2.5925192E+01;3;  1.3518505E+00;  0.0000000E+00;  4.5802649E-02;0; -3.3052512E-03;  3.4246004E+04;  0.0000000E+00;  1.6605617E-01;  4.0000000E+04;  0.0000000E+00;  3.9946172E+04;  2.2432613E-03;  0.0000000E+00; -5.5485126E-03;  2.1641132E+02;
  6.7134839E-01;  9.9999998E-03;  2.3011875E-01;6586; -6.0681226E-03;  0.0000000E+00; -1.8843330E-03;  9.9973120E+02;  1.0811196E-01; -2.2270975E+02;3;  1.3251421E+00;  0.0000000E+00;  5.1752649E-02;0; -2.4138712E-03;  3.4225793E+04;  0.0000000E+00;  1.1048565E-01;  4.0000000E+04;  0.0000000E+00;  3.9949195E+04;  2.9367777E-03;  0.0000000E+00; -5.3506489E-03;  3.2698871E+02;
  6.8149906E-01;  9.9999998E-03;  6.9967888E-02;6631; -7.8535844E-03;  0.0000000E+00; -7.4489333E-04;  1.0004442E+03;  1.1012562E-01;  3.6798959E+02;3;  1.9224097E+00;  0.0000000E+00;  2.7711567E-02;0; -1.1957456E-02;  3.3023430E+04;  0.0000000E+00; -2.5755128E-01;  4.0000000E+04;  0.0000000E+00;  3.9932934E+04; -1.7508321E-03;  0.0000000E+00; -1.0206624E-02;  5.0544351E+02;
  6.8150389E-01;  9.9999998E-03;  7.9964593E-02;6632; -7.7875284E-03;  0.0000000E+00; -8.4527367E-04;  1.0004456E+03;  1.1013468E-01;  3.6917474E+02;3;  1.8979640E+00;  0.0000000E+00;  3.2482773E-02;0; -1.1621320E-02;  3.3018148E+04;  0.0000000E+00; -3.2266006E-01;  4.0000000E+04;  0.0000000E+00;  3.9932449E+04; -1.6216546E-03;  0.0000000E+00; -9.9996654E-03;  6.3307544E+02;
  6.8150765E-01;  9.9999998E-03;  8.9962147E-02;6633; -7.7180746E-03;  0.0000000E+00; -9.4417087E-04;  1.0004659E+03;  1.1014516E-01;  3.8606314E+02;3;  1.8701683E+00;  0.0000000E+00;  3.7903085E-02;0; -1.1247080E-02;  3.3013961E+04;  0.0000000E+00; -3.7961394E-01;  4.0000000E+04;  0.0000000E+00;  3.9931926E+04; -1.4815317E-03;  0.0000000E+00; -9.7655477E-03;  7.6320935E+02;
  6.8150997E-01;  9.9999998E-03;  9.9960871E-02;6634; -7.6453420E-03;  0.0000000E+00; -1.0413271E-03;  1.0005071E+03;  1.1015628E-01;  4.2013626E+02;3;  1.8411937E+00;  0.0000000E+00;  4.4060607E-02;0; -1.0836117E-02;  3.3010207E+04;  0.0000000E+00; -4.1929519E-01;  4.0000000E+04;  0.0000000E+00;  3.9930840E+04; -1.3319274E-03;  0.0000000E+00; -9.5041897E-03;  8.8099707E+02;
  6.8151057E-01;  9.9999998E-03;  1.0996167E-01;6635; -7.5687785E-03;  0.0000000E+00; -1.1361275E-03;  1.0005662E+03;  1.1016810E-01;  4.6902377E+02;3;  1.8111002E+00;  0.0000000E+00;  5.1275577E-02;0; -1.0389788E-02;  3.3008035E+04;  0.0000000E+00; -4.3370607E-01;  4.0000000E+04;  0.0000000E+00;  3.9929906E+04; -1.1734234E-03;  0.0000000E+00; -9.2163645E-03;  9.7149927E+02;
  6.8150884E-01;  9.9999998E-03;  1.1996541E-01;6636; -7.4873739E-03;  0.0000000E+00; -1.2276587E-03;  1.0006351E+03;  1.1018109E-01;  5.2620734E+02;3;  1.7795928E+00;  0.0000000E+00;  5.9374083E-02;0; -9.9095628E-03;  3.3006090E+04;  0.0000000E+00; -4.1837978E-01;  4.0000000E+04;  0.0000000E+00;  3.9928945E+04; -1.0051832E-03;  0.0000000E+00; -8.9043798E-03;  1.0222758E+03;
  6.8150526E-01;  9.9999998E-03;  1.2997246E-01;6637; -7.3994515E-03;  0.0000000E+00; -1.3148198E-03;  1.0007073E+03;  1.1019445E-01;  5.8605750E+02;3;  1.7480468E+00;  0.0000000E+00;  6.8281949E-02;0; -9.3965819E-03;  3.3003816E+04;  0.0000000E+00; -3.7401646E-01;  4.0000000E+04;  0.0000000E+00;  3.9928176E+04; -8.2427566E-04;  0.0000000E+00; -8.5723065E-03;  1.0261307E+03;
  6.8150115E-01;  9.9999998E-03;  1.3998295E-01;6638; -7.3032207E-03;  0.0000000E+00; -1.3965166E-03;  1.0007666E+03;  1.1020771E-01;  6.3514252E+02;3;  1.7163010E+00;  0.0000000E+00;  7.8165285E-02;0; -8.8507058E-03;  3.3000828E+04;  0.0000000E+00; -3.0658758E-01;  4.0000000E+04;  0.0000000E+00;  3.9927582E+04; -6.2515453E-04;  0.0000000E+00; -8.2255509E-03;  9.8267560E+02;
  6.8149841E-01;  9.9999998E-03;  1.4999661E-01;6639; -7.1967049E-03;  0.0000000E+00; -1.4719102E-03;  1.0008093E+03;  1.1022161E-01;  6.7049957E+02;3;  1.6858486E+00;  0.0000000E+00;  8.8726155E-02;0; -8.2696797E-03;  3.2996199E+04;  0.0000000E+00; -2.2581290E-01;  4.0000000E+04;  0.0000000E+00;  3.9927922E+04; -3.9923281E-04;  0.0000000E+00; -7.8704469E-03;  8.9689160E+02;
  6.8149942E-01;  9.9999998E-03;  1.6001280E-01;6640; -7.0780558E-03;  0.0000000E+00; -1.5406660E-03;  1.0008175E+03;  1.1023516E-01;  6.7731415E+02;3;  1.6590018E+00;  0.0000000E+00;  9.8852701E-02;0; -7.6507791E-03;  3.2989707E+04;  0.0000000E+00; -1.4158483E-01;  4.0000000E+04;  0.0000000E+00;  3.9928137E+04; -1.3525746E-04;  0.0000000E+00; -7.5155217E-03;  7.7165717E+02;
  6.8150663E-01;  9.9999998E-03;  1.7003164E-01;6641; -6.9507612E-03;  0.0000000E+00; -1.6058529E-03;  1.0007857E+03;  1.1024840E-01;  6.5094458E+02;3;  1.6048976E+00;  0.0000000E+00;  9.1448024E-02;0; -6.9920099E-03;  3.2980047E+04;  0.0000000E+00; -5.9334613E-02;  4.0000000E+04;  0.0000000E+00;  3.9929566E+04;  1.7807943E-04;  0.0000000E+00; -7.1700895E-03;  6.0328937E+02;
  6.8152052E-01;  9.9999998E-03;  1.8005501E-01;6642; -6.8195276E-03;  0.0000000E+00; -1.6702526E-03;  1.0007112E+03;  1.1026175E-01;  5.8921790E+02;3;  1.5489128E+00;  0.0000000E+00;  8.5855342E-02;0; -6.2900037E-03;  3.2968051E+04;  0.0000000E+00;  2.0645732E-02;  4.0000000E+04;  0.0000000E+00;  3.9930871E+04;  5.5124529E-04;  0.0000000E+00; -6.8412488E-03;  3.9261398E+02;
  6.8154025E-01;  9.9999998E-03;  1.9008426E-01;6643; -6.6788867E-03;  0.0000000E+00; -1.7301564E-03;  1.0005898E+03;  1.1027423E-01;  4.8857877E+02;3;  1.5116297E+00;  0.0000000E+00;  8.8839069E-02;0; -5.5342857E-03;  3.2952812E+04;  0.0000000E+00;  1.0018974E-01;  4.0000000E+04;  0.0000000E+00;  3.9932363E+04;  9.9716370E-04;  0.0000000E+00; -6.5314495E-03;  1.9214890E+02;
  6.8156451E-01;  9.9999998E-03;  2.0012040E-01;6644; -6.5241628E-03;  0.0000000E+00; -1.7841557E-03;  1.0004149E+03;  1.1028607E-01;  3.4369397E+02;3;  1.4756413E+00;  0.0000000E+00;  9.2666306E-02;0; -4.7099898E-03;  3.2934879E+04;  0.0000000E+00;  1.7749034E-01;  4.0000000E+04;  0.0000000E+00;  3.9933781E+04;  1.5263199E-03;  0.0000000E+00; -6.2363097E-03;  2.1006047E+02;
  6.8159080E-01;  9.9999998E-03;  2.1016075E-01;6645; -6.3578677E-03;  0.0000000E+00; -1.8439747E-03;  1.0001746E+03;  1.1029655E-01;  1.4458850E+02;3;  1.4407479E+00;  0.0000000E+00;  9.2907295E-02;0; -3.8151981E-03;  3.2914805E+04;  0.0000000E+00;  2.3761885E-01;  4.0000000E+04;  0.0000000E+00;  3.9933152E+04;  2.1416477E-03;  0.0000000E+00; -5.9568458E-03;  2.8120041E+02;
  6.8161422E-01;  9.9999998E-03;  2.2018696E-01;6646; -6.1894637E-03;  0.0000000E+00; -1.9285271E-03;  9.9989142E+02;  1.1030682E-01; -8.9972763E+01;3;  1.4136480E+00;  0.0000000E+00;  9.6155062E-02;0; -2.8979387E-03;  3.2893496E+04;  0.0000000E+00;  2.3676527E-01;  4.0000000E+04;  0.0000000E+00;  3.9932043E+04;  2.8372998E-03;  0.0000000E+00; -5.7352385E-03;  2.7773114E+02;
  6.8162316E-01;  9.9999998E-03;  2.3018466E-01;6647; -6.0158330E-03;  0.0000000E+00; -2.0007642E-03;  9.9963843E+02;  1.1031567E-01; -2.9954709E+02;3;  1.3925787E+00;  0.0000000E+00;  9.9276632E-02;0; -1.9375437E-03;  3.2871535E+04;  0.0000000E+00;  7.9459459E-02;  4.0000000E+04;  0.0000000E+00;  3.9934426E+04;  3.6062810E-03;  0.0000000E+00; -5.5438248E-03;  2.0772488E+02;
  6.9197828E-01;  9.9999998E-03;  6.9998547E-02;6692; -7.8801913E-03;  0.0000000E+00; -8.0280472E-04;  9.9967108E+02;  1.1259435E-01; -2.7248611E+02;3;  1.9586122E+00;  0.0000000E+00;  4.1732147E-02;0; -1.2297668E-02;  3.1551914E+04;  0.0000000E+00; -1.5552704E-01;  4.0000000E+04;  0.0000000E+00;  3.9916781E+04; -1.4168655E-03;  0.0000000E+00; -1.0880803E-02;  4.0160718E+02;
  6.9202030E-01;  9.9999998E-03;  7.9999886E-02;6693; -7.8121279E-03;  0.0000000E+00; -9.1120211E-04;  9.9970746E+02;  1.1261085E-01; -2.4236351E+02;3;  1.9313511E+00;  0.0000000E+00;  4.8114493E-02;0; -1.1931358E-02;  3.1544938E+04;  0.0000000E+00; -1.9210865E-01;  4.0000000E+04;  0.0000000E+00;  3.9916551E+04; -1.2718881E-03;  0.0000000E+00; -1.0659469E-02;  4.8023810E+02;
  6.9205731E-01;  9.9999998E-03;  9.0001106E-02;6694; -7.7399425E-03;  0.0000000E+00; -1.0178592E-03;  9.9977527E+02;  1.1262813E-01; -1.8616757E+02;3;  1.9024284E+00;  0.0000000E+00;  5.5032931E-02;0; -1.1524797E-02;  3.1539727E+04;  0.0000000E+00; -2.1994439E-01;  4.0000000E+04;  0.0000000E+00;  3.9915801E+04; -1.1165115E-03;  0.0000000E+00; -1.0408286E-02;  5.7087115E+02;
  6.9208753E-01;  9.9999998E-03;  1.0000338E-01;6695; -7.6639485E-03;  0.0000000E+00; -1.1223833E-03;  9.9986908E+02;  1.1264545E-01; -1.0844138E+02;3;  1.8714923E+00;  0.0000000E+00;  6.2989227E-02;0; -1.1080144E-02;  3.1536551E+04;  0.0000000E+00; -2.3192002E-01;  4.0000000E+04;  0.0000000E+00;  3.9914996E+04; -9.5312658E-04;  0.0000000E+00; -1.0127017E-02;  6.5916901E+02;
  6.9211113E-01;  9.9999998E-03;  1.1000797E-01;6696; -7.5837569E-03;  0.0000000E+00; -1.2240487E-03;  9.9999268E+02;  1.1266281E-01; -6.0739021E+00;3;  1.8389692E+00;  0.0000000E+00;  7.1824253E-02;0; -1.0599543E-02;  3.1535043E+04;  0.0000000E+00; -2.2218373E-01;  4.0000000E+04;  0.0000000E+00;  3.9914312E+04; -7.8306341E-04;  0.0000000E+00; -9.8164799E-03;  7.3245148E+02;
  6.9212782E-01;  9.9999998E-03;  1.2001537E-01;6697; -7.4987826E-03;  0.0000000E+00; -1.3217494E-03;  1.0001154E+03;  1.1267979E-01;  9.5602234E+01;3;  1.8053164E+00;  0.0000000E+00;  8.1697978E-02;0; -1.0085210E-02;  3.1534490E+04;  0.0000000E+00; -1.8810549E-01;  4.0000000E+04;  0.0000000E+00;  3.9913238E+04; -6.0614489E-04;  0.0000000E+00; -9.4790654E-03;  7.7971692E+02;
  6.9213951E-01;  9.9999998E-03;  1.3002560E-01;6698; -7.4072736E-03;  0.0000000E+00; -1.4142330E-03;  1.0002451E+03;  1.1269707E-01;  2.0305598E+02;3;  1.7713122E+00;  0.0000000E+00;  9.2552513E-02;0; -9.5382892E-03;  3.1534150E+04;  0.0000000E+00; -1.3134880E-01;  4.0000000E+04;  0.0000000E+00;  3.9912801E+04; -4.1933122E-04;  0.0000000E+00; -9.1189584E-03;  7.9277820E+02;
  6.9214749E-01;  9.9999998E-03;  1.4003862E-01;6699; -7.3075006E-03;  0.0000000E+00; -1.5002426E-03;  1.0003592E+03;  1.1271384E-01;  2.9757184E+02;3;  1.7398171E+00;  0.0000000E+00;  1.0451583E-01;0; -8.9583201E-03;  3.1532701E+04;  0.0000000E+00; -5.7696454E-02;  4.0000000E+04;  0.0000000E+00;  3.9912750E+04; -2.1666917E-04;  0.0000000E+00; -8.7416507E-03;  7.6713885E+02;
  6.9215560E-01;  9.9999998E-03;  1.5005425E-01;6700; -7.1975831E-03;  0.0000000E+00; -1.5788191E-03;  1.0004438E+03;  1.1273111E-01;  3.6769330E+02;3;  1.7101587E+00;  0.0000000E+00;  1.1758118E-01;0; -8.3420901E-03;  3.1529584E+04;  0.0000000E+00;  2.4474282E-02;  4.0000000E+04;  0.0000000E+00;  3.9912867E+04;  1.1714057E-05;  0.0000000E+00; -8.3538042E-03;  7.0211090E+02;
  6.9216740E-01;  9.9999998E-03;  1.6007228E-01;6701; -7.0755132E-03;  0.0000000E+00; -1.6494306E-03;  1.0004836E+03;  1.1274821E-01;  4.0068002E+02;3;  1.6852118E+00;  0.0000000E+00;  1.3096145E-01;0; -7.6853866E-03;  3.1523646E+04;  0.0000000E+00;  1.0721084E-01;  4.0000000E+04;  0.0000000E+00;  3.9913844E+04;  2.7923382E-04;  0.0000000E+00; -7.9646204E-03;  5.9848676E+02;
  6.9218570E-01;  9.9999998E-03;  1.7009348E-01;6702; -6.9396370E-03;  0.0000000E+00; -1.7124190E-03;  1.0004814E+03;  1.1276562E-01;  3.9880353E+02;3;  1.6634281E+00;  0.0000000E+00;  1.4316107E-01;0; -6.9820215E-03;  3.1514141E+04;  0.0000000E+00;  1.8559492E-01;  4.0000000E+04;  0.0000000E+00;  3.9915102E+04;  6.0197030E-04;  0.0000000E+00; -7.5839916E-03;  4.6775916E+02;
  6.9221181E-01;  9.9999998E-03;  1.8011934E-01;6703; -6.7941146E-03;  0.0000000E+00; -1.7717734E-03;  1.0004281E+03;  1.1278380E-01;  3.5465665E+02;3;  1.6184118E+00;  0.0000000E+00;  1.3628025E-01;0; -6.2230714E-03;  3.1501127E+04;  0.0000000E+00;  2.5738057E-01;  4.0000000E+04;  0.0000000E+00;  3.9916926E+04;  9.9556020E-04;  0.0000000E+00; -7.2186315E-03;  3.7329648E+02;
  6.9224757E-01;  9.9999998E-03;  1.9015160E-01;6704; -6.6428352E-03;  0.0000000E+00; -1.8294122E-03;  1.0003111E+03;  1.1280183E-01;  2.5777048E+02;3;  1.5766395E+00;  0.0000000E+00;  1.3730898E-01;0; -5.3963019E-03;  3.1484396E+04;  0.0000000E+00;  3.2137677E-01;  4.0000000E+04;  0.0000000E+00;  3.9918824E+04;  1.4739737E-03;  0.0000000E+00; -6.8702754E-03;  4.3219870E+02;
  6.9229668E-01;  9.9999998E-03;  2.0019233E-01;6705; -6.4776735E-03;  0.0000000E+00; -1.8834226E-03;  1.0001363E+03;  1.1282057E-01;  1.1288570E+02;3;  1.5441166E+00;  0.0000000E+00;  1.3781205E-01;0; -4.4809515E-03;  3.1463885E+04;  0.0000000E+00;  3.7347111E-01;  4.0000000E+04;  0.0000000E+00;  3.9920008E+04;  2.0522913E-03;  0.0000000E+00; -6.5332428E-03;  5.5163251E+02;
  6.9236428E-01;  9.9999998E-03;  2.1023588E-01;6706; -6.2993895E-03;  0.0000000E+00; -1.9471896E-03;  9.9988495E+02;  1.1284044E-01; -9.5305946E+01;3;  1.5276467E+00;  0.0000000E+00;  1.4961381E-01;0; -3.4744004E-03;  3.1439844E+04;  0.0000000E+00;  3.9768162E-01;  4.0000000E+04;  0.0000000E+00;  3.9919023E+04;  2.7356553E-03;  0.0000000E+00; -6.2100557E-03;  5.1262451E+02;
  6.9245028E-01;  9.9999998E-03;  2.2025773E-01;6707; -6.1244932E-03;  0.0000000E+00; -2.0437660E-03;  9.9959412E+02;  1.1286342E-01; -3.3628677E+02;3;  1.4966282E+00;  0.0000000E+00;  1.4936464E-01;0; -2.4396481E-03;  3.1412779E+04;  0.0000000E+00;  3.5213974E-01;  4.0000000E+04;  0.0000000E+00;  3.9917031E+04;  3.5152596E-03;  0.0000000E+00; -5.9549077E-03;  3.4438452E+02;
  6.9254667E-01;  9.9999998E-03;  2.3024654E-01;6708; -5.9501315E-03;  0.0000000E+00; -2.1266534E-03;  9.9934564E+02;  1.1288901E-01; -5.4210815E+02;3;  1.4621559E+00;  0.0000000E+00;  1.4465491E-01;0; -1.3547014E-03;  3.1383693E+04;  0.0000000E+00;  1.5336776E-01;  4.0000000E+04;  0.0000000E+00;  3.9920066E+04;  4.3821516E-03;  0.0000000E+00; -5.7368530E-03;  3.9992850E+02;
  7.0415139E-01;  9.9999998E-03;  7.0134684E-02;6753; -7.9221856E-03;  0.0000000E+00; -8.7184214E-04;  9.9896118E+02;  1.1568473E-01; -8.6061755E+02;3;  1.9946352E+00;  0.0000000E+00;  5.8313198E-02;0; -1.2650924E-02;  2.9868453E+04;  0.0000000E+00;  1.5794164E-02;  4.0000000E+04;  0.0000000E+00;  3.9897359E+04; -9.4370142E-04;  0.0000000E+00; -1.1707222E-02;  3.2511679E+02;
  7.0417935E-01;  9.9999998E-03;  8.0144741E-02;6754; -7.8503201E-03;  0.0000000E+00; -9.8967028E-04;  9.9904688E+02;  1.1569861E-01; -7.8965662E+02;3;  1.9677172E+00;  0.0000000E+00;  6.6408083E-02;0; -1.2247356E-02;  2.9865865E+04;  0.0000000E+00;  2.4075311E-02;  4.0000000E+04;  0.0000000E+00;  3.9897285E+04; -7.8390521E-04;  0.0000000E+00; -1.1463450E-02;  3.4435953E+02;
  7.0419562E-01;  9.9999998E-03;  9.0154596E-02;6755; -7.7737872E-03;  0.0000000E+00; -1.1054794E-03;  9.9916748E+02;  1.1571141E-01; -6.8970886E+02;3;  1.9364616E+00;  0.0000000E+00;  7.4834146E-02;0; -1.1801970E-02;  2.9866227E+04;  0.0000000E+00;  3.8923882E-02;  4.0000000E+04;  0.0000000E+00;  3.9896793E+04; -6.1495235E-04;  0.0000000E+00; -1.1187018E-02;  4.0525046E+02;
  7.0419872E-01;  9.9999998E-03;  1.0016513E-01;6756; -7.6932334E-03;  0.0000000E+00; -1.2187767E-03;  9.9931995E+02;  1.1572305E-01; -5.6339142E+02;3;  1.9018449E+00;  0.0000000E+00;  8.3807260E-02;0; -1.1318229E-02;  2.9869400E+04;  0.0000000E+00;  6.3374110E-02;  4.0000000E+04;  0.0000000E+00;  3.9895945E+04; -4.4033537E-04;  0.0000000E+00; -1.0877893E-02;  4.9572238E+02;
  7.0419043E-01;  9.9999998E-03;  1.1017654E-01;6757; -7.6083345E-03;  0.0000000E+00; -1.3286436E-03;  9.9950232E+02;  1.1573505E-01; -4.1233398E+02;3;  1.8673344E+00;  0.0000000E+00;  9.4034575E-02;0; -1.0799415E-02;  2.9874607E+04;  0.0000000E+00;  9.9627934E-02;  4.0000000E+04;  0.0000000E+00;  3.9895348E+04; -2.6220144E-04;  0.0000000E+00; -1.0537214E-02;  5.9934857E+02;
  7.0417321E-01;  9.9999998E-03;  1.2018882E-01;6758; -7.5185671E-03;  0.0000000E+00; -1.4338233E-03;  9.9969421E+02;  1.1574621E-01; -2.5332616E+02;3;  1.8322291E+00;  0.0000000E+00;  1.0564778E-01;0; -1.0248177E-02;  2.9880857E+04;  0.0000000E+00;  1.4809561E-01;  4.0000000E+04;  0.0000000E+00;  3.9894859E+04; -8.0602636E-05;  0.0000000E+00; -1.0167575E-02;  6.9759387E+02;
  7.0415211E-01;  9.9999998E-03;  1.3020173E-01;6759; -7.4224728E-03;  0.0000000E+00; -1.5329942E-03;  9.9987970E+02;  1.1575768E-01; -9.9651497E+01;3;  1.7974627E+00;  0.0000000E+00;  1.1760766E-01;0; -9.6656522E-03;  2.9886805E+04;  0.0000000E+00;  2.0709231E-01;  4.0000000E+04;  0.0000000E+00;  3.9894449E+04;  1.0764583E-04;  0.0000000E+00; -9.7732982E-03;  7.7289746E+02;
  7.0413327E-01;  9.9999998E-03;  1.4021516E-01;6760; -7.3185051E-03;  0.0000000E+00; -1.6248020E-03;  1.0000417E+03;  1.1577031E-01;  3.4566921E+01;3;  1.7631097E+00;  0.0000000E+00;  1.3112031E-01;0; -9.0503013E-03;  2.9890947E+04;  0.0000000E+00;  2.7303913E-01;  4.0000000E+04;  0.0000000E+00;  3.9894645E+04;  3.0966586E-04;  0.0000000E+00; -9.3599670E-03;  8.1208429E+02;
  7.0412219E-01;  9.9999998E-03;  1.5022947E-01;6761; -7.2048376E-03;  0.0000000E+00; -1.7082553E-03;  1.0001713E+03;  1.1578479E-01;  1.4192191E+02;3;  1.7319559E+00;  0.0000000E+00;  1.4570469E-01;0; -8.3969347E-03;  2.9891617E+04;  0.0000000E+00;  3.4126592E-01;  4.0000000E+04;  0.0000000E+00;  3.9895031E+04;  5.3720607E-04;  0.0000000E+00; -8.9341411E-03;  8.1043066E+02;
  7.0412439E-01;  9.9999998E-03;  1.6024512E-01;6762; -7.0791245E-03;  0.0000000E+00; -1.7828442E-03;  1.0002443E+03;  1.1580241E-01;  2.0236464E+02;3;  1.7080427E+00;  0.0000000E+00;  1.6112697E-01;0; -7.6979296E-03;  2.9887949E+04;  0.0000000E+00;  4.0769210E-01;  4.0000000E+04;  0.0000000E+00;  3.9896191E+04;  8.0734049E-04;  0.0000000E+00; -8.5052699E-03;  7.7922516E+02;
  7.0414275E-01;  9.9999998E-03;  1.7026380E-01;6763; -6.9388486E-03;  0.0000000E+00; -1.8485647E-03;  1.0002631E+03;  1.1582272E-01;  2.1796913E+02;3;  1.6904669E+00;  0.0000000E+00;  1.7762247E-01;0; -6.9418978E-03;  2.9879051E+04;  0.0000000E+00;  4.6881634E-01;  4.0000000E+04;  0.0000000E+00;  3.9897535E+04;  1.1415127E-03;  0.0000000E+00; -8.0834106E-03;  7.4867395E+02;
  7.0418000E-01;  9.9999998E-03;  1.8028747E-01;6764; -6.7820381E-03;  0.0000000E+00; -1.9063578E-03;  1.0002051E+03;  1.1584578E-01;  1.6987172E+02;3;  1.6792388E+00;  0.0000000E+00;  1.9147825E-01;0; -6.1121127E-03;  2.9864891E+04;  0.0000000E+00;  5.2183759E-01;  4.0000000E+04;  0.0000000E+00;  3.9899113E+04;  1.5630358E-03;  0.0000000E+00; -7.6751485E-03;  7.5238556E+02;
  7.0424080E-01;  9.9999998E-03;  1.9031651E-01;6765; -6.6094007E-03;  0.0000000E+00; -1.9596221E-03;  1.0000818E+03;  1.1587207E-01;  6.7751167E+01;3;  1.6583788E+00;  0.0000000E+00;  1.9881542E-01;0; -5.1881205E-03;  2.9845182E+04;  0.0000000E+00;  5.6556177E-01;  4.0000000E+04;  0.0000000E+00;  3.9899902E+04;  2.0925114E-03;  0.0000000E+00; -7.2806319E-03;  7.8583234E+02;
  7.0432431E-01;  9.9999998E-03;  2.0034845E-01;6766; -6.4243604E-03;  0.0000000E+00; -2.0175818E-03;  9.9989600E+02;  1.1590143E-01; -8.6170395E+01;3;  1.6286280E+00;  0.0000000E+00;  1.9785587E-01;0; -4.1538328E-03;  2.9820975E+04;  0.0000000E+00;  5.9776145E-01;  4.0000000E+04;  0.0000000E+00;  3.9899500E+04;  2.7428335E-03;  0.0000000E+00; -6.8966663E-03;  7.9511145E+02;
  7.0444167E-01;  9.9999998E-03;  2.1036707E-01;6767; -6.2345974E-03;  0.0000000E+00; -2.0982323E-03;  9.9963123E+02;  1.1593702E-01; -3.0552219E+02;3;  1.6105597E+00;  0.0000000E+00;  2.0247610E-01;0; -3.0228815E-03;  2.9791639E+04;  0.0000000E+00;  6.0797977E-01;  4.0000000E+04;  0.0000000E+00;  3.9897160E+04;  3.5163129E-03;  0.0000000E+00; -6.5391944E-03;  7.9809503E+02;
  7.0458925E-01;  9.9999998E-03;  2.2034912E-01;6768; -6.0534971E-03;  0.0000000E+00; -2.2040724E-03;  9.9938434E+02;  1.1598000E-01; -5.1005960E+02;3;  1.5763786E+00;  0.0000000E+00;  1.9507731E-01;0; -1.8493785E-03;  2.9757637E+04;  0.0000000E+00;  5.6663918E-01;  4.0000000E+04;  0.0000000E+00;  3.9896781E+04;  4.4032997E-03;  0.0000000E+00; -6.2526781E-03;  6.5128943E+02;
  7.0474708E-01;  9.9999998E-03;  2.3031721E-01;6769; -5.8528851E-03;  0.0000000E+00; -2.2652408E-03;  9.9920819E+02;  1.1602523E-01; -6.5598138E+02;3;  1.5681642E+00;  0.0000000E+00;  2.0731743E-01;0; -5.2261446E-04;  2.9722674E+04;  0.0000000E+00;  4.1261071E-01;  4.0000000E+04;  0.0000000E+00;  3.9901754E+04;  5.4011745E-03;  0.0000000E+00; -5.9237890E-03;  4.8957401E+02;
  7.1714175E-01;  9.9999998E-03;  7.0232600E-02;6814; -7.9636546E-03;  0.0000000E+00; -9.4303500E-04;  9.9902020E+02;  1.1930912E-01; -8.1173004E+02;3;  2.0356522E+00;  0.0000000E+00;  7.7598803E-02;0; -1.2933876E-02;  2.8110236E+04;  0.0000000E+00;  2.0775190E-01;  4.0000000E+04;  0.0000000E+00;  3.9876113E+04; -2.9106968E-04;  0.0000000E+00; -1.2642806E-02;  5.4350647E+02;
  7.1712726E-01;  9.9999998E-03;  8.0253720E-02;6815; -7.8872023E-03;  0.0000000E+00; -1.0708122E-03;  9.9912311E+02;  1.1931010E-01; -7.2649792E+02;3;  2.0041800E+00;  0.0000000E+00;  8.7284550E-02;0; -1.2492587E-02;  2.8114406E+04;  0.0000000E+00;  2.6407200E-01;  4.0000000E+04;  0.0000000E+00;  3.9876215E+04; -1.2176087E-04;  0.0000000E+00; -1.2370826E-02;  6.3114795E+02;
  7.1709818E-01;  9.9999998E-03;  9.0272672E-02;6816; -7.8060851E-03;  0.0000000E+00; -1.1964997E-03;  9.9926050E+02;  1.1931022E-01; -6.1267401E+02;3;  1.9692609E+00;  0.0000000E+00;  9.5841281E-02;0; -1.2008820E-02;  2.8121742E+04;  0.0000000E+00;  3.2190576E-01;  4.0000000E+04;  0.0000000E+00;  3.9875965E+04;  5.5368524E-05;  0.0000000E+00; -1.2064188E-02;  7.4719531E+02;
  7.1705389E-01;  9.9999998E-03;  1.0029008E-01;6817; -7.7205012E-03;  0.0000000E+00; -1.3194517E-03;  9.9943713E+02;  1.1931024E-01; -4.6630777E+02;3;  1.9350255E+00;  0.0000000E+00;  1.0573266E-01;0; -1.1487206E-02;  2.8131846E+04;  0.0000000E+00;  3.7884325E-01;  4.0000000E+04;  0.0000000E+00;  3.9875316E+04;  2.3621570E-04;  0.0000000E+00; -1.1723422E-02;  8.7529187E+02;
  7.1699578E-01;  9.9999998E-03;  1.1030638E-01;6818; -7.6308679E-03;  0.0000000E+00; -1.4386775E-03;  9.9964258E+02;  1.1930890E-01; -2.9613974E+02;3;  1.8977140E+00;  0.0000000E+00;  1.1729441E-01;0; -1.0931815E-02;  2.8144010E+04;  0.0000000E+00;  4.3274176E-01;  4.0000000E+04;  0.0000000E+00;  3.9874551E+04;  4.1803881E-04;  0.0000000E+00; -1.1349854E-02;  9.9983142E+02;
  7.1692640E-01;  9.9999998E-03;  1.2032185E-01;6819; -7.5369063E-03;  0.0000000E+00; -1.5528678E-03;  9.9985699E+02;  1.1930835E-01; -1.1846577E+02;3;  1.8582145E+00;  0.0000000E+00;  1.2943800E-01;0; -1.0345468E-02;  2.8157088E+04;  0.0000000E+00;  4.8221302E-01;  4.0000000E+04;  0.0000000E+00;  3.9874195E+04;  6.0061528E-04;  0.0000000E+00; -1.0946084E-02;  1.1045593E+03;
  7.1685213E-01;  9.9999998E-03;  1.3033649E-01;6820; -7.4369065E-03;  0.0000000E+00; -1.6606315E-03;  1.0000590E+03;  1.1930798E-01;  4.8887501E+01;3;  1.8236710E+00;  0.0000000E+00;  1.4188996E-01;0; -9.7282482E-03;  2.8169262E+04;  0.0000000E+00;  5.2706134E-01;  4.0000000E+04;  0.0000000E+00;  3.9874207E+04;  7.8789447E-04;  0.0000000E+00; -1.0516142E-02;  1.1744758E+03;
  7.1678185E-01;  9.9999998E-03;  1.4035076E-01;6821; -7.3292470E-03;  0.0000000E+00; -1.7605304E-03;  1.0002401E+03;  1.1931024E-01;  1.9890794E+02;3;  1.7880683E+00;  0.0000000E+00;  1.5588634E-01;0; -9.0763886E-03;  2.8179033E+04;  0.0000000E+00;  5.6811464E-01;  4.0000000E+04;  0.0000000E+00;  3.9874414E+04;  9.8883722E-04;  0.0000000E+00; -1.0065226E-02;  1.1992118E+03;
  7.1672499E-01;  9.9999998E-03;  1.5036526E-01;6822; -7.2123590E-03;  0.0000000E+00; -1.8515738E-03;  1.0003796E+03;  1.1931631E-01;  3.1446021E+02;3;  1.7555394E+00;  0.0000000E+00;  1.7016649E-01;0; -8.3809737E-03;  2.8184496E+04;  0.0000000E+00;  6.0666877E-01;  4.0000000E+04;  0.0000000E+00;  3.9875230E+04;  1.2183118E-03;  0.0000000E+00; -9.5992852E-03;  1.1777327E+03;
  7.1668905E-01;  9.9999998E-03;  1.6038229E-01;6823; -7.0840018E-03;  0.0000000E+00; -1.9331904E-03;  1.0004561E+03;  1.1932792E-01;  3.7786581E+02;3;  1.7277396E+00;  0.0000000E+00;  1.8604091E-01;0; -7.6286946E-03;  2.8184170E+04;  0.0000000E+00;  6.4370137E-01;  4.0000000E+04;  0.0000000E+00;  3.9876309E+04;  1.4983251E-03;  0.0000000E+00; -9.1270199E-03;  1.1265437E+03;
  7.1667910E-01;  9.9999998E-03;  1.7040442E-01;6824; -6.9407648E-03;  0.0000000E+00; -2.0052320E-03;  1.0004622E+03;  1.1934406E-01;  3.8290271E+02;3;  1.7134563E+00;  0.0000000E+00;  2.0263122E-01;0; -6.8019219E-03;  2.8177410E+04;  0.0000000E+00;  6.7801255E-01;  4.0000000E+04;  0.0000000E+00;  3.9877801E+04;  1.8565028E-03;  0.0000000E+00; -8.6584250E-03;  1.0758083E+03;
  7.1670061E-01;  9.9999998E-03;  1.8043123E-01;6825; -6.7796931E-03;  0.0000000E+00; -2.0680584E-03;  1.0003928E+03;  1.1936616E-01;  3.2542288E+02;3;  1.7053028E+00;  0.0000000E+00;  2.2088887E-01;0; -5.8788303E-03;  2.8163934E+04;  0.0000000E+00;  7.0725161E-01;  4.0000000E+04;  0.0000000E+00;  3.9879105E+04;  2.3218843E-03;  0.0000000E+00; -8.2007144E-03;  1.0470715E+03;
  7.1675831E-01;  9.9999998E-03;  1.9045976E-01;6826; -6.5980046E-03;  0.0000000E+00; -2.1236395E-03;  1.0002500E+03;  1.1939484E-01;  2.0710524E+02;3;  1.7006140E+00;  0.0000000E+00;  2.3987320E-01;0; -4.8355721E-03;  2.8143990E+04;  0.0000000E+00;  7.2956967E-01;  4.0000000E+04;  0.0000000E+00;  3.9879109E+04;  2.9189854E-03;  0.0000000E+00; -7.7545573E-03;  1.0284133E+03;
  7.1685231E-01;  9.9999998E-03;  2.0047982E-01;6827; -6.3937865E-03;  0.0000000E+00; -2.1800005E-03;  1.0000313E+03;  1.1942969E-01;  2.5974571E+01;3;  1.7051278E+00;  0.0000000E+00;  2.5785428E-01;0; -3.6530015E-03;  2.8118598E+04;  0.0000000E+00;  7.4136710E-01;  4.0000000E+04;  0.0000000E+00;  3.9877090E+04;  3.6625797E-03;  0.0000000E+00; -7.3155812E-03;  1.0228817E+03;
  7.1696883E-01;  9.9999998E-03;  2.1047209E-01;6828; -6.1817751E-03;  0.0000000E+00; -2.2566752E-03;  9.9976892E+02;  1.1946791E-01; -1.9145135E+02;3;  1.6878717E+00;  0.0000000E+00;  2.5502038E-01;0; -2.3449906E-03;  2.8089924E+04;  0.0000000E+00;  7.3034883E-01;  4.0000000E+04;  0.0000000E+00;  3.9874133E+04;  4.5503783E-03;  0.0000000E+00; -6.8953689E-03;  1.0634305E+03;
  7.1709418E-01;  9.9999998E-03;  2.2042815E-01;6829; -5.9731533E-03;  0.0000000E+00; -2.3443070E-03;  9.9955121E+02;  1.1950751E-01; -3.7179193E+02;3;  1.6696813E+00;  0.0000000E+00;  2.5478402E-01;0; -9.3956012E-04;  2.8059975E+04;  0.0000000E+00;  6.6591066E-01;  4.0000000E+04;  0.0000000E+00;  3.9875395E+04;  5.5695870E-03;  0.0000000E+00; -6.5091471E-03;  7.9169604E+02;
  7.1723312E-01;  9.9999998E-03;  2.3039214E-01;6830; -5.7423571E-03;  0.0000000E+00; -2.3988548E-03;  9.9938434E+02;  1.1954949E-01; -5.1005960E+02;3;  1.6692104E+00;  0.0000000E+00;  2.6962239E-01;0;  6.4742239E-04;  2.8029562E+04;  0.0000000E+00;  4.8959458E-01;  4.0000000E+04;  0.0000000E+00;  3.9879988E+04;  6.7151235E-03;  0.0000000E+00; -6.0677011E-03;  3.3506702E+02;
  7.2918570E-01;  9.9999998E-03;  7.0226081E-02;6875; -7.9969550E-03;  0.0000000E+00; -1.0052272E-03;  9.9935022E+02;  1.2296490E-01; -5.3835510E+02;3;  2.0687482E+00;  0.0000000E+00;  9.7853094E-02;0; -1.3089354E-02;  2.6501867E+04;  0.0000000E+00;  3.3887938E-01;  4.0000000E+04;  0.0000000E+00;  3.9855844E+04;  4.7000570E-04;  0.0000000E+00; -1.3559360E-02;  8.1792297E+02;
  7.2917628E-01;  9.9999998E-03;  8.0253877E-02;6876; -7.9162251E-03;  0.0000000E+00; -1.1420734E-03;  9.9943597E+02;  1.2296754E-01; -4.6729538E+02;3;  2.0377660E+00;  0.0000000E+00;  1.0820781E-01;0; -1.2617702E-02;  2.6505191E+04;  0.0000000E+00;  4.2818502E-01;  4.0000000E+04;  0.0000000E+00;  3.9856117E+04;  6.4443704E-04;  0.0000000E+00; -1.3262139E-02;  9.9414563E+02;
  7.2914916E-01;  9.9999998E-03;  9.0280466E-02;6877; -7.8302398E-03;  0.0000000E+00; -1.2768750E-03;  9.9955963E+02;  1.2296866E-01; -3.6482916E+02;3;  2.0058911E+00;  0.0000000E+00;  1.1870117E-01;0; -1.2102200E-02;  2.6511457E+04;  0.0000000E+00;  5.1335508E-01;  4.0000000E+04;  0.0000000E+00;  3.9855645E+04;  8.2663313E-04;  0.0000000E+00; -1.2928833E-02;  1.1750262E+03;
  7.2910464E-01;  9.9999998E-03;  1.0030571E-01;6878; -7.7401474E-03;  0.0000000E+00; -1.4091888E-03;  9.9972217E+02;  1.2296775E-01; -2.3016631E+02;3;  1.9694574E+00;  0.0000000E+00;  1.2818979E-01;0; -1.1548433E-02;  2.6520299E+04;  0.0000000E+00;  5.8672374E-01;  4.0000000E+04;  0.0000000E+00;  3.9855020E+04;  1.0122985E-03;  0.0000000E+00; -1.2560732E-02;  1.3364965E+03;
  7.2904211E-01;  9.9999998E-03;  1.1032934E-01;6879; -7.6467274E-03;  0.0000000E+00; -1.5380331E-03;  9.9990833E+02;  1.2296817E-01; -7.5948463E+01;3;  1.9268402E+00;  0.0000000E+00;  1.4024235E-01;0; -1.0960780E-02;  2.6530975E+04;  0.0000000E+00;  6.4228523E-01;  4.0000000E+04;  0.0000000E+00;  3.9854219E+04;  1.1985978E-03;  0.0000000E+00; -1.2159378E-02;  1.4593630E+03;
  7.2896576E-01;  9.9999998E-03;  1.2035166E-01;6880; -7.5497800E-03;  0.0000000E+00; -1.6621221E-03;  1.0001022E+03;  1.2296701E-01;  8.4738335E+01;3;  1.8857417E+00;  0.0000000E+00;  1.5229902E-01;0; -1.0341447E-02;  2.6542496E+04;  0.0000000E+00;  6.7775911E-01;  4.0000000E+04;  0.0000000E+00;  3.9853789E+04;  1.3859288E-03;  0.0000000E+00; -1.1727376E-02;  1.5303485E+03;
  7.2888517E-01;  9.9999998E-03;  1.3037319E-01;6881; -7.4476181E-03;  0.0000000E+00; -1.7801551E-03;  1.0002925E+03;  1.2296813E-01;  2.4236349E+02;3;  1.8481196E+00;  0.0000000E+00;  1.6385013E-01;0; -9.6887089E-03;  2.6552943E+04;  0.0000000E+00;  6.9550520E-01;  4.0000000E+04;  0.0000000E+00;  3.9853648E+04;  1.5796956E-03;  0.0000000E+00; -1.1268404E-02;  1.5430804E+03;
  7.2881168E-01;  9.9999998E-03;  1.4039415E-01;6882; -7.3381541E-03;  0.0000000E+00; -1.8905437E-03;  1.0004496E+03;  1.2297364E-01;  3.7243387E+02;3;  1.8134614E+00;  0.0000000E+00;  1.7590539E-01;0; -8.9953486E-03;  2.6560254E+04;  0.0000000E+00;  7.0174277E-01;  4.0000000E+04;  0.0000000E+00;  3.9853652E+04;  1.7913454E-03;  0.0000000E+00; -1.0786694E-02;  1.4980590E+03;
  7.2875923E-01;  9.9999998E-03;  1.5041660E-01;6883; -7.2199847E-03;  0.0000000E+00; -1.9922392E-03;  1.0005674E+03;  1.2298506E-01;  4.7011014E+02;3;  1.7782860E+00;  0.0000000E+00;  1.9093415E-01;0; -8.2467981E-03;  2.6562188E+04;  0.0000000E+00;  7.0425361E-01;  4.0000000E+04;  0.0000000E+00;  3.9854551E+04;  2.0399482E-03;  0.0000000E+00; -1.0286747E-02;  1.4032732E+03;
  7.2874045E-01;  9.9999998E-03;  1.6044161E-01;6884; -7.0911259E-03;  0.0000000E+00; -2.0848943E-03;  1.0006187E+03;  1.2300427E-01;  5.1257806E+02;3;  1.7476730E+00;  0.0000000E+00;  2.0525984E-01;0; -7.4229818E-03;  2.6557004E+04;  0.0000000E+00;  7.0890582E-01;  4.0000000E+04;  0.0000000E+00;  3.9855434E+04;  2.3529681E-03;  0.0000000E+00; -9.7759496E-03;  1.2794294E+03;
  7.2876585E-01;  9.9999998E-03;  1.7046992E-01;6885; -6.9476762E-03;  0.0000000E+00; -2.1678854E-03;  1.0006001E+03;  1.2303527E-01;  4.9717108E+02;3;  1.7302288E+00;  0.0000000E+00;  2.2101095E-01;0; -6.5002376E-03;  2.6543508E+04;  0.0000000E+00;  7.1687132E-01;  4.0000000E+04;  0.0000000E+00;  3.9856980E+04;  2.7638350E-03;  0.0000000E+00; -9.2640724E-03;  1.1589166E+03;
  7.2883850E-01;  9.9999998E-03;  1.8049747E-01;6886; -6.7866095E-03;  0.0000000E+00; -2.2415689E-03;  1.0005093E+03;  1.2307692E-01;  4.2201273E+02;3;  1.7199160E+00;  0.0000000E+00;  2.3688643E-01;0; -5.4543661E-03;  2.6521668E+04;  0.0000000E+00;  7.2566724E-01;  4.0000000E+04;  0.0000000E+00;  3.9857820E+04;  3.3049022E-03;  0.0000000E+00; -8.7592686E-03;  1.0668019E+03;
  7.2894716E-01;  9.9999998E-03;  1.9051874E-01;6887; -6.6054496E-03;  0.0000000E+00; -2.3077358E-03;  1.0003315E+03;  1.2312187E-01;  2.7465887E+02;3;  1.7168045E+00;  0.0000000E+00;  2.5537336E-01;0; -4.2636413E-03;  2.6493871E+04;  0.0000000E+00;  7.3036689E-01;  4.0000000E+04;  0.0000000E+00;  3.9857777E+04;  4.0002931E-03;  0.0000000E+00; -8.2639344E-03;  9.9490106E+02;
  7.2907114E-01;  9.9999998E-03;  2.0052589E-01;6888; -6.4021759E-03;  0.0000000E+00; -2.3724216E-03;  1.0000908E+03;  1.2316827E-01;  7.5257126E+01;3;  1.7198759E+00;  0.0000000E+00;  2.7290195E-01;0; -2.9141153E-03;  2.6463570E+04;  0.0000000E+00;  7.2161293E-01;  4.0000000E+04;  0.0000000E+00;  3.9856297E+04;  4.8617707E-03;  0.0000000E+00; -7.7758860E-03;  9.3073749E+02;
  7.2917384E-01;  9.9999998E-03;  2.1050218E-01;6889; -6.1832834E-03;  0.0000000E+00; -2.4411608E-03;  9.9982977E+02;  1.2320594E-01; -1.4103304E+02;3;  1.7256086E+00;  0.0000000E+00;  2.9078531E-01;0; -1.4116168E-03;  2.6436037E+04;  0.0000000E+00;  6.8052143E-01;  4.0000000E+04;  0.0000000E+00;  3.9855598E+04;  5.8832257E-03;  0.0000000E+00; -7.2948425E-03;  8.0394202E+02;
  7.2925198E-01;  9.9999998E-03;  2.2046164E-01;6890; -5.9510716E-03;  0.0000000E+00; -2.5036507E-03;  9.9959149E+02;  1.2323193E-01; -3.3845953E+02;3;  1.7225474E+00;  0.0000000E+00;  3.0122700E-01;0;  2.4777418E-04;  2.6412020E+04;  0.0000000E+00;  5.7127148E-01;  4.0000000E+04;  0.0000000E+00;  3.9858047E+04;  7.0525357E-03;  0.0000000E+00; -6.8047615E-03;  4.3491388E+02;
  7.2931266E-01;  9.9999998E-03;  2.3044230E-01;6891; -5.6934929E-03;  0.0000000E+00; -2.5506322E-03;  9.9938306E+02;  1.2324917E-01; -5.1114600E+02;3;  1.7396441E+00;  0.0000000E+00;  3.1263584E-01;0;  2.0975950E-03;  2.6392002E+04;  0.0000000E+00;  3.3442390E-01;  4.0000000E+04;  0.0000000E+00;  3.9861801E+04;  8.3552096E-03;  0.0000000E+00; -6.2576146E-03;  5.2755060E+02;
  7.4129450E-01;  9.9999998E-03;  7.0213661E-02;6936; -8.0177542E-03;  0.0000000E+00; -1.0666387E-03;  9.9959027E+02;  1.2682469E-01; -3.3944717E+02;3;  2.1087215E+00;  0.0000000E+00;  1.2128071E-01;0; -1.3142304E-02;  2.4941391E+04;  0.0000000E+00;  3.9039603E-01;  4.0000000E+04;  0.0000000E+00;  3.9835906E+04;  1.3832101E-03;  0.0000000E+00; -1.4525514E-02;  9.8814545E+02;
  7.4126458E-01;  9.9999998E-03;  8.0248460E-02;6937; -7.9322057E-03;  0.0000000E+00; -1.2117139E-03;  9.9962292E+02;  1.2682205E-01; -3.1238620E+02;3;  2.0786517E+00;  0.0000000E+00;  1.3441752E-01;0; -1.2643172E-02;  2.4944854E+04;  0.0000000E+00;  4.9215725E-01;  4.0000000E+04;  0.0000000E+00;  3.9835832E+04;  1.5544951E-03;  0.0000000E+00; -1.4197667E-02;  1.2231234E+03;
  7.4121970E-01;  9.9999998E-03;  9.0282805E-02;6938; -7.8414744E-03;  0.0000000E+00; -1.3548809E-03;  9.9968933E+02;  1.2681964E-01; -2.5737543E+02;3;  2.0442808E+00;  0.0000000E+00;  1.4523587E-01;0; -1.2097851E-02;  2.4950520E+04;  0.0000000E+00;  5.8402956E-01;  4.0000000E+04;  0.0000000E+00;  3.9835293E+04;  1.7356846E-03;  0.0000000E+00; -1.3833536E-02;  1.4398260E+03;
  7.4115843E-01;  9.9999998E-03;  1.0031610E-01;6939; -7.7470760E-03;  0.0000000E+00; -1.4959498E-03;  9.9978668E+02;  1.2681700E-01; -1.7673573E+02;3;  2.0061159E+00;  0.0000000E+00;  1.5384549E-01;0; -1.1512028E-02;  2.4958049E+04;  0.0000000E+00;  6.5416431E-01;  4.0000000E+04;  0.0000000E+00;  3.9834535E+04;  1.9231314E-03;  0.0000000E+00; -1.3435160E-02;  1.6074014E+03;
  7.4108464E-01;  9.9999998E-03;  1.1034725E-01;6940; -7.6498999E-03;  0.0000000E+00; -1.6343649E-03;  9.9991986E+02;  1.2681632E-01; -6.6417870E+01;3;  1.9671779E+00;  0.0000000E+00;  1.6244215E-01;0; -1.0889567E-02;  2.4966549E+04;  0.0000000E+00;  6.9391990E-01;  4.0000000E+04;  0.0000000E+00;  3.9833703E+04;  2.1153586E-03;  0.0000000E+00; -1.3004925E-02;  1.7033467E+03;
  7.4100637E-01;  9.9999998E-03;  1.2037683E-01;6941; -7.5506410E-03;  0.0000000E+00; -1.7689540E-03;  1.0000526E+03;  1.2681842E-01;  4.3554321E+01;3;  1.9194771E+00;  0.0000000E+00;  1.7428373E-01;0; -1.0230965E-02;  2.4974006E+04;  0.0000000E+00;  7.0120776E-01;  4.0000000E+04;  0.0000000E+00;  3.9832980E+04;  2.3145641E-03;  0.0000000E+00; -1.2545529E-02;  1.7182115E+03;
  7.4093318E-01;  9.9999998E-03;  1.3040513E-01;6942; -7.4481941E-03;  0.0000000E+00; -1.8983327E-03;  1.0001878E+03;  1.2682627E-01;  1.5555115E+02;3;  1.8747824E+00;  0.0000000E+00;  1.8517138E-01;0; -9.5317252E-03;  2.4979369E+04;  0.0000000E+00;  6.8179178E-01;  4.0000000E+04;  0.0000000E+00;  3.9832363E+04;  2.5281163E-03;  0.0000000E+00; -1.2059841E-02;  1.6563789E+03;
  7.4087507E-01;  9.9999998E-03;  1.4043066E-01;6943; -7.3400089E-03;  0.0000000E+00; -2.0210131E-03;  1.0002913E+03;  1.2684135E-01;  2.4137587E+02;3;  1.8403820E+00;  0.0000000E+00;  1.9773100E-01;0; -8.7800156E-03;  2.4980492E+04;  0.0000000E+00;  6.4773953E-01;  4.0000000E+04;  0.0000000E+00;  3.9832090E+04;  2.7703743E-03;  0.0000000E+00; -1.1550390E-02;  1.5314747E+03;
  7.4084169E-01;  9.9999998E-03;  1.5045126E-01;6944; -7.2240871E-03;  0.0000000E+00; -2.1359557E-03;  1.0003552E+03;  1.2686396E-01;  2.9431265E+02;3;  1.8068801E+00;  0.0000000E+00;  2.0928876E-01;0; -7.9547884E-03;  2.4976051E+04;  0.0000000E+00;  6.1335748E-01;  4.0000000E+04;  0.0000000E+00;  3.9832531E+04;  3.0643509E-03;  0.0000000E+00; -1.1019140E-02;  1.3603419E+03;
  7.4083811E-01;  9.9999998E-03;  1.6046791E-01;6945; -7.0975670E-03;  0.0000000E+00; -2.2422830E-03;  1.0003583E+03;  1.2689367E-01;  2.9678171E+02;3;  1.7722032E+00;  0.0000000E+00;  2.2048290E-01;0; -7.0292177E-03;  2.4965379E+04;  0.0000000E+00;  5.8937913E-01;  4.0000000E+04;  0.0000000E+00;  3.9833309E+04;  3.4416635E-03;  0.0000000E+00; -1.0470881E-02;  1.1631072E+03;
  7.4086356E-01;  9.9999998E-03;  1.7048128E-01;6946; -6.9576595E-03;  0.0000000E+00; -2.3394572E-03;  1.0002929E+03;  1.2692891E-01;  2.4265979E+02;3;  1.7483771E+00;  0.0000000E+00;  2.3470241E-01;0; -5.9764911E-03;  2.4948830E+04;  0.0000000E+00;  5.7943916E-01;  4.0000000E+04;  0.0000000E+00;  3.9834484E+04;  3.9377208E-03;  0.0000000E+00; -9.9142119E-03;  9.6748810E+02;
  7.4091828E-01;  9.9999998E-03;  1.8049052E-01;6947; -6.8012546E-03;  0.0000000E+00; -2.4276022E-03;  1.0001456E+03;  1.2696859E-01;  1.2058917E+02;3;  1.7328627E+00;  0.0000000E+00;  2.4897768E-01;0; -4.7732960E-03;  2.4926688E+04;  0.0000000E+00;  5.7932645E-01;  4.0000000E+04;  0.0000000E+00;  3.9835410E+04;  4.5853523E-03;  0.0000000E+00; -9.3586482E-03;  8.0040344E+02;
  7.4100363E-01;  9.9999998E-03;  1.9049437E-01;6948; -6.6258172E-03;  0.0000000E+00; -2.5084186E-03;  9.9994226E+02;  1.2701222E-01; -4.7850494E+01;3;  1.7258158E+00;  0.0000000E+00;  2.6276165E-01;0; -3.4019439E-03;  2.4899893E+04;  0.0000000E+00;  5.7810152E-01;  4.0000000E+04;  0.0000000E+00;  3.9836562E+04;  5.4090316E-03;  0.0000000E+00; -8.8109756E-03;  6.6491833E+02;
  7.4108076E-01;  9.9999998E-03;  2.0047961E-01;6949; -6.4309780E-03;  0.0000000E+00; -2.5836506E-03;  9.9969818E+02;  1.2704656E-01; -2.5006699E+02;3;  1.7216502E+00;  0.0000000E+00;  2.7750009E-01;0; -1.8587648E-03;  2.4873896E+04;  0.0000000E+00;  5.5969149E-01;  4.0000000E+04;  0.0000000E+00;  3.9837992E+04;  6.4140284E-03;  0.0000000E+00; -8.2727931E-03;  5.3946399E+02;
  7.4113822E-01;  9.9999998E-03;  2.1045330E-01;6950; -6.2174518E-03;  0.0000000E+00; -2.6483594E-03;  9.9944208E+02;  1.2706946E-01; -4.6220911E+02;3;  1.7278273E+00;  0.0000000E+00;  2.9544750E-01;0; -1.4018826E-04;  2.4850529E+04;  0.0000000E+00;  5.0243860E-01;  4.0000000E+04;  0.0000000E+00;  3.9841277E+04;  7.5955205E-03;  0.0000000E+00; -7.7357087E-03;  6.5554828E+02;
  7.4118823E-01;  9.9999998E-03;  2.2044155E-01;6951; -5.9799314E-03;  0.0000000E+00; -2.6914387E-03;  9.9920428E+02;  1.2708716E-01; -6.5924054E+02;3;  1.7352407E+00;  0.0000000E+00;  3.1215537E-01;0;  1.7849612E-03;  2.4829170E+04;  0.0000000E+00;  3.8001749E-01;  4.0000000E+04;  0.0000000E+00;  3.9846520E+04;  8.9438558E-03;  0.0000000E+00; -7.1588946E-03;  1.2327054E+03;
  7.4121803E-01;  9.9999998E-03;  2.3045990E-01;6952; -5.7124570E-03;  0.0000000E+00; -2.7381664E-03;  9.9893958E+02;  1.2709424E-01; -8.7854297E+02;3;  1.7600795E+00;  0.0000000E+00;  3.3034369E-01;0;  3.8889842E-03;  2.4811650E+04;  0.0000000E+00;  1.6141832E-01;  4.0000000E+04;  0.0000000E+00;  3.9849320E+04;  1.0434472E-02;  0.0000000E+00; -6.5454878E-03;  1.6594653E+03;
  7.5422078E-01;  9.9999998E-03;  7.0227914E-02;6997; -8.0150235E-03;  0.0000000E+00; -1.1353093E-03;  9.9981787E+02;  1.3109747E-01; -1.5090930E+02;3;  2.1669776E+00;  0.0000000E+00;  1.5318467E-01;0; -1.3108566E-02;  2.3364539E+04;  0.0000000E+00;  3.4597999E-01;  4.0000000E+04;  0.0000000E+00;  3.9814289E+04;  2.4984982E-03;  0.0000000E+00; -1.5607065E-02;  9.8299597E+02;
  7.5419909E-01;  9.9999998E-03;  8.0266103E-02;6998; -7.9239067E-03;  0.0000000E+00; -1.2887017E-03;  9.9979230E+02;  1.3109778E-01; -1.7209389E+02;3;  2.1356678E+00;  0.0000000E+00;  1.6616094E-01;0; -1.2584001E-02;  2.3365373E+04;  0.0000000E+00;  4.3601939E-01;  4.0000000E+04;  0.0000000E+00;  3.9814105E+04;  2.6604258E-03;  0.0000000E+00; -1.5244426E-02;  1.2218773E+03;
  7.5414002E-01;  9.9999998E-03;  9.0306662E-02;6999; -7.8278771E-03;  0.0000000E+00; -1.4399348E-03;  9.9977936E+02;  1.3109300E-01; -1.8280963E+02;3;  2.0979421E+00;  0.0000000E+00;  1.7857032E-01;0; -1.2008375E-02;  2.3369428E+04;  0.0000000E+00;  5.1203883E-01;  4.0000000E+04;  0.0000000E+00;  3.9813480E+04;  2.8352286E-03;  0.0000000E+00; -1.4843604E-02;  1.4257122E+03;
  7.5404912E-01;  9.9999998E-03;  1.0034567E-01;7000; -7.7289171E-03;  0.0000000E+00; -1.5891902E-03;  9.9979034E+02;  1.3108547E-01; -1.7367409E+02;3;  2.0605979E+00;  0.0000000E+00;  1.8872367E-01;0; -1.1386514E-02;  2.3375889E+04;  0.0000000E+00;  5.5990285E-01;  4.0000000E+04;  0.0000000E+00;  3.9812523E+04;  3.0221178E-03;  0.0000000E+00; -1.4408631E-02;  1.5606996E+03;
  7.5393802E-01;  9.9999998E-03;  1.1037689E-01;7001; -7.6288329E-03;  0.0000000E+00; -1.7362345E-03;  9.9982135E+02;  1.3107891E-01; -1.4799580E+02;3;  2.0172749E+00;  0.0000000E+00;  1.9723545E-01;0; -1.0720916E-02;  2.3383264E+04;  0.0000000E+00;  5.6988227E-01;  4.0000000E+04;  0.0000000E+00;  3.9811449E+04;  3.2226618E-03;  0.0000000E+00; -1.3943578E-02;  1.6052363E+03;
  7.5381398E-01;  9.9999998E-03;  1.2039854E-01;7002; -7.5285886E-03;  0.0000000E+00; -1.8808822E-03;  9.9986530E+02;  1.3107409E-01; -1.1160178E+02;3;  1.9724545E+00;  0.0000000E+00;  2.0129138E-01;0; -1.0009675E-02;  2.3390338E+04;  0.0000000E+00;  5.4133362E-01;  4.0000000E+04;  0.0000000E+00;  3.9810176E+04;  3.4416057E-03;  0.0000000E+00; -1.3451281E-02;  1.5589796E+03;
  7.5368875E-01;  9.9999998E-03;  1.3041557E-01;7003; -7.4277571E-03;  0.0000000E+00; -2.0220852E-03;  9.9990741E+02;  1.3107230E-01; -7.6689186E+01;3;  1.9324478E+00;  0.0000000E+00;  2.0880774E-01;0; -9.2440257E-03;  2.3396053E+04;  0.0000000E+00;  4.8411515E-01;  4.0000000E+04;  0.0000000E+00;  3.9809430E+04;  3.6895012E-03;  0.0000000E+00; -1.2933527E-02;  1.4432826E+03;
  7.5357682E-01;  9.9999998E-03;  1.4042994E-01;7004; -7.3250635E-03;  0.0000000E+00; -2.1583342E-03;  9.9993152E+02;  1.3107625E-01; -5.6739132E+01;3;  1.8818864E+00;  0.0000000E+00;  2.1940020E-01;0; -8.4064631E-03;  2.3398496E+04;  0.0000000E+00;  4.1602615E-01;  4.0000000E+04;  0.0000000E+00;  3.9808734E+04;  3.9844643E-03;  0.0000000E+00; -1.2390927E-02;  1.2894673E+03;
  7.5349104E-01;  9.9999998E-03;  1.5044095E-01;7005; -7.2157136E-03;  0.0000000E+00; -2.2872014E-03;  9.9992047E+02;  1.3108575E-01; -6.5874672E+01;3;  1.8410761E+00;  0.0000000E+00;  2.2943781E-01;0; -7.4690902E-03;  2.3396326E+04;  0.0000000E+00;  3.5713923E-01;  4.0000000E+04;  0.0000000E+00;  3.9808863E+04;  4.3534436E-03;  0.0000000E+00; -1.1822534E-02;  1.1196421E+03;
  7.5347376E-01;  9.9999998E-03;  1.6044705E-01;7006; -7.0960559E-03;  0.0000000E+00; -2.4083322E-03;  9.9987415E+02;  1.3111444E-01; -1.0424396E+02;3;  1.8028331E+00;  0.0000000E+00;  2.3730944E-01;0; -6.3976888E-03;  2.3385484E+04;  0.0000000E+00;  3.2153615E-01;  4.0000000E+04;  0.0000000E+00;  3.9809363E+04;  4.8353542E-03;  0.0000000E+00; -1.1233043E-02;  9.3732690E+02;
  7.5354207E-01;  9.9999998E-03;  1.7044578E-01;7007; -6.9642956E-03;  0.0000000E+00; -2.5227123E-03;  9.9977991E+02;  1.3116385E-01; -1.8236520E+02;3;  1.7732981E+00;  0.0000000E+00;  2.4649690E-01;0; -5.1611131E-03;  2.3364428E+04;  0.0000000E+00;  3.1371260E-01;  4.0000000E+04;  0.0000000E+00;  3.9810160E+04;  5.4700207E-03;  0.0000000E+00; -1.0631134E-02;  7.3675494E+02;
  7.5365746E-01;  9.9999998E-03;  1.8043932E-01;7008; -6.8166554E-03;  0.0000000E+00; -2.6294354E-03;  9.9962921E+02;  1.3122156E-01; -3.0720117E+02;3;  1.7530602E+00;  0.0000000E+00;  2.5829875E-01;0; -3.7387554E-03;  2.3336924E+04;  0.0000000E+00;  3.2695401E-01;  4.0000000E+04;  0.0000000E+00;  3.9811410E+04;  6.2862402E-03;  0.0000000E+00; -1.0024996E-02;  4.9660944E+02;
  7.5380170E-01;  9.9999998E-03;  1.9042887E-01;7009; -6.6500879E-03;  0.0000000E+00; -2.7284827E-03;  9.9943536E+02;  1.3128249E-01; -4.6778922E+02;3;  1.7393343E+00;  0.0000000E+00;  2.7130759E-01;0; -2.1196697E-03;  2.3305057E+04;  0.0000000E+00;  3.4338725E-01;  4.0000000E+04;  0.0000000E+00;  3.9813559E+04;  7.3042065E-03;  0.0000000E+00; -9.4238762E-03;  1.7831908E+02;
  7.5394976E-01;  9.9999998E-03;  2.0041330E-01;7010; -6.4650830E-03;  0.0000000E+00; -2.8190301E-03;  9.9920868E+02;  1.3133937E-01; -6.5558636E+02;3;  1.7275662E+00;  0.0000000E+00;  2.8068173E-01;0; -3.0566473E-04;  2.3272080E+04;  0.0000000E+00;  3.3955696E-01;  4.0000000E+04;  0.0000000E+00;  3.9817699E+04;  8.5283164E-03;  0.0000000E+00; -8.8339811E-03;  4.4100171E+02;
  7.5408584E-01;  9.9999998E-03;  2.1040833E-01;7011; -6.2585156E-03;  0.0000000E+00; -2.8899345E-03;  9.9898077E+02;  1.3138728E-01; -8.4442047E+02;3;  1.7271956E+00;  0.0000000E+00;  2.9523867E-01;0;  1.7063618E-03;  2.3240057E+04;  0.0000000E+00;  2.9350278E-01;  4.0000000E+04;  0.0000000E+00;  3.9824129E+04;  9.9511659E-03;  0.0000000E+00; -8.2448041E-03;  1.3039313E+03;
  7.5421113E-01;  9.9999998E-03;  2.2043251E-01;7012; -6.0225925E-03;  0.0000000E+00; -2.9319178E-03;  9.9874408E+02;  1.3142803E-01; -1.0405137E+03;3;  1.7385048E+00;  0.0000000E+00;  3.0883813E-01;0;  3.9464328E-03;  2.3210203E+04;  0.0000000E+00;  1.9329971E-01;  4.0000000E+04;  0.0000000E+00;  3.9830598E+04;  1.1556464E-02;  0.0000000E+00; -7.6100314E-03;  2.2151187E+03;
  7.5431556E-01;  9.9999998E-03;  2.3048398E-01;7013; -5.7574562E-03;  0.0000000E+00; -2.9867226E-03;  9.9844751E+02;  1.3145682E-01; -1.2861858E+03;3;  1.7568841E+00;  0.0000000E+00;  3.2277897E-01;0;  6.3477065E-03;  2.3184242E+04;  0.0000000E+00;  4.8410505E-02;  4.0000000E+04;  0.0000000E+00;  3.9833301E+04;  1.3313289E-02;  0.0000000E+00; -6.9655823E-03;  2.6201814E+03;
  7.6832587E-01;  9.9999998E-03;  7.0085198E-02;7058; -7.9787131E-03;  0.0000000E+00; -1.2181334E-03;  1.0002410E+03;  1.3597657E-01;  1.9969804E+02;3;  2.2408581E+00;  0.0000000E+00;  1.8381831E-01;0; -1.3014124E-02;  2.1744758E+04;  0.0000000E+00;  1.9056194E-01;  4.0000000E+04;  0.0000000E+00;  3.9790449E+04;  3.8458621E-03;  0.0000000E+00; -1.6859986E-02;  6.9451733E+02;
  7.6823348E-01;  9.9999998E-03;  8.0110542E-02;7059; -7.8819683E-03;  0.0000000E+00; -1.3799864E-03;  1.0001527E+03;  1.3596080E-01;  1.2651493E+02;3;  2.2159040E+00;  0.0000000E+00;  2.0150825E-01;0; -1.2470175E-02;  2.1749959E+04;  0.0000000E+00;  2.4275093E-01;  4.0000000E+04;  0.0000000E+00;  3.9790527E+04;  3.9781877E-03;  0.0000000E+00; -1.6448362E-02;  8.6150916E+02;
  7.6809847E-01;  9.9999998E-03;  9.0140596E-02;7060; -7.7795512E-03;  0.0000000E+00; -1.5388279E-03;  1.0000659E+03;  1.3593656E-01;  5.4516972E+01;3;  2.1889389E+00;  0.0000000E+00;  2.1654870E-01;0; -1.1866681E-02;  2.1758186E+04;  0.0000000E+00;  2.8174376E-01;  4.0000000E+04;  0.0000000E+00;  3.9789926E+04;  4.1316561E-03;  0.0000000E+00; -1.5998337E-02;  9.8854529E+02;
  7.6791859E-01;  9.9999998E-03;  1.0017396E-01;7061; -7.6746014E-03;  0.0000000E+00; -1.6952849E-03;  9.9998553E+02;  1.3590516E-01; -1.1999660E+01;3;  2.1559238E+00;  0.0000000E+00;  2.2663507E-01;0; -1.1205770E-02;  2.1769535E+04;  0.0000000E+00;  2.9483372E-01;  4.0000000E+04;  0.0000000E+00;  3.9789094E+04;  4.3090098E-03;  0.0000000E+00; -1.5514780E-02;  1.0533658E+03;
  7.6770616E-01;  9.9999998E-03;  1.1021194E-01;7062; -7.5691892E-03;  0.0000000E+00; -1.8497156E-03;  9.9992249E+02;  1.3587196E-01; -6.4195709E+01;3;  2.1222212E+00;  0.0000000E+00;  2.3641457E-01;0; -1.0486200E-02;  2.1783061E+04;  0.0000000E+00;  2.7326107E-01;  4.0000000E+04;  0.0000000E+00;  3.9787574E+04;  4.5163231E-03;  0.0000000E+00; -1.5002523E-02;  1.0542444E+03;
  7.6748937E-01;  9.9999998E-03;  1.2024916E-01;7063; -7.4660480E-03;  0.0000000E+00; -2.0022106E-03;  9.9987646E+02;  1.3584073E-01; -1.0236747E+02;3;  2.0759020E+00;  0.0000000E+00;  2.4410410E-01;0; -9.7018247E-03;  2.1795812E+04;  0.0000000E+00;  2.1711555E-01;  4.0000000E+04;  0.0000000E+00;  3.9786094E+04;  4.7644349E-03;  0.0000000E+00; -1.4466260E-02;  1.0182487E+03;
  7.6732439E-01;  9.9999998E-03;  1.3028099E-01;7064; -7.3673613E-03;  0.0000000E+00; -2.1535251E-03;  9.9984613E+02;  1.3582994E-01; -1.2750256E+02;3;  2.0171390E+00;  0.0000000E+00;  2.4392173E-01;0; -8.8378787E-03;  2.1802715E+04;  0.0000000E+00;  1.3764632E-01;  4.0000000E+04;  0.0000000E+00;  3.9784484E+04;  5.0723529E-03;  0.0000000E+00; -1.3910231E-02;  9.9688586E+02;
  7.6727134E-01;  9.9999998E-03;  1.4030759E-01;7065; -7.2721872E-03;  0.0000000E+00; -2.3031291E-03;  9.9984833E+02;  1.3585638E-01; -1.2567545E+02;3;  1.9646168E+00;  0.0000000E+00;  2.4954878E-01;0; -7.8677740E-03;  2.1798102E+04;  0.0000000E+00;  5.5537045E-02;  4.0000000E+04;  0.0000000E+00;  3.9783379E+04;  5.4677390E-03;  0.0000000E+00; -1.3335513E-02;  1.0296191E+03;
  7.6724780E-01;  9.9999998E-03;  1.5033059E-01;7066; -7.1765147E-03;  0.0000000E+00; -2.4488925E-03;  9.9983411E+02;  1.3588943E-01; -1.3742821E+02;3;  1.9059780E+00;  0.0000000E+00;  2.5226548E-01;0; -6.7592659E-03;  2.1789584E+04;  0.0000000E+00; -3.1425999E-03;  4.0000000E+04;  0.0000000E+00;  3.9782672E+04;  5.9712227E-03;  0.0000000E+00; -1.2730489E-02;  1.0912383E+03;
  7.6723701E-01;  9.9999998E-03;  1.6034995E-01;7067; -7.0714266E-03;  0.0000000E+00; -2.5870523E-03;  9.9978516E+02;  1.3592249E-01; -1.7797026E+02;3;  1.8600054E+00;  0.0000000E+00;  2.5903350E-01;0; -5.4774885E-03;  2.1778369E+04;  0.0000000E+00; -2.0938322E-02;  4.0000000E+04;  0.0000000E+00;  3.9782871E+04;  6.6156224E-03;  0.0000000E+00; -1.2093111E-02;  1.1075906E+03;
  7.6724434E-01;  9.9999998E-03;  1.7036733E-01;7068; -6.9531621E-03;  0.0000000E+00; -2.7168724E-03;  9.9968494E+02;  1.3595586E-01; -2.6102963E+02;3;  1.8159693E+00;  0.0000000E+00;  2.6697978E-01;0; -3.9939797E-03;  2.1763861E+04;  0.0000000E+00;  5.5371337E-03;  4.0000000E+04;  0.0000000E+00;  3.9783473E+04;  7.4368063E-03;  0.0000000E+00; -1.1430786E-02;  1.0173563E+03;
  7.6733005E-01;  9.9999998E-03;  1.8037540E-01;7069; -6.8204096E-03;  0.0000000E+00; -2.8407092E-03;  9.9955786E+02;  1.3600737E-01; -3.6631061E+02;3;  1.7789735E+00;  0.0000000E+00;  2.7284047E-01;0; -2.2864742E-03;  2.1740828E+04;  0.0000000E+00;  6.3289739E-02;  4.0000000E+04;  0.0000000E+00;  3.9785406E+04;  8.4730582E-03;  0.0000000E+00; -1.0759532E-02;  7.8388812E+02;
  7.6746726E-01;  9.9999998E-03;  1.9038053E-01;7070; -6.6676266E-03;  0.0000000E+00; -2.9556339E-03;  9.9940094E+02;  1.3606787E-01; -4.9633160E+02;3;  1.7572994E+00;  0.0000000E+00;  2.8402367E-01;0; -3.5013165E-04;  2.1712271E+04;  0.0000000E+00;  1.2641326E-01;  4.0000000E+04;  0.0000000E+00;  3.9788672E+04;  9.7399652E-03;  0.0000000E+00; -1.0090097E-02;  4.2596573E+02;
  7.6762938E-01;  9.9999998E-03;  2.0038909E-01;7071; -6.4905165E-03;  0.0000000E+00; -3.0559828E-03;  9.9922534E+02;  1.3612954E-01; -6.4180896E+02;3;  1.7467039E+00;  0.0000000E+00;  2.9145005E-01;0;  1.8085474E-03;  2.1680979E+04;  0.0000000E+00;  1.6189833E-01;  4.0000000E+04;  0.0000000E+00;  3.9794234E+04;  1.1237424E-02;  0.0000000E+00; -9.4288765E-03;  6.6594476E+02;
  7.6780742E-01;  9.9999998E-03;  2.1042193E-01;7072; -6.2897755E-03;  0.0000000E+00; -3.1351040E-03;  9.9904175E+02;  1.3618739E-01; -7.9390344E+02;3;  1.7337644E+00;  0.0000000E+00;  2.9491425E-01;0;  4.1891886E-03;  2.1648488E+04;  0.0000000E+00;  1.4183187E-01;  4.0000000E+04;  0.0000000E+00;  3.9801336E+04;  1.2956805E-02;  0.0000000E+00; -8.7676160E-03;  1.5670212E+03;
  7.6799661E-01;  9.9999998E-03;  2.2048426E-01;7073; -6.0571940E-03;  0.0000000E+00; -3.1918231E-03;  9.9881671E+02;  1.3624454E-01; -9.8031787E+02;3;  1.7464679E+00;  0.0000000E+00;  3.0777252E-01;0;  6.7966925E-03;  2.1615873E+04;  0.0000000E+00;  5.5350404E-02;  4.0000000E+04;  0.0000000E+00;  3.9806801E+04;  1.4873995E-02;  0.0000000E+00; -8.0773020E-03;  2.3150430E+03;
  7.6813817E-01;  9.9999998E-03;  2.3055521E-01;7074; -5.7930173E-03;  0.0000000E+00; -3.2668179E-03;  9.9852441E+02;  1.3628069E-01; -1.2224839E+03;3;  1.7666519E+00;  0.0000000E+00;  3.1991166E-01;0;  9.5154503E-03;  2.1588877E+04;  0.0000000E+00; -7.3551722E-02;  4.0000000E+04;  0.0000000E+00;  3.9807992E+04;  1.6935617E-02;  0.0000000E+00; -7.4201664E-03;  2.5577722E+03;
  7.8202993E-01;  9.9999998E-03;  7.0056796E-02;7119; -7.8946073E-03;  0.0000000E+00; -1.3198931E-03;  1.0005355E+03;  1.4106424E-01;  4.4364175E+02;3;  2.3502264E+00;  0.0000000E+00;  2.0893136E-01;0; -1.2875259E-02;  2.0223496E+04;  0.0000000E+00; -1.8845912E-02;  4.0000000E+04;  0.0000000E+00;  3.9765348E+04;  5.2766143E-03;  0.0000000E+00; -1.8151874E-02;  1.7476585E+02;
  7.8200984E-01;  9.9999998E-03;  8.0052175E-02;7120; -7.7918489E-03;  0.0000000E+00; -1.4923250E-03;  1.0004719E+03;  1.4106974E-01;  3.9100125E+02;3;  2.3413305E+00;  0.0000000E+00;  2.3307917E-01;0; -1.2319405E-02;  2.0223770E+04;  0.0000000E+00; -2.0313229E-02;  4.0000000E+04;  0.0000000E+00;  3.9765949E+04;  5.3820852E-03;  0.0000000E+00; -1.7701490E-02;  2.0297958E+02;
  7.8206265E-01;  9.9999998E-03;  9.0055466E-02;7121; -7.6812934E-03;  0.0000000E+00; -1.6608750E-03;  1.0004347E+03;  1.4110643E-01;  3.6008856E+02;3;  2.3273017E+00;  0.0000000E+00;  2.5727919E-01;0; -1.1690438E-02;  2.0216631E+04;  0.0000000E+00; -3.3287384E-02;  4.0000000E+04;  0.0000000E+00;  3.9765406E+04;  5.5310805E-03;  0.0000000E+00; -1.7221518E-02;  1.9583719E+02;
  7.8210127E-01;  9.9999998E-03;  1.0007358E-01;7122; -7.5660762E-03;  0.0000000E+00; -1.8259719E-03;  1.0004067E+03;  1.4114805E-01;  3.3697809E+02;3;  2.3224223E+00;  0.0000000E+00;  2.7408874E-01;0; -1.0985872E-02;  2.0209775E+04;  0.0000000E+00; -6.4109460E-02;  4.0000000E+04;  0.0000000E+00;  3.9764230E+04;  5.7233633E-03;  0.0000000E+00; -1.6709235E-02;  1.9853676E+02;
  7.8207910E-01;  9.9999998E-03;  1.1010795E-01;7123; -7.4510598E-03;  0.0000000E+00; -1.9879302E-03;  1.0003801E+03;  1.4117557E-01;  3.1495404E+02;3;  2.2985034E+00;  0.0000000E+00;  2.8663519E-01;0; -1.0199130E-02;  2.0206850E+04;  0.0000000E+00; -1.1605766E-01;  4.0000000E+04;  0.0000000E+00;  3.9762328E+04;  5.9661022E-03;  0.0000000E+00; -1.6165232E-02;  3.8029059E+02;
  7.8201270E-01;  9.9999998E-03;  1.2015279E-01;7124; -7.3391935E-03;  0.0000000E+00; -2.1472930E-03;  1.0003586E+03;  1.4119343E-01;  2.9717676E+02;3;  2.2698717E+00;  0.0000000E+00;  2.9441091E-01;0; -9.3175834E-03;  2.0207090E+04;  0.0000000E+00; -1.8624163E-01;  4.0000000E+04;  0.0000000E+00;  3.9760391E+04;  6.2763346E-03;  0.0000000E+00; -1.5593918E-02;  6.9601080E+02;
  7.8192550E-01;  9.9999998E-03;  1.3019809E-01;7125; -7.2349836E-03;  0.0000000E+00; -2.3047356E-03;  1.0003495E+03;  1.4120543E-01;  2.8957202E+02;3;  2.2157900E+00;  0.0000000E+00;  2.9869214E-01;0; -8.3214231E-03;  2.0208322E+04;  0.0000000E+00; -2.6214701E-01;  4.0000000E+04;  0.0000000E+00;  3.9758262E+04;  6.6757700E-03;  0.0000000E+00; -1.4997194E-02;  1.0543469E+03;
  7.8183806E-01;  9.9999998E-03;  1.4024091E-01;7126; -7.1423389E-03;  0.0000000E+00; -2.4613955E-03;  1.0003459E+03;  1.4121808E-01;  2.8660916E+02;3;  2.1368961E+00;  0.0000000E+00;  2.9175216E-01;0; -7.1808374E-03;  2.0208740E+04;  0.0000000E+00; -3.2336602E-01;  4.0000000E+04;  0.0000000E+00;  3.9756152E+04;  7.1912450E-03;  0.0000000E+00; -1.4372082E-02;  1.3826686E+03;
  7.8175968E-01;  9.9999998E-03;  1.5027785E-01;7127; -7.0623141E-03;  0.0000000E+00; -2.6172115E-03;  1.0003319E+03;  1.4123148E-01;  2.7495517E+02;3;  2.0582743E+00;  0.0000000E+00;  2.8643045E-01;0; -5.8577191E-03;  2.0207271E+04;  0.0000000E+00; -3.4763879E-01;  4.0000000E+04;  0.0000000E+00;  3.9755176E+04;  7.8537744E-03;  0.0000000E+00; -1.3711493E-02;  1.6125229E+03;
  7.8170073E-01;  9.9999998E-03;  1.6030918E-01;7128; -6.9843587E-03;  0.0000000E+00; -2.7689743E-03;  1.0002971E+03;  1.4124838E-01;  2.4611647E+02;3;  1.9676467E+00;  0.0000000E+00;  2.9208109E-01;0; -4.3160161E-03;  2.0202576E+04;  0.0000000E+00; -3.1928223E-01;  4.0000000E+04;  0.0000000E+00;  3.9754664E+04;  8.6968178E-03;  0.0000000E+00; -1.3012834E-02;  1.6849906E+03;
  7.8167892E-01;  9.9999998E-03;  1.7034359E-01;7129; -6.8950970E-03;  0.0000000E+00; -2.9127062E-03;  1.0002402E+03;  1.4127026E-01;  1.9900670E+02;3;  1.8959850E+00;  0.0000000E+00;  2.9882529E-01;0; -2.5286367E-03;  2.0193258E+04;  0.0000000E+00; -2.3674840E-01;  4.0000000E+04;  0.0000000E+00;  3.9755465E+04;  9.7537758E-03;  0.0000000E+00; -1.2282412E-02;  1.5595677E+03;
  7.8171581E-01;  9.9999998E-03;  1.8038222E-01;7130; -6.7826421E-03;  0.0000000E+00; -3.0473217E-03;  1.0001536E+03;  1.4130592E-01;  1.2730503E+02;3;  1.8316138E+00;  0.0000000E+00;  2.9989100E-01;0; -4.8170891E-04;  2.0177703E+04;  0.0000000E+00; -1.1644600E-01;  4.0000000E+04;  0.0000000E+00;  3.9757742E+04;  1.1051192E-02;  0.0000000E+00; -1.1532901E-02;  1.2299224E+03;
  7.8183633E-01;  9.9999998E-03;  1.9042106E-01;7131; -6.6473391E-03;  0.0000000E+00; -3.1753788E-03;  1.0000540E+03;  1.4135993E-01;  4.4739471E+01;3;  1.7921946E+00;  0.0000000E+00;  2.9733807E-01;0;  1.8269019E-03;  2.0154123E+04;  0.0000000E+00;  9.3512321E-03;  4.0000000E+04;  0.0000000E+00;  3.9761164E+04;  1.2606364E-02;  0.0000000E+00; -1.0779462E-02;  7.4024707E+02;
  7.8203166E-01;  9.9999998E-03;  2.0046377E-01;7132; -6.4837281E-03;  0.0000000E+00; -3.2851365E-03;  9.9994482E+02;  1.4143266E-01; -4.5727097E+01;3;  1.7763259E+00;  0.0000000E+00;  3.0782017E-01;0;  4.3882029E-03;  2.0123574E+04;  0.0000000E+00;  1.0031109E-01;  4.0000000E+04;  0.0000000E+00;  3.9766516E+04;  1.4416465E-02;  0.0000000E+00; -1.0028262E-02;  5.2684296E+02;
  7.8228587E-01;  9.9999998E-03;  2.1053252E-01;7133; -6.2855249E-03;  0.0000000E+00; -3.3704473E-03;  9.9980737E+02;  1.4151636E-01; -1.5960042E+02;3;  1.7691685E+00;  0.0000000E+00;  3.1752291E-01;0;  7.1984148E-03;  2.0088086E+04;  0.0000000E+00;  1.1926693E-01;  4.0000000E+04;  0.0000000E+00;  3.9771098E+04;  1.6465217E-02;  0.0000000E+00; -9.2668021E-03;  1.0405328E+03;
  7.8255272E-01;  9.9999998E-03;  2.2061960E-01;7134; -6.0544666E-03;  0.0000000E+00; -3.4555786E-03;  9.9960132E+02;  1.4160019E-01; -3.3031161E+02;3;  1.7718284E+00;  0.0000000E+00;  3.1897753E-01;0;  1.0205358E-02;  2.0052074E+04;  0.0000000E+00;  4.4866048E-02;  4.0000000E+04;  0.0000000E+00;  3.9771832E+04;  1.8711232E-02;  0.0000000E+00; -8.5058734E-03;  1.2563767E+03;
  7.8276074E-01;  9.9999998E-03;  2.3068492E-01;7135; -5.7964423E-03;  0.0000000E+00; -3.5741136E-03;  9.9933661E+02;  1.4166120E-01; -5.4961401E+02;3;  1.7834992E+00;  0.0000000E+00;  3.1610087E-01;0;  1.3220005E-02;  2.0021428E+04;  0.0000000E+00; -1.1316941E-01;  4.0000000E+04;  0.0000000E+00;  3.9771109E+04;  2.1085605E-02;  0.0000000E+00; -7.8656003E-03;  1.3132849E+03;
  7.9623330E-01;  9.9999998E-03;  7.0156984E-02;7180; -7.7583971E-03;  0.0000000E+00; -1.4517790E-03;  1.0004023E+03;  1.4666586E-01;  3.3332388E+02;3;  2.5004151E+00;  0.0000000E+00;  2.3071107E-01;0; -1.2618197E-02;  1.8714379E+04;  0.0000000E+00; -2.3751809E-01;  4.0000000E+04;  0.0000000E+00;  3.9736883E+04;  6.9624945E-03;  0.0000000E+00; -1.9580692E-02;  5.6711078E+02;
  7.9626137E-01;  9.9999998E-03;  8.0149658E-02;7181; -7.6499484E-03;  0.0000000E+00; -1.6384793E-03;  1.0004144E+03;  1.4669745E-01;  3.4329892E+02;3;  2.5112741E+00;  0.0000000E+00;  2.5864285E-01;0; -1.2056763E-02;  1.8711070E+04;  0.0000000E+00; -2.9322878E-01;  4.0000000E+04;  0.0000000E+00;  3.9737758E+04;  7.0287557E-03;  0.0000000E+00; -1.9085519E-02;  6.4287573E+02;
  7.9628837E-01;  9.9999998E-03;  9.0143621E-02;7182; -7.5318716E-03;  0.0000000E+00; -1.8182495E-03;  1.0004405E+03;  1.4673124E-01;  3.6492792E+02;3;  2.5164881E+00;  0.0000000E+00;  2.8177339E-01;0; -1.1409568E-02;  1.8707885E+04;  0.0000000E+00; -3.5160574E-01;  4.0000000E+04;  0.0000000E+00;  3.9738355E+04;  7.1421843E-03;  0.0000000E+00; -1.8551752E-02;  7.7403992E+02;
  7.9630673E-01;  9.9999998E-03;  1.0015200E-01;7183; -7.4074776E-03;  0.0000000E+00; -1.9918166E-03;  1.0004750E+03;  1.4676543E-01;  3.9347034E+02;3;  2.5220618E+00;  0.0000000E+00;  3.0269751E-01;0; -1.0667446E-02;  1.8705393E+04;  0.0000000E+00; -4.1361502E-01;  4.0000000E+04;  0.0000000E+00;  3.9737926E+04;  7.3174937E-03;  0.0000000E+00; -1.7984940E-02;  9.3727295E+02;
  7.9631907E-01;  9.9999998E-03;  1.1018253E-01;7184; -7.2803982E-03;  0.0000000E+00; -2.1600605E-03;  1.0005205E+03;  1.4680076E-01;  4.3119766E+02;3;  2.5235770E+00;  0.0000000E+00;  3.2156402E-01;0; -9.8163988E-03;  1.8703264E+04;  0.0000000E+00; -4.7870052E-01;  4.0000000E+04;  0.0000000E+00;  3.9736133E+04;  7.5737536E-03;  0.0000000E+00; -1.7390152E-02;  1.1529414E+03;
  7.9630387E-01;  9.9999998E-03;  1.2023296E-01;7185; -7.1550594E-03;  0.0000000E+00; -2.3233558E-03;  1.0005757E+03;  1.4682902E-01;  4.7692474E+02;3;  2.5088601E+00;  0.0000000E+00;  3.4016526E-01;0; -8.8375900E-03;  1.8703297E+04;  0.0000000E+00; -5.4155093E-01;  4.0000000E+04;  0.0000000E+00;  3.9733773E+04;  7.9303049E-03;  0.0000000E+00; -1.6767895E-02;  1.4311053E+03;
  7.9624069E-01;  9.9999998E-03;  1.3028842E-01;7186; -7.0348601E-03;  0.0000000E+00; -2.4815728E-03;  1.0006326E+03;  1.4684072E-01;  5.2403455E+02;3;  2.4766786E+00;  0.0000000E+00;  3.5007676E-01;0; -7.7071683E-03;  1.8706750E+04;  0.0000000E+00; -5.9114563E-01;  4.0000000E+04;  0.0000000E+00;  3.9731441E+04;  8.4089329E-03;  0.0000000E+00; -1.6116101E-02;  1.7303539E+03;
  7.9614395E-01;  9.9999998E-03;  1.4033297E-01;7187; -6.9259382E-03;  0.0000000E+00; -2.6358464E-03;  1.0006818E+03;  1.4684093E-01;  5.6492224E+02;3;  2.4103808E+00;  0.0000000E+00;  3.5758767E-01;0; -6.3935611E-03;  1.8711951E+04;  0.0000000E+00; -6.1248070E-01;  4.0000000E+04;  0.0000000E+00;  3.9729473E+04;  9.0377666E-03;  0.0000000E+00; -1.5431328E-02;  1.9811642E+03;
  7.9604977E-01;  9.9999998E-03;  1.5037659E-01;7188; -6.8340618E-03;  0.0000000E+00; -2.7881849E-03;  1.0007191E+03;  1.4684150E-01;  5.9573621E+02;3;  2.3185184E+00;  0.0000000E+00;  3.5536858E-01;0; -4.8542274E-03;  1.8715051E+04;  0.0000000E+00; -5.9034795E-01;  4.0000000E+04;  0.0000000E+00;  3.9728004E+04;  9.8519595E-03;  0.0000000E+00; -1.4706187E-02;  2.1167610E+03;
  7.9599899E-01;  9.9999998E-03;  1.6042806E-01;7189; -6.7673596E-03;  0.0000000E+00; -2.9437621E-03;  1.0007490E+03;  1.4685549E-01;  6.2052563E+02;3;  2.1976581E+00;  0.0000000E+00;  3.4259242E-01;0; -3.0486323E-03;  1.8712926E+04;  0.0000000E+00; -5.1435733E-01;  4.0000000E+04;  0.0000000E+00;  3.9727285E+04;  1.0889339E-02;  0.0000000E+00; -1.3937972E-02;  2.0801541E+03;
  7.9602963E-01;  9.9999998E-03;  1.7048799E-01;7190; -6.7055714E-03;  0.0000000E+00; -3.0968562E-03;  1.0007652E+03;  1.4689325E-01;  6.3395734E+02;3;  2.0762453E+00;  0.0000000E+00;  3.3907104E-01;0; -9.5184054E-04;  1.8701873E+04;  0.0000000E+00; -3.8586923E-01;  4.0000000E+04;  0.0000000E+00;  3.9727828E+04;  1.2181072E-02;  0.0000000E+00; -1.3132913E-02;  1.8461825E+03;
  7.9616785E-01;  9.9999998E-03;  1.8055514E-01;7191; -6.6317935E-03;  0.0000000E+00; -3.2455076E-03;  1.0007584E+03;  1.4696315E-01;  6.2832788E+02;3;  1.9877598E+00;  0.0000000E+00;  3.4417531E-01;0;  1.4455291E-03;  1.8680484E+04;  0.0000000E+00; -2.2223997E-01;  4.0000000E+04;  0.0000000E+00;  3.9729129E+04;  1.3747951E-02;  0.0000000E+00; -1.2302422E-02;  1.4455256E+03;
  7.9641962E-01;  9.9999998E-03;  1.9062826E-01;7192; -6.5211742E-03;  0.0000000E+00; -3.3817932E-03;  1.0007264E+03;  1.4706431E-01;  6.0176074E+02;3;  1.9253079E+00;  0.0000000E+00;  3.4555101E-01;0;  4.1348813E-03;  1.8648842E+04;  0.0000000E+00; -5.4702729E-02;  4.0000000E+04;  0.0000000E+00;  3.9731078E+04;  1.5592004E-02;  0.0000000E+00; -1.1457123E-02;  9.7760229E+02;
  7.9676235E-01;  9.9999998E-03;  2.0070082E-01;7193; -6.3687428E-03;  0.0000000E+00; -3.5053657E-03;  1.0006582E+03;  1.4718816E-01;  5.4526849E+02;3;  1.8775647E+00;  0.0000000E+00;  3.3697894E-01;0;  7.0916433E-03;  1.8609920E+04;  0.0000000E+00;  7.9458386E-02;  4.0000000E+04;  0.0000000E+00;  3.9732453E+04;  1.7694628E-02;  0.0000000E+00; -1.0602985E-02;  6.0044275E+02;
  7.9715520E-01;  9.9999998E-03;  2.1077602E-01;7194; -6.1853305E-03;  0.0000000E+00; -3.6364777E-03;  1.0005323E+03;  1.4732112E-01;  4.4097516E+02;3;  1.8449366E+00;  0.0000000E+00;  3.3639839E-01;0;  1.0259975E-02;  1.8567145E+04;  0.0000000E+00;  1.4596459E-01;  4.0000000E+04;  0.0000000E+00;  3.9731430E+04;  2.0020889E-02;  0.0000000E+00; -9.7609144E-03;  5.9218378E+02;
  7.9751992E-01;  9.9999998E-03;  2.2082640E-01;7195; -5.9623788E-03;  0.0000000E+00; -3.7847164E-03;  1.0003409E+03;  1.4744078E-01;  2.8246112E+02;3;  1.8442255E+00;  0.0000000E+00;  3.4091946E-01;0;  1.3509994E-02;  1.8526566E+04;  0.0000000E+00;  1.1875477E-01;  4.0000000E+04;  0.0000000E+00;  3.9728973E+04;  2.2502812E-02;  0.0000000E+00; -8.9928173E-03;  8.1465918E+02;
  7.9780149E-01;  9.9999998E-03;  2.3083888E-01;7196; -5.6730602E-03;  0.0000000E+00; -3.9049713E-03;  1.0001543E+03;  1.4752544E-01;  1.2779884E+02;3;  1.8774128E+00;  0.0000000E+00;  3.4947443E-01;0;  1.6778380E-02;  1.8493674E+04;  0.0000000E+00; -8.0052642E-03;  4.0000000E+04;  0.0000000E+00;  3.9730441E+04;  2.5065182E-02;  0.0000000E+00; -8.2868012E-03;  5.9348267E+02;
  8.1049520E-01;  9.9999998E-03;  7.0329629E-02;7241; -7.6158419E-03;  0.0000000E+00; -1.6060810E-03;  9.9967395E+02;  1.5259784E-01; -2.7011578E+02;3;  2.6255786E+00;  0.0000000E+00;  2.3214047E-01;0; -1.2064792E-02;  1.7281062E+04;  0.0000000E+00; -4.1399664E-01;  4.0000000E+04;  0.0000000E+00;  3.9706777E+04;  9.0593863E-03;  0.0000000E+00; -2.1124179E-02;  1.2552631E+03;
  8.1049067E-01;  9.9999998E-03;  8.0324054E-02;7242; -7.5074509E-03;  0.0000000E+00; -1.8095659E-03;  9.9974274E+02;  1.5260272E-01; -2.1312976E+02;3;  2.6417778E+00;  0.0000000E+00;  2.6032534E-01;0; -1.1507337E-02;  1.7284377E+04;  0.0000000E+00; -5.0932837E-01;  4.0000000E+04;  0.0000000E+00;  3.9708547E+04;  9.0716938E-03;  0.0000000E+00; -2.0579031E-02;  1.4270757E+03;
  8.1049871E-01;  9.9999998E-03;  9.0317845E-02;7243; -7.3881112E-03;  0.0000000E+00; -2.0034795E-03;  9.9982928E+02;  1.5261720E-01; -1.4142809E+02;3;  2.6535687E+00;  0.0000000E+00;  2.8966248E-01;0; -1.0848817E-02;  1.7286525E+04;  0.0000000E+00; -5.9884995E-01;  4.0000000E+04;  0.0000000E+00;  3.9710004E+04;  9.1440259E-03;  0.0000000E+00; -1.9992843E-02;  1.6377965E+03;
  8.1052500E-01;  9.9999998E-03;  1.0030637E-01;7244; -7.2602760E-03;  0.0000000E+00; -2.1881619E-03;  9.9992700E+02;  1.5264413E-01; -6.0492111E+01;3;  2.6635144E+00;  0.0000000E+00;  3.1655118E-01;0; -1.0076443E-02;  1.7286652E+04;  0.0000000E+00; -6.7756891E-01;  4.0000000E+04;  0.0000000E+00;  3.9710582E+04;  9.2975609E-03;  0.0000000E+00; -1.9374004E-02;  1.8383329E+03;
  8.1048012E-01;  9.9999998E-03;  1.1030861E-01;7245; -7.1277339E-03;  0.0000000E+00; -2.3632548E-03;  1.0000259E+03;  1.5265442E-01;  2.1530254E+01;3;  2.6682756E+00;  0.0000000E+00;  3.4289566E-01;0; -9.1763316E-03;  1.7290775E+04;  0.0000000E+00; -7.4080026E-01;  4.0000000E+04;  0.0000000E+00;  3.9709828E+04;  9.5413560E-03;  0.0000000E+00; -1.8717688E-02;  2.0027816E+03;
  8.1037879E-01;  9.9999998E-03;  1.2034315E-01;7246; -6.9924803E-03;  0.0000000E+00; -2.5297673E-03;  1.0001163E+03;  1.5264933E-01;  9.6293564E+01;3;  2.6665335E+00;  0.0000000E+00;  3.6900628E-01;0; -8.1227943E-03;  1.7298137E+04;  0.0000000E+00; -7.8278452E-01;  4.0000000E+04;  0.0000000E+00;  3.9708020E+04;  9.9042598E-03;  0.0000000E+00; -1.8027054E-02;  2.1327432E+03;
  8.1027538E-01;  9.9999998E-03;  1.3039654E-01;7247; -6.8568839E-03;  0.0000000E+00; -2.6897818E-03;  1.0002139E+03;  1.5264326E-01;  1.7718016E+02;3;  2.6551433E+00;  0.0000000E+00;  3.8508698E-01;0; -6.8842229E-03;  1.7305518E+04;  0.0000000E+00; -7.9638910E-01;  4.0000000E+04;  0.0000000E+00;  3.9705848E+04;  1.0422207E-02;  0.0000000E+00; -1.7306430E-02;  2.2274409E+03;
  8.1015962E-01;  9.9999998E-03;  1.4045900E-01;7248; -6.7216419E-03;  0.0000000E+00; -2.8420158E-03;  1.0003126E+03;  1.5262903E-01;  2.5895563E+02;3;  2.6374900E+00;  0.0000000E+00;  4.0537104E-01;0; -5.4271957E-03;  1.7313721E+04;  0.0000000E+00; -7.7514368E-01;  4.0000000E+04;  0.0000000E+00;  3.9703992E+04;  1.1121315E-02;  0.0000000E+00; -1.6548511E-02;  2.2637783E+03;
  8.1008142E-01;  9.9999998E-03;  1.5053076E-01;7249; -6.5902798E-03;  0.0000000E+00; -2.9890442E-03;  1.0004093E+03;  1.5262471E-01;  3.3905212E+02;3;  2.5836549E+00;  0.0000000E+00;  4.1418332E-01;0; -3.7088171E-03;  1.7318354E+04;  0.0000000E+00; -7.1431935E-01;  4.0000000E+04;  0.0000000E+00;  3.9702656E+04;  1.2037849E-02;  0.0000000E+00; -1.5746666E-02;  2.2013982E+03;
  8.1011152E-01;  9.9999998E-03;  1.6061282E-01;7250; -6.4679151E-03;  0.0000000E+00; -3.1327945E-03;  1.0005074E+03;  1.5265697E-01;  4.2033377E+02;3;  2.5049210E+00;  0.0000000E+00;  4.2083213E-01;0; -1.6906494E-03;  1.7312818E+04;  0.0000000E+00; -6.1217171E-01;  4.0000000E+04;  0.0000000E+00;  3.9702277E+04;  1.3209684E-02;  0.0000000E+00; -1.4900333E-02;  2.0020139E+03;
  8.1027627E-01;  9.9999998E-03;  1.7070304E-01;7251; -6.3656596E-03;  0.0000000E+00; -3.2807218E-03;  1.0005886E+03;  1.5273334E-01;  4.8768988E+02;3;  2.3889759E+00;  0.0000000E+00;  4.0961620E-01;0;  6.4754672E-04;  1.7295154E+04;  0.0000000E+00; -4.7344407E-01;  4.0000000E+04;  0.0000000E+00;  3.9702562E+04;  1.4660177E-02;  0.0000000E+00; -1.4012630E-02;  1.6654349E+03;
  8.1056511E-01;  9.9999998E-03;  1.8079177E-01;7252; -6.2717912E-03;  0.0000000E+00; -3.4304077E-03;  1.0006464E+03;  1.5284823E-01;  5.3558972E+02;3;  2.3008361E+00;  0.0000000E+00;  4.1520998E-01;0;  3.3018170E-03;  1.7266613E+04;  0.0000000E+00; -3.1120178E-01;  4.0000000E+04;  0.0000000E+00;  3.9703141E+04;  1.6391803E-02;  0.0000000E+00; -1.3089986E-02;  1.2666353E+03;
  8.1093901E-01;  9.9999998E-03;  1.9087124E-01;7253; -6.1507174E-03;  0.0000000E+00; -3.5762812E-03;  1.0006495E+03;  1.5298550E-01;  5.3815759E+02;3;  2.2048860E+00;  0.0000000E+00;  4.0196484E-01;0;  6.2440205E-03;  1.7231010E+04;  0.0000000E+00; -1.4330533E-01;  4.0000000E+04;  0.0000000E+00;  3.9702664E+04;  1.8382985E-02;  0.0000000E+00; -1.2138965E-02;  9.7918860E+02;
  8.1137234E-01;  9.9999998E-03;  2.0092456E-01;7254; -5.9944778E-03;  0.0000000E+00; -3.7241392E-03;  1.0005876E+03;  1.5313484E-01;  4.8680103E+02;3;  2.1451774E+00;  0.0000000E+00;  4.0982082E-01;0;  9.4228117E-03;  1.7190725E+04;  0.0000000E+00;  1.2683162E-02;  4.0000000E+04;  0.0000000E+00;  3.9701301E+04;  2.0594902E-02;  0.0000000E+00; -1.1172091E-02;  9.9133917E+02;
  8.1180930E-01;  9.9999998E-03;  2.1095853E-01;7255; -5.7829274E-03;  0.0000000E+00; -3.8756090E-03;  1.0004577E+03;  1.5327872E-01;  3.7914975E+02;3;  2.1397033E+00;  0.0000000E+00;  4.2206258E-01;0;  1.2762984E-02;  1.7149891E+04;  0.0000000E+00;  1.4243987E-01;  4.0000000E+04;  0.0000000E+00;  3.9698336E+04;  2.2972761E-02;  0.0000000E+00; -1.0209776E-02;  1.3127345E+03;
  8.1220585E-01;  9.9999998E-03;  2.2096424E-01;7256; -5.5052317E-03;  0.0000000E+00; -4.0421574E-03;  1.0002841E+03;  1.5340507E-01;  2.3535135E+02;3;  2.1545730E+00;  0.0000000E+00;  4.2386827E-01;0;  1.6130570E-02;  1.7111809E+04;  0.0000000E+00;  2.3453896E-01;  4.0000000E+04;  0.0000000E+00;  3.9696652E+04;  2.5449764E-02;  0.0000000E+00; -9.3191927E-03;  1.5339926E+03;
  8.1253558E-01;  9.9999998E-03;  2.3094940E-01;7257; -5.0991806E-03;  0.0000000E+00; -4.1559967E-03;  1.0001259E+03;  1.5350166E-01;  1.0429333E+02;3;  2.2360158E+00;  0.0000000E+00;  4.4094875E-01;0;  1.9524118E-02;  1.7079545E+04;  0.0000000E+00;  2.8399193E-01;  4.0000000E+04;  0.0000000E+00;  3.9699742E+04;  2.7954554E-02;  0.0000000E+00; -8.4304363E-03;  1.1958557E+03;
  8.2500708E-01;  9.9999998E-03;  7.0406497E-02;7302; -7.5219735E-03;  0.0000000E+00; -1.7674635E-03;  9.9887219E+02;  1.5876471E-01; -9.3434387E+02;3;  2.7157319E+00;  0.0000000E+00;  2.3762040E-01;0; -1.0902016E-02;  1.5963944E+04;  0.0000000E+00; -5.0753558E-01;  4.0000000E+04;  0.0000000E+00;  3.9677516E+04;  1.1928226E-02;  0.0000000E+00; -2.2830242E-02;  1.6678988E+03;
  8.2505703E-01;  9.9999998E-03;  1.3041437E-01;7308; -6.7632864E-03;  0.0000000E+00; -2.9358165E-03;  9.9953888E+02;  1.5894768E-01; -3.8201385E+02;3;  2.7438855E+00;  0.0000000E+00;  4.0706977E-01;0; -5.5284714E-03;  1.5949937E+04;  0.0000000E+00; -8.7648857E-01;  4.0000000E+04;  0.0000000E+00;  3.9679852E+04;  1.3187523E-02;  0.0000000E+00; -1.8715994E-02;  2.3338237E+03;
  8.2512468E-01;  9.9999998E-03;  1.2035888E-01;7307; -6.9086025E-03;  0.0000000E+00; -2.7673640E-03;  9.9940259E+02;  1.5894744E-01; -4.9494891E+02;3;  2.7451370E+00;  0.0000000E+00;  3.7971863E-01;0; -6.8387855E-03;  1.5945466E+04;  0.0000000E+00; -8.9636147E-01;  4.0000000E+04;  0.0000000E+00;  3.9681590E+04;  1.2669915E-02;  0.0000000E+00; -1.9508701E-02;  2.4587847E+03;
  8.2507628E-01;  9.9999998E-03;  1.4049934E-01;7309; -6.6131493E-03;  0.0000000E+00; -3.0982820E-03;  9.9968506E+02;  1.5897925E-01; -2.6093088E+02;3;  2.7267220E+00;  0.0000000E+00;  4.2867407E-01;0; -3.9680544E-03;  1.5947755E+04;  0.0000000E+00; -8.2524467E-01;  4.0000000E+04;  0.0000000E+00;  3.9677980E+04;  1.3916271E-02;  0.0000000E+00; -1.7884325E-02;  2.1373499E+03;
  8.2516283E-01;  9.9999998E-03;  8.0403775E-02;7303; -7.4176728E-03;  0.0000000E+00; -1.9922862E-03;  9.9896417E+02;  1.5884319E-01; -8.5814850E+02;3;  2.7236586E+00;  0.0000000E+00;  2.6533309E-01;0; -1.0334027E-02;  1.5950998E+04;  0.0000000E+00; -6.2892479E-01;  4.0000000E+04;  0.0000000E+00;  3.9679613E+04;  1.1933004E-02;  0.0000000E+00; -2.2267031E-02;  1.9104623E+03;
  8.2511681E-01;  9.9999998E-03;  1.5059771E-01;7310; -6.4562280E-03;  0.0000000E+00; -3.2509649E-03;  9.9982623E+02;  1.5901192E-01; -1.4394653E+02;3;  2.7245629E+00;  0.0000000E+00;  4.5744720E-01;0; -2.1320740E-03;  1.5943732E+04;  0.0000000E+00; -7.5170290E-01;  4.0000000E+04;  0.0000000E+00;  3.9676945E+04;  1.4864287E-02;  0.0000000E+00; -1.6996361E-02;  1.8848275E+03;
  8.2514995E-01;  9.9999998E-03;  1.6069163E-01;7311; -6.2921527E-03;  0.0000000E+00; -3.3955530E-03;  9.9993762E+02;  1.5903653E-01; -5.1702236E+01;3;  2.6820781E+00;  0.0000000E+00;  4.6836203E-01;0; -5.4873526E-06;  1.5939448E+04;  0.0000000E+00; -6.6410983E-01;  4.0000000E+04;  0.0000000E+00;  3.9676785E+04;  1.6041474E-02;  0.0000000E+00; -1.6046962E-02;  1.5771501E+03;
  8.2528108E-01;  9.9999998E-03;  9.0384640E-02;7304; -7.3022693E-03;  0.0000000E+00; -2.2045425E-03;  9.9906329E+02;  1.5892063E-01; -7.7602740E+02;3;  2.7319617E+00;  0.0000000E+00;  2.9429826E-01;0; -9.6589578E-03;  1.5939127E+04;  0.0000000E+00; -7.3896652E-01;  4.0000000E+04;  0.0000000E+00;  3.9681520E+04;  1.1992040E-02;  0.0000000E+00; -2.1650998E-02;  2.1743218E+03;
  8.2529604E-01;  9.9999998E-03;  1.1033642E-01;7306; -7.0462325E-03;  0.0000000E+00; -2.5913245E-03;  9.9928479E+02;  1.5898912E-01; -5.9252643E+02;3;  2.7463195E+00;  0.0000000E+00;  3.5376504E-01;0; -7.9316413E-03;  1.5933061E+04;  0.0000000E+00; -8.7964207E-01;  4.0000000E+04;  0.0000000E+00;  3.9682359E+04;  1.2341638E-02;  0.0000000E+00; -2.0273279E-02;  2.4837534E+03;
  8.2522887E-01;  9.9999998E-03;  1.7077215E-01;7312; -6.1192764E-03;  0.0000000E+00; -3.5336704E-03;  1.0000314E+03;  1.5906936E-01;  2.5974571E+01;3;  2.6538055E+00;  0.0000000E+00;  4.8334289E-01;0;  2.4175616E-03;  1.5931147E+04;  0.0000000E+00; -5.6715763E-01;  4.0000000E+04;  0.0000000E+00;  3.9677703E+04;  1.7463796E-02;  0.0000000E+00; -1.5046234E-02;  1.2203802E+03;
  8.2539594E-01;  9.9999998E-03;  1.0034773E-01;7305; -7.1774321E-03;  0.0000000E+00; -2.4048013E-03;  9.9917480E+02;  1.5899917E-01; -6.8363495E+02;3;  2.7427139E+00;  0.0000000E+00;  3.2315341E-01;0; -8.8577857E-03;  1.5927098E+04;  0.0000000E+00; -8.2579494E-01;  4.0000000E+04;  0.0000000E+00;  3.9682414E+04;  1.2135872E-02;  0.0000000E+00; -2.0993657E-02;  2.3855571E+03;
  8.2537138E-01;  9.9999998E-03;  1.8084241E-01;7313; -5.9356564E-03;  0.0000000E+00; -3.6699797E-03;  1.0000770E+03;  1.5911798E-01;  6.3800659E+01;3;  2.5833070E+00;  0.0000000E+00;  4.9071455E-01;0;  5.1238714E-03;  1.5917868E+04;  0.0000000E+00; -4.5878786E-01;  4.0000000E+04;  0.0000000E+00;  3.9678859E+04;  1.9125883E-02;  0.0000000E+00; -1.4002011E-02;  8.3337140E+02;
  8.2559359E-01;  9.9999998E-03;  1.9090329E-01;7314; -5.7307449E-03;  0.0000000E+00; -3.8060457E-03;  1.0000695E+03;  1.5918748E-01;  5.7578613E+01;3;  2.5343404E+00;  0.0000000E+00;  4.8515010E-01;0;  8.0850590E-03;  1.5898371E+04;  0.0000000E+00; -3.3001226E-01;  4.0000000E+04;  0.0000000E+00;  3.9679527E+04;  2.1005668E-02;  0.0000000E+00; -1.2920609E-02;  4.4706161E+02;
  8.2591075E-01;  9.9999998E-03;  2.0093842E-01;7315; -5.4844893E-03;  0.0000000E+00; -3.9419765E-03;  1.0000055E+03;  1.5928763E-01;  4.5430813E+00;3;  2.5160806E+00;  0.0000000E+00;  4.9964184E-01;0;  1.1254092E-02;  1.5871346E+04;  0.0000000E+00; -1.6886380E-01;  4.0000000E+04;  0.0000000E+00;  3.9679707E+04;  2.3062859E-02;  0.0000000E+00; -1.1808767E-02;  2.1894278E+02;
  8.2622784E-01;  9.9999998E-03;  2.1096613E-01;7316; -5.1460015E-03;  0.0000000E+00; -4.0665269E-03;  9.9986780E+02;  1.5937988E-01; -1.0952776E+02;3;  2.5620911E+00;  0.0000000E+00;  5.1439577E-01;0;  1.4580166E-02;  1.5844234E+04;  0.0000000E+00;  3.9224062E-02;  4.0000000E+04;  0.0000000E+00;  3.9679836E+04;  2.5236735E-02;  0.0000000E+00; -1.0656569E-02;  6.6473981E+02;
  8.2648969E-01;  9.9999998E-03;  2.2099355E-01;7317; -4.7076354E-03;  0.0000000E+00; -4.1959384E-03;  9.9967133E+02;  1.5944427E-01; -2.7228857E+02;3;  2.6643269E+00;  0.0000000E+00;  5.4345810E-01;0;  1.7977141E-02;  1.5821324E+04;  0.0000000E+00;  3.0197111E-01;  4.0000000E+04;  0.0000000E+00;  3.9679359E+04;  2.7467685E-02;  0.0000000E+00; -9.4905430E-03;  1.3326791E+03;
  8.2660925E-01;  9.9999998E-03;  2.3100692E-01;7318; -4.1451724E-03;  0.0000000E+00; -4.3140627E-03;  9.9945166E+02;  1.5945144E-01; -4.5430811E+02;3;  2.8105996E+00;  0.0000000E+00;  5.6865859E-01;0;  2.1359010E-02;  1.5809333E+04;  0.0000000E+00;  6.1165923E-01;  4.0000000E+04;  0.0000000E+00;  3.9680504E+04;  2.9690033E-02;  0.0000000E+00; -8.3310232E-03;  2.1002512E+03;
  8.4157747E-01;  9.9999998E-03;  7.0436858E-02;7363; -7.4514416E-03;  0.0000000E+00; -1.9411275E-03;  9.9866980E+02;  1.6597660E-01; -1.1020428E+03;3;  2.8044276E+00;  0.0000000E+00;  2.3737781E-01;0; -8.2497932E-03;  1.4631470E+04;  0.0000000E+00; -5.1644719E-01;  4.0000000E+04;  0.0000000E+00;  3.9647004E+04;  1.6703892E-02;  0.0000000E+00; -2.4953686E-02;  1.7261554E+03;
  8.4157121E-01;  9.9999998E-03;  8.0505215E-02;7364; -7.3581198E-03;  0.0000000E+00; -2.1899014E-03;  9.9872125E+02;  1.6598874E-01; -1.0594268E+03;3;  2.8070450E+00;  0.0000000E+00;  2.7203348E-01;0; -7.6974481E-03;  1.4628526E+04;  0.0000000E+00; -6.4254880E-01;  4.0000000E+04;  0.0000000E+00;  3.9648723E+04;  1.6645547E-02;  0.0000000E+00; -2.4342995E-02;  1.9966475E+03;
  8.4159040E-01;  9.9999998E-03;  9.0548225E-02;7365; -7.2543430E-03;  0.0000000E+00; -2.4251288E-03;  9.9878717E+02;  1.6601647E-01; -1.0048110E+03;3;  2.8087809E+00;  0.0000000E+00;  3.0353609E-01;0; -7.0221014E-03;  1.4623202E+04;  0.0000000E+00; -7.5551623E-01;  4.0000000E+04;  0.0000000E+00;  3.9650770E+04;  1.6656790E-02;  0.0000000E+00; -2.3678891E-02;  2.2608528E+03;
  8.4163624E-01;  9.9999998E-03;  1.0057227E-01;7366; -7.1401373E-03;  0.0000000E+00; -2.6465498E-03;  9.9885852E+02;  1.6606075E-01; -9.4570160E+02;3;  2.8055449E+00;  0.0000000E+00;  3.3634853E-01;0; -6.2084775E-03;  1.4615308E+04;  0.0000000E+00; -8.4022206E-01;  4.0000000E+04;  0.0000000E+00;  3.9652129E+04;  1.6758459E-02;  0.0000000E+00; -2.2966936E-02;  2.4402219E+03;
  8.4166300E-01;  9.9999998E-03;  1.1056773E-01;7367; -7.0158099E-03;  0.0000000E+00; -2.8544518E-03;  9.9893756E+02;  1.6610029E-01; -8.8022192E+02;3;  2.8057475E+00;  0.0000000E+00;  3.6716235E-01;0; -5.2505136E-03;  1.4608727E+04;  0.0000000E+00; -8.8497615E-01;  4.0000000E+04;  0.0000000E+00;  3.9652555E+04;  1.6954949E-02;  0.0000000E+00; -2.2205463E-02;  2.4613491E+03;
  8.4160173E-01;  9.9999998E-03;  1.2057823E-01;7368; -6.8813968E-03;  0.0000000E+00; -3.0494006E-03;  9.9902051E+02;  1.6610277E-01; -8.1148315E+02;3;  2.8038368E+00;  0.0000000E+00;  3.9806291E-01;0; -4.1390527E-03;  1.4608360E+04;  0.0000000E+00; -8.8716018E-01;  4.0000000E+04;  0.0000000E+00;  3.9652035E+04;  1.7244237E-02;  0.0000000E+00; -2.1383289E-02;  2.3036995E+03;
  8.4141785E-01;  9.9999998E-03;  1.3060102E-01;7369; -6.7381859E-03;  0.0000000E+00; -3.2318507E-03;  9.9910577E+02;  1.6605966E-01; -7.4086786E+02;3;  2.8002231E+00;  0.0000000E+00;  4.2595184E-01;0; -2.8574709E-03;  1.4616394E+04;  0.0000000E+00; -8.5430491E-01;  4.0000000E+04;  0.0000000E+00;  3.9651215E+04;  1.7636666E-02;  0.0000000E+00; -2.0494137E-02;  2.0080323E+03;
  8.4108460E-01;  9.9999998E-03;  1.4063293E-01;7370; -6.5848986E-03;  0.0000000E+00; -3.4010857E-03;  9.9918750E+02;  1.6595390E-01; -6.7311670E+02;3;  2.7968256E+00;  0.0000000E+00;  4.5355746E-01;0; -1.3830923E-03;  1.4634903E+04;  0.0000000E+00; -8.0291945E-01;  4.0000000E+04;  0.0000000E+00;  3.9650555E+04;  1.8146697E-02;  0.0000000E+00; -1.9529790E-02;  1.6554546E+03;
  8.4076709E-01;  9.9999998E-03;  1.5067156E-01;7371; -6.4222259E-03;  0.0000000E+00; -3.5623661E-03;  9.9927612E+02;  1.6584441E-01; -5.9973608E+02;3;  2.7685206E+00;  0.0000000E+00;  4.6876076E-01;0;  3.4558959E-04;  1.4653486E+04;  0.0000000E+00; -7.5441664E-01;  4.0000000E+04;  0.0000000E+00;  3.9650344E+04;  1.8846571E-02;  0.0000000E+00; -1.8500982E-02;  1.3262899E+03;
  8.4056187E-01;  9.9999998E-03;  1.6070157E-01;7372; -6.2466366E-03;  0.0000000E+00; -3.7156967E-03;  9.9936438E+02;  1.6576853E-01; -5.2660236E+02;3;  2.7543123E+00;  0.0000000E+00;  4.9265277E-01;0;  2.3557991E-03;  1.4665521E+04;  0.0000000E+00; -7.2587466E-01;  4.0000000E+04;  0.0000000E+00;  3.9650871E+04;  1.9773163E-02;  0.0000000E+00; -1.7417364E-02;  1.0677966E+03;
  8.4053522E-01;  9.9999998E-03;  1.7072561E-01;7373; -6.0490901E-03;  0.0000000E+00; -3.8655133E-03;  9.9943768E+02;  1.6575176E-01; -4.6586334E+02;3;  2.7203481E+00;  0.0000000E+00;  5.0115907E-01;0;  4.6495069E-03;  1.4666169E+04;  0.0000000E+00; -7.1928477E-01;  4.0000000E+04;  0.0000000E+00;  3.9652020E+04;  2.0940416E-02;  0.0000000E+00; -1.6290909E-02;  8.8368860E+02;
  8.4186518E-01;  9.9999998E-03;  2.3105986E-01;7379; -3.4986590E-03;  0.0000000E+00; -4.6534026E-03;  9.9888562E+02;  1.6596593E-01; -9.2323309E+02;3;  3.2176006E+00;  0.0000000E+00;  5.9569198E-01;0;  2.2172224E-02;  1.4588406E+04;  0.0000000E+00;  6.2642354E-01;  4.0000000E+04;  0.0000000E+00;  3.9660777E+04;  3.0938111E-02;  0.0000000E+00; -8.7658865E-03;  2.9996968E+03;
  8.4066272E-01;  9.9999998E-03;  1.8075089E-01;7374; -5.8326959E-03;  0.0000000E+00; -4.0140240E-03;  9.9948730E+02;  1.6578287E-01; -4.2477808E+02;3;  2.7118385E+00;  0.0000000E+00;  5.2014083E-01;0;  7.1925819E-03;  1.4657077E+04;  0.0000000E+00; -7.1507949E-01;  4.0000000E+04;  0.0000000E+00;  3.9653844E+04;  2.2319023E-02;  0.0000000E+00; -1.5126441E-02;  7.6491693E+02;
  8.4088475E-01;  9.9999998E-03;  1.9078627E-01;7375; -5.5654380E-03;  0.0000000E+00; -4.1580135E-03;  9.9950385E+02;  1.6583617E-01; -4.1105008E+02;3;  2.7033632E+00;  0.0000000E+00;  5.1110309E-01;0;  9.9444631E-03;  1.4642729E+04;  0.0000000E+00; -6.7393577E-01;  4.0000000E+04;  0.0000000E+00;  3.9656773E+04;  2.3869034E-02;  0.0000000E+00; -1.3924571E-02;  7.7184570E+02;
  8.4165210E-01;  9.9999998E-03;  2.2100222E-01;7378; -4.2016185E-03;  0.0000000E+00; -4.5076911E-03;  9.9917792E+02;  1.6594769E-01; -6.8106708E+02;3;  3.0090268E+00;  0.0000000E+00;  5.7816547E-01;0;  1.9101663E-02;  1.4600376E+04;  0.0000000E+00;  1.0154366E-01;  4.0000000E+04;  0.0000000E+00;  3.9662836E+04;  2.9129777E-02;  0.0000000E+00; -1.0028115E-02;  1.9897112E+03;
  8.4114391E-01;  9.9999998E-03;  2.0082752E-01;7376; -5.2471221E-03;  0.0000000E+00; -4.2948085E-03;  9.9948547E+02;  1.6588798E-01; -4.2625952E+02;3;  2.7183423E+00;  0.0000000E+00;  5.2625346E-01;0;  1.2854298E-02;  1.4627276E+04;  0.0000000E+00; -5.4777259E-01;  4.0000000E+04;  0.0000000E+00;  3.9661688E+04;  2.5539845E-02;  0.0000000E+00; -1.2685548E-02;  1.1102654E+03;
  8.4139889E-01;  9.9999998E-03;  2.1090084E-01;7377; -4.8031434E-03;  0.0000000E+00; -4.3969862E-03;  9.9939740E+02;  1.6592273E-01; -4.9924509E+02;3;  2.8246961E+00;  0.0000000E+00;  5.4773802E-01;0;  1.5926030E-02;  1.4613535E+04;  0.0000000E+00; -2.9471764E-01;  4.0000000E+04;  0.0000000E+00;  3.9665105E+04;  2.7305385E-02;  0.0000000E+00; -1.1379356E-02;  1.6435336E+03;
  8.5947555E-01;  9.9999998E-03;  7.0438169E-02;7424; -7.3166783E-03;  0.0000000E+00; -2.1101173E-03;  9.9940851E+02;  1.7421354E-01; -4.9006018E+02;3;  2.8916023E+00;  0.0000000E+00;  2.3846649E-01;0; -3.0057859E-03;  1.3330005E+04;  0.0000000E+00; -4.4404319E-01;  4.0000000E+04;  0.0000000E+00;  3.9614516E+04;  2.4434490E-02;  0.0000000E+00; -2.7440276E-02;  1.4475637E+03;
  8.5955954E-01;  9.9999998E-03;  8.0549419E-02;7425; -7.2404882E-03;  0.0000000E+00; -2.3885143E-03;  9.9939642E+02;  1.7423300E-01; -5.0003522E+02;3;  2.8889437E+00;  0.0000000E+00;  2.7177316E-01;0; -2.3953021E-03;  1.3322469E+04;  0.0000000E+00; -5.5863142E-01;  4.0000000E+04;  0.0000000E+00;  3.9616105E+04;  2.4445647E-02;  0.0000000E+00; -2.6840949E-02;  1.6822039E+03;
  8.5966289E-01;  9.9999998E-03;  9.0633929E-02;7426; -7.1545662E-03;  0.0000000E+00; -2.6539168E-03;  9.9940686E+02;  1.7426743E-01; -4.9139346E+02;3;  2.8823013E+00;  0.0000000E+00;  3.0562815E-01;0; -1.6646888E-03;  1.3313173E+04;  0.0000000E+00; -6.6323280E-01;  4.0000000E+04;  0.0000000E+00;  3.9617785E+04;  2.4511153E-02;  0.0000000E+00; -2.6175842E-02;  1.8998351E+03;
  8.5977519E-01;  9.9999998E-03;  1.0070608E-01;7427; -7.0568230E-03;  0.0000000E+00; -2.9058531E-03;  9.9943689E+02;  1.7430921E-01; -4.6650528E+02;3;  2.8758416E+00;  0.0000000E+00;  3.3744246E-01;0; -8.0974959E-04;  1.3302864E+04;  0.0000000E+00; -7.4282593E-01;  4.0000000E+04;  0.0000000E+00;  3.9619008E+04;  2.4635673E-02;  0.0000000E+00; -2.5445422E-02;  2.0192562E+03;
  8.5983956E-01;  9.9999998E-03;  1.1075259E-01;7428; -6.9467695E-03;  0.0000000E+00; -3.1436807E-03;  9.9948163E+02;  1.7433612E-01; -4.2946930E+02;3;  2.8751314E+00;  0.0000000E+00;  3.7007871E-01;0;  1.5379488E-04;  1.3295690E+04;  0.0000000E+00; -7.8709382E-01;  4.0000000E+04;  0.0000000E+00;  3.9619242E+04;  2.4797399E-02;  0.0000000E+00; -2.4643604E-02;  1.9646814E+03;
  8.5979605E-01;  9.9999998E-03;  1.2079798E-01;7429; -6.8249879E-03;  0.0000000E+00; -3.3678885E-03;  9.9953424E+02;  1.7432062E-01; -3.8586560E+02;3;  2.8692956E+00;  0.0000000E+00;  4.0639135E-01;0;  1.2139808E-03;  1.3295475E+04;  0.0000000E+00; -7.9628748E-01;  4.0000000E+04;  0.0000000E+00;  3.9618664E+04;  2.4972882E-02;  0.0000000E+00; -2.3758901E-02;  1.7220331E+03;
  8.5958725E-01;  9.9999998E-03;  1.3083801E-01;7430; -6.6904272E-03;  0.0000000E+00; -3.5777730E-03;  9.9958704E+02;  1.7424043E-01; -3.4211377E+02;3;  2.8692603E+00;  0.0000000E+00;  4.3700275E-01;0;  2.3624059E-03;  1.3305408E+04;  0.0000000E+00; -7.8399742E-01;  4.0000000E+04;  0.0000000E+00;  3.9617906E+04;  2.5142886E-02;  0.0000000E+00; -2.2780480E-02;  1.3600358E+03;
  8.5938406E-01;  9.9999998E-03;  1.4089043E-01;7431; -6.5403502E-03;  0.0000000E+00; -3.7785859E-03;  9.9964636E+02;  1.7416249E-01; -2.9297934E+02;3;  2.8541207E+00;  0.0000000E+00;  4.5619592E-01;0;  3.6829114E-03;  1.3315436E+04;  0.0000000E+00; -7.7684945E-01;  4.0000000E+04;  0.0000000E+00;  3.9617418E+04;  2.5406199E-02;  0.0000000E+00; -2.1723287E-02;  1.0040272E+03;
  8.5922819E-01;  9.9999998E-03;  1.5093356E-01;7432; -6.3740322E-03;  0.0000000E+00; -3.9721751E-03;  9.9971289E+02;  1.7409915E-01; -2.3786980E+02;3;  2.8431888E+00;  0.0000000E+00;  4.7671586E-01;0;  5.2005481E-03;  1.3323241E+04;  0.0000000E+00; -8.0622202E-01;  4.0000000E+04;  0.0000000E+00;  3.9617086E+04;  2.5786074E-02;  0.0000000E+00; -2.0585526E-02;  7.7684070E+02;
  8.5913706E-01;  9.9999998E-03;  1.6096334E-01;7433; -6.1841700E-03;  0.0000000E+00; -4.1586398E-03;  9.9976929E+02;  1.7405540E-01; -1.9115508E+02;3;  2.8349051E+00;  0.0000000E+00;  4.8540547E-01;0;  6.9188084E-03;  1.3327640E+04;  0.0000000E+00; -8.9478332E-01;  4.0000000E+04;  0.0000000E+00;  3.9617449E+04;  2.6289467E-02;  0.0000000E+00; -1.9370658E-02;  7.3326294E+02;
  8.5910630E-01;  9.9999998E-03;  1.7098008E-01;7434; -5.9716878E-03;  0.0000000E+00; -4.3455376E-03;  9.9980933E+02;  1.7402758E-01; -1.5797083E+02;3;  2.8347905E+00;  0.0000000E+00;  4.9416685E-01;0;  8.8161509E-03;  1.3329173E+04;  0.0000000E+00; -1.0408823E+00;  4.0000000E+04;  0.0000000E+00;  3.9617965E+04;  2.6907662E-02;  0.0000000E+00; -1.8091511E-02;  9.0627844E+02;
  8.5909182E-01;  9.9999998E-03;  1.8099116E-01;7435; -5.7089431E-03;  0.0000000E+00; -4.5209499E-03;  9.9980756E+02;  1.7399618E-01; -1.5945227E+02;3;  2.8588951E+00;  0.0000000E+00;  5.1012123E-01;0;  1.0862196E-02;  1.3330594E+04;  0.0000000E+00; -1.2099133E+00;  4.0000000E+04;  0.0000000E+00;  3.9619422E+04;  2.7624499E-02;  0.0000000E+00; -1.6762303E-02;  1.2634335E+03;
  8.5905308E-01;  9.9999998E-03;  1.9100751E-01;7436; -5.3915526E-03;  0.0000000E+00; -4.6958094E-03;  9.9975549E+02;  1.7393924E-01; -2.0256216E+02;3;  2.8778167E+00;  0.0000000E+00;  4.7858718E-01;0;  1.3028276E-02;  1.3334555E+04;  0.0000000E+00; -1.3386749E+00;  4.0000000E+04;  0.0000000E+00;  3.9621051E+04;  2.8428193E-02;  0.0000000E+00; -1.5399917E-02;  1.6242690E+03;
  8.5892141E-01;  9.9999998E-03;  2.0102321E-01;7437; -5.0067580E-03;  0.0000000E+00; -4.8613027E-03;  9.9965375E+02;  1.7383799E-01; -2.8685605E+02;3;  2.9339712E+00;  0.0000000E+00;  4.8857814E-01;0;  1.5278268E-02;  1.3344210E+04;  0.0000000E+00; -1.3422306E+00;  4.0000000E+04;  0.0000000E+00;  3.9624121E+04;  2.9302519E-02;  0.0000000E+00; -1.4024251E-02;  1.7491113E+03;
  8.5875624E-01;  9.9999998E-03;  2.1105118E-01;7438; -4.5070872E-03;  0.0000000E+00; -4.9935309E-03;  9.9950073E+02;  1.7371903E-01; -4.1361789E+02;3;  3.0616956E+00;  0.0000000E+00;  5.1463395E-01;0;  1.7638303E-02;  1.3355729E+04;  0.0000000E+00; -1.1526524E+00;  4.0000000E+04;  0.0000000E+00;  3.9627957E+04;  3.0281741E-02;  0.0000000E+00; -1.2643439E-02;  1.5356948E+03;
  8.5859990E-01;  9.9999998E-03;  2.2110541E-01;7439; -3.8484994E-03;  0.0000000E+00; -5.1059248E-03;  9.9925354E+02;  1.7360125E-01; -6.1845160E+02;3;  3.2669249E+00;  0.0000000E+00;  5.4922217E-01;0;  2.0114511E-02;  1.3365958E+04;  0.0000000E+00; -7.3735738E-01;  4.0000000E+04;  0.0000000E+00;  3.9629629E+04;  3.1381652E-02;  0.0000000E+00; -1.1267140E-02;  1.0844167E+03;
  8.5846835E-01;  9.9999998E-03;  2.3114476E-01;7440; -3.0487608E-03;  0.0000000E+00; -5.1837587E-03;  9.9896710E+02;  1.7350245E-01; -8.5572882E+02;3;  3.5441186E+00;  0.0000000E+00;  5.9618616E-01;0;  2.2712171E-02;  1.3373202E+04;  0.0000000E+00; -1.2143163E-01;  4.0000000E+04;  0.0000000E+00;  3.9632027E+04;  3.2569978E-02;  0.0000000E+00; -9.8578064E-03;  1.8605909E+03;
  8.7684894E-01;  9.9999998E-03;  7.0420921E-02;7485; -7.0130830E-03;  0.0000000E+00; -2.2604184E-03;  9.9994568E+02;  1.8259530E-01; -4.4986378E+01;3;  3.0660694E+00;  0.0000000E+00;  2.4274532E-01;0;  5.0706994E-03;  1.2165918E+04;  0.0000000E+00; -3.1327665E-01;  4.0000000E+04;  0.0000000E+00;  3.9583773E+04;  3.5056118E-02;  0.0000000E+00; -2.9985419E-02;  8.7456689E+02;
  8.7690085E-01;  9.9999998E-03;  8.0534741E-02;7486; -6.9625359E-03;  0.0000000E+00; -2.5665122E-03;  9.9991302E+02;  1.8260297E-01; -7.2047340E+01;3;  3.0547607E+00;  0.0000000E+00;  2.7530813E-01;0;  5.7339277E-03;  1.2159368E+04;  0.0000000E+00; -4.0817097E-01;  4.0000000E+04;  0.0000000E+00;  3.9584844E+04;  3.5138924E-02;  0.0000000E+00; -2.9404996E-02;  1.0164620E+03;
  8.7701440E-01;  9.9999998E-03;  9.0626977E-02;7487; -6.9008488E-03;  0.0000000E+00; -2.8623433E-03;  9.9990710E+02;  1.8264329E-01; -7.6985474E+01;3;  3.0434167E+00;  0.0000000E+00;  3.0905843E-01;0;  6.5247752E-03;  1.2148976E+04;  0.0000000E+00; -4.9971238E-01;  4.0000000E+04;  0.0000000E+00;  3.9586262E+04;  3.5279211E-02;  0.0000000E+00; -2.8754435E-02;  1.1485994E+03;
  8.7716132E-01;  9.9999998E-03;  1.0069513E-01;7488; -6.8262694E-03;  0.0000000E+00; -3.1467744E-03;  9.9992865E+02;  1.8270209E-01; -5.9109436E+01;3;  3.0284004E+00;  0.0000000E+00;  3.4143683E-01;0;  7.4214637E-03;  1.2136659E+04;  0.0000000E+00; -5.7552606E-01;  4.0000000E+04;  0.0000000E+00;  3.9586656E+04;  3.5451330E-02;  0.0000000E+00; -2.8029867E-02;  1.1941733E+03;
  8.7729526E-01;  9.9999998E-03;  1.1075343E-01;7489; -6.7373561E-03;  0.0000000E+00; -3.4196645E-03;  9.9996631E+02;  1.8275839E-01; -2.7900444E+01;3;  3.0149095E+00;  0.0000000E+00;  3.7191787E-01;0;  8.3913263E-03;  1.2125339E+04;  0.0000000E+00; -6.2776583E-01;  4.0000000E+04;  0.0000000E+00;  3.9586531E+04;  3.5613198E-02;  0.0000000E+00; -2.7221872E-02;  1.0853335E+03;
  8.7737280E-01;  9.9999998E-03;  1.2080668E-01;7490; -6.6307201E-03;  0.0000000E+00; -3.6813729E-03;  1.0000231E+03;  1.8279004E-01;  1.9159950E+01;3;  3.0066581E+00;  0.0000000E+00;  4.0018520E-01;0;  9.4040018E-03;  1.2118070E+04;  0.0000000E+00; -6.5881169E-01;  4.0000000E+04;  0.0000000E+00;  3.9585062E+04;  3.5723906E-02;  0.0000000E+00; -2.6319904E-02;  8.3117957E+02;
  8.7736005E-01;  9.9999998E-03;  1.3086163E-01;7491; -6.5040807E-03;  0.0000000E+00; -3.9328402E-03;  1.0000867E+03;  1.8278028E-01;  7.1899193E+01;3;  3.0010147E+00;  0.0000000E+00;  4.1989383E-01;0;  1.0438848E-02;  1.2117036E+04;  0.0000000E+00; -6.8456316E-01;  4.0000000E+04;  0.0000000E+00;  3.9583605E+04;  3.5751339E-02;  0.0000000E+00; -2.5312491E-02;  5.7676398E+02;
  8.7727064E-01;  9.9999998E-03;  1.4091547E-01;7492; -6.3550016E-03;  0.0000000E+00; -4.1750171E-03;  1.0001676E+03;  1.8273579E-01;  1.3886026E+02;3;  3.0050962E+00;  0.0000000E+00;  4.4549710E-01;0;  1.1507124E-02;  1.2121413E+04;  0.0000000E+00; -7.3196781E-01;  4.0000000E+04;  0.0000000E+00;  3.9582047E+04;  3.5701122E-02;  0.0000000E+00; -2.4193998E-02;  5.6125372E+02;
  8.7713736E-01;  9.9999998E-03;  1.5096307E-01;7493; -6.1755292E-03;  0.0000000E+00; -4.4069677E-03;  1.0002527E+03;  1.8266758E-01;  2.0937679E+02;3;  3.0148175E+00;  0.0000000E+00;  4.6465960E-01;0;  1.2635535E-02;  1.2129385E+04;  0.0000000E+00; -8.3044547E-01;  4.0000000E+04;  0.0000000E+00;  3.9581059E+04;  3.5597213E-02;  0.0000000E+00; -2.2961678E-02;  6.8139886E+02;
  8.7700582E-01;  9.9999998E-03;  1.6099933E-01;7494; -5.9628198E-03;  0.0000000E+00; -4.6330797E-03;  1.0003300E+03;  1.8259653E-01;  2.7337497E+02;3;  3.0247095E+00;  0.0000000E+00;  4.7553393E-01;0;  1.3849746E-02;  1.2137765E+04;  0.0000000E+00; -9.9953908E-01;  4.0000000E+04;  0.0000000E+00;  3.9581074E+04;  3.5476163E-02;  0.0000000E+00; -2.1626417E-02;  7.7380048E+02;
  8.7693971E-01;  9.9999998E-03;  1.7102508E-01;7495; -5.7034316E-03;  0.0000000E+00; -4.8529943E-03;  1.0003791E+03;  1.8255207E-01;  3.1406516E+02;3;  3.0476615E+00;  0.0000000E+00;  4.7703886E-01;0;  1.5177747E-02;  1.2142687E+04;  0.0000000E+00; -1.2358370E+00;  4.0000000E+04;  0.0000000E+00;  3.9581488E+04;  3.5394009E-02;  0.0000000E+00; -2.0216262E-02;  1.0397816E+03;
  8.7693435E-01;  9.9999998E-03;  1.8104506E-01;7496; -5.3844154E-03;  0.0000000E+00; -5.0669680E-03;  1.0003926E+03;  1.8252812E-01;  3.2522534E+02;3;  3.0874712E+00;  0.0000000E+00;  4.7509933E-01;0;  1.6614832E-02;  1.2144342E+04;  0.0000000E+00; -1.5030887E+00;  4.0000000E+04;  0.0000000E+00;  3.9582527E+04;  3.5373472E-02;  0.0000000E+00; -1.8758640E-02;  1.6200585E+03;
  8.7695003E-01;  9.9999998E-03;  1.9106829E-01;7497; -4.9992255E-03;  0.0000000E+00; -5.2771196E-03;  1.0003452E+03;  1.8250306E-01;  2.8591782E+02;3;  3.1451163E+00;  0.0000000E+00;  4.4311824E-01;0;  1.8144179E-02;  1.2145363E+04;  0.0000000E+00; -1.7366422E+00;  4.0000000E+04;  0.0000000E+00;  3.9584254E+04;  3.5426110E-02;  0.0000000E+00; -1.7281931E-02;  2.2889971E+03;
  8.7696844E-01;  9.9999998E-03;  2.0110098E-01;7498; -4.5351270E-03;  0.0000000E+00; -5.4685338E-03;  1.0002353E+03;  1.8246873E-01;  1.9495743E+02;3;  3.2728794E+00;  0.0000000E+00;  4.6029630E-01;0;  1.9762971E-02;  1.2146622E+04;  0.0000000E+00; -1.8600720E+00;  4.0000000E+04;  0.0000000E+00;  3.9587074E+04;  3.5579436E-02;  0.0000000E+00; -1.5816465E-02;  2.7519495E+03;
  8.7697601E-01;  9.9999998E-03;  2.1114251E-01;7499; -3.9602052E-03;  0.0000000E+00; -5.6185052E-03;  1.0000505E+03;  1.8241715E-01;  4.1776592E+01;3;  3.4400976E+00;  0.0000000E+00;  4.8282695E-01;0;  2.1496974E-02;  1.2148396E+04;  0.0000000E+00; -1.8077503E+00;  4.0000000E+04;  0.0000000E+00;  3.9590680E+04;  3.5865404E-02;  0.0000000E+00; -1.4368431E-02;  2.8048794E+03;
  8.7696850E-01;  9.9999998E-03;  2.2120740E-01;7500; -3.2482892E-03;  0.0000000E+00; -5.7434016E-03;  9.9975769E+02;  1.8235548E-01; -2.0073505E+02;3;  3.6667898E+00;  0.0000000E+00;  5.3100145E-01;0;  2.3361258E-02;  1.2150309E+04;  0.0000000E+00; -1.5406260E+00;  4.0000000E+04;  0.0000000E+00;  3.9591957E+04;  3.6312550E-02;  0.0000000E+00; -1.2951293E-02;  2.3094766E+03;
  8.7689078E-01;  9.9999998E-03;  2.3125958E-01;7501; -2.4482822E-03;  0.0000000E+00; -5.8576143E-03;  9.9939520E+02;  1.8226853E-01; -5.0107220E+02;3;  3.9365938E+00;  0.0000000E+00;  5.7832837E-01;0;  2.5274178E-02;  1.2154917E+04;  0.0000000E+00; -1.0575051E+00;  4.0000000E+04;  0.0000000E+00;  3.9593375E+04;  3.6884986E-02;  0.0000000E+00; -1.1610808E-02;  1.4396454E+03;
  8.9579821E-01;  9.9999998E-03;  7.0379622E-02;7546; -6.4199814E-03;  0.0000000E+00; -2.4163595E-03;  9.9992535E+02;  1.9196421E-01; -6.1825409E+01;3;  3.2848496E+00;  0.0000000E+00;  2.3351224E-01;0;  1.7127763E-02;  1.1016333E+04;  0.0000000E+00; -1.7286538E-01;  4.0000000E+04;  0.0000000E+00;  3.9550211E+04;  4.9924590E-02;  0.0000000E+00; -3.2796826E-02;  2.2054340E+02;
  8.9594305E-01;  9.9999998E-03;  8.0486879E-02;7547; -6.3848021E-03;  0.0000000E+00; -2.7558180E-03;  9.9989746E+02;  1.9201675E-01; -8.4935860E+01;3;  3.2737749E+00;  0.0000000E+00;  2.6044309E-01;0;  1.7972033E-02;  1.1005532E+04;  0.0000000E+00; -2.4258272E-01;  4.0000000E+04;  0.0000000E+00;  3.9550859E+04;  5.0238270E-02;  0.0000000E+00; -3.2266237E-02;  1.4205791E+02;
  8.9607531E-01;  9.9999998E-03;  9.0565369E-02;7548; -6.3370508E-03;  0.0000000E+00; -3.0872226E-03;  9.9990149E+02;  1.9206360E-01; -8.1627312E+01;3;  3.2675469E+00;  0.0000000E+00;  2.8328386E-01;0;  1.8872067E-02;  1.0995498E+04;  0.0000000E+00; -3.1836262E-01;  4.0000000E+04;  0.0000000E+00;  3.9551621E+04;  5.0518852E-02;  0.0000000E+00; -3.1646784E-02;  1.1622820E+02;
  8.9617437E-01;  9.9999998E-03;  1.0061827E-01;7549; -6.2762094E-03;  0.0000000E+00; -3.4094509E-03;  9.9992505E+02;  1.9209443E-01; -6.2072315E+01;3;  3.2684827E+00;  0.0000000E+00;  3.1048974E-01;0;  1.9787841E-02;  1.0987503E+04;  0.0000000E+00; -3.9443347E-01;  4.0000000E+04;  0.0000000E+00;  3.9551410E+04;  5.0720830E-02;  0.0000000E+00; -3.0932989E-02;  9.0723839E+01;
  8.9621341E-01;  9.9999998E-03;  1.1065370E-01;7550; -6.2010139E-03;  0.0000000E+00; -3.7229948E-03;  9.9997290E+02;  1.9210123E-01; -2.2468498E+01;3;  3.2754650E+00;  0.0000000E+00;  3.3210671E-01;0;  2.0674447E-02;  1.0983104E+04;  0.0000000E+00; -4.6804559E-01;  4.0000000E+04;  0.0000000E+00;  3.9550973E+04;  5.0791305E-02;  0.0000000E+00; -3.0116858E-02;  5.7439499E+01;
  8.9615697E-01;  9.9999998E-03;  1.2069999E-01;7551; -6.1100484E-03;  0.0000000E+00; -4.0288507E-03;  1.0000300E+03;  1.9206530E-01;  2.4888184E+01;3;  3.2810705E+00;  0.0000000E+00;  3.5336274E-01;0;  2.1485541E-02;  1.0984502E+04;  0.0000000E+00; -5.4240334E-01;  4.0000000E+04;  0.0000000E+00;  3.9549270E+04;  5.0671253E-02;  0.0000000E+00; -2.9185712E-02;  3.1181009E+02;
  8.9601022E-01;  9.9999998E-03;  1.3076542E-01;7552; -5.9959791E-03;  0.0000000E+00; -4.3271151E-03;  1.0001113E+03;  1.9198895E-01;  9.2145538E+01;3;  3.2942524E+00;  0.0000000E+00;  3.7500775E-01;0;  2.2211684E-02;  1.0991443E+04;  0.0000000E+00; -6.2770182E-01;  4.0000000E+04;  0.0000000E+00;  3.9547207E+04;  5.0344337E-02;  0.0000000E+00; -2.8132653E-02;  6.3452979E+02;
  8.9582002E-01;  9.9999998E-03;  1.4084075E-01;7553; -5.8477204E-03;  0.0000000E+00; -4.6173329E-03;  1.0002043E+03;  1.9189326E-01;  1.6927914E+02;3;  3.3154144E+00;  0.0000000E+00;  4.0162104E-01;0;  2.2884548E-02;  1.1001825E+04;  0.0000000E+00; -7.3937565E-01;  4.0000000E+04;  0.0000000E+00;  3.9545301E+04;  4.9841434E-02;  0.0000000E+00; -2.6956886E-02;  9.2321039E+02;
  8.9563560E-01;  9.9999998E-03;  1.5091260E-01;7554; -5.6566070E-03;  0.0000000E+00; -4.9000704E-03;  1.0003226E+03;  1.9179833E-01;  2.6725168E+02;3;  3.3352563E+00;  0.0000000E+00;  4.1383201E-01;0;  2.3550479E-02;  1.1012940E+04;  0.0000000E+00; -8.9281464E-01;  4.0000000E+04;  0.0000000E+00;  3.9543570E+04;  4.9208693E-02;  0.0000000E+00; -2.5658214E-02;  1.1006094E+03;
  8.9551276E-01;  9.9999998E-03;  1.6097473E-01;7555; -5.4142396E-03;  0.0000000E+00; -5.1742853E-03;  1.0004482E+03;  1.9173136E-01;  3.7134750E+02;3;  3.3768563E+00;  0.0000000E+00;  4.3330330E-01;0;  2.4265766E-02;  1.1021733E+04;  0.0000000E+00; -1.0960170E+00;  4.0000000E+04;  0.0000000E+00;  3.9542914E+04;  4.8514903E-02;  0.0000000E+00; -2.4249136E-02;  1.2030122E+03;
  8.9547199E-01;  9.9999998E-03;  1.7102700E-01;7556; -5.1038340E-03;  0.0000000E+00; -5.4365047E-03;  1.0005660E+03;  1.9170290E-01;  4.6892499E+02;3;  3.4307020E+00;  0.0000000E+00;  4.4302815E-01;0;  2.5067402E-02;  1.1026423E+04;  0.0000000E+00; -1.3403596E+00;  4.0000000E+04;  0.0000000E+00;  3.9542660E+04;  4.7822583E-02;  0.0000000E+00; -2.2755181E-02;  1.4448760E+03;
  8.9541829E-01;  9.9999998E-03;  1.8105167E-01;7557; -4.7369488E-03;  0.0000000E+00; -5.6852615E-03;  1.0006406E+03;  1.9167008E-01;  5.3065161E+02;3;  3.5000055E+00;  0.0000000E+00;  4.4458282E-01;0;  2.5918365E-02;  1.1031581E+04;  0.0000000E+00; -1.5919617E+00;  4.0000000E+04;  0.0000000E+00;  3.9544203E+04;  4.7121432E-02;  0.0000000E+00; -2.1203067E-02;  1.9372102E+03;
  8.9540076E-01;  9.9999998E-03;  1.9107571E-01;7558; -4.2971759E-03;  0.0000000E+00; -5.9066890E-03;  1.0006711E+03;  1.9164978E-01;  5.5593488E+02;3;  3.6117065E+00;  0.0000000E+00;  4.6390650E-01;0;  2.6886145E-02;  1.1034759E+04;  0.0000000E+00; -1.7969303E+00;  4.0000000E+04;  0.0000000E+00;  3.9546969E+04;  4.6521708E-02;  0.0000000E+00; -1.9635564E-02;  2.5045637E+03;
  8.9541203E-01;  9.9999998E-03;  2.0112105E-01;7559; -3.7672778E-03;  0.0000000E+00; -6.0977270E-03;  1.0006357E+03;  1.9163409E-01;  5.2670111E+02;3;  3.7196546E+00;  0.0000000E+00;  4.4280729E-01;0;  2.8008647E-02;  1.1036239E+04;  0.0000000E+00; -1.8929586E+00;  4.0000000E+04;  0.0000000E+00;  3.9551250E+04;  4.6090405E-02;  0.0000000E+00; -1.8081758E-02;  2.8921155E+03;
  8.9543188E-01;  9.9999998E-03;  2.1119159E-01;7560; -3.1312166E-03;  0.0000000E+00; -6.2403935E-03;  1.0005115E+03;  1.9161281E-01;  4.2379047E+02;3;  3.9148443E+00;  0.0000000E+00;  4.8507553E-01;0;  2.9333256E-02;  1.1036871E+04;  0.0000000E+00; -1.8296955E+00;  4.0000000E+04;  0.0000000E+00;  3.9555336E+04;  4.5874078E-02;  0.0000000E+00; -1.6540822E-02;  2.8987229E+03;
  8.9544094E-01;  9.9999998E-03;  2.2129196E-01;7561; -2.3764619E-03;  0.0000000E+00; -6.3677416E-03;  1.0002504E+03;  1.9158152E-01;  2.0750029E+02;3;  4.1516113E+00;  0.0000000E+00;  5.3785348E-01;0;  3.0867975E-02;  1.1037392E+04;  0.0000000E+00; -1.5818546E+00;  4.0000000E+04;  0.0000000E+00;  3.9554887E+04;  4.5905765E-02;  0.0000000E+00; -1.5037790E-02;  2.3461450E+03;
  8.9534938E-01;  9.9999998E-03;  2.3137103E-01;7562; -1.6050345E-03;  0.0000000E+00; -6.5268539E-03;  9.9989984E+02;  1.9151010E-01; -8.2960609E+01;3;  4.3887615E+00;  0.0000000E+00;  5.7444704E-01;0;  3.2373533E-02;  1.1041944E+04;  0.0000000E+00; -1.1624900E+00;  4.0000000E+04;  0.0000000E+00;  3.9552934E+04;  4.6107262E-02;  0.0000000E+00; -1.3733728E-02;  1.3775875E+03;
  9.1563362E-01;  9.9999998E-03;  7.0306614E-02;7607; -5.4542311E-03;  0.0000000E+00; -2.5983702E-03;  9.9927405E+02;  2.0214716E-01; -6.0141504E+02;3;  3.6993954E+00;  0.0000000E+00;  1.9983989E-01;0;  3.1951856E-02;  9.9258516E+03;  0.0000000E+00; -7.8904025E-02;  4.0000000E+04;  0.0000000E+00;  3.9512836E+04;  6.7572273E-02;  0.0000000E+00; -3.5620417E-02;  6.8284308E+02;
  9.1566706E-01;  9.9999998E-03;  8.0395512E-02;7608; -5.4068011E-03;  0.0000000E+00; -2.9732916E-03;  9.9925702E+02;  2.0215566E-01; -6.1553809E+02;3;  3.7101943E+00;  0.0000000E+00;  2.2514629E-01;0;  3.2883253E-02;  9.9214678E+03;  0.0000000E+00; -1.2204090E-01;  4.0000000E+04;  0.0000000E+00;  3.9513621E+04;  6.7982875E-02;  0.0000000E+00; -3.5099622E-02;  8.5785199E+02;
  9.1566974E-01;  9.9999998E-03;  9.0473026E-02;7609; -5.3452919E-03;  0.0000000E+00; -3.3428958E-03;  9.9926837E+02;  2.0214486E-01; -6.0615564E+02;3;  3.7147369E+00;  0.0000000E+00;  2.5672236E-01;0;  3.3832278E-02;  9.9189082E+03;  0.0000000E+00; -1.8078667E-01;  4.0000000E+04;  0.0000000E+00;  3.9514543E+04;  6.8315975E-02;  0.0000000E+00; -3.4483697E-02;  1.0454712E+03;
  9.1563118E-01;  9.9999998E-03;  1.0053305E-01;7610; -5.2700541E-03;  0.0000000E+00; -3.7057672E-03;  9.9930334E+02;  2.0211077E-01; -5.7716882E+02;3;  3.7225933E+00;  0.0000000E+00;  2.8097591E-01;0;  3.4749802E-02;  9.9190176E+03;  0.0000000E+00; -2.5869751E-01;  4.0000000E+04;  0.0000000E+00;  3.9515039E+04;  6.8518534E-02;  0.0000000E+00; -3.3768732E-02;  1.1986901E+03;
  9.1553771E-01;  9.9999998E-03;  1.1057480E-01;7611; -5.1810495E-03;  0.0000000E+00; -4.0618083E-03;  9.9934796E+02;  2.0204788E-01; -5.4018219E+02;3;  3.7370365E+00;  0.0000000E+00;  3.0128682E-01;0;  3.5585910E-02;  9.9225303E+03;  0.0000000E+00; -3.5837650E-01;  4.0000000E+04;  0.0000000E+00;  3.9514750E+04;  6.8535209E-02;  0.0000000E+00; -3.2949299E-02;  1.2700338E+03;
  9.1536379E-01;  9.9999998E-03;  1.2062999E-01;7612; -5.0774966E-03;  0.0000000E+00; -4.4126692E-03;  9.9942322E+02;  2.0194362E-01; -4.7786301E+02;3;  3.7578325E+00;  0.0000000E+00;  3.1824869E-01;0;  3.6289964E-02;  9.9310049E+03;  0.0000000E+00; -4.8029375E-01;  4.0000000E+04;  0.0000000E+00;  3.9513387E+04;  6.8303786E-02;  0.0000000E+00; -3.2013822E-02;  1.2521018E+03;
  9.1512579E-01;  9.9999998E-03;  1.3069935E-01;7613; -4.9559795E-03;  0.0000000E+00; -4.7589084E-03;  9.9951520E+02;  2.0180704E-01; -4.0166763E+02;3;  3.7776196E+00;  0.0000000E+00;  3.3860064E-01;0;  3.6853775E-02;  9.9437129E+03;  0.0000000E+00; -6.2209237E-01;  4.0000000E+04;  0.0000000E+00;  3.9511496E+04;  6.7810826E-02;  0.0000000E+00; -3.0957049E-02;  1.1937749E+03;
  9.1486722E-01;  9.9999998E-03;  1.4077488E-01;7614; -4.8108250E-03;  0.0000000E+00; -5.1004817E-03;  9.9962939E+02;  2.0166151E-01; -3.0705301E+02;3;  3.7950644E+00;  0.0000000E+00;  3.5663700E-01;0;  3.7310593E-02;  9.9583887E+03;  0.0000000E+00; -7.7871668E-01;  4.0000000E+04;  0.0000000E+00;  3.9509277E+04;  6.7086667E-02;  0.0000000E+00; -2.9776072E-02;  1.1731664E+03;
  9.1464043E-01;  9.9999998E-03;  1.5085061E-01;7615; -4.6313810E-03;  0.0000000E+00; -5.4354309E-03;  9.9976270E+02;  2.0153484E-01; -1.9658702E+02;3;  3.8207023E+00;  0.0000000E+00;  3.6437455E-01;0;  3.7727557E-02;  9.9723535E+03;  0.0000000E+00; -9.4295186E-01;  4.0000000E+04;  0.0000000E+00;  3.9507137E+04;  6.6195585E-02;  0.0000000E+00; -2.8468028E-02;  1.2337979E+03;
  9.1449606E-01;  9.9999998E-03;  1.6092347E-01;7616; -4.3990328E-03;  0.0000000E+00; -5.7579475E-03;  9.9990753E+02;  2.0144722E-01; -7.6590424E+01;3;  3.8694208E+00;  0.0000000E+00;  3.7954846E-01;0;  3.8189389E-02;  9.9828574E+03;  0.0000000E+00; -1.1057512E+00;  4.0000000E+04;  0.0000000E+00;  3.9505594E+04;  6.5231718E-02;  0.0000000E+00; -2.7042331E-02;  1.3612012E+03;
  9.1446173E-01;  9.9999998E-03;  1.7098901E-01;7617; -4.0989569E-03;  0.0000000E+00; -6.0650813E-03;  1.0000444E+03;  2.0141883E-01;  3.6838463E+01;3;  3.9436343E+00;  0.0000000E+00;  4.0298992E-01;0;  3.8767811E-02;  9.9882100E+03;  0.0000000E+00; -1.2546567E+00;  4.0000000E+04;  0.0000000E+00;  3.9505152E+04;  6.4296186E-02;  0.0000000E+00; -2.5528375E-02;  1.5263851E+03;
  9.1456145E-01;  9.9999998E-03;  1.8104543E-01;7618; -3.7380853E-03;  0.0000000E+00; -6.3565569E-03;  1.0001622E+03;  2.0145491E-01;  1.3431718E+02;3;  4.0111866E+00;  0.0000000E+00;  3.9989910E-01;0;  3.9527908E-02;  9.9870527E+03;  0.0000000E+00; -1.3717722E+00;  4.0000000E+04;  0.0000000E+00;  3.9506246E+04;  6.3501261E-02;  0.0000000E+00; -2.3973351E-02;  1.6862115E+03;
  9.1481668E-01;  9.9999998E-03;  1.9110043E-01;7619; -3.3088468E-03;  0.0000000E+00; -6.6217617E-03;  1.0002402E+03;  2.0156552E-01;  1.9900670E+02;3;  4.1011615E+00;  0.0000000E+00;  4.2328456E-01;0;  4.0534697E-02;  9.9781992E+03;  0.0000000E+00; -1.4345961E+00;  4.0000000E+04;  0.0000000E+00;  3.9509145E+04;  6.2963888E-02;  0.0000000E+00; -2.2429191E-02;  1.7732908E+03;
  9.1522104E-01;  9.9999998E-03;  2.0117038E-01;7620; -2.7963927E-03;  0.0000000E+00; -6.8477965E-03;  1.0002629E+03;  2.0174268E-01;  2.1777161E+02;3;  4.2640605E+00;  0.0000000E+00;  4.5452178E-01;0;  4.1841470E-02;  9.9617891E+03;  0.0000000E+00; -1.4247663E+00;  4.0000000E+04;  0.0000000E+00;  3.9513535E+04;  6.2772743E-02;  0.0000000E+00; -2.0931276E-02;  1.7931898E+03;
  9.1556293E-01;  9.9999998E-03;  2.1125658E-01;7621; -2.2033548E-03;  0.0000000E+00; -7.0204465E-03;  1.0001852E+03;  2.0188937E-01;  1.5337837E+02;3;  4.4120135E+00;  0.0000000E+00;  4.5318589E-01;0;  4.3345761E-02;  9.9470049E+03;  0.0000000E+00; -1.3375181E+00;  4.0000000E+04;  0.0000000E+00;  3.9517793E+04;  6.2802471E-02;  0.0000000E+00; -1.9456711E-02;  1.7893490E+03;
  9.1576505E-01;  9.9999998E-03;  2.2137369E-01;7622; -1.5581424E-03;  0.0000000E+00; -7.1949270E-03;  9.9994067E+02;  2.0197231E-01; -4.9134411E+01;3;  4.5588980E+00;  0.0000000E+00;  4.8909971E-01;0;  4.4943191E-02;  9.9368682E+03;  0.0000000E+00; -1.1701049E+00;  4.0000000E+04;  0.0000000E+00;  3.9517938E+04;  6.3020699E-02;  0.0000000E+00; -1.8077506E-02;  1.5297063E+03;
  9.1582406E-01;  9.9999998E-03;  2.3146851E-01;7623; -9.2035299E-04;  0.0000000E+00; -7.4110003E-03;  9.9960126E+02;  2.0199525E-01; -3.3036099E+02;3;  4.7262812E+00;  0.0000000E+00;  5.2981377E-01;0;  4.6422835E-02;  9.9320850E+03;  0.0000000E+00; -9.3933278E-01;  4.0000000E+04;  0.0000000E+00;  3.9516062E+04;  6.3435234E-02;  0.0000000E+00; -1.7012399E-02;  1.0638334E+03;
  9.3766546E-01;  9.9999998E-03;  7.0565522E-02;7668; -3.9215144E-03;  0.0000000E+00; -2.8557971E-03;  9.9899146E+02;  2.1395601E-01; -8.3558124E+02;3;  4.2667308E+00;  0.0000000E+00;  1.3379358E-01;0;  4.7595799E-02;  8.8580254E+03;  0.0000000E+00; -2.3456398E-02;  4.0000000E+04;  0.0000000E+00;  3.9470258E+04;  8.6011358E-02;  0.0000000E+00; -3.8415559E-02;  1.5241613E+03;
  9.3771380E-01;  9.9999998E-03;  8.0651775E-02;7669; -3.8049833E-03;  0.0000000E+00; -3.2724412E-03;  9.9900775E+02;  2.1397300E-01; -8.2205078E+02;3;  4.2962198E+00;  0.0000000E+00;  1.4723599E-01;0;  4.8756521E-02;  8.8551514E+03;  0.0000000E+00; -4.6866789E-02;  4.0000000E+04;  0.0000000E+00;  3.9471562E+04;  8.6640537E-02;  0.0000000E+00; -3.7884016E-02;  1.9399081E+03;
  9.3768638E-01;  9.9999998E-03;  9.0719454E-02;7670; -3.6752045E-03;  0.0000000E+00; -3.6845317E-03;  9.9904028E+02;  2.1394125E-01; -7.9508856E+02;3;  4.3286867E+00;  0.0000000E+00;  1.6702838E-01;0;  4.9925100E-02;  8.8558682E+03;  0.0000000E+00; -9.7145274E-02;  4.0000000E+04;  0.0000000E+00;  3.9472910E+04;  8.7183297E-02;  0.0000000E+00; -3.7258197E-02;  2.2909351E+03;
  9.3756127E-01;  9.9999998E-03;  1.0077045E-01;7671; -3.5429678E-03;  0.0000000E+00; -4.0891743E-03;  9.9907990E+02;  2.1385390E-01; -7.6229938E+02;3;  4.3603687E+00;  0.0000000E+00;  1.9312234E-01;0;  5.1044233E-02;  8.8615127E+03;  0.0000000E+00; -1.8436113E-01;  4.0000000E+04;  0.0000000E+00;  3.9474652E+04;  8.7579377E-02;  0.0000000E+00; -3.6535144E-02;  2.4701470E+03;
  9.3733954E-01;  9.9999998E-03;  1.1078726E-01;7672; -3.4149445E-03;  0.0000000E+00; -4.4851331E-03;  9.9912537E+02;  2.1370982E-01; -7.2462140E+02;3;  4.3888683E+00;  0.0000000E+00;  2.1206746E-01;0;  5.2069116E-02;  8.8719619E+03;  0.0000000E+00; -3.1030622E-01;  4.0000000E+04;  0.0000000E+00;  3.9474941E+04;  8.7783903E-02;  0.0000000E+00; -3.5714786E-02;  2.4041445E+03;
  9.3702012E-01;  9.9999998E-03;  1.2080833E-01;7673; -3.2946507E-03;  0.0000000E+00; -4.8737908E-03;  9.9917743E+02;  2.1351205E-01; -6.8146216E+02;3;  4.4194207E+00;  0.0000000E+00;  2.3008879E-01;0;  5.2966781E-02;  8.8874502E+03;  0.0000000E+00; -4.6422264E-01;  4.0000000E+04;  0.0000000E+00;  3.9474391E+04;  8.7756492E-02;  0.0000000E+00; -3.4789711E-02;  2.1044089E+03;
  9.3664950E-01;  9.9999998E-03;  1.3083878E-01;7674; -3.1747320E-03;  0.0000000E+00; -5.2560675E-03;  9.9925037E+02;  2.1329033E-01; -6.2106879E+02;3;  4.4490552E+00;  0.0000000E+00;  2.5347015E-01;0;  5.3747140E-02;  8.9059775E+03;  0.0000000E+00; -6.2279171E-01;  4.0000000E+04;  0.0000000E+00;  3.9472816E+04;  8.7503888E-02;  0.0000000E+00; -3.3756748E-02;  1.6939259E+03;
  9.3630725E-01;  9.9999998E-03;  1.4087886E-01;7675; -3.0430637E-03;  0.0000000E+00; -5.6304247E-03;  9.9933527E+02;  2.1308278E-01; -5.5070044E+02;3;  4.4612713E+00;  0.0000000E+00;  2.8987443E-01;0;  5.4472201E-02;  8.9238711E+03;  0.0000000E+00; -7.5462556E-01;  4.0000000E+04;  0.0000000E+00;  3.9470566E+04;  8.7085299E-02;  0.0000000E+00; -3.2613099E-02;  1.3946821E+03;
  9.3607056E-01;  9.9999998E-03;  1.5092908E-01;7676; -2.8857864E-03;  0.0000000E+00; -5.9978515E-03;  9.9943665E+02;  2.1293531E-01; -4.6675220E+02;3;  4.4898376E+00;  0.0000000E+00;  3.0807310E-01;0;  5.5242155E-02;  8.9375537E+03;  0.0000000E+00; -8.2854772E-01;  4.0000000E+04;  0.0000000E+00;  3.9468133E+04;  8.6595625E-02;  0.0000000E+00; -3.1353470E-02;  1.3760687E+03;
  9.3595535E-01;  9.9999998E-03;  1.6098292E-01;7677; -2.7025903E-03;  0.0000000E+00; -6.3562365E-03;  9.9953815E+02;  2.1285620E-01; -3.8265582E+02;3;  4.5050373E+00;  0.0000000E+00;  3.1357658E-01;0;  5.6132987E-02;  8.9459189E+03;  0.0000000E+00; -8.2335186E-01;  4.0000000E+04;  0.0000000E+00;  3.9466434E+04;  8.6113304E-02;  0.0000000E+00; -2.9980319E-02;  1.5428748E+03;
  9.3595797E-01;  9.9999998E-03;  1.7103790E-01;7678; -2.5100498E-03;  0.0000000E+00; -6.7019351E-03;  9.9963934E+02;  2.1284096E-01; -2.9880634E+02;3;  4.4940014E+00;  0.0000000E+00;  3.2665291E-01;0;  5.7203572E-02;  8.9490049E+03;  0.0000000E+00; -7.3561752E-01;  4.0000000E+04;  0.0000000E+00;  3.9465941E+04;  8.5722841E-02;  0.0000000E+00; -2.8519269E-02;  1.7417998E+03;
  9.3609416E-01;  9.9999998E-03;  1.8109469E-01;7679; -2.2905711E-03;  0.0000000E+00; -7.0257941E-03;  9.9972119E+02;  2.1289676E-01; -2.3100580E+02;3;  4.5362968E+00;  0.0000000E+00;  3.6344165E-01;0;  5.8523700E-02;  8.9457334E+03;  0.0000000E+00; -5.8229357E-01;  4.0000000E+04;  0.0000000E+00;  3.9466863E+04;  8.5542247E-02;  0.0000000E+00; -2.7018545E-02;  1.9381039E+03;
  9.3639314E-01;  9.9999998E-03;  1.9115715E-01;7680; -2.0125571E-03;  0.0000000E+00; -7.3169447E-03;  9.9977277E+02;  2.1303804E-01; -1.8824158E+02;3;  4.6367507E+00;  0.0000000E+00;  3.8588935E-01;0;  6.0175590E-02;  8.9349248E+03;  0.0000000E+00; -3.9560544E-01;  4.0000000E+04;  0.0000000E+00;  3.9469891E+04;  8.5710272E-02;  0.0000000E+00; -2.5534682E-02;  2.1426028E+03;
  9.3683624E-01;  9.9999998E-03;  2.0123281E-01;7681; -1.6553939E-03;  0.0000000E+00; -7.5645731E-03;  9.9978058E+02;  2.1325375E-01; -1.8177263E+02;3;  4.7308955E+00;  0.0000000E+00;  3.9906350E-01;0;  6.2201627E-02;  8.9169805E+03;  0.0000000E+00; -2.1710522E-01;  4.0000000E+04;  0.0000000E+00;  3.9474836E+04;  8.6308055E-02;  0.0000000E+00; -2.4106428E-02;  2.3651245E+03;
  9.3732756E-01;  9.9999998E-03;  2.1133354E-01;7682; -1.2164540E-03;  0.0000000E+00; -7.7638640E-03;  9.9969507E+02;  2.1349473E-01; -2.5263481E+02;3;  4.8176107E+00;  0.0000000E+00;  4.2159554E-01;0;  6.4574689E-02;  8.8956162E+03;  0.0000000E+00; -9.3373649E-02;  4.0000000E+04;  0.0000000E+00;  3.9479832E+04;  8.7308079E-02;  0.0000000E+00; -2.2733387E-02;  2.5369707E+03;
  9.3777603E-01;  9.9999998E-03;  2.2147104E-01;7683; -7.4386655E-04;  0.0000000E+00; -7.9963263E-03;  9.9942505E+02;  2.1372300E-01; -4.7633218E+02;3;  4.8935094E+00;  0.0000000E+00;  4.3338317E-01;0;  6.7116410E-02;  8.8739727E+03;  0.0000000E+00; -6.0982939E-02;  4.0000000E+04;  0.0000000E+00;  3.9478551E+04;  8.8654034E-02;  0.0000000E+00; -2.1537622E-02;  2.2529897E+03;
  9.3803871E-01;  9.9999998E-03;  2.3157394E-01;7684; -3.1332683E-04;  0.0000000E+00; -8.2803443E-03;  9.9903070E+02;  2.1387824E-01; -8.0303894E+02;3;  4.9813833E+00;  0.0000000E+00;  4.5142302E-01;0;  6.9430374E-02;  8.8580449E+03;  0.0000000E+00; -1.4539959E-01;  4.0000000E+04;  0.0000000E+00;  3.9477766E+04;  9.0182081E-02;  0.0000000E+00; -2.0751705E-02;  1.5653123E+03;
  9.5989788E-01;  9.9999998E-03;  7.0588276E-02;7729; -1.4852827E-03;  0.0000000E+00; -3.1526631E-03;  9.9922797E+02;  2.2642371E-01; -6.3963611E+02;3;  5.1682510E+00;  0.0000000E+00;  1.1480072E-01;0;  5.7202674E-02;  7.9164536E+03;  0.0000000E+00; -5.1745521E-03;  4.0000000E+04;  0.0000000E+00;  3.9426199E+04;  9.8041855E-02;  0.0000000E+00; -4.0839180E-02;  2.4987483E+03;
  9.5994449E-01;  9.9999998E-03;  8.0684915E-02;7730; -1.2934812E-03;  0.0000000E+00; -3.5978567E-03;  9.9924133E+02;  2.2645047E-01; -6.2852533E+02;3;  5.2079597E+00;  0.0000000E+00;  1.3274992E-01;0;  5.8569077E-02;  7.9140962E+03;  0.0000000E+00; -3.1598192E-02;  4.0000000E+04;  0.0000000E+00;  3.9427785E+04;  9.8818474E-02;  0.0000000E+00; -4.0249396E-02;  3.0259636E+03;
  9.5993680E-01;  9.9999998E-03;  9.0766229E-02;7731; -1.0744205E-03;  0.0000000E+00; -4.0313182E-03;  9.9925977E+02;  2.2644019E-01; -6.1326654E+02;3;  5.2481995E+00;  0.0000000E+00;  1.5200785E-01;0;  6.0061168E-02;  7.9143081E+03;  0.0000000E+00; -9.5450446E-02;  4.0000000E+04;  0.0000000E+00;  3.9429695E+04;  9.9641182E-02;  0.0000000E+00; -3.9580014E-02;  3.3750471E+03;
  9.5984614E-01;  9.9999998E-03;  1.0083919E-01;7732; -8.4737141E-04;  0.0000000E+00; -4.4534532E-03;  9.9927930E+02;  2.2637700E-01; -5.9706946E+02;3;  5.2961717E+00;  0.0000000E+00;  1.5914407E-01;0;  6.1654624E-02;  7.9182749E+03;  0.0000000E+00; -2.0642446E-01;  4.0000000E+04;  0.0000000E+00;  3.9431754E+04;  1.0048603E-01;  0.0000000E+00; -3.8831409E-02;  3.4257627E+03;
  9.5964968E-01;  9.9999998E-03;  1.1088260E-01;7733; -6.3926156E-04;  0.0000000E+00; -4.8642280E-03;  9.9930414E+02;  2.2624765E-01; -5.7652679E+02;3;  5.3134885E+00;  0.0000000E+00;  1.7150763E-01;0;  6.3317910E-02;  7.9270005E+03;  0.0000000E+00; -3.5742521E-01;  4.0000000E+04;  0.0000000E+00;  3.9433059E+04;  1.0132276E-01;  0.0000000E+00; -3.8004849E-02;  3.1360049E+03;
  9.5937622E-01;  9.9999998E-03;  1.2090787E-01;7734; -4.7390055E-04;  0.0000000E+00; -5.2675796E-03;  9.9933832E+02;  2.2606960E-01; -5.4818195E+02;3;  5.2971168E+00;  0.0000000E+00;  1.9424854E-01;0;  6.5037392E-02;  7.9394150E+03;  0.0000000E+00; -5.1949441E-01;  4.0000000E+04;  0.0000000E+00;  3.9433453E+04;  1.0213783E-01;  0.0000000E+00; -3.7100434E-02;  2.5988418E+03;
  9.5905685E-01;  9.9999998E-03;  1.3092680E-01;7735; -3.6740300E-04;  0.0000000E+00; -5.6634913E-03;  9.9937372E+02;  2.2586301E-01; -5.1884943E+02;3;  5.2721505E+00;  0.0000000E+00;  2.1894132E-01;0;  6.6809930E-02;  7.9544600E+03;  0.0000000E+00; -6.4439183E-01;  4.0000000E+04;  0.0000000E+00;  3.9432484E+04;  1.0292236E-01;  0.0000000E+00; -3.6112428E-02;  2.0508208E+03;
  9.5875996E-01;  9.9999998E-03;  1.4095141E-01;7736; -3.1771549E-04;  0.0000000E+00; -6.0517122E-03;  9.9943994E+02;  2.2566664E-01; -4.6398682E+02;3;  5.2508931E+00;  0.0000000E+00;  2.4127844E-01;0;  6.8670392E-02;  7.9692422E+03;  0.0000000E+00; -6.7522991E-01;  4.0000000E+04;  0.0000000E+00;  3.9430961E+04;  1.0370217E-01;  0.0000000E+00; -3.5031773E-02;  1.8267880E+03;
  9.5855439E-01;  9.9999998E-03;  1.5098889E-01;7737; -3.0668508E-04;  0.0000000E+00; -6.4288224E-03;  9.9952380E+02;  2.2552145E-01; -3.9450729E+02;3;  5.2294917E+00;  0.0000000E+00;  2.7115816E-01;0;  7.0691720E-02;  7.9807646E+03;  0.0000000E+00; -5.6307858E-01;  4.0000000E+04;  0.0000000E+00;  3.9428844E+04;  1.0453758E-01;  0.0000000E+00; -3.3845861E-02;  2.1888457E+03;
  9.5845950E-01;  9.9999998E-03;  1.6103828E-01;7738; -3.1916983E-04;  0.0000000E+00; -6.7905858E-03;  9.9960339E+02;  2.2543970E-01; -3.2858325E+02;3;  5.2235169E+00;  0.0000000E+00;  3.0064869E-01;0;  7.2940849E-02;  7.9878330E+03;  0.0000000E+00; -2.8488383E-01;  4.0000000E+04;  0.0000000E+00;  3.9427324E+04;  1.0549314E-01;  0.0000000E+00; -3.2552294E-02;  3.2034036E+03;
  9.5851451E-01;  9.9999998E-03;  1.7109464E-01;7739; -3.3397748E-04;  0.0000000E+00; -7.1299816E-03;  9.9967743E+02;  2.2544490E-01; -2.6725165E+02;3;  5.2126436E+00;  0.0000000E+00;  3.2431018E-01;0;  7.5490892E-02;  7.9884106E+03;  0.0000000E+00;  1.4261484E-01;  4.0000000E+04;  0.0000000E+00;  3.9426680E+04;  1.0666704E-01;  0.0000000E+00; -3.1176148E-02;  4.8089062E+03;
  9.5876080E-01;  9.9999998E-03;  1.8115999E-01;7740; -3.1628218E-04;  0.0000000E+00; -7.4428595E-03;  9.9972742E+02;  2.2555959E-01; -2.2582074E+02;3;  5.2096395E+00;  0.0000000E+00;  3.5968244E-01;0;  7.8413293E-02;  7.9805801E+03;  0.0000000E+00;  6.5788543E-01;  4.0000000E+04;  0.0000000E+00;  3.9427430E+04;  1.0817475E-01;  0.0000000E+00; -2.9761460E-02;  6.7496484E+03;
  9.5921600E-01;  9.9999998E-03;  1.9123687E-01;7741; -2.3400746E-04;  0.0000000E+00; -7.7256379E-03;  9.9973999E+02;  2.2579342E-01; -2.1540128E+02;3;  5.2071371E+00;  0.0000000E+00;  3.7595046E-01;0;  8.1761621E-02;  7.9635068E+03;  0.0000000E+00;  1.1649452E+00;  4.0000000E+04;  0.0000000E+00;  3.9429691E+04;  1.1011608E-01;  0.0000000E+00; -2.8354457E-02;  8.5812158E+03;
  9.5985609E-01;  9.9999998E-03;  2.0133528E-01;7742; -6.6860252E-05;  0.0000000E+00; -7.9877526E-03;  9.9970532E+02;  2.2613297E-01; -2.4414120E+02;3;  5.1654010E+00;  0.0000000E+00;  3.6972752E-01;0;  8.5545108E-02;  7.9381885E+03;  0.0000000E+00;  1.5579901E+00;  4.0000000E+04;  0.0000000E+00;  3.9433879E+04;  1.1253622E-01;  0.0000000E+00; -2.6991118E-02;  9.8125176E+03;
  9.6063566E-01;  9.9999998E-03;  2.1145643E-01;7743;  1.2535779E-04;  0.0000000E+00; -8.2328198E-03;  9.9959576E+02;  2.2655265E-01; -3.3490405E+02;3;  5.1608911E+00;  0.0000000E+00;  3.9867544E-01;0;  8.9758262E-02;  7.9066274E+03;  0.0000000E+00;  1.7492173E+00;  4.0000000E+04;  0.0000000E+00;  3.9436766E+04;  1.1545105E-01;  0.0000000E+00; -2.5692780E-02;  1.0065101E+04;
  9.6135068E-01;  9.9999998E-03;  2.2159867E-01;7744;  2.8230768E-04;  0.0000000E+00; -8.5202400E-03;  9.9932959E+02;  2.2694707E-01; -5.5544098E+02;3;  5.1786699E+00;  0.0000000E+00;  4.1112843E-01;0;  9.4106354E-02;  7.8759824E+03;  0.0000000E+00;  1.6621767E+00;  4.0000000E+04;  0.0000000E+00;  3.9434332E+04;  1.1866703E-01;  0.0000000E+00; -2.4560677E-02;  9.0228955E+03;
  9.6172655E-01;  9.9999998E-03;  2.3169863E-01;7745;  4.7994757E-04;  0.0000000E+00; -8.8823866E-03;  9.9887567E+02;  2.2717758E-01; -9.3147968E+02;3;  5.2237930E+00;  0.0000000E+00;  4.2090240E-01;0;  9.7892664E-02;  7.8557480E+03;  0.0000000E+00;  1.2391660E+00;  4.0000000E+04;  0.0000000E+00;  3.9432676E+04;  1.2177431E-01;  0.0000000E+00; -2.3881646E-02;  6.6193882E+03;
  9.8339027E-01;  9.9999998E-03;  7.0519559E-02;7790;  2.3620212E-03;  0.0000000E+00; -3.2442694E-03;  9.9948431E+02;  2.4020824E-01; -4.2724710E+02;3;  6.4738765E+00;  0.0000000E+00;  1.8649210E-01;0;  5.5705853E-02;  7.0417964E+03;  0.0000000E+00; -1.4437807E-01;  4.0000000E+04;  0.0000000E+00;  3.9382273E+04;  9.8892748E-02;  0.0000000E+00; -4.3186896E-02;  2.8118894E+03;
  9.8319185E-01;  9.9999998E-03;  8.0606215E-02;7791;  2.5526150E-03;  0.0000000E+00; -3.6953187E-03;  9.9944586E+02;  2.4009396E-01; -4.5909805E+02;3;  6.4600320E+00;  0.0000000E+00;  2.0243002E-01;0;  5.7356849E-02;  7.0484604E+03;  0.0000000E+00; -2.0001961E-01;  4.0000000E+04;  0.0000000E+00;  3.9384188E+04;  9.9838868E-02;  0.0000000E+00; -4.2482018E-02;  3.2902671E+03;
  9.8290390E-01;  9.9999998E-03;  9.0687223E-02;7792;  2.7359445E-03;  0.0000000E+00; -4.1370764E-03;  9.9941626E+02;  2.3991670E-01; -4.8364056E+02;3;  6.4243698E+00;  0.0000000E+00;  2.1942964E-01;0;  5.9319135E-02;  7.0588052E+03;  0.0000000E+00; -2.8621441E-01;  4.0000000E+04;  0.0000000E+00;  3.9386551E+04;  1.0102671E-01;  0.0000000E+00; -4.1707572E-02;  3.5447324E+03;
  9.8253602E-01;  9.9999998E-03;  1.0076677E-01;7793;  2.8859889E-03;  0.0000000E+00; -4.5684478E-03;  9.9939801E+02;  2.3968628E-01; -4.9875125E+02;3;  6.3924594E+00;  0.0000000E+00;  2.4405466E-01;0;  6.1595343E-02;  7.0726211E+03;  0.0000000E+00; -4.0765685E-01;  4.0000000E+04;  0.0000000E+00;  3.9389371E+04;  1.0246705E-01;  0.0000000E+00; -4.0871702E-02;  3.4808789E+03;
  9.8210829E-01;  9.9999998E-03;  1.1083487E-01;7794;  2.9980768E-03;  0.0000000E+00; -4.9862680E-03;  9.9939850E+02;  2.3941520E-01; -4.9835620E+02;3;  6.3793416E+00;  0.0000000E+00;  2.7427214E-01;0;  6.4171806E-02;  7.0893052E+03;  0.0000000E+00; -5.5066633E-01;  4.0000000E+04;  0.0000000E+00;  3.9391434E+04;  1.0415362E-01;  0.0000000E+00; -3.9981809E-02;  3.1037068E+03;
  9.8165917E-01;  9.9999998E-03;  1.2089113E-01;7795;  3.0856021E-03;  0.0000000E+00; -5.3890287E-03;  9.9941522E+02;  2.3912460E-01; -4.8448004E+02;3;  6.3677049E+00;  0.0000000E+00;  3.0672616E-01;0;  6.7031108E-02;  7.1075200E+03;  0.0000000E+00; -6.7686164E-01;  4.0000000E+04;  0.0000000E+00;  3.9392344E+04;  1.0607247E-01;  0.0000000E+00; -3.9041363E-02;  2.5716143E+03;
  9.8123556E-01;  9.9999998E-03;  1.3096315E-01;7796;  3.1636215E-03;  0.0000000E+00; -5.7793609E-03;  9.9945581E+02;  2.3884198E-01; -4.5085138E+02;3;  6.3626533E+00;  0.0000000E+00;  3.3587074E-01;0;  7.0170909E-02;  7.1256343E+03;  0.0000000E+00; -7.2641283E-01;  4.0000000E+04;  0.0000000E+00;  3.9392074E+04;  1.0821550E-01;  0.0000000E+00; -3.8044591E-02;  2.1988035E+03;
  9.8090148E-01;  9.9999998E-03;  1.4104430E-01;7797;  3.2361611E-03;  0.0000000E+00; -6.1566927E-03;  9.9952789E+02;  2.3860723E-01; -3.9114938E+02;3;  6.3711562E+00;  0.0000000E+00;  3.6032757E-01;0;  7.3594213E-02;  7.1412485E+03;  0.0000000E+00; -6.3258594E-01;  4.0000000E+04;  0.0000000E+00;  3.9390738E+04;  1.1057538E-01;  0.0000000E+00; -3.6981169E-02;  2.3857185E+03;
  9.8077112E-01;  9.9999998E-03;  1.5112787E-01;7798;  3.3127840E-03;  0.0000000E+00; -6.5188496E-03;  9.9962378E+02;  2.3848900E-01; -3.1169485E+02;3;  6.3898759E+00;  0.0000000E+00;  3.8479662E-01;0;  7.7328995E-02;  7.1498433E+03;  0.0000000E+00; -3.4363189E-01;  4.0000000E+04;  0.0000000E+00;  3.9389121E+04;  1.1316846E-01;  0.0000000E+00; -3.5839465E-02;  3.4405618E+03;
  9.8085296E-01;  9.9999998E-03;  1.6121985E-01;7799;  3.3238775E-03;  0.0000000E+00; -6.8906411E-03;  9.9973322E+02;  2.3849881E-01; -2.2103075E+02;3;  6.2658067E+00;  0.0000000E+00;  3.4759250E-01;0;  8.1424847E-02;  7.1505884E+03;  0.0000000E+00;  1.5603329E-01;  4.0000000E+04;  0.0000000E+00;  3.9387359E+04;  1.1603384E-01;  0.0000000E+00; -3.4608994E-02;  5.4583838E+03;
  9.8114091E-01;  9.9999998E-03;  1.7131944E-01;7800;  3.1723692E-03;  0.0000000E+00; -7.2617843E-03;  9.9982776E+02;  2.3863001E-01; -1.4271199E+02;3;  6.1097174E+00;  0.0000000E+00;  3.6679098E-01;0;  8.5920081E-02;  7.1433579E+03;  0.0000000E+00;  8.2688236E-01;  4.0000000E+04;  0.0000000E+00;  3.9386164E+04;  1.1922065E-01;  0.0000000E+00; -3.3300571E-02;  8.2603281E+03;
  9.8163569E-01;  9.9999998E-03;  1.8142042E-01;7801;  2.8935866E-03;  0.0000000E+00; -7.6110777E-03;  9.9988519E+02;  2.3888646E-01; -9.5108406E+01;3;  5.9754858E+00;  0.0000000E+00;  3.8534984E-01;0;  9.0828240E-02;  7.1278486E+03;  0.0000000E+00;  1.5711406E+00;  4.0000000E+04;  0.0000000E+00;  3.9385418E+04;  1.2277292E-01;  0.0000000E+00; -3.1944674E-02;  1.1344370E+04;
  9.8231059E-01;  9.9999998E-03;  1.9151206E-01;7802;  2.5730652E-03;  0.0000000E+00; -7.9316478E-03;  9.9989252E+02;  2.3925611E-01; -8.9034508E+01;3;  5.8243065E+00;  0.0000000E+00;  4.2488325E-01;0;  9.6109018E-02;  7.1049438E+03;  0.0000000E+00;  2.2534945E+00;  4.0000000E+04;  0.0000000E+00;  3.9385148E+04;  1.2668371E-01;  0.0000000E+00; -3.0574691E-02;  1.3986850E+04;
  9.8305827E-01;  9.9999998E-03;  2.0158350E-01;7803;  2.2947430E-03;  0.0000000E+00; -8.2365153E-03;  9.9982715E+02;  2.3967032E-01; -1.4320581E+02;3;  5.7041984E+00;  0.0000000E+00;  4.5675087E-01;0;  1.0162886E-01;  7.0784780E+03;  0.0000000E+00;  2.7348745E+00;  4.0000000E+04;  0.0000000E+00;  3.9385473E+04;  1.3084300E-01;  0.0000000E+00; -2.9214136E-02;  1.5445989E+04;
  9.8378706E-01;  9.9999998E-03;  2.1163829E-01;7804;  2.1566849E-03;  0.0000000E+00; -8.5209683E-03;  9.9970282E+02;  2.4007165E-01; -2.4621523E+02;3;  5.6518526E+00;  0.0000000E+00;  4.7036111E-01;0;  1.0719737E-01;  7.0518110E+03;  0.0000000E+00;  2.9042695E+00;  4.0000000E+04;  0.0000000E+00;  3.9388184E+04;  1.3506870E-01;  0.0000000E+00; -2.7871329E-02;  1.5208093E+04;
  9.8457241E-01;  9.9999998E-03;  2.2172363E-01;7805;  2.1881934E-03;  0.0000000E+00; -8.8151582E-03;  9.9948145E+02;  2.4052125E-01; -4.2961740E+02;3;  5.6390896E+00;  0.0000000E+00;  4.8173425E-01;0;  1.1266797E-01;  7.0218657E+03;  0.0000000E+00;  2.7139292E+00;  4.0000000E+04;  0.0000000E+00;  3.9389289E+04;  1.3926288E-01;  0.0000000E+00; -2.6594914E-02;  1.3209396E+04;
  9.8518211E-01;  9.9999998E-03;  2.3180971E-01;7806;  2.4135658E-03;  0.0000000E+00; -9.1827353E-03;  9.9909277E+02;  2.4089439E-01; -7.5163293E+02;3;  5.7256050E+00;  0.0000000E+00;  4.9262986E-01;0;  1.1748412E-01;  6.9959326E+03;  0.0000000E+00;  2.1388392E+00;  4.0000000E+04;  0.0000000E+00;  3.9389379E+04;  1.4312729E-01;  0.0000000E+00; -2.5643168E-02;  9.6120469E+03;
  1.0058236E+00;  9.9999998E-03;  1.4104897E-01;7858;  7.2122184E-03;  0.0000000E+00; -5.9795063E-03;  9.9943146E+02;  2.5382385E-01; -4.7104831E+02;3;  7.5091090E+00;  0.0000000E+00;  4.7093472E-01;0;  6.5612443E-02;  6.3217354E+03;  0.0000000E+00; -6.1657184E-01;  4.0000000E+04;  0.0000000E+00;  3.9346645E+04;  1.0487346E-01;  0.0000000E+00; -3.9261013E-02;  2.9257744E+03;
  1.0058047E+00;  9.9999998E-03;  1.5118608E-01;7859;  7.3147672E-03;  0.0000000E+00; -6.3923039E-03;  9.9959863E+02;  2.5375357E-01; -3.3253372E+02;3;  7.4365325E+00;  0.0000000E+00;  4.8232400E-01;0;  7.0749670E-02;  6.3272881E+03;  0.0000000E+00; -3.2054839E-01;  4.0000000E+04;  0.0000000E+00;  3.9344930E+04;  1.0884230E-01;  0.0000000E+00; -3.8092628E-02;  4.1744146E+03;
  1.0059066E+00;  9.9999998E-03;  1.3092113E-01;7857;  6.9522583E-03;  0.0000000E+00; -5.6073456E-03;  9.9930145E+02;  2.5391412E-01; -5.7874896E+02;3;  7.5092225E+00;  0.0000000E+00;  4.6620643E-01;0;  6.0949598E-02;  6.3146821E+03;  0.0000000E+00; -7.6063842E-01;  4.0000000E+04;  0.0000000E+00;  3.9348523E+04;  1.0128638E-01;  0.0000000E+00; -4.0336784E-02;  2.3559368E+03;
  1.0058459E+00;  9.9999998E-03;  1.6131221E-01;7860;  7.2771814E-03;  0.0000000E+00; -6.8125795E-03;  9.9977338E+02;  2.5370944E-01; -1.8774773E+02;3;  7.4371452E+00;  0.0000000E+00;  4.9516127E-01;0;  7.6316923E-02;  6.3310015E+03;  0.0000000E+00;  1.3353640E-01;  4.0000000E+04;  0.0000000E+00;  3.9343359E+04;  1.1312455E-01;  0.0000000E+00; -3.6807623E-02;  6.1325488E+03;
  1.0061951E+00;  9.9999998E-03;  1.2082218E-01;7856;  6.7351433E-03;  0.0000000E+00; -5.2399733E-03;  9.9922186E+02;  2.5412503E-01; -6.4467297E+02;3;  7.4537635E+00;  0.0000000E+00;  4.3673548E-01;0;  5.6711946E-02;  6.3018223E+03;  0.0000000E+00; -7.8423226E-01;  4.0000000E+04;  0.0000000E+00;  3.9348742E+04;  9.8080792E-02;  0.0000000E+00; -4.1368846E-02;  2.2529263E+03;
  1.0060424E+00;  9.9999998E-03;  1.7141616E-01;7861;  7.2137080E-03;  0.0000000E+00; -7.2222208E-03;  9.9992969E+02;  2.5375298E-01; -5.8269943E+01;3;  7.4210305E+00;  0.0000000E+00;  5.1594031E-01;0;  8.2174793E-02;  6.3292266E+03;  0.0000000E+00;  7.0898587E-01;  4.0000000E+04;  0.0000000E+00;  3.9342789E+04;  1.1758881E-01;  0.0000000E+00; -3.5414014E-02;  8.5970957E+03;
  1.0064921E+00;  9.9999998E-03;  1.8151583E-01;7862;  7.1874275E-03;  0.0000000E+00; -7.6094791E-03;  1.0000454E+03;  2.5396487E-01;  3.7628555E+01;3;  7.3871484E+00;  0.0000000E+00;  5.4675865E-01;0;  8.8140532E-02;  6.3183423E+03;  0.0000000E+00;  1.3225492E+00;  4.0000000E+04;  0.0000000E+00;  3.9342039E+04;  1.2207150E-01;  0.0000000E+00; -3.3930965E-02;  1.1107101E+04;
  1.0067848E+00;  9.9999998E-03;  1.1076467E-01;7855;  6.6071055E-03;  0.0000000E+00; -4.8555732E-03;  9.9918030E+02;  2.5451979E-01; -6.7909174E+02;3;  7.4187355E+00;  0.0000000E+00;  4.0497896E-01;0;  5.2845940E-02;  6.2802515E+03;  0.0000000E+00; -7.3193723E-01;  4.0000000E+04;  0.0000000E+00;  3.9347734E+04;  9.5232733E-02;  0.0000000E+00; -4.2386793E-02;  2.3084492E+03;
  1.0070050E+00;  9.9999998E-03;  1.9159468E-01;7863;  7.2053047E-03;  0.0000000E+00; -7.9723187E-03;  1.0000900E+03;  2.5421792E-01;  7.4565773E+01;3;  7.3657432E+00;  0.0000000E+00;  5.6787193E-01;0;  9.4088174E-02;  6.3043267E+03;  0.0000000E+00;  1.8736202E+00;  4.0000000E+04;  0.0000000E+00;  3.9342074E+04;  1.2645118E-01;  0.0000000E+00; -3.2363005E-02;  1.3090593E+04;
  1.0073721E+00;  9.9999998E-03;  1.0070852E-01;7854;  6.4412900E-03;  0.0000000E+00; -4.4669830E-03;  9.9918060E+02;  2.5490043E-01; -6.7884485E+02;3;  7.4068699E+00;  0.0000000E+00;  3.6067337E-01;0;  4.9497366E-02;  6.2597476E+03;  0.0000000E+00; -6.4573097E-01;  4.0000000E+04;  0.0000000E+00;  3.9345242E+04;  9.2867769E-02;  0.0000000E+00; -4.3370403E-02;  2.2980894E+03;
  1.0075985E+00;  9.9999998E-03;  2.0166565E-01;7864;  7.4033267E-03;  0.0000000E+00; -8.3111143E-03;  1.0000452E+03;  2.5452772E-01;  3.7431030E+01;3;  7.4001575E+00;  0.0000000E+00;  5.9637129E-01;0;  9.9758148E-02;  6.2864468E+03;  0.0000000E+00;  2.2610674E+00;  4.0000000E+04;  0.0000000E+00;  3.9343324E+04;  1.3048273E-01;  0.0000000E+00; -3.0724585E-02;  1.4011095E+04;
  1.0078301E+00;  9.9999998E-03;  9.0639740E-02;7853;  6.2107053E-03;  0.0000000E+00; -4.0771421E-03;  9.9919171E+02;  2.5519052E-01; -6.6965991E+02;3;  7.3663893E+00;  0.0000000E+00;  3.2831630E-01;0;  4.6725377E-02;  6.2441753E+03;  0.0000000E+00; -5.5201447E-01;  4.0000000E+04;  0.0000000E+00;  3.9342387E+04;  9.1031037E-02;  0.0000000E+00; -4.4305660E-02;  2.1469995E+03;
  1.0082799E+00;  9.9999998E-03;  2.1173635E-01;7865;  7.9186540E-03;  0.0000000E+00; -8.6196959E-03;  9.9993457E+02;  2.5490806E-01; -5.4220676E+01;3;  7.5368791E+00;  0.0000000E+00;  6.1470908E-01;0;  1.0486387E-01;  6.2645093E+03;  0.0000000E+00;  2.4032345E+00;  4.0000000E+04;  0.0000000E+00;  3.9345891E+04;  1.3387598E-01;  0.0000000E+00; -2.9012106E-02;  1.3521589E+04;
  1.0081185E+00;  9.9999998E-03;  8.0564350E-02;7852;  5.9564882E-03;  0.0000000E+00; -3.6726082E-03;  9.9921613E+02;  2.5536460E-01; -6.4941357E+02;3;  7.3247852E+00;  0.0000000E+00;  3.0132228E-01;0;  4.4529445E-02;  6.2345537E+03;  0.0000000E+00; -4.6123743E-01;  4.0000000E+04;  0.0000000E+00;  3.9339410E+04;  8.9706570E-02;  0.0000000E+00; -4.5177124E-02;  1.8850143E+03;
  1.0090106E+00;  9.9999998E-03;  2.2183442E-01;7866;  8.8242972E-03;  0.0000000E+00; -8.8989874E-03;  9.9971558E+02;  2.5534195E-01; -2.3564760E+02;3;  7.7250843E+00;  0.0000000E+00;  6.6314560E-01;0;  1.0917487E-01;  6.2396636E+03;  0.0000000E+00;  2.2489285E+00;  4.0000000E+04;  0.0000000E+00;  3.9347012E+04;  1.3636486E-01;  0.0000000E+00; -2.7189992E-02;  1.1552755E+04;
  1.0083255E+00;  9.9999998E-03;  7.0488557E-02;7851;  5.7201856E-03;  0.0000000E+00; -3.2509805E-03;  9.9924628E+02;  2.5548658E-01; -6.2442664E+02;3;  7.2919965E+00;  0.0000000E+00;  2.7709952E-01;0;  4.2810697E-02;  6.2278716E+03;  0.0000000E+00; -3.7469372E-01;  4.0000000E+04;  0.0000000E+00;  3.9337246E+04;  8.8793524E-02;  0.0000000E+00; -4.5982827E-02;  1.5767808E+03;
  1.0097693E+00;  9.9999998E-03;  2.3193559E-01;7867;  1.0131448E-02;  0.0000000E+00; -9.2251739E-03;  9.9937195E+02;  2.5582588E-01; -5.2033087E+02;3;  8.0362120E+00;  0.0000000E+00;  7.0507264E-01;0;  1.1230730E-01;  6.2123286E+03;  0.0000000E+00;  1.7802913E+00;  4.0000000E+04;  0.0000000E+00;  3.9345188E+04;  1.3771051E-01;  0.0000000E+00; -2.5403207E-02;  8.3177842E+03;
  1.0338523E+00;  9.9999998E-03;  1.1082273E-01;7916;  8.0444505E-03;  0.0000000E+00; -5.2981256E-03;  9.9878748E+02;  2.7175426E-01; -1.0045638E+03;3;  7.5324502E+00;  0.0000000E+00;  8.7013826E-02;0;  4.2876180E-02;  5.5147725E+03;  0.0000000E+00; -6.2038642E-01;  4.0000000E+04;  0.0000000E+00;  3.9300977E+04;  8.9205347E-02;  0.0000000E+00; -4.6329167E-02;  1.7564689E+03;
  1.0339158E+00;  9.9999998E-03;  1.0074164E-01;7915;  7.7012442E-03;  0.0000000E+00; -4.9127359E-03;  9.9877313E+02;  2.7178821E-01; -1.0164153E+03;3;  7.4721828E+00;  0.0000000E+00;  1.2090168E-01;0;  4.0572491E-02;  5.5112505E+03;  0.0000000E+00; -5.5683804E-01;  4.0000000E+04;  0.0000000E+00;  3.9299660E+04;  8.7925434E-02;  0.0000000E+00; -4.7352944E-02;  1.3094333E+03;
  1.0341352E+00;  9.9999998E-03;  7.0524566E-02;7912;  7.0472201E-03;  0.0000000E+00; -3.6313608E-03;  9.9881152E+02;  2.7189523E-01; -9.8461377E+02;3;  7.3241262E+00;  0.0000000E+00;  1.4107472E-01;0;  3.6481369E-02;  5.5026396E+03;  0.0000000E+00; -3.2374302E-01;  4.0000000E+04;  0.0000000E+00;  3.9292836E+04;  8.6473584E-02;  0.0000000E+00; -4.9992215E-02;  3.1784131E+02;
  1.0335877E+00;  9.9999998E-03;  1.5121540E-01;7920;  9.8921992E-03;  0.0000000E+00; -6.7449622E-03;  9.9932318E+02;  2.7141258E-01; -5.6072467E+02;3;  7.8333859E+00;  0.0000000E+00; -4.7694445E-02;0;  5.7114471E-02;  5.5385742E+03;  0.0000000E+00; -6.7094147E-01;  4.0000000E+04;  0.0000000E+00;  3.9296391E+04;  9.8439135E-02;  0.0000000E+00; -4.1324664E-02;  3.8850466E+03;
  1.0333714E+00;  9.9999998E-03;  1.6130036E-01;7921;  1.0294336E-02;  0.0000000E+00; -7.1269819E-03;  9.9954395E+02;  2.7115992E-01; -3.7781635E+02;3;  8.0589409E+00;  0.0000000E+00;  2.7790219E-02;0;  6.1744530E-02;  5.5501499E+03;  0.0000000E+00; -5.7435304E-01;  4.0000000E+04;  0.0000000E+00;  3.9295195E+04;  1.0144045E-01;  0.0000000E+00; -3.9695922E-02;  4.6708525E+03;
  1.0333117E+00;  9.9999998E-03;  1.7140630E-01;7922;  1.0726243E-02;  0.0000000E+00; -7.5234300E-03;  9.9975922E+02;  2.7100170E-01; -1.9950046E+02;3;  8.2606287E+00;  0.0000000E+00;  1.0948139E-01;0;  6.6502199E-02;  5.5570288E+03;  0.0000000E+00; -4.2828137E-01;  4.0000000E+04;  0.0000000E+00;  3.9294516E+04;  1.0439171E-01;  0.0000000E+00; -3.7889510E-02;  5.4831606E+03;
  1.0342462E+00;  9.9999998E-03;  9.0677433E-02;7914;  7.4462774E-03;  0.0000000E+00; -4.5124879E-03;  9.9879578E+02;  2.7199918E-01; -9.9769983E+02;3;  7.4219732E+00;  0.0000000E+00;  1.3416372E-01;0;  3.8811900E-02;  5.5009722E+03;  0.0000000E+00; -4.8141310E-01;  4.0000000E+04;  0.0000000E+00;  3.9296996E+04;  8.7165684E-02;  0.0000000E+00; -4.8353784E-02;  8.6899982E+02;
  1.0341628E+00;  9.9999998E-03;  1.2093467E-01;7917;  8.4688868E-03;  0.0000000E+00; -5.6810640E-03;  9.9885620E+02;  2.7196839E-01; -9.4762714E+02;3;  7.5763965E+00;  0.0000000E+00;  4.9288206E-02;0;  4.5690224E-02;  5.5088774E+03;  0.0000000E+00; -6.7020541E-01;  4.0000000E+04;  0.0000000E+00;  3.9300480E+04;  9.0984657E-02;  0.0000000E+00; -4.5294434E-02;  2.1977966E+03;
  1.0339426E+00;  9.9999998E-03;  1.4113529E-01;7919;  9.3873683E-03;  0.0000000E+00; -6.3992767E-03;  9.9912079E+02;  2.7173957E-01; -7.2842358E+02;3;  7.7159786E+00;  0.0000000E+00; -3.6496907E-02;0;  5.2808382E-02;  5.5233315E+03;  0.0000000E+00; -7.1201128E-01;  4.0000000E+04;  0.0000000E+00;  3.9297809E+04;  9.5606536E-02;  0.0000000E+00; -4.2798154E-02;  3.2138098E+03;
  1.0342908E+00;  9.9999998E-03;  8.0603585E-02;7913;  7.2321063E-03;  0.0000000E+00; -4.0858267E-03;  9.9881470E+02;  2.7201429E-01; -9.8199652E+02;3;  7.3746939E+00;  0.0000000E+00;  1.4279245E-01;0;  3.7473835E-02;  5.4990273E+03;  0.0000000E+00; -4.0294889E-01;  4.0000000E+04;  0.0000000E+00;  3.9294566E+04;  8.6704001E-02;  0.0000000E+00; -4.9230166E-02;  5.0124994E+02;
  1.0332615E+00;  9.9999998E-03;  1.8152227E-01;7923;  1.1285813E-02;  0.0000000E+00; -7.9068756E-03;  9.9992755E+02;  2.7083948E-01; -5.9998280E+01;3;  8.3945856E+00;  0.0000000E+00;  1.3887109E-01;0;  7.1212769E-02;  5.5628008E+03;  0.0000000E+00; -2.4592170E-01;  4.0000000E+04;  0.0000000E+00;  3.9295367E+04;  1.0711084E-01;  0.0000000E+00; -3.5898071E-02;  6.2033643E+03;
  1.0332081E+00;  9.9999998E-03;  1.9164865E-01;7924;  1.2069736E-02;  0.0000000E+00; -8.2448358E-03;  1.0000045E+03;  2.7068335E-01;  3.7529788E+00;3;  8.5198889E+00;  0.0000000E+00;  1.4032212E-01;0;  7.5637661E-02;  5.5673271E+03;  0.0000000E+00; -5.1457908E-02;  4.0000000E+04;  0.0000000E+00;  3.9297449E+04;  1.0938360E-01;  0.0000000E+00; -3.3745937E-02;  6.7010781E+03;
  1.0341927E+00;  9.9999998E-03;  1.3104078E-01;7918;  8.9142853E-03;  0.0000000E+00; -6.0460102E-03;  9.9896381E+02;  2.7196482E-01; -8.5844452E+02;3;  7.6176171E+00;  0.0000000E+00;  7.6635401E-03;0;  4.8989598E-02;  5.5117236E+03;  0.0000000E+00; -7.0577073E-01;  4.0000000E+04;  0.0000000E+00;  3.9299547E+04;  9.3111947E-02;  0.0000000E+00; -4.4122349E-02;  2.6659900E+03;
  1.0333586E+00;  9.9999998E-03;  2.0177257E-01;7925;  1.3186425E-02;  0.0000000E+00; -8.5406220E-03;  9.9997540E+02;  2.7068970E-01; -2.0394478E+01;3;  8.6604481E+00;  0.0000000E+00;  1.4597066E-01;0;  7.9359695E-02;  5.5645156E+03;  0.0000000E+00;  1.0337254E-01;  4.0000000E+04;  0.0000000E+00;  3.9299340E+04;  1.1079991E-01;  0.0000000E+00; -3.1440210E-02;  6.7914233E+03;
  1.0336488E+00;  9.9999998E-03;  2.1187252E-01;7926;  1.4689460E-02;  0.0000000E+00; -8.7706614E-03;  9.9983972E+02;  2.7081460E-01; -1.3278632E+02;3;  8.7405338E+00;  0.0000000E+00;  1.1190230E-01;0;  8.2221977E-02;  5.5560679E+03;  0.0000000E+00;  1.8632361E-01;  4.0000000E+04;  0.0000000E+00;  3.9302160E+04;  1.1113687E-01;  0.0000000E+00; -2.8914889E-02;  6.4061934E+03;
  1.0341671E+00;  9.9999998E-03;  2.2197333E-01;7927;  1.6512448E-02;  0.0000000E+00; -8.9524901E-03;  9.9960736E+02;  2.7112055E-01; -3.2527463E+02;3;  8.3465405E+00;  0.0000000E+00; -9.9704161E-02;0;  8.4084377E-02;  5.5395166E+03;  0.0000000E+00;  1.5499145E-01;  4.0000000E+04;  0.0000000E+00;  3.9305066E+04;  1.1009247E-01;  0.0000000E+00; -2.6008094E-02;  5.5269385E+03;
  1.0348326E+00;  9.9999998E-03;  2.3208694E-01;7928;  1.8260268E-02;  0.0000000E+00; -9.2091514E-03;  9.9921704E+02;  2.7156872E-01; -6.4867279E+02;3;  6.4121695E+00;  0.0000000E+00; -6.0880262E-01;0;  8.4909849E-02;  5.5171587E+03;  0.0000000E+00; -1.3385545E-02;  4.0000000E+04;  0.0000000E+00;  3.9302961E+04;  1.0766546E-01;  0.0000000E+00; -2.2755614E-02;  4.1106196E+03;
  1.0615013E+00;  9.9999998E-03;  7.0599690E-02;7973;  7.6960120E-03;  0.0000000E+00; -4.1102683E-03;  9.9846161E+02;  2.8983635E-01; -1.2745312E+03;3;  7.3462610E+00;  0.0000000E+00; -5.3411186E-02;0;  6.7153960E-02;  4.8478701E+03;  0.0000000E+00;  6.6000827E-02;  4.0000000E+04;  0.0000000E+00;  3.9244207E+04;  1.2269611E-01;  0.0000000E+00; -5.5542152E-02;  1.1508885E+03;
  1.0608554E+00;  9.9999998E-03;  2.3227811E-01;7989;  1.8807841E-02;  0.0000000E+00; -1.1034749E-02;  9.9889465E+02;  2.8837568E-01; -9.1577618E+02;3;  2.6997750E+00;  0.0000000E+00; -1.5109073E+00;0;  4.8472717E-02;  4.8954175E+03;  0.0000000E+00; -2.1617651E+00;  4.0000000E+04;  0.0000000E+00;  3.9257270E+04;  7.0872478E-02;  0.0000000E+00; -2.2399763E-02;  2.0009414E+03;
  1.0604850E+00;  9.9999998E-03;  2.2217964E-01;7988;  1.7994046E-02;  0.0000000E+00; -1.0736041E-02;  9.9932446E+02;  2.8811157E-01; -5.5968762E+02;3;  3.5276825E+00;  0.0000000E+00; -1.5254767E+00;0;  5.2397605E-02;  4.9087490E+03;  0.0000000E+00; -2.2319880E+00;  4.0000000E+04;  0.0000000E+00;  3.9258117E+04;  7.7795438E-02;  0.0000000E+00; -2.5397833E-02;  2.1008630E+03;
  1.0619967E+00;  9.9999998E-03;  8.0692753E-02;7974;  7.8422800E-03;  0.0000000E+00; -4.6689529E-03;  9.9846509E+02;  2.9018629E-01; -1.2716671E+03;3;  7.4348006E+00;  0.0000000E+00; -8.6987421E-02;0;  6.7380555E-02;  4.8371899E+03;  0.0000000E+00;  2.9620500E-02;  4.0000000E+04;  0.0000000E+00;  3.9245715E+04;  1.2241264E-01;  0.0000000E+00; -5.5032089E-02;  1.3444606E+03;
  1.0602826E+00;  9.9999998E-03;  2.1210890E-01;7987;  1.7057059E-02;  0.0000000E+00; -1.0459065E-02;  9.9955713E+02;  2.8800979E-01; -3.6690305E+02;3;  4.8003902E+00;  0.0000000E+00; -1.4575511E+00;0;  5.5405758E-02;  4.9160312E+03;  0.0000000E+00; -2.2388980E+00;  4.0000000E+04;  0.0000000E+00;  3.9253953E+04;  8.3926074E-02;  0.0000000E+00; -2.8520318E-02;  2.0953875E+03;
  1.0602225E+00;  9.9999998E-03;  2.0204216E-01;7986;  1.5850285E-02;  0.0000000E+00; -1.0146718E-02;  9.9966327E+02;  2.8803831E-01; -2.7895496E+02;3;  6.2779603E+00;  0.0000000E+00; -1.2223876E+00;0;  5.7622585E-02;  4.9178896E+03;  0.0000000E+00; -2.1679854E+00;  4.0000000E+04;  0.0000000E+00;  3.9250844E+04;  8.9252912E-02;  0.0000000E+00; -3.1630326E-02;  2.5360706E+03;
  1.0624875E+00;  9.9999998E-03;  9.0781190E-02;7975;  8.0556432E-03;  0.0000000E+00; -5.2139945E-03;  9.9844196E+02;  2.9054183E-01; -1.2908271E+03;3;  7.5203090E+00;  0.0000000E+00; -1.3229164E-01;0;  6.7563243E-02;  4.8264966E+03;  0.0000000E+00; -4.8750054E-02;  4.0000000E+04;  0.0000000E+00;  3.9247707E+04;  1.2196261E-01;  0.0000000E+00; -5.4399364E-02;  1.5466707E+03;
  1.0602747E+00;  9.9999998E-03;  1.9194745E-01;7985;  1.4513134E-02;  0.0000000E+00; -9.8043019E-03;  9.9963910E+02;  2.8818059E-01; -2.9900375E+02;3;  7.2254562E+00;  0.0000000E+00; -1.0025967E+00;0;  5.9194904E-02;  4.9151582E+03;  0.0000000E+00; -2.0249515E+00;  4.0000000E+04;  0.0000000E+00;  3.9249148E+04;  9.3904771E-02;  0.0000000E+00; -3.4709867E-02;  3.2015920E+03;
  1.0604511E+00;  9.9999998E-03;  1.8183333E-01;7984;  1.3302245E-02;  0.0000000E+00; -9.4262492E-03;  9.9949670E+02;  2.8843221E-01; -4.1697568E+02;3;  7.5747547E+00;  0.0000000E+00; -8.7090188E-01;0;  6.0297545E-02;  4.9078442E+03;  0.0000000E+00; -1.8335228E+00;  4.0000000E+04;  0.0000000E+00;  3.9247648E+04;  9.8012865E-02;  0.0000000E+00; -3.7715320E-02;  3.8354609E+03;
  1.0609107E+00;  9.9999998E-03;  1.7171849E-01;7983;  1.2257643E-02;  0.0000000E+00; -9.0265591E-03;  9.9926660E+02;  2.8890368E-01; -6.0758746E+02;3;  7.6973352E+00;  0.0000000E+00; -7.6483166E-01;0;  6.1143786E-02;  4.8923452E+03;  0.0000000E+00; -1.6232723E+00;  4.0000000E+04;  0.0000000E+00;  3.9245965E+04;  1.0174936E-01;  0.0000000E+00; -4.0605575E-02;  4.2216230E+03;
  1.0630510E+00;  9.9999998E-03;  1.0087348E-01;7976;  8.3348891E-03;  0.0000000E+00; -5.7486151E-03;  9.9840833E+02;  2.9095012E-01; -1.3186781E+03;3;  7.6003580E+00;  0.0000000E+00; -1.8489715E-01;0;  6.7835584E-02;  4.8142471E+03;  0.0000000E+00; -1.7281632E-01;  4.0000000E+04;  0.0000000E+00;  3.9248875E+04;  1.2147257E-01;  0.0000000E+00; -5.3636994E-02;  1.7641390E+03;
  1.0616667E+00;  9.9999998E-03;  1.6160844E-01;7982;  1.1415941E-02;  0.0000000E+00; -8.6106760E-03;  9.9901111E+02;  2.8958631E-01; -8.1928510E+02;3;  7.7086234E+00;  0.0000000E+00; -7.1430588E-01;0;  6.2106099E-02;  4.8690654E+03;  0.0000000E+00; -1.4088099E+00;  4.0000000E+04;  0.0000000E+00;  3.9245359E+04;  1.0544614E-01;  0.0000000E+00; -4.3340046E-02;  4.2249263E+03;
  1.0635037E+00;  9.9999998E-03;  1.1098269E-01;7977;  8.6729676E-03;  0.0000000E+00; -6.2708589E-03;  9.9838208E+02;  2.9127449E-01; -1.3404059E+03;3;  7.6771412E+00;  0.0000000E+00; -2.5018293E-01;0;  6.7812055E-02;  4.8052349E+03;  0.0000000E+00; -3.4068432E-01;  4.0000000E+04;  0.0000000E+00;  3.9249531E+04;  1.2048458E-01;  0.0000000E+00; -5.2672528E-02;  1.9839633E+03;
  1.0623891E+00;  9.9999998E-03;  1.5148170E-01;7981;  1.0682586E-02;  0.0000000E+00; -8.1760027E-03;  9.9876782E+02;  2.9023021E-01; -1.0208596E+03;3;  7.7664471E+00;  0.0000000E+00; -6.1219186E-01;0;  6.3271374E-02;  4.8465864E+03;  0.0000000E+00; -1.1893426E+00;  4.0000000E+04;  0.0000000E+00;  3.9245684E+04;  1.0909854E-01;  0.0000000E+00; -4.5827162E-02;  3.8534060E+03;
  1.0635831E+00;  9.9999998E-03;  1.2110023E-01;7978;  9.0644481E-03;  0.0000000E+00; -6.7713833E-03;  9.9838757E+02;  2.9130799E-01; -1.3358628E+03;3;  7.7473550E+00;  0.0000000E+00; -3.2896829E-01;0;  6.7067005E-02;  4.8058418E+03;  0.0000000E+00; -5.3975284E-01;  4.0000000E+04;  0.0000000E+00;  3.9249250E+04;  1.1848212E-01;  0.0000000E+00; -5.1415116E-02;  2.2574880E+03;
  1.0629878E+00;  9.9999998E-03;  1.4135066E-01;7980;  1.0050994E-02;  0.0000000E+00; -7.7233161E-03;  9.9857446E+02;  2.9076087E-01; -1.1810525E+03;3;  7.7840729E+00;  0.0000000E+00; -5.1879966E-01;0;  6.4595334E-02;  4.8274609E+03;  0.0000000E+00; -9.7012895E-01;  4.0000000E+04;  0.0000000E+00;  3.9246773E+04;  1.1260331E-01;  0.0000000E+00; -4.8007980E-02;  3.2652898E+03;
  1.0633916E+00;  9.9999998E-03;  1.3122381E-01;7979;  9.5154289E-03;  0.0000000E+00; -7.2556091E-03;  9.9844598E+02;  2.9112586E-01; -1.2874692E+03;3;  7.7780681E+00;  0.0000000E+00; -4.1765535E-01;0;  6.5915860E-02;  4.8137002E+03;  0.0000000E+00; -7.5269878E-01;  4.0000000E+04;  0.0000000E+00;  3.9248031E+04;  1.1578000E-01;  0.0000000E+00; -4.9864136E-02;  2.6830815E+03;
  1.0900397E+00;  9.9999998E-03;  2.3249458E-01;8050;  1.8367196E-02;  0.0000000E+00; -1.3202454E-02;  9.9864923E+02;  3.0783576E-01; -1.1190786E+03;3;  1.8643078E+00;  0.0000000E+00; -1.2333905E+00;0;  2.2444960E-02;  4.2976865E+03;  0.0000000E+00; -3.7246528E+00;  4.0000000E+04;  0.0000000E+00;  3.9206387E+04;  4.3982282E-02;  0.0000000E+00; -2.1537323E-02;  1.5401451E+03;
  1.0897745E+00;  9.9999998E-03;  2.2239473E-01;8049;  1.7769722E-02;  0.0000000E+00; -1.2879967E-02;  9.9910773E+02;  3.0760601E-01; -7.3923779E+02;3;  2.5597215E+00;  0.0000000E+00; -1.3573308E+00;0;  3.3328556E-02;  4.3079883E+03;  0.0000000E+00; -3.7077489E+00;  4.0000000E+04;  0.0000000E+00;  3.9207684E+04;  5.7792719E-02;  0.0000000E+00; -2.4464162E-02;  2.0604673E+03;
  1.0896569E+00;  9.9999998E-03;  2.1231666E-01;8048;  1.7128915E-02;  0.0000000E+00; -1.2594307E-02;  9.9929279E+02;  3.0754870E-01; -5.8590894E+02;3;  3.5982504E+00;  0.0000000E+00; -1.3263263E+00;0;  4.3944605E-02;  4.3129102E+03;  0.0000000E+00; -3.5363364E+00;  4.0000000E+04;  0.0000000E+00;  3.9204016E+04;  7.2000414E-02;  0.0000000E+00; -2.8055811E-02;  2.5607937E+03;
  1.0896595E+00;  9.9999998E-03;  2.0226349E-01;8047;  1.6347753E-02;  0.0000000E+00; -1.2268816E-02;  9.9930170E+02;  3.0761546E-01; -5.7855109E+02;3;  5.0059299E+00;  0.0000000E+00; -1.1517162E+00;0;  5.4479960E-02;  4.3132979E+03;  0.0000000E+00; -3.2469835E+00;  4.0000000E+04;  0.0000000E+00;  3.9199418E+04;  8.6410955E-02;  0.0000000E+00; -3.1930994E-02;  3.5637356E+03;
  1.0899707E+00;  9.9999998E-03;  1.9219145E-01;8046;  1.5443011E-02;  0.0000000E+00; -1.1910885E-02;  9.9915790E+02;  3.0794987E-01; -6.9765875E+02;3;  6.1267223E+00;  0.0000000E+00; -9.9761438E-01;0;  6.5133460E-02;  4.3051836E+03;  0.0000000E+00; -2.8813426E+00;  4.0000000E+04;  0.0000000E+00;  3.9196391E+04;  1.0110492E-01;  0.0000000E+00; -3.5971463E-02;  4.7112075E+03;
  1.0918345E+00;  9.9999998E-03;  7.0806354E-02;8034;  8.7216124E-03;  0.0000000E+00; -4.5932801E-03;  9.9828021E+02;  3.1034186E-01; -1.4247981E+03;3;  7.3650517E+00;  0.0000000E+00; -2.9816908E-01;0;  1.6131613E-01;  4.2342725E+03;  0.0000000E+00;  3.3501700E-01;  4.0000000E+04;  0.0000000E+00;  3.9189141E+04;  2.2291990E-01;  0.0000000E+00; -6.1603770E-02;  2.5703826E+03;
  1.0904758E+00;  9.9999998E-03;  1.8210074E-01;8045;  1.4435078E-02;  0.0000000E+00; -1.1497746E-02;  9.9890308E+02;  3.0846488E-01; -9.0876373E+02;3;  6.9944472E+00;  0.0000000E+00; -8.8628930E-01;0;  7.5985625E-02;  4.2914443E+03;  0.0000000E+00; -2.4824946E+00;  4.0000000E+04;  0.0000000E+00;  3.9193379E+04;  1.1604629E-01;  0.0000000E+00; -4.0060673E-02;  5.5602139E+03;
  1.0922769E+00;  9.9999998E-03;  8.0913931E-02;8035;  8.7807840E-03;  0.0000000E+00; -5.2600265E-03;  9.9823895E+02;  3.1064758E-01; -1.4589700E+03;3;  7.4887829E+00;  0.0000000E+00; -3.3550328E-01;0;  1.5895241E-01;  4.2262363E+03;  0.0000000E+00;  3.1455368E-01;  4.0000000E+04;  0.0000000E+00;  3.9190465E+04;  2.2038181E-01;  0.0000000E+00; -6.1429404E-02;  2.7315286E+03;
  1.0911763E+00;  9.9999998E-03;  1.7199068E-01;8044;  1.3426705E-02;  0.0000000E+00; -1.1019301E-02;  9.9857556E+02;  3.0914277E-01; -1.1801139E+03;3;  7.4635077E+00;  0.0000000E+00; -8.3586097E-01;0;  8.7172598E-02;  4.2726562E+03;  0.0000000E+00; -2.0941055E+00;  4.0000000E+04;  0.0000000E+00;  3.9191055E+04;  1.3124628E-01;  0.0000000E+00; -4.4073690E-02;  5.7947734E+03;
  1.0928977E+00;  9.9999998E-03;  9.1010168E-02;8036;  8.9305025E-03;  0.0000000E+00; -5.9339828E-03;  9.9814502E+02;  3.1109715E-01; -1.5367949E+03;3;  7.5794249E+00;  0.0000000E+00; -3.9653438E-01;0;  1.5645044E-01;  4.2142417E+03;  0.0000000E+00;  2.1276379E-01;  4.0000000E+04;  0.0000000E+00;  3.9192184E+04;  2.1755120E-01;  0.0000000E+00; -6.1100762E-02;  2.6330586E+03;
  1.0920182E+00;  9.9999998E-03;  1.6185687E-01;8043;  1.2507083E-02;  0.0000000E+00; -1.0481793E-02;  9.9825470E+02;  3.0992112E-01; -1.4459333E+03;3;  7.7207775E+00;  0.0000000E+00; -7.9444063E-01;0;  9.8736763E-02;  4.2506948E+03;  0.0000000E+00; -1.7415061E+00;  4.0000000E+04;  0.0000000E+00;  3.9189363E+04;  1.4659844E-01;  0.0000000E+00; -4.7861684E-02;  5.3065117E+03;
  1.0934657E+00;  9.9999998E-03;  1.0110015E-01;8037;  9.1466587E-03;  0.0000000E+00; -6.6064759E-03;  9.9802209E+02;  3.1150395E-01; -1.6386685E+03;3;  7.6581211E+00;  0.0000000E+00; -4.4059098E-01;0;  1.5281746E-01;  4.2033789E+03;  0.0000000E+00;  2.4970651E-02;  4.0000000E+04;  0.0000000E+00;  3.9193723E+04;  2.1333742E-01;  0.0000000E+00; -6.0519964E-02;  2.3561909E+03;
  1.0928155E+00;  9.9999998E-03;  1.5170422E-01;8042;  1.1693920E-02;  0.0000000E+00; -9.8940553E-03;  9.9798212E+02;  3.1065902E-01; -1.6717539E+03;3;  7.8536301E+00;  0.0000000E+00; -7.3248273E-01;0;  1.1033417E-01;  4.2297583E+03;  0.0000000E+00; -1.4253376E+00;  4.0000000E+04;  0.0000000E+00;  3.9189051E+04;  1.6159031E-01;  0.0000000E+00; -5.1256131E-02;  4.2744800E+03;
  1.0938491E+00;  9.9999998E-03;  1.1119187E-01;8038;  9.4481790E-03;  0.0000000E+00; -7.2784699E-03;  9.9789752E+02;  3.1176865E-01; -1.7418754E+03;3;  7.7510428E+00;  0.0000000E+00; -4.9606952E-01;0;  1.4753851E-01;  4.1966177E+03;  0.0000000E+00; -2.3192295E-01;  4.0000000E+04;  0.0000000E+00;  3.9194160E+04;  2.0713921E-01;  0.0000000E+00; -5.9600703E-02;  2.0757263E+03;
  1.0934259E+00;  9.9999998E-03;  1.4154992E-01;8041;  1.0967957E-02;  0.0000000E+00; -9.2624063E-03;  9.9781921E+02;  3.1123653E-01; -1.8067623E+03;3;  7.8942261E+00;  0.0000000E+00; -6.6693890E-01;0;  1.2142710E-01;  4.2131079E+03;  0.0000000E+00; -1.1281846E+00;  4.0000000E+04;  0.0000000E+00;  3.9190227E+04;  1.7555973E-01;  0.0000000E+00; -5.4132633E-02;  3.1156345E+03;
  1.0939611E+00;  9.9999998E-03;  1.2129044E-01;8039;  9.8442575E-03;  0.0000000E+00; -7.9466915E-03;  9.9779803E+02;  3.1180862E-01; -1.8242927E+03;3;  7.8324809E+00;  0.0000000E+00; -5.4884404E-01;0;  1.4038865E-01;  4.1960522E+03;  0.0000000E+00; -5.2699035E-01;  4.0000000E+04;  0.0000000E+00;  3.9193660E+04;  1.9865420E-01;  0.0000000E+00; -5.8265556E-02;  1.9810885E+03;
  1.0938014E+00;  9.9999998E-03;  1.3140754E-01;8040;  1.0348989E-02;  0.0000000E+00; -8.6094094E-03;  9.9775946E+02;  3.1161630E-01; -1.8562424E+03;3;  7.8850017E+00;  0.0000000E+00; -6.0983050E-01;0;  1.3154492E-01;  4.2019634E+03;  0.0000000E+00; -8.3054447E-01;  4.0000000E+04;  0.0000000E+00;  3.9192074E+04;  1.8800163E-01;  0.0000000E+00; -5.6456722E-02;  2.2820371E+03;
  1.1244166E+00;  9.9999998E-03;  7.0906177E-02;8095;  1.1791390E-02;  0.0000000E+00; -4.9977368E-03;  9.9852319E+02;  3.3286962E-01; -1.2235195E+03;3;  6.9152260E+00;  0.0000000E+00; -6.6369110E-01;0;  2.8127998E-01;  3.6878354E+03;  0.0000000E+00;  1.7122346E-01;  4.0000000E+04;  0.0000000E+00;  3.9130094E+04;  3.4523794E-01;  0.0000000E+00; -6.3957967E-02;  2.1349944E+03;
  1.1246910E+00;  9.9999998E-03;  8.1032649E-02;8096;  1.1904130E-02;  0.0000000E+00; -5.7568345E-03;  9.9846002E+02;  3.3304402E-01; -1.2758636E+03;3;  7.0103207E+00;  0.0000000E+00; -7.6959026E-01;0;  2.7409679E-01;  3.6837590E+03;  0.0000000E+00;  1.6196583E-01;  4.0000000E+04;  0.0000000E+00;  3.9131176E+04;  3.3827293E-01;  0.0000000E+00; -6.4176150E-02;  2.4328047E+03;
  1.1250833E+00;  9.9999998E-03;  9.1136731E-02;8097;  1.2233960E-02;  0.0000000E+00; -6.5311138E-03;  9.9833405E+02;  3.3331719E-01; -1.3802062E+03;3;  7.1123462E+00;  0.0000000E+00; -8.2996541E-01;0;  2.6562634E-01;  3.6772185E+03;  0.0000000E+00;  9.1883034E-02;  4.0000000E+04;  0.0000000E+00;  3.9132891E+04;  3.2975993E-01;  0.0000000E+00; -6.4133577E-02;  2.4676040E+03;
  1.1256268E+00;  9.9999998E-03;  1.0121964E-01;8098;  1.2871173E-02;  0.0000000E+00; -7.3285792E-03;  9.9816614E+02;  3.3371636E-01; -1.5193132E+03;3;  7.1806755E+00;  0.0000000E+00; -9.3983865E-01;0;  2.5578439E-01;  3.6678911E+03;  0.0000000E+00; -4.6076931E-02;  4.0000000E+04;  0.0000000E+00;  3.9133855E+04;  3.1953856E-01;  0.0000000E+00; -6.3754171E-02;  2.2568076E+03;
  1.1228915E+00;  9.9999998E-03;  2.3271266E-01;8111;  1.7795425E-02;  0.0000000E+00; -1.5156182E-02;  9.9884467E+02;  3.3037955E-01; -9.5715704E+02;3;  3.8485852E-01;  0.0000000E+00; -1.1918355E+00;0;  1.1809852E-02;  3.7349736E+03;  0.0000000E+00; -3.6505263E+00;  4.0000000E+04;  0.0000000E+00;  3.9146703E+04;  3.5137542E-02;  0.0000000E+00; -2.3327690E-02;  2.3441975E+03;
  1.1225495E+00;  9.9999998E-03;  2.2259068E-01;8110;  1.7534247E-02;  0.0000000E+00; -1.4693741E-02;  9.9931500E+02;  3.3004674E-01; -5.6748950E+02;3;  1.5898881E+00;  0.0000000E+00; -1.2801409E+00;0;  3.1003227E-02;  3.7457715E+03;  0.0000000E+00; -3.3520701E+00;  4.0000000E+04;  0.0000000E+00;  3.9150375E+04;  5.6266371E-02;  0.0000000E+00; -2.5263144E-02;  1.3879285E+03;
  1.1223646E+00;  9.9999998E-03;  2.1248376E-01;8109;  1.7234992E-02;  0.0000000E+00; -1.4344981E-02;  9.9941858E+02;  3.2992449E-01; -4.8171423E+02;3;  2.8321979E+00;  0.0000000E+00; -1.1595283E+00;0;  5.0177250E-02;  3.7510042E+03;  0.0000000E+00; -3.0022438E+00;  4.0000000E+04;  0.0000000E+00;  3.9147270E+04;  7.8902394E-02;  0.0000000E+00; -2.8725144E-02;  1.9375194E+03;
  1.1223361E+00;  9.9999998E-03;  2.0241621E-01;8108;  1.6875856E-02;  0.0000000E+00; -1.3980883E-02;  9.9926263E+02;  3.2997715E-01; -6.1089563E+02;3;  4.2033868E+00;  0.0000000E+00; -9.7395295E-01;0;  6.9842473E-02;  3.7511511E+03;  0.0000000E+00; -2.6284966E+00;  4.0000000E+04;  0.0000000E+00;  3.9141312E+04;  1.0269596E-01;  0.0000000E+00; -3.2853484E-02;  3.4462332E+03;
  1.1264009E+00;  9.9999998E-03;  1.1130178E-01;8099;  1.3862026E-02;  0.0000000E+00; -8.1502609E-03;  9.9797955E+02;  3.3428398E-01; -1.6738766E+03;3;  7.3084559E+00;  0.0000000E+00; -9.7764742E-01;0;  2.4454793E-01;  3.6549045E+03;  0.0000000E+00; -2.4054368E-01;  4.0000000E+04;  0.0000000E+00;  3.9133695E+04;  3.0751300E-01;  0.0000000E+00; -6.2965073E-02;  1.9372159E+03;
  1.1226424E+00;  9.9999998E-03;  1.9233337E-01;8107;  1.6476527E-02;  0.0000000E+00; -1.3564263E-02;  9.9896710E+02;  3.3032924E-01; -8.5572791E+02;3;  5.2213650E+00;  0.0000000E+00; -8.3538598E-01;0;  9.0211250E-02;  3.7436614E+03;  0.0000000E+00; -2.2462506E+00;  4.0000000E+04;  0.0000000E+00;  3.9136340E+04;  1.2755981E-01;  0.0000000E+00; -3.7348561E-02;  4.8748867E+03;
  1.1231391E+00;  9.9999998E-03;  1.8221198E-01;8106;  1.6054830E-02;  0.0000000E+00; -1.3086209E-02;  9.9858307E+02;  3.3085951E-01; -1.1738914E+03;3;  6.0085864E+00;  0.0000000E+00; -8.1014013E-01;0;  1.1115851E-01;  3.7317073E+03;  0.0000000E+00; -1.8857982E+00;  4.0000000E+04;  0.0000000E+00;  3.9132883E+04;  1.5315068E-01;  0.0000000E+00; -4.1992176E-02;  5.7170674E+03;
  1.1269202E+00;  9.9999998E-03;  1.2138811E-01;8100;  1.4810464E-02;  0.0000000E+00; -8.9632208E-03;  9.9779895E+02;  3.3463681E-01; -1.8235018E+03;3;  7.4350233E+00;  0.0000000E+00; -1.0691254E+00;0;  2.3079170E-01;  3.6469346E+03;  0.0000000E+00; -4.6430740E-01;  4.0000000E+04;  0.0000000E+00;  3.9132316E+04;  2.9249987E-01;  0.0000000E+00; -6.1708163E-02;  1.7294174E+03;
  1.1238238E+00;  9.9999998E-03;  1.7205752E-01;8105;  1.5735138E-02;  0.0000000E+00; -1.2543880E-02;  9.9819080E+02;  3.3155861E-01; -1.4988695E+03;3;  6.4647803E+00;  0.0000000E+00; -9.0138686E-01;0;  1.3250533E-01;  3.7157937E+03;  0.0000000E+00; -1.5747761E+00;  4.0000000E+04;  0.0000000E+00;  3.9129484E+04;  1.7905608E-01;  0.0000000E+00; -4.6550747E-02;  5.7528960E+03;
  1.1268885E+00;  9.9999998E-03;  1.3148229E-01;8101;  1.5346813E-02;  0.0000000E+00; -9.7355843E-03;  9.9765869E+02;  3.3452696E-01; -1.9397452E+03;3;  7.4304857E+00;  0.0000000E+00; -1.0618629E+00;0;  2.1422659E-01;  3.6491731E+03;  0.0000000E+00; -6.8989599E-01;  4.0000000E+04;  0.0000000E+00;  3.9130484E+04;  2.7414766E-01;  0.0000000E+00; -5.9921071E-02;  1.9026956E+03;
  1.1246628E+00;  9.9999998E-03;  1.6188824E-01;8104;  1.5528440E-02;  0.0000000E+00; -1.1919145E-02;  9.9786737E+02;  3.3237946E-01; -1.7668616E+03;3;  6.8372436E+00;  0.0000000E+00; -9.1926003E-01;0;  1.5394562E-01;  3.6970852E+03;  0.0000000E+00; -1.3192837E+00;  4.0000000E+04;  0.0000000E+00;  3.9127754E+04;  2.0472993E-01;  0.0000000E+00; -5.0784312E-02;  5.0217749E+03;
  1.1255732E+00;  9.9999998E-03;  1.5172805E-01;8103;  1.5513938E-02;  0.0000000E+00; -1.1227499E-02;  9.9765643E+02;  3.3324572E-01; -1.9416217E+03;3;  7.1130333E+00;  0.0000000E+00; -1.0086886E+00;0;  1.7511401E-01;  3.6775273E+03;  0.0000000E+00; -1.1038429E+00;  4.0000000E+04;  0.0000000E+00;  3.9127590E+04;  2.2960036E-01;  0.0000000E+00; -5.4486349E-02;  3.8306704E+03;
  1.1263375E+00;  9.9999998E-03;  1.4159094E-01;8102;  1.5463400E-02;  0.0000000E+00; -1.0486855E-02;  9.9759430E+02;  3.3398056E-01; -1.9930770E+03;3;  7.3141103E+00;  0.0000000E+00; -9.8632550E-01;0;  1.9535960E-01;  3.6611230E+03;  0.0000000E+00; -9.0201706E-01;  4.0000000E+04;  0.0000000E+00;  3.9128805E+04;  2.5289479E-01;  0.0000000E+00; -5.7535190E-02;  2.6511086E+03;
  1.1595590E+00;  9.9999998E-03;  7.0984706E-02;8156;  4.8789639E-02;  0.0000000E+00; -4.7536129E-03;  9.9922473E+02;  3.5778880E-01; -6.4230157E+02;3;  1.1394514E+01;  0.0000000E+00; -4.9228067E+00;0;  2.9233223E-01;  3.2005867E+03;  0.0000000E+00; -1.3151090E-01;  4.0000000E+04;  0.0000000E+00;  3.9069680E+04;  3.4814450E-01;  0.0000000E+00; -5.5812284E-02;  7.1693445E+02;
  1.1599311E+00;  9.9999998E-03;  8.1126943E-02;8157;  4.9031008E-02;  0.0000000E+00; -5.5824523E-03;  9.9924231E+02;  3.5801363E-01; -6.2773413E+02;3;  1.0200791E+01;  0.0000000E+00; -5.4757791E+00;0;  2.8147101E-01;  3.1963909E+03;  0.0000000E+00; -1.2278285E-01;  4.0000000E+04;  0.0000000E+00;  3.9070219E+04;  3.3768746E-01;  0.0000000E+00; -5.6216456E-02;  1.0362286E+03;
  1.1589342E+00;  9.9999998E-03;  2.3295826E-01;8172;  1.8520884E-02;  0.0000000E+00; -1.5022741E-02;  9.9922174E+02;  3.5558456E-01; -6.4477069E+02;3; -8.8733835E+00;  0.0000000E+00; -5.5170717E+00;0; -1.2489147E-02;  3.2316931E+03;  0.0000000E+00; -1.6632369E+00;  4.0000000E+04;  0.0000000E+00;  3.9067508E+04;  1.4720162E-02;  0.0000000E+00; -2.7209310E-02;  4.3342075E+03;
  1.1606321E+00;  9.9999998E-03;  9.1247104E-02;8158;  4.9096826E-02;  0.0000000E+00; -6.4329468E-03;  9.9919525E+02;  3.5852477E-01; -6.6669586E+02;3;  8.7834654E+00;  0.0000000E+00; -5.9252167E+00;0;  2.6799309E-01;  3.1868826E+03;  0.0000000E+00; -1.2489831E-01;  4.0000000E+04;  0.0000000E+00;  3.9071262E+04;  3.2416642E-01;  0.0000000E+00; -5.6173321E-02;  1.3907373E+03;
  1.1586992E+00;  9.9999998E-03;  2.2282003E-01;8171;  2.0917647E-02;  0.0000000E+00; -1.4682209E-02;  9.9969519E+02;  3.5534963E-01; -2.5253560E+02;3; -9.1305780E+00;  0.0000000E+00; -5.7942753E+00;0;  1.0439241E-02;  3.2379089E+03;  0.0000000E+00; -1.3174050E+00;  4.0000000E+04;  0.0000000E+00;  3.9077156E+04;  3.7548579E-02;  0.0000000E+00; -2.7109338E-02;  2.1274021E+03;
  1.1585598E+00;  9.9999998E-03;  2.1266575E-01;8170;  2.3624746E-02;  0.0000000E+00; -1.4556451E-02;  9.9982233E+02;  3.5527760E-01; -1.4720543E+02;3; -8.5297184E+00;  0.0000000E+00; -6.2290521E+00;0;  3.2925531E-02;  3.2406687E+03;  0.0000000E+00; -1.0675931E+00;  4.0000000E+04;  0.0000000E+00;  3.9081469E+04;  6.1992615E-02;  0.0000000E+00; -2.9067086E-02;  4.9716870E+02;
  1.1613940E+00;  9.9999998E-03;  1.0134886E-01;8159;  4.8590031E-02;  0.0000000E+00; -7.2558625E-03;  9.9909589E+02;  3.5909176E-01; -7.4906378E+02;3;  7.4410925E+00;  0.0000000E+00; -6.2900505E+00;0;  2.5258219E-01;  3.1761873E+03;  0.0000000E+00; -1.4675507E-01;  4.0000000E+04;  0.0000000E+00;  3.9072023E+04;  3.0832630E-01;  0.0000000E+00; -5.5744119E-02;  1.7068346E+03;
  1.1585152E+00;  9.9999998E-03;  2.0253816E-01;8169;  2.6393186E-02;  0.0000000E+00; -1.4405886E-02;  9.9964667E+02;  3.5535252E-01; -2.9273190E+02;3; -7.6268773E+00;  0.0000000E+00; -6.5484538E+00;0;  5.5595327E-02;  3.2401721E+03;  0.0000000E+00; -8.7392139E-01;  4.0000000E+04;  0.0000000E+00;  3.9079066E+04;  8.7536275E-02;  0.0000000E+00; -3.1940948E-02;  1.4520271E+03;
  1.1620867E+00;  9.9999998E-03;  1.1144342E-01;8160;  4.7610994E-02;  0.0000000E+00; -8.0556851E-03;  9.9894653E+02;  3.5960916E-01; -8.7276373E+02;3;  5.8621840E+00;  0.0000000E+00; -6.6120915E+00;0;  2.3568511E-01;  3.1664106E+03;  0.0000000E+00; -1.8848217E-01;  4.0000000E+04;  0.0000000E+00;  3.9072168E+04;  2.9062983E-01;  0.0000000E+00; -5.4944728E-02;  1.9416324E+03;
  1.1585701E+00;  9.9999998E-03;  1.9241217E-01;8168;  2.9151255E-02;  0.0000000E+00; -1.4120792E-02;  9.9931934E+02;  3.5555220E-01; -5.6393359E+02;3; -6.5187092E+00;  0.0000000E+00; -6.9534893E+00;0;  7.8417510E-02;  3.2368416E+03;  0.0000000E+00; -7.1836895E-01;  4.0000000E+04;  0.0000000E+00;  3.9075480E+04;  1.1376373E-01;  0.0000000E+00; -3.5346214E-02;  2.8747129E+03;
  1.1625829E+00;  9.9999998E-03;  1.2153769E-01;8161;  4.6243098E-02;  0.0000000E+00; -8.8329799E-03;  9.9876453E+02;  3.5995293E-01; -1.0235739E+03;3;  4.3454065E+00;  0.0000000E+00; -6.8616357E+00;0;  2.1776336E-01;  3.1596873E+03;  0.0000000E+00; -2.4079232E-01;  4.0000000E+04;  0.0000000E+00;  3.9071738E+04;  2.7156481E-01;  0.0000000E+00; -5.3801455E-02;  2.1429971E+03;
  1.1587797E+00;  9.9999998E-03;  1.8226030E-01;8167;  3.1849697E-02;  0.0000000E+00; -1.3669428E-02;  9.9893945E+02;  3.5590339E-01; -8.7864014E+02;3; -5.1893940E+00;  0.0000000E+00; -7.2515879E+00;0;  1.0107694E-01;  3.2303896E+03;  0.0000000E+00; -5.9567219E-01;  4.0000000E+04;  0.0000000E+00;  3.9072484E+04;  1.4011291E-01;  0.0000000E+00; -3.9035968E-02;  3.8398354E+03;
  1.1592832E+00;  9.9999998E-03;  1.7209077E-01;8166;  3.4500562E-02;  0.0000000E+00; -1.3043904E-02;  9.9860553E+02;  3.5650712E-01; -1.1552737E+03;3; -3.8574724E+00;  0.0000000E+00; -7.4314928E+00;0;  1.2301457E-01;  3.2193418E+03;  0.0000000E+00; -5.0195086E-01;  4.0000000E+04;  0.0000000E+00;  3.9070016E+04;  1.6569269E-01;  0.0000000E+00; -4.2678114E-02;  4.2108081E+03;
  1.1626412E+00;  9.9999998E-03;  1.3163224E-01;8162;  4.4433802E-02;  0.0000000E+00; -9.6256211E-03;  9.9857135E+02;  3.5991031E-01; -1.1836184E+03;3;  2.6144476E+00;  0.0000000E+00; -7.0487270E+00;0;  1.9955663E-01;  3.1598201E+03;  0.0000000E+00; -2.9214805E-01;  4.0000000E+04;  0.0000000E+00;  3.9070207E+04;  2.5194421E-01;  0.0000000E+00; -5.2387580E-02;  2.4230586E+03;
  1.1601247E+00;  9.9999998E-03;  1.6193484E-01;8165;  3.7149359E-02;  0.0000000E+00; -1.2261563E-02;  9.9837701E+02;  3.5738701E-01; -1.3446013E+03;3; -2.3945303E+00;  0.0000000E+00; -7.4689131E+00;0;  1.4373136E-01;  3.2034983E+03;  0.0000000E+00; -4.3322468E-01;  4.0000000E+04;  0.0000000E+00;  3.9068867E+04;  1.8966979E-01;  0.0000000E+00; -4.5938432E-02;  4.0233049E+03;
  1.1620208E+00;  9.9999998E-03;  1.4172450E-01;8163;  4.2187903E-02;  0.0000000E+00; -1.0490147E-02;  9.9839508E+02;  3.5927576E-01; -1.3296388E+03;3;  8.8637584E-01;  0.0000000E+00; -7.2598786E+00;0;  1.8168499E-01;  3.1704636E+03;  0.0000000E+00; -3.3886576E-01;  4.0000000E+04;  0.0000000E+00;  3.9069203E+04;  2.3243289E-01;  0.0000000E+00; -5.0747897E-02;  2.8781707E+03;
  1.1611156E+00;  9.9999998E-03;  1.5181750E-01;8164;  3.9728954E-02;  0.0000000E+00; -1.1385241E-02;  9.9831567E+02;  3.5837686E-01; -1.3954146E+03;3; -8.3529323E-01;  0.0000000E+00; -7.3877697E+00;0;  1.6319549E-01;  3.1859976E+03;  0.0000000E+00; -3.8239124E-01;  4.0000000E+04;  0.0000000E+00;  3.9068242E+04;  2.1182944E-01;  0.0000000E+00; -4.8633948E-02;  3.4838862E+03;
  1.1974117E+00;  9.9999998E-03;  2.1270543E-01;8231;  2.4094036E-02;  0.0000000E+00; -7.5863465E-03;  9.9982269E+02;  3.8357583E-01; -1.4690892E+02;3; -9.5333958E+00;  0.0000000E+00; -3.5468054E+00;0; -3.1791337E-02;  2.7850706E+03;  0.0000000E+00;  4.7438982E-01;  4.0000000E+04;  0.0000000E+00;  3.9028980E+04; -1.3774307E-02;  0.0000000E+00; -1.8017028E-02;  3.4990625E+03;
  1.1974235E+00;  9.9999998E-03;  2.0252818E-01;8230;  2.7154464E-02;  0.0000000E+00; -7.5028031E-03;  9.9970605E+02;  3.8373798E-01; -2.4354784E+02;3; -8.2738609E+00;  0.0000000E+00; -3.6879518E+00;0; -1.6068891E-02;  2.7831462E+03;  0.0000000E+00;  4.0398759E-01;  4.0000000E+04;  0.0000000E+00;  3.9027824E+04;  3.5553467E-03;  0.0000000E+00; -1.9624237E-02;  4.1329111E+03;
  1.1974149E+00;  9.9999998E-03;  2.2289759E-01;8232;  2.1142030E-02;  0.0000000E+00; -7.7432161E-03;  9.9958081E+02;  3.8348636E-01; -3.4729764E+02;3; -1.0490238E+01;  0.0000000E+00; -3.4714930E+00;0; -4.7421761E-02;  2.7853188E+03;  0.0000000E+00;  4.3758905E-01;  4.0000000E+04;  0.0000000E+00;  3.9022977E+04; -3.0552594E-02;  0.0000000E+00; -1.6869167E-02;  1.9718585E+03;
  1.1975018E+00;  9.9999998E-03;  2.3305467E-01;8233;  1.8445427E-02;  0.0000000E+00; -8.0734799E-03;  9.9899457E+02;  3.8354304E-01; -8.3296124E+02;3; -1.0506491E+01;  0.0000000E+00; -3.5470395E+00;0; -6.3565269E-02;  2.7830940E+03;  0.0000000E+00;  1.7575054E-01;  4.0000000E+04;  0.0000000E+00;  3.9013418E+04; -4.6618253E-02;  0.0000000E+00; -1.6947012E-02;  8.9554327E+02;
  1.1975331E+00;  9.9999998E-03;  1.9236790E-01;8229;  3.0265613E-02;  0.0000000E+00; -7.3781875E-03;  9.9941071E+02;  3.8401324E-01; -4.8823145E+02;3; -6.8657079E+00;  0.0000000E+00; -3.8133492E+00;0; -4.0733255E-04;  2.7789722E+03;  0.0000000E+00;  3.0375302E-01;  4.0000000E+04;  0.0000000E+00;  3.9024457E+04;  2.0927195E-02;  0.0000000E+00; -2.1334527E-02;  4.4743740E+03;
  1.1977590E+00;  9.9999998E-03;  1.8221420E-01;8228;  3.3395387E-02;  0.0000000E+00; -7.1819942E-03;  9.9906689E+02;  3.8440084E-01; -7.7306195E+02;3; -5.2084370E+00;  0.0000000E+00; -3.9591250E+00;0;  1.4937894E-02;  2.7729268E+03;  0.0000000E+00;  2.0967092E-01;  4.0000000E+04;  0.0000000E+00;  3.9021438E+04;  3.7927825E-02;  0.0000000E+00; -2.2989931E-02;  4.7013789E+03;
  1.1981237E+00;  9.9999998E-03;  1.7206581E-01;8227;  3.6469918E-02;  0.0000000E+00; -6.9033992E-03;  9.9877588E+02;  3.8489422E-01; -1.0141407E+03;3; -3.4447310E+00;  0.0000000E+00; -4.0530982E+00;0;  2.9651409E-02;  2.7652659E+03;  0.0000000E+00;  1.3250177E-01;  4.0000000E+04;  0.0000000E+00;  3.9019781E+04;  5.4096092E-02;  0.0000000E+00; -2.4444683E-02;  4.7744473E+03;
  1.1989450E+00;  9.9999998E-03;  1.6195323E-01;8226;  3.9397385E-02;  0.0000000E+00; -6.4776726E-03;  9.9861414E+02;  3.8576633E-01; -1.1481611E+03;3; -1.5040675E+00;  0.0000000E+00; -4.0982738E+00;0;  4.2566761E-02;  2.7523210E+03;  0.0000000E+00;  7.6041579E-02;  4.0000000E+04;  0.0000000E+00;  3.9018918E+04;  6.7913137E-02;  0.0000000E+00; -2.5346378E-02;  4.6878359E+03;
  1.1985892E+00;  9.9999998E-03;  7.0974082E-02;8217;  5.5279575E-02;  0.0000000E+00; -2.4140705E-03;  9.9920044E+02;  3.8638291E-01; -6.6239874E+02;3;  1.1978001E+01;  0.0000000E+00; -2.6752994E+00;0;  1.3868506E-01;  2.7475752E+03;  0.0000000E+00; -2.8067970E-01;  4.0000000E+04;  0.0000000E+00;  3.9014477E+04;  1.6852494E-01;  0.0000000E+00; -2.9839879E-02;  1.0657563E+03;
  1.1986859E+00;  9.9999998E-03;  8.1121296E-02;8218;  5.4456387E-02;  0.0000000E+00; -2.8622188E-03;  9.9925037E+02;  3.8632762E-01; -6.2106671E+02;3;  1.0976373E+01;  0.0000000E+00; -3.0060656E+00;0;  1.3217285E-01;  2.7480149E+03;  0.0000000E+00; -2.9911783E-01;  4.0000000E+04;  0.0000000E+00;  3.9015852E+04;  1.6241717E-01;  0.0000000E+00; -3.0244317E-02;  1.1790040E+03;
  1.1988875E+00;  9.9999998E-03;  9.1256969E-02;8219;  5.3421389E-02;  0.0000000E+00; -3.3251739E-03;  9.9925610E+02;  3.8637969E-01; -6.1632611E+02;3;  9.8837671E+00;  0.0000000E+00; -3.2746155E+00;0;  1.2414044E-01;  2.7467021E+03;  0.0000000E+00; -2.9032922E-01;  4.0000000E+04;  0.0000000E+00;  3.9018113E+04;  1.5442628E-01;  0.0000000E+00; -3.0285839E-02;  1.4426942E+03;
  1.1992031E+00;  9.9999998E-03;  1.0138511E-01;8220;  5.2159421E-02;  0.0000000E+00; -3.7972492E-03;  9.9919336E+02;  3.8654941E-01; -6.6827509E+02;3;  8.6581125E+00;  0.0000000E+00; -3.5723636E+00;0;  1.1457299E-01;  2.7435117E+03;  0.0000000E+00; -2.5521088E-01;  4.0000000E+04;  0.0000000E+00;  3.9020512E+04;  1.4450620E-01;  0.0000000E+00; -2.9933205E-02;  1.8893330E+03;
  1.1996403E+00;  9.9999998E-03;  1.1150244E-01;8221;  5.0652336E-02;  0.0000000E+00; -4.2624278E-03;  9.9908746E+02;  3.8684386E-01; -7.5602539E+02;3;  7.3158817E+00;  0.0000000E+00; -3.7978380E+00;0;  1.0350233E-01;  2.7384956E+03;  0.0000000E+00; -2.0056172E-01;  4.0000000E+04;  0.0000000E+00;  3.9021848E+04;  1.3269959E-01;  0.0000000E+00; -2.9197270E-02;  2.4606423E+03;
  1.1999390E+00;  9.9999998E-03;  1.5187301E-01;8225;  4.2124689E-02;  0.0000000E+00; -5.9742508E-03;  9.9859808E+02;  3.8678038E-01; -1.1614445E+03;3;  4.8171410E-01;  0.0000000E+00; -4.0725245E+00;0;  5.4116033E-02;  2.7377883E+03;  0.0000000E+00;  2.9668491E-02;  4.0000000E+04;  0.0000000E+00;  3.9018945E+04;  7.9908401E-02;  0.0000000E+00; -2.5792370E-02;  4.4509595E+03;
  1.2001950E+00;  9.9999998E-03;  1.2159985E-01;8222;  4.8884258E-02;  0.0000000E+00; -4.6943789E-03;  9.9895172E+02;  3.8726163E-01; -8.6846619E+02;3;  5.8172965E+00;  0.0000000E+00; -3.9419684E+00;0;  9.1040410E-02;  2.7318364E+03;  0.0000000E+00; -1.3669115E-01;  4.0000000E+04;  0.0000000E+00;  3.9022195E+04;  1.1917601E-01;  0.0000000E+00; -2.8135600E-02;  3.0636443E+03;
  1.2007207E+00;  9.9999998E-03;  1.3169083E-01;8223;  4.6867959E-02;  0.0000000E+00; -5.0743097E-03;  9.9881500E+02;  3.8766050E-01; -9.8174652E+02;3;  4.2843323E+00;  0.0000000E+00; -3.9694910E+00;0;  7.7771299E-02;  2.7256699E+03;  0.0000000E+00; -7.3798865E-02;  4.0000000E+04;  0.0000000E+00;  3.9021383E+04;  1.0472195E-01;  0.0000000E+00; -2.6950652E-02;  3.6313701E+03;
  1.2006936E+00;  9.9999998E-03;  1.4178732E-01;8224;  4.4626277E-02;  0.0000000E+00; -5.4822727E-03;  9.9868884E+02;  3.8755634E-01; -1.0862864E+03;3;  2.5356362E+00;  0.0000000E+00; -4.0445499E+00;0;  6.5343894E-02;  2.7268745E+03;  0.0000000E+00; -1.7965298E-02;  4.0000000E+04;  0.0000000E+00;  3.9020223E+04;  9.1488756E-02;  0.0000000E+00; -2.6144864E-02;  4.0993877E+03;
  1.2381309E+00;  9.9999998E-03;  2.0250635E-01;8291;  2.4369335E-02;  0.0000000E+00;  9.0942491E-04;  9.9813318E+02;  4.1423002E-01; -1.5466134E+03;3; -8.5755644E+00;  0.0000000E+00;  6.4686620E-01;0; -6.1926506E-02;  2.3852278E+03;  0.0000000E+00;  1.1011397E+00;  4.0000000E+04;  0.0000000E+00;  3.8974441E+04; -6.4007036E-02;  0.0000000E+00;  2.0805297E-03;  1.0218392E+04;
  1.2381877E+00;  9.9999998E-03;  1.9236912E-01;8290;  2.7595723E-02;  0.0000000E+00;  1.0004801E-03;  9.9788226E+02;  4.1443706E-01; -1.7545074E+03;3; -7.2326555E+00;  0.0000000E+00;  8.4374160E-01;0; -5.0373834E-02;  2.3824817E+03;  0.0000000E+00;  8.0744421E-01;  4.0000000E+04;  0.0000000E+00;  3.8970020E+04; -5.4720309E-02;  0.0000000E+00;  4.3464741E-03;  9.0936963E+03;
  1.2383269E+00;  9.9999998E-03;  2.1269496E-01;8292;  2.1174779E-02;  0.0000000E+00;  8.8838703E-04;  9.9819910E+02;  4.1427496E-01; -1.4919979E+03;3; -9.8649454E+00;  0.0000000E+00;  5.3396672E-01;0; -7.3795721E-02;  2.3844727E+03;  0.0000000E+00;  1.3302273E+00;  4.0000000E+04;  0.0000000E+00;  3.8976973E+04; -7.3817670E-02;  0.0000000E+00;  2.1947784E-05;  1.0663974E+04;
  1.2385118E+00;  9.9999998E-03;  1.8225452E-01;8289;  3.0862970E-02;  0.0000000E+00;  1.0941093E-03;  9.9760535E+02;  4.1489223E-01; -1.9839316E+03;3; -5.6245785E+00;  0.0000000E+00;  9.7378850E-01;0; -3.9245907E-02;  2.3765115E+03;  0.0000000E+00;  5.2033508E-01;  4.0000000E+04;  0.0000000E+00;  3.8967555E+04; -4.6160709E-02;  0.0000000E+00;  6.9148019E-03;  7.8394019E+03;
  1.2390387E+00;  9.9999998E-03;  1.7214562E-01;8288;  3.4101885E-02;  0.0000000E+00;  1.1721026E-03;  9.9736292E+02;  4.1552380E-01; -2.1847639E+03;3; -3.8901315E+00;  0.0000000E+00;  1.0501529E+00;0; -2.8758757E-02;  2.3684280E+03;  0.0000000E+00;  2.7525130E-01;  4.0000000E+04;  0.0000000E+00;  3.8967145E+04; -3.8513776E-02;  0.0000000E+00;  9.7550191E-03;  6.6862036E+03;
  1.2385781E+00;  9.9999998E-03;  2.2291754E-01;8293;  1.8063651E-02;  0.0000000E+00;  8.3733228E-04;  9.9785730E+02;  4.1440642E-01; -1.7751981E+03;3; -1.1041464E+01;  0.0000000E+00;  4.7274441E-01;0; -8.6266495E-02;  2.3819524E+03;  0.0000000E+00;  1.3708144E+00;  4.0000000E+04;  0.0000000E+00;  3.8972672E+04; -8.4079839E-02;  0.0000000E+00; -2.1866546E-03;  9.4100156E+03;
  1.2394722E+00;  9.9999998E-03;  1.6202992E-01;8287;  3.7309073E-02;  0.0000000E+00;  1.1332604E-03;  9.9720685E+02;  4.1603678E-01; -2.3140435E+03;3; -2.0112298E+00;  0.0000000E+00;  9.2512310E-01;0; -1.9360559E-02;  2.3617192E+03;  0.0000000E+00;  8.1216224E-02;  4.0000000E+04;  0.0000000E+00;  3.8968934E+04; -3.1792875E-02;  0.0000000E+00;  1.2432316E-02;  5.7809204E+03;
  1.2399526E+00;  9.9999998E-03;  1.5192451E-01;8286;  4.0387832E-02;  0.0000000E+00;  1.0727657E-03;  9.9714020E+02;  4.1657561E-01; -2.3693005E+03;3; -1.8040866E-02;  0.0000000E+00;  6.7480934E-01;0; -1.1155057E-02;  2.3550349E+03;  0.0000000E+00; -7.5011693E-02;  4.0000000E+04;  0.0000000E+00;  3.8971152E+04; -2.6027044E-02;  0.0000000E+00;  1.4871988E-02;  5.2396963E+03;
  1.2402521E+00;  9.9999998E-03;  8.1141084E-02;8279;  5.3508084E-02;  0.0000000E+00;  1.4334699E-03;  9.9729279E+02;  4.1750082E-01; -2.2428853E+03;3;  1.1755797E+01;  0.0000000E+00;  3.9420077E-01;0;  7.4656513E-03;  2.3466838E+03;  0.0000000E+00; -3.4444508E-01;  4.0000000E+04;  0.0000000E+00;  3.8969680E+04; -5.4000020E-03;  0.0000000E+00;  1.2865653E-02;  4.3196416E+03;
  1.2401648E+00;  9.9999998E-03;  9.1278702E-02;8280;  5.2606933E-02;  0.0000000E+00;  1.4450278E-03;  9.9736292E+02;  4.1728520E-01; -2.1847637E+03;3;  1.0628447E+01;  0.0000000E+00;  3.5057327E-01;0;  8.1394576E-03;  2.3487090E+03;  0.0000000E+00; -4.0933236E-01;  4.0000000E+04;  0.0000000E+00;  3.8972453E+04; -5.8234078E-03;  0.0000000E+00;  1.3962866E-02;  4.6545366E+03;
  1.2405338E+00;  9.9999998E-03;  1.4182973E-01;8285;  4.3269638E-02;  0.0000000E+00;  1.0468909E-03;  9.9716943E+02;  4.1718966E-01; -2.3450544E+03;3;  2.1007211E+00;  0.0000000E+00;  3.8017824E-01;0; -4.3636467E-03;  2.3477803E+03;  0.0000000E+00; -2.0609048E-01;  4.0000000E+04;  0.0000000E+00;  3.8973535E+04; -2.1299686E-02;  0.0000000E+00;  1.6936040E-02;  5.0968936E+03;
  1.2405770E+00;  9.9999998E-03;  7.0986547E-02;8278;  5.4137334E-02;  0.0000000E+00;  1.3340445E-03;  9.9720490E+02;  4.1795045E-01; -2.3156726E+03;3;  1.2724075E+01;  0.0000000E+00;  3.5899097E-01;0;  5.9189000E-03;  2.3419180E+03;  0.0000000E+00; -2.6146966E-01;  4.0000000E+04;  0.0000000E+00;  3.8967207E+04; -6.3264552E-03;  0.0000000E+00;  1.2245355E-02;  4.1228945E+03;
  1.2403519E+00;  9.9999998E-03;  1.0140206E-01;8281;  5.1407143E-02;  0.0000000E+00;  1.4235151E-03;  9.9740100E+02;  4.1733441E-01; -2.1532092E+03;3;  9.3477831E+00;  0.0000000E+00;  2.0566928E-01;0;  7.8093098E-03;  2.3475417E+03;  0.0000000E+00; -4.4316792E-01;  4.0000000E+04;  0.0000000E+00;  3.8975246E+04; -7.6398863E-03;  0.0000000E+00;  1.5449196E-02;  5.0149888E+03;
  1.2390735E+00;  9.9999998E-03;  2.3309065E-01;8294;  1.5066857E-02;  0.0000000E+00;  7.6509331E-04;  9.9717883E+02;  4.1483593E-01; -2.3372527E+03;3; -1.2112233E+01;  0.0000000E+00;  4.8382044E-01;0; -9.9228792E-02;  2.3757542E+03;  0.0000000E+00;  1.0681698E+00;  4.0000000E+04;  0.0000000E+00;  3.8968156E+04; -9.4337679E-02;  0.0000000E+00; -4.8911092E-03;  6.1853687E+03;
  1.2406427E+00;  9.9999998E-03;  1.3173993E-01;8284;  4.5871623E-02;  0.0000000E+00;  1.0909822E-03;  9.9723694E+02;  4.1734999E-01; -2.2891057E+03;3;  4.3948727E+00;  0.0000000E+00; -7.8874163E-02;0;  7.1210600E-04;  2.3459504E+03;  0.0000000E+00; -3.1295389E-01;  4.0000000E+04;  0.0000000E+00;  3.8976176E+04; -1.7003188E-02;  0.0000000E+00;  1.7715294E-02;  5.1796289E+03;
  1.2406312E+00;  9.9999998E-03;  1.2163744E-01;8283;  4.8076630E-02;  0.0000000E+00;  1.2280465E-03;  9.9732294E+02;  4.1740713E-01; -2.2178982E+03;3;  6.2814903E+00;  0.0000000E+00; -7.2210804E-02;0;  4.3198727E-03;  2.3455964E+03;  0.0000000E+00; -3.9289272E-01;  4.0000000E+04;  0.0000000E+00;  3.8977301E+04; -1.3289219E-02;  0.0000000E+00;  1.7609091E-02;  5.2839780E+03;
  1.2406062E+00;  9.9999998E-03;  1.1151968E-01;8282;  4.9904689E-02;  0.0000000E+00;  1.3593282E-03;  9.9738519E+02;  4.1747189E-01; -2.1662952E+03;3;  7.9318881E+00;  0.0000000E+00;  3.1044699E-02;0;  6.5704985E-03;  2.3453936E+03;  0.0000000E+00; -4.3855113E-01;  4.0000000E+04;  0.0000000E+00;  3.8976809E+04; -1.0304152E-02;  0.0000000E+00;  1.6874650E-02;  5.2554111E+03;
  1.2812831E+00;  9.9999998E-03;  1.9249596E-01;8351;  2.2494502E-02;  0.0000000E+00;  1.2052732E-02;  9.9528015E+02;  4.4669199E-01; -3.9102629E+03;3; -7.9060535E+00;  0.0000000E+00;  6.9714532E+00;0;  2.2293802E-01;  2.0437031E+03;  0.0000000E+00;  8.4049720E-01;  4.0000000E+04;  0.0000000E+00;  3.8892680E+04;  1.6985554E-01;  0.0000000E+00;  5.3082485E-02;  9.4265166E+03;
  1.2811635E+00;  9.9999998E-03;  2.0263621E-01;8352;  1.8824833E-02;  0.0000000E+00;  1.1899011E-02;  9.9531995E+02;  4.4642374E-01; -3.8772766E+03;3; -9.4869728E+00;  0.0000000E+00;  6.8359694E+00;0;  2.3040585E-01;  2.0459703E+03;  0.0000000E+00;  1.2146795E+00;  4.0000000E+04;  0.0000000E+00;  3.8896137E+04;  1.8481272E-01;  0.0000000E+00;  4.5593128E-02;  1.1493047E+04;
  1.2818826E+00;  9.9999998E-03;  1.8240049E-01;8350;  2.6015552E-02;  0.0000000E+00;  1.2342758E-02;  9.9525677E+02;  4.4742045E-01; -3.9296199E+03;3; -6.1687560E+00;  0.0000000E+00;  7.1486511E+00;0;  2.1858177E-01;  2.0369855E+03;  0.0000000E+00;  4.3838918E-01;  4.0000000E+04;  0.0000000E+00;  3.8891742E+04;  1.5794982E-01;  0.0000000E+00;  6.0631942E-02;  7.0753599E+03;
  1.2815436E+00;  9.9999998E-03;  2.1283859E-01;8353;  1.5003016E-02;  0.0000000E+00;  1.1908717E-02;  9.9525439E+02;  4.4663927E-01; -3.9315952E+03;3; -1.0935569E+01;  0.0000000E+00;  6.7495666E+00;0;  2.4233007E-01;  2.0434409E+03;  0.0000000E+00;  1.4607452E+00;  4.0000000E+04;  0.0000000E+00;  3.8898328E+04;  2.0424971E-01;  0.0000000E+00;  3.8080364E-02;  1.2479685E+04;
  1.2825667E+00;  9.9999998E-03;  1.7230697E-01;8349;  2.9436864E-02;  0.0000000E+00;  1.2623440E-02;  9.9526294E+02;  4.4821283E-01; -3.9245332E+03;3; -4.4936328E+00;  0.0000000E+00;  7.4604607E+00;0;  2.1183307E-01;  2.0295546E+03;  0.0000000E+00;  7.7090278E-02;  4.0000000E+04;  0.0000000E+00;  3.8893609E+04;  1.4429881E-01;  0.0000000E+00;  6.7534268E-02;  5.1447261E+03;
  1.2829094E+00;  9.9999998E-03;  1.6217625E-01;8348;  3.2791559E-02;  0.0000000E+00;  1.2725823E-02;  9.9527667E+02;  4.4865289E-01; -3.9131257E+03;3; -2.5472186E+00;  0.0000000E+00;  7.7022843E+00;0;  1.9832075E-01;  2.0253289E+03;  0.0000000E+00; -2.1372686E-01;  4.0000000E+04;  0.0000000E+00;  3.8898066E+04;  1.2553839E-01;  0.0000000E+00;  7.2782345E-02;  4.3837871E+03;
  1.2821909E+00;  9.9999998E-03;  2.2308122E-01;8354;  1.1137196E-02;  0.0000000E+00;  1.1925301E-02;  9.9487408E+02;  4.4713241E-01; -4.2466934E+03;3; -1.2447325E+01;  0.0000000E+00;  6.7876101E+00;0;  2.5585493E-01;  2.0380033E+03;  0.0000000E+00;  1.4370677E+00;  4.0000000E+04;  0.0000000E+00;  3.8893285E+04;  2.2597721E-01;  0.0000000E+00;  2.9877719E-02;  1.1291087E+04;
  1.2833225E+00;  9.9999998E-03;  1.5202846E-01;8347;  3.5991468E-02;  0.0000000E+00;  1.2647578E-02;  9.9533960E+02;  4.4911847E-01; -3.8610288E+03;3; -7.2224021E-01;  0.0000000E+00;  8.3894300E+00;0;  1.8285871E-01;  2.0209020E+03;  0.0000000E+00; -4.3687224E-01;  4.0000000E+04;  0.0000000E+00;  3.8903730E+04;  1.0620835E-01;  0.0000000E+00;  7.6650366E-02;  4.9025171E+03;
  1.2839340E+00;  9.9999998E-03;  1.4189966E-01;8346;  3.9013389E-02;  0.0000000E+00;  1.2130633E-02;  9.9545831E+02;  4.4975421E-01; -3.7626621E+03;3;  1.2057611E+00;  0.0000000E+00;  9.1511259E+00;0;  1.6655859E-01;  2.0151438E+03;  0.0000000E+00; -5.9130764E-01;  4.0000000E+04;  0.0000000E+00;  3.8909734E+04;  8.7530337E-02;  0.0000000E+00;  7.9028249E-02;  5.9232544E+03;
  1.2830884E+00;  9.9999998E-03;  2.3327902E-01;8355;  7.3015387E-03;  0.0000000E+00;  1.1879650E-02;  9.9422107E+02;  4.4792011E-01; -4.7876582E+03;3; -1.3884977E+01;  0.0000000E+00;  6.8422170E+00;0;  2.7044585E-01;  2.0298177E+03;  0.0000000E+00;  9.8405766E-01;  4.0000000E+04;  0.0000000E+00;  3.8885977E+04;  2.5009117E-01;  0.0000000E+00;  2.0354692E-02;  7.3902847E+03;
  1.2843598E+00;  9.9999998E-03;  1.3179292E-01;8345;  4.1844245E-02;  0.0000000E+00;  1.0915390E-02;  9.9556714E+02;  4.5020786E-01; -3.6724927E+03;3;  3.1414325E+00;  0.0000000E+00;  9.6350193E+00;0;  1.4670917E-01;  2.0111636E+03;  0.0000000E+00; -6.7329967E-01;  4.0000000E+04;  0.0000000E+00;  3.8915410E+04;  6.7503139E-02;  0.0000000E+00;  7.9206035E-02;  6.8090474E+03;
  1.2845430E+00;  9.9999998E-03;  1.2168956E-01;8344;  4.4460468E-02;  0.0000000E+00;  8.7992521E-03;  9.9561139E+02;  4.5043170E-01; -3.6358523E+03;3;  5.0201836E+00;  0.0000000E+00;  8.6084318E+00;0;  1.2407951E-01;  2.0092854E+03;  0.0000000E+00; -6.8535471E-01;  4.0000000E+04;  0.0000000E+00;  3.8919727E+04;  4.6817068E-02;  0.0000000E+00;  7.7262439E-02;  7.3539771E+03;
  1.2844694E+00;  9.9999998E-03;  1.1158936E-01;8343;  4.6746090E-02;  0.0000000E+00;  6.7796540E-03;  9.9556329E+02;  4.5042223E-01; -3.6757024E+03;3;  7.1763554E+00;  0.0000000E+00;  6.6154475E+00;0;  9.9769086E-02;  2.0094828E+03;  0.0000000E+00; -6.3546187E-01;  4.0000000E+04;  0.0000000E+00;  3.8922051E+04;  2.6329448E-02;  0.0000000E+00;  7.3439635E-02;  7.5795903E+03;
  1.2845118E+00;  9.9999998E-03;  1.0147704E-01;8342;  4.8252773E-02;  0.0000000E+00;  5.7847332E-03;  9.9545331E+02;  4.5055446E-01; -3.7668098E+03;3;  9.7248354E+00;  0.0000000E+00;  4.5115700E+00;0;  7.6282531E-02;  2.0084565E+03;  0.0000000E+00; -5.3700840E-01;  4.0000000E+04;  0.0000000E+00;  3.8922320E+04;  7.7078156E-03;  0.0000000E+00;  6.8574712E-02;  7.6329321E+03;
  1.2849025E+00;  9.9999998E-03;  9.1347374E-02;8341;  4.9160153E-02;  0.0000000E+00;  5.1415828E-03;  9.9533221E+02;  4.5103836E-01; -3.8671016E+03;3;  1.1042281E+01;  0.0000000E+00;  3.8710759E+00;0;  5.4763261E-02;  2.0042969E+03;  0.0000000E+00; -4.0741548E-01;  4.0000000E+04;  0.0000000E+00;  3.8920871E+04; -8.7414794E-03;  0.0000000E+00;  6.3504741E-02;  7.6563999E+03;
  1.2855836E+00;  9.9999998E-03;  8.1203721E-02;8340;  4.9747240E-02;  0.0000000E+00;  4.5629721E-03;  9.9522742E+02;  4.5181906E-01; -3.9539619E+03;3;  1.2110989E+01;  0.0000000E+00;  3.4222717E+00;0;  3.5042521E-02;  1.9975820E+03;  0.0000000E+00; -2.6889411E-01;  4.0000000E+04;  0.0000000E+00;  3.8918301E+04; -2.3601729E-02;  0.0000000E+00;  5.8644250E-02;  7.6856470E+03;
  1.2862153E+00;  9.9999998E-03;  7.1023591E-02;8339;  5.0123863E-02;  0.0000000E+00;  4.0228069E-03;  9.9512408E+02;  4.5255259E-01; -4.0395383E+03;3;  1.3149276E+01;  0.0000000E+00;  3.0636852E+00;0;  1.6639333E-02;  1.9912229E+03;  0.0000000E+00; -1.4515665E-01;  4.0000000E+04;  0.0000000E+00;  3.8915887E+04; -3.7499562E-02;  0.0000000E+00;  5.4138895E-02;  7.6576104E+03;
  1.3273423E+00;  9.9999998E-03;  2.0285150E-01;8413;  1.3450711E-02;  0.0000000E+00;  2.8545747E-02;  1.0000445E+03;  4.7731599E-01;  3.6837597E+01;3; -1.0340406E+01;  0.0000000E+00;  1.4502171E+01;0;  1.1427370E+00;  1.8090125E+03;  0.0000000E+00;  2.8664770E-03;  4.0000000E+04;  0.0000000E+00;  3.8817203E+04;  1.0081975E+00;  0.0000000E+00;  1.3453953E-01;  4.8836641E+03;
  1.3276619E+00;  9.9999998E-03;  1.9270600E-01;8412;  1.7478947E-02;  0.0000000E+00;  2.8540917E-02;  1.0001116E+03;  4.7774455E-01;  9.2439644E+01;3; -8.5674791E+00;  0.0000000E+00;  1.5512623E+01;0;  1.0621961E+00;  1.8061812E+03;  0.0000000E+00; -2.0495445E-01;  4.0000000E+04;  0.0000000E+00;  3.8814477E+04;  9.2156744E-01;  0.0000000E+00;  1.4062870E-01;  3.2628208E+03;
  1.3276836E+00;  9.9999998E-03;  2.1306555E-01;8414;  9.2040161E-03;  0.0000000E+00;  2.8682400E-02;  1.0000498E+03;  4.7740111E-01;  4.1281807E+01;3; -1.2067370E+01;  0.0000000E+00;  1.4099334E+01;0;  1.2320539E+00;  1.8081014E+03;  0.0000000E+00;  9.2520550E-02;  4.0000000E+04;  0.0000000E+00;  3.8819047E+04;  1.1041133E+00;  0.0000000E+00;  1.2794049E-01;  5.8172139E+03;
  1.3285311E+00;  9.9999998E-03;  1.8259647E-01;8411;  2.1287730E-02;  0.0000000E+00;  2.8269337E-02;  1.0003083E+03;  4.7859415E-01;  2.5549281E+02;3; -6.6821060E+00;  0.0000000E+00;  1.7966642E+01;0;  9.8593771E-01;  1.8002401E+03;  0.0000000E+00; -4.3306741E-01;  4.0000000E+04;  0.0000000E+00;  3.8814488E+04;  8.4033966E-01;  0.0000000E+00;  1.4559804E-01;  1.9062031E+03;
  1.3284016E+00;  9.9999998E-03;  2.2334088E-01;8415;  4.7906446E-03;  0.0000000E+00;  2.8850740E-02;  9.9987036E+02;  4.7778356E-01; -1.0740180E+02;3; -1.3775009E+01;  0.0000000E+00;  1.3921813E+01;0;  1.3245611E+00;  1.8049810E+03;  0.0000000E+00; -4.7754381E-02;  4.0000000E+04;  0.0000000E+00;  3.8810160E+04;  1.2043328E+00;  0.0000000E+00;  1.2022834E-01;  5.1050298E+03;
  1.3294977E+00;  9.9999998E-03;  1.7246929E-01;8410;  2.4892647E-02;  0.0000000E+00;  2.7002469E-02;  1.0005144E+03;  4.7950780E-01;  4.2615039E+02;3; -4.8560648E+00;  0.0000000E+00;  2.0267487E+01;0;  9.0480888E-01;  1.7937429E+03;  0.0000000E+00; -6.0950363E-01;  4.0000000E+04;  0.0000000E+00;  3.8817594E+04;  7.5659323E-01;  0.0000000E+00;  1.4821565E-01;  2.0810925E+03;
  1.3301864E+00;  9.9999998E-03;  1.6229582E-01;8409;  2.8406696E-02;  0.0000000E+00;  2.4438016E-02;  1.0006392E+03;  4.8015648E-01;  5.2955225E+02;3; -3.5521631E+00;  0.0000000E+00;  2.1990892E+01;0;  8.1472999E-01;  1.7889403E+03;  0.0000000E+00; -7.1625221E-01;  4.0000000E+04;  0.0000000E+00;  3.8822344E+04;  6.6723979E-01;  0.0000000E+00;  1.4749020E-01;  3.1903354E+03;
  1.3295259E+00;  9.9999998E-03;  2.3358119E-01;8416;  2.9155592E-04;  0.0000000E+00;  2.8947078E-02;  9.9950769E+02;  4.7850743E-01; -4.0787976E+02;3; -1.5464583E+01;  0.0000000E+00;  1.3910872E+01;0;  1.4205140E+00;  1.7996539E+03;  0.0000000E+00; -5.4502839E-01;  4.0000000E+04;  0.0000000E+00;  3.8791406E+04;  1.3092854E+00;  0.0000000E+00;  1.1122863E-01;  2.9564321E+03;
  1.3306335E+00;  9.9999998E-03;  1.5209717E-01;8408;  3.1994559E-02;  0.0000000E+00;  2.0812554E-02;  1.0007025E+03;  4.8054415E-01;  5.8199384E+02;3; -2.2452970E+00;  0.0000000E+00;  2.1426500E+01;0;  7.1956754E-01;  1.7858090E+03;  0.0000000E+00; -7.6316214E-01;  4.0000000E+04;  0.0000000E+00;  3.8829238E+04;  5.7640553E-01;  0.0000000E+00;  1.4316200E-01;  4.3493809E+03;
  1.3310641E+00;  9.9999998E-03;  1.4192334E-01;8407;  3.5669316E-02;  0.0000000E+00;  1.6629163E-02;  1.0007446E+03;  4.8087582E-01;  6.1685602E+02;3; -4.3614426E-01;  0.0000000E+00;  1.9516945E+01;0;  6.2468988E-01;  1.7830308E+03;  0.0000000E+00; -7.5367093E-01;  4.0000000E+04;  0.0000000E+00;  3.8837523E+04;  4.8920882E-01;  0.0000000E+00;  1.3548107E-01;  5.4109277E+03;
  1.3315516E+00;  9.9999998E-03;  1.3180901E-01;8406;  3.9180707E-02;  0.0000000E+00;  1.2414602E-02;  1.0007650E+03;  4.8123071E-01;  6.3374396E+02;3;  1.6508515E+00;  0.0000000E+00;  1.6709530E+01;0;  5.3247923E-01;  1.7799919E+03;  0.0000000E+00; -6.9246370E-01;  4.0000000E+04;  0.0000000E+00;  3.8845953E+04;  4.0752158E-01;  0.0000000E+00;  1.2495767E-01;  6.3451636E+03;
  1.3320757E+00;  9.9999998E-03;  1.2172259E-01;8405;  4.2456917E-02;  0.0000000E+00;  8.4944023E-03;  1.0007131E+03;  4.8162770E-01;  5.9078314E+02;3;  4.1956129E+00;  0.0000000E+00;  1.3408410E+01;0;  4.4382295E-01;  1.7766495E+03;  0.0000000E+00; -5.8753836E-01;  4.0000000E+04;  0.0000000E+00;  3.8852676E+04;  3.3147106E-01;  0.0000000E+00;  1.1235189E-01;  7.1535615E+03;
  1.3323691E+00;  9.9999998E-03;  1.1162501E-01;8404;  4.4954859E-02;  0.0000000E+00;  5.7700281E-03;  1.0005296E+03;  4.8188812E-01;  4.3879126E+02;3;  6.9191947E+00;  0.0000000E+00;  9.8608074E+00;0;  3.5863370E-01;  1.7742087E+03;  0.0000000E+00; -4.5402563E-01;  4.0000000E+04;  0.0000000E+00;  3.8857574E+04;  2.5990120E-01;  0.0000000E+00;  9.8732501E-02;  7.8164707E+03;
  1.3326298E+00;  9.9999998E-03;  1.0149998E-01;8403;  4.6412162E-02;  0.0000000E+00;  4.6820189E-03;  1.0002701E+03;  4.8216623E-01;  2.2379044E+02;3;  9.5401936E+00;  0.0000000E+00;  6.3001933E+00;0;  2.7999339E-01;  1.7716322E+03;  0.0000000E+00; -3.0697453E-01;  4.0000000E+04;  0.0000000E+00;  3.8859621E+04;  1.9476062E-01;  0.0000000E+00;  8.5232772E-02;  8.3156436E+03;
  1.3329700E+00;  9.9999998E-03;  9.1339849E-02;8402;  4.7152299E-02;  0.0000000E+00;  4.4803042E-03;  9.9997729E+02;  4.8254082E-01; -1.8813801E+01;3;  1.1566415E+01;  0.0000000E+00;  5.0099292E+00;0;  2.0952880E-01;  1.7684087E+03;  0.0000000E+00; -1.6512947E-01;  4.0000000E+04;  0.0000000E+00;  3.8859734E+04;  1.3685143E-01;  0.0000000E+00;  7.2677381E-02;  8.6323994E+03;
  1.3333095E+00;  9.9999998E-03;  8.1133246E-02;8401;  4.7369104E-02;  0.0000000E+00;  4.5239762E-03;  9.9967633E+02;  4.8293018E-01; -2.6813364E+02;3;  1.3159828E+01;  0.0000000E+00;  4.6577368E+00;0;  1.4761430E-01;  1.7650613E+03;  0.0000000E+00; -4.6395857E-02;  4.0000000E+04;  0.0000000E+00;  3.8858941E+04;  8.5928753E-02;  0.0000000E+00;  6.1685540E-02;  8.7615957E+03;
  1.3334830E+00;  9.9999998E-03;  7.0925549E-02;8400;  4.7211073E-02;  0.0000000E+00;  4.5904540E-03;  9.9936682E+02;  4.8320159E-01; -5.2456421E+02;3;  1.4403887E+01;  0.0000000E+00;  4.6721754E+00;0;  9.4653897E-02;  1.7624463E+03;  0.0000000E+00;  3.6124598E-02;  4.0000000E+04;  0.0000000E+00;  3.8858410E+04;  4.1918192E-02;  0.0000000E+00;  5.2735705E-02;  8.7581094E+03;
  1.3777457E+00;  9.9999998E-03;  2.0312607E-01;8474;  1.4306566E-01;  0.0000000E+00;  1.4923280E-02;  1.0073949E+03;  4.8670968E-01;  6.1262354E+03;3;  1.4239331E+01;  0.0000000E+00;  3.2805401E+01;0;  1.6531639E+00;  1.7660879E+03;  0.0000000E+00; -8.2044852E-01;  4.0000000E+04;  0.0000000E+00;  3.8783543E+04;  1.4189370E+00;  0.0000000E+00;  2.3422699E-01;  2.4876382E+03;
  1.3781588E+00;  9.9999998E-03;  1.9300710E-01;8473;  1.3341323E-01;  0.0000000E+00;  9.1854380E-03;  1.0070398E+03;  4.8693022E-01;  5.8320347E+03;3;  1.6250528E+01;  0.0000000E+00;  2.6339294E+01;0;  1.4972715E+00;  1.7629772E+03;  0.0000000E+00; -8.0984336E-01;  4.0000000E+04;  0.0000000E+00;  3.8787738E+04;  1.2776266E+00;  0.0000000E+00;  2.1964486E-01;  3.3126187E+03;
  1.3778121E+00;  9.9999998E-03;  2.1328597E-01;8475;  1.5473185E-01;  0.0000000E+00;  2.5661273E-02;  1.0076162E+03;  4.8651680E-01;  6.3095298E+03;3;  1.1638165E+01;  0.0000000E+00;  4.2975368E+01;0;  1.8062707E+00;  1.7683011E+03;  0.0000000E+00; -8.5523015E-01;  4.0000000E+04;  0.0000000E+00;  3.8779348E+04;  1.5571792E+00;  0.0000000E+00;  2.4909148E-01;  1.6577279E+03;
  1.3790444E+00;  9.9999998E-03;  1.8290135E-01;8472;  1.2545624E-01;  0.0000000E+00;  6.0839751E-03;  1.0065460E+03;  4.8716921E-01;  5.4228779E+03;3;  1.8189157E+01;  0.0000000E+00;  2.1970308E+01;0;  1.3356735E+00;  1.7591052E+03;  0.0000000E+00; -7.6022172E-01;  4.0000000E+04;  0.0000000E+00;  3.8791613E+04;  1.1351941E+00;  0.0000000E+00;  2.0047942E-01;  4.0192246E+03;
  1.3783766E+00;  9.9999998E-03;  2.2350383E-01;8476;  1.6680588E-01;  0.0000000E+00;  4.3001998E-02;  1.0075991E+03;  4.8634189E-01;  6.2954043E+03;3;  9.2997007E+00;  0.0000000E+00;  5.5537289E+01;0;  1.9704950E+00;  1.7698264E+03;  0.0000000E+00; -1.0012182E+00;  4.0000000E+04;  0.0000000E+00;  3.8766695E+04;  1.6906427E+00;  0.0000000E+00;  2.7985227E-01;  9.4940045E+02;
  1.3803769E+00;  9.9999998E-03;  1.7279524E-01;8471;  1.1806685E-01;  0.0000000E+00;  4.1612540E-03;  1.0059007E+03;  4.8739105E-01;  4.8883970E+03;3;  1.9781256E+01;  0.0000000E+00;  1.9374643E+01;0;  1.1705940E+00;  1.7547931E+03;  0.0000000E+00; -6.3804811E-01;  4.0000000E+04;  0.0000000E+00;  3.8794730E+04;  9.9422449E-01;  0.0000000E+00;  1.7636949E-01;  4.4461128E+03;
  1.3791211E+00;  9.9999998E-03;  2.3374574E-01;8477;  1.7561316E-01;  0.0000000E+00;  5.8260132E-02;  1.0072311E+03;  4.8621377E-01;  5.9905361E+03;3;  2.8631144E+00;  0.0000000E+00;  4.8225761E+01;0;  2.1561699E+00;  1.7707548E+03;  0.0000000E+00; -1.3785878E+00;  4.0000000E+04;  0.0000000E+00;  3.8738406E+04;  1.8199600E+00;  0.0000000E+00;  3.3620977E-01;  4.4079868E+03;
  1.3817371E+00;  9.9999998E-03;  1.6263603E-01;8470;  1.0992535E-01;  0.0000000E+00;  2.6176509E-03;  1.0051249E+03;  4.8751792E-01;  4.2456787E+03;3;  2.1016552E+01;  0.0000000E+00;  1.7435114E+01;0;  1.0076631E+00;  1.7507002E+03;  0.0000000E+00; -4.5146945E-01;  4.0000000E+04;  0.0000000E+00;  3.8797031E+04;  8.5911977E-01;  0.0000000E+00;  1.4854334E-01;  4.6316494E+03;
  1.3826468E+00;  9.9999998E-03;  1.5240119E-01;8469;  1.0102415E-01;  0.0000000E+00;  1.4646001E-03;  1.0042991E+03;  4.8752177E-01;  3.5614849E+03;3;  2.1194880E+01;  0.0000000E+00;  1.5728367E+01;0;  8.5318714E-01;  1.7473119E+03;  0.0000000E+00; -2.3247701E-01;  4.0000000E+04;  0.0000000E+00;  3.8799547E+04;  7.3386967E-01;  0.0000000E+00;  1.1931747E-01;  4.8458042E+03;
  1.3821701E+00;  9.9999998E-03;  1.3194937E-01;8467;  8.3590813E-02;  0.0000000E+00;  8.8509265E-04;  1.0028649E+03;  4.8733702E-01;  2.3734353E+03;3;  2.1283968E+01;  0.0000000E+00;  1.1465970E+01;0;  5.8550900E-01;  1.7429272E+03;  0.0000000E+00;  1.5413587E-01;  4.0000000E+04;  0.0000000E+00;  3.8810262E+04;  5.1841861E-01;  0.0000000E+00;  6.7090414E-02;  6.2088091E+03;
  1.3825868E+00;  9.9999998E-03;  1.4214049E-01;8468;  9.1980301E-02;  0.0000000E+00;  9.6163590E-04;  1.0035539E+03;  4.8744339E-01;  2.9441531E+03;3;  2.1494703E+01;  0.0000000E+00;  1.3358829E+01;0;  7.1318424E-01;  1.7448964E+03;  0.0000000E+00; -2.1113168E-02;  4.0000000E+04;  0.0000000E+00;  3.8803746E+04;  6.2124223E-01;  0.0000000E+00;  9.1942042E-02;  5.3669229E+03;
  1.3821336E+00;  9.9999998E-03;  1.2182914E-01;8466;  7.6193497E-02;  0.0000000E+00;  7.5358502E-04;  1.0021458E+03;  4.8728737E-01;  1.7776323E+03;3;  2.1460371E+01;  0.0000000E+00;  1.0407513E+01;0;  4.6712142E-01;  1.7405460E+03;  0.0000000E+00;  2.8669378E-01;  4.0000000E+04;  0.0000000E+00;  3.8816461E+04;  4.2346296E-01;  0.0000000E+00;  4.3658461E-02;  7.1435337E+03;
  1.3824728E+00;  9.9999998E-03;  1.1172502E-01;8465;  6.9409370E-02;  0.0000000E+00;  4.9898453E-04;  1.0013723E+03;  4.8731190E-01;  1.1367955E+03;3;  2.1750450E+01;  0.0000000E+00;  9.6689768E+00;0;  3.5900819E-01;  1.7376115E+03;  0.0000000E+00;  3.7596411E-01;  4.0000000E+04;  0.0000000E+00;  3.8821348E+04;  3.3732140E-01;  0.0000000E+00;  2.1686796E-02;  7.9288198E+03;
  1.3828572E+00;  9.9999998E-03;  1.0159156E-01;8464;  6.3160807E-02;  0.0000000E+00;  2.6960304E-04;  1.0005860E+03;  4.8739552E-01;  4.8549084E+02;3;  2.2065098E+01;  0.0000000E+00;  9.1124849E+00;0;  2.6300836E-01;  1.7344335E+03;  0.0000000E+00;  4.2319751E-01;  4.0000000E+04;  0.0000000E+00;  3.8823648E+04;  2.6091930E-01;  0.0000000E+00;  2.0890394E-03;  8.4252109E+03;
  1.3831487E+00;  9.9999998E-03;  9.1397040E-02;8463;  5.7323389E-02;  0.0000000E+00;  1.1204698E-04;  9.9981787E+02;  4.8751459E-01; -1.5090111E+02;3;  2.2515778E+01;  0.0000000E+00;  8.4955740E+00;0;  1.7950113E-01;  1.7312416E+03;  0.0000000E+00;  4.3238571E-01;  4.0000000E+04;  0.0000000E+00;  3.8824270E+04;  1.9423424E-01;  0.0000000E+00; -1.4733110E-02;  8.6381270E+03;
  1.3834169E+00;  9.9999998E-03;  8.1192531E-02;8462;  5.2127641E-02;  0.0000000E+00;  1.9401083E-05;  9.9910870E+02;  4.8765939E-01; -7.3835852E+02;3;  2.2345352E+01;  0.0000000E+00;  7.7891169E+00;0;  1.0839755E-01;  1.7280804E+03;  0.0000000E+00;  4.0980130E-01;  4.0000000E+04;  0.0000000E+00;  3.8823750E+04;  1.3732933E-01;  0.0000000E+00; -2.8931774E-02;  8.6751553E+03;
  1.3837293E+00;  9.9999998E-03;  7.0999183E-02;8461;  4.8057906E-02;  0.0000000E+00;  4.5982757E-05;  9.9846826E+02;  4.8781905E-01; -1.2689314E+03;3;  2.1084274E+01;  0.0000000E+00;  6.9306507E+00;0;  4.9057562E-02;  1.7249907E+03;  0.0000000E+00;  3.6259648E-01;  4.0000000E+04;  0.0000000E+00;  3.8823320E+04;  8.9859650E-02;  0.0000000E+00; -4.0802088E-02;  8.6734971E+03;
  1.4240711E+00;  9.9999998E-03;  2.0288089E-01;8535;  1.9499978E-01;  0.0000000E+00; -1.6217276E-02;  1.0014550E+03;  4.6415871E-01;  1.2052769E+03;3;  6.0162807E+01;  0.0000000E+00;  3.2958221E+01;0;  9.8563641E-01;  1.9169763E+03;  0.0000000E+00; -3.8306754E-02;  4.0000000E+04;  0.0000000E+00;  3.8801691E+04;  7.8962690E-01;  0.0000000E+00;  1.9600952E-01;  5.3439624E+03;
  1.4240683E+00;  9.9999998E-03;  2.1303812E-01;8536;  2.0996319E-01;  0.0000000E+00; -1.5528352E-02;  1.0020426E+03;  4.6403775E-01;  1.6921278E+03;3;  6.2013069E+01;  0.0000000E+00;  3.4800858E+01;0;  1.0815148E+00;  1.9202516E+03;  0.0000000E+00; -6.9642039E-03;  4.0000000E+04;  0.0000000E+00;  3.8800480E+04;  8.4955180E-01;  0.0000000E+00;  2.3196308E-01;  5.2872041E+03;
  1.4247873E+00;  9.9999998E-03;  1.9276080E-01;8534;  1.8013436E-01;  0.0000000E+00; -1.7366258E-02;  1.0007038E+03;  4.6401468E-01;  5.8303546E+02;3;  5.7926544E+01;  0.0000000E+00;  3.1762678E+01;0;  8.8120174E-01;  1.9148470E+03;  0.0000000E+00; -1.0368706E-01;  4.0000000E+04;  0.0000000E+00;  3.8804113E+04;  7.2647673E-01;  0.0000000E+00;  1.5472500E-01;  5.6468799E+03;
  1.4245700E+00;  9.9999998E-03;  2.2323646E-01;8537;  2.2524163E-01;  0.0000000E+00; -1.4365144E-02;  1.0024701E+03;  4.6367922E-01;  2.0462534E+03;3;  6.4359566E+01;  0.0000000E+00;  3.8342934E+01;0;  1.1660794E+00;  1.9245719E+03;  0.0000000E+00; -1.1881679E-01;  4.0000000E+04;  0.0000000E+00;  3.8797848E+04;  9.0280265E-01;  0.0000000E+00;  2.6327673E-01;  5.4175405E+03;
  1.4262984E+00;  9.9999998E-03;  1.8269236E-01;8533;  1.6535199E-01;  0.0000000E+00; -1.9345246E-02;  9.9977673E+02;  4.6360916E-01; -1.8496321E+02;3;  5.5431404E+01;  0.0000000E+00;  3.0429432E+01;0;  7.7632999E-01;  1.9139167E+03;  0.0000000E+00; -1.3220499E-01;  4.0000000E+04;  0.0000000E+00;  3.8806441E+04;  6.6793817E-01;  0.0000000E+00;  1.0839182E-01;  6.0186177E+03;
  1.4255105E+00;  9.9999998E-03;  2.3345728E-01;8538;  2.4119554E-01;  0.0000000E+00; -1.1931383E-02;  1.0026911E+03;  4.6311399E-01;  2.2293379E+03;3;  6.7508408E+01;  0.0000000E+00;  4.4169868E+01;0;  1.2381274E+00;  1.9301812E+03;  0.0000000E+00; -5.2320212E-01;  4.0000000E+04;  0.0000000E+00;  3.8788672E+04;  9.4538468E-01;  0.0000000E+00;  2.9274270E-01;  6.1630347E+03;
  1.4286199E+00;  9.9999998E-03;  1.7268722E-01;8532;  1.5065795E-01;  0.0000000E+00; -2.2222849E-02;  9.9868970E+02;  4.6292028E-01; -1.0854329E+03;3;  5.2566452E+01;  0.0000000E+00;  2.8873671E+01;0;  6.8172765E-01;  1.9144014E+03;  0.0000000E+00; -8.9152247E-02;  4.0000000E+04;  0.0000000E+00;  3.8808031E+04;  6.2426680E-01;  0.0000000E+00;  5.7460863E-02;  6.2901626E+03;
  1.4307209E+00;  9.9999998E-03;  1.6258174E-01;8531;  1.3566144E-01;  0.0000000E+00; -2.4636684E-02;  9.9756549E+02;  4.6222004E-01; -2.0167067E+03;3;  4.9732635E+01;  0.0000000E+00;  2.7152250E+01;0;  6.1011428E-01;  1.9149840E+03;  0.0000000E+00;  2.3404362E-02;  4.0000000E+04;  0.0000000E+00;  3.8807453E+04;  6.0397029E-01;  0.0000000E+00;  6.1439998E-03;  6.2679609E+03;
  1.4315608E+00;  9.9999998E-03;  1.5230048E-01;8530;  1.2042715E-01;  0.0000000E+00; -2.5243210E-02;  9.9654016E+02;  4.6184763E-01; -2.8660659E+03;3;  4.6631386E+01;  0.0000000E+00;  2.5761759E+01;0;  5.5740321E-01;  1.9135294E+03;  0.0000000E+00;  1.8631800E-01;  4.0000000E+04;  0.0000000E+00;  3.8806750E+04;  5.9657609E-01;  0.0000000E+00; -3.9172869E-02;  6.1914385E+03;
  1.4314847E+00;  9.9999998E-03;  1.4198981E-01;8529;  1.0587594E-01;  0.0000000E+00; -2.4555041E-02;  9.9561566E+02;  4.6173793E-01; -3.6319341E+03;3;  4.2523220E+01;  0.0000000E+00;  2.4510260E+01;0;  5.1259601E-01;  1.9103848E+03;  0.0000000E+00;  3.5876390E-01;  4.0000000E+04;  0.0000000E+00;  3.8809164E+04;  5.8960605E-01;  0.0000000E+00; -7.7010043E-02;  6.5865898E+03;
  1.4305030E+00;  9.9999998E-03;  1.2159615E-01;8527;  8.2734309E-02;  0.0000000E+00; -2.2309324E-02;  9.9394830E+02;  4.6186894E-01; -5.0131797E+03;3;  3.5473248E+01;  0.0000000E+00;  2.2633608E+01;0;  4.3483794E-01;  1.9020823E+03;  0.0000000E+00;  5.8780664E-01;  4.0000000E+04;  0.0000000E+00;  3.8822059E+04;  5.6972712E-01;  0.0000000E+00; -1.3488919E-01;  8.5729863E+03;
  1.4309878E+00;  9.9999998E-03;  1.3174516E-01;8528;  9.3554862E-02;  0.0000000E+00; -2.3345314E-02;  9.9477454E+02;  4.6177343E-01; -4.3287280E+03;3;  3.7537518E+01;  0.0000000E+00;  2.4086725E+01;0;  4.7135869E-01;  1.9063644E+03;  0.0000000E+00;  4.9950564E-01;  4.0000000E+04;  0.0000000E+00;  3.8815086E+04;  5.7960516E-01;  0.0000000E+00; -1.0824647E-01;  7.4958750E+03;
  1.4304956E+00;  9.9999998E-03;  1.1148849E-01;8526;  7.2694585E-02;  0.0000000E+00; -2.1658227E-02;  9.9311713E+02;  4.6191010E-01; -5.7016768E+03;3;  3.2364437E+01;  0.0000000E+00;  2.0400818E+01;0;  4.0881670E-01;  1.8982814E+03;  0.0000000E+00;  6.2079763E-01;  4.0000000E+04;  0.0000000E+00;  3.8828438E+04;  5.6858075E-01;  0.0000000E+00; -1.5976404E-01;  9.4838975E+03;
  1.4306595E+00;  9.9999998E-03;  1.0136854E-01;8525;  6.3937977E-02;  0.0000000E+00; -2.0826841E-02;  9.9230237E+02;  4.6196869E-01; -6.3766431E+03;3;  2.8810352E+01;  0.0000000E+00;  1.7829544E+01;0;  3.9167473E-01;  1.8945668E+03;  0.0000000E+00;  6.0530180E-01;  4.0000000E+04;  0.0000000E+00;  3.8832121E+04;  5.7378036E-01;  0.0000000E+00; -1.8210563E-01;  1.0038172E+04;
  1.4309425E+00;  9.9999998E-03;  9.1243990E-02;8524;  5.6610364E-02;  0.0000000E+00; -1.9676592E-02;  9.9152734E+02;  4.6204236E-01; -7.0186743E+03;3;  2.5919115E+01;  0.0000000E+00;  1.5458830E+01;0;  3.8327056E-01;  1.8910767E+03;  0.0000000E+00;  5.5443430E-01;  4.0000000E+04;  0.0000000E+00;  3.8833633E+04;  5.8537889E-01;  0.0000000E+00; -2.0210834E-01;  1.0238372E+04;
  1.4312865E+00;  9.9999998E-03;  8.1111625E-02;8523;  5.0554723E-02;  0.0000000E+00; -1.8204529E-02;  9.9081866E+02;  4.6211416E-01; -7.6056987E+03;3;  2.4694302E+01;  0.0000000E+00;  1.3473419E+01;0;  3.8262632E-01;  1.8878916E+03;  0.0000000E+00;  4.8094842E-01;  4.0000000E+04;  0.0000000E+00;  3.8832840E+04;  6.0248476E-01;  0.0000000E+00; -2.1985844E-01;  1.0189133E+04;
  1.4316412E+00;  9.9999998E-03;  7.0973039E-02;8522;  4.5460019E-02;  0.0000000E+00; -1.6479343E-02;  9.9021094E+02;  4.6216851E-01; -8.1091299E+03;3;  2.3712854E+01;  0.0000000E+00;  1.1597664E+01;0;  3.8819230E-01;  1.8851409E+03;  0.0000000E+00;  3.9555284E-01;  4.0000000E+04;  0.0000000E+00;  3.8831344E+04;  6.2353301E-01;  0.0000000E+00; -2.3534073E-01;  1.0022960E+04;
  1.4690858E+00;  9.9999998E-03;  2.1312663E-01;8597;  2.0644052E-01;  0.0000000E+00; -7.7018559E-02;  9.9351788E+02;  4.3136638E-01; -5.3692578E+03;3;  6.2228649E+01;  0.0000000E+00;  2.5017649E+01;0;  8.1531084E-01;  2.1817434E+03;  0.0000000E+00;  5.8880776E-01;  4.0000000E+04;  0.0000000E+00;  3.8832645E+04;  7.2115618E-01;  0.0000000E+00;  9.4154663E-02;  8.9905000E+03;
  1.4694568E+00;  9.9999998E-03;  2.0300202E-01;8596;  1.9179770E-01;  0.0000000E+00; -7.6896295E-02;  9.9320844E+02;  4.3119776E-01; -5.6255889E+03;3;  5.9473911E+01;  0.0000000E+00;  2.4957512E+01;0;  8.8052720E-01;  2.1819004E+03;  0.0000000E+00;  5.7488674E-01;  4.0000000E+04;  0.0000000E+00;  3.8831445E+04;  8.4006584E-01;  0.0000000E+00;  4.0461376E-02;  8.4626855E+03;
  1.4695082E+00;  9.9999998E-03;  2.2328684E-01;8598;  2.2099423E-01;  0.0000000E+00; -7.8093469E-02;  9.9372034E+02;  4.3103221E-01; -5.2015361E+03;3;  6.3467937E+01;  0.0000000E+00;  2.4748602E+01;0;  7.6781583E-01;  2.1856091E+03;  0.0000000E+00;  4.4983694E-01;  4.0000000E+04;  0.0000000E+00;  3.8833488E+04;  6.2890643E-01;  0.0000000E+00;  1.3890937E-01;  9.8803428E+03;
  1.4706244E+00;  9.9999998E-03;  1.9291532E-01;8595;  1.7735906E-01;  0.0000000E+00; -7.7631108E-02;  9.9284613E+02;  4.3062368E-01; -5.9256484E+03;3;  5.7051300E+01;  0.0000000E+00;  2.3462542E+01;0;  9.7669548E-01;  2.1853215E+03;  0.0000000E+00;  5.2152109E-01;  4.0000000E+04;  0.0000000E+00;  3.8829305E+04;  9.9607551E-01;  0.0000000E+00; -1.9380054E-02;  8.0686519E+03;
  1.4704072E+00;  9.9999998E-03;  2.3348299E-01;8599;  2.3539473E-01;  0.0000000E+00; -7.9787500E-02;  9.9380615E+02;  4.3035415E-01; -5.1304766E+03;3;  6.4917923E+01;  0.0000000E+00;  2.5150986E+01;0;  7.2270930E-01;  2.1923352E+03;  0.0000000E+00; -1.2201765E-02;  4.0000000E+04;  0.0000000E+00;  3.8828699E+04;  5.5147678E-01;  0.0000000E+00;  1.7123251E-01;  1.1110308E+04;
  1.4723407E+00;  9.9999998E-03;  1.8285404E-01;8594;  1.6313104E-01;  0.0000000E+00; -7.8656293E-02;  9.9245648E+02;  4.2981052E-01; -6.2483560E+03;3;  5.3870110E+01;  0.0000000E+00;  2.2086025E+01;0;  1.1103396E+00;  2.1907673E+03;  0.0000000E+00;  5.0977635E-01;  4.0000000E+04;  0.0000000E+00;  3.8825156E+04;  1.1926723E+00;  0.0000000E+00; -8.2332648E-02;  7.5150386E+03;
  1.4742072E+00;  9.9999998E-03;  1.7277023E-01;8593;  1.4906761E-01;  0.0000000E+00; -7.9401009E-02;  9.9205359E+02;  4.2890799E-01; -6.5820654E+03;3;  5.0827446E+01;  0.0000000E+00;  2.0149923E+01;0;  1.2768352E+00;  2.1971006E+03;  0.0000000E+00;  5.8986419E-01;  4.0000000E+04;  0.0000000E+00;  3.8818219E+04;  1.4216435E+00;  0.0000000E+00; -1.4480825E-01;  6.6383970E+03;
  1.4757721E+00;  9.9999998E-03;  1.6260803E-01;8592;  1.3482916E-01;  0.0000000E+00; -7.9251997E-02;  9.9160748E+02;  4.2805192E-01; -6.9515215E+03;3;  4.9301575E+01;  0.0000000E+00;  1.7602072E+01;0;  1.4584430E+00;  2.2030273E+03;  0.0000000E+00;  7.5428420E-01;  4.0000000E+04;  0.0000000E+00;  3.8809535E+04;  1.6611638E+00;  0.0000000E+00; -2.0272081E-01;  5.5493701E+03;
  1.4760951E+00;  9.9999998E-03;  8.1292219E-02;8584;  4.8566233E-02;  0.0000000E+00; -4.6256289E-02;  9.8701367E+02;  4.2795274E-01; -1.0756547E+04;3;  2.4941259E+01;  0.0000000E+00;  7.5777063E+00;0;  2.4232194E+00;  2.1826760E+03;  0.0000000E+00;  8.7931734E-01;  4.0000000E+04;  0.0000000E+00;  3.8809363E+04;  2.8567233E+00;  0.0000000E+00; -4.3350387E-01;  6.0275781E+03;
  1.4763905E+00;  9.9999998E-03;  7.1174651E-02;8583;  4.3175872E-02;  0.0000000E+00; -4.0856689E-02;  9.8665790E+02;  4.2803282E-01; -1.1051229E+04;3;  2.3967094E+01;  0.0000000E+00;  6.8576102E+00;0;  2.5392654E+00;  2.1804277E+03;  0.0000000E+00;  6.7624736E-01;  4.0000000E+04;  0.0000000E+00;  3.8805531E+04;  2.9888971E+00;  0.0000000E+00; -4.4963160E-01;  5.4714375E+03;
  1.4759305E+00;  9.9999998E-03;  9.1389865E-02;8585;  5.4955438E-02;  0.0000000E+00; -5.1471710E-02;  9.8745892E+02;  4.2780566E-01; -1.0387756E+04;3;  2.6300180E+01;  0.0000000E+00;  8.4315500E+00;0;  2.3112454E+00;  2.1859478E+03;  0.0000000E+00;  1.0765980E+00;  4.0000000E+04;  0.0000000E+00;  3.8811730E+04;  2.7271059E+00;  0.0000000E+00; -4.1586053E-01;  6.3492178E+03;
  1.4769435E+00;  9.9999998E-03;  1.5237959E-01;8591;  1.2033081E-01;  0.0000000E+00; -7.8018367E-02;  9.9108026E+02;  4.2730814E-01; -7.3881758E+03;3;  4.7104549E+01;  0.0000000E+00;  1.5871086E+01;0;  1.6424460E+00;  2.2076921E+03;  0.0000000E+00;  9.6828145E-01;  4.0000000E+04;  0.0000000E+00;  3.8801941E+04;  1.8961240E+00;  0.0000000E+00; -2.5367799E-01;  4.6083511E+03;
  1.4759468E+00;  9.9999998E-03;  1.0147577E-01;8586;  6.2392309E-02;  0.0000000E+00; -5.6578156E-02;  9.8798273E+02;  4.2759660E-01; -9.9538877E+03;3;  2.8351149E+01;  0.0000000E+00;  9.9785805E+00;0;  2.2062075E+00;  2.1902007E+03;  0.0000000E+00;  1.2426251E+00;  4.0000000E+04;  0.0000000E+00;  3.8811441E+04;  2.6030440E+00;  0.0000000E+00; -3.9683658E-01;  6.3133784E+03;
  1.4762238E+00;  9.9999998E-03;  1.1156482E-01;8587;  7.1059294E-02;  0.0000000E+00; -6.1661020E-02;  9.8857062E+02;  4.2732990E-01; -9.4669365E+03;3;  3.0859503E+01;  0.0000000E+00;  1.0941113E+01;0;  2.1117570E+00;  2.1954512E+03;  0.0000000E+00;  1.3527662E+00;  4.0000000E+04;  0.0000000E+00;  3.8808496E+04;  2.4882638E+00;  0.0000000E+00; -3.7650687E-01;  5.8548389E+03;
  1.4767808E+00;  9.9999998E-03;  1.2168828E-01;8588;  8.1301913E-02;  0.0000000E+00; -6.6740580E-02;  9.8920209E+02;  4.2701730E-01; -8.9438887E+03;3;  3.4371109E+01;  0.0000000E+00;  1.1752062E+01;0;  2.0265326E+00;  2.2013960E+03;  0.0000000E+00;  1.3865072E+00;  4.0000000E+04;  0.0000000E+00;  3.8803609E+04;  2.3809004E+00;  0.0000000E+00; -3.5436764E-01;  5.0763042E+03;
  1.4775525E+00;  9.9999998E-03;  1.4211835E-01;8590;  1.0627013E-01;  0.0000000E+00; -7.5542688E-02;  9.9048810E+02;  4.2683172E-01; -7.8786538E+03;3;  4.2957642E+01;  0.0000000E+00;  1.4263875E+01;0;  1.8093607E+00;  2.2094380E+03;  0.0000000E+00;  1.1801107E+00;  4.0000000E+04;  0.0000000E+00;  3.8798352E+04;  2.1052144E+00;  0.0000000E+00; -2.9585361E-01;  4.1453584E+03;
  1.4773721E+00;  9.9999998E-03;  1.3187665E-01;8589;  9.3158908E-02;  0.0000000E+00; -7.1583286E-02;  9.8985400E+02;  4.2678812E-01; -8.4039082E+03;3;  3.8506302E+01;  0.0000000E+00;  1.2738775E+01;0;  1.9335971E+00;  2.2067598E+03;  0.0000000E+00;  1.3288622E+00;  4.0000000E+04;  0.0000000E+00;  3.8799293E+04;  2.2620826E+00;  0.0000000E+00; -3.2848549E-01;  4.3496108E+03;
  1.5119374E+00;  9.9999998E-03;  2.0323659E-01;8657;  1.8498798E-01;  0.0000000E+00; -1.2514067E-01;  9.8865350E+02;  3.9466202E-01; -9.3968506E+03;3;  6.3091824E+01;  0.0000000E+00;  9.9072485E+00;0;  2.6864569E+00;  2.5782917E+03;  0.0000000E+00;  1.2401369E+00;  4.0000000E+04;  0.0000000E+00;  3.8850664E+04;  2.8558199E+00;  0.0000000E+00; -1.6936296E-01;  9.5049629E+03;
  1.5119306E+00;  9.9999998E-03;  2.1333924E-01;8658;  1.9977979E-01;  0.0000000E+00; -1.2721956E-01;  9.8818213E+02;  3.9469460E-01; -9.7872119E+03;3;  6.6690163E+01;  0.0000000E+00;  1.0054034E+01;0;  2.4466527E+00;  2.5753408E+03;  0.0000000E+00;  1.1960233E+00;  4.0000000E+04;  0.0000000E+00;  3.8859008E+04;  2.5715373E+00;  0.0000000E+00; -1.2488460E-01;  1.1107469E+04;
  1.5125909E+00;  9.9999998E-03;  1.9313109E-01;8656;  1.7013370E-01;  0.0000000E+00; -1.2364872E-01;  9.8921161E+02;  3.9418769E-01; -8.9345840E+03;3;  5.9345848E+01;  0.0000000E+00;  9.5219831E+00;0;  2.9814224E+00;  2.5867371E+03;  0.0000000E+00;  1.2166885E+00;  4.0000000E+04;  0.0000000E+00;  3.8841148E+04;  3.2018156E+00;  0.0000000E+00; -2.2039311E-01;  8.0120171E+03;
  1.5124712E+00;  9.9999998E-03;  2.2346446E-01;8659;  2.1447299E-01;  0.0000000E+00; -1.2995073E-01;  9.8782013E+02;  3.9429259E-01; -1.0086961E+04;3;  7.0277359E+01;  0.0000000E+00;  1.0098268E+01;0;  2.2494104E+00;  2.5776697E+03;  0.0000000E+00;  9.6103573E-01;  4.0000000E+04;  0.0000000E+00;  3.8866887E+04;  2.3413112E+00;  0.0000000E+00; -9.1900766E-02;  1.3074982E+04;
  1.5134276E+00;  9.9999998E-03;  2.3363680E-01;8660;  2.2894642E-01;  0.0000000E+00; -1.3340473E-01;  9.8750262E+02;  3.9352009E-01; -1.0349859E+04;3;  7.1334267E+01;  0.0000000E+00;  9.7722235E+00;0;  2.0782309E+00;  2.5848179E+03;  0.0000000E+00;  3.2017824E-01;  4.0000000E+04;  0.0000000E+00;  3.8868180E+04;  2.1559007E+00;  0.0000000E+00; -7.7669978E-02;  1.5359135E+04;
  1.5139843E+00;  9.9999998E-03;  1.8304522E-01;8655;  1.5549807E-01;  0.0000000E+00; -1.2251999E-01;  9.8979468E+02;  3.9325729E-01; -8.4516514E+03;3;  5.5313305E+01;  0.0000000E+00;  8.5494690E+00;0;  3.3417058E+00;  2.6011338E+03;  0.0000000E+00;  1.1933692E+00;  4.0000000E+04;  0.0000000E+00;  3.8827750E+04;  3.6154957E+00;  0.0000000E+00; -2.7378982E-01;  6.1796504E+03;
  1.5158124E+00;  9.9999998E-03;  1.7297681E-01;8654;  1.4296153E-01;  0.0000000E+00; -1.2069263E-01;  9.9036023E+02;  3.9206594E-01; -7.9832168E+03;3;  3.4064129E+01;  0.0000000E+00;  3.0795562E+00;0;  3.7460110E+00;  2.6189521E+03;  0.0000000E+00;  1.2154641E+00;  4.0000000E+04;  0.0000000E+00;  3.8810430E+04;  4.0704522E+00;  0.0000000E+00; -3.2444125E-01;  3.9147620E+03;
  1.5176280E+00;  9.9999998E-03;  1.6288093E-01;8653;  1.5098567E-01;  0.0000000E+00; -1.1380151E-01;  9.9077979E+02;  3.9084736E-01; -7.6356763E+03;3; -5.3042976E+01;  0.0000000E+00; -1.0437864E+01;0;  4.1514082E+00;  2.6367732E+03;  0.0000000E+00;  1.2971821E+00;  4.0000000E+04;  0.0000000E+00;  3.8791773E+04;  4.5194764E+00;  0.0000000E+00; -3.6806840E-01;  1.3953082E+03;
  1.5183408E+00;  9.9999998E-03;  8.1499264E-02;8645;  1.6075362E-01;  0.0000000E+00; -6.4402960E-02;  9.8758112E+02;  3.9064568E-01; -1.0284548E+04;3; -1.7480624E+02;  0.0000000E+00; -5.8532190E+00;0;  5.9065409E+00;  2.6256133E+03;  0.0000000E+00;  1.0104779E+00;  4.0000000E+04;  0.0000000E+00;  3.8744258E+04;  6.4216537E+00;  0.0000000E+00; -5.1511288E-01;  4.4961016E+03;
  1.5182761E+00;  9.9999998E-03;  9.1613844E-02;8646;  1.5208760E-01;  0.0000000E+00; -7.1237318E-02;  9.8787781E+02;  3.9044186E-01; -1.0038883E+04;3; -1.6541710E+02;  0.0000000E+00; -6.8544426E+00;0;  5.7515736E+00;  2.6294270E+03;  0.0000000E+00;  1.2667781E+00;  4.0000000E+04;  0.0000000E+00;  3.8747930E+04;  6.2549996E+00;  0.0000000E+00; -5.0342619E-01;  4.1131025E+03;
  1.5185646E+00;  9.9999998E-03;  7.1361393E-02;8644;  1.7480688E-01;  0.0000000E+00; -5.7073951E-02;  9.8744775E+02;  3.9075059E-01; -1.0395003E+04;3; -1.8191896E+02;  0.0000000E+00; -5.5545392E+00;0;  6.0572538E+00;  2.6238362E+03;  0.0000000E+00;  7.4943000E-01;  4.0000000E+04;  0.0000000E+00;  3.8738703E+04;  6.5827289E+00;  0.0000000E+00; -5.2547526E-01;  5.1740127E+03;
  1.5184438E+00;  9.9999998E-03;  1.0171809E-01;8647;  1.5141208E-01;  0.0000000E+00; -7.7734560E-02;  9.8835889E+02;  3.9011967E-01; -9.6404307E+03;3; -1.5426402E+02;  0.0000000E+00; -7.2741723E+00;0;  5.5972052E+00;  2.6355452E+03;  0.0000000E+00;  1.4819047E+00;  4.0000000E+04;  0.0000000E+00;  3.8749164E+04;  6.0879040E+00;  0.0000000E+00; -4.9069905E-01;  3.9856636E+03;
  1.5188416E+00;  9.9999998E-03;  1.1182641E-01;8648;  1.5885866E-01;  0.0000000E+00; -8.4191501E-02;  9.8897400E+02;  3.8971919E-01; -9.1310537E+03;3; -1.4208049E+02;  0.0000000E+00; -8.1320086E+00;0;  5.4417181E+00;  2.6435127E+03;  0.0000000E+00;  1.6240647E+00;  4.0000000E+04;  0.0000000E+00;  3.8749285E+04;  5.9189467E+00;  0.0000000E+00; -4.7722846E-01;  4.0108335E+03;
  1.5191071E+00;  9.9999998E-03;  1.5270880E-01;8652;  1.7229767E-01;  0.0000000E+00; -1.0658717E-01;  9.9095312E+02;  3.8977310E-01; -7.4920156E+03;3; -8.5137138E+01;  0.0000000E+00; -1.1179399E+01;0;  4.5274081E+00;  2.6517947E+03;  0.0000000E+00;  1.4175382E+00;  4.0000000E+04;  0.0000000E+00;  3.8773961E+04;  4.9301281E+00;  0.0000000E+00; -4.0272006E-01;  1.0078967E+03;
  1.5194293E+00;  9.9999998E-03;  1.2196900E-01;8649;  1.7248373E-01;  0.0000000E+00; -9.0556264E-02;  9.8967285E+02;  3.8928333E-01; -8.5522666E+03;3; -1.2868150E+02;  0.0000000E+00; -9.1161795E+00;0;  5.2804480E+00;  2.6524382E+03;  0.0000000E+00;  1.6759343E+00;  4.0000000E+04;  0.0000000E+00;  3.8749195E+04;  5.7434912E+00;  0.0000000E+00; -4.6304312E-01;  4.0510544E+03;
  1.5198252E+00;  9.9999998E-03;  1.4244956E-01;8651;  1.8285590E-01;  0.0000000E+00; -1.0135755E-01;  9.9078778E+02;  3.8915768E-01; -7.6289077E+03;3; -1.0188898E+02;  0.0000000E+00; -1.1478289E+01;0;  4.8396325E+00;  2.6592620E+03;  0.0000000E+00;  1.5453612E+00;  4.0000000E+04;  0.0000000E+00;  3.8760410E+04;  5.2678833E+00;  0.0000000E+00; -4.2825088E-01;  2.8059705E+03;
  1.5198646E+00;  9.9999998E-03;  1.3218054E-01;8650;  1.8245335E-01;  0.0000000E+00; -9.6327968E-02;  9.9032642E+02;  3.8902721E-01; -8.0110059E+03;3; -1.1547979E+02;  0.0000000E+00; -1.0590097E+01;0;  5.0871396E+00;  2.6588408E+03;  0.0000000E+00;  1.6419592E+00;  4.0000000E+04;  0.0000000E+00;  3.8752480E+04;  5.5345120E+00;  0.0000000E+00; -4.4737235E-01;  3.7750017E+03;
  1.5496689E+00;  9.9999998E-03;  2.0340328E-01;8718;  2.7360141E-01;  0.0000000E+00; -1.2917463E-01;  9.8937012E+02;  3.5656887E-01; -8.8008506E+03;3; -1.2027290E+02;  0.0000000E+00; -3.0210419E+01;0;  5.3672957E+00;  3.1638721E+03;  0.0000000E+00;  1.9631182E+00;  4.0000000E+04;  0.0000000E+00;  3.8842258E+04;  5.6938162E+00;  0.0000000E+00; -3.2652029E-01;  5.9680249E+03;
  1.5501899E+00;  9.9999998E-03;  1.9328333E-01;8717;  3.1092444E-01;  0.0000000E+00; -1.2518440E-01;  9.9063055E+02;  3.5605854E-01; -7.7572339E+03;3; -1.3045480E+02;  0.0000000E+00; -3.1166523E+01;0;  5.6469936E+00;  3.1807676E+03;  0.0000000E+00;  1.9047047E+00;  4.0000000E+04;  0.0000000E+00;  3.8827605E+04;  5.9981689E+00;  0.0000000E+00; -3.5117534E-01;  3.7586606E+03;
  1.5499575E+00;  9.9999998E-03;  2.1350564E-01;8719;  2.4448548E-01;  0.0000000E+00; -1.3060884E-01;  9.8831897E+02;  3.5647130E-01; -9.6710879E+03;3; -1.0152851E+02;  0.0000000E+00; -3.2107548E+01;0;  5.1409745E+00;  3.1579321E+03;  0.0000000E+00;  1.8731189E+00;  4.0000000E+04;  0.0000000E+00;  3.8855488E+04;  5.4479213E+00;  0.0000000E+00; -3.0694658E-01;  8.2206982E+03;
  1.5513995E+00;  9.9999998E-03;  1.8316765E-01;8716;  3.5652918E-01;  0.0000000E+00; -1.1720263E-01;  9.9197784E+02;  3.5508990E-01; -6.6416802E+03;3; -1.3898250E+02;  0.0000000E+00; -3.2182018E+01;0;  5.9579315E+00;  3.2061909E+03;  0.0000000E+00;  1.8003315E+00;  4.0000000E+04;  0.0000000E+00;  3.8808301E+04;  6.3335657E+00;  0.0000000E+00; -3.7563413E-01;  1.2762010E+03;
  1.5509845E+00;  9.9999998E-03;  2.2361535E-01;8720;  2.2704573E-01;  0.0000000E+00; -1.3236928E-01;  9.8753857E+02;  3.5578886E-01; -1.0317104E+04;3; -5.2706882E+01;  0.0000000E+00; -4.0082592E+01;0;  4.9680977E+00;  3.1627251E+03;  0.0000000E+00;  1.4227227E+00;  4.0000000E+04;  0.0000000E+00;  3.8868324E+04;  5.2679276E+00;  0.0000000E+00; -2.9982987E-01;  1.1270322E+04;
  1.5530584E+00;  9.9999998E-03;  1.7306505E-01;8715;  4.0918162E-01;  0.0000000E+00; -1.0577158E-01;  9.9329633E+02;  3.5384652E-01; -5.5500103E+03;3; -1.4509933E+02;  0.0000000E+00; -3.2734215E+01;0;  6.2710571E+00;  3.2365703E+03;  0.0000000E+00;  1.6846935E+00;  4.0000000E+04;  0.0000000E+00;  3.8785176E+04;  6.6664014E+00;  0.0000000E+00; -3.9534450E-01;  2.2580227E+03;
  1.5525397E+00;  9.9999998E-03;  2.3376411E-01;8721;  2.2404078E-01;  0.0000000E+00; -1.3469267E-01;  9.8699847E+02;  3.5466313E-01; -1.0764075E+04;3;  6.9240980E+00;  0.0000000E+00; -4.2731449E+01;0;  4.8308020E+00;  3.1762971E+03;  0.0000000E+00;  2.7130535E-01;  4.0000000E+04;  0.0000000E+00;  3.8876137E+04;  5.1440854E+00;  0.0000000E+00; -3.1328329E-01;  1.6328481E+04;
  1.5547845E+00;  9.9999998E-03;  1.6293800E-01;8714;  4.6127209E-01;  0.0000000E+00; -9.3737803E-02;  9.9444019E+02;  3.5258147E-01; -4.6029082E+03;3; -1.4933775E+02;  0.0000000E+00; -3.2669933E+01;0;  6.5589805E+00;  3.2665945E+03;  0.0000000E+00;  1.5665126E+00;  4.0000000E+04;  0.0000000E+00;  3.8760984E+04;  6.9665275E+00;  0.0000000E+00; -4.0754718E-01;  5.3306670E+03;
  1.5561337E+00;  9.9999998E-03;  1.5274604E-01;8713;  5.0316626E-01;  0.0000000E+00; -8.4408440E-02;  9.9523541E+02;  3.5158813E-01; -3.9445239E+03;3; -1.5343835E+02;  0.0000000E+00; -3.1869852E+01;0;  6.8044152E+00;  3.2898398E+03;  0.0000000E+00;  1.4345940E+00;  4.0000000E+04;  0.0000000E+00;  3.8739559E+04;  7.2165451E+00;  0.0000000E+00; -4.1212982E-01;  8.1445273E+03;
  1.5565063E+00;  9.9999998E-03;  9.1638945E-02;8707;  6.0452968E-01;  0.0000000E+00; -5.4581586E-02;  9.9381903E+02;  3.5178220E-01; -5.1170483E+03;3; -1.9397742E+02;  0.0000000E+00; -2.1755342E+01;0;  7.6544504E+00;  3.2812810E+03;  0.0000000E+00;  6.5466559E-01;  4.0000000E+04;  0.0000000E+00;  3.8694848E+04;  8.0456610E+00;  0.0000000E+00; -3.9121068E-01;  1.3712306E+04;
  1.5565693E+00;  9.9999998E-03;  8.1497423E-02;8706;  6.2313473E-01;  0.0000000E+00; -4.8974827E-02;  9.9369031E+02;  3.5192430E-01; -5.2236304E+03;3; -1.9775446E+02;  0.0000000E+00; -1.9735441E+01;0;  7.7359819E+00;  3.2786394E+03;  0.0000000E+00;  5.3561842E-01;  4.0000000E+04;  0.0000000E+00;  3.8691758E+04;  8.1228580E+00;  0.0000000E+00; -3.8687620E-01;  1.4112135E+04;
  1.5569048E+00;  9.9999998E-03;  1.4249831E-01;8712;  5.3269148E-01;  0.0000000E+00; -7.8085504E-02;  9.9559338E+02;  3.5100740E-01; -3.6481245E+03;3; -1.5851021E+02;  0.0000000E+00; -3.0729591E+01;0;  7.0076165E+00;  3.3029258E+03;  0.0000000E+00;  1.2862607E+00;  4.0000000E+04;  0.0000000E+00;  3.8722629E+04;  7.4187193E+00;  0.0000000E+00; -4.1110265E-01;  1.0368327E+04;
  1.5565937E+00;  9.9999998E-03;  1.0176571E-01;8708;  5.8901799E-01;  0.0000000E+00; -5.9789192E-02;  9.9416943E+02;  3.5154003E-01; -4.8269927E+03;3; -1.8827719E+02;  0.0000000E+00; -2.3616816E+01;0;  7.5583935E+00;  3.2868894E+03;  0.0000000E+00;  7.6848668E-01;  4.0000000E+04;  0.0000000E+00;  3.8697254E+04;  7.9534364E+00;  0.0000000E+00; -3.9504275E-01;  1.3462312E+04;
  1.5567173E+00;  9.9999998E-03;  7.1336165E-02;8705;  6.4283812E-01;  0.0000000E+00; -4.3051381E-02;  9.9377002E+02;  3.5200414E-01; -5.1576475E+03;3; -1.9994943E+02;  0.0000000E+00; -1.7519270E+01;0;  7.8026948E+00;  3.2782869E+03;  0.0000000E+00;  4.1600302E-01;  4.0000000E+04;  0.0000000E+00;  3.8686891E+04;  8.1848412E+00;  0.0000000E+00; -3.8214648E-01;  1.4706856E+04;
  1.5568005E+00;  9.9999998E-03;  1.1189979E-01;8709;  5.7646179E-01;  0.0000000E+00; -6.4647637E-02;  9.9465857E+02;  3.5124221E-01; -4.4220068E+03;3; -1.8105499E+02;  0.0000000E+00; -2.5608912E+01;0;  7.4477386E+00;  3.2944456E+03;  0.0000000E+00;  8.8040239E-01;  4.0000000E+04;  0.0000000E+00;  3.8699660E+04;  7.8465290E+00;  0.0000000E+00; -3.9879027E-01;  1.3230521E+04;
  1.5571423E+00;  9.9999998E-03;  1.3225740E-01;8711;  5.5205190E-01;  0.0000000E+00; -7.3441848E-02;  9.9552777E+02;  3.5083809E-01; -3.7024436E+03;3; -1.6517236E+02;  0.0000000E+00; -2.9270681E+01;0;  7.1769590E+00;  3.3059968E+03;  0.0000000E+00;  1.1360698E+00;  4.0000000E+04;  0.0000000E+00;  3.8710906E+04;  7.5842385E+00;  0.0000000E+00; -4.0727934E-01;  1.1901995E+04;
  1.5570464E+00;  9.9999998E-03;  1.2206011E-01;8710;  5.6543708E-01;  0.0000000E+00; -6.9136702E-02;  9.9515527E+02;  3.5096082E-01; -4.0108037E+03;3; -1.7294188E+02;  0.0000000E+00; -2.7533417E+01;0;  7.3217320E+00;  3.3020237E+03;  0.0000000E+00;  9.9997002E-01;  4.0000000E+04;  0.0000000E+00;  3.8703395E+04;  7.7245598E+00;  0.0000000E+00; -4.0282765E-01;  1.2796973E+04;
  1.5836983E+00;  9.9999998E-03;  1.9333963E-01;8778;  6.5302014E-01;  0.0000000E+00; -6.1065577E-02;  9.9465430E+02;  3.1959343E-01; -4.4239468E+03;3; -1.6174149E+02;  0.0000000E+00; -5.4440769E+01;0;  6.9429712E+00;  3.9838674E+03;  0.0000000E+00;  2.3679175E+00;  4.0000000E+04;  0.0000000E+00;  3.8801250E+04;  7.2892389E+00;  0.0000000E+00; -3.4626791E-01;  2.4270320E+03;
  1.5838983E+00;  9.9999998E-03;  2.0348896E-01;8779;  6.2272722E-01;  0.0000000E+00; -6.1798979E-02;  9.9328595E+02;  3.1961495E-01; -5.5563296E+03;3; -1.6104921E+02;  0.0000000E+00; -5.4636658E+01;0;  6.8847384E+00;  3.9714739E+03;  0.0000000E+00;  2.3058879E+00;  4.0000000E+04;  0.0000000E+00;  3.8816980E+04;  7.2292871E+00;  0.0000000E+00; -3.4454882E-01;  1.9309215E+02;
  1.5843518E+00;  9.9999998E-03;  1.8315983E-01;8777;  6.9460005E-01;  0.0000000E+00; -5.7102397E-02;  9.9624420E+02;  3.1900543E-01; -3.1081631E+03;3; -1.6171524E+02;  0.0000000E+00; -5.4145866E+01;0;  6.9970603E+00;  4.0113181E+03;  0.0000000E+00;  2.2512140E+00;  4.0000000E+04;  0.0000000E+00;  3.8782555E+04;  7.3416619E+00;  0.0000000E+00; -3.4460154E-01;  4.9384478E+03;
  1.5850406E+00;  9.9999998E-03;  2.1357696E-01;8780;  6.0541487E-01;  0.0000000E+00; -6.1235622E-02;  9.9230750E+02;  3.1900617E-01; -6.3659595E+03;3; -1.5970996E+02;  0.0000000E+00; -5.4846939E+01;0;  6.8369646E+00;  3.9763325E+03;  0.0000000E+00;  1.8701605E+00;  4.0000000E+04;  0.0000000E+00;  3.8832676E+04;  7.1807227E+00;  0.0000000E+00; -3.4375820E-01;  2.9722451E+03;
  1.5856388E+00;  9.9999998E-03;  1.7298982E-01;8776;  7.4473405E-01;  0.0000000E+00; -4.9426109E-02;  9.9789093E+02;  3.1803855E-01; -1.7453320E+03;3; -1.5981699E+02;  0.0000000E+00; -5.3405487E+01;0;  7.0301561E+00;  4.0485813E+03;  0.0000000E+00;  2.0585999E+00;  4.0000000E+04;  0.0000000E+00;  3.8760703E+04;  7.3669181E+00;  0.0000000E+00; -3.3676177E-01;  7.8484468E+03;
  1.5871284E+00;  9.9999998E-03;  1.6281965E-01;8775;  7.9626662E-01;  0.0000000E+00; -4.0252019E-02;  9.9942975E+02;  3.1701073E-01; -4.7188464E+02;3; -1.5621887E+02;  0.0000000E+00; -5.2339371E+01;0;  7.0346513E+00;  4.0865833E+03;  0.0000000E+00;  1.8322942E+00;  4.0000000E+04;  0.0000000E+00;  3.8738797E+04;  7.3570199E+00;  0.0000000E+00; -3.2236871E-01;  1.0770340E+04;
  1.5870615E+00;  9.9999998E-03;  2.2362867E-01;8781;  6.0310417E-01;  0.0000000E+00; -6.1755750E-02;  9.9188855E+02;  3.1782511E-01; -6.7124395E+03;3; -1.5681755E+02;  0.0000000E+00; -5.5271885E+01;0;  6.8029890E+00;  3.9974402E+03;  0.0000000E+00;  7.3585624E-01;  4.0000000E+04;  0.0000000E+00;  3.8854195E+04;  7.1538749E+00;  0.0000000E+00; -3.5088596E-01;  9.1679736E+03;
  1.5883068E+00;  9.9999998E-03;  1.5261289E-01;8774;  8.4008056E-01;  0.0000000E+00; -3.2902688E-02;  1.0006478E+03;  3.1625220E-01;  5.3604437E+02;3; -1.5266777E+02;  0.0000000E+00; -5.1157555E+01;0;  7.0205321E+00;  4.1152300E+03;  0.0000000E+00;  1.5855241E+00;  4.0000000E+04;  0.0000000E+00;  3.8719977E+04;  7.3241463E+00;  0.0000000E+00; -3.0361405E-01;  1.3286502E+04;
  1.5890950E+00;  9.9999998E-03;  1.4240387E-01;8773;  8.7488663E-01;  0.0000000E+00; -2.7749734E-02;  1.0014522E+03;  3.1576627E-01;  1.2016932E+03;3; -1.5008093E+02;  0.0000000E+00; -5.0032520E+01;0;  6.9992805E+00;  4.1339336E+03;  0.0000000E+00;  1.3157809E+00;  4.0000000E+04;  0.0000000E+00;  3.8705523E+04;  7.2814646E+00;  0.0000000E+00; -2.8218421E-01;  1.5212281E+04;
  1.5896031E+00;  9.9999998E-03;  1.3221051E-01;8772;  9.0309763E-01;  0.0000000E+00; -2.3963083E-02;  1.0018599E+03;  3.1545028E-01;  1.5390453E+03;3; -1.4845335E+02;  0.0000000E+00; -4.8919930E+01;0;  6.9755802E+00;  4.1453730E+03;  0.0000000E+00;  1.0350395E+00;  4.0000000E+04;  0.0000000E+00;  3.8695227E+04;  7.2346520E+00;  0.0000000E+00; -2.5907207E-01;  1.6568814E+04;
  1.5899271E+00;  9.9999998E-03;  1.2204178E-01;8771;  9.2688227E-01;  0.0000000E+00; -2.0917244E-02;  1.0019527E+03;  3.1525543E-01;  1.6157808E+03;3; -1.4737770E+02;  0.0000000E+00; -4.7711998E+01;0;  6.9508476E+00;  4.1514893E+03;  0.0000000E+00;  7.7486384E-01;  4.0000000E+04;  0.0000000E+00;  3.8688582E+04;  7.1857696E+00;  0.0000000E+00; -2.3492202E-01;  1.7447057E+04;
  1.5900769E+00;  9.9999998E-03;  1.1189386E-01;8770;  9.4700611E-01;  0.0000000E+00; -1.8406050E-02;  1.0018213E+03;  3.1519723E-01;  1.5070715E+03;3; -1.4670680E+02;  0.0000000E+00; -4.6327312E+01;0;  6.9279733E+00;  4.1528359E+03;  0.0000000E+00;  5.6233269E-01;  4.0000000E+04;  0.0000000E+00;  3.8684457E+04;  7.1384721E+00;  0.0000000E+00; -2.1049878E-01;  1.7967148E+04;
  1.5900917E+00;  9.9999998E-03;  1.0175234E-01;8769;  9.6438664E-01;  0.0000000E+00; -1.6224965E-02;  1.0015737E+03;  3.1524041E-01;  1.3021892E+03;3; -1.4624390E+02;  0.0000000E+00; -4.4712650E+01;0;  6.9076185E+00;  4.1509531E+03;  0.0000000E+00;  4.0871260E-01;  4.0000000E+04;  0.0000000E+00;  3.8681746E+04;  7.0938721E+00;  0.0000000E+00; -1.8625344E-01;  1.8271500E+04;
  1.5899752E+00;  9.9999998E-03;  8.1448197E-02;8767;  9.9468195E-01;  0.0000000E+00; -1.2255277E-02;  1.0012337E+03;  3.1544733E-01;  1.0208608E+03;3; -1.4477272E+02;  0.0000000E+00; -4.0607285E+01;0;  6.8666978E+00;  4.1456074E+03;  0.0000000E+00;  2.4511805E-01;  4.0000000E+04;  0.0000000E+00;  3.8677418E+04;  7.0059175E+00;  0.0000000E+00; -1.3921958E-01;  1.8774775E+04;
  1.5899115E+00;  9.9999998E-03;  7.1280792E-02;8766;  1.0082821E+00;  0.0000000E+00; -1.0381297E-02;  1.0012806E+03;  3.1555870E-01;  1.0596290E+03;3; -1.4350357E+02;  0.0000000E+00; -3.8134098E+01;0;  6.8440776E+00;  4.1443291E+03;  0.0000000E+00;  2.0160240E-01;  4.0000000E+04;  0.0000000E+00;  3.8674184E+04;  6.9612670E+00;  0.0000000E+00; -1.1718918E-01;  1.9157953E+04;
  1.5900483E+00;  9.9999998E-03;  9.1605298E-02;8768;  9.8016250E-01;  0.0000000E+00; -1.4187186E-02;  1.0013425E+03;  3.1533399E-01;  1.1109208E+03;3; -1.4563994E+02;  0.0000000E+00; -4.2810886E+01;0;  6.8874111E+00;  4.1481719E+03;  0.0000000E+00;  3.0825686E-01;  4.0000000E+04;  0.0000000E+00;  3.8679793E+04;  7.0497541E+00;  0.0000000E+00; -1.6234323E-01;  1.8502320E+04;
  1.5895339E+00;  9.9999998E-03;  2.3372279E-01;8782;  6.1388123E-01;  0.0000000E+00; -6.4102203E-02;  9.9188409E+02;  3.1641120E-01; -6.7157969E+03;3; -1.5260954E+02;  0.0000000E+00; -5.5599152E+01;0;  6.7709026E+00;  4.0271860E+03;  0.0000000E+00; -1.5690211E+00;  4.0000000E+04;  0.0000000E+00;  3.8875828E+04;  7.1447988E+00;  0.0000000E+00; -3.7389606E-01;  2.0956123E+04;
  1.6134673E+00;  9.9999998E-03;  1.9336227E-01;8839;  9.4467199E-01;  0.0000000E+00;  1.2590192E-02;  9.9923553E+02;  2.8725210E-01; -6.3227850E+02;3; -1.3788777E+02;  0.0000000E+00; -5.1777378E+01;0;  6.4464145E+00;  4.9796108E+03;  0.0000000E+00;  2.2073190E+00;  4.0000000E+04;  0.0000000E+00;  3.8780277E+04;  6.7005835E+00;  0.0000000E+00; -2.5416893E-01;  7.5203042E+03;
  1.6136068E+00;  9.9999998E-03;  1.8316397E-01;8838;  9.7422189E-01;  0.0000000E+00;  1.3959293E-02;  1.0004907E+03;  2.8706148E-01;  4.0580835E+02;3; -1.3262180E+02;  0.0000000E+00; -5.1477573E+01;0;  6.3250484E+00;  4.9999858E+03;  0.0000000E+00;  2.1547303E+00;  4.0000000E+04;  0.0000000E+00;  3.8765070E+04;  6.5591192E+00;  0.0000000E+00; -2.3407064E-01;  9.3885381E+03;
  1.6143826E+00;  9.9999998E-03;  1.7295212E-01;8837;  1.0100911E+00;  0.0000000E+00;  1.7414751E-02;  1.0019145E+03;  2.8651413E-01;  1.5833701E+03;3; -1.2500068E+02;  0.0000000E+00; -5.0542484E+01;0;  6.1655178E+00;  5.0335664E+03;  0.0000000E+00;  1.9520417E+00;  4.0000000E+04;  0.0000000E+00;  3.8748422E+04;  6.3743615E+00;  0.0000000E+00; -2.0884372E-01;  1.1410530E+04;
  1.6142640E+00;  9.9999998E-03;  2.0349701E-01;8840;  9.2673552E-01;  0.0000000E+00;  1.2449188E-02;  9.9832239E+02;  2.8686181E-01; -1.3874742E+03;3; -1.4114044E+02;  0.0000000E+00; -5.1733101E+01;0;  6.5233927E+00;  4.9814028E+03;  0.0000000E+00;  1.9684974E+00;  4.0000000E+04;  0.0000000E+00;  3.8794219E+04;  6.7930903E+00;  0.0000000E+00; -2.6969773E-01;  5.4191782E+03;
  1.6154149E+00;  9.9999998E-03;  1.6274592E-01;8836;  1.0467432E+00;  0.0000000E+00;  2.2095183E-02;  1.0033044E+03;  2.8588077E-01;  2.7328662E+03;3; -1.1563984E+02;  0.0000000E+00; -4.9077961E+01;0;  5.9831309E+00;  5.0695327E+03;  0.0000000E+00;  1.7108382E+00;  4.0000000E+04;  0.0000000E+00;  3.8732531E+04;  6.1627588E+00;  0.0000000E+00; -1.7962787E-01;  1.3471985E+04;
  1.6164275E+00;  9.9999998E-03;  1.5254810E-01;8835;  1.0793051E+00;  0.0000000E+00;  2.6602020E-02;  1.0045252E+03;  2.8530025E-01;  3.7423088E+03;3; -1.0586307E+02;  0.0000000E+00; -4.7568096E+01;0;  5.7949829E+00;  5.1014409E+03;  0.0000000E+00;  1.4918051E+00;  4.0000000E+04;  0.0000000E+00;  3.8719020E+04;  5.9429040E+00;  0.0000000E+00; -1.4792107E-01;  1.5267515E+04;
  1.6161385E+00;  9.9999998E-03;  2.1354288E-01;8841;  9.2594153E-01;  0.0000000E+00;  1.2163340E-02;  9.9796796E+02;  2.8584459E-01; -1.6805028E+03;3; -1.4109920E+02;  0.0000000E+00; -5.2008709E+01;0;  6.5558119E+00;  5.0081421E+03;  0.0000000E+00;  1.2413452E+00;  4.0000000E+04;  0.0000000E+00;  3.8811641E+04;  6.8391690E+00;  0.0000000E+00; -2.8335717E-01;  3.9457590E+03;
  1.6173507E+00;  9.9999998E-03;  1.4236577E-01;8834;  1.1062784E+00;  0.0000000E+00;  3.0390512E-02;  1.0054719E+03;  2.8476125E-01;  4.5251631E+03;3; -9.6471413E+01;  0.0000000E+00; -4.6181110E+01;0;  5.6093946E+00;  5.1293457E+03;  0.0000000E+00;  1.2941467E+00;  4.0000000E+04;  0.0000000E+00;  3.8709250E+04;  5.7237248E+00;  0.0000000E+00; -1.1433019E-01;  1.6611834E+04;
  1.6181126E+00;  9.9999998E-03;  1.3219997E-01;8833;  1.1274995E+00;  0.0000000E+00;  3.3240397E-02;  1.0060948E+03;  2.8426957E-01;  5.0401543E+03;3; -8.8065758E+01;  0.0000000E+00; -4.5053204E+01;0;  5.4352026E+00;  5.1524321E+03;  0.0000000E+00;  1.0926793E+00;  4.0000000E+04;  0.0000000E+00;  3.8702750E+04;  5.5144649E+00;  0.0000000E+00; -7.9262078E-02;  1.7506613E+04;
  1.6186712E+00;  9.9999998E-03;  1.2205325E-01;8832;  1.1437380E+00;  0.0000000E+00;  3.5263829E-02;  1.0063816E+03;  2.8388166E-01;  5.2772588E+03;3; -8.0824539E+01;  0.0000000E+00; -4.4483253E+01;0;  5.2793651E+00;  5.1692915E+03;  0.0000000E+00;  8.8328010E-01;  4.0000000E+04;  0.0000000E+00;  3.8698664E+04;  5.3221817E+00;  0.0000000E+00; -4.2816453E-02;  1.8057627E+04;
  1.6188995E+00;  9.9999998E-03;  2.2355287E-01;8842;  9.4272220E-01;  0.0000000E+00;  1.1046120E-02;  9.9815271E+02;  2.8438869E-01; -1.5275790E+03;3; -1.3724666E+02;  0.0000000E+00; -5.1890533E+01;0;  6.5517960E+00;  5.0541094E+03;  0.0000000E+00; -3.5963818E-01;  4.0000000E+04;  0.0000000E+00;  3.8837199E+04;  6.8518271E+00;  0.0000000E+00; -3.0003116E-01;  1.1046040E+04;
  1.6190283E+00;  9.9999998E-03;  1.1191653E-01;8831;  1.1561266E+00;  0.0000000E+00;  3.6737747E-02;  1.0064089E+03;  2.8362066E-01;  5.2997812E+03;3; -7.4654083E+01;  0.0000000E+00; -4.4069813E+01;0;  5.1448607E+00;  5.1793657E+03;  0.0000000E+00;  6.7866224E-01;  4.0000000E+04;  0.0000000E+00;  3.8696191E+04;  5.1500001E+00;  0.0000000E+00; -5.1394799E-03;  1.8382758E+04;
  1.6192144E+00;  9.9999998E-03;  1.0177527E-01;8830;  1.1657658E+00;  0.0000000E+00;  3.7915729E-02;  1.0062509E+03;  2.8348258E-01;  5.1690391E+03;3; -6.9339081E+01;  0.0000000E+00; -4.3841148E+01;0;  5.0314002E+00;  5.1839429E+03;  0.0000000E+00;  4.9576327E-01;  4.0000000E+04;  0.0000000E+00;  3.8694422E+04;  4.9980249E+00;  0.0000000E+00;  3.3375237E-02;  1.8591350E+04;
  1.6192529E+00;  9.9999998E-03;  9.1622613E-02;8829;  1.1734443E+00;  0.0000000E+00;  3.8959801E-02;  1.0060085E+03;  2.8344589E-01;  4.9686240E+03;3; -6.4702797E+01;  0.0000000E+00; -4.3728035E+01;0;  4.9381900E+00;  5.1843828E+03;  0.0000000E+00;  3.4887594E-01;  4.0000000E+04;  0.0000000E+00;  3.8692602E+04;  4.8662863E+00;  0.0000000E+00;  7.1903773E-02;  1.8773176E+04;
  1.6191895E+00;  9.9999998E-03;  8.1458382E-02;8828;  1.1798440E+00;  0.0000000E+00;  3.9803278E-02;  1.0057858E+03;  2.8348267E-01;  4.7844893E+03;3; -6.0515862E+01;  0.0000000E+00; -4.1343193E+01;0;  4.8622007E+00;  5.1824395E+03;  0.0000000E+00;  2.4361655E-01;  4.0000000E+04;  0.0000000E+00;  3.8690914E+04;  4.7525916E+00;  0.0000000E+00;  1.0960901E-01;  1.8987102E+04;
  1.6190773E+00;  9.9999998E-03;  7.1284980E-02;8827;  1.1854542E+00;  0.0000000E+00;  3.9532591E-02;  1.0056426E+03;  2.8356275E-01;  4.6661113E+03;3; -5.6550251E+01;  0.0000000E+00; -3.2367165E+01;0;  4.7993860E+00;  5.1798228E+03;  0.0000000E+00;  1.7481481E-01;  4.0000000E+04;  0.0000000E+00;  3.8688383E+04;  4.6536784E+00;  0.0000000E+00;  1.4570776E-01;  1.9261174E+04;
  1.6215738E+00;  9.9999998E-03;  2.3367222E-01;8843;  9.6100551E-01;  0.0000000E+00;  1.1915820E-02;  9.9823395E+02;  2.8301948E-01; -1.4602865E+03;3; -1.3429272E+02;  0.0000000E+00; -5.2410686E+01;0;  6.5582981E+00;  5.0985312E+03;  0.0000000E+00; -3.4619434E+00;  4.0000000E+04;  0.0000000E+00;  3.8854184E+04;  6.8744612E+00;  0.0000000E+00; -3.1616291E-01;  2.8151059E+04;
  1.6397202E+00;  9.9999998E-03;  1.8306127E-01;8899;  1.1528280E+00;  0.0000000E+00;  6.1180886E-02;  1.0035388E+03;  2.5965300E-01;  2.9243262E+03;3; -7.8210327E+01;  0.0000000E+00; -3.9663780E+01;0;  4.8276906E+00;  6.1488550E+03;  0.0000000E+00;  1.6753786E+00;  4.0000000E+04;  0.0000000E+00;  3.8760867E+04;  4.9319119E+00;  0.0000000E+00; -1.0422135E-01;  1.1287046E+04;
  1.6400076E+00;  9.9999998E-03;  1.7284788E-01;8898;  1.1710269E+00;  0.0000000E+00;  6.2270589E-02;  1.0043651E+03;  2.5949559E-01;  3.6071714E+03;3; -6.7838402E+01;  0.0000000E+00; -3.9184353E+01;0;  4.6193132E+00;  6.1682573E+03;  0.0000000E+00;  1.5073658E+00;  4.0000000E+04;  0.0000000E+00;  3.8749406E+04;  4.6899114E+00;  0.0000000E+00; -7.0597887E-02;  1.2437690E+04;
  1.6400852E+00;  9.9999998E-03;  1.9325222E-01;8900;  1.1378053E+00;  0.0000000E+00;  6.0771458E-02;  1.0029272E+03;  2.5945204E-01;  2.4190251E+03;3; -8.5837944E+01;  0.0000000E+00; -3.9804848E+01;0;  4.9940338E+00;  6.1478516E+03;  0.0000000E+00;  1.6629336E+00;  4.0000000E+04;  0.0000000E+00;  3.8772020E+04;  5.1281176E+00;  0.0000000E+00; -1.3408363E-01;  9.9185283E+03;
  1.6406879E+00;  9.9999998E-03;  1.6263814E-01;8897;  1.1885873E+00;  0.0000000E+00;  6.3873634E-02;  1.0052869E+03;  2.5914398E-01;  4.3688418E+03;3; -5.5871456E+01;  0.0000000E+00; -3.8027599E+01;0;  4.3881888E+00;  6.1971465E+03;  0.0000000E+00;  1.2885599E+00;  4.0000000E+04;  0.0000000E+00;  3.8738395E+04;  4.4226022E+00;  0.0000000E+00; -3.4413390E-02;  1.3648530E+04;
  1.6415839E+00;  9.9999998E-03;  1.5243883E-01;8896;  1.2035587E+00;  0.0000000E+00;  6.5748557E-02;  1.0061794E+03;  2.5867537E-01;  5.1061963E+03;3; -4.3193165E+01;  0.0000000E+00; -3.6846134E+01;0;  4.1490455E+00;  6.2303218E+03;  0.0000000E+00;  1.1271425E+00;  4.0000000E+04;  0.0000000E+00;  3.8729773E+04;  4.1453977E+00;  0.0000000E+00;  3.6479845E-03;  1.4795510E+04;
  1.6413867E+00;  9.9999998E-03;  2.0337150E-01;8901;  1.1315165E+00;  0.0000000E+00;  6.0507171E-02;  1.0026841E+03;  2.5876555E-01;  2.2179521E+03;3; -8.9438744E+01;  0.0000000E+00; -3.9634396E+01;0;  5.0981946E+00;  6.1727354E+03;  0.0000000E+00;  1.3768060E+00;  4.0000000E+04;  0.0000000E+00;  3.8783367E+04;  5.2574019E+00;  0.0000000E+00; -1.5920743E-01;  8.0264058E+03;
  1.6425461E+00;  9.9999998E-03;  1.4225644E-01;8895;  1.2150588E+00;  0.0000000E+00;  6.7537494E-02;  1.0069449E+03;  2.5815642E-01;  5.7384785E+03;3; -3.0798576E+01;  0.0000000E+00; -3.5791451E+01;0;  3.9151797E+00;  6.2640249E+03;  0.0000000E+00;  1.0486611E+00;  4.0000000E+04;  0.0000000E+00;  3.8723332E+04;  3.8719132E+00;  0.0000000E+00;  4.3266524E-02;  1.5645380E+04;
  1.6434053E+00;  9.9999998E-03;  1.3209333E-01;8894;  1.2229046E+00;  0.0000000E+00;  6.8979703E-02;  1.0074886E+03;  2.5764823E-01;  6.1875303E+03;3; -1.9579391E+01;  0.0000000E+00; -3.4750431E+01;0;  3.7010906E+00;  6.2943027E+03;  0.0000000E+00;  1.0067688E+00;  4.0000000E+04;  0.0000000E+00;  3.8719621E+04;  3.6168532E+00;  0.0000000E+00;  8.4237434E-02;  1.6164360E+04;
  1.6436954E+00;  9.9999998E-03;  2.1340300E-01;8902;  1.1377851E+00;  0.0000000E+00;  5.9915319E-02;  1.0028303E+03;  2.5761265E-01;  2.3385063E+03;3; -8.8295120E+01;  0.0000000E+00; -3.9914848E+01;0;  5.1349220E+00;  6.2234312E+03;  0.0000000E+00;  6.6902328E-01;  4.0000000E+04;  0.0000000E+00;  3.8799855E+04;  5.3154020E+00;  0.0000000E+00; -1.8047978E-01;  6.8828589E+03;
  1.6441101E+00;  9.9999998E-03;  1.2195532E-01;8893;  1.2277120E+00;  0.0000000E+00;  7.0074148E-02;  1.0077749E+03;  2.5720191E-01;  6.4239390E+03;3; -1.0281661E+01;  0.0000000E+00; -3.3507854E+01;0;  3.5125768E+00;  6.3188726E+03;  0.0000000E+00;  9.4809139E-01;  4.0000000E+04;  0.0000000E+00;  3.8717539E+04;  3.3857172E+00;  0.0000000E+00;  1.2685959E-01;  1.6444930E+04;
  1.6446514E+00;  9.9999998E-03;  1.1182721E-01;8892;  1.2303439E+00;  0.0000000E+00;  7.0440605E-02;  1.0078252E+03;  2.5685453E-01;  6.4652632E+03;3; -3.4989803E+00;  0.0000000E+00; -2.8948391E+01;0;  3.3510263E+00;  6.3364004E+03;  0.0000000E+00;  8.4757209E-01;  4.0000000E+04;  0.0000000E+00;  3.8716285E+04;  3.1798711E+00;  0.0000000E+00;  1.7115520E-01;  1.6576982E+04;
  1.6450170E+00;  9.9999998E-03;  1.0169115E-01;8891;  1.2316202E+00;  0.0000000E+00;  6.8622172E-02;  1.0076690E+03;  2.5661603E-01;  6.3361421E+03;3;  9.7937179E-01;  0.0000000E+00; -1.9480564E+01;0;  3.2170691E+00;  6.3468843E+03;  0.0000000E+00;  7.0484573E-01;  4.0000000E+04;  0.0000000E+00;  3.8715676E+04;  3.0004497E+00;  0.0000000E+00;  2.1661937E-01;  1.6641629E+04;
  1.6464695E+00;  9.9999998E-03;  2.2344536E-01;8903;  1.1514471E+00;  0.0000000E+00;  5.9913147E-02;  1.0030325E+03;  2.5629294E-01;  2.5052705E+03;3; -8.4056564E+01;  0.0000000E+00; -4.0386227E+01;0;  5.1432314E+00;  6.2836772E+03;  0.0000000E+00; -9.2277318E-01;  4.0000000E+04;  0.0000000E+00;  3.8822109E+04;  5.3429523E+00;  0.0000000E+00; -1.9972080E-01;  1.3482802E+04;
  1.6452065E+00;  9.9999998E-03;  9.1544896E-02;8890;  1.2321941E+00;  0.0000000E+00;  6.3923247E-02;  1.0073879E+03;  2.5647786E-01;  6.1038521E+03;3;  4.0979261E+00;  0.0000000E+00; -1.5051573E+01;0;  3.1098166E+00;  6.3510986E+03;  0.0000000E+00;  5.4085332E-01;  4.0000000E+04;  0.0000000E+00;  3.8714891E+04;  2.8476012E+00;  0.0000000E+00;  2.6221526E-01;  1.6702334E+04;
  1.6452377E+00;  9.9999998E-03;  8.1389628E-02;8889;  1.2324003E+00;  0.0000000E+00;  5.7982989E-02;  1.0070432E+03;  2.5644085E-01;  5.8191089E+03;3;  6.1160107E+00;  0.0000000E+00; -1.3487858E+01;0;  3.0265331E+00;  6.3502417E+03;  0.0000000E+00;  3.8426974E-01;  4.0000000E+04;  0.0000000E+00;  3.8713809E+04;  2.7200489E+00;  0.0000000E+00;  3.0648425E-01;  1.6792908E+04;
  1.6451713E+00;  9.9999998E-03;  7.1221717E-02;8888;  1.2324877E+00;  0.0000000E+00;  5.1405959E-02;  1.0067076E+03;  2.5646612E-01;  5.5418735E+03;3;  7.4420004E+00;  0.0000000E+00; -1.2164266E+01;0;  2.9616656E+00;  6.3465239E+03;  0.0000000E+00;  2.5661069E-01;  4.0000000E+04;  0.0000000E+00;  3.8712281E+04;  2.6133771E+00;  0.0000000E+00;  3.4828848E-01;  1.6915322E+04;
  1.6485109E+00;  9.9999998E-03;  2.3360889E-01;8904;  1.1628022E+00;  0.0000000E+00;  6.2319830E-02;  1.0025407E+03;  2.5538287E-01;  2.0988359E+03;3; -8.2666969E+01;  0.0000000E+00; -3.9751705E+01;0;  5.2137499E+00;  6.3206812E+03;  0.0000000E+00; -4.1104660E+00;  4.0000000E+04;  0.0000000E+00;  3.8831434E+04;  5.4245682E+00;  0.0000000E+00; -2.1081837E-01;  3.0730350E+04;
  1.6633501E+00;  9.9999998E-03;  1.7278883E-01;8958;  1.2385154E+00;  0.0000000E+00;  8.4384337E-02;  1.0052921E+03;  2.3667964E-01;  4.3685391E+03;3; -1.0391109E+01;  0.0000000E+00; -2.6252626E+01;0;  3.1008573E+00;  7.4272734E+03;  0.0000000E+00;  1.0603704E+00;  4.0000000E+04;  0.0000000E+00;  3.8753875E+04;  3.0499322E+00;  0.0000000E+00;  5.0925095E-02;  1.1838420E+04;
  1.6633222E+00;  9.9999998E-03;  1.8298146E-01;8959;  1.2347984E+00;  0.0000000E+00;  8.4265441E-02;  1.0051219E+03;  2.3664936E-01;  4.2281201E+03;3; -1.9791044E+01;  0.0000000E+00; -2.5899742E+01;0;  3.2859490E+00;  7.4228101E+03;  0.0000000E+00;  1.2015780E+00;  4.0000000E+04;  0.0000000E+00;  3.8760965E+04;  3.2710867E+00;  0.0000000E+00;  1.4862312E-02;  1.1292226E+04;
  1.6638367E+00;  9.9999998E-03;  1.6259332E-01;8957;  1.2415938E+00;  0.0000000E+00;  8.4993370E-02;  1.0056323E+03;  2.3647715E-01;  4.6492676E+03;3; -1.3462824E+00;  0.0000000E+00; -2.5777929E+01;0;  2.8965087E+00;  7.4475815E+03;  0.0000000E+00;  8.3937603E-01;  4.0000000E+04;  0.0000000E+00;  3.8747242E+04;  2.8074019E+00;  0.0000000E+00;  8.9106895E-02;  1.2372835E+04;
  1.6639304E+00;  9.9999998E-03;  1.9316426E-01;8960;  1.2321486E+00;  0.0000000E+00;  8.5612215E-02;  1.0051564E+03;  2.3630194E-01;  4.2564194E+03;3; -2.7515026E+01;  0.0000000E+00; -2.6038603E+01;0;  3.4366505E+00;  7.4404282E+03;  0.0000000E+00;  1.1828791E+00;  4.0000000E+04;  0.0000000E+00;  3.8767082E+04;  3.4544125E+00;  0.0000000E+00; -1.7761966E-02;  1.0420321E+04;
  1.6645969E+00;  9.9999998E-03;  1.5238133E-01;8956;  1.2434024E+00;  0.0000000E+00;  8.5557498E-02;  1.0060501E+03;  2.3612930E-01;  4.9939644E+03;3;  5.9549637E+00;  0.0000000E+00; -2.4285835E+01;0;  2.6878893E+00;  7.4770596E+03;  0.0000000E+00;  6.7974085E-01;  4.0000000E+04;  0.0000000E+00;  3.8741785E+04;  2.5590754E+00;  0.0000000E+00;  1.2881395E-01;  1.3019616E+04;
  1.6654725E+00;  9.9999998E-03;  1.4216822E-01;8955;  1.2439648E+00;  0.0000000E+00;  8.5642286E-02;  1.0064901E+03;  2.3570700E-01;  5.3567983E+03;3;  1.1219522E+01;  0.0000000E+00; -2.0680468E+01;0;  2.4878426E+00;  7.5103887E+03;  0.0000000E+00;  6.5588629E-01;  4.0000000E+04;  0.0000000E+00;  3.8737680E+04;  2.3180647E+00;  0.0000000E+00;  1.6977797E-01;  1.3535880E+04;
  1.6654376E+00;  9.9999998E-03;  2.0328623E-01;8961;  1.2334661E+00;  0.0000000E+00;  8.9157008E-02;  1.0053746E+03;  2.3556286E-01;  4.4362271E+03;3; -3.1247879E+01;  0.0000000E+00; -2.7403669E+01;0;  3.5332787E+00;  7.4850850E+03;  0.0000000E+00;  1.0389544E+00;  4.0000000E+04;  0.0000000E+00;  3.8773523E+04;  3.5769424E+00;  0.0000000E+00; -4.3663785E-02;  9.3223096E+03;
  1.6663052E+00;  9.9999998E-03;  1.3197328E-01;8954;  1.2435733E+00;  0.0000000E+00;  8.4504783E-02;  1.0068452E+03;  2.3527189E-01;  5.6496523E+03;3;  1.4422012E+01;  0.0000000E+00; -1.6192833E+01;0;  2.3075955E+00;  7.5428911E+03;  0.0000000E+00;  7.2538102E-01;  4.0000000E+04;  0.0000000E+00;  3.8735215E+04;  2.0957220E+00;  0.0000000E+00;  2.1187353E-01;  1.3810203E+04;
  1.6670690E+00;  9.9999998E-03;  1.2181373E-01;8953;  1.2426302E+00;  0.0000000E+00;  8.1945017E-02;  1.0070751E+03;  2.3485518E-01;  5.8391938E+03;3;  1.6233545E+01;  0.0000000E+00; -1.3597875E+01;0;  2.1495926E+00;  7.5720571E+03;  0.0000000E+00;  8.0299592E-01;  4.0000000E+04;  0.0000000E+00;  3.8734309E+04;  1.8941685E+00;  0.0000000E+00;  2.5542408E-01;  1.3914388E+04;
  1.6677698E+00;  9.9999998E-03;  2.1334083E-01;8962;  1.2410785E+00;  0.0000000E+00;  9.2365541E-02;  1.0056155E+03;  2.3453528E-01;  4.6344712E+03;3; -2.9881920E+01;  0.0000000E+00; -3.0174335E+01;0;  3.5795979E+00;  7.5493413E+03;  0.0000000E+00;  6.9413620E-01;  4.0000000E+04;  0.0000000E+00;  3.8784098E+04;  3.6411095E+00;  0.0000000E+00; -6.1511610E-02;  8.5952676E+03;
  1.6677369E+00;  9.9999998E-03;  1.1167075E-01;8952;  1.2413827E+00;  0.0000000E+00;  7.8115545E-02;  1.0071292E+03;  2.3448904E-01;  5.8836362E+03;3;  1.7654783E+01;  0.0000000E+00; -1.1741117E+01;0;  2.0147860E+00;  7.5958154E+03;  0.0000000E+00;  8.2952714E-01;  4.0000000E+04;  0.0000000E+00;  3.8734059E+04;  1.7144223E+00;  0.0000000E+00;  3.0036363E-01;  1.3917898E+04;
  1.6682483E+00;  9.9999998E-03;  1.0153762E-01;8951;  1.2400424E+00;  0.0000000E+00;  7.3233239E-02;  1.0070079E+03;  2.3420462E-01;  5.7834106E+03;3;  1.8066683E+01;  0.0000000E+00; -1.0748445E+01;0;  1.9047945E+00;  7.6120410E+03;  0.0000000E+00;  7.7860099E-01;  4.0000000E+04;  0.0000000E+00;  3.8734230E+04;  1.5589390E+00;  0.0000000E+00;  3.4585544E-01;  1.3860699E+04;
  1.6685600E+00;  9.9999998E-03;  9.1405608E-02;8950;  1.2387748E+00;  0.0000000E+00;  6.7534856E-02;  1.0067416E+03;  2.3402438E-01;  5.5634321E+03;3;  1.8284220E+01;  0.0000000E+00; -1.0001547E+01;0;  1.8194340E+00;  7.6198408E+03;  0.0000000E+00;  6.5980709E-01;  4.0000000E+04;  0.0000000E+00;  3.8734512E+04;  1.4286758E+00;  0.0000000E+00;  3.9075825E-01;  1.3776264E+04;
  1.6686966E+00;  9.9999998E-03;  8.1262991E-02;8949;  1.2376359E+00;  0.0000000E+00;  6.1158910E-02;  1.0063675E+03;  2.3393185E-01;  5.2546826E+03;3;  1.8466410E+01;  0.0000000E+00; -9.2110310E+00;0;  1.7550981E+00;  7.6208110E+03;  0.0000000E+00;  5.0599277E-01;  4.0000000E+04;  0.0000000E+00;  3.8735023E+04;  1.3210366E+00;  0.0000000E+00;  4.3406159E-01;  1.3687790E+04;
  1.6701748E+00;  9.9999998E-03;  2.2341740E-01;8963;  1.2515236E+00;  0.0000000E+00;  9.5232986E-02;  1.0054151E+03;  2.3356181E-01;  4.4683623E+03;3; -2.6718460E+01;  0.0000000E+00; -3.0313274E+01;0;  3.6292806E+00;  7.6065601E+03;  0.0000000E+00; -4.3269747E-01;  4.0000000E+04;  0.0000000E+00;  3.8798848E+04;  3.7005863E+00;  0.0000000E+00; -7.1305871E-02;  1.2138574E+04;
  1.6686976E+00;  9.9999998E-03;  7.1108609E-02;8948;  1.2366639E+00;  0.0000000E+00;  5.4244634E-02;  1.0059367E+03;  2.3391631E-01;  4.8992480E+03;3;  1.8616322E+01;  0.0000000E+00; -8.3373775E+00;0;  1.7077640E+00;  7.6167466E+03;  0.0000000E+00;  3.5383567E-01;  4.0000000E+04;  0.0000000E+00;  3.8735109E+04;  1.2330282E+00;  0.0000000E+00;  4.7473583E-01;  1.3602630E+04;
  1.6715971E+00;  9.9999998E-03;  2.3357089E-01;8964;  1.2589085E+00;  0.0000000E+00;  9.6886225E-02;  1.0043519E+03;  2.3308201E-01;  3.5908093E+03;3; -2.5738432E+01;  0.0000000E+00; -3.0872452E+01;0;  3.7574067E+00;  7.6242407E+03;  0.0000000E+00; -3.1602855E+00;  4.0000000E+04;  0.0000000E+00;  3.8807766E+04;  3.8303726E+00;  0.0000000E+00; -7.2965898E-02;  2.4896344E+04;
  1.6849736E+00;  9.9999998E-03;  1.7277509E-01;9017;  1.2559674E+00;  0.0000000E+00;  9.9069118E-02;  1.0052322E+03;  2.1758769E-01;  4.3132036E+03;3;  1.4882873E+01;  0.0000000E+00; -1.6125319E+01;0;  1.9322889E+00;  8.7831650E+03;  0.0000000E+00;  7.2868019E-01;  4.0000000E+04;  0.0000000E+00;  3.8755934E+04;  1.7864220E+00;  0.0000000E+00;  1.4586686E-01;  1.0278202E+04;
  1.6851313E+00;  9.9999998E-03;  1.8293098E-01;9018;  1.2592267E+00;  0.0000000E+00;  1.0065281E-01;  1.0056334E+03;  2.1746424E-01;  4.6438301E+03;3;  1.2152395E+01;  0.0000000E+00; -1.8006744E+01;0;  2.0663857E+00;  8.7947227E+03;  0.0000000E+00;  8.6776650E-01;  4.0000000E+04;  0.0000000E+00;  3.8758645E+04;  1.9544536E+00;  0.0000000E+00;  1.1193216E-01;  1.0172335E+04;
  1.6852831E+00;  9.9999998E-03;  1.6260263E-01;9016;  1.2530638E+00;  0.0000000E+00;  9.6859775E-02;  1.0050128E+03;  2.1749857E-01;  4.1321919E+03;3;  1.7443203E+01;  0.0000000E+00; -1.3096219E+01;0;  1.7858726E+00;  8.7909170E+03;  0.0000000E+00;  5.0226444E-01;  4.0000000E+04;  0.0000000E+00;  3.8753102E+04;  1.6037315E+00;  0.0000000E+00;  1.8214107E-01;  1.0333397E+04;
  1.6859097E+00;  9.9999998E-03;  1.9306089E-01;9019;  1.2633389E+00;  0.0000000E+00;  1.0230323E-01;  1.0061467E+03;  2.1708360E-01;  5.0666836E+03;3;  9.4291649E+00;  0.0000000E+00; -1.8189510E+01;0;  2.1763346E+00;  8.8288701E+03;  0.0000000E+00;  9.7887772E-01;  4.0000000E+04;  0.0000000E+00;  3.8761262E+04;  2.0946653E+00;  0.0000000E+00;  8.1669249E-02;  9.8402500E+03;
  1.6858735E+00;  9.9999998E-03;  1.5238504E-01;9015;  1.2503204E+00;  0.0000000E+00;  9.3531340E-02;  1.0049639E+03;  2.1727450E-01;  4.0917202E+03;3;  1.9108641E+01;  0.0000000E+00; -1.0875773E+01;0;  1.6391205E+00;  8.8115078E+03;  0.0000000E+00;  3.0031434E-01;  4.0000000E+04;  0.0000000E+00;  3.8749973E+04;  1.4192480E+00;  0.0000000E+00;  2.1987252E-01;  1.0590765E+04;
  1.6866084E+00;  9.9999998E-03;  1.4213780E-01;9014;  1.2477789E+00;  0.0000000E+00;  8.9718111E-02;  1.0050488E+03;  2.1696840E-01;  4.1614531E+03;3;  2.0315657E+01;  0.0000000E+00; -1.0000784E+01;0;  1.5006863E+00;  8.8397051E+03;  0.0000000E+00;  2.4179579E-01;  4.0000000E+04;  0.0000000E+00;  3.8747812E+04;  1.2420105E+00;  0.0000000E+00;  2.5867581E-01;  1.0880969E+04;
  1.6874523E+00;  9.9999998E-03;  2.0314020E-01;9020;  1.2691333E+00;  0.0000000E+00;  1.0502300E-01;  1.0066197E+03;  2.1643896E-01;  5.4559531E+03;3;  8.3231678E+00;  0.0000000E+00; -1.6881729E+01;0;  2.2516263E+00;  8.8846367E+03;  0.0000000E+00;  1.2651219E+00;  4.0000000E+04;  0.0000000E+00;  3.8766016E+04;  2.1939330E+00;  0.0000000E+00;  5.7693187E-02;  9.1907275E+03;
  1.6873852E+00;  9.9999998E-03;  1.3189650E-01;9013;  1.2454122E+00;  0.0000000E+00;  8.5837334E-02;  1.0052031E+03;  2.1661416E-01;  4.2884429E+03;3;  2.1122366E+01;  0.0000000E+00; -9.5065432E+00;0;  1.3764983E+00;  8.8717471E+03;  0.0000000E+00;  3.2866940E-01;  4.0000000E+04;  0.0000000E+00;  3.8746102E+04;  1.0780354E+00;  0.0000000E+00;  2.9846296E-01;  1.0999557E+04;
  1.6881597E+00;  9.9999998E-03;  1.2168989E-01;9012;  1.2431782E+00;  0.0000000E+00;  8.1739724E-02;  1.0053514E+03;  2.1624462E-01;  4.4104053E+03;3;  2.1581757E+01;  0.0000000E+00; -9.0646620E+00;0;  1.2687963E+00;  8.9039951E+03;  0.0000000E+00;  4.7328636E-01;  4.0000000E+04;  0.0000000E+00;  3.8745402E+04;  9.2958599E-01;  0.0000000E+00;  3.3921033E-01;  1.0987931E+04;
  1.6888571E+00;  9.9999998E-03;  1.1152545E-01;9011;  1.2410861E+00;  0.0000000E+00;  7.7226028E-02;  1.0054210E+03;  2.1591254E-01;  4.4674390E+03;3;  2.1937981E+01;  0.0000000E+00; -8.4659672E+00;0;  1.1795676E+00;  8.9316094E+03;  0.0000000E+00;  5.9696674E-01;  4.0000000E+04;  0.0000000E+00;  3.8745332E+04;  7.9900688E-01;  0.0000000E+00;  3.8056067E-01;  1.0921919E+04;
  1.6895040E+00;  9.9999998E-03;  2.1319856E-01;9021;  1.2771335E+00;  0.0000000E+00;  1.0958605E-01;  1.0067234E+03;  2.1567750E-01;  5.5405435E+03;3;  8.6426115E+00;  0.0000000E+00; -1.4066806E+01;0;  2.3078699E+00;  8.9455137E+03;  0.0000000E+00;  1.6618474E+00;  4.0000000E+04;  0.0000000E+00;  3.8778199E+04;  2.2639060E+00;  0.0000000E+00;  4.3963976E-02;  7.7346836E+03;
  1.6894106E+00;  9.9999998E-03;  1.0139038E-01;9010;  1.2390970E+00;  0.0000000E+00;  7.2156698E-02;  1.0053702E+03;  2.1564987E-01;  4.4254922E+03;3;  2.2575474E+01;  0.0000000E+00; -7.8016710E+00;0;  1.1092515E+00;  8.9515225E+03;  0.0000000E+00;  6.5252537E-01;  4.0000000E+04;  0.0000000E+00;  3.8746004E+04;  6.8735224E-01;  0.0000000E+00;  4.2189926E-01;  1.0816521E+04;
  1.6898038E+00;  9.9999998E-03;  9.1259412E-02;9009;  1.2372130E+00;  0.0000000E+00;  6.6501647E-02;  1.0051883E+03;  2.1545844E-01;  4.2754487E+03;3;  2.2800570E+01;  0.0000000E+00; -7.4596014E+00;0;  1.0560204E+00;  8.9634629E+03;  0.0000000E+00;  6.2712234E-01;  4.0000000E+04;  0.0000000E+00;  3.8746977E+04;  5.9345394E-01;  0.0000000E+00;  4.6256644E-01;  1.0660500E+04;
  1.6900297E+00;  9.9999998E-03;  8.1125498E-02;9008;  1.2355274E+00;  0.0000000E+00;  6.0324796E-02;  1.0048821E+03;  2.1533662E-01;  4.0230120E+03;3;  2.2772413E+01;  0.0000000E+00; -7.0464787E+00;0;  1.0177093E+00;  8.9676641E+03;  0.0000000E+00;  5.3837478E-01;  4.0000000E+04;  0.0000000E+00;  3.8748375E+04;  5.1599300E-01;  0.0000000E+00;  5.0171626E-01;  1.0453301E+04;
  1.6900915E+00;  9.9999998E-03;  7.0991553E-02;9007;  1.2340847E+00;  0.0000000E+00;  5.3688690E-02;  1.0044876E+03;  2.1529159E-01;  3.6979426E+03;3;  2.2563761E+01;  0.0000000E+00; -6.5310421E+00;0;  9.9196041E-01;  8.9645703E+03;  0.0000000E+00;  4.1846839E-01;  4.0000000E+04;  0.0000000E+00;  3.8749812E+04;  4.5351568E-01;  0.0000000E+00;  5.3844476E-01;  1.0203942E+04;
  1.6913394E+00;  9.9999998E-03;  2.2331047E-01;9022;  1.2860922E+00;  0.0000000E+00;  1.1446157E-01;  1.0060266E+03;  2.1507369E-01;  4.9656162E+03;3;  9.1025219E+00;  0.0000000E+00; -1.4391915E+01;0;  2.3914964E+00;  8.9837588E+03;  0.0000000E+00;  1.3760831E+00;  4.0000000E+04;  0.0000000E+00;  3.8794547E+04;  2.3472681E+00;  0.0000000E+00;  4.4228327E-02;  6.3324351E+03;
  1.6921715E+00;  9.9999998E-03;  2.3348367E-01;9023;  1.2935872E+00;  0.0000000E+00;  1.1564929E-01;  1.0044635E+03;  2.1493432E-01;  3.6774773E+03;3;  8.0491409E+00;  0.0000000E+00; -1.7104017E+01;0;  2.5442483E+00;  8.9733369E+03;  0.0000000E+00; -5.0371754E-01;  4.0000000E+04;  0.0000000E+00;  3.8807035E+04;  2.4923863E+00;  0.0000000E+00;  5.1861923E-02;  1.1940026E+04;
  1.7053559E+00;  9.9999998E-03;  1.7277366E-01;9076;  1.2593499E+00;  0.0000000E+00;  1.0046955E-01;  1.0048551E+03;  2.0168322E-01;  3.9953064E+03;3;  2.2390326E+01;  0.0000000E+00; -6.0618844E+00;0;  1.1318585E+00;  1.0211572E+04;  0.0000000E+00;  5.2169389E-01;  4.0000000E+04;  0.0000000E+00;  3.8751508E+04;  9.2256320E-01;  0.0000000E+00;  2.0929532E-01;  8.4121904E+03;
  1.7054641E+00;  9.9999998E-03;  1.6264535E-01;9075;  1.2545112E+00;  0.0000000E+00;  9.7014181E-02;  1.0041773E+03;  2.0167376E-01;  3.4374878E+03;3;  2.3152641E+01;  0.0000000E+00; -6.2787380E+00;0;  1.0434065E+00;  1.0204294E+04;  0.0000000E+00;  2.9243281E-01;  4.0000000E+04;  0.0000000E+00;  3.8752684E+04;  8.0168170E-01;  0.0000000E+00;  2.4172477E-01;  8.0166030E+03;
  1.7056251E+00;  9.9999998E-03;  1.8287361E-01;9077;  1.2648555E+00;  0.0000000E+00;  1.0385954E-01;  1.0056497E+03;  2.0153980E-01;  4.6489990E+03;3;  2.2037930E+01;  0.0000000E+00; -5.1825733E+00;0;  1.2158859E+00;  1.0236566E+04;  0.0000000E+00;  7.6255804E-01;  4.0000000E+04;  0.0000000E+00;  3.8749766E+04;  1.0366979E+00;  0.0000000E+00;  1.7918804E-01;  8.8220645E+03;
  1.7058407E+00;  9.9999998E-03;  1.5245482E-01;9074;  1.2502322E+00;  0.0000000E+00;  9.2656262E-02;  1.0037029E+03;  2.0155072E-01;  3.0470471E+03;3;  2.3317907E+01;  0.0000000E+00; -6.0029850E+00;0;  9.5560992E-01;  1.0212135E+04;  0.0000000E+00;  5.8973141E-02;  4.0000000E+04;  0.0000000E+00;  3.8752469E+04;  6.7982382E-01;  0.0000000E+00;  2.7578610E-01;  7.8722900E+03;
  1.7064424E+00;  9.9999998E-03;  1.9294068E-01;9078;  1.2712331E+00;  0.0000000E+00;  1.0749131E-01;  1.0064163E+03;  2.0120813E-01;  5.2794087E+03;3;  2.1622576E+01;  0.0000000E+00; -4.1330314E+00;0;  1.2878729E+00;  1.0280331E+04;  0.0000000E+00;  1.2825519E+00;  4.0000000E+04;  0.0000000E+00;  3.8750109E+04;  1.1347057E+00;  0.0000000E+00;  1.5316725E-01;  9.0794951E+03;
  1.7063663E+00;  9.9999998E-03;  1.4219284E-01;9073;  1.2465863E+00;  0.0000000E+00;  8.7918304E-02;  1.0034387E+03;  2.0135430E-01;  2.8294253E+03;3;  2.3661180E+01;  0.0000000E+00; -6.5993762E+00;0;  8.7355894E-01;  1.0230671E+04;  0.0000000E+00; -6.8295434E-02;  4.0000000E+04;  0.0000000E+00;  3.8751320E+04;  5.6258857E-01;  0.0000000E+00;  3.1097037E-01;  7.9419268E+03;
  1.7069926E+00;  9.9999998E-03;  1.3191545E-01;9072;  1.2434573E+00;  0.0000000E+00;  8.3389014E-02;  1.0033550E+03;  2.0109989E-01;  2.7603911E+03;3;  2.3275064E+01;  0.0000000E+00; -7.0215473E+00;0;  8.0021310E-01;  1.0256953E+04;  0.0000000E+00; -3.2413766E-02;  4.0000000E+04;  0.0000000E+00;  3.8750402E+04;  4.5328471E-01;  0.0000000E+00;  3.4692842E-01;  7.9640083E+03;
  1.7078162E+00;  9.9999998E-03;  2.0299469E-01;9079;  1.2787123E+00;  0.0000000E+00;  1.1069246E-01;  1.0068665E+03;  2.0072128E-01;  5.6489839E+03;3;  2.1929071E+01;  0.0000000E+00; -5.5930386E+00;0;  1.3465255E+00;  1.0334977E+04;  0.0000000E+00;  2.4054792E+00;  4.0000000E+04;  0.0000000E+00;  3.8756871E+04;  1.2131351E+00;  0.0000000E+00;  1.3339038E-01;  9.3567031E+03;
  1.7076614E+00;  9.9999998E-03;  1.2167510E-01;9071;  1.2407447E+00;  0.0000000E+00;  7.8892358E-02;  1.0034015E+03;  2.0082447E-01;  2.7984495E+03;3;  2.3600595E+01;  0.0000000E+00; -7.0389862E+00;0;  7.3788166E-01;  1.0286472E+04;  0.0000000E+00;  1.1348258E-01;  4.0000000E+04;  0.0000000E+00;  3.8749699E+04;  3.5452467E-01;  0.0000000E+00;  3.8335702E-01;  7.8996924E+03;
  1.7082975E+00;  9.9999998E-03;  1.1148230E-01;9070;  1.2381922E+00;  0.0000000E+00;  7.4182414E-02;  1.0034752E+03;  2.0056367E-01;  2.8588694E+03;3;  2.4355030E+01;  0.0000000E+00; -6.8113871E+00;0;  6.8791282E-01;  1.0314124E+04;  0.0000000E+00;  2.8378958E-01;  4.0000000E+04;  0.0000000E+00;  3.8749363E+04;  2.6790312E-01;  0.0000000E+00;  4.2000973E-01;  7.8250132E+03;
  1.7088661E+00;  9.9999998E-03;  1.0131653E-01;9069;  1.2357528E+00;  0.0000000E+00;  6.9147140E-02;  1.0034882E+03;  2.0032690E-01;  2.8693875E+03;3;  2.4601145E+01;  0.0000000E+00; -6.7784705E+00;0;  6.4975441E-01;  1.0337759E+04;  0.0000000E+00;  4.2059749E-01;  4.0000000E+04;  0.0000000E+00;  3.8749664E+04;  1.9319512E-01;  0.0000000E+00;  4.5655927E-01;  7.7474395E+03;
  1.7094388E+00;  9.9999998E-03;  2.1308081E-01;9080;  1.2872337E+00;  0.0000000E+00;  1.1341508E-01;  1.0065839E+03;  2.0021266E-01;  5.4155278E+03;3;  2.2608299E+01;  0.0000000E+00; -5.4578490E+00;0;  1.4045266E+00;  1.0380465E+04;  0.0000000E+00;  3.9085460E+00;  4.0000000E+04;  0.0000000E+00;  3.8772176E+04;  1.2829047E+00;  0.0000000E+00;  1.2162179E-01;  1.0399253E+04;
  1.7093155E+00;  9.9999998E-03;  9.1174252E-02;9068;  1.2335219E+00;  0.0000000E+00;  6.3754082E-02;  1.0034084E+03;  2.0013781E-01;  2.8036504E+03;3;  2.4460175E+01;  0.0000000E+00; -6.5958862E+00;0;  6.2268919E-01;  1.0354605E+04;  0.0000000E+00;  4.9130464E-01;  4.0000000E+04;  0.0000000E+00;  3.8750406E+04;  1.3030155E-01;  0.0000000E+00;  4.9238762E-01;  7.6294199E+03;
  1.7096037E+00;  9.9999998E-03;  8.1047647E-02;9067;  1.2315699E+00;  0.0000000E+00;  5.7966202E-02;  1.0032136E+03;  2.0000654E-01;  2.6432456E+03;3;  2.3917660E+01;  0.0000000E+00; -6.2715030E+00;0;  6.0548580E-01;  1.0362638E+04;  0.0000000E+00;  4.9176726E-01;  4.0000000E+04;  0.0000000E+00;  3.8751207E+04;  7.8668803E-02;  0.0000000E+00;  5.2681702E-01;  7.4352930E+03;
  1.7097348E+00;  9.9999998E-03;  7.0925556E-02;9066;  1.2299174E+00;  0.0000000E+00;  5.1779419E-02;  1.0029223E+03;  1.9993871E-01;  2.4036658E+03;3;  2.3994246E+01;  0.0000000E+00; -5.8817368E+00;0;  5.9615237E-01;  1.0362430E+04;  0.0000000E+00;  4.3753991E-01;  4.0000000E+04;  0.0000000E+00;  3.8753344E+04;  3.6956646E-02;  0.0000000E+00;  5.5919570E-01;  7.1479663E+03;
  1.7107441E+00;  9.9999998E-03;  2.2323397E-01;9081;  1.2961082E+00;  0.0000000E+00;  1.1595861E-01;  1.0052708E+03;  1.9988395E-01;  4.3348340E+03;3;  2.3062830E+01;  0.0000000E+00; -4.9078026E+00;0;  1.4882586E+00;  1.0391791E+04;  0.0000000E+00;  4.6052990E+00;  4.0000000E+04;  0.0000000E+00;  3.8790828E+04;  1.3680912E+00;  0.0000000E+00;  1.2016741E-01;  1.0477784E+04;
  1.7111043E+00;  9.9999998E-03;  2.3343082E-01;9082;  1.3040072E+00;  0.0000000E+00;  1.1723054E-01;  1.0031857E+03;  1.9995175E-01;  2.6198762E+03;3;  2.2399014E+01;  0.0000000E+00; -4.9833570E+00;0;  1.6254506E+00;  1.0350607E+04;  0.0000000E+00;  3.5169704E+00;  4.0000000E+04;  0.0000000E+00;  3.8808094E+04;  1.4982138E+00;  0.0000000E+00;  1.2723680E-01;  6.3210947E+03;
  1.7244307E+00;  9.9999998E-03;  1.7276555E-01;9135;  1.2586616E+00;  0.0000000E+00;  9.7053215E-02;  1.0045302E+03;  1.8851683E-01;  3.7196682E+03;3;  2.5644030E+01;  0.0000000E+00; -7.3464620E-01;0;  6.4468545E-01;  1.1680396E+04;  0.0000000E+00;  5.0902420E-01;  4.0000000E+04;  0.0000000E+00;  3.8735578E+04;  4.0064836E-01;  0.0000000E+00;  2.4403711E-01;  6.9063457E+03;
  1.7244580E+00;  9.9999998E-03;  1.6269410E-01;9134;  1.2530626E+00;  0.0000000E+00;  9.3238719E-02;  1.0035789E+03;  1.8852574E-01;  2.9385686E+03;3;  2.5450735E+01;  0.0000000E+00; -2.1159840E+00;0;  5.9546494E-01;  1.1662246E+04;  0.0000000E+00;  2.0612323E-01;  4.0000000E+04;  0.0000000E+00;  3.8741504E+04;  3.2346591E-01;  0.0000000E+00;  2.7199903E-01;  5.9300693E+03;
  1.7246888E+00;  9.9999998E-03;  1.8280585E-01;9136;  1.2650701E+00;  0.0000000E+00;  1.0042641E-01;  1.0054916E+03;  1.8840720E-01;  4.5089224E+03;3;  2.6126368E+01;  0.0000000E+00; -5.1019210E-01;0;  6.9373691E-01;  1.1711505E+04;  0.0000000E+00;  1.1098484E+00;  4.0000000E+04;  0.0000000E+00;  3.8730453E+04;  4.7520980E-01;  0.0000000E+00;  2.1852709E-01;  8.0238716E+03;
  1.7246753E+00;  9.9999998E-03;  1.5256329E-01;9133;  1.2481710E+00;  0.0000000E+00;  8.9272991E-02;  1.0027647E+03;  1.8846591E-01;  2.2699792E+03;3;  2.5475473E+01;  0.0000000E+00; -3.7278929E+00;0;  5.4880327E-01;  1.1656750E+04;  0.0000000E+00; -3.3003859E-02;  4.0000000E+04;  0.0000000E+00;  3.8745488E+04;  2.4704219E-01;  0.0000000E+00;  3.0176109E-01;  5.2601113E+03;
  1.7249920E+00;  9.9999998E-03;  1.4234203E-01;9132;  1.2439559E+00;  0.0000000E+00;  8.4783860E-02;  1.0021741E+03;  1.8835285E-01;  1.7850176E+03;3;  2.4697159E+01;  0.0000000E+00; -4.5789742E+00;0;  5.0702393E-01;  1.1661765E+04;  0.0000000E+00; -2.0244861E-01;  4.0000000E+04;  0.0000000E+00;  3.8746809E+04;  1.7408162E-01;  0.0000000E+00;  3.3294234E-01;  4.9999668E+03;
  1.7253585E+00;  9.9999998E-03;  1.9283281E-01;9137;  1.2722886E+00;  0.0000000E+00;  1.0344275E-01;  1.0062421E+03;  1.8818037E-01;  5.1247002E+03;3;  2.6716885E+01;  0.0000000E+00; -2.2546989E-01;0;  7.3902655E-01;  1.1752580E+04;  0.0000000E+00;  2.4954429E+00;  4.0000000E+04;  0.0000000E+00;  3.8731211E+04;  5.4238683E-01;  0.0000000E+00;  1.9663973E-01;  9.7895146E+03;
  1.7253935E+00;  9.9999998E-03;  1.3206592E-01;9131;  1.2404741E+00;  0.0000000E+00;  8.0159433E-02;  1.0018206E+03;  1.8820797E-01;  1.4946443E+03;3;  2.4815281E+01;  0.0000000E+00; -5.0804935E+00;0;  4.7103170E-01;  1.1675635E+04;  0.0000000E+00; -2.3393813E-01;  4.0000000E+04;  0.0000000E+00;  3.8746805E+04;  1.0600374E-01;  0.0000000E+00;  3.6502796E-01;  4.9211924E+03;
  1.7264062E+00;  9.9999998E-03;  2.0289667E-01;9138;  1.2804130E+00;  0.0000000E+00;  1.0621978E-01;  1.0064240E+03;  1.8787101E-01;  5.2732993E+03;3;  2.7278605E+01;  0.0000000E+00; -3.3494878E-01;0;  7.8172207E-01;  1.1792378E+04;  0.0000000E+00;  5.0095234E+00;  4.0000000E+04;  0.0000000E+00;  3.8741715E+04;  6.0186982E-01;  0.0000000E+00;  1.7985228E-01;  1.4360667E+04;
  1.7258723E+00;  9.9999998E-03;  1.2179812E-01;9130;  1.2373532E+00;  0.0000000E+00;  7.5473011E-02;  1.0016797E+03;  1.8803562E-01;  1.3788748E+03;3;  2.5378904E+01;  0.0000000E+00; -5.5297494E+00;0;  4.4144529E-01;  1.1696021E+04;  0.0000000E+00; -1.3120559E-01;  4.0000000E+04;  0.0000000E+00;  3.8746258E+04;  4.3890409E-02;  0.0000000E+00;  3.9755487E-01;  4.8424575E+03;
  1.7263919E+00;  9.9999998E-03;  1.1156008E-01;9129;  1.2344228E+00;  0.0000000E+00;  7.0672005E-02;  1.0016765E+03;  1.8785256E-01;  1.3761351E+03;3;  2.5841883E+01;  0.0000000E+00; -5.7971439E+00;0;  4.1871068E-01;  1.1719591E+04;  0.0000000E+00;  3.3962253E-02;  4.0000000E+04;  0.0000000E+00;  3.8744922E+04; -1.1502256E-02;  0.0000000E+00;  4.3021294E-01;  4.7932788E+03;
  1.7269145E+00;  9.9999998E-03;  1.0135858E-01;9128;  1.2317065E+00;  0.0000000E+00;  6.5710932E-02;  1.0017002E+03;  1.8766364E-01;  1.3955084E+03;3;  2.5559309E+01;  0.0000000E+00; -5.9196973E+00;0;  4.0273181E-01;  1.1743238E+04;  0.0000000E+00;  2.0030686E-01;  4.0000000E+04;  0.0000000E+00;  3.8744219E+04; -5.9898283E-02;  0.0000000E+00;  4.6263009E-01;  4.7870552E+03;
  1.7276248E+00;  9.9999998E-03;  2.1303727E-01;9139;  1.2890437E+00;  0.0000000E+00;  1.0838193E-01;  1.0055817E+03;  1.8756984E-01;  4.5809897E+03;3;  2.7579336E+01;  0.0000000E+00;  3.9651835E-01;0;  8.2826138E-01;  1.1812604E+04;  0.0000000E+00;  8.0253773E+00;  4.0000000E+04;  0.0000000E+00;  3.8758504E+04;  6.5898407E-01;  0.0000000E+00;  1.6927733E-01;  2.1839398E+04;
  1.7273684E+00;  9.9999998E-03;  9.1192909E-02;9127;  1.2292727E+00;  0.0000000E+00;  6.0514327E-02;  1.0016965E+03;  1.8750107E-01;  1.3923878E+03;3;  2.5533154E+01;  0.0000000E+00; -5.7480221E+00;0;  3.9324561E-01;  1.1762329E+04;  0.0000000E+00;  3.2837003E-01;  4.0000000E+04;  0.0000000E+00;  3.8743648E+04; -1.0106758E-01;  0.0000000E+00;  4.9431318E-01;  4.7787202E+03;
  1.7277102E+00;  9.9999998E-03;  8.1048287E-02;9126;  1.2270886E+00;  0.0000000E+00;  5.5039268E-02;  1.0016081E+03;  1.8737511E-01;  1.3198243E+03;3;  2.5608162E+01;  0.0000000E+00; -5.4592257E+00;0;  3.8933849E-01;  1.1774366E+04;  0.0000000E+00;  3.9693961E-01;  4.0000000E+04;  0.0000000E+00;  3.8743723E+04; -1.3541687E-01;  0.0000000E+00;  5.2475536E-01;  4.7029307E+03;
  1.7279360E+00;  9.9999998E-03;  7.0915423E-02;9125;  1.2251663E+00;  0.0000000E+00;  4.9247302E-02;  1.0014303E+03;  1.8728660E-01;  1.1738142E+03;3;  2.5706644E+01;  0.0000000E+00; -5.0411334E+00;0;  3.8967901E-01;  1.1779521E+04;  0.0000000E+00;  4.0452397E-01;  4.0000000E+04;  0.0000000E+00;  3.8744984E+04; -1.6370894E-01;  0.0000000E+00;  5.5338794E-01;  4.5104399E+03;
  1.7286042E+00;  9.9999998E-03;  2.3344697E-01;9141;  1.3060185E+00;  0.0000000E+00;  1.1149660E-01;  1.0009639E+03;  1.8760552E-01;  7.9101282E+02;3;  2.8532696E+01;  0.0000000E+00;  7.3362523E-01;0;  9.9644774E-01;  1.1720542E+04;  0.0000000E+00;  9.0944195E+00;  4.0000000E+04;  0.0000000E+00;  3.8799609E+04;  8.2771760E-01;  0.0000000E+00;  1.6873015E-01;  2.6963666E+04;
  1.7285404E+00;  9.9999998E-03;  2.2323336E-01;9140;  1.2977295E+00;  0.0000000E+00;  1.1032309E-01;  1.0035502E+03;  1.8742926E-01;  2.9134500E+03;3;  2.8084517E+01;  0.0000000E+00;  1.2451822E+00;0;  8.9412630E-01;  1.1791861E+04;  0.0000000E+00;  9.7280445E+00;  4.0000000E+04;  0.0000000E+00;  3.8777766E+04;  7.2781491E-01;  0.0000000E+00;  1.6631135E-01;  2.7183061E+04;
  1.7422500E+00;  9.9999998E-03;  1.7271760E-01;9193;  1.2567143E+00;  0.0000000E+00;  9.0888530E-02;  1.0043865E+03;  1.7763548E-01;  3.5919146E+03;3;  2.7337961E+01;  0.0000000E+00;  5.4171205E-01;0;  3.5695040E-01;  1.3158745E+04;  0.0000000E+00;  9.5874184E-01;  4.0000000E+04;  0.0000000E+00;  3.8705734E+04;  9.9764660E-02;  0.0000000E+00;  2.5718576E-01;  6.4852729E+03;
  1.7422864E+00;  9.9999998E-03;  1.6270980E-01;9192;  1.2507596E+00;  0.0000000E+00;  8.7840930E-02;  1.0033279E+03;  1.7764032E-01;  2.7251562E+03;3;  2.6864264E+01;  0.0000000E+00; -4.3812770E-01;0;  3.3286011E-01;  1.3134419E+04;  0.0000000E+00;  3.4534526E-01;  4.0000000E+04;  0.0000000E+00;  3.8715215E+04;  5.2648608E-02;  0.0000000E+00;  2.8021151E-01;  4.6640703E+03;
  1.7424277E+00;  9.9999998E-03;  1.8270212E-01;9194;  1.2634985E+00;  0.0000000E+00;  9.3687095E-02;  1.0053181E+03;  1.7757791E-01;  4.3546582E+03;3;  2.8100946E+01;  0.0000000E+00;  1.0277681E+00;0;  3.8224530E-01;  1.3188001E+04;  0.0000000E+00;  2.3674386E+00;  4.0000000E+04;  0.0000000E+00;  3.8700469E+04;  1.4547923E-01;  0.0000000E+00;  2.3676606E-01;  9.2957939E+03;
  1.7424275E+00;  9.9999998E-03;  1.5265352E-01;9191;  1.2454923E+00;  0.0000000E+00;  8.4520444E-02;  1.0023022E+03;  1.7760691E-01;  1.8852192E+03;3;  2.6617912E+01;  0.0000000E+00; -1.8103963E+00;0;  3.1137061E-01;  1.3116982E+04;  0.0000000E+00;  3.5319813E-02;  4.0000000E+04;  0.0000000E+00;  3.8724402E+04;  5.8502536E-03;  0.0000000E+00;  3.0552036E-01;  3.3015381E+03;
  1.7428916E+00;  9.9999998E-03;  1.9271654E-01;9195;  1.2710443E+00;  0.0000000E+00;  9.6094400E-02;  1.0058641E+03;  1.7745405E-01;  4.8013447E+03;3;  2.8653471E+01;  0.0000000E+00;  1.8239695E+00;0;  4.0799841E-01;  1.3216522E+04;  0.0000000E+00;  5.2179737E+00;  4.0000000E+04;  0.0000000E+00;  3.8706480E+04;  1.8866722E-01;  0.0000000E+00;  2.1933119E-01;  1.5287429E+04;
  1.7426116E+00;  9.9999998E-03;  1.4251758E-01;9190;  1.2409751E+00;  0.0000000E+00;  8.0764845E-02;  1.0014371E+03;  1.7755312E-01;  1.1767970E+03;3;  2.6251743E+01;  0.0000000E+00; -2.7614324E+00;0;  2.9330564E-01;  1.3107209E+04;  0.0000000E+00; -1.6217536E-01;  4.0000000E+04;  0.0000000E+00;  3.8729883E+04; -3.9522022E-02;  0.0000000E+00;  3.3282766E-01;  2.5001592E+03;
  1.7428206E+00;  9.9999998E-03;  1.3229188E-01;9189;  1.2370049E+00;  0.0000000E+00;  7.6486759E-02;  1.0007990E+03;  1.7748795E-01;  6.5426221E+02;3;  2.6476898E+01;  0.0000000E+00; -3.4612172E+00;0;  2.7909857E-01;  1.3105162E+04;  0.0000000E+00; -2.5251237E-01;  4.0000000E+04;  0.0000000E+00;  3.8732137E+04; -8.2559176E-02;  0.0000000E+00;  3.6165774E-01;  2.1989363E+03;
  1.7430798E+00;  9.9999998E-03;  1.2202106E-01;9188;  1.2334558E+00;  0.0000000E+00;  7.1880504E-02;  1.0004104E+03;  1.7740741E-01;  3.3604706E+02;3;  2.6775301E+01;  0.0000000E+00; -4.0636015E+00;0;  2.6878724E-01;  1.3110688E+04;  0.0000000E+00; -2.1737570E-01;  4.0000000E+04;  0.0000000E+00;  3.8732195E+04; -1.2249171E-01;  0.0000000E+00;  3.9127895E-01;  2.0735247E+03;
  1.7436550E+00;  9.9999998E-03;  2.0283139E-01;9196;  1.2794360E+00;  0.0000000E+00;  9.8640427E-02;  1.0056061E+03;  1.7728662E-01;  4.5895137E+03;3;  2.9328257E+01;  0.0000000E+00;  2.6778028E+00;0;  4.3529803E-01;  1.3232745E+04;  0.0000000E+00;  9.6520414E+00;  4.0000000E+04;  0.0000000E+00;  3.8722723E+04;  2.2923678E-01;  0.0000000E+00;  2.0606126E-01;  2.6310715E+04;
  1.7434363E+00;  9.9999998E-03;  1.1175053E-01;9187;  1.2302355E+00;  0.0000000E+00;  6.7063317E-02;  1.0002340E+03;  1.7730039E-01;  1.9158273E+02;3;  2.6674845E+01;  0.0000000E+00; -4.5262628E+00;0;  2.6208001E-01;  1.3124408E+04;  0.0000000E+00; -9.7210489E-02;  4.0000000E+04;  0.0000000E+00;  3.8731180E+04; -1.5893301E-01;  0.0000000E+00;  4.2101303E-01;  2.0012043E+03;
  1.7438550E+00;  9.9999998E-03;  1.0150909E-01;9186;  1.2272969E+00;  0.0000000E+00;  6.2118094E-02;  1.0001796E+03;  1.7717326E-01;  1.4706773E+02;3;  2.6876575E+01;  0.0000000E+00; -4.5992136E+00;0;  2.5900075E-01;  1.3142753E+04;  0.0000000E+00;  4.5939796E-02;  4.0000000E+04;  0.0000000E+00;  3.8729098E+04; -1.9140372E-01;  0.0000000E+00;  4.5040447E-01;  2.0217013E+03;
  1.7445641E+00;  9.9999998E-03;  2.1304674E-01;9197;  1.2882825E+00;  0.0000000E+00;  1.0076849E-01;  1.0040375E+03;  1.7714104E-01;  3.3048523E+03;3;  2.9796432E+01;  0.0000000E+00;  3.3242707E+00;0;  4.6762091E-01;  1.3219706E+04;  0.0000000E+00;  1.4285247E+01;  4.0000000E+04;  0.0000000E+00;  3.8740598E+04;  2.6982698E-01;  0.0000000E+00;  1.9779392E-01;  3.9388754E+04;
  1.7449329E+00;  9.9999998E-03;  2.3352166E-01;9199;  1.3058602E+00;  0.0000000E+00;  1.0385208E-01;  9.9838477E+02;  1.7739683E-01; -1.3220394E+03;3;  3.1010275E+01;  0.0000000E+00;  3.0908632E+00;0;  5.8432859E-01;  1.3059567E+04;  0.0000000E+00;  1.6201893E+01;  4.0000000E+04;  0.0000000E+00;  3.8785402E+04;  3.9095682E-01;  0.0000000E+00;  1.9337176E-01;  5.0105102E+04;
  1.7442768E+00;  9.9999998E-03;  9.1299683E-02;9185;  1.2245915E+00;  0.0000000E+00;  5.7035029E-02;  1.0001784E+03;  1.7704618E-01;  1.4608096E+02;3;  2.7102249E+01;  0.0000000E+00; -4.4877043E+00;0;  2.5932160E-01;  1.3161177E+04;  0.0000000E+00;  1.7591092E-01;  4.0000000E+04;  0.0000000E+00;  3.8727277E+04; -2.1970499E-01;  0.0000000E+00;  4.7902659E-01;  2.1120269E+03;
  1.7451624E+00;  9.9999998E-03;  2.2328572E-01;9198;  1.2972172E+00;  0.0000000E+00;  1.0250513E-01;  1.0012954E+03;  1.7714004E-01;  1.0602614E+03;3;  3.0935837E+01;  0.0000000E+00;  3.2352006E+00;0;  5.1374459E-01;  1.3160979E+04;  0.0000000E+00;  1.6639132E+01;  4.0000000E+04;  0.0000000E+00;  3.8761223E+04;  3.1932575E-01;  0.0000000E+00;  1.9441883E-01;  4.7968402E+04;
  1.7446553E+00;  9.9999998E-03;  8.1120692E-02;9184;  1.2221357E+00;  0.0000000E+00;  5.1776428E-02;  1.0001652E+03;  1.7693086E-01;  1.3524022E+02;3;  2.7402063E+01;  0.0000000E+00; -4.3226776E+00;0;  2.6248747E-01;  1.3176378E+04;  0.0000000E+00;  2.6886326E-01;  4.0000000E+04;  0.0000000E+00;  3.8725793E+04; -2.4391182E-01;  0.0000000E+00;  5.0639927E-01;  2.1912458E+03;
  1.7449567E+00;  9.9999998E-03;  7.0963465E-02;9183;  1.2199440E+00;  0.0000000E+00;  4.6284329E-02;  1.0000999E+03;  1.7683807E-01;  8.1764221E+01;3;  2.7593830E+01;  0.0000000E+00; -4.0591745E+00;0;  2.6777649E-01;  1.3186639E+04;  0.0000000E+00;  3.1260929E-01;  4.0000000E+04;  0.0000000E+00;  3.8725484E+04; -2.6427078E-01;  0.0000000E+00;  5.3204727E-01;  2.1831150E+03;
  1.7590733E+00;  9.9999998E-03;  1.8255007E-01;9251;  1.2611554E+00;  0.0000000E+00;  8.5753612E-02;  1.0050408E+03;  1.6863079E-01;  4.1142446E+03;3;  2.8978586E+01;  0.0000000E+00;  1.6714470E+00;0;  2.0401220E-01;  1.4633884E+04;  0.0000000E+00;  5.1691279E+00;  4.0000000E+04;  0.0000000E+00;  3.8663266E+04; -3.7869275E-02;  0.0000000E+00;  2.4188147E-01;  1.5140707E+04;
  1.7590497E+00;  9.9999998E-03;  1.7258848E-01;9250;  1.2542715E+00;  0.0000000E+00;  8.3738878E-02;  1.0042776E+03;  1.6863701E-01;  3.4914585E+03;3;  2.8397932E+01;  0.0000000E+00;  8.1634384E-01;0;  1.9217461E-01;  1.4614954E+04;  0.0000000E+00;  2.3173962E+00;  4.0000000E+04;  0.0000000E+00;  3.8661211E+04; -6.5270305E-02;  0.0000000E+00;  2.5744492E-01;  8.6320127E+03;
  1.7591348E+00;  9.9999998E-03;  1.6264495E-01;9249;  1.2480909E+00;  0.0000000E+00;  8.1514247E-02;  1.0032816E+03;  1.6862391E-01;  2.6783823E+03;3;  2.8093153E+01;  0.0000000E+00;  1.3422740E-01;0;  1.8190005E-01;  1.4590569E+04;  0.0000000E+00;  9.4565010E-01;  4.0000000E+04;  0.0000000E+00;  3.8670914E+04; -9.3593486E-02;  0.0000000E+00;  2.7549353E-01;  5.0672280E+03;
  1.7593079E+00;  9.9999998E-03;  1.9261505E-01;9252;  1.2689158E+00;  0.0000000E+00;  8.7850221E-02;  1.0052708E+03;  1.6859341E-01;  4.3017114E+03;3;  2.9915689E+01;  0.0000000E+00;  2.6440208E+00;0;  2.1704118E-01;  1.4640938E+04;  0.0000000E+00;  1.0163067E+01;  4.0000000E+04;  0.0000000E+00;  3.8678914E+04; -1.1772056E-02;  0.0000000E+00;  2.2881323E-01;  2.7057867E+04;
  1.7592548E+00;  9.9999998E-03;  1.5266772E-01;9248;  1.2425331E+00;  0.0000000E+00;  7.8981027E-02;  1.0021995E+03;  1.6860127E-01;  1.7950760E+03;3;  2.7673981E+01;  0.0000000E+00; -4.5017308E-01;0;  1.7374703E-01;  1.4565216E+04;  0.0000000E+00;  3.2824844E-01;  4.0000000E+04;  0.0000000E+00;  3.8684160E+04; -1.2244400E-01;  0.0000000E+00;  2.9619104E-01;  2.6937761E+03;
  1.7593584E+00;  9.9999998E-03;  1.4262770E-01;9247;  1.2375941E+00;  0.0000000E+00;  7.5910479E-02;  1.0011641E+03;  1.6857897E-01;  9.5005518E+02;3;  2.7695784E+01;  0.0000000E+00; -1.2734119E+00;0;  1.6818495E-01;  1.4542083E+04;  0.0000000E+00;  2.3699345E-02;  4.0000000E+04;  0.0000000E+00;  3.8694977E+04; -1.5132253E-01;  0.0000000E+00;  3.1950748E-01;  1.0224037E+03;
  1.7594481E+00;  9.9999998E-03;  1.3249418E-01;9246;  1.2331845E+00;  0.0000000E+00;  7.2212473E-02;  1.0002833E+03;  1.6855747E-01;  2.3116093E+02;3;  2.7771374E+01;  0.0000000E+00; -2.1443126E+00;0;  1.6528095E-01;  1.4524251E+04;  0.0000000E+00; -1.3537589E-01;  4.0000000E+04;  0.0000000E+00;  3.8701863E+04; -1.7979549E-01;  0.0000000E+00;  3.4507644E-01;  3.8032608E+02;
  1.7598513E+00;  9.9999998E-03;  2.0284142E-01;9253;  1.2776208E+00;  0.0000000E+00;  9.0380669E-02;  1.0043757E+03;  1.6853555E-01;  3.5708071E+03;3;  3.0738459E+01;  0.0000000E+00;  3.8173540E+00;0;  2.3219027E-01;  1.4625869E+04;  0.0000000E+00;  1.6848570E+01;  4.0000000E+04;  0.0000000E+00;  3.8698473E+04;  1.2744495E-02;  0.0000000E+00;  2.1944577E-01;  4.4149066E+04;
  1.7595663E+00;  9.9999998E-03;  1.2226698E-01;9245;  1.2292262E+00;  0.0000000E+00;  6.8008281E-02;  9.9961401E+02;  1.6852628E-01; -3.1501669E+02;3;  2.7825018E+01;  0.0000000E+00; -2.6533246E+00;0;  1.6479929E-01;  1.4514797E+04;  0.0000000E+00; -1.8042222E-01;  4.0000000E+04;  0.0000000E+00;  3.8704672E+04; -2.0732482E-01;  0.0000000E+00;  3.7212411E-01;  7.4205359E+02;
  1.7597598E+00;  9.9999998E-03;  1.1199249E-01;9244;  1.2256737E+00;  0.0000000E+00;  6.3361220E-02;  9.9919714E+02;  1.6847666E-01; -6.5520282E+02;3;  2.8139893E+01;  0.0000000E+00; -2.9503765E+00;0;  1.6640694E-01;  1.4514846E+04;  0.0000000E+00; -1.3244119E-01;  4.0000000E+04;  0.0000000E+00;  3.8704719E+04; -2.3325653E-01;  0.0000000E+00;  3.9966348E-01;  8.1482129E+02;
  1.7604686E+00;  9.9999998E-03;  2.3366532E-01;9256;  1.3048308E+00;  0.0000000E+00;  9.5757782E-02;  9.9549445E+02;  1.6888924E-01; -3.6762905E+03;3;  3.2292477E+01;  0.0000000E+00;  4.1820378E+00;0;  3.2708716E-01;  1.4349100E+04;  0.0000000E+00;  2.3230324E+01;  4.0000000E+04;  0.0000000E+00;  3.8760281E+04;  1.2014683E-01;  0.0000000E+00;  2.0694034E-01;  7.0054203E+04;
  1.7600369E+00;  9.9999998E-03;  1.0171953E-01;9243;  1.2224398E+00;  0.0000000E+00;  5.8470335E-02;  9.9898126E+02;  1.6840893E-01; -8.3133179E+02;3;  2.8490387E+01;  0.0000000E+00; -3.1738243E+00;0;  1.6987211E-01;  1.4522537E+04;  0.0000000E+00; -4.1372597E-02;  4.0000000E+04;  0.0000000E+00;  3.8702926E+04; -2.5703520E-01;  0.0000000E+00;  4.2690730E-01;  6.5262256E+02;
  1.7605795E+00;  9.9999998E-03;  2.1313824E-01;9254;  1.2867292E+00;  0.0000000E+00;  9.2401318E-02;  1.0019126E+03;  1.6850029E-01;  1.5605281E+03;3;  3.1357031E+01;  0.0000000E+00;  4.3024487E+00;0;  2.5119668E-01;  1.4572922E+04;  0.0000000E+00;  2.2576366E+01;  4.0000000E+04;  0.0000000E+00;  3.8713660E+04;  3.7546422E-02;  0.0000000E+00;  2.1365026E-01;  6.0444473E+04;
  1.7603741E+00;  9.9999998E-03;  9.1472365E-02;9242;  1.2194732E+00;  0.0000000E+00;  5.3446479E-02;  9.9891205E+02;  1.6832741E-01; -8.8773462E+02;3;  2.8777170E+01;  0.0000000E+00; -3.2737651E+00;0;  1.7493188E-01;  1.4535140E+04;  0.0000000E+00;  5.0171591E-02;  4.0000000E+04;  0.0000000E+00;  3.8700484E+04; -2.7838090E-01;  0.0000000E+00;  4.5331278E-01;  3.9000708E+02;
  1.7609416E+00;  9.9999998E-03;  2.2340998E-01;9255;  1.2959315E+00;  0.0000000E+00;  9.4140679E-02;  9.9851172E+02;  1.6859560E-01; -1.2142129E+03;3;  3.2259159E+01;  0.0000000E+00;  4.2373390E+00;0;  2.8075936E-01;  1.4474021E+04;  0.0000000E+00;  2.4479618E+01;  4.0000000E+04;  0.0000000E+00;  3.8735734E+04;  7.0398644E-02;  0.0000000E+00;  2.1036072E-01;  6.8883109E+04;
  1.7607294E+00;  9.9999998E-03;  8.1255116E-02;9241;  1.2167666E+00;  0.0000000E+00;  4.8320837E-02;  9.9889050E+02;  1.6824028E-01; -9.0521979E+02;3;  2.9032869E+01;  0.0000000E+00; -3.2288294E+00;0;  1.8123174E-01;  1.4549406E+04;  0.0000000E+00;  1.2570754E-01;  4.0000000E+04;  0.0000000E+00;  3.8697609E+04; -2.9718390E-01;  0.0000000E+00;  4.7841564E-01;  1.3903122E+02;
  1.7610612E+00;  9.9999998E-03;  7.1063548E-02;9240;  1.2143319E+00;  0.0000000E+00;  4.3058079E-02;  9.9889435E+02;  1.6815929E-01; -9.0204010E+02;3;  2.9246988E+01;  0.0000000E+00; -3.0624642E+00;0;  1.8833816E-01;  1.4562432E+04;  0.0000000E+00;  1.7454374E-01;  4.0000000E+04;  0.0000000E+00;  3.8695238E+04; -3.1344879E-01;  0.0000000E+00;  5.0178695E-01;  1.5696027E+02;
  1.7746781E+00;  9.9999998E-03;  1.8241630E-01;9308;  1.2585776E+00;  0.0000000E+00;  7.7867061E-02;  1.0046356E+03;  1.6125700E-01;  3.7690715E+03;3;  2.9816853E+01;  0.0000000E+00;  1.7733157E+00;0;  9.6701488E-02;  1.6013573E+04;  0.0000000E+00;  1.0300401E+01;  4.0000000E+04;  0.0000000E+00;  3.8621695E+04; -1.4356485E-01;  0.0000000E+00;  2.4026634E-01;  2.6374529E+04;
  1.7747439E+00;  9.9999998E-03;  1.9261520E-01;9309;  1.2666119E+00;  0.0000000E+00;  7.9955421E-02;  1.0043945E+03;  1.6128504E-01;  3.5729253E+03;3;  3.0825350E+01;  0.0000000E+00;  2.9004257E+00;0;  1.0175283E-01;  1.5994187E+04;  0.0000000E+00;  1.8047606E+01;  4.0000000E+04;  0.0000000E+00;  3.8645742E+04; -1.2974234E-01;  0.0000000E+00;  2.3149517E-01;  4.4480902E+04;
  1.7748699E+00;  9.9999998E-03;  1.7240816E-01;9307;  1.2515159E+00;  0.0000000E+00;  7.6218612E-02;  1.0040880E+03;  1.6120791E-01;  3.3236177E+03;3;  2.9350883E+01;  0.0000000E+00;  1.0323558E+00;0;  9.2546090E-02;  1.6013879E+04;  0.0000000E+00;  5.2152305E+00;  4.0000000E+04;  0.0000000E+00;  3.8607082E+04; -1.5875994E-01;  0.0000000E+00;  2.5130603E-01;  1.4784984E+04;
  1.7751156E+00;  9.9999998E-03;  1.6249004E-01;9306;  1.2451198E+00;  0.0000000E+00;  7.4590236E-02;  1.0032406E+03;  1.6116017E-01;  2.6345249E+03;3;  2.8987698E+01;  0.0000000E+00;  4.5075485E-01;0;  8.9387193E-02;  1.5999905E+04;  0.0000000E+00;  2.4338186E+00;  4.0000000E+04;  0.0000000E+00;  3.8609090E+04; -1.7516799E-01;  0.0000000E+00;  2.6455519E-01;  8.1851714E+03;
  1.7752563E+00;  9.9999998E-03;  2.3388436E-01;9313;  1.3033981E+00;  0.0000000E+00;  8.7818138E-02;  9.9263409E+02;  1.6177571E-01; -5.9880688E+03;3;  3.3163189E+01;  0.0000000E+00;  4.3527641E+00;0;  1.6693798E-01;  1.5579818E+04;  0.0000000E+00;  2.9265421E+01;  4.0000000E+04;  0.0000000E+00;  3.8718328E+04; -4.6484079E-02;  0.0000000E+00;  2.1342206E-01;  8.5158945E+04;
  1.7752514E+00;  9.9999998E-03;  2.0298034E-01;9310;  1.2755485E+00;  0.0000000E+00;  8.2263276E-02;  1.0025680E+03;  1.6128474E-01;  2.0876550E+03;3;  3.1686579E+01;  0.0000000E+00;  3.8713357E+00;0;  1.0839021E-01;  1.5944158E+04;  0.0000000E+00;  2.6571297E+01;  4.0000000E+04;  0.0000000E+00;  3.8659648E+04; -1.1742589E-01;  0.0000000E+00;  2.2581610E-01;  6.5689445E+04;
  1.7753165E+00;  9.9999998E-03;  1.5257744E-01;9305;  1.2392818E+00;  0.0000000E+00;  7.2676666E-02;  1.0022370E+03;  1.6112280E-01;  1.8185007E+03;3;  2.8790014E+01;  0.0000000E+00;  6.9511265E-02;0;  8.7635234E-02;  1.5975725E+04;  0.0000000E+00;  1.0620869E+00;  4.0000000E+04;  0.0000000E+00;  3.8621723E+04; -1.9292109E-01;  0.0000000E+00;  2.8055632E-01;  4.2000830E+03;
  1.7754422E+00;  9.9999998E-03;  1.4261931E-01;9304;  1.2339408E+00;  0.0000000E+00;  7.0284717E-02;  1.0011677E+03;  1.6109915E-01;  9.4919244E+02;3;  2.8889261E+01;  0.0000000E+00; -1.4420652E-01;0;  8.7599739E-02;  1.5946453E+04;  0.0000000E+00;  4.0713406E-01;  4.0000000E+04;  0.0000000E+00;  3.8636969E+04; -2.1202652E-01;  0.0000000E+00;  2.9962626E-01;  1.5341322E+03;
  1.7754887E+00;  9.9999998E-03;  1.3258350E-01;9303;  1.2290843E+00;  0.0000000E+00;  6.7300066E-02;  1.0001371E+03;  1.6109075E-01;  1.1144024E+02;3;  2.9024481E+01;  0.0000000E+00; -5.9572226E-01;0;  8.9487672E-02;  1.5916533E+04;  0.0000000E+00;  8.4896855E-02;  4.0000000E+04;  0.0000000E+00;  3.8649996E+04; -2.3212272E-01;  0.0000000E+00;  3.2161039E-01;  7.2907373E+02;
  1.7755023E+00;  9.9999998E-03;  1.2244495E-01;9302;  1.2247123E+00;  0.0000000E+00;  6.3607313E-02;  9.9924316E+02;  1.6108872E-01; -6.1524475E+02;3;  2.9263224E+01;  0.0000000E+00; -1.0872178E+00;0;  9.3186677E-02;  1.5891229E+04;  0.0000000E+00; -6.8044990E-02;  4.0000000E+04;  0.0000000E+00;  3.8658262E+04; -2.5265601E-01;  0.0000000E+00;  3.4584269E-01;  1.7406892E+03;
  1.7755405E+00;  9.9999998E-03;  1.1221791E-01;9301;  1.2207726E+00;  0.0000000E+00;  5.9379768E-02;  9.9857037E+02;  1.6108420E-01; -1.1621113E+03;3;  2.9591589E+01;  0.0000000E+00; -1.4685397E+00;0;  9.8376602E-02;  1.5873964E+04;  0.0000000E+00; -1.1117065E-01;  4.0000000E+04;  0.0000000E+00;  3.8661812E+04; -2.7287662E-01;  0.0000000E+00;  3.7125322E-01;  2.3170032E+03;
  1.7756484E+00;  9.9999998E-03;  1.0195134E-01;9300;  1.2172205E+00;  0.0000000E+00;  5.4747000E-02;  9.9812756E+02;  1.6106719E-01; -1.5220127E+03;3;  2.9910427E+01;  0.0000000E+00; -1.7821742E+00;0;  1.0466549E-01;  1.5866279E+04;  0.0000000E+00; -8.7461725E-02;  4.0000000E+04;  0.0000000E+00;  3.8662523E+04; -2.9206815E-01;  0.0000000E+00;  3.9673364E-01;  2.4979583E+03;
  1.7758937E+00;  9.9999998E-03;  2.1332824E-01;9311;  1.2848860E+00;  0.0000000E+00;  8.4109269E-02;  9.9912726E+02;  1.6131650E-01; -7.0935858E+02;3;  3.2548206E+01;  0.0000000E+00;  4.3724065E+00;0;  1.1847480E-01;  1.5847751E+04;  0.0000000E+00;  3.1770109E+01;  4.0000000E+04;  0.0000000E+00;  3.8672449E+04; -1.0365306E-01;  0.0000000E+00;  2.2212785E-01;  8.1258414E+04;
  1.7758489E+00;  9.9999998E-03;  9.1682427E-02;9299;  1.2140064E+00;  0.0000000E+00;  4.9875509E-02;  9.9791321E+02;  1.6103348E-01; -1.6961932E+03;3;  3.0197224E+01;  0.0000000E+00; -2.0767283E+00;0;  1.1164728E-01;  1.5867723E+04;  0.0000000E+00; -4.2499244E-02;  4.0000000E+04;  0.0000000E+00;  3.8660789E+04; -3.0980584E-01;  0.0000000E+00;  4.2145312E-01;  2.4201304E+03;
  1.7759807E+00;  9.9999998E-03;  2.2361808E-01;9312;  1.2943084E+00;  0.0000000E+00;  8.5994467E-02;  9.9532690E+02;  1.6147546E-01; -3.7982366E+03;3;  3.3214840E+01;  0.0000000E+00;  4.3826575E+00;0;  1.3764089E-01;  1.5713700E+04;  0.0000000E+00;  3.1910311E+01;  4.0000000E+04;  0.0000000E+00;  3.8696266E+04; -8.1539221E-02;  0.0000000E+00;  2.1918011E-01;  8.6721039E+04;
  1.7761197E+00;  9.9999998E-03;  8.1430756E-02;9298;  1.2110904E+00;  0.0000000E+00;  4.4874795E-02;  9.9783209E+02;  1.6098480E-01; -1.7619490E+03;3;  3.0448469E+01;  0.0000000E+00; -2.2136891E+00;0;  1.1901090E-01;  1.5875936E+04;  0.0000000E+00; -2.4422319E-03;  4.0000000E+04;  0.0000000E+00;  3.8657715E+04; -3.2583442E-01;  0.0000000E+00;  4.4484532E-01;  2.1942163E+03;
  1.7764294E+00;  9.9999998E-03;  7.1202643E-02;9297;  1.2084590E+00;  0.0000000E+00;  3.9781094E-02;  9.9785217E+02;  1.6092807E-01; -1.7455205E+03;3;  3.0649784E+01;  0.0000000E+00; -2.1871734E+00;0;  1.2643337E-01;  1.5887853E+04;  0.0000000E+00;  2.8544124E-02;  4.0000000E+04;  0.0000000E+00;  3.8654215E+04; -3.4001526E-01;  0.0000000E+00;  4.6644863E-01;  1.9071157E+03;
  1.7893636E+00;  9.9999998E-03;  2.3417148E-01;9369;  1.3018382E+00;  0.0000000E+00;  8.0609255E-02;  9.9034027E+02;  1.5581127E-01; -7.8191006E+03;3;  3.3990280E+01;  0.0000000E+00;  4.2436576E+00;0;  7.3323399E-02;  1.6754152E+04;  0.0000000E+00;  3.3731987E+01;  4.0000000E+04;  0.0000000E+00;  3.8657211E+04; -1.4444627E-01;  0.0000000E+00;  2.1776967E-01;  9.4138844E+04;
  1.7895319E+00;  9.9999998E-03;  1.9278026E-01;9365;  1.2642713E+00;  0.0000000E+00;  7.2604820E-02;  1.0029750E+03;  1.5520765E-01;  2.4079824E+03;3;  3.1686792E+01;  0.0000000E+00;  2.8015139E+00;0;  3.0252442E-02;  1.7257705E+04;  0.0000000E+00;  2.8924921E+01;  4.0000000E+04;  0.0000000E+00;  3.8599711E+04; -2.0144416E-01;  0.0000000E+00;  2.3169661E-01;  6.5689242E+04;
  1.7894616E+00;  9.9999998E-03;  1.8238899E-01;9364;  1.2559139E+00;  0.0000000E+00;  7.0456527E-02;  1.0039860E+03;  1.5515055E-01;  3.2263828E+03;3;  3.0786411E+01;  0.0000000E+00;  1.8536216E+00;0;  2.9515862E-02;  1.7306111E+04;  0.0000000E+00;  1.8512478E+01;  4.0000000E+04;  0.0000000E+00;  3.8578195E+04; -2.0676383E-01;  0.0000000E+00;  2.3627970E-01;  4.2573992E+04;
  1.7903281E+00;  9.9999998E-03;  2.2390063E-01;9368;  1.2926155E+00;  0.0000000E+00;  7.8653693E-02;  9.9214111E+02;  1.5553325E-01; -6.3593286E+03;3;  3.4072662E+01;  0.0000000E+00;  4.3841114E+00;0;  5.3523615E-02;  1.6871588E+04;  0.0000000E+00;  3.7887501E+01;  4.0000000E+04;  0.0000000E+00;  3.8642117E+04; -1.7225808E-01;  0.0000000E+00;  2.2578169E-01;  9.9205844E+04;
  1.7901204E+00;  9.9999998E-03;  2.0324136E-01;9366;  1.2734141E+00;  0.0000000E+00;  7.4550956E-02;  9.9995551E+02;  1.5524450E-01; -3.5983276E+01;3;  3.2696270E+01;  0.0000000E+00;  3.8126996E+00;0;  3.1970993E-02;  1.7165463E+04;  0.0000000E+00;  3.7465332E+01;  4.0000000E+04;  0.0000000E+00;  3.8604199E+04; -1.9717942E-01;  0.0000000E+00;  2.2915041E-01;  8.6927742E+04;
  1.7898446E+00;  9.9999998E-03;  1.7224164E-01;9363;  1.2485605E+00;  0.0000000E+00;  6.8820097E-02;  1.0037141E+03;  1.5506113E-01;  3.0058975E+03;3;  3.0219406E+01;  0.0000000E+00;  1.1194173E+00;0;  2.9058859E-02;  1.7329701E+04;  0.0000000E+00;  1.0400480E+01;  4.0000000E+04;  0.0000000E+00;  3.8549152E+04; -2.1412830E-01;  0.0000000E+00;  2.4318716E-01;  2.5183414E+04;
  1.7905759E+00;  9.9999998E-03;  2.1360314E-01;9367;  1.2829740E+00;  0.0000000E+00;  7.6460868E-02;  9.9577960E+02;  1.5533307E-01; -3.4148420E+03;3;  3.3525108E+01;  0.0000000E+00;  4.3471203E+00;0;  3.8476795E-02;  1.7025027E+04;  0.0000000E+00;  4.0177811E+01;  4.0000000E+04;  0.0000000E+00;  3.8618664E+04; -1.8918100E-01;  0.0000000E+00;  2.2765779E-01;  9.8090047E+04;
  1.7903211E+00;  9.9999998E-03;  1.6227944E-01;9362;  1.2419095E+00;  0.0000000E+00;  6.7368306E-02;  1.0030184E+03;  1.5497188E-01;  2.4424512E+03;3;  3.0055784E+01;  0.0000000E+00;  9.9904269E-01;0;  2.8799310E-02;  1.7334053E+04;  0.0000000E+00;  5.3952069E+00;  4.0000000E+04;  0.0000000E+00;  3.8535684E+04; -2.2324331E-01;  0.0000000E+00;  2.5204262E-01;  1.4380052E+04;
  1.7906978E+00;  9.9999998E-03;  1.5238689E-01;9361;  1.2357569E+00;  0.0000000E+00;  6.5787330E-02;  1.0021631E+03;  1.5490712E-01;  1.7501981E+03;3;  3.0117125E+01;  0.0000000E+00;  9.8278952E-01;0;  2.9341638E-02;  1.7320777E+04;  0.0000000E+00;  2.6354496E+00;  4.0000000E+04;  0.0000000E+00;  3.8540016E+04; -2.3413488E-01;  0.0000000E+00;  2.6347652E-01;  7.9176284E+03;
  1.7909257E+00;  9.9999998E-03;  1.4248857E-01;9360;  1.2300459E+00;  0.0000000E+00;  6.3876510E-02;  1.0011838E+03;  1.5486850E-01;  9.5777893E+02;3;  3.0226425E+01;  0.0000000E+00;  8.5284549E-01;0;  3.1128213E-02;  1.7293709E+04;  0.0000000E+00;  1.2019093E+00;  4.0000000E+04;  0.0000000E+00;  3.8554871E+04; -2.4692596E-01;  0.0000000E+00;  2.7805418E-01;  3.7937996E+03;
  1.7910005E+00;  9.9999998E-03;  1.3253491E-01;9359;  1.2247781E+00;  0.0000000E+00;  6.1542943E-02;  1.0001764E+03;  1.5486106E-01;  1.4273250E+02;3;  3.0380569E+01;  0.0000000E+00;  6.3201833E-01;0;  3.4429729E-02;  1.7258264E+04;  0.0000000E+00;  4.7776198E-01;  4.0000000E+04;  0.0000000E+00;  3.8572633E+04; -2.6149312E-01;  0.0000000E+00;  2.9592285E-01;  1.2850393E+03;
  1.7909647E+00;  9.9999998E-03;  1.2249409E-01;9358;  1.2199850E+00;  0.0000000E+00;  5.8597952E-02;  9.9916559E+02;  1.5486762E-01; -6.7504626E+02;3;  3.0596291E+01;  0.0000000E+00;  2.9044116E-01;0;  3.9251029E-02;  1.7220777E+04;  0.0000000E+00;  1.1735780E-01;  4.0000000E+04;  0.0000000E+00;  3.8587426E+04; -2.7744171E-01;  0.0000000E+00;  3.1669274E-01;  1.7511484E+03;
  1.7908922E+00;  9.9999998E-03;  1.1235654E-01;9357;  1.2156726E+00;  0.0000000E+00;  5.4956436E-02;  9.9830225E+02;  1.5488677E-01; -1.3735621E+03;3;  3.0862684E+01;  0.0000000E+00; -1.5977508E-01;0;  4.5354903E-02;  1.7187600E+04;  0.0000000E+00; -4.8178744E-02;  4.0000000E+04;  0.0000000E+00;  3.8597672E+04; -2.9408348E-01;  0.0000000E+00;  3.3943838E-01;  2.8985337E+03;
  1.7908499E+00;  9.9999998E-03;  1.0213930E-01;9356;  1.2118052E+00;  0.0000000E+00;  5.0795190E-02;  9.9765228E+02;  1.5490535E-01; -1.8994050E+03;3;  3.1109213E+01;  0.0000000E+00; -6.0777557E-01;0;  5.2354306E-02;  1.7163041E+04;  0.0000000E+00; -1.0402088E-01;  4.0000000E+04;  0.0000000E+00;  3.8602914E+04; -3.1058720E-01;  0.0000000E+00;  3.6294150E-01;  3.5725281E+03;
  1.7908885E+00;  9.9999998E-03;  9.1879003E-02;9355;  1.2083406E+00;  0.0000000E+00;  4.6258952E-02;  9.9723169E+02;  1.5490864E-01; -2.2396843E+03;3;  3.1380646E+01;  0.0000000E+00; -9.0895051E-01;0;  5.9804201E-02;  1.7149459E+04;  0.0000000E+00; -1.0506137E-01;  4.0000000E+04;  0.0000000E+00;  3.8604230E+04; -3.2625601E-01;  0.0000000E+00;  3.8606021E-01;  3.8274099E+03;
  1.7910266E+00;  9.9999998E-03;  8.1610203E-02;9354;  1.2052387E+00;  0.0000000E+00;  4.1477639E-02;  9.9701733E+02;  1.5489613E-01; -2.4129773E+03;3;  3.1629494E+01;  0.0000000E+00; -1.1903927E+00;0;  6.7292124E-02;  1.7146529E+04;  0.0000000E+00; -9.0305395E-02;  4.0000000E+04;  0.0000000E+00;  3.8603066E+04; -3.4067684E-01;  0.0000000E+00;  4.0796897E-01;  3.7740862E+03;
  1.7912514E+00;  9.9999998E-03;  7.1352854E-02;9353;  1.2024567E+00;  0.0000000E+00;  3.6571622E-02;  9.9697449E+02;  1.5486956E-01; -2.4474578E+03;3;  3.1843777E+01;  0.0000000E+00; -1.2827834E+00;0;  7.4488163E-02;  1.7152189E+04;  0.0000000E+00; -7.5988896E-02;  4.0000000E+04;  0.0000000E+00;  3.8599672E+04; -3.5361716E-01;  0.0000000E+00;  4.2810532E-01;  3.5158926E+03;
  1.8028611E+00;  9.9999998E-03;  2.3452282E-01;9424;  1.3001529E+00;  0.0000000E+00;  7.4053347E-02;  9.8920618E+02;  1.5078297E-01; -8.6936025E+03;3;  3.4840599E+01;  0.0000000E+00;  3.9703455E+00;0;  1.8736690E-02;  1.7890254E+04;  0.0000000E+00;  3.6383865E+01;  4.0000000E+04;  0.0000000E+00;  3.8572203E+04; -2.0204860E-01;  0.0000000E+00;  2.2078529E-01;  9.6451734E+04;
  1.8036573E+00;  9.9999998E-03;  1.8258387E-01;9419;  1.2532673E+00;  0.0000000E+00;  6.3632853E-02;  1.0028832E+03;  1.5008186E-01;  2.3214456E+03;3;  3.1823162E+01;  0.0000000E+00;  1.9248462E+00;0; -1.8197909E-02;  1.8495178E+04;  0.0000000E+00;  3.0178980E+01;  4.0000000E+04;  0.0000000E+00;  3.8522398E+04; -2.5086775E-01;  0.0000000E+00;  2.3266985E-01;  6.2646402E+04;
  1.8040150E+00;  9.9999998E-03;  2.2425678E-01;9423;  1.2908927E+00;  0.0000000E+00;  7.2092205E-02;  9.8954016E+02;  1.5055729E-01; -8.4206484E+03;3;  3.4911373E+01;  0.0000000E+00;  4.3021655E+00;0;  4.0364712E-03;  1.7960359E+04;  0.0000000E+00;  4.2009468E+01;  4.0000000E+04;  0.0000000E+00;  3.8567289E+04; -2.2787081E-01;  0.0000000E+00;  2.3190728E-01;  1.0555074E+05;
  1.8039503E+00;  9.9999998E-03;  1.9313914E-01;9420;  1.2619501E+00;  0.0000000E+00;  6.5666609E-02;  1.0006241E+03;  1.5014187E-01;  5.0250671E+02;3;  3.2609921E+01;  0.0000000E+00;  2.7572448E+00;0; -1.9547224E-02;  1.8410504E+04;  0.0000000E+00;  4.1363167E+01;  4.0000000E+04;  0.0000000E+00;  3.8528027E+04; -2.5155520E-01;  0.0000000E+00;  2.3200798E-01;  8.6805375E+04;
  1.8040287E+00;  9.9999998E-03;  1.7221473E-01;9418;  1.2455114E+00;  0.0000000E+00;  6.1767362E-02;  1.0031674E+03;  1.4998521E-01;  2.5498801E+03;3;  3.1343145E+01;  0.0000000E+00;  1.5500089E+00;0; -1.6659185E-02;  1.8540160E+04;  0.0000000E+00;  1.8806856E+01;  4.0000000E+04;  0.0000000E+00;  3.8490453E+04; -2.5225678E-01;  0.0000000E+00;  2.3559760E-01;  3.9999602E+04;
  1.8046060E+00;  9.9999998E-03;  2.1396382E-01;9422;  1.2810739E+00;  0.0000000E+00;  6.9623388E-02;  9.9231091E+02;  1.5035133E-01; -6.1885317E+03;3;  3.4589954E+01;  0.0000000E+00;  4.2547421E+00;0; -1.1244789E-02;  1.8102715E+04;  0.0000000E+00;  4.6456154E+01;  4.0000000E+04;  0.0000000E+00;  3.8546973E+04; -2.4418394E-01;  0.0000000E+00;  2.3293915E-01;  1.0866075E+05;
  1.8045104E+00;  9.9999998E-03;  2.0361216E-01;9421;  1.2712867E+00;  0.0000000E+00;  6.7440324E-02;  9.9653192E+02;  1.5021242E-01; -2.7914045E+03;3;  3.3761658E+01;  0.0000000E+00;  3.6750619E+00;0; -1.8841490E-02;  1.8270428E+04;  0.0000000E+00;  4.7142818E+01;  4.0000000E+04;  0.0000000E+00;  3.8529492E+04; -2.5106648E-01;  0.0000000E+00;  2.3222499E-01;  1.0323479E+05;
  1.8047024E+00;  9.9999998E-03;  1.6211689E-01;9417;  1.2385151E+00;  0.0000000E+00;  6.0151912E-02;  1.0026345E+03;  1.4987467E-01;  2.1202144E+03;3;  3.1330853E+01;  0.0000000E+00;  1.5809169E+00;0; -1.5544310E-02;  1.8563912E+04;  0.0000000E+00;  1.0663620E+01;  4.0000000E+04;  0.0000000E+00;  3.8458586E+04; -2.5602236E-01;  0.0000000E+00;  2.4047805E-01;  2.4054740E+04;
  1.8053138E+00;  9.9999998E-03;  1.5217388E-01;9416;  1.2320367E+00;  0.0000000E+00;  5.8645986E-02;  1.0018923E+03;  1.4977768E-01;  1.5225889E+03;3;  3.1389181E+01;  0.0000000E+00;  1.6394943E+00;0; -1.4280751E-02;  1.8568379E+04;  0.0000000E+00;  5.6873136E+00;  4.0000000E+04;  0.0000000E+00;  3.8446727E+04; -2.6194492E-01;  0.0000000E+00;  2.4766417E-01;  1.4064893E+04;
  1.8057383E+00;  9.9999998E-03;  1.4227967E-01;9415;  1.2259923E+00;  0.0000000E+00;  5.7019249E-02;  1.0010884E+03;  1.4971443E-01;  8.7556732E+02;3;  3.1469448E+01;  0.0000000E+00;  1.6116579E+00;0; -1.2323350E-02;  1.8553918E+04;  0.0000000E+00;  2.8451290E+00;  4.0000000E+04;  0.0000000E+00;  3.8453473E+04; -2.7006438E-01;  0.0000000E+00;  2.5774103E-01;  7.7860840E+03;
  1.8059560E+00;  9.9999998E-03;  1.3237193E-01;9414;  1.2203797E+00;  0.0000000E+00;  5.5097964E-02;  1.0001879E+03;  1.4968306E-01;  1.5112457E+02;3;  3.1564875E+01;  0.0000000E+00;  1.5018836E+00;0; -9.2764795E-03;  1.8523816E+04;  0.0000000E+00;  1.2887543E+00;  4.0000000E+04;  0.0000000E+00;  3.8470406E+04; -2.8035244E-01;  0.0000000E+00;  2.7107596E-01;  3.6268367E+03;
  1.8056480E+00;  9.9999998E-03;  8.1754565E-02;9409;  1.1993551E+00;  0.0000000E+00;  3.8037304E-02;  9.9648676E+02;  1.4976212E-01; -2.8263777E+03;3;  3.2594421E+01;  0.0000000E+00; -1.2186504E-01;0;  2.1673620E-02;  1.8358461E+04;  0.0000000E+00; -1.3788205E-01;  4.0000000E+04;  0.0000000E+00;  3.8529027E+04; -3.4728944E-01;  0.0000000E+00;  3.6896306E-01;  4.6103628E+03;
  1.8057219E+00;  9.9999998E-03;  7.1487725E-02;9408;  1.1964453E+00;  0.0000000E+00;  3.3423822E-02;  9.9631110E+02;  1.4976640E-01; -2.9676475E+03;3;  3.2811321E+01;  0.0000000E+00; -3.9898318E-01;0;  2.8587461E-02;  1.8352408E+04;  0.0000000E+00; -1.2197641E-01;  4.0000000E+04;  0.0000000E+00;  3.8527996E+04; -3.5915825E-01;  0.0000000E+00;  3.8774571E-01;  4.5747310E+03;
  1.8056762E+00;  9.9999998E-03;  9.2009626E-02;9410;  1.2026463E+00;  0.0000000E+00;  4.2418793E-02;  9.9687006E+02;  1.4974359E-01; -2.5180176E+03;3;  3.2362762E+01;  0.0000000E+00;  1.8794620E-01;0;  1.4411122E-02;  1.8376137E+04;  0.0000000E+00; -1.3770179E-01;  4.0000000E+04;  0.0000000E+00;  3.8526320E+04; -3.3419666E-01;  0.0000000E+00;  3.4860778E-01;  4.2899941E+03;
  1.8057778E+00;  9.9999998E-03;  1.0222286E-01;9411;  1.2063600E+00;  0.0000000E+00;  4.6439949E-02;  9.9748083E+02;  1.4971901E-01; -2.0265739E+03;3;  3.2140324E+01;  0.0000000E+00;  6.0691637E-01;0;  7.2496831E-03;  1.8405020E+04;  0.0000000E+00; -8.6004995E-02;  4.0000000E+04;  0.0000000E+00;  3.8519164E+04; -3.2024452E-01;  0.0000000E+00;  3.2749420E-01;  3.5135203E+03;
  1.8059839E+00;  9.9999998E-03;  1.2240838E-01;9413;  1.2152195E+00;  0.0000000E+00;  5.2830603E-02;  9.9923370E+02;  1.4968009E-01; -6.1638159E+02;3;  3.1729280E+01;  0.0000000E+00;  1.3005819E+00;0; -4.9241185E-03;  1.8484137E+04;  0.0000000E+00;  4.7607017E-01;  4.0000000E+04;  0.0000000E+00;  3.8489914E+04; -2.9253474E-01;  0.0000000E+00;  2.8761062E-01;  1.3201649E+03;
  1.8058960E+00;  9.9999998E-03;  1.1236204E-01;9412;  1.2105447E+00;  0.0000000E+00;  4.9962245E-02;  9.9828986E+02;  1.4969347E-01; -1.3756425E+03;3;  3.1933844E+01;  0.0000000E+00;  1.0148445E+00;0;  6.8283081E-04;  1.8442416E+04;  0.0000000E+00;  8.1654586E-02;  4.0000000E+04;  0.0000000E+00;  3.8506926E+04; -3.0608127E-01;  0.0000000E+00;  3.0676410E-01;  2.2408882E+03;
  1.8158656E+00;  9.9999998E-03;  2.3492651E-01;9478;  1.2983350E+00;  0.0000000E+00;  6.8081349E-02;  9.8982123E+02;  1.4651625E-01; -8.1510771E+03;3;  3.5578186E+01;  0.0000000E+00;  3.6536160E+00;0; -1.0719135E-02;  1.9014877E+04;  0.0000000E+00;  3.6337032E+01;  4.0000000E+04;  0.0000000E+00;  3.8462227E+04; -2.3373076E-01;  0.0000000E+00;  2.2301163E-01;  9.0862492E+04;
  1.8171532E+00;  9.9999998E-03;  2.2467189E-01;9477;  1.2891045E+00;  0.0000000E+00;  6.6186331E-02;  9.8822650E+02;  1.4636014E-01; -9.4222480E+03;3;  3.5737789E+01;  0.0000000E+00;  4.0689750E+00;0; -2.3441032E-02;  1.9006600E+04;  0.0000000E+00;  4.3532738E+01;  4.0000000E+04;  0.0000000E+00;  3.8469656E+04; -2.6161826E-01;  0.0000000E+00;  2.3817722E-01;  1.0449066E+05;
  1.8176225E+00;  9.9999998E-03;  1.8304044E-01;9473;  1.2506912E+00;  0.0000000E+00;  5.7268698E-02;  1.0008407E+03;  1.4584914E-01;  6.7262000E+02;3;  3.2959274E+01;  0.0000000E+00;  2.2100391E+00;0; -5.5160210E-02;  1.9566242E+04;  0.0000000E+00;  4.3948128E+01;  4.0000000E+04;  0.0000000E+00;  3.8437211E+04; -2.8613004E-01;  0.0000000E+00;  2.3096983E-01;  8.3127891E+04;
  1.8176730E+00;  9.9999998E-03;  1.7244363E-01;9472;  1.2424909E+00;  0.0000000E+00;  5.5255197E-02;  1.0023250E+03;  1.4577220E-01;  1.8601503E+03;3;  3.2510490E+01;  0.0000000E+00;  1.9521837E+00;0; -5.2909762E-02;  1.9640277E+04;  0.0000000E+00;  3.1141565E+01;  4.0000000E+04;  0.0000000E+00;  3.8423188E+04; -2.8276420E-01;  0.0000000E+00;  2.2985443E-01;  5.8772430E+04;
  1.8180244E+00;  9.9999998E-03;  2.1439230E-01;9476;  1.2791616E+00;  0.0000000E+00;  6.3486017E-02;  9.8939984E+02;  1.4618483E-01; -8.4795479E+03;3;  3.5584255E+01;  0.0000000E+00;  4.2049627E+00;0; -4.1965246E-02;  1.9100482E+04;  0.0000000E+00;  4.9789829E+01;  4.0000000E+04;  0.0000000E+00;  3.8455695E+04; -2.8064865E-01;  0.0000000E+00;  2.3868340E-01;  1.1185903E+05;
  1.8180841E+00;  9.9999998E-03;  1.9363289E-01;9474;  1.2596188E+00;  0.0000000E+00;  5.9097458E-02;  9.9716327E+02;  1.4591715E-01; -2.2691428E+03;3;  3.3692684E+01;  0.0000000E+00;  2.8166595E+00;0; -5.6364059E-02;  1.9433514E+04;  0.0000000E+00;  5.2232700E+01;  4.0000000E+04;  0.0000000E+00;  3.8430055E+04; -2.9001468E-01;  0.0000000E+00;  2.3365062E-01;  1.0250127E+05;
  1.8183445E+00;  9.9999998E-03;  2.0406364E-01;9475;  1.2691542E+00;  0.0000000E+00;  6.0987342E-02;  9.9277325E+02;  1.4602584E-01; -5.7800991E+03;3;  3.4759064E+01;  0.0000000E+00;  3.5627329E+00;0; -5.3426385E-02;  1.9260520E+04;  0.0000000E+00;  5.3566936E+01;  4.0000000E+04;  0.0000000E+00;  3.8436812E+04; -2.8960916E-01;  0.0000000E+00;  2.3618278E-01;  1.1184652E+05;
  1.8183386E+00;  9.9999998E-03;  1.6210513E-01;9471;  1.2350696E+00;  0.0000000E+00;  5.3342264E-02;  1.0021455E+03;  1.4566149E-01;  1.7160382E+03;3;  3.2320759E+01;  0.0000000E+00;  1.8207930E+00;0; -5.1119864E-02;  1.9680479E+04;  0.0000000E+00;  1.9380911E+01;  4.0000000E+04;  0.0000000E+00;  3.8384379E+04; -2.8208065E-01;  0.0000000E+00;  2.3096079E-01;  3.7776977E+04;
  1.8191642E+00;  9.9999998E-03;  1.5201968E-01;9470;  1.2282594E+00;  0.0000000E+00;  5.1622648E-02;  1.0014817E+03;  1.4554897E-01;  1.1845642E+03;3;  3.2340687E+01;  0.0000000E+00;  1.8481737E+00;0; -4.9676582E-02;  1.9702803E+04;  0.0000000E+00;  1.1175570E+01;  4.0000000E+04;  0.0000000E+00;  3.8352820E+04; -2.8390229E-01;  0.0000000E+00;  2.3422571E-01;  2.3225195E+04;
  1.8198512E+00;  9.9999998E-03;  1.4206147E-01;9469;  1.2219144E+00;  0.0000000E+00;  5.0043758E-02;  1.0007952E+03;  1.4545710E-01;  6.3547247E+02;3;  3.2470478E+01;  0.0000000E+00;  2.0000646E+00;0; -4.7983661E-02;  1.9707303E+04;  0.0000000E+00;  6.0523415E+00;  4.0000000E+04;  0.0000000E+00;  3.8342465E+04; -2.8798735E-01;  0.0000000E+00;  2.4000369E-01;  1.3839721E+04;
  1.8203043E+00;  9.9999998E-03;  1.3213968E-01;9468;  1.2159984E+00;  0.0000000E+00;  4.8371252E-02;  1.0000726E+03;  1.4539640E-01;  5.8007946E+01;3;  3.2592697E+01;  0.0000000E+00;  2.0508409E+00;0; -4.5594409E-02;  1.9692957E+04;  0.0000000E+00;  3.0062048E+00;  4.0000000E+04;  0.0000000E+00;  3.8350594E+04; -2.9429188E-01;  0.0000000E+00;  2.4869747E-01;  7.7095068E+03;
  1.8199863E+00;  9.9999998E-03;  7.1579538E-02;9462;  1.1905369E+00;  0.0000000E+00;  3.0239347E-02;  9.9594244E+02;  1.4546643E-01; -3.2425911E+03;3;  3.3619423E+01;  0.0000000E+00;  4.8830611E-01;0; -1.2405872E-02;  1.9486781E+04;  0.0000000E+00; -1.3520496E-01;  4.0000000E+04;  0.0000000E+00;  3.8434504E+04; -3.5828456E-01;  0.0000000E+00;  3.4587869E-01;  4.8444062E+03;
  1.8200836E+00;  9.9999998E-03;  8.1828073E-02;9463;  1.1935804E+00;  0.0000000E+00;  3.4374498E-02;  9.9628369E+02;  1.4543845E-01; -2.9697427E+03;3;  3.3451092E+01;  0.0000000E+00;  8.5099095E-01;0; -1.8949538E-02;  1.9507314E+04;  0.0000000E+00; -1.6925201E-01;  4.0000000E+04;  0.0000000E+00;  3.8430816E+04; -3.4756300E-01;  0.0000000E+00;  3.2861346E-01;  4.4729165E+03;
  1.8202480E+00;  9.9999998E-03;  9.2037655E-02;9464;  1.1970643E+00;  0.0000000E+00;  3.8183723E-02;  9.9683789E+02;  1.4540680E-01; -2.5266572E+03;3;  3.3248859E+01;  0.0000000E+00;  1.2447708E+00;0; -2.5664210E-02;  1.9538988E+04;  0.0000000E+00; -1.5612732E-01;  4.0000000E+04;  0.0000000E+00;  3.8422117E+04; -3.3598915E-01;  0.0000000E+00;  3.1032494E-01;  3.6327705E+03;
  1.8205184E+00;  9.9999998E-03;  1.2220887E-01;9467;  1.2105275E+00;  0.0000000E+00;  4.6472184E-02;  9.9926324E+02;  1.4536525E-01; -5.8863495E+02;3;  3.2727940E+01;  0.0000000E+00;  2.0252523E+00;0; -4.2188168E-02;  1.9662621E+04;  0.0000000E+00;  1.2845522E+00;  4.0000000E+04;  0.0000000E+00;  3.8368652E+04; -3.0267745E-01;  0.0000000E+00;  2.6048928E-01;  3.5643936E+03;
  1.8205234E+00;  9.9999998E-03;  1.1223548E-01;9466;  1.2055395E+00;  0.0000000E+00;  4.4284176E-02;  9.9841827E+02;  1.4536467E-01; -1.2636974E+03;3;  3.2870575E+01;  0.0000000E+00;  1.8639816E+00;0; -3.7621588E-02;  1.9621787E+04;  0.0000000E+00;  3.8821435E-01;  4.0000000E+04;  0.0000000E+00;  3.8389340E+04; -3.1280527E-01;  0.0000000E+00;  2.7518368E-01;  1.2672274E+03;
  1.8204128E+00;  9.9999998E-03;  1.0218096E-01;9465;  1.2010454E+00;  0.0000000E+00;  4.1522406E-02;  9.9757880E+02;  1.4538005E-01; -1.9344906E+03;3;  3.3062706E+01;  0.0000000E+00;  1.6108044E+00;0; -3.2025039E-02;  1.9578756E+04;  0.0000000E+00; -1.7043810E-02;  4.0000000E+04;  0.0000000E+00;  3.8408125E+04; -3.2415104E-01;  0.0000000E+00;  2.9212600E-01;  2.2923547E+03;
  1.8285244E+00;  9.9999998E-03;  2.3536938E-01;9531;  1.2963065E+00;  0.0000000E+00;  6.2329661E-02;  9.9238593E+02;  1.4287677E-01; -6.0567671E+03;3;  3.6429245E+01;  0.0000000E+00;  3.5833981E+00;0; -2.6782364E-02;  2.0148465E+04;  0.0000000E+00;  3.1575502E+01;  4.0000000E+04;  0.0000000E+00;  3.8329109E+04; -2.4792515E-01;  0.0000000E+00;  2.2114278E-01;  7.5330555E+04;
  1.8298481E+00;  9.9999998E-03;  2.2513378E-01;9530;  1.2871590E+00;  0.0000000E+00;  6.0534865E-02;  9.8878143E+02;  1.4279261E-01; -8.9171963E+03;3;  3.6655422E+01;  0.0000000E+00;  3.9942188E+00;0; -3.9025888E-02;  2.0045857E+04;  0.0000000E+00;  4.1670467E+01;  4.0000000E+04;  0.0000000E+00;  3.8346738E+04; -2.8037781E-01;  0.0000000E+00;  2.4135192E-01;  9.5260398E+04;
  1.8308990E+00;  9.9999998E-03;  2.1487477E-01;9529;  1.2772144E+00;  0.0000000E+00;  5.7800665E-02;  9.8787622E+02;  1.4267300E-01; -9.6307803E+03;3;  3.6468777E+01;  0.0000000E+00;  4.0844150E+00;0; -6.0977742E-02;  2.0057045E+04;  0.0000000E+00;  5.0005608E+01;  4.0000000E+04;  0.0000000E+00;  3.8340855E+04; -3.0455947E-01;  0.0000000E+00;  2.4358173E-01;  1.0761837E+05;
  1.8311614E+00;  9.9999998E-03;  1.7299388E-01;9525;  1.2396408E+00;  0.0000000E+00;  4.9290571E-02;  1.0006301E+03;  1.4224428E-01;  5.0039349E+02;3;  3.3584766E+01;  0.0000000E+00;  2.2574210E+00;0; -8.4258661E-02;  2.0624971E+04;  0.0000000E+00;  4.6307030E+01;  4.0000000E+04;  0.0000000E+00;  3.8325535E+04; -3.1096843E-01;  0.0000000E+00;  2.2670977E-01;  7.8599391E+04;
  1.8315521E+00;  9.9999998E-03;  2.0457813E-01;9528;  1.2670680E+00;  0.0000000E+00;  5.5059206E-02;  9.8960162E+02;  1.4253637E-01; -8.2569902E+03;3;  3.5695919E+01;  0.0000000E+00;  3.5389228E+00;0; -7.7849388E-02;  2.0166656E+04;  0.0000000E+00;  5.6437401E+01;  4.0000000E+04;  0.0000000E+00;  3.8322504E+04; -3.1816411E-01;  0.0000000E+00;  2.4031472E-01;  1.1288301E+05;
  1.8314323E+00;  9.9999998E-03;  1.8367989E-01;9526;  1.2481854E+00;  0.0000000E+00;  5.1176932E-02;  9.9749890E+02;  1.4231284E-01; -1.9861527E+03;3;  3.3996479E+01;  0.0000000E+00;  2.4164801E+00;0; -8.6009145E-02;  2.0503504E+04;  0.0000000E+00;  5.6316608E+01;  4.0000000E+04;  0.0000000E+00;  3.8315406E+04; -3.1751594E-01;  0.0000000E+00;  2.3150679E-01;  9.8658570E+04;
  1.8317087E+00;  9.9999998E-03;  1.9420196E-01;9527;  1.2573118E+00;  0.0000000E+00;  5.2922316E-02;  9.9322650E+02;  1.4240809E-01; -5.3780708E+03;3;  3.4695759E+01;  0.0000000E+00;  2.7915854E+00;0; -8.5097060E-02;  2.0333896E+04;  0.0000000E+00;  5.9373810E+01;  4.0000000E+04;  0.0000000E+00;  3.8309922E+04; -3.2145861E-01;  0.0000000E+00;  2.3636155E-01;  1.1031287E+05;
  1.8314818E+00;  9.9999998E-03;  1.6237417E-01;9524;  1.2317715E+00;  0.0000000E+00;  4.7168430E-02;  1.0015215E+03;  1.4215823E-01;  1.2081943E+03;3;  3.3287804E+01;  0.0000000E+00;  2.1186669E+00;0; -8.2065701E-02;  2.0689188E+04;  0.0000000E+00;  3.2592697E+01;  4.0000000E+04;  0.0000000E+00;  3.8305227E+04; -3.0587685E-01;  0.0000000E+00;  2.2381115E-01;  5.5534484E+04;
  1.8323386E+00;  9.9999998E-03;  1.5203232E-01;9523;  1.2245830E+00;  0.0000000E+00;  4.5110218E-02;  1.0010767E+03;  1.4204839E-01;  8.5456537E+02;3;  3.3318325E+01;  0.0000000E+00;  2.2133002E+00;0; -8.0376342E-02;  2.0724213E+04;  0.0000000E+00;  2.0478523E+01;  4.0000000E+04;  0.0000000E+00;  3.8264941E+04; -3.0361512E-01;  0.0000000E+00;  2.2323878E-01;  3.6227848E+04;
  1.8332727E+00;  9.9999998E-03;  1.4191903E-01;9522;  1.2179321E+00;  0.0000000E+00;  4.3301642E-02;  1.0003933E+03;  1.4193703E-01;  3.1195941E+02;3;  3.3391479E+01;  0.0000000E+00;  2.2809663E+00;0; -7.8837216E-02;  2.0745668E+04;  0.0000000E+00;  1.1948062E+01;  4.0000000E+04;  0.0000000E+00;  3.8234660E+04; -3.0380720E-01;  0.0000000E+00;  2.2496998E-01;  2.2658527E+04;
  1.8340224E+00;  9.9999998E-03;  1.3191915E-01;9521;  1.2117358E+00;  0.0000000E+00;  4.1644096E-02;  9.9976154E+02;  1.4184806E-01; -1.8908408E+02;3;  3.3501663E+01;  0.0000000E+00;  2.4114077E+00;0; -7.6965928E-02;  2.0751428E+04;  0.0000000E+00;  6.4545064E+00;  4.0000000E+04;  0.0000000E+00;  3.8224816E+04; -3.0615076E-01;  0.0000000E+00;  2.2918484E-01;  1.3636417E+04;
  1.8345143E+00;  9.9999998E-03;  1.2196226E-01;9520;  1.2059892E+00;  0.0000000E+00;  3.9932888E-02;  9.9914026E+02;  1.4178890E-01; -6.8145990E+02;3;  3.3621304E+01;  0.0000000E+00;  2.4179525E+00;0; -7.4403211E-02;  2.0739744E+04;  0.0000000E+00;  3.0893555E+00;  4.0000000E+04;  0.0000000E+00;  3.8232102E+04; -3.1052828E-01;  0.0000000E+00;  2.3612507E-01;  7.6227485E+03;
  1.8341385E+00;  9.9999998E-03;  7.1607195E-02;9515;  1.1848252E+00;  0.0000000E+00;  2.6859665E-02;  9.9586694E+02;  1.4184359E-01; -3.2767664E+03;3;  3.4328873E+01;  0.0000000E+00;  1.2185900E+00;0; -4.9223274E-02;  2.0554748E+04;  0.0000000E+00; -2.0125598E-01;  4.0000000E+04;  0.0000000E+00;  3.8314953E+04; -3.5214213E-01;  0.0000000E+00;  3.0291885E-01;  4.1904517E+03;
  1.8343782E+00;  9.9999998E-03;  8.1812039E-02;9516;  1.1880147E+00;  0.0000000E+00;  3.0365070E-02;  9.9637787E+02;  1.4180988E-01; -2.8712649E+03;3;  3.4172855E+01;  0.0000000E+00;  1.6657866E+00;0; -5.5221200E-02;  2.0588734E+04;  0.0000000E+00; -2.6442155E-01;  4.0000000E+04;  0.0000000E+00;  3.8305219E+04; -3.4293669E-01;  0.0000000E+00;  2.8771549E-01;  3.3285608E+03;
  1.8347417E+00;  9.9999998E-03;  1.1200742E-01;9519;  1.2007220E+00;  0.0000000E+00;  3.8097735E-02;  9.9846918E+02;  1.4176127E-01; -1.2132186E+03;3;  3.3716442E+01;  0.0000000E+00;  2.4064252E+00;0; -7.0909634E-02;  2.0711727E+04;  0.0000000E+00;  1.1650857E+00;  4.0000000E+04;  0.0000000E+00;  3.8249785E+04; -3.1678346E-01;  0.0000000E+00;  2.4587382E-01;  3.5382805E+03;
  1.8347365E+00;  9.9999998E-03;  1.0202003E-01;9518;  1.1959623E+00;  0.0000000E+00;  3.6021747E-02;  9.9775317E+02;  1.4176193E-01; -1.7806498E+03;3;  3.3853466E+01;  0.0000000E+00;  2.2419124E+00;0; -6.6410661E-02;  2.0672562E+04;  0.0000000E+00;  1.9338037E-01;  4.0000000E+04;  0.0000000E+00;  3.8270750E+04; -3.2461128E-01;  0.0000000E+00;  2.5820062E-01;  1.1135361E+03;
  1.8345948E+00;  9.9999998E-03;  9.1957159E-02;9517;  1.1917235E+00;  0.0000000E+00;  3.3445414E-02;  9.9702557E+02;  1.4177869E-01; -2.3575427E+03;3;  3.4010113E+01;  0.0000000E+00;  1.9695992E+00;0; -6.1084211E-02;  2.0629607E+04;  0.0000000E+00; -1.9286858E-01;  4.0000000E+04;  0.0000000E+00;  3.8289898E+04; -3.3354083E-01;  0.0000000E+00;  2.7245662E-01;  1.9956975E+03;
  1.8410149E+00;  9.9999998E-03;  2.3583230E-01;9583;  1.2939883E+00;  0.0000000E+00;  5.6569047E-02;  9.9649481E+02;  1.3976884E-01; -2.7666875E+03;3;  3.7274414E+01;  0.0000000E+00;  3.6489482E+00;0; -3.5207212E-02;  2.1283758E+04;  0.0000000E+00;  1.9868010E+01;  4.0000000E+04;  0.0000000E+00;  3.8181922E+04; -2.4789646E-01;  0.0000000E+00;  2.1268925E-01;  4.8906352E+04;
  1.8422471E+00;  9.9999998E-03;  2.2562236E-01;9582;  1.2850477E+00;  0.0000000E+00;  5.4946285E-02;  9.9152014E+02;  1.3974123E-01; -6.6876748E+03;3;  3.7494049E+01;  0.0000000E+00;  3.9980180E+00;0; -4.7086790E-02;  2.1103332E+04;  0.0000000E+00;  3.4470860E+01;  4.0000000E+04;  0.0000000E+00;  3.8203348E+04; -2.8606728E-01;  0.0000000E+00;  2.3898049E-01;  7.6486914E+04;
  1.8433658E+00;  9.9999998E-03;  2.1538860E-01;9581;  1.2752101E+00;  0.0000000E+00;  5.2343924E-02;  9.8843903E+02;  1.3968439E-01; -9.1106133E+03;3;  3.7244770E+01;  0.0000000E+00;  3.9760518E+00;0; -7.1706548E-02;  2.1014131E+04;  0.0000000E+00;  4.6188309E+01;  4.0000000E+04;  0.0000000E+00;  3.8204391E+04; -3.1712446E-01;  0.0000000E+00;  2.4541791E-01;  9.5230344E+04;
  1.8442274E+00;  9.9999998E-03;  2.0512541E-01;9580;  1.2650136E+00;  0.0000000E+00;  4.9489290E-02;  9.8795813E+02;  1.3959481E-01; -9.4838750E+03;3;  3.6634068E+01;  0.0000000E+00;  3.5664825E+00;0; -9.4724774E-02;  2.1036678E+04;  0.0000000E+00;  5.5718170E+01;  4.0000000E+04;  0.0000000E+00;  3.8188754E+04; -3.3769330E-01;  0.0000000E+00;  2.4296853E-01;  1.0651297E+05;
  1.8446577E+00;  9.9999998E-03;  1.7376183E-01;9577;  1.2369683E+00;  0.0000000E+00;  4.3621495E-02;  9.9745203E+02;  1.3928558E-01; -2.0061183E+03;3;  3.4684357E+01;  0.0000000E+00;  2.6154776E+00;0; -1.1247228E-01;  2.1475783E+04;  0.0000000E+00;  6.0257030E+01;  4.0000000E+04;  0.0000000E+00;  3.8185004E+04; -3.3852169E-01;  0.0000000E+00;  2.2604941E-01;  9.3827055E+04;
  1.8446075E+00;  9.9999998E-03;  1.6300099E-01;9576;  1.2287216E+00;  0.0000000E+00;  4.1581500E-02;  1.0000562E+03;  1.3920927E-01;  4.4302486E+01;3;  3.4338947E+01;  0.0000000E+00;  2.4981632E+00;0; -1.1081178E-01;  2.1586240E+04;  0.0000000E+00;  4.9174255E+01;  4.0000000E+04;  0.0000000E+00;  3.8196969E+04; -3.3002385E-01;  0.0000000E+00;  2.1921207E-01;  7.4486539E+04;
  1.8447270E+00;  9.9999998E-03;  1.9480523E-01;9579;  1.2551293E+00;  0.0000000E+00;  4.7212474E-02;  9.8992065E+02;  1.3948387E-01; -7.9354351E+03;3;  3.5763451E+01;  0.0000000E+00;  3.0317464E+00;0; -1.0713580E-01;  2.1152285E+04;  0.0000000E+00;  6.2528305E+01;  4.0000000E+04;  0.0000000E+00;  3.8171352E+04; -3.4631211E-01;  0.0000000E+00;  2.3917630E-01;  1.1049396E+05;
  1.8448348E+00;  9.9999998E-03;  1.8437299E-01;9578;  1.2457852E+00;  0.0000000E+00;  4.5421038E-02;  9.9352490E+02;  1.3937455E-01; -5.0974404E+03;3;  3.5081867E+01;  0.0000000E+00;  2.7089930E+00;0; -1.1181244E-01;  2.1316236E+04;  0.0000000E+00;  6.4617615E+01;  4.0000000E+04;  0.0000000E+00;  3.8169105E+04; -3.4532601E-01;  0.0000000E+00;  2.3351356E-01;  1.0630585E+05;
  1.8451408E+00;  9.9999998E-03;  1.5234578E-01;9575;  1.2211117E+00;  0.0000000E+00;  3.9279778E-02;  1.0006024E+03;  1.3912296E-01;  4.7410175E+02;3;  3.4193153E+01;  0.0000000E+00;  2.4504311E+00;0; -1.0881737E-01;  2.1642369E+04;  0.0000000E+00;  3.4801502E+01;  4.0000000E+04;  0.0000000E+00;  3.8175582E+04; -3.2332033E-01;  0.0000000E+00;  2.1450296E-01;  5.3113410E+04;
  1.8461229E+00;  9.9999998E-03;  1.4196610E-01;9574;  1.2141163E+00;  0.0000000E+00;  3.7095852E-02;  1.0000446E+03;  1.3901889E-01;  3.5066246E+01;3;  3.4226021E+01;  0.0000000E+00;  2.5244846E+00;0; -1.0709582E-01;  2.1673498E+04;  0.0000000E+00;  2.2118774E+01;  4.0000000E+04;  0.0000000E+00;  3.8136039E+04; -3.1930590E-01;  0.0000000E+00;  2.1221007E-01;  3.5164750E+04;
  1.8471478E+00;  9.9999998E-03;  1.3180555E-01;9573;  1.2076561E+00;  0.0000000E+00;  3.5214033E-02;  9.9937994E+02;  1.3891643E-01; -4.8733139E+02;3;  3.4334385E+01;  0.0000000E+00;  2.6683578E+00;0; -1.0536958E-01;  2.1694834E+04;  0.0000000E+00;  1.2939756E+01;  4.0000000E+04;  0.0000000E+00;  3.8105281E+04; -3.1753960E-01;  0.0000000E+00;  2.1217002E-01;  2.2197205E+04;
  1.8479670E+00;  9.9999998E-03;  1.2176354E-01;9572;  1.2016646E+00;  0.0000000E+00;  3.3508874E-02;  9.9884186E+02;  1.3883181E-01; -9.0965814E+02;3;  3.4409988E+01;  0.0000000E+00;  2.6999371E+00;0; -1.0328455E-01;  2.1704178E+04;  0.0000000E+00;  6.8548951E+00;  4.0000000E+04;  0.0000000E+00;  3.8093516E+04; -3.1772968E-01;  0.0000000E+00;  2.1444513E-01;  1.3359920E+04;
  1.8482535E+00;  9.9999998E-03;  7.1580783E-02;9567;  1.1794027E+00;  0.0000000E+00;  2.3183145E-02;  9.9606641E+02;  1.3880301E-01; -3.0890488E+03;3;  3.4893826E+01;  0.0000000E+00;  1.8307357E+00;0; -8.2522899E-02;  2.1556330E+04;  0.0000000E+00; -4.6346912E-01;  4.0000000E+04;  0.0000000E+00;  3.8167531E+04; -3.4205428E-01;  0.0000000E+00;  2.5953138E-01;  2.7117151E+03;
  1.8485019E+00;  9.9999998E-03;  1.1177317E-01;9571;  1.1961565E+00;  0.0000000E+00;  3.1856366E-02;  9.9835022E+02;  1.3877651E-01; -1.2953419E+03;3;  3.4485306E+01;  0.0000000E+00;  2.6356547E+00;0; -1.0056086E-01;  2.1697463E+04;  0.0000000E+00;  3.0640442E+00;  4.0000000E+04;  0.0000000E+00;  3.8098113E+04; -3.1976777E-01;  0.0000000E+00;  2.1920691E-01;  7.4466245E+03;
  1.8485328E+00;  9.9999998E-03;  8.1724860E-02;9568;  1.1827768E+00;  0.0000000E+00;  2.5922945E-02;  9.9664740E+02;  1.3877030E-01; -2.6322275E+03;3;  3.4789539E+01;  0.0000000E+00;  2.1636984E+00;0; -8.7757304E-02;  2.1597578E+04;  0.0000000E+00; -4.8444048E-01;  4.0000000E+04;  0.0000000E+00;  3.8152008E+04; -3.3514091E-01;  0.0000000E+00;  2.4738361E-01;  1.4509111E+03;
  1.8487427E+00;  9.9999998E-03;  1.0179494E-01;9570;  1.1911523E+00;  0.0000000E+00;  3.0103739E-02;  9.9782648E+02;  1.3874908E-01; -1.7062576E+03;3;  3.4593102E+01;  0.0000000E+00;  2.6256404E+00;0; -9.7037777E-02;  2.1674686E+04;  0.0000000E+00;  9.0590882E-01;  4.0000000E+04;  0.0000000E+00;  3.8113469E+04; -3.2353121E-01;  0.0000000E+00;  2.2649343E-01;  3.4924260E+03;
  1.8487250E+00;  9.9999998E-03;  9.1791905E-02;9569;  1.1866900E+00;  0.0000000E+00;  2.8226648E-02;  9.9725586E+02;  1.3875166E-01; -2.1542102E+03;3;  3.4681393E+01;  0.0000000E+00;  2.4502702E+00;0; -9.2709631E-02;  2.1639205E+04;  0.0000000E+00; -1.3718610E-01;  4.0000000E+04;  0.0000000E+00;  3.8133023E+04; -3.2878682E-01;  0.0000000E+00;  2.3607719E-01;  9.6689825E+02;
  1.8535278E+00;  9.9999998E-03;  2.3629671E-01;9633;  1.2914283E+00;  0.0000000E+00;  5.0743271E-02;  1.0007244E+03;  1.3713226E-01;  5.6661108E+02;3;  3.8215336E+01;  0.0000000E+00;  4.0068107E+00;0; -3.6597431E-02;  2.2362006E+04;  0.0000000E+00;  3.8677516E+00;  4.0000000E+04;  0.0000000E+00;  3.8033930E+04; -2.3401627E-01;  0.0000000E+00;  1.9741884E-01;  1.6982754E+04;
  1.8545355E+00;  9.9999998E-03;  2.2611789E-01;9632;  1.2826709E+00;  0.0000000E+00;  4.9176451E-02;  9.9586584E+02;  1.3712947E-01; -3.2309316E+03;3;  3.8297424E+01;  0.0000000E+00;  4.1432781E+00;0; -5.1403835E-02;  2.2167801E+04;  0.0000000E+00;  1.9705460E+01;  4.0000000E+04;  0.0000000E+00;  3.8049461E+04; -2.7913204E-01;  0.0000000E+00;  2.2772820E-01;  4.7817113E+04;
  1.8555858E+00;  9.9999998E-03;  2.1591370E-01;9631;  1.2730330E+00;  0.0000000E+00;  4.6751522E-02;  9.9128687E+02;  1.3712166E-01; -6.8037139E+03;3;  3.8050724E+01;  0.0000000E+00;  4.0615721E+00;0; -7.8418478E-02;  2.1997391E+04;  0.0000000E+00;  3.6278759E+01;  4.0000000E+04;  0.0000000E+00;  3.8051973E+04; -3.1811559E-01;  0.0000000E+00;  2.3969711E-01;  7.3789805E+04;
  1.8565301E+00;  9.9999998E-03;  2.0568380E-01;9630;  1.2629837E+00;  0.0000000E+00;  4.4107068E-02;  9.8854828E+02;  1.3708672E-01; -8.9353018E+03;3;  3.7464798E+01;  0.0000000E+00;  3.7154508E+00;0; -1.0493657E-01;  2.1916562E+04;  0.0000000E+00;  5.0264244E+01;  4.0000000E+04;  0.0000000E+00;  3.8038426E+04; -3.4691167E-01;  0.0000000E+00;  2.4197510E-01;  9.2120797E+04;
  1.8572583E+00;  9.9999998E-03;  1.9541430E-01;9629;  1.2530098E+00;  0.0000000E+00;  4.1694667E-02;  9.8822113E+02;  1.3701974E-01; -9.1850801E+03;3;  3.6700359E+01;  0.0000000E+00;  3.2380171E+00;0; -1.2394454E-01;  2.1940875E+04;  0.0000000E+00;  6.1135971E+01;  4.0000000E+04;  0.0000000E+00;  3.8017223E+04; -3.6338550E-01;  0.0000000E+00;  2.3944096E-01;  1.0279602E+05;
  1.8577015E+00;  9.9999998E-03;  1.8506676E-01;9628;  1.2434763E+00;  0.0000000E+00;  3.9813355E-02;  9.9012549E+02;  1.3692808E-01; -7.6972446E+03;3;  3.6045769E+01;  0.0000000E+00;  2.8881509E+00;0; -1.3362853E-01;  2.2050285E+04;  0.0000000E+00;  6.8002846E+01;  4.0000000E+04;  0.0000000E+00;  3.8004828E+04; -3.6807656E-01;  0.0000000E+00;  2.3444803E-01;  1.0573448E+05;
  1.8578629E+00;  9.9999998E-03;  1.6389415E-01;9626;  1.2259187E+00;  0.0000000E+00;  3.6266997E-02;  9.9695123E+02;  1.3674130E-01; -2.3762202E+03;3;  3.5307003E+01;  0.0000000E+00;  2.7583354E+00;0; -1.3812397E-01;  2.2349045E+04;  0.0000000E+00;  6.4139771E+01;  4.0000000E+04;  0.0000000E+00;  3.8037484E+04; -3.5490507E-01;  0.0000000E+00;  2.1678109E-01;  8.8524539E+04;
  1.8578656E+00;  9.9999998E-03;  1.7457893E-01;9627;  1.2344363E+00;  0.0000000E+00;  3.8082462E-02;  9.9344336E+02;  1.3683109E-01; -5.1102329E+03;3;  3.5658062E+01;  0.0000000E+00;  2.8517480E+00;0; -1.3780360E-01;  2.2202121E+04;  0.0000000E+00;  6.9337906E+01;  4.0000000E+04;  0.0000000E+00;  3.8012773E+04; -3.6405575E-01;  0.0000000E+00;  2.2625215E-01;  1.0075330E+05;
  1.8580282E+00;  9.9999998E-03;  1.5307586E-01;9625;  1.2179595E+00;  0.0000000E+00;  3.4095515E-02;  9.9920416E+02;  1.3666201E-01; -6.2019403E+02;3;  3.5098339E+01;  0.0000000E+00;  2.7651041E+00;0; -1.3649881E-01;  2.2451006E+04;  0.0000000E+00;  5.2495625E+01;  4.0000000E+04;  0.0000000E+00;  3.8051945E+04; -3.4449196E-01;  0.0000000E+00;  2.0799315E-01;  7.0658023E+04;
  1.8586923E+00;  9.9999998E-03;  1.4237449E-01;9624;  1.2106062E+00;  0.0000000E+00;  3.1661216E-02;  9.9961462E+02;  1.3657819E-01; -3.0017575E+02;3;  3.5053761E+01;  0.0000000E+00;  2.7991672E+00;0; -1.3443539E-01;  2.2503061E+04;  0.0000000E+00;  3.7639057E+01;  4.0000000E+04;  0.0000000E+00;  3.8032914E+04; -3.3578128E-01;  0.0000000E+00;  2.0134589E-01;  5.1099156E+04;
  1.8597525E+00;  9.9999998E-03;  1.3193919E-01;9623;  1.2038438E+00;  0.0000000E+00;  2.9422829E-02;  9.9904883E+02;  1.3648440E-01; -7.4016583E+02;3;  3.5093849E+01;  0.0000000E+00;  2.8424072E+00;0; -1.3243386E-01;  2.2531506E+04;  0.0000000E+00;  2.4173199E+01;  4.0000000E+04;  0.0000000E+00;  3.7994785E+04; -3.2953912E-01;  0.0000000E+00;  1.9710526E-01;  3.4242141E+04;
  1.8608506E+00;  9.9999998E-03;  1.2172753E-01;9622;  1.1976255E+00;  0.0000000E+00;  2.7510263E-02;  9.9841101E+02;  1.3639121E-01; -1.2353381E+03;3;  3.5125694E+01;  0.0000000E+00;  2.8407540E+00;0; -1.3040672E-01;  2.2553053E+04;  0.0000000E+00;  1.4094842E+01;  4.0000000E+04;  0.0000000E+00;  3.7962898E+04; -3.2540548E-01;  0.0000000E+00;  1.9499876E-01;  2.1678771E+04;
  1.8617239E+00;  9.9999998E-03;  1.1164603E-01;9621;  1.1919199E+00;  0.0000000E+00;  2.5850749E-02;  9.9795776E+02;  1.3631463E-01; -1.5864941E+03;3;  3.5175938E+01;  0.0000000E+00;  2.8221407E+00;0; -1.2803861E-01;  2.2566734E+04;  0.0000000E+00;  7.2649350E+00;  4.0000000E+04;  0.0000000E+00;  3.7947430E+04; -3.2310039E-01;  0.0000000E+00;  1.9506177E-01;  1.2972794E+04;
  1.8622655E+00;  9.9999998E-03;  7.1530573E-02;9617;  1.1743909E+00;  0.0000000E+00;  1.9159773E-02;  9.9635706E+02;  1.3626485E-01; -2.8286326E+03;3;  3.5424103E+01;  0.0000000E+00;  2.1927624E+00;0; -1.1299424E-01;  2.2483494E+04;  0.0000000E+00; -9.1885835E-01;  4.0000000E+04;  0.0000000E+00;  3.7993539E+04; -3.3012637E-01;  0.0000000E+00;  2.1713214E-01;  7.6281549E+02;
  1.8622926E+00;  9.9999998E-03;  1.0162424E-01;9620;  1.1867111E+00;  0.0000000E+00;  2.4302246E-02;  9.9761896E+02;  1.3626327E-01; -1.8487629E+03;3;  3.5257374E+01;  0.0000000E+00;  2.8109450E+00;0; -1.2515227E-01;  2.2567086E+04;  0.0000000E+00;  2.9696345E+00;  4.0000000E+04;  0.0000000E+00;  3.7947824E+04; -3.2255429E-01;  0.0000000E+00;  1.9740202E-01;  7.1797847E+03;
  1.8625079E+00;  9.9999998E-03;  8.1602380E-02;9618;  1.1779296E+00;  0.0000000E+00;  2.1100594E-02;  9.9686237E+02;  1.3624454E-01; -2.4357852E+03;3;  3.5319813E+01;  0.0000000E+00;  2.4866991E+00;0; -1.1752032E-01;  2.2522100E+04;  0.0000000E+00; -5.9938264E-01;  4.0000000E+04;  0.0000000E+00;  3.7975707E+04; -3.2630891E-01;  0.0000000E+00;  2.0878859E-01;  9.9085010E+02;
  1.8625445E+00;  9.9999998E-03;  9.1621123E-02;9619;  1.1820377E+00;  0.0000000E+00;  2.2734433E-02;  9.9728748E+02;  1.3624196E-01; -2.1057080E+03;3;  3.5280785E+01;  0.0000000E+00;  2.5872631E+00;0; -1.2163849E-01;  2.2551629E+04;  0.0000000E+00;  5.3680664E-01;  4.0000000E+04;  0.0000000E+00;  3.7959277E+04; -3.2367906E-01;  0.0000000E+00;  2.0204057E-01;  3.4206614E+03;
  1.8661133E+00;  9.9999998E-03;  2.3675162E-01;9681;  1.2886736E+00;  0.0000000E+00;  4.4471081E-02;  1.0036232E+03;  1.3492294E-01;  2.8036543E+03;3;  3.9217995E+01;  0.0000000E+00;  4.6673837E+00;0; -3.5326138E-02;  2.3310096E+04;  0.0000000E+00;  8.1367290E-01;  4.0000000E+04;  0.0000000E+00;  3.7888129E+04; -2.0558205E-01;  0.0000000E+00;  1.7025591E-01;  3.6986135E+03;
  1.8668939E+00;  9.9999998E-03;  2.2660507E-01;9680;  1.2799947E+00;  0.0000000E+00;  4.3074176E-02;  1.0002482E+03;  1.3491681E-01;  1.9191299E+02;3;  3.9098774E+01;  0.0000000E+00;  4.4588685E+00;0; -5.3295836E-02;  2.3172430E+04;  0.0000000E+00;  1.1630119E+00;  4.0000000E+04;  0.0000000E+00;  3.7895184E+04; -2.5882515E-01;  0.0000000E+00;  2.0552932E-01;  1.5523534E+04;
  1.8677499E+00;  9.9999998E-03;  2.1643059E-01;9679;  1.2706460E+00;  0.0000000E+00;  4.0982161E-02;  9.9574988E+02;  1.3492772E-01; -3.2837271E+03;3;  3.8816483E+01;  0.0000000E+00;  4.2743492E+00;0; -8.1099108E-02;  2.2988879E+04;  0.0000000E+00;  1.8306042E+01;  4.0000000E+04;  0.0000000E+00;  3.7894453E+04; -3.0606031E-01;  0.0000000E+00;  2.2496121E-01;  4.3729383E+04;
  1.8686454E+00;  9.9999998E-03;  2.0623334E-01;9678;  1.2607605E+00;  0.0000000E+00;  3.8485024E-02;  9.9146796E+02;  1.3493340E-01; -6.5864878E+03;3;  3.8250946E+01;  0.0000000E+00;  3.8830762E+00;0; -1.1211444E-01;  2.2827570E+04;  0.0000000E+00;  3.7463612E+01;  4.0000000E+04;  0.0000000E+00;  3.7879223E+04; -3.4453464E-01;  0.0000000E+00;  2.3242019E-01;  6.8752742E+04;
  1.8694628E+00;  9.9999998E-03;  1.9600859E-01;9677;  1.2508408E+00;  0.0000000E+00;  3.6134571E-02;  9.8882758E+02;  1.3491543E-01; -8.6180674E+03;3;  3.7594608E+01;  0.0000000E+00;  3.5285177E+00;0; -1.3673216E-01;  2.2748234E+04;  0.0000000E+00;  5.3692310E+01;  4.0000000E+04;  0.0000000E+00;  3.7852914E+04; -3.7051314E-01;  0.0000000E+00;  2.3378098E-01;  8.6690242E+04;
  1.8701205E+00;  9.9999998E-03;  1.8573444E-01;9676;  1.2412020E+00;  0.0000000E+00;  3.4139618E-02;  9.8842767E+02;  1.3486554E-01; -8.9208945E+03;3;  3.7030304E+01;  0.0000000E+00;  3.2525389E+00;0; -1.5264823E-01;  2.2765332E+04;  0.0000000E+00;  6.5577400E+01;  4.0000000E+04;  0.0000000E+00;  3.7827902E+04; -3.8342488E-01;  0.0000000E+00;  2.3077665E-01;  9.6698102E+04;
  1.8705695E+00;  9.9999998E-03;  1.7536405E-01;9675;  1.2320197E+00;  0.0000000E+00;  3.2481741E-02;  9.9007123E+02;  1.3478854E-01; -7.6505996E+03;3;  3.6532146E+01;  0.0000000E+00;  3.0588965E+00;0; -1.6089287E-01;  2.2861625E+04;  0.0000000E+00;  7.2439705E+01;  4.0000000E+04;  0.0000000E+00;  3.7820281E+04; -3.8493153E-01;  0.0000000E+00;  2.2403866E-01;  9.9005844E+04;
  1.8708327E+00;  9.9999998E-03;  1.6483493E-01;9674;  1.2233177E+00;  0.0000000E+00;  3.0872054E-02;  9.9300861E+02;  1.3469857E-01; -5.3858311E+03;3;  3.6299477E+01;  0.0000000E+00;  3.0994859E+00;0; -1.6415392E-01;  2.2997943E+04;  0.0000000E+00;  7.3300850E+01;  4.0000000E+04;  0.0000000E+00;  3.7835734E+04; -3.7825471E-01;  0.0000000E+00;  2.1410079E-01;  9.3969195E+04;
  1.8710185E+00;  9.9999998E-03;  1.5410550E-01;9673;  1.2151251E+00;  0.0000000E+00;  2.9057592E-02;  9.9611530E+02;  1.3461274E-01; -2.9920718E+03;3;  3.6052246E+01;  0.0000000E+00;  3.0815086E+00;0; -1.6401336E-01;  2.3131125E+04;  0.0000000E+00;  6.7623619E+01;  4.0000000E+04;  0.0000000E+00;  3.7866195E+04; -3.6686209E-01;  0.0000000E+00;  2.0284873E-01;  8.2585602E+04;
  1.8713630E+00;  9.9999998E-03;  1.4325595E-01;9672;  1.2074834E+00;  0.0000000E+00;  2.6850564E-02;  9.9813123E+02;  1.3453336E-01; -1.4388785E+03;3;  3.5894962E+01;  0.0000000E+00;  3.0619981E+00;0; -1.6208240E-01;  2.3226619E+04;  0.0000000E+00;  5.5817646E+01;  4.0000000E+04;  0.0000000E+00;  3.7884465E+04; -3.5429412E-01;  0.0000000E+00;  1.9221172E-01;  6.6519766E+04;
  1.8720978E+00;  9.9999998E-03;  1.3251296E-01;9671;  1.2004367E+00;  0.0000000E+00;  2.4471985E-02;  9.9858075E+02;  1.3445722E-01; -1.0919663E+03;3;  3.5790344E+01;  0.0000000E+00;  2.9687564E+00;0; -1.5954205E-01;  2.3277188E+04;  0.0000000E+00;  4.0710457E+01;  4.0000000E+04;  0.0000000E+00;  3.7870414E+04; -3.4320724E-01;  0.0000000E+00;  1.8366519E-01;  4.8857555E+04;
  1.8731623E+00;  9.9999998E-03;  1.2202031E-01;9670;  1.1939811E+00;  0.0000000E+00;  2.2293845E-02;  9.9809564E+02;  1.3437745E-01; -1.4636721E+03;3;  3.5758186E+01;  0.0000000E+00;  2.8843391E+00;0; -1.5703760E-01;  2.3303686E+04;  0.0000000E+00;  2.6504742E+01;  4.0000000E+04;  0.0000000E+00;  3.7836008E+04; -3.3444393E-01;  0.0000000E+00;  1.7740633E-01;  3.3153324E+04;
  1.8742661E+00;  9.9999998E-03;  1.1175497E-01;9669;  1.1880929E+00;  0.0000000E+00;  2.0463929E-02;  9.9749750E+02;  1.3429900E-01; -1.9212565E+03;3;  3.5765873E+01;  0.0000000E+00;  2.8570805E+00;0; -1.5456370E-01;  2.3323920E+04;  0.0000000E+00;  1.5480200E+01;  4.0000000E+04;  0.0000000E+00;  3.7803402E+04; -3.2777691E-01;  0.0000000E+00;  1.7321321E-01;  2.1077346E+04;
  1.8751577E+00;  9.9999998E-03;  1.0162812E-01;9668;  1.1827279E+00;  0.0000000E+00;  1.8916966E-02;  9.9711023E+02;  1.3423322E-01; -2.2165530E+03;3;  3.5797989E+01;  0.0000000E+00;  2.8269968E+00;0; -1.5188248E-01;  2.3339775E+04;  0.0000000E+00;  7.8375459E+00;  4.0000000E+04;  0.0000000E+00;  3.7784129E+04; -3.2296890E-01;  0.0000000E+00;  1.7108642E-01;  1.2565918E+04;
  1.8757344E+00;  9.9999998E-03;  9.1569625E-02;9667;  1.1778867E+00;  0.0000000E+00;  1.7541850E-02;  9.9688824E+02;  1.3419038E-01; -2.3854458E+03;3;  3.5817360E+01;  0.0000000E+00;  2.7130609E+00;0; -1.4881122E-01;  2.3345758E+04;  0.0000000E+00;  2.9789765E+00;  4.0000000E+04;  0.0000000E+00;  3.7779535E+04; -3.1992418E-01;  0.0000000E+00;  1.7111295E-01;  6.9243135E+03;
  1.8759254E+00;  9.9999998E-03;  7.1496621E-02;9665;  1.1699097E+00;  0.0000000E+00;  1.4915171E-02;  9.9641534E+02;  1.3417603E-01; -2.7474263E+03;3;  3.5842094E+01;  0.0000000E+00;  2.2920718E+00;0; -1.4136690E-01;  2.3314734E+04;  0.0000000E+00; -1.0470530E+00;  4.0000000E+04;  0.0000000E+00;  3.7798707E+04; -3.1879467E-01;  0.0000000E+00;  1.7742777E-01;  1.2745959E+03;
  1.8759812E+00;  9.9999998E-03;  8.1537358E-02;9666;  1.1736059E+00;  0.0000000E+00;  1.6248757E-02;  9.9669208E+02;  1.3417208E-01; -2.5351738E+03;3;  3.5821239E+01;  0.0000000E+00;  2.5196023E+00;0; -1.4528912E-01;  2.3337416E+04;  0.0000000E+00;  2.2303382E-01;  4.0000000E+04;  0.0000000E+00;  3.7785906E+04; -3.1857693E-01;  0.0000000E+00;  1.7328781E-01;  3.3951609E+03;
  1.8784670E+00;  9.9999998E-03;  2.3718825E-01;9728;  1.2859188E+00;  0.0000000E+00;  3.7582058E-02;  1.0067970E+03;  1.3306355E-01;  5.1955938E+03;3;  4.0129780E+01;  0.0000000E+00;  5.3875775E+00;0; -3.5010383E-02;  2.4193691E+04;  0.0000000E+00;  3.2749897E+01;  4.0000000E+04;  0.0000000E+00;  3.7737945E+04; -1.6266239E-01;  0.0000000E+00;  1.2765200E-01;  5.9478047E+03;
  1.8793455E+00;  9.9999998E-03;  2.2707617E-01;9727;  1.2770088E+00;  0.0000000E+00;  3.6204375E-02;  1.0031960E+03;  1.3307002E-01;  2.4407354E+03;3;  3.9977692E+01;  0.0000000E+00;  5.0932703E+00;0; -5.8840021E-02;  2.4043523E+04;  0.0000000E+00; -1.1209749E+00;  4.0000000E+04;  0.0000000E+00;  3.7740336E+04; -2.2507617E-01;  0.0000000E+00;  1.6623615E-01;  2.4771538E+03;
  1.8800212E+00;  9.9999998E-03;  2.1693152E-01;9726;  1.2678205E+00;  0.0000000E+00;  3.4352798E-02;  1.0000408E+03;  1.3307472E-01;  3.1203421E+01;3;  3.9538612E+01;  0.0000000E+00;  4.5759459E+00;0; -8.8687986E-02;  2.3913650E+04;  0.0000000E+00; -2.3016768E+00;  4.0000000E+04;  0.0000000E+00;  3.7735523E+04; -2.8112689E-01;  0.0000000E+00;  1.9243890E-01;  1.2331225E+04;
  1.8807467E+00;  9.9999998E-03;  2.0676319E-01;9725;  1.2582448E+00;  0.0000000E+00;  3.2233510E-02;  9.9589148E+02;  1.3309193E-01; -3.1328860E+03;3;  3.9007298E+01;  0.0000000E+00;  4.1621032E+00;0; -1.2031773E-01;  2.3745799E+04;  0.0000000E+00;  1.5988517E+01;  4.0000000E+04;  0.0000000E+00;  3.7717332E+04; -3.2883111E-01;  0.0000000E+00;  2.0851338E-01;  3.7945012E+04;
  1.8815171E+00;  9.9999998E-03;  1.9657470E-01;9724;  1.2484809E+00;  0.0000000E+00;  3.0116348E-02;  9.9183502E+02;  1.3310613E-01; -6.2208052E+03;3;  3.8316551E+01;  0.0000000E+00;  3.6472592E+00;0; -1.4852525E-01;  2.3593928E+04;  0.0000000E+00;  3.7508545E+01;  4.0000000E+04;  0.0000000E+00;  3.7684652E+04; -3.6528540E-01;  0.0000000E+00;  2.1676014E-01;  6.1769738E+04;
  1.8822439E+00;  9.9999998E-03;  1.8635586E-01;9723;  1.2388580E+00;  0.0000000E+00;  2.8215526E-02;  9.8921515E+02;  1.3310017E-01; -8.2102588E+03;3;  3.7846130E+01;  0.0000000E+00;  3.4663324E+00;0; -1.6967900E-01;  2.3513713E+04;  0.0000000E+00;  5.5579887E+01;  4.0000000E+04;  0.0000000E+00;  3.7646871E+04; -3.8832384E-01;  0.0000000E+00;  2.1864484E-01;  7.8943305E+04;
  1.8828616E+00;  9.9999998E-03;  1.7607743E-01;9722;  1.2295725E+00;  0.0000000E+00;  2.6570959E-02;  9.8862750E+02;  1.3306275E-01; -8.6516748E+03;3;  3.7365921E+01;  0.0000000E+00;  3.1981320E+00;0; -1.8315737E-01;  2.3521191E+04;  0.0000000E+00;  6.8276871E+01;  4.0000000E+04;  0.0000000E+00;  3.7618883E+04; -3.9819050E-01;  0.0000000E+00;  2.1503313E-01;  8.8316867E+04;
  1.8833432E+00;  9.9999998E-03;  1.6569048E-01;9721;  1.2207873E+00;  0.0000000E+00;  2.5162105E-02;  9.8994031E+02;  1.3299844E-01; -7.6488433E+03;3;  3.7071510E+01;  0.0000000E+00;  3.1836443E+00;0; -1.8959074E-01;  2.3600781E+04;  0.0000000E+00;  7.5042358E+01;  4.0000000E+04;  0.0000000E+00;  3.7613453E+04; -3.9674351E-01;  0.0000000E+00;  2.0715277E-01;  9.0209922E+04;
  1.8837173E+00;  9.9999998E-03;  1.5513696E-01;9720;  1.2125012E+00;  0.0000000E+00;  2.3760427E-02;  9.9244525E+02;  1.3291958E-01; -5.7418096E+03;3;  3.6856079E+01;  0.0000000E+00;  3.2132771E+00;0; -1.9129024E-01;  2.3718008E+04;  0.0000000E+00;  7.5585617E+01;  4.0000000E+04;  0.0000000E+00;  3.7633961E+04; -3.8740700E-01;  0.0000000E+00;  1.9611676E-01;  8.5484516E+04;
  1.8840708E+00;  9.9999998E-03;  1.4439397E-01;9719;  1.2047173E+00;  0.0000000E+00;  2.2105189E-02;  9.9513580E+02;  1.3284010E-01; -3.6954490E+03;3;  3.6640343E+01;  0.0000000E+00;  3.1790850E+00;0; -1.9016175E-01;  2.3835480E+04;  0.0000000E+00;  6.9803391E+01;  4.0000000E+04;  0.0000000E+00;  3.7667656E+04; -3.7375730E-01;  0.0000000E+00;  1.8359555E-01;  7.5331039E+04;
  1.8845509E+00;  9.9999998E-03;  1.3355003E-01;9718;  1.1974674E+00;  0.0000000E+00;  2.0057263E-02;  9.9699127E+02;  1.3276881E-01; -2.2845481E+03;3;  3.6477837E+01;  0.0000000E+00;  3.1074519E+00;0; -1.8763857E-01;  2.3923787E+04;  0.0000000E+00;  5.8264423E+01;  4.0000000E+04;  0.0000000E+00;  3.7688824E+04; -3.5909152E-01;  0.0000000E+00;  1.7145295E-01;  6.1306988E+04;
  1.8852769E+00;  9.9999998E-03;  1.2278672E-01;9717;  1.1908102E+00;  0.0000000E+00;  1.7900374E-02;  9.9757336E+02;  1.3270190E-01; -1.8410299E+03;3;  3.6388294E+01;  0.0000000E+00;  3.0214159E+00;0; -1.8444088E-01;  2.3975346E+04;  0.0000000E+00;  4.3507507E+01;  4.0000000E+04;  0.0000000E+00;  3.7681316E+04; -3.4569174E-01;  0.0000000E+00;  1.6125086E-01;  4.5891617E+04;
  1.8862389E+00;  9.9999998E-03;  1.1224192E-01;9716;  1.1847353E+00;  0.0000000E+00;  1.5916226E-02;  9.9726404E+02;  1.3263994E-01; -2.0734277E+03;3;  3.6314995E+01;  0.0000000E+00;  2.8770235E+00;0; -1.8127920E-01;  2.4000906E+04;  0.0000000E+00;  2.9021772E+01;  4.0000000E+04;  0.0000000E+00;  3.7653254E+04; -3.3454019E-01;  0.0000000E+00;  1.5326099E-01;  3.1719889E+04;
  1.8872540E+00;  9.9999998E-03;  1.0191438E-01;9715;  1.1792339E+00;  0.0000000E+00;  1.4275294E-02;  9.9671460E+02;  1.3257977E-01; -2.4868713E+03;3;  3.6276852E+01;  0.0000000E+00;  2.7488503E+00;0; -1.7824194E-01;  2.4016592E+04;  0.0000000E+00;  1.7255770E+01;  4.0000000E+04;  0.0000000E+00;  3.7622125E+04; -3.2556728E-01;  0.0000000E+00;  1.4732534E-01;  2.0413713E+04;
  1.8881075E+00;  9.9999998E-03;  9.1732681E-02;9714;  1.1742737E+00;  0.0000000E+00;  1.2921554E-02;  9.9629736E+02;  1.3252857E-01; -2.7998809E+03;3;  3.6274170E+01;  0.0000000E+00;  2.6558433E+00;0; -1.7519134E-01;  2.4029318E+04;  0.0000000E+00;  8.8442860E+00;  4.0000000E+04;  0.0000000E+00;  3.7600336E+04; -3.1856039E-01;  0.0000000E+00;  1.4336905E-01;  1.2256847E+04;
  1.8886837E+00;  9.9999998E-03;  8.1630565E-02;9713;  1.1698560E+00;  0.0000000E+00;  1.1794304E-02;  9.9607764E+02;  1.3249394E-01; -2.9639917E+03;3;  3.6245922E+01;  0.0000000E+00;  2.5052092E+00;0; -1.7195217E-01;  2.4035893E+04;  0.0000000E+00;  3.4122844E+00;  4.0000000E+04;  0.0000000E+00;  3.7590969E+04; -3.1338868E-01;  0.0000000E+00;  1.4143650E-01;  6.8387207E+03;
  1.8889421E+00;  9.9999998E-03;  7.1560688E-02;9712;  1.1660076E+00;  0.0000000E+00;  1.0798750E-02;  9.9593353E+02;  1.3247828E-01; -3.0719563E+03;3;  3.6224232E+01;  0.0000000E+00;  2.2929471E+00;0; -1.6845134E-01;  2.4032449E+04;  0.0000000E+00;  3.0973348E-01;  4.0000000E+04;  0.0000000E+00;  3.7591742E+04; -3.0995378E-01;  0.0000000E+00;  1.4150244E-01;  3.5607156E+03;
  1.8915739E+00;  9.9999998E-03;  2.2751717E-01;9773;  1.2740690E+00;  0.0000000E+00;  2.8705180E-02;  1.0064993E+03;  1.3151745E-01;  4.8941938E+03;3;  4.0722504E+01;  0.0000000E+00;  5.7241707E+00;0; -6.6552751E-02;  2.4860336E+04;  0.0000000E+00;  3.7835590E+01;  4.0000000E+04;  0.0000000E+00;  3.7583305E+04; -1.7713819E-01;  0.0000000E+00;  1.1058544E-01;  8.8635127E+03;
  1.8923783E+00;  9.9999998E-03;  2.1740897E-01;9772;  1.2646986E+00;  0.0000000E+00;  2.6813047E-02;  1.0028732E+03;  1.3153780E-01;  2.1614641E+03;3;  4.0246525E+01;  0.0000000E+00;  5.1380801E+00;0; -1.0268931E-01;  2.4706217E+04;  0.0000000E+00; -2.0913224E+00;  4.0000000E+04;  0.0000000E+00;  3.7573324E+04; -2.4255536E-01;  0.0000000E+00;  1.3986605E-01;  2.7795847E+03;
  1.8929708E+00;  9.9999998E-03;  2.0726563E-01;9771;  1.2553335E+00;  0.0000000E+00;  2.5064161E-02;  9.9998572E+02;  1.3154651E-01; -1.0753672E+01;3;  3.9661396E+01;  0.0000000E+00;  4.5328026E+00;0; -1.3406038E-01;  2.4589740E+04;  0.0000000E+00; -6.0311728E+00;  4.0000000E+04;  0.0000000E+00;  3.7555566E+04; -2.9913467E-01;  0.0000000E+00;  1.6507429E-01;  8.4767285E+03;
  1.8935924E+00;  9.9999998E-03;  1.9710049E-01;9770;  1.2458414E+00;  0.0000000E+00;  2.3397995E-02;  9.9623950E+02;  1.3156477E-01; -2.8247214E+03;3;  3.9098686E+01;  0.0000000E+00;  4.0613518E+00;0; -1.6209507E-01;  2.4442430E+04;  0.0000000E+00;  1.2324445E+01;  4.0000000E+04;  0.0000000E+00;  3.7521574E+04; -3.4553015E-01;  0.0000000E+00;  1.8343508E-01;  3.0799787E+04;
  1.8942634E+00;  9.9999998E-03;  1.8691571E-01;9769;  1.2363508E+00;  0.0000000E+00;  2.1829810E-02;  9.9246448E+02;  1.3158475E-01; -5.6555474E+03;3;  3.8579041E+01;  0.0000000E+00;  3.6890554E+00;0; -1.8579218E-01;  2.4304049E+04;  0.0000000E+00;  3.5282665E+01;  4.0000000E+04;  0.0000000E+00;  3.7474066E+04; -3.7949431E-01;  0.0000000E+00;  1.9370213E-01;  5.2671520E+04;
  1.8949193E+00;  9.9999998E-03;  1.7669642E-01;9768;  1.2270600E+00;  0.0000000E+00;  2.0331826E-02;  9.8989709E+02;  1.3158521E-01; -7.5761392E+03;3;  3.8134197E+01;  0.0000000E+00;  3.3913176E+00;0; -2.0414807E-01;  2.4225738E+04;  0.0000000E+00;  5.4576118E+01;  4.0000000E+04;  0.0000000E+00;  3.7426652E+04; -3.9981434E-01;  0.0000000E+00;  1.9566627E-01;  6.8591930E+04;
  1.8955159E+00;  9.9999998E-03;  1.6640942E-01;9767;  1.2182307E+00;  0.0000000E+00;  1.9085109E-02;  9.8911633E+02;  1.3155749E-01; -8.1554224E+03;3;  3.7823101E+01;  0.0000000E+00;  3.3185225E+00;0; -2.1459866E-01;  2.4222900E+04;  0.0000000E+00;  6.7704422E+01;  4.0000000E+04;  0.0000000E+00;  3.7395289E+04; -4.0647808E-01;  0.0000000E+00;  1.9187942E-01;  7.7150406E+04;
  1.8960392E+00;  9.9999998E-03;  1.5600891E-01;9766;  1.2099180E+00;  0.0000000E+00;  1.8006360E-02;  9.9000934E+02;  1.3150755E-01; -7.4812085E+03;3;  3.7636681E+01;  0.0000000E+00;  3.3949647E+00;0; -2.1873911E-01;  2.4282873E+04;  0.0000000E+00;  7.4382011E+01;  4.0000000E+04;  0.0000000E+00;  3.7390062E+04; -4.0225586E-01;  0.0000000E+00;  1.8351676E-01;  7.8835734E+04;
  1.8965089E+00;  9.9999998E-03;  1.4545088E-01;9765;  1.2020926E+00;  0.0000000E+00;  1.6843732E-02;  9.9198944E+02;  1.3144052E-01; -5.9948589E+03;3;  3.7402504E+01;  0.0000000E+00;  3.3520796E+00;0; -2.1902275E-01;  2.4377752E+04;  0.0000000E+00;  7.4897133E+01;  4.0000000E+04;  0.0000000E+00;  3.7410160E+04; -3.9078304E-01;  0.0000000E+00;  1.7176029E-01;  7.4795039E+04;
  1.8969780E+00;  9.9999998E-03;  1.3472840E-01;9764;  1.1947792E+00;  0.0000000E+00;  1.5449701E-02;  9.9422009E+02;  1.3137153E-01; -4.3228862E+03;3;  3.7192501E+01;  0.0000000E+00;  3.2630558E+00;0; -2.1686035E-01;  2.4477160E+04;  0.0000000E+00;  6.9552483E+01;  4.0000000E+04;  0.0000000E+00;  3.7442055E+04; -3.7539476E-01;  0.0000000E+00;  1.5853441E-01;  6.6299266E+04;
  1.8975219E+00;  9.9999998E-03;  1.2391660E-01;9763;  1.1880019E+00;  0.0000000E+00;  1.3756633E-02;  9.9590564E+02;  1.3130952E-01; -3.0600637E+03;3;  3.7007996E+01;  0.0000000E+00;  3.1187973E+00;0; -2.1347944E-01;  2.4557621E+04;  0.0000000E+00;  5.9057335E+01;  4.0000000E+04;  0.0000000E+00;  3.7464438E+04; -3.5906646E-01;  0.0000000E+00;  1.4558701E-01;  5.4731516E+04;
  1.8981963E+00;  9.9999998E-03;  1.1315506E-01;9762;  1.1818023E+00;  0.0000000E+00;  1.1974442E-02;  9.9663287E+02;  1.3125478E-01; -2.5143145E+03;3;  3.6852661E+01;  0.0000000E+00;  2.9320362E+00;0; -2.0952751E-01;  2.4609025E+04;  0.0000000E+00;  4.5401955E+01;  4.0000000E+04;  0.0000000E+00;  3.7464059E+04; -3.4385937E-01;  0.0000000E+00;  1.3433187E-01;  4.1893703E+04;
  1.8990195E+00;  9.9999998E-03;  1.0256872E-01;9761;  1.1761805E+00;  0.0000000E+00;  1.0345053E-02;  9.9654828E+02;  1.3121414E-01; -2.5746707E+03;3;  3.6740215E+01;  0.0000000E+00;  2.7146883E+00;0; -2.0561485E-01;  2.4633113E+04;  0.0000000E+00;  3.1335791E+01;  4.0000000E+04;  0.0000000E+00;  3.7442949E+04; -3.3079478E-01;  0.0000000E+00;  1.2517993E-01;  2.9667756E+04;
  1.8998576E+00;  9.9999998E-03;  9.2170820E-02;9760;  1.1711266E+00;  0.0000000E+00;  9.0056788E-03;  9.9604541E+02;  1.3116795E-01; -2.9464861E+03;3;  3.6671612E+01;  0.0000000E+00;  2.5448444E+00;0; -2.0188873E-01;  2.4644682E+04;  0.0000000E+00;  1.9386444E+01;  4.0000000E+04;  0.0000000E+00;  3.7415754E+04; -3.1998643E-01;  0.0000000E+00;  1.1809771E-01;  1.9562992E+04;
  1.9006095E+00;  9.9999998E-03;  8.1916958E-02;9759;  1.1666149E+00;  0.0000000E+00;  7.9422882E-03;  9.9555273E+02;  1.3113385E-01; -3.3102363E+03;3;  3.6598984E+01;  0.0000000E+00;  2.3472803E+00;0; -1.9839066E-01;  2.4649508E+04;  0.0000000E+00;  1.0487621E+01;  4.0000000E+04;  0.0000000E+00;  3.7393191E+04; -3.1128204E-01;  0.0000000E+00;  1.1289138E-01;  1.2046652E+04;
  1.9011550E+00;  9.9999998E-03;  7.1749583E-02;9758;  1.1626567E+00;  0.0000000E+00;  7.1039130E-03;  9.9520374E+02;  1.3110639E-01; -3.5673638E+03;3;  3.6558521E+01;  0.0000000E+00;  2.1733406E+00;0; -1.9495313E-01;  2.4650697E+04;  0.0000000E+00;  4.5914855E+00;  4.0000000E+04;  0.0000000E+00;  3.7380285E+04; -3.0447865E-01;  0.0000000E+00;  1.0952552E-01;  6.9868086E+03;
  1.9044949E+00;  9.9999998E-03;  2.1784309E-01;9816;  1.2617511E+00;  0.0000000E+00;  1.8973516E-02;  1.0063173E+03;  1.3024151E-01;  4.6771416E+03;3;  4.0883224E+01;  0.0000000E+00;  5.5744777E+00;0; -1.1478720E-01;  2.5463201E+04;  0.0000000E+00;  4.5729103E+01;  4.0000000E+04;  0.0000000E+00;  3.7410246E+04; -1.8928441E-01;  0.0000000E+00;  7.4497215E-02;  1.2343437E+04;
  1.9052463E+00;  9.9999998E-03;  2.0773870E-01;9815;  1.2522112E+00;  0.0000000E+00;  1.7062629E-02;  1.0026204E+03;  1.3026416E-01;  1.9379475E+03;3;  4.0344032E+01;  0.0000000E+00;  4.9418330E+00;0; -1.5371580E-01;  2.5309230E+04;  0.0000000E+00; -1.0014565E+00;  4.0000000E+04;  0.0000000E+00;  3.7385148E+04; -2.5511783E-01;  0.0000000E+00;  1.0140203E-01;  3.2700334E+03;
  1.9057864E+00;  9.9999998E-03;  1.9759159E-01;9814;  1.2428688E+00;  0.0000000E+00;  1.5739599E-02;  1.0000455E+03;  1.3027941E-01;  3.3653145E+01;3;  3.9765461E+01;  0.0000000E+00;  4.4080319E+00;0; -1.8151014E-01;  2.5207949E+04;  0.0000000E+00; -9.7062492E+00;  4.0000000E+04;  0.0000000E+00;  3.7356211E+04; -3.1061175E-01;  0.0000000E+00;  1.2910162E-01;  4.6625229E+03;
  1.9063276E+00;  9.9999998E-03;  1.8741803E-01;9813;  1.2335217E+00;  0.0000000E+00;  1.4546466E-02;  9.9684735E+02;  1.3029589E-01; -2.3280681E+03;3;  3.9301582E+01;  0.0000000E+00;  4.0311322E+00;0; -2.0616053E-01;  2.5088406E+04;  0.0000000E+00;  6.6841903E+00;  4.0000000E+04;  0.0000000E+00;  3.7311684E+04; -3.5540828E-01;  0.0000000E+00;  1.4924775E-01;  2.2412207E+04;
  1.9069179E+00;  9.9999998E-03;  1.7722246E-01;9812;  1.2243445E+00;  0.0000000E+00;  1.3419117E-02;  9.9350323E+02;  1.3031155E-01; -4.7934575E+03;3;  3.8882572E+01;  0.0000000E+00;  3.7147753E+00;0; -2.2642092E-01;  2.4971523E+04;  0.0000000E+00;  2.9581007E+01;  4.0000000E+04;  0.0000000E+00;  3.7254742E+04; -3.8670176E-01;  0.0000000E+00;  1.6028084E-01;  4.1384430E+04;
  1.9075222E+00;  9.9999998E-03;  1.6699024E-01;9811;  1.2155606E+00;  0.0000000E+00;  1.2475296E-02;  9.9106000E+02;  1.3031800E-01; -6.5903550E+03;3;  3.8576065E+01;  0.0000000E+00;  3.5804908E+00;0; -2.3979798E-01;  2.4897852E+04;  0.0000000E+00;  4.9128712E+01;  4.0000000E+04;  0.0000000E+00;  3.7200512E+04; -4.0343112E-01;  0.0000000E+00;  1.6363314E-01;  5.5451855E+04;
  1.9081044E+00;  9.9999998E-03;  1.5668976E-01;9810;  1.2072421E+00;  0.0000000E+00;  1.1685814E-02;  9.9007581E+02;  1.3030158E-01; -7.3097104E+03;3;  3.8286945E+01;  0.0000000E+00;  3.4382079E+00;0; -2.4687672E-01;  2.4884844E+04;  0.0000000E+00;  6.2440346E+01;  4.0000000E+04;  0.0000000E+00;  3.7164355E+04; -4.0735632E-01;  0.0000000E+00;  1.6047961E-01;  6.3191832E+04;
  1.9086541E+00;  9.9999998E-03;  1.4628224E-01;9809;  1.1994390E+00;  0.0000000E+00;  1.0968684E-02;  9.9050128E+02;  1.3026319E-01; -6.9907354E+03;3;  3.8028095E+01;  0.0000000E+00;  3.3464453E+00;0; -2.4885376E-01;  2.4923932E+04;  0.0000000E+00;  6.9310669E+01;  4.0000000E+04;  0.0000000E+00;  3.7154668E+04; -4.0122786E-01;  0.0000000E+00;  1.5237410E-01;  6.5053098E+04;
  1.9091811E+00;  9.9999998E-03;  1.3573588E-01;9808;  1.1921530E+00;  0.0000000E+00;  1.0178391E-02;  9.9188971E+02;  1.3021177E-01; -5.9642920E+03;3;  3.7790356E+01;  0.0000000E+00;  3.2397363E+00;0; -2.4743055E-01;  2.4994180E+04;  0.0000000E+00;  7.0315308E+01;  4.0000000E+04;  0.0000000E+00;  3.7168918E+04; -3.8839057E-01;  0.0000000E+00;  1.4096002E-01;  6.2149883E+04;
  1.9097103E+00;  9.9999998E-03;  1.2504800E-01;9807;  1.1853719E+00;  0.0000000E+00;  9.1892537E-03;  9.9358905E+02;  1.3015416E-01; -4.7109365E+03;3;  3.7566544E+01;  0.0000000E+00;  3.1141608E+00;0; -2.4409275E-01;  2.5072988E+04;  0.0000000E+00;  6.6102737E+01;  4.0000000E+04;  0.0000000E+00;  3.7195566E+04; -3.7206769E-01;  0.0000000E+00;  1.2797494E-01;  5.5686594E+04;
  1.9102783E+00;  9.9999998E-03;  1.1428075E-01;9806;  1.1791233E+00;  0.0000000E+00;  7.9944534E-03;  9.9499072E+02;  1.3010314E-01; -3.6778655E+03;3;  3.7368984E+01;  0.0000000E+00;  2.9220519E+00;0; -2.3974425E-01;  2.5139730E+04;  0.0000000E+00;  5.7285858E+01;  4.0000000E+04;  0.0000000E+00;  3.7216359E+04; -3.5484284E-01;  0.0000000E+00;  1.1509860E-01;  4.6738305E+04;
  1.9109008E+00;  9.9999998E-03;  1.0354294E-01;9805;  1.1734395E+00;  0.0000000E+00;  6.7254175E-03;  9.9571442E+02;  1.3006164E-01; -3.1435908E+03;3;  3.7184956E+01;  0.0000000E+00;  2.6742826E+00;0; -2.3499542E-01;  2.5185301E+04;  0.0000000E+00;  4.5381210E+01;  4.0000000E+04;  0.0000000E+00;  3.7219340E+04; -3.3856961E-01;  0.0000000E+00;  1.0357419E-01;  3.6604852E+04;
  1.9115680E+00;  9.9999998E-03;  9.2929132E-02;9804;  1.1683234E+00;  0.0000000E+00;  5.5691022E-03;  9.9575665E+02;  1.3003042E-01; -3.1095273E+03;3;  3.7048306E+01;  0.0000000E+00;  2.4498277E+00;0; -2.3030159E-01;  2.5209078E+04;  0.0000000E+00;  3.2658352E+01;  4.0000000E+04;  0.0000000E+00;  3.7204762E+04; -3.2428005E-01;  0.0000000E+00;  9.3978457E-02;  2.6698480E+04;
  1.9122326E+00;  9.9999998E-03;  8.2445376E-02;9803;  1.1637535E+00;  0.0000000E+00;  4.6481863E-03;  9.9540399E+02;  1.3000450E-01; -3.3645549E+03;3;  3.6940140E+01;  0.0000000E+00;  2.2312014E+00;0; -2.2588351E-01;  2.5216760E+04;  0.0000000E+00;  2.1406677E+01;  4.0000000E+04;  0.0000000E+00;  3.7183707E+04; -3.1223071E-01;  0.0000000E+00;  8.6347200E-02;  1.8243182E+04;
  1.9128344E+00;  9.9999998E-03;  7.2040863E-02;9802;  1.1597023E+00;  0.0000000E+00;  3.9453609E-03;  9.9494891E+02;  1.2998377E-01; -3.6943311E+03;3;  3.6870697E+01;  0.0000000E+00;  2.0353887E+00;0; -2.2185388E-01;  2.5214812E+04;  0.0000000E+00;  1.2804567E+01;  4.0000000E+04;  0.0000000E+00;  3.7166336E+04; -3.0232146E-01;  0.0000000E+00;  8.0467589E-02;  1.1784021E+04;
  1.9172499E+00;  9.9999998E-03;  2.0815206E-01;9857;  1.2493807E+00;  0.0000000E+00;  9.1572823E-03;  1.0063452E+03;  1.2918639E-01;  4.6091133E+03;3;  4.0948498E+01;  0.0000000E+00;  5.4661198E+00;0; -1.6712448E-01;  2.6018580E+04;  0.0000000E+00;  5.8018349E+01;  4.0000000E+04;  0.0000000E+00;  3.7217598E+04; -1.9620170E-01;  0.0000000E+00;  2.9077217E-02;  1.6461893E+04;
  1.9179814E+00;  9.9999998E-03;  1.9804919E-01;9856;  1.2398609E+00;  0.0000000E+00;  7.5798649E-03;  1.0025032E+03;  1.2921852E-01;  1.8161780E+03;3;  4.0356022E+01;  0.0000000E+00;  4.7437816E+00;0; -2.0281018E-01;  2.5861680E+04;  0.0000000E+00;  3.8560340E+00;  4.0000000E+04;  0.0000000E+00;  3.7175195E+04; -2.6014391E-01;  0.0000000E+00;  5.7333719E-02;  3.3283228E+03;
  1.9184947E+00;  9.9999998E-03;  1.8788613E-01;9855;  1.2305423E+00;  0.0000000E+00;  6.5635405E-03;  1.0002441E+03;  1.2922902E-01;  1.7699219E+02;3;  3.9860497E+01;  0.0000000E+00;  4.1867723E+00;0; -2.2961283E-01;  2.5778691E+04;  0.0000000E+00; -1.2394921E+01;  4.0000000E+04;  0.0000000E+00;  3.7139766E+04; -3.1446773E-01;  0.0000000E+00;  8.4854901E-02;  2.7830581E+03;
  1.9189892E+00;  9.9999998E-03;  1.7768852E-01;9854;  1.2215028E+00;  0.0000000E+00;  5.8298684E-03;  9.9768616E+02;  1.2924115E-01; -1.6761191E+03;3;  3.9443459E+01;  0.0000000E+00;  3.7822022E+00;0; -2.4996686E-01;  2.5688852E+04;  0.0000000E+00; -1.2748667E+00;  4.0000000E+04;  0.0000000E+00;  3.7091668E+04; -3.5595813E-01;  0.0000000E+00;  1.0599127E-01;  1.3133676E+04;
  1.9195218E+00;  9.9999998E-03;  1.6746596E-01;9853;  1.2128140E+00;  0.0000000E+00;  5.2912580E-03;  9.9492340E+02;  1.2925546E-01; -3.6742444E+03;3;  3.9134956E+01;  0.0000000E+00;  3.5877399E+00;0; -2.6464212E-01;  2.5597818E+04;  0.0000000E+00;  1.9241346E+01;  4.0000000E+04;  0.0000000E+00;  3.7031496E+04; -3.8356251E-01;  0.0000000E+00;  1.1892039E-01;  2.8192316E+04;
  1.9200792E+00;  9.9999998E-03;  1.5720606E-01;9852;  1.2045557E+00;  0.0000000E+00;  4.9161660E-03;  9.9271893E+02;  1.2926058E-01; -5.2650034E+03;3;  3.8849861E+01;  0.0000000E+00;  3.4493210E+00;0; -2.7372459E-01;  2.5534562E+04;  0.0000000E+00;  3.8320232E+01;  4.0000000E+04;  0.0000000E+00;  3.6974215E+04; -3.9768079E-01;  0.0000000E+00;  1.2395621E-01;  4.0248977E+04;
  1.9206398E+00;  9.9999998E-03;  1.4688341E-01;9851;  1.1967759E+00;  0.0000000E+00;  4.6152775E-03;  9.9158252E+02;  1.2925184E-01; -6.0812051E+03;3;  3.8554367E+01;  0.0000000E+00;  3.2950060E+00;0; -2.7805242E-01;  2.5513982E+04;  0.0000000E+00;  5.1920143E+01;  4.0000000E+04;  0.0000000E+00;  3.6933391E+04; -4.0013406E-01;  0.0000000E+00;  1.2208164E-01;  4.7425941E+04;
  1.9211924E+00;  9.9999998E-03;  1.3646537E-01;9850;  1.1895100E+00;  0.0000000E+00;  4.3290835E-03;  9.9153882E+02;  1.2922481E-01; -6.1072397E+03;3;  3.8304623E+01;  0.0000000E+00;  3.1905932E+00;0; -2.7835152E-01;  2.5533242E+04;  0.0000000E+00;  5.9508202E+01;  4.0000000E+04;  0.0000000E+00;  3.6917211E+04; -3.9346847E-01;  0.0000000E+00;  1.1511695E-01;  4.9863227E+04;
  1.9217418E+00;  9.9999998E-03;  1.2592854E-01;9849;  1.1827630E+00;  0.0000000E+00;  3.9683683E-03;  9.9231317E+02;  1.2918954E-01; -5.5433232E+03;3;  3.8050812E+01;  0.0000000E+00;  3.0366054E+00;0; -2.7577466E-01;  2.5577525E+04;  0.0000000E+00;  6.1593819E+01;  4.0000000E+04;  0.0000000E+00;  3.6922941E+04; -3.8061890E-01;  0.0000000E+00;  1.0484426E-01;  4.8385867E+04;
  1.9222918E+00;  9.9999998E-03;  1.1527605E-01;9848;  1.1765374E+00;  0.0000000E+00;  3.4702830E-03;  9.9341107E+02;  1.2914880E-01; -4.7472500E+03;3;  3.7834366E+01;  0.0000000E+00;  2.8878496E+00;0; -2.7145800E-01;  2.5631062E+04;  0.0000000E+00;  5.8953854E+01;  4.0000000E+04;  0.0000000E+00;  3.6940141E+04; -3.6441338E-01;  0.0000000E+00;  9.2955373E-02;  4.4008492E+04;
  1.9228499E+00;  9.9999998E-03;  1.0455758E-01;9847;  1.1708494E+00;  0.0000000E+00;  2.8307636E-03;  9.9437115E+02;  1.2911037E-01; -4.0517424E+03;3;  3.7613754E+01;  0.0000000E+00;  2.6471837E+00;0; -2.6626116E-01;  2.5679150E+04;  0.0000000E+00;  5.2228771E+01;  4.0000000E+04;  0.0000000E+00;  3.6954500E+04; -3.4721094E-01;  0.0000000E+00;  8.0949798E-02;  3.7605219E+04;
  1.9234138E+00;  9.9999998E-03;  9.3856238E-02;9846;  1.1657158E+00;  0.0000000E+00;  2.1472571E-03;  9.9489874E+02;  1.2908196E-01; -3.6685388E+03;3;  3.7434654E+01;  0.0000000E+00;  2.4395275E+00;0; -2.6078695E-01;  2.5713465E+04;  0.0000000E+00;  4.2565331E+01;  4.0000000E+04;  0.0000000E+00;  3.6955559E+04; -3.3075842E-01;  0.0000000E+00;  6.9971472E-02;  3.0108096E+04;
  1.9239606E+00;  9.9999998E-03;  8.3215170E-02;9845;  1.1611284E+00;  0.0000000E+00;  1.5615590E-03;  9.9498328E+02;  1.2905730E-01; -3.6044497E+03;3;  3.7288357E+01;  0.0000000E+00;  2.2148061E+00;0; -2.5537479E-01;  2.5733600E+04;  0.0000000E+00;  3.2063461E+01;  4.0000000E+04;  0.0000000E+00;  3.6946371E+04; -3.1601787E-01;  0.0000000E+00;  6.0643077E-02;  2.2673482E+04;
  1.9244747E+00;  9.9999998E-03;  7.2565012E-02;9844;  1.1570224E+00;  0.0000000E+00;  1.1228070E-03;  9.9488489E+02;  1.2904231E-01; -3.6719282E+03;3;  3.7164310E+01;  0.0000000E+00;  1.9880832E+00;0; -2.5035980E-01;  2.5739541E+04;  0.0000000E+00;  2.3038975E+01;  4.0000000E+04;  0.0000000E+00;  3.6938844E+04; -3.0333295E-01;  0.0000000E+00;  5.2973162E-02;  1.6352706E+04;
  1.9305972E+00;  9.9999998E-03;  1.8831070E-01;9894;  1.2279174E+00;  0.0000000E+00; -1.1278768E-03;  1.0026602E+03;  1.2835504E-01;  1.8895492E+03;3;  4.0346642E+01;  0.0000000E+00;  4.2283354E+00;0; -2.4332058E-01;  2.6378447E+04;  0.0000000E+00;  1.5696945E+01;  4.0000000E+04;  0.0000000E+00;  3.6950289E+04; -2.5477526E-01;  0.0000000E+00;  1.1454673E-02;  4.4548413E+03;
  1.9311227E+00;  9.9999998E-03;  1.7812458E-01;9893;  1.2188720E+00;  0.0000000E+00; -1.6861473E-03;  1.0005425E+03;  1.2836586E-01;  3.8498352E+02;3;  3.9988274E+01;  0.0000000E+00;  3.8811257E+00;0; -2.6605612E-01;  2.6304152E+04;  0.0000000E+00; -1.1451263E+01;  4.0000000E+04;  0.0000000E+00;  3.6909812E+04; -3.0515015E-01;  0.0000000E+00;  3.9094016E-02;  4.0183289E+03;
  1.9315965E+00;  9.9999998E-03;  1.6788985E-01;9892;  1.2102185E+00;  0.0000000E+00; -1.9396580E-03;  9.9864496E+02;  1.2837507E-01; -9.6075586E+02;3;  3.9626305E+01;  0.0000000E+00;  3.5942731E+00;0; -2.8287870E-01;  2.6242273E+04;  0.0000000E+00; -9.5401173E+00;  4.0000000E+04;  0.0000000E+00;  3.6864723E+04; -3.4334391E-01;  0.0000000E+00;  6.0465209E-02;  4.9561484E+03;
  1.9320874E+00;  9.9999998E-03;  1.5762267E-01;9891;  1.2019800E+00;  0.0000000E+00; -1.9975076E-03;  9.9655908E+02;  1.2838106E-01; -2.4375208E+03;3;  3.9330845E+01;  0.0000000E+00;  3.3822691E+00;0; -2.9497692E-01;  2.6179709E+04;  0.0000000E+00;  5.9404750E+00;  4.0000000E+04;  0.0000000E+00;  3.6810055E+04; -3.6897513E-01;  0.0000000E+00;  7.3998213E-02;  1.5204719E+04;
  1.9326065E+00;  9.9999998E-03;  1.4731991E-01;9890;  1.1942027E+00;  0.0000000E+00; -1.9300111E-03;  9.9469745E+02;  1.2838586E-01; -3.7527742E+03;3;  3.9032101E+01;  0.0000000E+00;  3.1754837E+00;0; -3.0261540E-01;  2.6129170E+04;  0.0000000E+00;  2.3212841E+01;  4.0000000E+04;  0.0000000E+00;  3.6754617E+04; -3.8250738E-01;  0.0000000E+00;  7.9891995E-02;  2.4949023E+04;
  1.9331385E+00;  9.9999998E-03;  1.3696262E-01;9889;  1.1869328E+00;  0.0000000E+00; -1.8236930E-03;  9.9348431E+02;  1.2838069E-01; -4.6069053E+03;3;  3.8746822E+01;  0.0000000E+00;  2.9905982E+00;0; -3.0619782E-01;  2.6104811E+04;  0.0000000E+00;  3.6798748E+01;  4.0000000E+04;  0.0000000E+00;  3.6710969E+04; -3.8536352E-01;  0.0000000E+00;  7.9165712E-02;  3.1515990E+04;
  1.9336753E+00;  9.9999998E-03;  1.2652552E-01;9888;  1.1801834E+00;  0.0000000E+00; -1.7415377E-03;  9.9304694E+02;  1.2836544E-01; -4.9113574E+03;3;  3.8500893E+01;  0.0000000E+00;  2.8715196E+00;0; -3.0631423E-01;  2.6107033E+04;  0.0000000E+00;  4.5227623E+01;  4.0000000E+04;  0.0000000E+00;  3.6686590E+04; -3.7980664E-01;  0.0000000E+00;  7.3492408E-02;  3.4512137E+04;
  1.9342113E+00;  9.9999998E-03;  1.1599411E-01;9887;  1.1739709E+00;  0.0000000E+00; -1.7201495E-03;  9.9322198E+02;  1.2834261E-01; -4.7830195E+03;3;  3.8241135E+01;  0.0000000E+00;  2.7058566E+00;0; -3.0360490E-01;  2.6127994E+04;  0.0000000E+00;  4.8675518E+01;  4.0000000E+04;  0.0000000E+00;  3.6680262E+04; -3.6832467E-01;  0.0000000E+00;  6.4719766E-02;  3.4406129E+04;
  1.9347378E+00;  9.9999998E-03;  1.0537736E-01;9886;  1.1683108E+00;  0.0000000E+00; -1.7688392E-03;  9.9369434E+02;  1.2831599E-01; -4.4453911E+03;3;  3.7986645E+01;  0.0000000E+00;  2.5001576E+00;0; -2.9889786E-01;  2.6158344E+04;  0.0000000E+00;  4.7773693E+01;  4.0000000E+04;  0.0000000E+00;  3.6683367E+04; -3.5338628E-01;  0.0000000E+00;  5.4488406E-02;  3.1922736E+04;
  1.9352547E+00;  9.9999998E-03;  9.4713777E-02;9885;  1.1632028E+00;  0.0000000E+00; -1.8594371E-03;  9.9414899E+02;  1.2829337E-01; -4.1209766E+03;3;  3.7766129E+01;  0.0000000E+00;  2.2913928E+00;0; -2.9310131E-01;  2.6186385E+04;  0.0000000E+00;  4.3163658E+01;  4.0000000E+04;  0.0000000E+00;  3.6685707E+04; -3.3721107E-01;  0.0000000E+00;  4.4109754E-02;  2.7738102E+04;
  1.9357433E+00;  9.9999998E-03;  8.4035352E-02;9884;  1.1586342E+00;  0.0000000E+00; -1.9256839E-03;  9.9442871E+02;  1.2827276E-01; -3.9204192E+03;3;  3.7564617E+01;  0.0000000E+00;  2.0424149E+00;0; -2.8690982E-01;  2.6208826E+04;  0.0000000E+00;  3.6282551E+01;  4.0000000E+04;  0.0000000E+00;  3.6683977E+04; -3.2141575E-01;  0.0000000E+00;  3.4505934E-02;  2.2727910E+04;
  1.9361868E+00;  9.9999998E-03;  7.3295459E-02;9883;  1.1545475E+00;  0.0000000E+00; -1.8955058E-03;  9.9464972E+02;  1.2825777E-01; -3.7618000E+03;3;  3.7388226E+01;  0.0000000E+00;  1.7921222E+00;0; -2.8086215E-01;  2.6224139E+04;  0.0000000E+00;  2.9498016E+01;  4.0000000E+04;  0.0000000E+00;  3.6686102E+04; -3.0697459E-01;  0.0000000E+00;  2.6112448E-02;  1.7943627E+04;
  1.9430940E+00;  9.9999998E-03;  1.7849250E-01;9929;  1.2166311E+00;  0.0000000E+00; -8.6266445E-03;  1.0033113E+03;  1.2763841E-01;  2.2977759E+03;3;  4.0443714E+01;  0.0000000E+00;  3.8679771E+00;0; -2.7057764E-01;  2.6873697E+04;  0.0000000E+00;  3.8557003E+01;  4.0000000E+04;  0.0000000E+00;  3.6720434E+04; -2.3756914E-01;  0.0000000E+00; -3.3008501E-02;  9.4633516E+03;
  1.9436615E+00;  9.9999998E-03;  1.6828907E-01;9928;  1.2080003E+00;  0.0000000E+00; -8.7852553E-03;  1.0009783E+03;  1.2765622E-01;  6.7812250E+02;3;  4.0033596E+01;  0.0000000E+00;  3.4185371E+00;0; -2.8952309E-01;  2.6792764E+04;  0.0000000E+00; -1.8531924E+00;  4.0000000E+04;  0.0000000E+00;  3.6669434E+04; -2.8308308E-01;  0.0000000E+00; -6.4400057E-03;  4.0328616E+03;
  1.9441389E+00;  9.9999998E-03;  1.5801638E-01;9927;  1.1997759E+00;  0.0000000E+00; -8.5762171E-03;  9.9949268E+02;  1.2766072E-01; -3.5129056E+02;3;  3.9672417E+01;  0.0000000E+00;  3.0834696E+00;0; -3.0388084E-01;  2.6749281E+04;  0.0000000E+00; -1.3176948E+01;  4.0000000E+04;  0.0000000E+00;  3.6628789E+04; -3.1873283E-01;  0.0000000E+00;  1.4851997E-02;  3.2403821E+03;
  1.9446082E+00;  9.9999998E-03;  1.4769831E-01;9926;  1.1919702E+00;  0.0000000E+00; -8.2088308E-03;  9.9802765E+02;  1.2766211E-01; -1.3645625E+03;3;  3.9360474E+01;  0.0000000E+00;  2.8302348E+00;0; -3.1545874E-01;  2.6709875E+04;  0.0000000E+00; -6.5600605E+00;  4.0000000E+04;  0.0000000E+00;  3.6583887E+04; -3.4397373E-01;  0.0000000E+00;  2.8514976E-02;  5.1594756E+03;
  1.9450952E+00;  9.9999998E-03;  1.3734159E-01;9925;  1.1846533E+00;  0.0000000E+00; -7.7422648E-03;  9.9657782E+02;  1.2766463E-01; -2.3653213E+03;3;  3.9081902E+01;  0.0000000E+00;  2.6373603E+00;0; -3.2354847E-01;  2.6673320E+04;  0.0000000E+00;  6.3745670E+00;  4.0000000E+04;  0.0000000E+00;  3.6535664E+04; -3.5851455E-01;  0.0000000E+00;  3.4966078E-02;  1.1710050E+04;
  1.9455953E+00;  9.9999998E-03;  1.2693965E-01;9924;  1.1778752E+00;  0.0000000E+00; -7.2430442E-03;  9.9541418E+02;  1.2766345E-01; -3.1664197E+03;3;  3.8797260E+01;  0.0000000E+00;  2.4479344E+00;0; -3.2791349E-01;  2.6648838E+04;  0.0000000E+00;  1.8550449E+01;  4.0000000E+04;  0.0000000E+00;  3.6492094E+04; -3.6326224E-01;  0.0000000E+00;  3.5348736E-02;  1.7112672E+04;
  1.9460969E+00;  9.9999998E-03;  1.1647902E-01;9923;  1.1716686E+00;  0.0000000E+00; -6.7349575E-03;  9.9470276E+02;  1.2765776E-01; -3.6540010E+03;3;  3.8522335E+01;  0.0000000E+00;  2.2600935E+00;0; -3.2856748E-01;  2.6640361E+04;  0.0000000E+00;  2.7148380E+01;  4.0000000E+04;  0.0000000E+00;  3.6459582E+04; -3.5992849E-01;  0.0000000E+00;  3.1361010E-02;  2.0232002E+04;
  1.9465917E+00;  9.9999998E-03;  1.0594985E-01;9922;  1.1660172E+00;  0.0000000E+00; -6.2481673E-03;  9.9440137E+02;  1.2764610E-01; -3.8580559E+03;3;  3.8267540E+01;  0.0000000E+00;  2.0899916E+00;0; -3.2639477E-01;  2.6644521E+04;  0.0000000E+00;  3.1689558E+01;  4.0000000E+04;  0.0000000E+00;  3.6439676E+04; -3.5095069E-01;  0.0000000E+00;  2.4555933E-02;  2.1111529E+04;
  1.9470694E+00;  9.9999998E-03;  9.5358245E-02;9921;  1.1609275E+00;  0.0000000E+00; -5.7912101E-03;  9.9436853E+02;  1.2763272E-01; -3.8769685E+03;3;  3.8032146E+01;  0.0000000E+00;  1.9184906E+00;0; -3.2211590E-01;  2.6655779E+04;  0.0000000E+00;  3.2501156E+01;  4.0000000E+04;  0.0000000E+00;  3.6428172E+04; -3.3843774E-01;  0.0000000E+00;  1.6321823E-02;  2.0161271E+04;
  1.9475175E+00;  9.9999998E-03;  8.4706932E-02;9920;  1.1563678E+00;  0.0000000E+00; -5.3340406E-03;  9.9446490E+02;  1.2761766E-01; -3.8071772E+03;3;  3.7818520E+01;  0.0000000E+00;  1.7368999E+00;0; -3.1665516E-01;  2.6670076E+04;  0.0000000E+00;  3.0662350E+01;  4.0000000E+04;  0.0000000E+00;  3.6423188E+04; -3.2443702E-01;  0.0000000E+00;  7.7818548E-03;  1.8020539E+04;
  1.9479260E+00;  9.9999998E-03;  7.3983371E-02;9919;  1.1523019E+00;  0.0000000E+00; -4.8342850E-03;  9.9465302E+02;  1.2760516E-01; -3.6747959E+03;3;  3.7627029E+01;  0.0000000E+00;  1.5421308E+00;0; -3.1077361E-01;  2.6682635E+04;  0.0000000E+00;  2.7602182E+01;  4.0000000E+04;  0.0000000E+00;  3.6425254E+04; -3.1044835E-01;  0.0000000E+00; -3.2524960E-04;  1.5366812E+04;
  1.9554693E+00;  9.9999998E-03;  1.6857058E-01;9962;  1.2060103E+00;  0.0000000E+00; -1.4957665E-02;  1.0046428E+03;  1.2704462E-01;  3.1413479E+03;3;  4.0370605E+01;  0.0000000E+00;  3.2758024E+00;0; -2.8874540E-01;  2.7355568E+04;  0.0000000E+00;  7.4854095E+01;  4.0000000E+04;  0.0000000E+00;  3.6498668E+04; -2.1228892E-01;  0.0000000E+00; -7.6456487E-02;  1.7953732E+04;
  1.9560895E+00;  9.9999998E-03;  1.5836468E-01;9961;  1.1979713E+00;  0.0000000E+00; -1.4602545E-02;  1.0017131E+03;  1.2707219E-01;  1.1575939E+03;3;  4.0006149E+01;  0.0000000E+00;  2.8943963E+00;0; -3.0123344E-01;  2.7256611E+04;  0.0000000E+00;  2.1364002E+01;  4.0000000E+04;  0.0000000E+00;  3.6425688E+04; -2.5163710E-01;  0.0000000E+00; -4.9596351E-02;  5.6268784E+03;
  1.9565973E+00;  9.9999998E-03;  1.4807212E-01;9960;  1.1902413E+00;  0.0000000E+00; -1.4021790E-02;  1.0001428E+03;  1.2708151E-01;  9.6395256E+01;3;  3.9684986E+01;  0.0000000E+00;  2.6074209E+00;0; -3.1390342E-01;  2.7211529E+04;  0.0000000E+00; -5.8509488E+00;  4.0000000E+04;  0.0000000E+00;  3.6378879E+04; -2.8467724E-01;  0.0000000E+00; -2.9226173E-02;  3.9281909E+03;
  1.9570643E+00;  9.9999998E-03;  1.3771316E-01;9959;  1.1829265E+00;  0.0000000E+00; -1.3266846E-02;  9.9901752E+02;  1.2708293E-01; -6.6247766E+02;3;  3.9402763E+01;  0.0000000E+00;  2.4058006E+00;0; -3.2518822E-01;  2.7183711E+04;  0.0000000E+00; -1.2389142E+01;  4.0000000E+04;  0.0000000E+00;  3.6340352E+04; -3.0950308E-01;  0.0000000E+00; -1.5685147E-02;  3.0371904E+03;
  1.9575253E+00;  9.9999998E-03;  1.2730518E-01;9958;  1.1760933E+00;  0.0000000E+00; -1.2419156E-02;  9.9796698E+02;  1.2708424E-01; -1.3694993E+03;3;  3.9138531E+01;  0.0000000E+00;  2.2288308E+00;0; -3.3429724E-01;  2.7160021E+04;  0.0000000E+00; -7.7575607E+00;  4.0000000E+04;  0.0000000E+00;  3.6300941E+04; -3.2561603E-01;  0.0000000E+00; -8.6812191E-03;  2.9991895E+03;
  1.9579858E+00;  9.9999998E-03;  1.1685047E-01;9957;  1.1697969E+00;  0.0000000E+00; -1.1505853E-02;  9.9701526E+02;  1.2708285E-01; -2.0086536E+03;3;  3.8868912E+01;  0.0000000E+00;  2.0560958E+00;0; -3.4029308E-01;  2.7141262E+04;  0.0000000E+00;  5.0166947E-01;  4.0000000E+04;  0.0000000E+00;  3.6262840E+04; -3.3335036E-01;  0.0000000E+00; -6.9427313E-03;  6.0034961E+03;
  1.9584413E+00;  9.9999998E-03;  1.0635221E-01;9956;  1.1640707E+00;  0.0000000E+00; -1.0584764E-02;  9.9623688E+02;  1.2708111E-01; -2.5299910E+03;3;  3.8604519E+01;  0.0000000E+00;  1.8870832E+00;0; -3.4310603E-01;  2.7128729E+04;  0.0000000E+00;  7.9420290E+00;  4.0000000E+04;  0.0000000E+00;  3.6228789E+04; -3.3388844E-01;  0.0000000E+00; -9.2175826E-03;  8.5653760E+03;
  1.9588792E+00;  9.9999998E-03;  9.5797107E-02;9955;  1.1589272E+00;  0.0000000E+00; -9.6483063E-03;  9.9574103E+02;  1.2707600E-01; -2.8606450E+03;3;  3.8352970E+01;  0.0000000E+00;  1.7184485E+00;0; -3.4278241E-01;  2.7124684E+04;  0.0000000E+00;  1.3185783E+01;  4.0000000E+04;  0.0000000E+00;  3.6203367E+04; -3.2877633E-01;  0.0000000E+00; -1.4006068E-02;  9.9568213E+03;
  1.9592915E+00;  9.9999998E-03;  8.5175246E-02;9954;  1.1543297E+00;  0.0000000E+00; -8.6938031E-03;  9.9550385E+02;  1.2706850E-01; -3.0172468E+03;3;  3.8120365E+01;  0.0000000E+00;  1.5468326E+00;0; -3.4024194E-01;  2.7126152E+04;  0.0000000E+00;  1.6203751E+01;  4.0000000E+04;  0.0000000E+00;  3.6188551E+04; -3.2007286E-01;  0.0000000E+00; -2.0169085E-02;  1.0257844E+04;
  1.9596685E+00;  9.9999998E-03;  7.4493714E-02;9953;  1.1502587E+00;  0.0000000E+00; -7.7283499E-03;  9.9542615E+02;  1.2705913E-01; -3.0668926E+03;3;  3.7905003E+01;  0.0000000E+00;  1.3698871E+00;0; -3.3635446E-01;  2.7130760E+04;  0.0000000E+00;  1.7176573E+01;  4.0000000E+04;  0.0000000E+00;  3.6181703E+04; -3.0950820E-01;  0.0000000E+00; -2.6846265E-02;  9.6718926E+03;
  1.9683927E+00;  9.9999998E-03;  1.4832459E-01;9991;  1.1886901E+00;  0.0000000E+00; -1.9364268E-02;  1.0029897E+03;  1.2658973E-01;  1.9660697E+03;3;  3.9998310E+01;  0.0000000E+00;  2.5547571E+00;0; -3.0796733E-01;  2.7703590E+04;  0.0000000E+00;  6.0844704E+01;  4.0000000E+04;  0.0000000E+00;  3.6194320E+04; -2.1604614E-01;  0.0000000E+00; -9.1921203E-02;  1.3441345E+04;
  1.9689378E+00;  9.9999998E-03;  1.3803414E-01;9990;  1.1815674E+00;  0.0000000E+00; -1.8381000E-02;  1.0008853E+03;  1.2660664E-01;  5.8143915E+02;3;  3.9716457E+01;  0.0000000E+00;  2.3051698E+00;0; -3.1678241E-01;  2.7643867E+04;  0.0000000E+00;  1.8805141E+01;  4.0000000E+04;  0.0000000E+00;  3.6126969E+04; -2.4511458E-01;  0.0000000E+00; -7.1667828E-02;  5.0954668E+03;
  1.9694142E+00;  9.9999998E-03;  1.2765847E-01;9989;  1.1747905E+00;  0.0000000E+00; -1.7282153E-02;  9.9966370E+02;  1.2661269E-01; -2.2063766E+02;3;  3.9441746E+01;  0.0000000E+00;  2.0903389E+00;0; -3.2715952E-01;  2.7614670E+04;  0.0000000E+00; -3.2271116E+00;  4.0000000E+04;  0.0000000E+00;  3.6082219E+04; -2.6906484E-01;  0.0000000E+00; -5.8094680E-02;  3.4487810E+03;
  1.9698564E+00;  9.9999998E-03;  1.1721503E-01;9988;  1.1684664E+00;  0.0000000E+00; -1.6045190E-02;  9.9880737E+02;  1.2661324E-01; -7.8168610E+02;3;  3.9172760E+01;  0.0000000E+00;  1.8973707E+00;0; -3.3663136E-01;  2.7597113E+04;  0.0000000E+00; -1.0835061E+01;  4.0000000E+04;  0.0000000E+00;  3.6047410E+04; -2.8660133E-01;  0.0000000E+00; -5.0030023E-02;  3.1267385E+03;
  1.9702779E+00;  9.9999998E-03;  1.0671216E-01;9987;  1.1626383E+00;  0.0000000E+00; -1.4727030E-02;  9.9812372E+02;  1.2661220E-01; -1.2285930E+03;3;  3.8905151E+01;  0.0000000E+00;  1.7178100E+00;0; -3.4444982E-01;  2.7584895E+04;  0.0000000E+00; -1.0321259E+01;  4.0000000E+04;  0.0000000E+00;  3.6018285E+04; -2.9780269E-01;  0.0000000E+00; -4.6647139E-02;  2.2128528E+03;
  1.9706818E+00;  9.9999998E-03;  9.6156932E-02;9986;  1.1573665E+00;  0.0000000E+00; -1.3377715E-02;  9.9753497E+02;  1.2661010E-01; -1.6125844E+03;3;  3.8646641E+01;  0.0000000E+00;  1.5445776E+00;0; -3.4972128E-01;  2.7574787E+04;  0.0000000E+00; -6.4801698E+00;  4.0000000E+04;  0.0000000E+00;  3.5992496E+04; -3.0278283E-01;  0.0000000E+00; -4.6938445E-02;  2.0158491E+03;
  1.9710611E+00;  9.9999998E-03;  8.5552976E-02;9985;  1.1526824E+00;  0.0000000E+00; -1.1990658E-02;  9.9707538E+02;  1.2660755E-01; -1.9115875E+03;3;  3.8401775E+01;  0.0000000E+00;  1.3757627E+00;0; -3.5201809E-01;  2.7568180E+04;  0.0000000E+00; -2.1970127E+00;  4.0000000E+04;  0.0000000E+00;  3.5971094E+04; -3.0236435E-01;  0.0000000E+00; -4.9653742E-02;  2.6659512E+03;
  1.9714093E+00;  9.9999998E-03;  7.4900486E-02;9984;  1.1485518E+00;  0.0000000E+00; -1.0582398E-02;  9.9676025E+02;  1.2660488E-01; -2.1158623E+03;3;  3.8174698E+01;  0.0000000E+00;  1.2083040E+00;0; -3.5217196E-01;  2.7565119E+04;  0.0000000E+00;  1.2302271E+00;  4.0000000E+04;  0.0000000E+00;  3.5954980E+04; -2.9835829E-01;  0.0000000E+00; -5.3813666E-02;  3.1859761E+03;
  1.9811380E+00;  9.9999998E-03;  1.2785827E-01;10016;  1.1735048E+00;  0.0000000E+00; -2.1712033E-02;  1.0022173E+03;  1.2621285E-01;  1.4152937E+03;3;  3.9680466E+01;  0.0000000E+00;  2.0207992E+00;0; -3.1917265E-01;  2.8060135E+04;  0.0000000E+00;  6.2108227E+01;  4.0000000E+04;  0.0000000E+00;  3.5898676E+04; -2.0751543E-01;  0.0000000E+00; -1.1165721E-01;  1.2837125E+04;
  1.9816265E+00;  9.9999998E-03;  1.1749244E-01;10015;  1.1673931E+00;  0.0000000E+00; -2.0165736E-02;  1.0005138E+03;  1.2622619E-01;  3.2756790E+02;3;  3.9413475E+01;  0.0000000E+00;  1.7852070E+00;0; -3.2504833E-01;  2.8019033E+04;  0.0000000E+00;  2.6555723E+01;  4.0000000E+04;  0.0000000E+00;  3.5833043E+04; -2.2845241E-01;  0.0000000E+00; -9.6595913E-02;  6.1228457E+03;
  1.9820582E+00;  9.9999998E-03;  1.0704632E-01;10014;  1.1616405E+00;  0.0000000E+00; -1.8561417E-02;  9.9947351E+02;  1.2623385E-01; -3.3531372E+02;3;  3.9146336E+01;  0.0000000E+00;  1.5826681E+00;0; -3.3334550E-01;  2.7997225E+04;  0.0000000E+00;  5.3432636E+00;  4.0000000E+04;  0.0000000E+00;  3.5789027E+04; -2.4609654E-01;  0.0000000E+00; -8.7248974E-02;  3.3139841E+03;
  1.9824497E+00;  9.9999998E-03;  9.6525893E-02;10013;  1.1563821E+00;  0.0000000E+00; -1.6880894E-02;  9.9880511E+02;  1.2623581E-01; -7.6029626E+02;3;  3.8890099E+01;  0.0000000E+00;  1.3980100E+00;0; -3.4099090E-01;  2.7984844E+04;  0.0000000E+00; -5.2216411E+00;  4.0000000E+04;  0.0000000E+00;  3.5758977E+04; -2.5866926E-01;  0.0000000E+00; -8.2321636E-02;  2.9088833E+03;
  1.9828075E+00;  9.9999998E-03;  8.5944109E-02;10012;  1.1516250E+00;  0.0000000E+00; -1.5105771E-02;  9.9832214E+02;  1.2623613E-01; -1.0666868E+03;3;  3.8647869E+01;  0.0000000E+00;  1.2278888E+00;0; -3.4741843E-01;  2.7977131E+04;  0.0000000E+00; -9.0505362E+00;  4.0000000E+04;  0.0000000E+00;  3.5736449E+04; -2.6682827E-01;  0.0000000E+00; -8.0590166E-02;  2.7515710E+03;
  1.9831309E+00;  9.9999998E-03;  7.5315237E-02;10011;  1.1473967E+00;  0.0000000E+00; -1.3308128E-02;  9.9795026E+02;  1.2623295E-01; -1.3020840E+03;3;  3.8417633E+01;  0.0000000E+00;  1.0669733E+00;0; -3.5243958E-01;  2.7972605E+04;  0.0000000E+00; -9.3062353E+00;  4.0000000E+04;  0.0000000E+00;  3.5718422E+04; -2.7112553E-01;  0.0000000E+00; -8.1314050E-02;  2.4094778E+03;
  1.9941131E+00;  9.9999998E-03;  9.6739165E-02;10035;  1.1554269E+00;  0.0000000E+00; -2.0037761E-02;  1.0004723E+03;  1.2591617E-01;  2.9204770E+02;3;  3.9082794E+01;  0.0000000E+00;  1.3078301E+00;0; -3.2962021E-01;  2.8375496E+04;  0.0000000E+00;  4.2313557E+01;  4.0000000E+04;  0.0000000E+00;  3.5551863E+04; -2.0965473E-01;  0.0000000E+00; -1.1996548E-01;  8.4462324E+03;
  1.9944794E+00;  9.9999998E-03;  8.6232759E-02;10034;  1.1508050E+00;  0.0000000E+00; -1.7923655E-02;  9.9953522E+02;  1.2592357E-01; -2.8714169E+02;3;  3.8840286E+01;  0.0000000E+00;  1.1199952E+00;0; -3.3444107E-01;  2.8358980E+04;  0.0000000E+00;  2.1234997E+01;  4.0000000E+04;  0.0000000E+00;  3.5507391E+04; -2.2147995E-01;  0.0000000E+00; -1.1296111E-01;  4.9643672E+03;
  1.9948007E+00;  9.9999998E-03;  7.5666040E-02;10033;  1.1466269E+00;  0.0000000E+00; -1.5795467E-02;  9.9891034E+02;  1.2592921E-01; -6.7261292E+02;3;  3.8613892E+01;  0.0000000E+00;  9.5543849E-01;0; -3.4035382E-01;  2.8348717E+04;  0.0000000E+00;  8.1659107E+00;  4.0000000E+04;  0.0000000E+00;  3.5475891E+04; -2.3088163E-01;  0.0000000E+00; -1.0947218E-01;  3.1884407E+03;
  2.6647639E-03;  9.9999998E-03;  2.3993927E-01;2501;  8.2623574E-04;  0.0000000E+00;  5.7822099E-04;  9.9022595E+02;  1.0000000E-01; -8.0975981E+03;3;  7.2079628E+01;  0.0000000E+00; -2.1533792E+01;0; -1.2051751E-02;  3.9207957E+04;  0.0000000E+00; -5.1470822E-01;  4.0000000E+04;  0.0000000E+00;  4.0021184E+04; -1.1800388E-02;  0.0000000E+00; -2.5136344E-04;  3.5874602E+03;
  2.2515224E-03;  9.9999998E-03;  2.4990237E-01;2502;  7.3606445E-04;  0.0000000E+00;  5.7474367E-04;  9.9128510E+02;  1.0000000E-01; -7.2201416E+03;3;  6.3069328E+01;  0.0000000E+00; -2.2902761E+01;0; -1.1122558E-02;  3.9292105E+04;  0.0000000E+00; -4.3447965E-01;  4.0000000E+04;  0.0000000E+00;  4.0019258E+04; -1.0698670E-02;  0.0000000E+00; -4.2388844E-04;  3.1521726E+03;
  1.7844202E-03;  9.9999998E-03;  2.5986546E-01;2503;  5.7437166E-04;  0.0000000E+00;  5.5515463E-04;  9.9239691E+02;  1.0000000E-01; -6.2990317E+03;3;  5.2596649E+01;  0.0000000E+00; -2.4012011E+01;0; -1.0160366E-02;  3.9383277E+04;  0.0000000E+00; -3.5667697E-01;  4.0000000E+04;  0.0000000E+00;  4.0012305E+04; -9.5680859E-03;  0.0000000E+00; -5.9227983E-04;  2.3953853E+03;
  1.2791522E-03;  9.9999998E-03;  2.6984411E-01;2504;  3.5183344E-04;  0.0000000E+00;  5.2188191E-04;  9.9353387E+02;  1.0000000E-01; -5.3570830E+03;3;  4.1539150E+01;  0.0000000E+00; -2.4943594E+01;0; -9.1749961E-03;  3.9477816E+04;  0.0000000E+00; -2.9397205E-01;  4.0000000E+04;  0.0000000E+00;  4.0005684E+04; -8.4320819E-03;  0.0000000E+00; -7.4291450E-04;  1.4076339E+03;
  7.7261863E-04;  9.9999998E-03;  2.7985466E-01;2505;  1.0047767E-04;  0.0000000E+00;  4.8025482E-04;  9.9464227E+02;  1.0000000E-01; -4.4387881E+03;3;  3.0955803E+01;  0.0000000E+00; -2.5678415E+01;0; -8.1765298E-03;  3.9572113E+04;  0.0000000E+00; -2.5182250E-01;  4.0000000E+04;  0.0000000E+00;  3.9998566E+04; -7.3135011E-03;  0.0000000E+00; -8.6302892E-04;  4.3211148E+02;
  2.8630334E-04;  9.9999998E-03;  2.8992751E-01;2506; -1.2989303E-04;  0.0000000E+00;  4.5639946E-04;  9.9569464E+02;  1.0000000E-01; -3.5669114E+03;3;  2.1643120E+01;  0.0000000E+00; -2.5874283E+01;0; -7.1695163E-03;  3.9661895E+04;  0.0000000E+00; -2.2702599E-01;  4.0000000E+04;  0.0000000E+00;  3.9991039E+04; -6.2269079E-03;  0.0000000E+00; -9.4260823E-04;  8.3740820E+02;
  1.2421042E-02;  9.9999998E-03;  2.3992492E-01;2561;  1.5606851E-04;  0.0000000E+00;  3.3832388E-04;  9.9224561E+02;  1.0000000E-01; -6.4243613E+03;3;  5.1650112E+01;  0.0000000E+00; -1.6936319E+01;0; -1.3504570E-02;  3.9364203E+04;  0.0000000E+00; -6.4925379E-01;  4.0000000E+04;  0.0000000E+00;  4.0023898E+04; -1.3261889E-02;  0.0000000E+00; -2.4268107E-04;  3.6666777E+03;
  1.2063864E-02;  9.9999998E-03;  2.4987662E-01;2562;  1.5763495E-04;  0.0000000E+00;  3.4051153E-04;  9.9302948E+02;  1.0000000E-01; -5.7749478E+03;3;  4.5952686E+01;  0.0000000E+00; -1.8007885E+01;0; -1.2499101E-02;  3.9426723E+04;  0.0000000E+00; -5.3612709E-01;  4.0000000E+04;  0.0000000E+00;  4.0021125E+04; -1.2075970E-02;  0.0000000E+00; -4.2313040E-04;  3.3203333E+03;
  1.1644187E-02;  9.9999998E-03;  2.5982431E-01;2563;  1.0036601E-04;  0.0000000E+00;  3.2897652E-04;  9.9387268E+02;  1.0000000E-01; -5.0763501E+03;3;  3.8486298E+01;  0.0000000E+00; -1.9093245E+01;0; -1.1441764E-02;  3.9496102E+04;  0.0000000E+00; -4.3118104E-01;  4.0000000E+04;  0.0000000E+00;  4.0015039E+04; -1.0838447E-02;  0.0000000E+00; -6.0331769E-04;  2.6161804E+03;
  1.1170449E-02;  9.9999998E-03;  2.6978302E-01;2564; -4.5147572E-06;  0.0000000E+00;  3.0756078E-04;  9.9472369E+02;  1.0000000E-01; -4.3713330E+03;3;  3.0124258E+01;  0.0000000E+00; -2.0526300E+01;0; -1.0344082E-02;  3.9570172E+04;  0.0000000E+00; -3.5295099E-01;  4.0000000E+04;  0.0000000E+00;  4.0008082E+04; -9.5759910E-03;  0.0000000E+00; -7.6809147E-04;  1.6304751E+03;
  1.0687926E-02;  9.9999998E-03;  2.7976418E-01;2565; -1.3161925E-04;  0.0000000E+00;  2.8954499E-04;  9.9557922E+02;  1.0000000E-01; -3.6625137E+03;3;  2.1636873E+01;  0.0000000E+00; -2.2228638E+01;0; -9.2212902E-03;  3.9644539E+04;  0.0000000E+00; -3.0840567E-01;  4.0000000E+04;  0.0000000E+00;  4.0000301E+04; -8.3180591E-03;  0.0000000E+00; -9.0323138E-04;  5.8966827E+02;
  1.0241228E-02;  9.9999998E-03;  2.8978458E-01;2566; -2.7456938E-04;  0.0000000E+00;  2.8740140E-04;  9.9639362E+02;  1.0000000E-01; -2.9878167E+03;3;  1.4314109E+01;  0.0000000E+00; -2.3828966E+01;0; -8.0821225E-03;  3.9717496E+04;  0.0000000E+00; -2.9035187E-01;  4.0000000E+04;  0.0000000E+00;  3.9992043E+04; -7.0863976E-03;  0.0000000E+00; -9.9572493E-04;  8.3679022E+02;
  9.8594828E-03;  9.9999998E-03;  2.9985678E-01;2567; -4.4339450E-04;  0.0000000E+00;  3.1262616E-04;  9.9714838E+02;  1.0000000E-01; -2.3625010E+03;3;  8.9485884E+00;  0.0000000E+00; -2.4542391E+01;0; -6.9345096E-03;  3.9783352E+04;  0.0000000E+00; -2.8146595E-01;  4.0000000E+04;  0.0000000E+00;  3.9984996E+04; -5.9007667E-03;  0.0000000E+00; -1.0337427E-03;  1.7011479E+03;
  2.2136495E-02;  9.9999998E-03;  2.3996957E-01;2622; -3.4072914E-04;  0.0000000E+00;  1.8154162E-04;  9.9455194E+02;  1.0000000E-01; -4.5136006E+03;3;  2.8011982E+01;  0.0000000E+00; -1.0555757E+01;0; -1.4534225E-02;  3.9544062E+04;  0.0000000E+00; -7.7572626E-01;  4.0000000E+04;  0.0000000E+00;  4.0023961E+04; -1.4289893E-02;  0.0000000E+00; -2.4433178E-04;  3.6261492E+03;
  2.1827582E-02;  9.9999998E-03;  2.4992210E-01;2623; -2.8778432E-04;  0.0000000E+00;  1.8308617E-04;  9.9503448E+02;  1.0000000E-01; -4.1138589E+03;3;  2.6177446E+01;  0.0000000E+00; -1.0890914E+01;0; -1.3478482E-02;  3.9582574E+04;  0.0000000E+00; -6.4821929E-01;  4.0000000E+04;  0.0000000E+00;  4.0023070E+04; -1.3050723E-02;  0.0000000E+00; -4.2775911E-04;  3.4072959E+03;
  2.1453353E-02;  9.9999998E-03;  2.5986606E-01;2624; -2.7382531E-04;  0.0000000E+00;  1.7953217E-04;  9.9556433E+02;  1.0000000E-01; -3.6748591E+03;3;  2.2462061E+01;  0.0000000E+00; -1.1687655E+01;0; -1.2360226E-02;  3.9627316E+04;  0.0000000E+00; -5.3130758E-01;  4.0000000E+04;  0.0000000E+00;  4.0017992E+04; -1.1745260E-02;  0.0000000E+00; -6.1496638E-04;  2.8115330E+03;
  2.1014575E-02;  9.9999998E-03;  2.6981857E-01;2625; -3.0095049E-04;  0.0000000E+00;  1.7232521E-04;  9.9611926E+02;  1.0000000E-01; -3.2151189E+03;3;  1.7515385E+01;  0.0000000E+00; -1.3339982E+01;0; -1.1186979E-02;  3.9677195E+04;  0.0000000E+00; -4.4715276E-01;  4.0000000E+04;  0.0000000E+00;  4.0011039E+04; -1.0397987E-02;  0.0000000E+00; -7.8899140E-04;  1.8995070E+03;
  2.0550743E-02;  9.9999998E-03;  2.7979183E-01;2626; -3.6728618E-04;  0.0000000E+00;  1.6458934E-04;  9.9667810E+02;  1.0000000E-01; -2.7521196E+03;3;  1.2267939E+01;  0.0000000E+00; -1.5877519E+01;0; -9.9709975E-03;  3.9729281E+04;  0.0000000E+00; -4.0349963E-01;  4.0000000E+04;  0.0000000E+00;  4.0003148E+04; -9.0380497E-03;  0.0000000E+00; -9.3294750E-04;  8.7174207E+02;
  2.0117098E-02;  9.9999998E-03;  2.8979361E-01;2627; -4.6593792E-04;  0.0000000E+00;  1.6357056E-04;  9.9723547E+02;  1.0000000E-01; -2.2903550E+03;3;  7.6268125E+00;  0.0000000E+00; -1.8732517E+01;0; -8.7282937E-03;  3.9781445E+04;  0.0000000E+00; -3.9020079E-01;  4.0000000E+04;  0.0000000E+00;  3.9993973E+04; -7.6959981E-03;  0.0000000E+00; -1.0322959E-03;  7.4390845E+02;
  1.9761149E-02;  9.9999998E-03;  2.9982850E-01;2628; -5.9158378E-04;  0.0000000E+00;  1.8690182E-04;  9.9775769E+02;  1.0000000E-01; -1.8577252E+03;3;  4.3001013E+00;  0.0000000E+00; -2.1053072E+01;0; -7.4784458E-03;  3.9831191E+04;  0.0000000E+00; -3.8406962E-01;  4.0000000E+04;  0.0000000E+00;  3.9986434E+04; -6.4021754E-03;  0.0000000E+00; -1.0762701E-03;  1.5911489E+03;
  3.1879298E-02;  9.9999998E-03;  2.4000919E-01;2683; -7.5771241E-04;  0.0000000E+00;  1.0911495E-04;  9.9681287E+02;  1.0000000E-01; -2.6404685E+03;3;  7.8150129E+00;  0.0000000E+00; -3.8462546E+00;0; -1.5057372E-02;  3.9723684E+04;  0.0000000E+00; -8.2903278E-01;  4.0000000E+04;  0.0000000E+00;  4.0024012E+04; -1.4812727E-02;  0.0000000E+00; -2.4464497E-04;  3.4131638E+03;
  3.1613167E-02;  9.9999998E-03;  2.4996857E-01;2684; -6.6101400E-04;  0.0000000E+00;  1.0475359E-04;  9.9700275E+02;  1.0000000E-01; -2.4831890E+03;3;  9.1296749E+00;  0.0000000E+00; -3.1600261E+00;0; -1.3988471E-02;  3.9737418E+04;  0.0000000E+00; -7.1440816E-01;  4.0000000E+04;  0.0000000E+00;  4.0023641E+04; -1.3560421E-02;  0.0000000E+00; -4.2804942E-04;  3.3507231E+03;
  3.1275105E-02;  9.9999998E-03;  2.5991753E-01;2685; -6.0374249E-04;  0.0000000E+00;  9.5495554E-05;  9.9722620E+02;  1.0000000E-01; -2.2980583E+03;3;  8.8314896E+00;  0.0000000E+00; -3.2932630E+00;0; -1.2846943E-02;  3.9757922E+04;  0.0000000E+00; -6.1156368E-01;  4.0000000E+04;  0.0000000E+00;  4.0019859E+04; -1.2227635E-02;  0.0000000E+00; -6.1930768E-04;  2.9075234E+03;
  3.0862520E-02;  9.9999998E-03;  2.6987490E-01;2686; -5.8967463E-04;  0.0000000E+00;  8.1521794E-05;  9.9748224E+02;  1.0000000E-01; -2.0859163E+03;3;  7.2440753E+00;  0.0000000E+00; -4.7915564E+00;0; -1.1639110E-02;  3.9782820E+04;  0.0000000E+00; -5.4240167E-01;  4.0000000E+04;  0.0000000E+00;  4.0012969E+04; -1.0839460E-02;  0.0000000E+00; -7.9964951E-04;  2.1233855E+03;
  3.0410027E-02;  9.9999998E-03;  2.7985308E-01;2687; -6.1818637E-04;  0.0000000E+00;  6.6634137E-05;  9.9775934E+02;  1.0000000E-01; -1.8563425E+03;3;  5.0270438E+00;  0.0000000E+00; -7.7927823E+00;0; -1.0376366E-02;  3.9812141E+04;  0.0000000E+00; -5.1279795E-01;  4.0000000E+04;  0.0000000E+00;  4.0005691E+04; -9.4262762E-03;  0.0000000E+00; -9.5009001E-04;  1.1764430E+03;
  2.9973602E-02;  9.9999998E-03;  2.8985983E-01;2688; -6.8287080E-04;  0.0000000E+00;  6.0585662E-05;  9.9805353E+02;  1.0000000E-01; -1.6125963E+03;3;  2.8782427E+00;  0.0000000E+00; -1.1751818E+01;0; -9.0766354E-03;  3.9843945E+04;  0.0000000E+00; -5.0904483E-01;  4.0000000E+04;  0.0000000E+00;  3.9996750E+04; -8.0219302E-03;  0.0000000E+00; -1.0547055E-03;  7.4801520E+02;
  2.9635793E-02;  9.9999998E-03;  2.9987964E-01;2689; -7.7096245E-04;  0.0000000E+00;  8.1784674E-05;  9.9835596E+02;  1.0000000E-01; -1.3620355E+03;3;  1.3074245E+00;  0.0000000E+00; -1.5617330E+01;0; -7.7685053E-03;  3.9875988E+04;  0.0000000E+00; -5.0412130E-01;  4.0000000E+04;  0.0000000E+00;  3.9989227E+04; -6.6657662E-03;  0.0000000E+00; -1.1027388E-03;  1.4113689E+03;
  4.1656449E-02;  9.9999998E-03;  2.4003132E-01;2744; -1.1188262E-03;  0.0000000E+00;  6.2497660E-05;  9.9875684E+02;  1.0000000E-01; -1.0299462E+03;3; -5.3012943E+00;  0.0000000E+00;  2.6732569E+00;0; -1.5060513E-02;  3.9880594E+04;  0.0000000E+00; -7.4500930E-01;  4.0000000E+04;  0.0000000E+00;  4.0022828E+04; -1.4827698E-02;  0.0000000E+00; -2.3281449E-04;  3.0350994E+03;
  4.1429475E-02;  9.9999998E-03;  2.5000051E-01;2745; -9.8635128E-04;  0.0000000E+00;  5.5141452E-05;  9.9869513E+02;  1.0000000E-01; -1.0810558E+03;3; -2.0060067E+00;  0.0000000E+00;  4.4164128E+00;0; -1.4016775E-02;  3.9872957E+04;  0.0000000E+00; -6.7289764E-01;  4.0000000E+04;  0.0000000E+00;  4.0022629E+04; -1.3601700E-02;  0.0000000E+00; -4.1507577E-04;  3.1479443E+03;
  4.1124951E-02;  9.9999998E-03;  2.5995749E-01;2746; -8.9606520E-04;  0.0000000E+00;  4.0643459E-05;  9.9865112E+02;  1.0000000E-01; -1.1174993E+03;3;  1.4826018E-02;  0.0000000E+00;  5.0394292E+00;0; -1.2895852E-02;  3.9870453E+04;  0.0000000E+00; -6.1652201E-01;  4.0000000E+04;  0.0000000E+00;  4.0021043E+04; -1.2285401E-02;  0.0000000E+00; -6.1045156E-04;  2.8855427E+03;
  4.0738706E-02;  9.9999998E-03;  2.6992059E-01;2747; -8.5137470E-04;  0.0000000E+00;  2.0184161E-05;  9.9864191E+02;  1.0000000E-01; -1.1251533E+03;3;  8.3366781E-01;  0.0000000E+00;  3.8293061E+00;0; -1.1702129E-02;  3.9873480E+04;  0.0000000E+00; -5.9224850E-01;  4.0000000E+04;  0.0000000E+00;  4.0015430E+04; -1.0904131E-02;  0.0000000E+00; -7.9799752E-04;  2.2637373E+03;
  4.0297192E-02;  9.9999998E-03;  2.7990755E-01;2748; -8.5147121E-04;  0.0000000E+00; -1.8108285E-06;  9.9866718E+02;  1.0000000E-01; -1.1042157E+03;3;  8.5051107E-01;  0.0000000E+00;  5.0822312E-01;0; -1.0443973E-02;  3.9881887E+04;  0.0000000E+00; -5.9991544E-01;  4.0000000E+04;  0.0000000E+00;  4.0008184E+04; -9.4877472E-03;  0.0000000E+00; -9.5622591E-04;  1.4363467E+03;
  3.9853007E-02;  9.9999998E-03;  2.8993213E-01;2749; -8.9001411E-04;  0.0000000E+00; -1.4636917E-05;  9.9873322E+02;  1.0000000E-01; -1.0495012E+03;3;  5.2340198E-01;  0.0000000E+00; -4.3622241E+00;0; -9.1378530E-03;  3.9895445E+04;  0.0000000E+00; -6.2027758E-01;  4.0000000E+04;  0.0000000E+00;  3.9999055E+04; -8.0705853E-03;  0.0000000E+00; -1.0672675E-03;  8.8249255E+02;
  3.9527714E-02;  9.9999998E-03;  2.9994777E-01;2750; -9.5122436E-04;  0.0000000E+00;  7.0158562E-06;  9.9883673E+02;  1.0000000E-01; -9.6372583E+02;3;  1.9660865E-01;  0.0000000E+00; -9.6190319E+00;0; -7.8182435E-03;  3.9911148E+04;  0.0000000E+00; -6.2326813E-01;  4.0000000E+04;  0.0000000E+00;  3.9991793E+04; -6.6985497E-03;  0.0000000E+00; -1.1196940E-03;  1.2649766E+03;
  5.1463872E-02;  9.9999998E-03;  2.4004261E-01;2805; -1.4109389E-03;  0.0000000E+00;  2.5135309E-05;  1.0002220E+03;  1.0000000E-01;  1.8389603E+02;3; -1.1360843E+01;  0.0000000E+00;  8.1131830E+00;0; -1.4616567E-02;  4.0000492E+04;  0.0000000E+00; -4.8981071E-01;  4.0000000E+04;  0.0000000E+00;  4.0020824E+04; -1.4411636E-02;  0.0000000E+00; -2.0493107E-04;  2.5623682E+03;
  5.1274814E-02;  9.9999998E-03;  2.5002337E-01;2806; -1.2451948E-03;  0.0000000E+00;  3.1569845E-05;  9.9995508E+02;  1.0000000E-01; -3.7233517E+01;3; -7.1804385E+00;  0.0000000E+00;  1.0760076E+01;0; -1.3631673E-02;  3.9975156E+04;  0.0000000E+00; -4.8536032E-01;  4.0000000E+04;  0.0000000E+00;  4.0022281E+04; -1.3246171E-02;  0.0000000E+00; -3.8550142E-04;  2.8506211E+03;
  5.1003512E-02;  9.9999998E-03;  2.5998983E-01;2807; -1.1270797E-03;  0.0000000E+00;  1.9898072E-05;  9.9970001E+02;  1.0000000E-01; -2.4853618E+02;3; -3.9653087E+00;  0.0000000E+00;  1.2064454E+01;0; -1.2569727E-02;  3.9954613E+04;  0.0000000E+00; -5.0760645E-01;  4.0000000E+04;  0.0000000E+00;  4.0020844E+04; -1.1983618E-02;  0.0000000E+00; -5.8610883E-04;  2.7688640E+03;
  5.0645348E-02;  9.9999998E-03;  2.6995829E-01;2808; -1.0607722E-03;  0.0000000E+00; -3.1062277E-06;  9.9948181E+02;  1.0000000E-01; -4.2932120E+02;3; -1.7883744E+00;  0.0000000E+00;  1.1161455E+01;0; -1.1431983E-02;  3.9939707E+04;  0.0000000E+00; -5.6141210E-01;  4.0000000E+04;  0.0000000E+00;  4.0016184E+04; -1.0648845E-02;  0.0000000E+00; -7.8313798E-04;  2.3116003E+03;
  5.0216772E-02;  9.9999998E-03;  2.7995628E-01;2809; -1.0433221E-03;  0.0000000E+00; -3.1284020E-05;  9.9930573E+02;  1.0000000E-01; -5.7519360E+02;3; -4.4449461E-01;  0.0000000E+00;  7.6416969E+00;0; -1.0222847E-02;  3.9930984E+04;  0.0000000E+00; -6.3520247E-01;  4.0000000E+04;  0.0000000E+00;  4.0010797E+04; -9.2706606E-03;  0.0000000E+00; -9.5218641E-04;  1.6099993E+03;
  4.9777146E-02;  9.9999998E-03;  2.8998631E-01;2810; -1.0665520E-03;  0.0000000E+00; -5.1396284E-05;  9.9918542E+02;  1.0000000E-01; -6.7484509E+02;3;  3.2640430E-01;  0.0000000E+00;  2.0069349E+00;0; -8.9577883E-03;  3.9929074E+04;  0.0000000E+00; -7.0159042E-01;  4.0000000E+04;  0.0000000E+00;  4.0001543E+04; -7.8852233E-03;  0.0000000E+00; -1.0725654E-03;  1.0480275E+03;
  4.9460929E-02;  9.9999998E-03;  2.9999870E-01;2811; -1.1124384E-03;  0.0000000E+00; -3.2733515E-05;  9.9913947E+02;  1.0000000E-01; -7.1291809E+02;3;  6.6816366E-01;  0.0000000E+00; -4.3700480E+00;0; -7.6701497E-03;  3.9932770E+04;  0.0000000E+00; -7.2657329E-01;  4.0000000E+04;  0.0000000E+00;  3.9993777E+04; -6.5385038E-03;  0.0000000E+00; -1.1316460E-03;  1.2105967E+03;
  6.1304707E-02;  9.9999998E-03;  2.4005674E-01;2866; -1.6111545E-03;  0.0000000E+00;  9.4935594E-06;  1.0011302E+03;  1.0000000E-01;  9.3636859E+02;3; -1.1903039E+01;  0.0000000E+00;  1.2078430E+01;0; -1.3860312E-02;  4.0076578E+04;  0.0000000E+00; -7.7708833E-02;  4.0000000E+04;  0.0000000E+00;  4.0018621E+04; -1.3700272E-02;  0.0000000E+00; -1.6004009E-04;  2.1611990E+03;
  6.1147552E-02;  9.9999998E-03;  2.5004816E-01;2867; -1.4322492E-03;  0.0000000E+00;  3.0139860E-05;  1.0007197E+03;  1.0000000E-01;  5.9632880E+02;3; -7.7697320E+00;  0.0000000E+00;  1.5357413E+01;0; -1.2958884E-02;  4.0038992E+04;  0.0000000E+00; -1.5473172E-01;  4.0000000E+04;  0.0000000E+00;  4.0021012E+04; -1.2619853E-02;  0.0000000E+00; -3.3903110E-04;  2.5788831E+03;
  6.0908101E-02;  9.9999998E-03;  2.6002470E-01;2868; -1.2959426E-03;  0.0000000E+00;  3.3719345E-05;  1.0003212E+03;  1.0000000E-01;  2.6616531E+02;3; -4.2980003E+00;  0.0000000E+00;  1.7185308E+01;0; -1.1983552E-02;  4.0005172E+04;  0.0000000E+00; -2.7498788E-01;  4.0000000E+04;  0.0000000E+00;  4.0020367E+04; -1.1437899E-02;  0.0000000E+00; -5.4565299E-04;  2.6271489E+03;
  6.0579687E-02;  9.9999998E-03;  2.6999879E-01;2869; -1.2137310E-03;  0.0000000E+00;  1.5035195E-05;  9.9994751E+02;  1.0000000E-01; -4.3504944E+01;3; -1.6063265E+00;  0.0000000E+00;  1.6437796E+01;0; -1.0932162E-02;  3.9976766E+04;  0.0000000E+00; -4.2740858E-01;  4.0000000E+04;  0.0000000E+00;  4.0017535E+04; -1.0177813E-02;  0.0000000E+00; -7.5434998E-04;  2.2842092E+03;
  6.0170699E-02;  9.9999998E-03;  2.7999982E-01;2870; -1.1861795E-03;  0.0000000E+00; -1.6728904E-05;  9.9962439E+02;  1.0000000E-01; -3.1120108E+02;3;  3.1918371E-01;  0.0000000E+00;  1.2623849E+01;0; -9.8054959E-03;  3.9956000E+04;  0.0000000E+00; -5.8693248E-01;  4.0000000E+04;  0.0000000E+00;  4.0010617E+04; -8.8680964E-03;  0.0000000E+00; -9.3739969E-04;  1.6663754E+03;
  5.9751444E-02;  9.9999998E-03;  2.9001990E-01;2871; -1.2018170E-03;  0.0000000E+00; -4.3213080E-05;  9.9938141E+02;  1.0000000E-01; -5.1247931E+02;3;  1.5734316E+00;  0.0000000E+00;  6.3559418E+00;0; -8.6167054E-03;  3.9943426E+04;  0.0000000E+00; -7.1747416E-01;  4.0000000E+04;  0.0000000E+00;  4.0003172E+04; -7.5460267E-03;  0.0000000E+00; -1.0706789E-03;  1.1268763E+03;
  5.9434459E-02;  9.9999998E-03;  3.0004203E-01;2872; -1.2401950E-03;  0.0000000E+00; -2.8572791E-05;  9.9922424E+02;  1.0000000E-01; -6.4269788E+02;3;  2.1775563E+00;  0.0000000E+00; -1.0884407E+00;0; -7.3932828E-03;  3.9938086E+04;  0.0000000E+00; -7.8129220E-01;  4.0000000E+04;  0.0000000E+00;  3.9995320E+04; -6.2536225E-03;  0.0000000E+00; -1.1396604E-03;  1.2078799E+03;
  7.1189262E-02;  9.9999998E-03;  2.4009000E-01;2927; -1.7005771E-03;  0.0000000E+00;  4.9957867E-05;  1.0015172E+03;  1.0000000E-01;  1.2569521E+03;3; -9.2598276E+00;  0.0000000E+00;  1.4632080E+01;0; -1.2961076E-02;  4.0109891E+04;  0.0000000E+00;  4.4140038E-01;  4.0000000E+04;  0.0000000E+00;  4.0017531E+04; -1.2862369E-02;  0.0000000E+00; -9.8706121E-05;  2.0848242E+03;
  7.1055382E-02;  9.9999998E-03;  2.5009105E-01;2928; -1.5199493E-03;  0.0000000E+00;  8.6714186E-05;  1.0010286E+03;  1.0000000E-01;  8.5212402E+02;3; -5.6994066E+00;  0.0000000E+00;  1.8307489E+01;0; -1.2161119E-02;  4.0064973E+04;  0.0000000E+00;  3.0023700E-01;  4.0000000E+04;  0.0000000E+00;  4.0020562E+04; -1.1885278E-02;  0.0000000E+00; -2.7584101E-04;  2.5056648E+03;
  7.0844442E-02;  9.9999998E-03;  2.6007289E-01;2929; -1.3824726E-03;  0.0000000E+00;  1.0063515E-04;  1.0005309E+03;  1.0000000E-01;  4.3979004E+02;3; -2.5225661E+00;  0.0000000E+00;  2.0339256E+01;0; -1.1290120E-02;  4.0023023E+04;  0.0000000E+00;  9.9606656E-02;  4.0000000E+04;  0.0000000E+00;  4.0020945E+04; -1.0801264E-02;  0.0000000E+00; -4.8885570E-04;  2.5701638E+03;
  7.0546545E-02;  9.9999998E-03;  2.7004680E-01;2930; -1.3005983E-03;  0.0000000E+00;  8.2915722E-05;  1.0000604E+03;  1.0000000E-01;  5.0072659E+01;3;  9.5079333E-02;  0.0000000E+00;  1.9520365E+01;0; -1.0342795E-02;  3.9986703E+04;  0.0000000E+00; -1.3711482E-01;  4.0000000E+04;  0.0000000E+00;  4.0018113E+04; -9.6323714E-03;  0.0000000E+00; -7.1042369E-04;  2.2277449E+03;
  7.0168763E-02;  9.9999998E-03;  2.8003496E-01;2931; -1.2730571E-03;  0.0000000E+00;  4.4267112E-05;  9.9964758E+02;  1.0000000E-01; -2.9199173E+02;3;  2.1015968E+00;  0.0000000E+00;  1.5258971E+01;0; -9.3176439E-03;  3.9957918E+04;  0.0000000E+00; -3.7590891E-01;  4.0000000E+04;  0.0000000E+00;  4.0011602E+04; -8.4080296E-03;  0.0000000E+00; -9.0961391E-04;  1.5734791E+03;
  6.9771752E-02;  9.9999998E-03;  2.9004472E-01;2932; -1.2873898E-03;  0.0000000E+00;  1.1135826E-05;  9.9932214E+02;  1.0000000E-01; -5.6161377E+02;3;  3.4691706E+00;  0.0000000E+00;  8.1292324E+00;0; -8.2234908E-03;  3.9938504E+04;  0.0000000E+00; -5.7565892E-01;  4.0000000E+04;  0.0000000E+00;  4.0003523E+04; -7.1646888E-03;  0.0000000E+00; -1.0588017E-03;  9.6071014E+02;
  6.9451973E-02;  9.9999998E-03;  3.0008313E-01;2933; -1.3217091E-03;  0.0000000E+00;  2.0049971E-05;  9.9910376E+02;  1.0000000E-01; -7.4249750E+02;3;  4.0936604E+00;  0.0000000E+00; -3.8227057E-01;0; -7.0831641E-03;  3.9928586E+04;  0.0000000E+00; -6.9639212E-01;  4.0000000E+04;  0.0000000E+00;  3.9995543E+04; -5.9425267E-03;  0.0000000E+00; -1.1406372E-03;  1.1104358E+03;
  8.1124254E-02;  9.9999998E-03;  2.4014418E-01;2988; -1.6945231E-03;  0.0000000E+00;  1.5015935E-04;  1.0014828E+03;  1.0000000E-01;  1.2285084E+03;3; -5.5858254E+00;  0.0000000E+00;  1.6055988E+01;0; -1.2101903E-02;  4.0108113E+04;  0.0000000E+00;  1.0297143E+00;  4.0000000E+04;  0.0000000E+00;  4.0016613E+04; -1.2076300E-02;  0.0000000E+00; -2.5602756E-05;  2.4772073E+03;
  8.1008993E-02;  9.9999998E-03;  2.5015101E-01;2989; -1.5164659E-03;  0.0000000E+00;  2.0518336E-04;  1.0009594E+03;  1.0000000E-01;  7.9484174E+02;3; -2.7547624E+00;  0.0000000E+00;  1.9911173E+01;0; -1.1412184E-02;  4.0060387E+04;  0.0000000E+00;  8.8990915E-01;  4.0000000E+04;  0.0000000E+00;  4.0020520E+04; -1.1213489E-02;  0.0000000E+00; -1.9869523E-04;  2.8056042E+03;
  8.0826528E-02;  9.9999998E-03;  2.6013058E-01;2990; -1.3826661E-03;  0.0000000E+00;  2.2784743E-04;  1.0004203E+03;  1.0000000E-01;  3.4823706E+02;3; -1.1558187E-01;  0.0000000E+00;  2.1951857E+01;0; -1.0651985E-02;  4.0014398E+04;  0.0000000E+00;  6.8020082E-01;  4.0000000E+04;  0.0000000E+00;  4.0021535E+04; -1.0236347E-02;  0.0000000E+00; -4.1563821E-04;  2.7826008E+03;
  8.0562159E-02;  9.9999998E-03;  2.7009481E-01;2991; -1.3052638E-03;  0.0000000E+00;  2.0900204E-04;  9.9989685E+02;  1.0000000E-01; -8.5479065E+01;3;  2.1881218E+00;  0.0000000E+00;  2.0777128E+01;0; -9.8131746E-03;  3.9973566E+04;  0.0000000E+00;  4.2306256E-01;  4.0000000E+04;  0.0000000E+00;  4.0018066E+04; -9.1650430E-03;  0.0000000E+00; -6.4813165E-04;  2.3185779E+03;
  8.0220215E-02;  9.9999998E-03;  2.8006408E-01;2992; -1.2854213E-03;  0.0000000E+00;  1.5656062E-04;  9.9942749E+02;  1.0000000E-01; -4.7430759E+02;3;  4.0605760E+00;  0.0000000E+00;  1.5705180E+01;0; -8.8931583E-03;  3.9941223E+04;  0.0000000E+00;  1.4886093E-01;  4.0000000E+04;  0.0000000E+00;  4.0010852E+04; -8.0297627E-03;  0.0000000E+00; -8.6339598E-04;  1.4548284E+03;
  7.9842426E-02;  9.9999998E-03;  2.9006553E-01;2993; -1.3080547E-03;  0.0000000E+00;  1.0207654E-04;  9.9905945E+02;  1.0000000E-01; -7.7923724E+02;3;  5.3813891E+00;  0.0000000E+00;  7.4199705E+00;0; -7.8979107E-03;  3.9919152E+04;  0.0000000E+00; -1.0536191E-01;  4.0000000E+04;  0.0000000E+00;  4.0002348E+04; -6.8673543E-03;  0.0000000E+00; -1.0305563E-03;  3.9487534E+02;
  7.9520382E-02;  9.9999998E-03;  3.0011904E-01;2994; -1.3425190E-03;  0.0000000E+00;  9.9447432E-05;  9.9881171E+02;  1.0000000E-01; -9.8446600E+02;3;  5.9680848E+00;  0.0000000E+00; -2.3898346E+00;0; -6.8451837E-03;  3.9908172E+04;  0.0000000E+00; -3.0031905E-01;  4.0000000E+04;  0.0000000E+00;  3.9993234E+04; -5.7181073E-03;  0.0000000E+00; -1.1270762E-03;  8.7921039E+02;
  9.1118254E-02;  9.9999998E-03;  2.4019039E-01;3049; -1.6378891E-03;  0.0000000E+00;  2.7652460E-04;  1.0011653E+03;  1.0000000E-01;  9.6540479E+02;3; -2.3034928E+00;  0.0000000E+00;  1.6784771E+01;0; -1.1450845E-02;  4.0082047E+04;  0.0000000E+00;  1.6905290E+00;  4.0000000E+04;  0.0000000E+00;  4.0017941E+04; -1.1502177E-02;  0.0000000E+00;  5.1332579E-05;  3.2691931E+03;
  9.1024153E-02;  9.9999998E-03;  2.5019804E-01;3050; -1.4635464E-03;  0.0000000E+00;  3.4797841E-04;  1.0006467E+03;  1.0000000E-01;  5.3578729E+02;3; -1.5123089E-01;  0.0000000E+00;  2.0721487E+01;0; -1.0870093E-02;  4.0034223E+04;  0.0000000E+00;  1.6699810E+00;  4.0000000E+04;  0.0000000E+00;  4.0022004E+04; -1.0757657E-02;  0.0000000E+00; -1.1243648E-04;  3.5983096E+03;
  9.0868279E-02;  9.9999998E-03;  2.6017374E-01;3051; -1.3315812E-03;  0.0000000E+00;  3.7606526E-04;  1.0000924E+03;  1.0000000E-01;  7.6541046E+01;3;  1.9775176E+00;  0.0000000E+00;  2.2565372E+01;0; -1.0215832E-02;  3.9987832E+04;  0.0000000E+00;  1.5805843E+00;  4.0000000E+04;  0.0000000E+00;  4.0022324E+04; -9.8887701E-03;  0.0000000E+00; -3.2706198E-04;  3.5551602E+03;
  9.0633005E-02;  9.9999998E-03;  2.7012742E-01;3052; -1.2509241E-03;  0.0000000E+00;  3.5606278E-04;  9.9954279E+02;  1.0000000E-01; -3.7880411E+02;3;  3.9585273E+00;  0.0000000E+00;  2.0748665E+01;0; -9.4768032E-03;  3.9945762E+04;  0.0000000E+00;  1.4227841E+00;  4.0000000E+04;  0.0000000E+00;  4.0017672E+04; -8.9125056E-03;  0.0000000E+00; -5.6429754E-04;  3.0526855E+03;
  9.0326153E-02;  9.9999998E-03;  2.8007969E-01;3053; -1.2270322E-03;  0.0000000E+00;  2.9375500E-04;  9.9904230E+02;  1.0000000E-01; -7.9345905E+02;3;  5.6726880E+00;  0.0000000E+00;  1.4462490E+01;0; -8.6505767E-03;  3.9912137E+04;  0.0000000E+00;  1.2024977E+00;  4.0000000E+04;  0.0000000E+00;  4.0009418E+04; -7.8595756E-03;  0.0000000E+00; -7.9100113E-04;  2.1747966E+03;
  8.9967489E-02;  9.9999998E-03;  2.9007310E-01;3054; -1.2502196E-03;  0.0000000E+00;  2.1754614E-04;  9.9865741E+02;  1.0000000E-01; -1.1123142E+03;3;  6.9520164E+00;  0.0000000E+00;  4.5703616E+00;0; -7.7437442E-03;  3.9890043E+04;  0.0000000E+00;  9.3717402E-01;  4.0000000E+04;  0.0000000E+00;  3.9999566E+04; -6.7691882E-03;  0.0000000E+00; -9.7455614E-04;  1.3521119E+03;
  8.9647666E-02;  9.9999998E-03;  3.0013958E-01;3055; -1.2798455E-03;  0.0000000E+00;  1.9707787E-04;  9.9841473E+02;  1.0000000E-01; -1.3133456E+03;3;  7.5573649E+00;  0.0000000E+00; -6.8277655E+00;0; -6.7684846E-03;  3.9880285E+04;  0.0000000E+00;  6.5784317E-01;  4.0000000E+04;  0.0000000E+00;  3.9988680E+04; -5.6823809E-03;  0.0000000E+00; -1.0861035E-03;  1.6042697E+03;
  1.0120696E-01;  9.9999998E-03;  2.4017484E-01;3110; -1.6038951E-03;  0.0000000E+00;  3.6349762E-04;  1.0007232E+03;  1.0000000E-01;  5.9919293E+02;3; -2.7769674E-02;  0.0000000E+00;  1.7242701E+01;0; -1.1126289E-02;  4.0043766E+04;  0.0000000E+00;  2.4660261E+00;  4.0000000E+04;  0.0000000E+00;  4.0021371E+04; -1.1250534E-02;  0.0000000E+00;  1.2424542E-04;  4.3975830E+03;
  1.0112981E-01;  9.9999998E-03;  2.5018206E-01;3111; -1.4354858E-03;  0.0000000E+00;  4.3841885E-04;  1.0002205E+03;  1.0000000E-01;  1.8271088E+02;3;  1.6207876E+00;  0.0000000E+00;  2.1177139E+01;0; -1.0648232E-02;  3.9998285E+04;  0.0000000E+00;  2.7251647E+00;  4.0000000E+04;  0.0000000E+00;  4.0024105E+04; -1.0625737E-02;  0.0000000E+00; -2.2494933E-05;  4.9623438E+03;
  1.0099032E-01;  9.9999998E-03;  2.6015666E-01;3112; -1.3006219E-03;  0.0000000E+00;  4.6857409E-04;  9.9966272E+02;  1.0000000E-01; -2.7944888E+02;3;  3.3810117E+00;  0.0000000E+00;  2.2708107E+01;0; -1.0089234E-02;  3.9952270E+04;  0.0000000E+00;  2.9354110E+00;  4.0000000E+04;  0.0000000E+00;  4.0023477E+04; -9.8640295E-03;  0.0000000E+00; -2.2520404E-04;  5.1762686E+03;
  1.0078028E-01;  9.9999998E-03;  2.7010143E-01;3113; -1.2018619E-03;  0.0000000E+00;  4.5265423E-04;  9.9909534E+02;  1.0000000E-01; -7.4950964E+02;3;  5.1549931E+00;  0.0000000E+00;  2.0093363E+01;0; -9.4338702E-03;  3.9910312E+04;  0.0000000E+00;  3.0515773E+00;  4.0000000E+04;  0.0000000E+00;  4.0018531E+04; -8.9771161E-03;  0.0000000E+00; -4.5675389E-04;  4.9865132E+03;
  1.0049967E-01;  9.9999998E-03;  2.8004447E-01;3114; -1.1443639E-03;  0.0000000E+00;  3.9236879E-04;  9.9858032E+02;  1.0000000E-01; -1.1761643E+03;3;  6.8040147E+00;  0.0000000E+00;  1.2408381E+01;0; -8.6786179E-03;  3.9876863E+04;  0.0000000E+00;  3.0263724E+00;  4.0000000E+04;  0.0000000E+00;  4.0008512E+04; -7.9928674E-03;  0.0000000E+00; -6.8575051E-04;  4.5142437E+03;
  1.0016324E-01;  9.9999998E-03;  2.9003519E-01;3115; -1.1277635E-03;  0.0000000E+00;  3.0858719E-04;  9.9817877E+02;  1.0000000E-01; -1.5088462E+03;3;  8.1412039E+00;  0.0000000E+00;  4.0811023E-01;0; -7.8320242E-03;  3.9856141E+04;  0.0000000E+00;  2.8347409E+00;  4.0000000E+04;  0.0000000E+00;  3.9996398E+04; -6.9522737E-03;  0.0000000E+00; -8.7975047E-04;  4.0945408E+03;
  9.9848665E-02;  9.9999998E-03;  3.0012226E-01;3116; -1.1188433E-03;  0.0000000E+00;  2.8379279E-04;  9.9794342E+02;  1.0000000E-01; -1.7038530E+03;3;  8.8680630E+00;  0.0000000E+00; -1.3179413E+01;0; -6.9011846E-03;  3.9849090E+04;  0.0000000E+00;  2.4802427E+00;  4.0000000E+04;  0.0000000E+00;  3.9982641E+04; -5.8982200E-03;  0.0000000E+00; -1.0029647E-03;  4.1037754E+03;
  1.1134094E-01;  9.9999998E-03;  2.4008480E-01;3171; -1.6421612E-03;  0.0000000E+00;  3.5238659E-04;  1.0002919E+03;  1.0000000E-01;  2.4186971E+02;3;  1.2403318E+00;  0.0000000E+00;  1.7747475E+01;0; -1.1173571E-02;  4.0004992E+04;  0.0000000E+00;  3.4073718E+00;  4.0000000E+04;  0.0000000E+00;  4.0026520E+04; -1.1359194E-02;  0.0000000E+00;  1.8562307E-04;  5.8624443E+03;
  1.1125347E-01;  9.9999998E-03;  2.5009134E-01;3172; -1.4775272E-03;  0.0000000E+00;  4.2214917E-04;  9.9980463E+02;  1.0000000E-01; -1.6187196E+02;3;  2.5971026E+00;  0.0000000E+00;  2.1721333E+01;0; -1.0791465E-02;  3.9961391E+04;  0.0000000E+00;  4.1266189E+00;  4.0000000E+04;  0.0000000E+00;  4.0028336E+04; -1.0855514E-02;  0.0000000E+00;  6.4049149E-05;  6.9511924E+03;
  1.1112603E-01;  9.9999998E-03;  2.6006120E-01;3173; -1.3345687E-03;  0.0000000E+00;  4.5260286E-04;  9.9924268E+02;  1.0000000E-01; -6.2743903E+02;3;  4.1876755E+00;  0.0000000E+00;  2.3020332E+01;0; -1.0320151E-02;  3.9915566E+04;  0.0000000E+00;  4.8473911E+00;  4.0000000E+04;  0.0000000E+00;  4.0027301E+04; -1.0203579E-02;  0.0000000E+00; -1.1657295E-04;  7.7921665E+03;
  1.1095884E-01;  9.9999998E-03;  2.6999074E-01;3174; -1.2154250E-03;  0.0000000E+00;  4.3595649E-04;  9.9865015E+02;  1.0000000E-01; -1.1183387E+03;3;  5.9272103E+00;  0.0000000E+00;  1.9731930E+01;0; -9.7414395E-03;  3.9873305E+04;  0.0000000E+00;  5.4574127E+00;  4.0000000E+04;  0.0000000E+00;  4.0020309E+04; -9.4089089E-03;  0.0000000E+00; -3.3253082E-04;  8.3099941E+03;
  1.1073107E-01;  9.9999998E-03;  2.7991191E-01;3175; -1.1102555E-03;  0.0000000E+00;  3.7954131E-04;  9.9809210E+02;  1.0000000E-01; -1.5806466E+03;3;  7.6619048E+00;  0.0000000E+00;  1.0743512E+01;0; -9.0419538E-03;  3.9839148E+04;  0.0000000E+00;  5.8307476E+00;  4.0000000E+04;  0.0000000E+00;  4.0009027E+04; -8.4879790E-03;  0.0000000E+00; -5.5397511E-04;  8.5050635E+03;
  1.1044706E-01;  9.9999998E-03;  2.8988487E-01;3176; -1.0085780E-03;  0.0000000E+00;  3.1103339E-04;  9.9765991E+02;  1.0000000E-01; -1.9387106E+03;3;  9.1465559E+00;  0.0000000E+00; -3.2758613E+00;0; -8.2158633E-03;  3.9817805E+04;  0.0000000E+00;  5.8620577E+00;  4.0000000E+04;  0.0000000E+00;  3.9993508E+04; -7.4685710E-03;  0.0000000E+00; -7.4729265E-04;  8.4666094E+03;
  1.1015303E-01;  9.9999998E-03;  2.9999879E-01;3177; -9.0129033E-04;  0.0000000E+00;  3.0453110E-04;  9.9739734E+02;  1.0000000E-01; -2.1562354E+03;3;  1.0029368E+01;  0.0000000E+00; -1.9869762E+01;0; -7.2603077E-03;  3.9812594E+04;  0.0000000E+00;  5.4801993E+00;  4.0000000E+04;  0.0000000E+00;  3.9976824E+04; -6.3872784E-03;  0.0000000E+00; -8.7302900E-04;  8.3384482E+03;
  1.2138253E-01;  9.9999998E-03;  2.3999192E-01;3232; -1.7601387E-03;  0.0000000E+00;  2.5155951E-04;  9.9996906E+02;  1.0000000E-01; -2.5628904E+01;3;  1.7930082E+00;  0.0000000E+00;  1.8541414E+01;0; -1.1553042E-02;  3.9973605E+04;  0.0000000E+00;  4.5298176E+00;  4.0000000E+04;  0.0000000E+00;  4.0032023E+04; -1.1781392E-02;  0.0000000E+00;  2.2834976E-04;  7.6283594E+03;
  1.2127326E-01;  9.9999998E-03;  2.4998963E-01;3233; -1.5983400E-03;  0.0000000E+00;  3.1237490E-04;  9.9949066E+02;  1.0000000E-01; -4.2196338E+02;3;  3.0765915E+00;  0.0000000E+00;  2.2742975E+01;0; -1.1267131E-02;  3.9931086E+04;  0.0000000E+00;  5.8806863E+00;  4.0000000E+04;  0.0000000E+00;  4.0033320E+04; -1.1404265E-02;  0.0000000E+00;  1.3713306E-04;  9.5275840E+03;
  1.2113857E-01;  9.9999998E-03;  2.5994864E-01;3234; -1.4479336E-03;  0.0000000E+00;  3.3474743E-04;  9.9891986E+02;  1.0000000E-01; -8.9488824E+02;3;  4.7427521E+00;  0.0000000E+00;  2.4102991E+01;0; -1.0889684E-02;  3.9885586E+04;  0.0000000E+00;  7.3331699E+00;  4.0000000E+04;  0.0000000E+00;  4.0032090E+04; -1.0872838E-02;  0.0000000E+00; -1.6845879E-05;  1.1371051E+04;
  1.2098832E-01;  9.9999998E-03;  2.6986593E-01;3235; -1.3100869E-03;  0.0000000E+00;  3.0630562E-04;  9.9830048E+02;  1.0000000E-01; -1.4080095E+03;3;  6.7066259E+00;  0.0000000E+00;  2.0574099E+01;0; -1.0398823E-02;  3.9841676E+04;  0.0000000E+00;  8.6971741E+00;  4.0000000E+04;  0.0000000E+00;  4.0024836E+04; -1.0183361E-02;  0.0000000E+00; -2.1546148E-04;  1.2992041E+04;
  1.2083593E-01;  9.9999998E-03;  2.7975622E-01;3236; -1.1664503E-03;  0.0000000E+00;  2.3976286E-04;  9.9769611E+02;  1.0000000E-01; -1.9087361E+03;3;  8.7587833E+00;  0.0000000E+00;  1.1067389E+01;0; -9.7691985E-03;  3.9804480E+04;  0.0000000E+00;  9.7496223E+00;  4.0000000E+04;  0.0000000E+00;  4.0013090E+04; -9.3403459E-03;  0.0000000E+00; -4.2885239E-04;  1.4209277E+04;
  1.2067482E-01;  9.9999998E-03;  2.8967518E-01;3237; -9.8599575E-04;  0.0000000E+00;  1.7610383E-04;  9.9717493E+02;  1.0000000E-01; -2.3405264E+03;3;  1.0532758E+01;  0.0000000E+00; -4.1089654E+00;0; -8.9574503E-03;  3.9778148E+04;  0.0000000E+00;  1.0263016E+01;  4.0000000E+04;  0.0000000E+00;  3.9996043E+04; -8.3407117E-03;  0.0000000E+00; -6.1673828E-04;  1.4825886E+04;
  1.2051877E-01;  9.9999998E-03;  2.9973146E-01;3238; -7.4600964E-04;  0.0000000E+00;  1.9537375E-04;  9.9678687E+02;  1.0000000E-01; -2.6619988E+03;3;  1.1532317E+01;  0.0000000E+00; -2.3304369E+01;0; -7.9054814E-03;  3.9765469E+04;  0.0000000E+00;  1.0007800E+01;  4.0000000E+04;  0.0000000E+00;  3.9976672E+04; -7.1758544E-03;  0.0000000E+00; -7.2962674E-04;  1.4670431E+04;
  1.3136104E-01;  9.9999998E-03;  2.3990211E-01;3293; -1.9513735E-03;  0.0000000E+00;  1.0330162E-04;  9.9980310E+02;  1.0000000E-01; -1.6310649E+02;3;  1.9623758E+00;  0.0000000E+00;  1.9789368E+01;0; -1.2182216E-02;  3.9953988E+04;  0.0000000E+00;  5.7767825E+00;  4.0000000E+04;  0.0000000E+00;  4.0037625E+04; -1.2428320E-02;  0.0000000E+00;  2.4610426E-04;  9.6060889E+03;
  1.3123223E-01;  9.9999998E-03;  2.4988340E-01;3294; -1.7958009E-03;  0.0000000E+00;  1.5011830E-04;  9.9932214E+02;  1.0000000E-01; -5.6161377E+02;3;  3.4041271E+00;  0.0000000E+00;  2.4594593E+01;0; -1.2010319E-02;  3.9910691E+04;  0.0000000E+00;  7.8926544E+00;  4.0000000E+04;  0.0000000E+00;  4.0041652E+04; -1.2195448E-02;  0.0000000E+00;  1.8512947E-04;  1.2567668E+04;
  1.3108315E-01;  9.9999998E-03;  2.5982594E-01;3295; -1.6428323E-03;  0.0000000E+00;  1.5541213E-04;  9.9874420E+02;  1.0000000E-01; -1.0404150E+03;3;  5.4738092E+00;  0.0000000E+00;  2.6702742E+01;0; -1.1757589E-02;  3.9864117E+04;  0.0000000E+00;  1.0289298E+01;  4.0000000E+04;  0.0000000E+00;  4.0039836E+04; -1.1812056E-02;  0.0000000E+00;  5.4467062E-05;  1.5772866E+04;
  1.3093697E-01;  9.9999998E-03;  2.6972589E-01;3296; -1.4855179E-03;  0.0000000E+00;  1.1171605E-04;  9.9811194E+02;  1.0000000E-01; -1.5642026E+03;3;  8.1076078E+00;  0.0000000E+00;  2.4098888E+01;0; -1.1392695E-02;  3.9819059E+04;  0.0000000E+00;  1.2721269E+01;  4.0000000E+04;  0.0000000E+00;  4.0033188E+04; -1.1259562E-02;  0.0000000E+00; -1.3313279E-04;  1.8963842E+04;
  1.3080987E-01;  9.9999998E-03;  2.7960274E-01;3297; -1.3118654E-03;  0.0000000E+00;  3.1174888E-05;  9.9747534E+02;  1.0000000E-01; -2.0916445E+03;3;  1.0962307E+01;  0.0000000E+00;  1.5382355E+01;0; -1.0873678E-02;  3.9778875E+04;  0.0000000E+00;  1.4843965E+01;  4.0000000E+04;  0.0000000E+00;  4.0022129E+04; -1.0524347E-02;  0.0000000E+00; -3.4933072E-04;  2.1727750E+04;
  1.3072622E-01;  9.9999998E-03;  2.8949398E-01;3298; -1.0787972E-03;  0.0000000E+00; -4.7179674E-05;  9.9686841E+02;  1.0000000E-01; -2.5944451E+03;3;  1.3441027E+01;  0.0000000E+00;  3.3376038E-01;0; -1.0112770E-02;  3.9745918E+04;  0.0000000E+00;  1.6247669E+01;  4.0000000E+04;  0.0000000E+00;  4.0005848E+04; -9.5661553E-03;  0.0000000E+00; -5.4661505E-04;  2.3545311E+04;
  1.3071312E-01;  9.9999998E-03;  2.9951286E-01;3299; -7.2691042E-04;  0.0000000E+00; -3.7009282E-05;  9.9626770E+02;  1.0000000E-01; -3.0921594E+03;3;  1.4687639E+01;  0.0000000E+00; -2.1271620E+01;0; -8.9378292E-03;  3.9718281E+04;  0.0000000E+00;  1.6380072E+01;  4.0000000E+04;  0.0000000E+00;  3.9984598E+04; -8.2835425E-03;  0.0000000E+00; -6.5428694E-04;  2.3720371E+04;
  1.4130782E-01;  9.9999998E-03;  2.3983805E-01;3354; -2.1939233E-03;  0.0000000E+00; -2.8896431E-05;  9.9979602E+02;  1.0000000E-01; -1.6898288E+02;3;  1.9645567E+00;  0.0000000E+00;  2.1353258E+01;0; -1.2955062E-02;  3.9946320E+04;  0.0000000E+00;  7.0150051E+00;  4.0000000E+04;  0.0000000E+00;  4.0043652E+04; -1.3193391E-02;  0.0000000E+00;  2.3832874E-04;  1.1587722E+04;
  1.4117663E-01;  9.9999998E-03;  2.4979320E-01;3355; -2.0574478E-03;  0.0000000E+00; -2.9997434E-06;  9.9930597E+02;  1.0000000E-01; -5.7499609E+02;3;  3.8099492E+00;  0.0000000E+00;  2.7260674E+01;0; -1.2934795E-02;  3.9900832E+04;  0.0000000E+00;  9.9613256E+00;  4.0000000E+04;  0.0000000E+00;  4.0049801E+04; -1.3137368E-02;  0.0000000E+00;  2.0257405E-04;  1.5788536E+04;
  1.4101978E-01;  9.9999998E-03;  2.5971261E-01;3356; -1.9086287E-03;  0.0000000E+00; -7.4765512E-06;  9.9872760E+02;  1.0000000E-01; -1.0541431E+03;3;  6.7050481E+00;  0.0000000E+00;  3.1120049E+01;0; -1.2856594E-02;  3.9852227E+04;  0.0000000E+00;  1.3497990E+01;  4.0000000E+04;  0.0000000E+00;  4.0051289E+04; -1.2948883E-02;  0.0000000E+00;  9.2288654E-05;  2.0702037E+04;
  1.4085230E-01;  9.9999998E-03;  2.6960146E-01;3357; -1.7407176E-03;  0.0000000E+00; -5.9233516E-05;  9.9810846E+02;  1.0000000E-01; -1.5671162E+03;3;  1.0672920E+01;  0.0000000E+00;  3.0908735E+01;0; -1.2681415E-02;  3.9805492E+04;  0.0000000E+00;  1.7378307E+01;  4.0000000E+04;  0.0000000E+00;  4.0047473E+04; -1.2589921E-02;  0.0000000E+00; -9.1493654E-05;  2.6029787E+04;
  1.4073011E-01;  9.9999998E-03;  2.7946427E-01;3358; -1.5350202E-03;  0.0000000E+00; -1.4263777E-04;  9.9747491E+02;  1.0000000E-01; -2.0919902E+03;3;  1.5311588E+01;  0.0000000E+00;  2.5112085E+01;0; -1.2335773E-02;  3.9762957E+04;  0.0000000E+00;  2.1130665E+01;  4.0000000E+04;  0.0000000E+00;  4.0039148E+04; -1.2016537E-02;  0.0000000E+00; -3.1923631E-04;  3.1144854E+04;
  1.4069009E-01;  9.9999998E-03;  2.8934011E-01;3359; -1.2661412E-03;  0.0000000E+00; -2.3125186E-04;  9.9680652E+02;  1.0000000E-01; -2.6457524E+03;3;  1.9598427E+01;  0.0000000E+00;  1.2335150E+01;0; -1.1699289E-02;  3.9722945E+04;  0.0000000E+00;  2.4038855E+01;  4.0000000E+04;  0.0000000E+00;  4.0024910E+04; -1.1157203E-02;  0.0000000E+00; -5.4208608E-04;  3.5033941E+04;
  1.4079466E-01;  9.9999998E-03;  2.9933321E-01;3360; -8.5431844E-04;  0.0000000E+00; -2.6749566E-04;  9.9592474E+02;  1.0000000E-01; -3.3762502E+03;3;  2.1926939E+01;  0.0000000E+00; -1.0551708E+01;0; -1.0492636E-02;  3.9673645E+04;  0.0000000E+00;  2.4969872E+01;  4.0000000E+04;  0.0000000E+00;  4.0004973E+04; -9.8078670E-03;  0.0000000E+00; -6.8476913E-04;  3.6115375E+04;
  1.5126291E-01;  9.9999998E-03;  2.3982234E-01;3415; -2.4647620E-03;  0.0000000E+00; -1.0126684E-04;  9.9990332E+02;  1.0000000E-01; -8.0096497E+01;3;  1.8827001E+00;  0.0000000E+00;  2.2721685E+01;0; -1.3753419E-02;  3.9949523E+04;  0.0000000E+00;  8.0580959E+00;  4.0000000E+04;  0.0000000E+00;  4.0048047E+04; -1.3968918E-02;  0.0000000E+00;  2.1549840E-04;  1.3250712E+04;
  1.5113616E-01;  9.9999998E-03;  2.4975738E-01;3416; -2.3591556E-03;  0.0000000E+00; -8.1125065E-05;  9.9940234E+02;  1.0000000E-01; -4.9514648E+02;3;  4.3352962E+00;  0.0000000E+00;  2.9964931E+01;0; -1.3920352E-02;  3.9900621E+04;  0.0000000E+00;  1.1798618E+01;  4.0000000E+04;  0.0000000E+00;  4.0056949E+04; -1.4129688E-02;  0.0000000E+00;  2.0933658E-04;  1.8717787E+04;
  1.5098113E-01;  9.9999998E-03;  2.5965977E-01;3417; -2.2336934E-03;  0.0000000E+00; -8.3692219E-05;  9.9882446E+02;  1.0000000E-01; -9.7389838E+02;3;  8.5134830E+00;  0.0000000E+00;  3.6183525E+01;0; -1.4078435E-02;  3.9847730E+04;  0.0000000E+00;  1.6577845E+01;  4.0000000E+04;  0.0000000E+00;  4.0062500E+04; -1.4204524E-02;  0.0000000E+00;  1.2608885E-04;  2.5558449E+04;
  1.5080084E-01;  9.9999998E-03;  2.6953897E-01;3418; -2.0648935E-03;  0.0000000E+00; -1.1055156E-04;  9.9823462E+02;  1.0000000E-01; -1.4625759E+03;3;  1.4687226E+01;  0.0000000E+00;  3.9520195E+01;0; -1.4155279E-02;  3.9798801E+04;  0.0000000E+00;  2.2274836E+01;  4.0000000E+04;  0.0000000E+00;  4.0064238E+04; -1.4125633E-02;  0.0000000E+00; -2.9645918E-05;  3.3604977E+04;
  1.5064277E-01;  9.9999998E-03;  2.7941540E-01;3419; -1.8243112E-03;  0.0000000E+00; -1.5228022E-04;  9.9766083E+02;  1.0000000E-01; -1.9379698E+03;3;  2.2386621E+01;  0.0000000E+00;  3.7520302E+01;0; -1.4017612E-02;  3.9755977E+04;  0.0000000E+00;  2.8298103E+01;  4.0000000E+04;  0.0000000E+00;  4.0060129E+04; -1.3787823E-02;  0.0000000E+00; -2.2978848E-04;  4.1986133E+04;
  1.5062191E-01;  9.9999998E-03;  2.8931224E-01;3420; -1.4854341E-03;  0.0000000E+00; -1.8901852E-04;  9.9693378E+02;  1.0000000E-01; -2.5403232E+03;3;  3.0078245E+01;  0.0000000E+00;  2.6946468E+01;0; -1.3464015E-02;  3.9709402E+04;  0.0000000E+00;  3.3317951E+01;  4.0000000E+04;  0.0000000E+00;  4.0049965E+04; -1.3042502E-02;  0.0000000E+00; -4.2151264E-04;  4.8808203E+04;
  1.5082739E-01;  9.9999998E-03;  2.9931200E-01;3421; -1.0133642E-03;  0.0000000E+00; -2.2156163E-04;  9.9565991E+02;  1.0000000E-01; -3.5957007E+03;3;  3.4793251E+01;  0.0000000E+00;  1.6831380E+00;0; -1.2214810E-02;  3.9630211E+04;  0.0000000E+00;  3.5145668E+01;  4.0000000E+04;  0.0000000E+00;  4.0029098E+04; -1.1639466E-02;  0.0000000E+00; -5.7534385E-04;  5.0969664E+04;
  1.6124125E-01;  9.9999998E-03;  2.3986959E-01;3476; -2.7609314E-03;  0.0000000E+00; -1.2151038E-04;  1.0000439E+03;  1.0000000E-01;  3.6344650E+01;3;  1.6593971E+00;  0.0000000E+00;  2.3007351E+01;0; -1.4474466E-02;  3.9959836E+04;  0.0000000E+00;  8.7175350E+00;  4.0000000E+04;  0.0000000E+00;  4.0048508E+04; -1.4660172E-02;  0.0000000E+00;  1.8570604E-04;  1.4214395E+04;
  1.6115889E-01;  9.9999998E-03;  2.4980134E-01;3477; -2.6876258E-03;  0.0000000E+00; -7.7118544E-05;  9.9949854E+02;  1.0000000E-01; -4.1544504E+02;3;  4.7679577E+00;  0.0000000E+00;  3.0998732E+01;0; -1.4845734E-02;  3.9904527E+04;  0.0000000E+00;  1.3006979E+01;  4.0000000E+04;  0.0000000E+00;  4.0060355E+04; -1.5079863E-02;  0.0000000E+00;  2.3412894E-04;  2.0641367E+04;
  1.6100846E-01;  9.9999998E-03;  2.5970706E-01;3478; -2.5823545E-03;  0.0000000E+00; -3.0545820E-05;  9.9890167E+02;  1.0000000E-01; -9.0994958E+02;3;  1.0418771E+01;  0.0000000E+00;  3.8856422E+01;0; -1.5242943E-02;  3.9846023E+04;  0.0000000E+00;  1.8854527E+01;  4.0000000E+04;  0.0000000E+00;  4.0070238E+04; -1.5480544E-02;  0.0000000E+00;  2.3760195E-04;  2.9201490E+04;
  1.6081685E-01;  9.9999998E-03;  2.6960212E-01;3479; -2.4042861E-03;  0.0000000E+00;  2.7485394E-05;  9.9831061E+02;  1.0000000E-01; -1.3996147E+03;3;  1.9301455E+01;  0.0000000E+00;  4.4548080E+01;0; -1.5537861E-02;  3.9792379E+04;  0.0000000E+00;  2.6379131E+01;  4.0000000E+04;  0.0000000E+00;  4.0076070E+04; -1.5757058E-02;  0.0000000E+00;  2.1919738E-04;  4.0007836E+04;
  1.6065116E-01;  9.9999998E-03;  2.7952653E-01;3480; -2.0789390E-03;  0.0000000E+00;  1.1143206E-04;  9.9769965E+02;  1.0000000E-01; -1.9058226E+03;3;  3.0791185E+01;  0.0000000E+00;  4.3344582E+01;0; -1.5432074E-02;  3.9746074E+04;  0.0000000E+00;  3.4722034E+01;  4.0000000E+04;  0.0000000E+00;  4.0072812E+04; -1.5657559E-02;  0.0000000E+00;  2.2548524E-04;  5.1707246E+04;
  1.6065681E-01;  9.9999998E-03;  2.8950557E-01;3481; -1.5500056E-03;  0.0000000E+00;  2.0980359E-04;  9.9674445E+02;  1.0000000E-01; -2.6971582E+03;3;  4.2013687E+01;  0.0000000E+00;  2.8489931E+01;0; -1.4500437E-02;  3.9685262E+04;  0.0000000E+00;  4.1285622E+01;  4.0000000E+04;  0.0000000E+00;  4.0058281E+04; -1.4772275E-02;  0.0000000E+00;  2.7183769E-04;  6.0586121E+04;
  1.6099648E-01;  9.9999998E-03;  2.9955301E-01;3482; -8.4870571E-04;  0.0000000E+00;  2.3351387E-04;  9.9470007E+02;  1.0000000E-01; -4.3908882E+03;3;  4.8998363E+01;  0.0000000E+00; -6.1340027E+00;0; -1.2481952E-02;  3.9550645E+04;  0.0000000E+00;  4.2132851E+01;  4.0000000E+04;  0.0000000E+00;  4.0031746E+04; -1.2707543E-02;  0.0000000E+00;  2.2559031E-04;  6.1183254E+04;
  1.7120476E-01;  9.9999998E-03;  2.3998779E-01;3537; -3.0522891E-03;  0.0000000E+00; -9.6772470E-05;  1.0001236E+03;  1.0000000E-01;  1.0241685E+02;3;  1.0671439E+00;  0.0000000E+00;  2.1244547E+01;0; -1.5017258E-02;  3.9972754E+04;  0.0000000E+00;  8.9074392E+00;  4.0000000E+04;  0.0000000E+00;  4.0041520E+04; -1.5180483E-02;  0.0000000E+00;  1.6322520E-04;  1.4197425E+04;
  1.7118017E-01;  9.9999998E-03;  2.4994136E-01;3538; -3.0016343E-03;  0.0000000E+00; -2.4367198E-05;  9.9949481E+02;  1.0000000E-01; -4.1855606E+02;3;  4.4724774E+00;  0.0000000E+00;  2.8176775E+01;0; -1.5585640E-02;  3.9911391E+04;  0.0000000E+00;  1.3272504E+01;  4.0000000E+04;  0.0000000E+00;  4.0051480E+04; -1.5876653E-02;  0.0000000E+00;  2.9101182E-04;  2.0850137E+04;
  1.7108184E-01;  9.9999998E-03;  2.5986999E-01;3539; -2.8964498E-03;  0.0000000E+00;  8.2580387E-05;  9.9878455E+02;  1.0000000E-01; -1.0069839E+03;3;  1.1039566E+01;  0.0000000E+00;  3.4808044E+01;0; -1.6178975E-02;  3.9844133E+04;  0.0000000E+00;  1.9440134E+01;  4.0000000E+04;  0.0000000E+00;  4.0062051E+04; -1.6627477E-02;  0.0000000E+00;  4.4850301E-04;  3.0059547E+04;
  1.7093083E-01;  9.9999998E-03;  2.6980668E-01;3540; -2.6614701E-03;  0.0000000E+00;  2.3281605E-04;  9.9804022E+02;  1.0000000E-01; -1.6236578E+03;3;  2.1711227E+01;  0.0000000E+00;  3.7948208E+01;0; -1.6555540E-02;  3.9778918E+04;  0.0000000E+00;  2.7739346E+01;  4.0000000E+04;  0.0000000E+00;  4.0066098E+04; -1.7241348E-02;  0.0000000E+00;  6.8580743E-04;  4.2139145E+04;
  1.7083122E-01;  9.9999998E-03;  2.7978924E-01;3541; -2.1782808E-03;  0.0000000E+00;  4.0566333E-04;  9.9711560E+02;  1.0000000E-01; -2.3896609E+03;3;  3.5517609E+01;  0.0000000E+00;  3.0287319E+01;0; -1.6217360E-02;  3.9712477E+04;  0.0000000E+00;  3.6694973E+01;  4.0000000E+04;  0.0000000E+00;  4.0058277E+04; -1.7219821E-02;  0.0000000E+00;  1.0024612E-03;  5.4817754E+04;
  1.7097150E-01;  9.9999998E-03;  2.8982544E-01;3542; -1.4398256E-03;  0.0000000E+00;  4.5024278E-04;  9.9541608E+02;  1.0000000E-01; -3.7976704E+03;3;  4.8000797E+01;  0.0000000E+00;  2.8935010E+00;0; -1.4861310E-02;  3.9600945E+04;  0.0000000E+00;  4.1597149E+01;  4.0000000E+04;  0.0000000E+00;  4.0034598E+04; -1.5935348E-02;  0.0000000E+00;  1.0740387E-03;  6.1355609E+04;
  1.7145333E-01;  9.9999998E-03;  2.9984811E-01;3543; -1.0533840E-03;  0.0000000E+00;  3.1468375E-05;  9.9219128E+02;  1.0000000E-01; -6.4693975E+03;3;  5.5552532E+01;  0.0000000E+00; -4.0860870E+01;0; -1.4796307E-02;  3.9371453E+04;  0.0000000E+00;  3.8322418E+01;  4.0000000E+04;  0.0000000E+00;  4.0010215E+04; -1.4827618E-02;  0.0000000E+00;  3.1311429E-05;  5.5956945E+04;
  1.8110028E-01;  9.9999998E-03;  2.4014449E-01;3598; -3.2944446E-03;  0.0000000E+00; -8.4081883E-05;  1.0000840E+03;  1.0000000E-01;  6.9627663E+01;3; -9.0289101E-02;  0.0000000E+00;  1.7130686E+01;0; -1.5341689E-02;  3.9986848E+04;  0.0000000E+00;  8.7999945E+00;  4.0000000E+04;  0.0000000E+00;  4.0023691E+04; -1.5457391E-02;  0.0000000E+00;  1.1570154E-04;  1.3507956E+04;
  1.8110967E-01;  9.9999998E-03;  2.5012022E-01;3599; -3.2472794E-03;  0.0000000E+00; -2.5882258E-05;  9.9939008E+02;  1.0000000E-01; -5.0531903E+02;3;  2.9290013E+00;  0.0000000E+00;  2.1150925E+01;0; -1.6125571E-02;  3.9924590E+04;  0.0000000E+00;  1.2883819E+01;  4.0000000E+04;  0.0000000E+00;  4.0029906E+04; -1.6399244E-02;  0.0000000E+00;  2.7367339E-04;  1.9804068E+04;
  1.8108706E-01;  9.9999998E-03;  2.6007119E-01;3600; -3.1093729E-03;  0.0000000E+00;  7.6645512E-05;  9.9853955E+02;  1.0000000E-01; -1.2099410E+03;3;  9.1990805E+00;  0.0000000E+00;  2.3596813E+01;0; -1.6934209E-02;  3.9849695E+04;  0.0000000E+00;  1.8514563E+01;  4.0000000E+04;  0.0000000E+00;  4.0036465E+04; -1.7437506E-02;  0.0000000E+00;  5.0329778E-04;  2.8419594E+04;
  1.8106560E-01;  9.9999998E-03;  2.7003342E-01;3601; -2.7920196E-03;  0.0000000E+00;  2.0150229E-04;  9.9748071E+02;  1.0000000E-01; -2.0872002E+03;3;  1.9612419E+01;  0.0000000E+00;  2.0150225E+01;0; -1.7478781E-02;  3.9763402E+04;  0.0000000E+00;  2.5607357E+01;  4.0000000E+04;  0.0000000E+00;  4.0036551E+04; -1.8288309E-02;  0.0000000E+00;  8.0952840E-04;  3.9068262E+04;
  1.8114653E-01;  9.9999998E-03;  2.8001645E-01;3602; -2.2532565E-03;  0.0000000E+00;  2.7522712E-04;  9.9594153E+02;  1.0000000E-01; -3.3623740E+03;3;  3.3068096E+01;  0.0000000E+00;  4.3047976E+00;0; -1.7432677E-02;  3.9649016E+04;  0.0000000E+00;  3.1751877E+01;  4.0000000E+04;  0.0000000E+00;  4.0026664E+04; -1.8450746E-02;  0.0000000E+00;  1.0180689E-03;  4.8125039E+04;
  1.8143405E-01;  9.9999998E-03;  2.8999090E-01;3603; -1.7732938E-03;  0.0000000E+00;  9.0781316E-05;  9.9343292E+02;  1.0000000E-01; -5.4406855E+03;3;  4.5832001E+01;  0.0000000E+00; -2.5210802E+01;0; -1.7737769E-02;  3.9462414E+04;  0.0000000E+00;  3.2301117E+01;  4.0000000E+04;  0.0000000E+00;  4.0014375E+04; -1.8171951E-02;  0.0000000E+00;  4.3418165E-04;  4.8687125E+04;
  1.8176338E-01;  9.9999998E-03;  2.9989621E-01;3604; -1.8905458E-03;  0.0000000E+00; -1.8116397E-04;  9.9030518E+02;  1.0000000E-01; -8.0319702E+03;3;  5.8799171E+01;  0.0000000E+00; -5.0780586E+01;0; -2.0275859E-02;  3.9210469E+04;  0.0000000E+00;  2.9535982E+01;  4.0000000E+04;  0.0000000E+00;  4.0018715E+04; -1.9744623E-02;  0.0000000E+00; -5.3123559E-04;  4.3551699E+04;
  1.9094740E-01;  9.9999998E-03;  2.4026997E-01;3659; -3.4632136E-03;  0.0000000E+00; -1.2426176E-04;  9.9993713E+02;  1.0000000E-01; -5.2097294E+01;3; -1.6724758E+00;  0.0000000E+00;  1.1892316E+01;0; -1.5475877E-02;  3.9997844E+04;  0.0000000E+00;  8.7456160E+00;  4.0000000E+04;  0.0000000E+00;  4.0001441E+04; -1.5454226E-02;  0.0000000E+00; -2.1650427E-05;  1.3150364E+04;
  1.9097422E-01;  9.9999998E-03;  2.5024062E-01;3660; -3.4036208E-03;  0.0000000E+00; -1.1912364E-04;  9.9926782E+02;  1.0000000E-01; -6.0660010E+02;3;  5.3640258E-01;  0.0000000E+00;  1.3010077E+01;0; -1.6520800E-02;  3.9940809E+04;  0.0000000E+00;  1.2571655E+01;  4.0000000E+04;  0.0000000E+00;  4.0004125E+04; -1.6568657E-02;  0.0000000E+00;  4.7857291E-05;  1.9114762E+04;
  1.9100836E-01;  9.9999998E-03;  2.6019126E-01;3661; -3.2089313E-03;  0.0000000E+00; -4.5464752E-05;  9.9839484E+02;  1.0000000E-01; -1.3298390E+03;3;  5.7972364E+00;  0.0000000E+00;  1.1776065E+01;0; -1.7536588E-02;  3.9866277E+04;  0.0000000E+00;  1.7501736E+01;  4.0000000E+04;  0.0000000E+00;  4.0007926E+04; -1.7768003E-02;  0.0000000E+00;  2.3141433E-04;  2.6852264E+04;
  1.9110581E-01;  9.9999998E-03;  2.7015373E-01;3662; -2.8193723E-03;  0.0000000E+00;  3.9738232E-05;  9.9712543E+02;  1.0000000E-01; -2.3815129E+03;3;  1.4677640E+01;  0.0000000E+00;  3.7165029E+00;0; -1.8256621E-02;  3.9763855E+04;  0.0000000E+00;  2.2491426E+01;  4.0000000E+04;  0.0000000E+00;  4.0006996E+04; -1.8727725E-02;  0.0000000E+00;  4.7110411E-04;  3.4734535E+04;
  1.9135615E-01;  9.9999998E-03;  2.8010613E-01;3663; -2.4116370E-03;  0.0000000E+00;  1.1509102E-05;  9.9511603E+02;  1.0000000E-01; -4.0462559E+03;3;  2.6171841E+01;  0.0000000E+00; -1.3124742E+01;0; -1.9115571E-02;  3.9603160E+04;  0.0000000E+00;  2.3897684E+01;  4.0000000E+04;  0.0000000E+00;  4.0005793E+04; -1.9452320E-02;  0.0000000E+00;  3.3674989E-04;  3.7244832E+04;
  1.9165035E-01;  9.9999998E-03;  2.9001352E-01;3664; -2.3560442E-03;  0.0000000E+00; -6.2509731E-05;  9.9249536E+02;  1.0000000E-01; -6.2174536E+03;3;  3.9453346E+01;  0.0000000E+00; -3.0252705E+01;0; -2.1134749E-02;  3.9381984E+04;  0.0000000E+00;  2.1416349E+01;  4.0000000E+04;  0.0000000E+00;  4.0016695E+04; -2.1096777E-02;  0.0000000E+00; -3.7971622E-05;  3.3325207E+04;
  1.9174814E-01;  9.9999998E-03;  2.9994398E-01;3665; -2.4036453E-03;  0.0000000E+00; -9.9932979E-05;  9.8995166E+02;  1.0000000E-01; -8.3248506E+03;3;  5.2441090E+01;  0.0000000E+00; -5.0907864E+01;0; -2.3652369E-02;  3.9169414E+04;  0.0000000E+00;  2.1376465E+01;  4.0000000E+04;  0.0000000E+00;  4.0024262E+04; -2.3364920E-02;  0.0000000E+00; -2.8744835E-04;  3.1072973E+04;
  2.0079501E-01;  9.9999998E-03;  2.4030901E-01;3720; -3.5607601E-03;  0.0000000E+00; -1.9646100E-04;  9.9974878E+02;  1.0000000E-01; -2.0814226E+02;3; -3.1356099E+00;  0.0000000E+00;  7.6713567E+00;0; -1.5439456E-02;  4.0001824E+04;  0.0000000E+00;  8.9928808E+00;  4.0000000E+04;  0.0000000E+00;  3.9983188E+04; -1.5180674E-02;  0.0000000E+00; -2.5878192E-04;  1.3679263E+04;
  2.0082796E-01;  9.9999998E-03;  2.5026456E-01;3721; -3.4752928E-03;  0.0000000E+00; -2.1126668E-04;  9.9919629E+02;  1.0000000E-01; -6.6585773E+02;3; -1.6903167E+00;  0.0000000E+00;  7.3278289E+00;0; -1.6660141E-02;  3.9954590E+04;  0.0000000E+00;  1.2874192E+01;  4.0000000E+04;  0.0000000E+00;  3.9986137E+04; -1.6370980E-02;  0.0000000E+00; -2.8916146E-04;  1.9651750E+04;
  2.0089924E-01;  9.9999998E-03;  2.6021501E-01;3722; -3.2179621E-03;  0.0000000E+00; -1.2947901E-04;  9.9841669E+02;  1.0000000E-01; -1.3117654E+03;3;  2.4474108E+00;  0.0000000E+00;  4.2905154E+00;0; -1.7703064E-02;  3.9886586E+04;  0.0000000E+00;  1.7406513E+01;  4.0000000E+04;  0.0000000E+00;  3.9989773E+04; -1.7600978E-02;  0.0000000E+00; -1.0208625E-04;  2.6801639E+04;
  2.0108466E-01;  9.9999998E-03;  2.7018109E-01;3723; -2.7806368E-03;  0.0000000E+00; -5.9514456E-05;  9.9707971E+02;  1.0000000E-01; -2.4193884E+03;3;  9.2861767E+00;  0.0000000E+00; -5.7897787E+00;0; -1.8468991E-02;  3.9777852E+04;  0.0000000E+00;  2.0202921E+01;  4.0000000E+04;  0.0000000E+00;  3.9989387E+04; -1.8564183E-02;  0.0000000E+00;  9.5192998E-05;  3.1569545E+04;
  2.0140697E-01;  9.9999998E-03;  2.8012499E-01;3724; -2.5524811E-03;  0.0000000E+00; -1.2181960E-04;  9.9496527E+02;  1.0000000E-01; -4.1711904E+03;3;  1.7890419E+01;  0.0000000E+00; -1.9654325E+01;0; -2.0179616E-02;  3.9598973E+04;  0.0000000E+00;  1.7450367E+01;  4.0000000E+04;  0.0000000E+00;  3.9997508E+04; -1.9904334E-02;  0.0000000E+00; -2.7528242E-04;  2.7867641E+04;
  2.0161273E-01;  9.9999998E-03;  2.9005584E-01;3725; -2.6165468E-03;  0.0000000E+00; -1.6372379E-04;  9.9257330E+02;  1.0000000E-01; -6.1528628E+03;3;  2.8147665E+01;  0.0000000E+00; -3.2948910E+01;0; -2.2980351E-02;  3.9389781E+04;  0.0000000E+00;  1.4240776E+01;  4.0000000E+04;  0.0000000E+00;  4.0013559E+04; -2.2356018E-02;  0.0000000E+00; -6.2433194E-04;  2.2037996E+04;
  2.0164025E-01;  9.9999998E-03;  3.0002984E-01;3726; -2.5247794E-03;  0.0000000E+00; -2.6574760E-04;  9.9017090E+02;  1.0000000E-01; -8.1432266E+03;3;  3.9124718E+01;  0.0000000E+00; -5.6451626E+01;0; -2.5771139E-02;  3.9191324E+04;  0.0000000E+00;  1.5929476E+01;  4.0000000E+04;  0.0000000E+00;  4.0017457E+04; -2.4457999E-02;  0.0000000E+00; -1.3131413E-03;  2.1477236E+04;
  2.1069017E-01;  9.9999998E-03;  2.4026863E-01;3781; -3.6145668E-03;  0.0000000E+00; -2.5243158E-04;  9.9956732E+02;  1.0000000E-01; -3.5845898E+02;3; -4.0304971E+00;  0.0000000E+00;  5.5150628E+00;0; -1.5222576E-02;  3.9995195E+04;  0.0000000E+00;  9.3508301E+00;  4.0000000E+04;  0.0000000E+00;  3.9975570E+04; -1.4702534E-02;  0.0000000E+00; -5.2004133E-04;  1.4328141E+04;
  2.1071565E-01;  9.9999998E-03;  2.5022253E-01;3782; -3.4994739E-03;  0.0000000E+00; -2.4350840E-04;  9.9918158E+02;  1.0000000E-01; -6.7805487E+02;3; -3.2148266E+00;  0.0000000E+00;  4.9408479E+00;0; -1.6449004E-02;  3.9959855E+04;  0.0000000E+00;  1.3530522E+01;  4.0000000E+04;  0.0000000E+00;  3.9979227E+04; -1.5885556E-02;  0.0000000E+00; -5.6344754E-04;  2.0610045E+04;
  2.1081565E-01;  9.9999998E-03;  2.6018691E-01;3783; -3.1759073E-03;  0.0000000E+00; -1.2965061E-04;  9.9851385E+02;  1.0000000E-01; -1.2312245E+03;3; -3.0487749E-01;  0.0000000E+00;  1.1382201E+00;0; -1.7293032E-02;  3.9902312E+04;  0.0000000E+00;  1.7802383E+01;  4.0000000E+04;  0.0000000E+00;  3.9982586E+04; -1.7037602E-02;  0.0000000E+00; -2.5542962E-04;  2.7328900E+04;
  2.1110748E-01;  9.9999998E-03;  2.7015701E-01;3784; -2.7896806E-03;  0.0000000E+00; -9.0070913E-05;  9.9714331E+02;  1.0000000E-01; -2.3666985E+03;3;  4.2510557E+00;  0.0000000E+00; -8.2901316E+00;0; -1.8256651E-02;  3.9788230E+04;  0.0000000E+00;  1.7454718E+01;  4.0000000E+04;  0.0000000E+00;  3.9985215E+04; -1.8097073E-02;  0.0000000E+00; -1.5957907E-04;  2.7494188E+04;
  2.1141568E-01;  9.9999998E-03;  2.8010875E-01;3785; -2.7057168E-03;  0.0000000E+00; -1.2976435E-04;  9.9520758E+02;  1.0000000E-01; -3.9704062E+03;3;  9.8068466E+00;  0.0000000E+00; -1.8466116E+01;0; -2.0393144E-02;  3.9617812E+04;  0.0000000E+00;  1.2320240E+01;  4.0000000E+04;  0.0000000E+00;  3.9998570E+04; -1.9895006E-02;  0.0000000E+00; -4.9813802E-04;  1.9980400E+04;
  2.1154749E-01;  9.9999998E-03;  2.9006630E-01;3786; -2.7430030E-03;  0.0000000E+00; -1.7821793E-04;  9.9314539E+02;  1.0000000E-01; -5.6789009E+03;3;  1.6530169E+01;  0.0000000E+00; -3.0806915E+01;0; -2.3382353E-02;  3.9435363E+04;  0.0000000E+00;  9.6777210E+00;  4.0000000E+04;  0.0000000E+00;  4.0012473E+04; -2.2420309E-02;  0.0000000E+00; -9.6204400E-04;  1.4424222E+04;
  2.1157543E-01;  9.9999998E-03;  3.0004141E-01;3787; -2.7589237E-03;  0.0000000E+00; -2.3758272E-04;  9.9093854E+02;  1.0000000E-01; -7.5072446E+03;3;  2.5244982E+01;  0.0000000E+00; -4.8788200E+01;0; -2.6786257E-02;  3.9246887E+04;  0.0000000E+00;  1.1187251E+01;  4.0000000E+04;  0.0000000E+00;  4.0022566E+04; -2.5275838E-02;  0.0000000E+00; -1.5104186E-03;  1.3393122E+04;
  2.2066861E-01;  9.9999998E-03;  2.4018824E-01;3842; -3.6477284E-03;  0.0000000E+00; -2.4487675E-04;  9.9939026E+02;  1.0000000E-01; -5.0517090E+02;3; -4.3107295E+00;  0.0000000E+00;  4.9521408E+00;0; -1.4765891E-02;  3.9978367E+04;  0.0000000E+00;  9.2703543E+00;  4.0000000E+04;  0.0000000E+00;  3.9978320E+04; -1.4107075E-02;  0.0000000E+00; -6.5881654E-04;  1.4083880E+04;
  2.2068992E-01;  9.9999998E-03;  2.5015751E-01;3843; -3.5160889E-03;  0.0000000E+00; -2.0392830E-04;  9.9913525E+02;  1.0000000E-01; -7.1642419E+02;3; -4.1313157E+00;  0.0000000E+00;  4.5789595E+00;0; -1.5863052E-02;  3.9954238E+04;  0.0000000E+00;  1.3454342E+01;  4.0000000E+04;  0.0000000E+00;  3.9983500E+04; -1.5231399E-02;  0.0000000E+00; -6.3165359E-04;  2.0335422E+04;
  2.2084056E-01;  9.9999998E-03;  2.6013914E-01;3844; -3.1798142E-03;  0.0000000E+00; -7.4750678E-05;  9.9853058E+02;  1.0000000E-01; -1.2173977E+03;3; -2.6134517E+00;  0.0000000E+00;  9.4663340E-01;0; -1.6494278E-02;  3.9902914E+04;  0.0000000E+00;  1.6569141E+01;  4.0000000E+04;  0.0000000E+00;  3.9984992E+04; -1.6317427E-02;  0.0000000E+00; -1.7684995E-04;  2.5339750E+04;
  2.2117203E-01;  9.9999998E-03;  2.7011672E-01;3845; -2.8970183E-03;  0.0000000E+00; -4.6089364E-05;  9.9727026E+02;  1.0000000E-01; -2.2615164E+03;3; -2.7972746E-01;  0.0000000E+00; -6.2828431E+00;0; -1.7603593E-02;  3.9795504E+04;  0.0000000E+00;  1.3555840E+01;  4.0000000E+04;  0.0000000E+00;  3.9990699E+04; -1.7534908E-02;  0.0000000E+00; -6.8685738E-05;  2.1535135E+04;
  2.2141300E-01;  9.9999998E-03;  2.8008553E-01;3846; -2.8513679E-03;  0.0000000E+00; -7.4493364E-05;  9.9567511E+02;  1.0000000E-01; -3.5831086E+03;3;  2.4036975E+00;  0.0000000E+00; -1.4529855E+01;0; -1.9770434E-02;  3.9652898E+04;  0.0000000E+00;  8.1720867E+00;  4.0000000E+04;  0.0000000E+00;  4.0002680E+04; -1.9428806E-02;  0.0000000E+00; -3.4162807E-04;  1.3476863E+04;
  2.2151271E-01;  9.9999998E-03;  2.9005590E-01;3847; -2.8870632E-03;  0.0000000E+00; -9.8010802E-05;  9.9394586E+02;  1.0000000E-01; -5.0157593E+03;3;  5.8990149E+00;  0.0000000E+00; -2.4840830E+01;0; -2.2588726E-02;  3.9497762E+04;  0.0000000E+00;  5.6480737E+00;  4.0000000E+04;  0.0000000E+00;  4.0015516E+04; -2.1946382E-02;  0.0000000E+00; -6.4234354E-04;  8.2881885E+03;
  2.2153802E-01;  9.9999998E-03;  3.0003276E-01;3848; -2.9216700E-03;  0.0000000E+00; -1.1384427E-04;  9.9204572E+02;  1.0000000E-01; -6.5899863E+03;3;  1.1572021E+01;  0.0000000E+00; -3.8859375E+01;0; -2.5772808E-02;  3.9331652E+04;  0.0000000E+00;  6.8003793E+00;  4.0000000E+04;  0.0000000E+00;  4.0027574E+04; -2.4893284E-02;  0.0000000E+00; -8.7952486E-04;  7.5333687E+03;
  2.3073266E-01;  9.9999998E-03;  2.4010253E-01;3903; -3.6821545E-03;  0.0000000E+00; -1.6779115E-04;  9.9922278E+02;  1.0000000E-01; -6.4393243E+02;3; -4.1502137E+00;  0.0000000E+00;  4.9657478E+00;0; -1.4057962E-02;  3.9956043E+04;  0.0000000E+00;  8.3474188E+00;  4.0000000E+04;  0.0000000E+00;  3.9987801E+04; -1.3481651E-02;  0.0000000E+00; -5.7631172E-04;  1.2530423E+04;
  2.3075838E-01;  9.9999998E-03;  2.5009486E-01;3904; -3.5551549E-03;  0.0000000E+00; -1.1618070E-04;  9.9904321E+02;  1.0000000E-01; -7.9266895E+02;3; -4.6253767E+00;  0.0000000E+00;  4.8669271E+00;0; -1.4980800E-02;  3.9939707E+04;  0.0000000E+00;  1.1898938E+01;  4.0000000E+04;  0.0000000E+00;  3.9991430E+04; -1.4519004E-02;  0.0000000E+00; -4.6179598E-04;  1.7896123E+04;
  2.3094741E-01;  9.9999998E-03;  2.6009125E-01;3905; -3.2739092E-03;  0.0000000E+00; -1.1335985E-05;  9.9851056E+02;  1.0000000E-01; -1.2339897E+03;3; -4.4643950E+00;  0.0000000E+00;  2.1433618E+00;0; -1.5574696E-02;  3.9895625E+04;  0.0000000E+00;  1.3205999E+01;  4.0000000E+04;  0.0000000E+00;  3.9993016E+04; -1.5590407E-02;  0.0000000E+00;  1.5711525E-05;  2.0243814E+04;
  2.3121202E-01;  9.9999998E-03;  2.7008119E-01;3906; -3.0363067E-03;  0.0000000E+00;  5.3348163E-06;  9.9754102E+02;  1.0000000E-01; -2.0372263E+03;3; -4.0015950E+00;  0.0000000E+00; -3.3727849E+00;0; -1.6692141E-02;  3.9812805E+04;  0.0000000E+00;  9.9304924E+00;  4.0000000E+04;  0.0000000E+00;  3.9996918E+04; -1.6824182E-02;  0.0000000E+00;  1.3204076E-04;  1.5963596E+04;
  2.3139921E-01;  9.9999998E-03;  2.8006205E-01;3907; -2.9861268E-03;  0.0000000E+00; -1.0152843E-05;  9.9630432E+02;  1.0000000E-01; -3.0617900E+03;3; -3.6006618E+00;  0.0000000E+00; -1.0092783E+01;0; -1.8624753E-02;  3.9702164E+04;  0.0000000E+00;  4.9193020E+00;  4.0000000E+04;  0.0000000E+00;  4.0005633E+04; -1.8609576E-02;  0.0000000E+00; -1.5176858E-05;  8.5657910E+03;
  2.3148371E-01;  9.9999998E-03;  2.9004082E-01;3908; -3.0119566E-03;  0.0000000E+00; -1.0361688E-05;  9.9491180E+02;  1.0000000E-01; -4.2154858E+03;3; -2.8108356E+00;  0.0000000E+00; -1.8449348E+01;0; -2.1022735E-02;  3.9575672E+04;  0.0000000E+00;  2.2720268E+00;  4.0000000E+04;  0.0000000E+00;  4.0017090E+04; -2.0947834E-02;  0.0000000E+00; -7.4899945E-05;  4.1125044E+03;
  2.3151144E-01;  9.9999998E-03;  3.0002090E-01;3909; -3.0445452E-03;  0.0000000E+00; -6.4017040E-06;  9.9333551E+02;  1.0000000E-01; -5.5214243E+03;3; -1.3067938E-01;  0.0000000E+00; -2.9202051E+01;0; -2.3805520E-02;  3.9435562E+04;  0.0000000E+00;  2.7363718E+00;  4.0000000E+04;  0.0000000E+00;  4.0029066E+04; -2.3712065E-02;  0.0000000E+00; -9.3455084E-05;  4.3752344E+03;
  2.4084079E-01;  9.9999998E-03;  2.4003787E-01;3964; -3.7304969E-03;  0.0000000E+00; -7.8098172E-05;  9.9907654E+02;  1.0000000E-01; -7.6506476E+02;3; -3.7805367E+00;  0.0000000E+00;  4.6991024E+00;0; -1.3270498E-02;  3.9935316E+04;  0.0000000E+00;  6.7450347E+00;  4.0000000E+04;  0.0000000E+00;  3.9997641E+04; -1.2890287E-02;  0.0000000E+00; -3.8021192E-04;  1.0086916E+04;
  2.4089313E-01;  9.9999998E-03;  2.5004688E-01;3965; -3.6301846E-03;  0.0000000E+00; -3.7694772E-05;  9.9894159E+02;  1.0000000E-01; -8.7686407E+02;3; -4.7767081E+00;  0.0000000E+00;  4.9118295E+00;0; -1.4058388E-02;  3.9924273E+04;  0.0000000E+00;  9.0210972E+00;  4.0000000E+04;  0.0000000E+00;  3.9999379E+04; -1.3821395E-02;  0.0000000E+00; -2.3699306E-04;  1.3617256E+04;
  2.4104138E-01;  9.9999998E-03;  2.6005372E-01;3966; -3.4132833E-03;  0.0000000E+00;  3.2988577E-05;  9.9857037E+02;  1.0000000E-01; -1.1844109E+03;3; -5.6371403E+00;  0.0000000E+00;  3.2273757E+00;0; -1.4678572E-02;  3.9894727E+04;  0.0000000E+00;  9.4720287E+00;  4.0000000E+04;  0.0000000E+00;  3.9999586E+04; -1.4852286E-02;  0.0000000E+00;  1.7371403E-04;  1.4654286E+04;
  2.4121958E-01;  9.9999998E-03;  2.7005231E-01;3967; -3.1929947E-03;  0.0000000E+00;  4.5179891E-05;  9.9791913E+02;  1.0000000E-01; -1.7239513E+03;3; -6.5291729E+00;  0.0000000E+00; -7.8027838E-01;0; -1.5695266E-02;  3.9840688E+04;  0.0000000E+00;  7.0536060E+00;  4.0000000E+04;  0.0000000E+00;  4.0001430E+04; -1.6012840E-02;  0.0000000E+00;  3.1757387E-04;  1.1555443E+04;
  2.4137133E-01;  9.9999998E-03;  2.8004128E-01;3968; -3.1187234E-03;  0.0000000E+00;  4.8141359E-05;  9.9702466E+02;  1.0000000E-01; -2.4650166E+03;3; -7.7663627E+00;  0.0000000E+00; -6.0236363E+00;0; -1.7210491E-02;  3.9759984E+04;  0.0000000E+00;  2.5798357E+00;  4.0000000E+04;  0.0000000E+00;  4.0007625E+04; -1.7588012E-02;  0.0000000E+00;  3.7752007E-04;  5.2158750E+03;
  2.4144639E-01;  9.9999998E-03;  2.9002714E-01;3969; -3.1034895E-03;  0.0000000E+00;  6.3267747E-05;  9.9596027E+02;  1.0000000E-01; -3.3468188E+03;3; -8.9543552E+00;  0.0000000E+00; -1.2749499E+01;0; -1.9031204E-02;  3.9662871E+04;  0.0000000E+00; -7.7943698E-02;  4.0000000E+04;  0.0000000E+00;  4.0017059E+04; -1.9576792E-02;  0.0000000E+00;  5.4558669E-04;  2.4804407E+03;
  2.4148028E-01;  9.9999998E-03;  3.0001166E-01;3970; -3.1187132E-03;  0.0000000E+00;  7.4932839E-05;  9.9469171E+02;  1.0000000E-01; -4.3978018E+03;3; -8.7772751E+00;  0.0000000E+00; -2.0844782E+01;0; -2.1314992E-02;  3.9548293E+04;  0.0000000E+00; -4.6110353E-01;  4.0000000E+04;  0.0000000E+00;  4.0027680E+04; -2.1984506E-02;  0.0000000E+00;  6.6951412E-04;  4.3525933E+03;
  2.5091699E-01;  9.9999998E-03;  2.3999761E-01;4025; -3.7975032E-03;  0.0000000E+00; -8.7488997E-06;  9.9898889E+02;  1.0000000E-01; -8.3770471E+02;3; -3.2799275E+00;  0.0000000E+00;  4.0482707E+00;0; -1.2550031E-02;  3.9921855E+04;  0.0000000E+00;  5.0827022E+00;  4.0000000E+04;  0.0000000E+00;  4.0004316E+04; -1.2365014E-02;  0.0000000E+00; -1.8501637E-04;  7.6562212E+03;
  2.5097415E-01;  9.9999998E-03;  2.5001508E-01;4026; -3.7223790E-03;  0.0000000E+00;  1.7336653E-05;  9.9892883E+02;  1.0000000E-01; -8.8743170E+02;3; -4.5655289E+00;  0.0000000E+00;  4.5008736E+00;0; -1.3213706E-02;  3.9918285E+04;  0.0000000E+00;  6.4658961E+00;  4.0000000E+04;  0.0000000E+00;  4.0005195E+04; -1.3164171E-02;  0.0000000E+00; -4.9535134E-05;  9.8553877E+03;
  2.5107929E-01;  9.9999998E-03;  2.6002654E-01;4027; -3.5594553E-03;  0.0000000E+00;  6.7569643E-05;  9.9872363E+02;  1.0000000E-01; -1.0574515E+03;3; -6.0158267E+00;  0.0000000E+00;  3.6919923E+00;0; -1.3782284E-02;  3.9903746E+04;  0.0000000E+00;  6.5986948E+00;  4.0000000E+04;  0.0000000E+00;  4.0004699E+04; -1.4099889E-02;  0.0000000E+00;  3.1760422E-04;  1.0352504E+04;
  2.5119635E-01;  9.9999998E-03;  2.7003002E-01;4028; -3.3546181E-03;  0.0000000E+00;  8.5062136E-05;  9.9834625E+02;  1.0000000E-01; -1.3700847E+03;3; -7.7608161E+00;  0.0000000E+00;  1.0654076E+00;0; -1.4582883E-02;  3.9873211E+04;  0.0000000E+00;  5.0145783E+00;  4.0000000E+04;  0.0000000E+00;  4.0004938E+04; -1.5142808E-02;  0.0000000E+00;  5.5992504E-04;  8.4182031E+03;
  2.5131774E-01;  9.9999998E-03;  2.8002527E-01;4029; -3.2319587E-03;  0.0000000E+00;  9.6842348E-05;  9.9776086E+02;  1.0000000E-01; -1.8550586E+03;3; -9.9602528E+00;  0.0000000E+00; -2.9284976E+00;0; -1.5664922E-02;  3.9820824E+04;  0.0000000E+00;  1.5775055E+00;  4.0000000E+04;  0.0000000E+00;  4.0008922E+04; -1.6439570E-02;  0.0000000E+00;  7.7464851E-04;  3.7728396E+03;
  2.5139824E-01;  9.9999998E-03;  2.9001644E-01;4030; -3.1958064E-03;  0.0000000E+00;  1.1977043E-04;  9.9698077E+02;  1.0000000E-01; -2.5013613E+03;3; -1.2431648E+01;  0.0000000E+00; -7.9498539E+00;0; -1.6993694E-02;  3.9748996E+04;  0.0000000E+00; -1.4270836E+00;  4.0000000E+04;  0.0000000E+00;  4.0015727E+04; -1.8112499E-02;  0.0000000E+00;  1.1188053E-03;  2.4826646E+03;
  2.5143906E-01;  9.9999998E-03;  3.0000576E-01;4031; -3.1717722E-03;  0.0000000E+00;  1.3003056E-04;  9.9601074E+02;  1.0000000E-01; -3.3050422E+03;3; -1.4125655E+01;  0.0000000E+00; -1.3965892E+01;0; -1.8792564E-02;  3.9660043E+04;  0.0000000E+00; -2.5542531E+00;  4.0000000E+04;  0.0000000E+00;  4.0023191E+04; -2.0077333E-02;  0.0000000E+00;  1.2847690E-03;  5.0471191E+03;
  2.6094791E-01;  9.9999998E-03;  2.3997249E-01;4086; -3.8825942E-03;  0.0000000E+00;  5.7697445E-05;  9.9897046E+02;  1.0000000E-01; -8.5296350E+02;3; -2.6486950E+00;  0.0000000E+00;  3.2319443E+00;0; -1.1862216E-02;  3.9915898E+04;  0.0000000E+00;  3.6264637E+00;  4.0000000E+04;  0.0000000E+00;  4.0008957E+04; -1.1906502E-02;  0.0000000E+00;  4.4285895E-05;  5.6079551E+03;
  2.6098427E-01;  9.9999998E-03;  2.4999447E-01;4087; -3.8238566E-03;  0.0000000E+00;  6.6364133E-05;  9.9898260E+02;  1.0000000E-01; -8.4288977E+02;3; -3.9986479E+00;  0.0000000E+00;  3.7895141E+00;0; -1.2403424E-02;  3.9919676E+04;  0.0000000E+00;  4.6131406E+00;  4.0000000E+04;  0.0000000E+00;  4.0008676E+04; -1.2557402E-02;  0.0000000E+00;  1.5397838E-04;  7.1457085E+03;
  2.6106116E-01;  9.9999998E-03;  2.6000771E-01;4088; -3.7008498E-03;  0.0000000E+00;  9.8708806E-05;  9.9892090E+02;  1.0000000E-01; -8.9399939E+02;3; -5.6725335E+00;  0.0000000E+00;  3.5699403E+00;0; -1.2884124E-02;  3.9917391E+04;  0.0000000E+00;  4.7292781E+00;  4.0000000E+04;  0.0000000E+00;  4.0007855E+04; -1.3355300E-02;  0.0000000E+00;  4.7117600E-04;  7.5302910E+03;
  2.6114112E-01;  9.9999998E-03;  2.7001363E-01;4089; -3.5195884E-03;  0.0000000E+00;  1.1772066E-04;  9.9875433E+02;  1.0000000E-01; -1.0320201E+03;3; -7.7794795E+00;  0.0000000E+00;  2.0593779E+00;0; -1.3476878E-02;  3.9905738E+04;  0.0000000E+00;  3.8532817E+00;  4.0000000E+04;  0.0000000E+00;  4.0006477E+04; -1.4260095E-02;  0.0000000E+00;  7.8321667E-04;  6.5511221E+03;
  2.6124075E-01;  9.9999998E-03;  2.8001314E-01;4090; -3.3626838E-03;  0.0000000E+00;  1.3343481E-04;  9.9842535E+02;  1.0000000E-01; -1.3045557E+03;3; -1.0424279E+01;  0.0000000E+00; -7.1137077E-01;0; -1.4205435E-02;  3.9877141E+04;  0.0000000E+00;  1.4100187E+00;  4.0000000E+04;  0.0000000E+00;  4.0008363E+04; -1.5315553E-02;  0.0000000E+00;  1.1101174E-03;  3.3827637E+03;
  2.6132992E-01;  9.9999998E-03;  2.9000872E-01;4091; -3.2920893E-03;  0.0000000E+00;  1.4779934E-04;  9.9790417E+02;  1.0000000E-01; -1.7363459E+03;3; -1.3524375E+01;  0.0000000E+00; -4.3237033E+00;0; -1.5240183E-02;  3.9828754E+04;  0.0000000E+00; -1.6619445E+00;  4.0000000E+04;  0.0000000E+00;  4.0012562E+04; -1.6661279E-02;  0.0000000E+00;  1.4210959E-03;  2.1853525E+03;
  2.6138300E-01;  9.9999998E-03;  3.0000201E-01;4092; -3.2406987E-03;  0.0000000E+00;  1.5205615E-04;  9.9719183E+02;  1.0000000E-01; -2.3265022E+03;3; -1.6338287E+01;  0.0000000E+00; -8.5888309E+00;0; -1.6714945E-02;  3.9763242E+04;  0.0000000E+00; -3.5355105E+00;  4.0000000E+04;  0.0000000E+00;  4.0018770E+04; -1.8255029E-02;  0.0000000E+00;  1.5400839E-03;  5.1292554E+03;
  2.7095336E-01;  9.9999998E-03;  2.3996004E-01;4147; -3.9832257E-03;  0.0000000E+00;  1.1296044E-04;  9.9898834E+02;  1.0000000E-01; -8.3814911E+02;3; -1.9494970E+00;  0.0000000E+00;  2.3525920E+00;0; -1.1242424E-02;  3.9914516E+04;  0.0000000E+00;  2.4120343E+00;  4.0000000E+04;  0.0000000E+00;  4.0011664E+04; -1.1498755E-02;  0.0000000E+00;  2.5633111E-04;  3.9823169E+03;
  2.7095419E-01;  9.9999998E-03;  2.4998245E-01;4148; -3.9334265E-03;  0.0000000E+00;  1.0623977E-04;  9.9905072E+02;  1.0000000E-01; -7.8644690E+02;3; -3.1759007E+00;  0.0000000E+00;  2.9180319E+00;0; -1.1662181E-02;  3.9923285E+04;  0.0000000E+00;  3.2105992E+00;  4.0000000E+04;  0.0000000E+00;  4.0010211E+04; -1.1998441E-02;  0.0000000E+00;  3.3625949E-04;  5.1193203E+03;
  2.7099830E-01;  9.9999998E-03;  2.5999540E-01;4149; -3.8399238E-03;  0.0000000E+00;  1.2113730E-04;  9.9909344E+02;  1.0000000E-01; -7.5104047E+02;3; -4.7770233E+00;  0.0000000E+00;  3.0408139E+00;0; -1.2058454E-02;  3.9930684E+04;  0.0000000E+00;  3.5828032E+00;  4.0000000E+04;  0.0000000E+00;  4.0009195E+04; -1.2639716E-02;  0.0000000E+00;  5.8126228E-04;  5.7652148E+03;
  2.7105585E-01;  9.9999998E-03;  2.7000237E-01;4150; -3.6892225E-03;  0.0000000E+00;  1.3328297E-04;  9.9908496E+02;  1.0000000E-01; -7.5810199E+02;3; -6.8644257E+00;  0.0000000E+00;  2.3282483E+00;0; -1.2527035E-02;  3.9932684E+04;  0.0000000E+00;  3.3082545E+00;  4.0000000E+04;  0.0000000E+00;  4.0007949E+04; -1.3393939E-02;  0.0000000E+00;  8.6690375E-04;  5.5541709E+03;
  2.7113253E-01;  9.9999998E-03;  2.8000453E-01;4151; -3.5118414E-03;  0.0000000E+00;  1.5167968E-04;  9.9896393E+02;  1.0000000E-01; -8.5834607E+02;3; -9.5131130E+00;  0.0000000E+00;  6.0817355E-01;0; -1.2976019E-02;  3.9923324E+04;  0.0000000E+00;  1.9783840E+00;  4.0000000E+04;  0.0000000E+00;  4.0007086E+04; -1.4242979E-02;  0.0000000E+00;  1.2669596E-03;  3.8927922E+03;
  2.7122733E-01;  9.9999998E-03;  2.9000333E-01;4152; -3.3931010E-03;  0.0000000E+00;  1.5590561E-04;  9.9867322E+02;  1.0000000E-01; -1.0992281E+03;3; -1.2705310E+01;  0.0000000E+00; -1.8559377E+00;0; -1.3797402E-02;  3.9896652E+04;  0.0000000E+00; -7.1012944E-01;  4.0000000E+04;  0.0000000E+00;  4.0009250E+04; -1.5277738E-02;  0.0000000E+00;  1.4803350E-03;  1.2754136E+03;
  2.7130327E-01;  9.9999998E-03;  2.9999954E-01;4153; -3.3359097E-03;  0.0000000E+00;  1.4933902E-04;  9.9819147E+02;  1.0000000E-01; -1.4983280E+03;3; -1.6021313E+01;  0.0000000E+00; -4.6751328E+00;0; -1.5126088E-02;  3.9852180E+04;  0.0000000E+00; -3.4753790E+00;  4.0000000E+04;  0.0000000E+00;  4.0013484E+04; -1.6579704E-02;  0.0000000E+00;  1.4536164E-03;  4.3824878E+03;
  2.8097966E-01;  9.9999998E-03;  2.3995732E-01;4208; -4.0938607E-03;  0.0000000E+00;  1.4544530E-04;  9.9900836E+02;  1.0000000E-01; -8.2155701E+02;3; -1.2504324E+00;  0.0000000E+00;  1.5278240E+00;0; -1.0736780E-02;  3.9915223E+04;  0.0000000E+00;  1.4184871E+00;  4.0000000E+04;  0.0000000E+00;  4.0012621E+04; -1.1118269E-02;  0.0000000E+00;  3.8148876E-04;  2.7488098E+03;
  2.8092813E-01;  9.9999998E-03;  2.4997687E-01;4209; -4.0470357E-03;  0.0000000E+00;  1.2989718E-04;  9.9908789E+02;  1.0000000E-01; -7.5568231E+02;3; -2.2333696E+00;  0.0000000E+00;  2.0290446E+00;0; -1.1038370E-02;  3.9925809E+04;  0.0000000E+00;  1.9991894E+00;  4.0000000E+04;  0.0000000E+00;  4.0010918E+04; -1.1474480E-02;  0.0000000E+00;  4.3610990E-04;  3.4276814E+03;
  2.8092435E-01;  9.9999998E-03;  2.5998837E-01;4210; -3.9728195E-03;  0.0000000E+00;  1.3234475E-04;  9.9919513E+02;  1.0000000E-01; -6.6679596E+02;3; -3.5738163E+00;  0.0000000E+00;  2.3082075E+00;0; -1.1345092E-02;  3.9938363E+04;  0.0000000E+00;  2.5764430E+00;  4.0000000E+04;  0.0000000E+00;  4.0009820E+04; -1.1955912E-02;  0.0000000E+00;  6.1082025E-04;  4.2380474E+03;
  2.8095415E-01;  9.9999998E-03;  2.6999512E-01;4211; -3.8570135E-03;  0.0000000E+00;  1.3362677E-04;  9.9928790E+02;  1.0000000E-01; -5.8995862E+02;3; -5.3663626E+00;  0.0000000E+00;  2.0978682E+00;0; -1.1752998E-02;  3.9949078E+04;  0.0000000E+00;  2.8463309E+00;  4.0000000E+04;  0.0000000E+00;  4.0008145E+04; -1.2552670E-02;  0.0000000E+00;  7.9967204E-04;  4.6953867E+03;
  2.8101048E-01;  9.9999998E-03;  2.7999851E-01;4212; -3.6975148E-03;  0.0000000E+00;  1.4694390E-04;  9.9931683E+02;  1.0000000E-01; -5.6600867E+02;3; -7.6945748E+00;  0.0000000E+00;  1.2034572E+00;0; -1.2096280E-02;  3.9953496E+04;  0.0000000E+00;  2.3948781E+00;  4.0000000E+04;  0.0000000E+00;  4.0006820E+04; -1.3240525E-02;  0.0000000E+00;  1.1442449E-03;  4.1895513E+03;
  2.8108799E-01;  9.9999998E-03;  2.8999949E-01;4213; -3.5349419E-03;  0.0000000E+00;  1.4919711E-04;  9.9923065E+02;  1.0000000E-01; -6.3741406E+02;3; -1.0587949E+01;  0.0000000E+00; -3.3262551E-01;0; -1.2695581E-02;  3.9946664E+04;  0.0000000E+00;  8.0533558E-01;  4.0000000E+04;  0.0000000E+00;  4.0006488E+04; -1.4027295E-02;  0.0000000E+00;  1.3317142E-03;  2.1667158E+03;
  2.8117165E-01;  9.9999998E-03;  2.9999816E-01;4214; -3.4194915E-03;  0.0000000E+00;  1.3273340E-04;  9.9897931E+02;  1.0000000E-01; -8.4560571E+02;3; -1.3853663E+01;  0.0000000E+00; -2.1820629E+00;0; -1.3836784E-02;  3.9924156E+04;  0.0000000E+00; -1.8993497E+00;  4.0000000E+04;  0.0000000E+00;  4.0008227E+04; -1.4984421E-02;  0.0000000E+00;  1.1476373E-03;  2.0882810E+03;
  2.9105297E-01;  9.9999998E-03;  2.3996153E-01;4269; -4.2071058E-03;  0.0000000E+00;  1.5423031E-04;  9.9902405E+02;  1.0000000E-01; -8.0856970E+02;3; -6.2592131E-01;  0.0000000E+00;  8.4745419E-01;0; -1.0346988E-02;  3.9917027E+04;  0.0000000E+00;  7.2311980E-01;  4.0000000E+04;  0.0000000E+00;  4.0012246E+04; -1.0744194E-02;  0.0000000E+00;  3.9720573E-04;  1.9940406E+03;
  2.9096550E-01;  9.9999998E-03;  2.4997607E-01;4270; -4.1580978E-03;  0.0000000E+00;  1.3673911E-04;  9.9908337E+02;  1.0000000E-01; -7.5938593E+02;3; -1.3222659E+00;  0.0000000E+00;  1.2325777E+00;0; -1.0536726E-02;  3.9925531E+04;  0.0000000E+00;  9.1973329E-01;  4.0000000E+04;  0.0000000E+00;  4.0010875E+04; -1.0971096E-02;  0.0000000E+00;  4.3437109E-04;  2.0900256E+03;
  2.9089043E-01;  9.9999998E-03;  2.5998512E-01;4271; -4.0941974E-03;  0.0000000E+00;  1.3424881E-04;  9.9920612E+02;  1.0000000E-01; -6.5770978E+02;3; -2.3118839E+00;  0.0000000E+00;  1.5371096E+00;0; -1.0734153E-02;  3.9938875E+04;  0.0000000E+00;  1.4376274E+00;  4.0000000E+04;  0.0000000E+00;  4.0009793E+04; -1.1302154E-02;  0.0000000E+00;  5.6800031E-04;  2.6390186E+03;
  2.9087132E-01;  9.9999998E-03;  2.6999095E-01;4272; -4.0060151E-03;  0.0000000E+00;  1.2970620E-04;  9.9934473E+02;  1.0000000E-01; -5.4289825E+02;3; -3.6686184E+00;  0.0000000E+00;  1.5867907E+00;0; -1.1046002E-02;  3.9953406E+04;  0.0000000E+00;  1.9887631E+00;  4.0000000E+04;  0.0000000E+00;  4.0008168E+04; -1.1737930E-02;  0.0000000E+00;  6.9192785E-04;  3.3534451E+03;
  2.9090688E-01;  9.9999998E-03;  2.7999440E-01;4273; -3.8912978E-03;  0.0000000E+00;  1.3044255E-04;  9.9945428E+02;  1.0000000E-01; -4.5213538E+02;3; -5.4669185E+00;  0.0000000E+00;  1.2348001E+00;0; -1.1406430E-02;  3.9964914E+04;  0.0000000E+00;  1.9472066E+00;  4.0000000E+04;  0.0000000E+00;  4.0006734E+04; -1.2273159E-02;  0.0000000E+00;  8.6672866E-04;  3.3429031E+03;
  2.9096428E-01;  9.9999998E-03;  2.8999627E-01;4274; -3.7559648E-03;  0.0000000E+00;  1.3001103E-04;  9.9950256E+02;  1.0000000E-01; -4.1213651E+02;3; -7.7761812E+00;  0.0000000E+00;  4.4912300E-01;0; -1.1907544E-02;  3.9970969E+04;  0.0000000E+00;  1.0435992E+00;  4.0000000E+04;  0.0000000E+00;  4.0005945E+04; -1.2905031E-02;  0.0000000E+00;  9.9748746E-04;  2.1898955E+03;
  2.9102442E-01;  9.9999998E-03;  2.9999661E-01;4275; -3.6165691E-03;  0.0000000E+00;  1.1352402E-04;  9.9945166E+02;  1.0000000E-01; -4.5430814E+02;3; -1.0568328E+01;  0.0000000E+00; -6.4109474E-01;0; -1.2838450E-02;  3.9967961E+04;  0.0000000E+00; -7.8973204E-01;  4.0000000E+04;  0.0000000E+00;  4.0005551E+04; -1.3644090E-02;  0.0000000E+00;  8.0563972E-04;  8.3099524E+02;
  3.0110839E-01;  9.9999998E-03;  2.3997039E-01;4330; -4.3155001E-03;  0.0000000E+00;  1.4735565E-04;  9.9904663E+02;  1.0000000E-01; -7.8985419E+02;3; -1.3546145E-01;  0.0000000E+00;  3.5646158E-01;0; -1.0035447E-02;  3.9919805E+04;  0.0000000E+00;  4.4295785E-01;  4.0000000E+04;  0.0000000E+00;  4.0011691E+04; -1.0365725E-02;  0.0000000E+00;  3.3027900E-04;  1.6621906E+03;
  3.0100134E-01;  9.9999998E-03;  2.4997927E-01;4331; -4.2591603E-03;  0.0000000E+00;  1.3123898E-04;  9.9907202E+02;  1.0000000E-01; -7.6881775E+02;3; -5.7313991E-01;  0.0000000E+00;  6.1270517E-01;0; -1.0133406E-02;  3.9924199E+04;  0.0000000E+00;  3.8803396E-01;  4.0000000E+04;  0.0000000E+00;  4.0011090E+04; -1.0484761E-02;  0.0000000E+00;  3.5135454E-04;  1.5737136E+03;
  3.0089372E-01;  9.9999998E-03;  2.5998506E-01;4332; -4.1976166E-03;  0.0000000E+00;  1.2665559E-04;  9.9916138E+02;  1.0000000E-01; -6.9479517E+02;3; -1.2146862E+00;  0.0000000E+00;  8.5521376E-01;0; -1.0233235E-02;  3.9934262E+04;  0.0000000E+00;  5.6964654E-01;  4.0000000E+04;  0.0000000E+00;  4.0010203E+04; -1.0682527E-02;  0.0000000E+00;  4.4929242E-04;  1.6394773E+03;
  3.0085161E-01;  9.9999998E-03;  2.6998922E-01;4333; -4.1272375E-03;  0.0000000E+00;  1.2128278E-04;  9.9928748E+02;  1.0000000E-01; -5.9030432E+02;3; -2.1127944E+00;  0.0000000E+00;  9.9005026E-01;0; -1.0416478E-02;  3.9947449E+04;  0.0000000E+00;  8.0648130E-01;  4.0000000E+04;  0.0000000E+00;  4.0009262E+04; -1.0964133E-02;  0.0000000E+00;  5.4765516E-04;  1.7831134E+03;
  3.0087000E-01;  9.9999998E-03;  2.7999204E-01;4334; -4.0478231E-03;  0.0000000E+00;  1.1636104E-04;  9.9941370E+02;  1.0000000E-01; -4.8576404E+02;3; -3.3253787E+00;  0.0000000E+00;  9.1919386E-01;0; -1.0698326E-02;  3.9960840E+04;  0.0000000E+00;  6.7272890E-01;  4.0000000E+04;  0.0000000E+00;  4.0007152E+04; -1.1334831E-02;  0.0000000E+00;  6.3650502E-04;  1.5695210E+03;
  3.0091193E-01;  9.9999998E-03;  2.8999382E-01;4335; -3.9636730E-03;  0.0000000E+00;  1.0649433E-04;  9.9951544E+02;  1.0000000E-01; -4.0147012E+02;3; -4.9195013E+00;  0.0000000E+00;  5.9716916E-01;0; -1.1193444E-02;  3.9971605E+04;  0.0000000E+00; -9.3557961E-02;  4.0000000E+04;  0.0000000E+00;  4.0006156E+04; -1.1805364E-02;  0.0000000E+00;  6.1192003E-04;  8.2490308E+02;
  3.0095223E-01;  9.9999998E-03;  2.9999465E-01;4336; -3.8772014E-03;  0.0000000E+00;  8.8706882E-05;  9.9956775E+02;  1.0000000E-01; -3.5811334E+02;3; -6.9363523E+00;  0.0000000E+00;  6.4403445E-02;0; -1.1996993E-02;  3.9978590E+04;  0.0000000E+00; -1.5445019E+00;  4.0000000E+04;  0.0000000E+00;  4.0005309E+04; -1.2392080E-02;  0.0000000E+00;  3.9508744E-04;  1.8534561E+03;
  3.1117460E-01;  9.9999998E-03;  2.3998149E-01;4391; -4.4159358E-03;  0.0000000E+00;  1.3046390E-04;  9.9907172E+02;  1.0000000E-01; -7.6906470E+02;3;  2.0582041E-01;  0.0000000E+00;  4.2124216E-02;0; -9.7706076E-03;  3.9922758E+04;  0.0000000E+00;  3.9549175E-01;  4.0000000E+04;  0.0000000E+00;  4.0009793E+04; -9.9768424E-03;  0.0000000E+00;  2.0623472E-04;  1.4695820E+03;
  3.1105024E-01;  9.9999998E-03;  2.4998464E-01;4392; -4.3500629E-03;  0.0000000E+00;  1.1840241E-04;  9.9904663E+02;  1.0000000E-01; -7.8985419E+02;3; -3.2427080E-02;  0.0000000E+00;  1.8765499E-01;0; -9.7937007E-03;  3.9922289E+04;  0.0000000E+00;  2.3035972E-01;  4.0000000E+04;  0.0000000E+00;  4.0009977E+04; -1.0013648E-02;  0.0000000E+00;  2.1994721E-04;  1.4290714E+03;
  3.1092167E-01;  9.9999998E-03;  2.5998724E-01;4393; -4.2839837E-03;  0.0000000E+00;  1.1442720E-04;  9.9908881E+02;  1.0000000E-01; -7.5489221E+02;3; -3.9562905E-01;  0.0000000E+00;  3.4459633E-01;0; -9.8054893E-03;  3.9927453E+04;  0.0000000E+00;  1.6155225E-01;  4.0000000E+04;  0.0000000E+00;  4.0010438E+04; -1.0104828E-02;  0.0000000E+00;  2.9933816E-04;  1.3915797E+03;
  3.1086853E-01;  9.9999998E-03;  2.6998946E-01;4394; -4.2176615E-03;  0.0000000E+00;  1.0919724E-04;  9.9917163E+02;  1.0000000E-01; -6.8630157E+02;3; -9.1477931E-01;  0.0000000E+00;  4.6296731E-01;0; -9.8705133E-03;  3.9936547E+04;  0.0000000E+00;  7.4902609E-02;  4.0000000E+04;  0.0000000E+00;  4.0009117E+04; -1.0254741E-02;  0.0000000E+00;  3.8422731E-04;  1.2804003E+03;
  3.1088358E-01;  9.9999998E-03;  2.7999118E-01;4395; -4.1524465E-03;  0.0000000E+00;  1.0141638E-04;  9.9926959E+02;  1.0000000E-01; -6.0511871E+02;3; -1.6251789E+00;  0.0000000E+00;  4.8854563E-01;0; -1.0041781E-02;  3.9947348E+04;  0.0000000E+00; -2.8350613E-01;  4.0000000E+04;  0.0000000E+00;  4.0008688E+04; -1.0470035E-02;  0.0000000E+00;  4.2825373E-04;  1.1528635E+03;
  3.1092978E-01;  9.9999998E-03;  2.8999236E-01;4396; -4.0927385E-03;  0.0000000E+00;  8.7147273E-05;  9.9936774E+02;  1.0000000E-01; -5.2383704E+02;3; -2.5713434E+00;  0.0000000E+00;  3.8608247E-01;0; -1.0429387E-02;  3.9958105E+04;  0.0000000E+00; -1.1451387E+00;  4.0000000E+04;  0.0000000E+00;  4.0007738E+04; -1.0762595E-02;  0.0000000E+00;  3.3320760E-04;  1.7241219E+03;
  3.1097862E-01;  9.9999998E-03;  2.9999298E-01;4397; -4.0433272E-03;  0.0000000E+00;  6.8062487E-05;  9.9944788E+02;  1.0000000E-01; -4.5741916E+02;3; -3.7958333E+00;  0.0000000E+00;  1.6568436E-01;0; -1.1051693E-02;  3.9967293E+04;  0.0000000E+00; -2.5648100E+00;  4.0000000E+04;  0.0000000E+00;  4.0006367E+04; -1.1152185E-02;  0.0000000E+00;  1.0049269E-04;  3.4797166E+03;
  3.2126471E-01;  9.9999998E-03;  2.3999262E-01;4452; -4.5074476E-03;  0.0000000E+00;  1.0824169E-04;  9.9909827E+02;  1.0000000E-01; -7.4708997E+02;3;  4.1253150E-01;  0.0000000E+00; -1.3442963E-01;0; -9.5284674E-03;  3.9926059E+04;  0.0000000E+00;  4.4148570E-01;  4.0000000E+04;  0.0000000E+00;  4.0008461E+04; -9.5787551E-03;  0.0000000E+00;  5.0287916E-05;  1.3470424E+03;
  3.2114640E-01;  9.9999998E-03;  2.4999098E-01;4453; -4.4320435E-03;  0.0000000E+00;  1.0152970E-04;  9.9902600E+02;  1.0000000E-01; -8.0694012E+02;3;  3.0566531E-01;  0.0000000E+00; -6.9296941E-02;0; -9.4922315E-03;  3.9920422E+04;  0.0000000E+00;  2.6045319E-01;  4.0000000E+04;  0.0000000E+00;  4.0010023E+04; -9.5582632E-03;  0.0000000E+00;  6.6031767E-05;  1.3820077E+03;
  3.2100841E-01;  9.9999998E-03;  2.5999069E-01;4454; -4.3584723E-03;  0.0000000E+00;  9.8334342E-05;  9.9900958E+02;  1.0000000E-01; -8.2052002E+02;3;  1.3284503E-01;  0.0000000E+00;  1.0504709E-02;0; -9.4410051E-03;  3.9920027E+04;  0.0000000E+00;  6.7481615E-02;  4.0000000E+04;  0.0000000E+00;  4.0010461E+04; -9.5727919E-03;  0.0000000E+00;  1.3178654E-04;  1.3992252E+03;
  3.2093096E-01;  9.9999998E-03;  2.6999107E-01;4455; -4.2876587E-03;  0.0000000E+00;  9.3215451E-05;  9.9903809E+02;  1.0000000E-01; -7.9691571E+02;3; -1.2383554E-01;  0.0000000E+00;  8.2773820E-02;0; -9.4199115E-03;  3.9923996E+04;  0.0000000E+00; -1.7023066E-01;  4.0000000E+04;  0.0000000E+00;  4.0010543E+04; -9.6252365E-03;  0.0000000E+00;  2.0532464E-04;  1.3901864E+03;
  3.2092682E-01;  9.9999998E-03;  2.7999160E-01;4456; -4.2212969E-03;  0.0000000E+00;  8.3175219E-05;  9.9909436E+02;  1.0000000E-01; -7.5029974E+02;3; -4.8279461E-01;  0.0000000E+00;  1.1791497E-01;0; -9.5037725E-03;  3.9930605E+04;  0.0000000E+00; -5.7050359E-01;  4.0000000E+04;  0.0000000E+00;  4.0010090E+04; -9.7197229E-03;  0.0000000E+00;  2.1595049E-04;  1.4970807E+03;
  3.2095334E-01;  9.9999998E-03;  2.8999206E-01;4457; -4.1616606E-03;  0.0000000E+00;  6.3854939E-05;  9.9916980E+02;  1.0000000E-01; -6.8778302E+02;3; -9.6905941E-01;  0.0000000E+00;  9.9082544E-02;0; -9.8217661E-03;  3.9939215E+04;  0.0000000E+00; -1.2219536E+00;  4.0000000E+04;  0.0000000E+00;  4.0008992E+04; -9.8649804E-03;  0.0000000E+00;  4.3214208E-05;  2.0211083E+03;
  3.2098076E-01;  9.9999998E-03;  2.9999223E-01;4458; -4.1107787E-03;  0.0000000E+00;  4.1815689E-05;  9.9924963E+02;  1.0000000E-01; -6.2166144E+02;3; -1.6112955E+00;  0.0000000E+00;  1.6864602E-02;0; -1.0302600E-02;  3.9948137E+04;  0.0000000E+00; -2.1434019E+00;  4.0000000E+04;  0.0000000E+00;  4.0008129E+04; -1.0073896E-02;  0.0000000E+00; -2.2870531E-04;  3.1020242E+03;
  3.3131507E-01;  9.9999998E-03;  2.4000259E-01;4513; -4.5898720E-03;  0.0000000E+00;  8.3843137E-05;  9.9913336E+02;  1.0000000E-01; -7.1800439E+02;3;  5.1986563E-01;  0.0000000E+00; -2.2135095E-01;0; -9.2980051E-03;  3.9929250E+04;  0.0000000E+00;  5.0242847E-01;  4.0000000E+04;  0.0000000E+00;  4.0007738E+04; -9.1800997E-03;  0.0000000E+00; -1.1790582E-04;  1.2689105E+03;
  3.3120984E-01;  9.9999998E-03;  2.4999724E-01;4514; -4.5063403E-03;  0.0000000E+00;  8.3800755E-05;  9.9901868E+02;  1.0000000E-01; -8.1301404E+02;3;  4.8472565E-01;  0.0000000E+00; -2.0256090E-01;0; -9.2104021E-03;  3.9919391E+04;  0.0000000E+00;  3.9182603E-01;  4.0000000E+04;  0.0000000E+00;  4.0009559E+04; -9.1252998E-03;  0.0000000E+00; -8.5102234E-05;  1.4041860E+03;
  3.3107883E-01;  9.9999998E-03;  2.5999478E-01;4515; -4.4249082E-03;  0.0000000E+00;  8.2970517E-05;  9.9895178E+02;  1.0000000E-01; -8.6841986E+02;3;  4.2082882E-01;  0.0000000E+00; -1.7363362E-01;0; -9.1003301E-03;  3.9913918E+04;  0.0000000E+00;  2.2266211E-01;  4.0000000E+04;  0.0000000E+00;  4.0010988E+04; -9.0917815E-03;  0.0000000E+00; -8.5484098E-06;  1.4650736E+03;
  3.3098704E-01;  9.9999998E-03;  2.6999357E-01;4516; -4.3465402E-03;  0.0000000E+00;  7.7785269E-05;  9.9892590E+02;  1.0000000E-01; -8.8985138E+02;3;  3.1897724E-01;  0.0000000E+00; -1.4237651E-01;0; -9.0150964E-03;  3.9912492E+04;  0.0000000E+00; -1.2214785E-02;  4.0000000E+04;  0.0000000E+00;  4.0011121E+04; -9.0813842E-03;  0.0000000E+00;  6.6287641E-05;  1.4843628E+03;
  3.3096027E-01;  9.9999998E-03;  2.7999297E-01;4517; -4.2724190E-03;  0.0000000E+00;  6.2692961E-05;  9.9893073E+02;  1.0000000E-01; -8.8585150E+02;3;  1.6990817E-01;  0.0000000E+00; -1.2446450E-01;0; -9.0789506E-03;  3.9914414E+04;  0.0000000E+00; -3.4959528E-01;  4.0000000E+04;  0.0000000E+00;  4.0010977E+04; -9.0962825E-03;  0.0000000E+00;  1.7332044E-05;  1.5475104E+03;
  3.3097261E-01;  9.9999998E-03;  2.8999257E-01;4518; -4.2035645E-03;  0.0000000E+00;  3.6545058E-05;  9.9896320E+02;  1.0000000E-01; -8.5898804E+02;3; -3.5361134E-02;  0.0000000E+00; -1.2095249E-01;0; -9.3987966E-03;  3.9919031E+04;  0.0000000E+00; -8.1701380E-01;  4.0000000E+04;  0.0000000E+00;  4.0010629E+04; -9.1413623E-03;  0.0000000E+00; -2.5743456E-04;  1.8042952E+03;
  3.3099052E-01;  9.9999998E-03;  2.9999217E-01;4519; -4.1394373E-03;  0.0000000E+00;  1.0535993E-05;  9.9901648E+02;  1.0000000E-01; -8.1484113E+02;3; -3.1213593E-01;  0.0000000E+00; -1.4552884E-01;0; -9.8088663E-03;  3.9925301E+04;  0.0000000E+00; -1.4033575E+00;  4.0000000E+04;  0.0000000E+00;  4.0010051E+04; -9.2239631E-03;  0.0000000E+00; -5.8490329E-04;  2.3518391E+03;
  3.4134519E-01;  9.9999998E-03;  2.4001002E-01;4574; -4.6653412E-03;  0.0000000E+00;  5.9317343E-05;  9.9916302E+02;  1.0000000E-01; -6.9341248E+02;3;  5.7113260E-01;  0.0000000E+00; -2.5849345E-01;0; -9.0735024E-03;  3.9931723E+04;  0.0000000E+00;  5.0065786E-01;  4.0000000E+04;  0.0000000E+00;  4.0007312E+04; -8.7881126E-03;  0.0000000E+00; -2.8538986E-04;  1.1941176E+03;
  3.4126043E-01;  9.9999998E-03;  2.5000262E-01;4575; -4.5760078E-03;  0.0000000E+00;  6.5802720E-05;  9.9902570E+02;  1.0000000E-01; -8.0718707E+02;3;  5.6661952E-01;  0.0000000E+00; -2.6118779E-01;0; -8.9436108E-03;  3.9918660E+04;  0.0000000E+00;  4.6130508E-01;  4.0000000E+04;  0.0000000E+00;  4.0009523E+04; -8.7162703E-03;  0.0000000E+00; -2.2734006E-04;  1.4217323E+03;
  3.4115043E-01;  9.9999998E-03;  2.5999883E-01;4576; -4.4884062E-03;  0.0000000E+00;  6.2455205E-05;  9.9891455E+02;  1.0000000E-01; -8.9928320E+02;3;  5.5331731E-01;  0.0000000E+00; -2.5784290E-01;0; -8.8315466E-03;  3.9909047E+04;  0.0000000E+00;  3.5654801E-01;  4.0000000E+04;  0.0000000E+00;  4.0011027E+04; -8.6574936E-03;  0.0000000E+00; -1.7405293E-04;  1.5384535E+03;
  3.4106779E-01;  9.9999998E-03;  2.6999655E-01;4577; -4.4029369E-03;  0.0000000E+00;  4.8389680E-05;  9.9883905E+02;  1.0000000E-01; -9.6184937E+02;3;  5.2701569E-01;  0.0000000E+00; -2.5090757E-01;0; -8.8161919E-03;  3.9903125E+04;  0.0000000E+00;  1.7833009E-01;  4.0000000E+04;  0.0000000E+00;  4.0011867E+04; -8.6127063E-03;  0.0000000E+00; -2.0348604E-04;  1.5795652E+03;
  3.4102982E-01;  9.9999998E-03;  2.7999493E-01;4578; -4.3199090E-03;  0.0000000E+00;  2.7512178E-05;  9.9879413E+02;  1.0000000E-01; -9.9903345E+02;3;  4.8383623E-01;  0.0000000E+00; -2.4532023E-01;0; -8.9330943E-03;  3.9900586E+04;  0.0000000E+00; -7.9985112E-02;  4.0000000E+04;  0.0000000E+00;  4.0012297E+04; -8.5834265E-03;  0.0000000E+00; -3.4966759E-04;  1.6173026E+03;
  3.4102392E-01;  9.9999998E-03;  2.8999376E-01;4579; -4.2385566E-03;  0.0000000E+00;  1.5067310E-06;  9.9878760E+02;  1.0000000E-01; -1.0044654E+03;3;  4.2016330E-01;  0.0000000E+00; -2.4475646E-01;0; -9.2011411E-03;  3.9900781E+04;  0.0000000E+00; -4.0887499E-01;  4.0000000E+04;  0.0000000E+00;  4.0012406E+04; -8.5723391E-03;  0.0000000E+00; -6.2880188E-04;  1.7084576E+03;
  3.4103075E-01;  9.9999998E-03;  2.9999268E-01;4580; -4.1558896E-03;  0.0000000E+00; -2.4785917E-05;  9.9879852E+02;  1.0000000E-01; -9.9537927E+02;3;  3.3190039E-01;  0.0000000E+00; -2.5120127E-01;0; -9.5329685E-03;  3.9903449E+04;  0.0000000E+00; -7.7381712E-01;  4.0000000E+04;  0.0000000E+00;  4.0012043E+04; -8.5828537E-03;  0.0000000E+00; -9.5011445E-04;  1.9212056E+03;
  3.5134229E-01;  9.9999998E-03;  2.4001470E-01;4635; -4.7363872E-03;  0.0000000E+00;  3.6508849E-05;  9.9919012E+02;  1.0000000E-01; -6.7094397E+02;3;  6.0034424E-01;  0.0000000E+00; -2.7656698E-01;0; -8.8509088E-03;  3.9932805E+04;  0.0000000E+00;  4.3713471E-01;  4.0000000E+04;  0.0000000E+00;  4.0006801E+04; -8.4112408E-03;  0.0000000E+00; -4.3966842E-04;  1.1068943E+03;
  3.5128361E-01;  9.9999998E-03;  2.5000677E-01;4636; -4.6441196E-03;  0.0000000E+00;  4.1288124E-05;  9.9902972E+02;  1.0000000E-01; -8.0387848E+02;3;  6.0395747E-01;  0.0000000E+00; -2.8428221E-01;0; -8.7328311E-03;  3.9918168E+04;  0.0000000E+00;  4.3764958E-01;  4.0000000E+04;  0.0000000E+00;  4.0009457E+04; -8.3328690E-03;  0.0000000E+00; -3.9996210E-04;  1.3908474E+03;
  3.5120761E-01;  9.9999998E-03;  2.6000249E-01;4637; -4.5529297E-03;  0.0000000E+00;  2.8170205E-05;  9.9888922E+02;  1.0000000E-01; -9.2027026E+02;3;  6.0699981E-01;  0.0000000E+00; -2.8880742E-01;0; -8.7063452E-03;  3.9905793E+04;  0.0000000E+00;  3.7983435E-01;  4.0000000E+04;  0.0000000E+00;  4.0011121E+04; -8.2638012E-03;  0.0000000E+00; -4.4254371E-04;  1.5465659E+03;
  3.5114583E-01;  9.9999998E-03;  2.6999944E-01;4638; -4.4622538E-03;  0.0000000E+00;  1.0916021E-05;  9.9877942E+02;  1.0000000E-01; -1.0112307E+03;3;  6.0779154E-01;  0.0000000E+00; -2.9210648E-01;0; -8.7401001E-03;  3.9896477E+04;  0.0000000E+00;  2.5839731E-01;  4.0000000E+04;  0.0000000E+00;  4.0012008E+04; -8.2047163E-03;  0.0000000E+00; -5.3538423E-04;  1.6451603E+03;
  3.5110134E-01;  9.9999998E-03;  2.7999711E-01;4639; -4.3717269E-03;  0.0000000E+00; -7.6445722E-06;  9.9870221E+02;  1.0000000E-01; -1.0751794E+03;3;  6.0490620E-01;  0.0000000E+00; -2.9400271E-01;0; -8.8281846E-03;  3.9890320E+04;  0.0000000E+00;  7.9467781E-02;  4.0000000E+04;  0.0000000E+00;  4.0013008E+04; -8.1568724E-03;  0.0000000E+00; -6.7131233E-04;  1.7150426E+03;
  3.5107359E-01;  9.9999998E-03;  2.8999522E-01;4640; -4.2796079E-03;  0.0000000E+00; -3.2546344E-05;  9.9865277E+02;  1.0000000E-01; -1.1161660E+03;3;  5.9729564E-01;  0.0000000E+00; -2.9694197E-01;0; -9.0536820E-03;  3.9886723E+04;  0.0000000E+00; -1.4616516E-01;  4.0000000E+04;  0.0000000E+00;  4.0013258E+04; -8.1215203E-03;  0.0000000E+00; -9.3216199E-04;  1.7832987E+03;
  3.5107914E-01;  9.9999998E-03;  2.9999354E-01;4641; -4.1800486E-03;  0.0000000E+00; -6.0229828E-05;  9.9862579E+02;  1.0000000E-01; -1.1384863E+03;3;  5.8432555E-01;  0.0000000E+00; -2.9892856E-01;0; -9.3599036E-03;  3.9885438E+04;  0.0000000E+00; -3.9057961E-01;  4.0000000E+04;  0.0000000E+00;  4.0013852E+04; -8.0990149E-03;  0.0000000E+00; -1.2608886E-03;  1.8818743E+03;
  3.6131537E-01;  9.9999998E-03;  2.4001634E-01;4696; -4.8057418E-03;  0.0000000E+00;  1.4847351E-05;  9.9920001E+02;  1.0000000E-01; -6.6279608E+02;3;  6.2500435E-01;  0.0000000E+00; -2.9139453E-01;0; -8.6353831E-03;  3.9932656E+04;  0.0000000E+00;  3.4490111E-01;  4.0000000E+04;  0.0000000E+00;  4.0007367E+04; -8.0552017E-03;  0.0000000E+00; -5.8018102E-04;  1.0515026E+03;
  3.6128476E-01;  9.9999998E-03;  2.5000960E-01;4697; -4.7131232E-03;  0.0000000E+00;  1.0556829E-05;  9.9903357E+02;  1.0000000E-01; -8.0066870E+02;3;  6.2897122E-01;  0.0000000E+00; -2.9810670E-01;0; -8.5731652E-03;  3.9917262E+04;  0.0000000E+00;  3.5369685E-01;  4.0000000E+04;  0.0000000E+00;  4.0009441E+04; -7.9745362E-03;  0.0000000E+00; -5.9862871E-04;  1.3223783E+03;
  3.6123270E-01;  9.9999998E-03;  2.6000521E-01;4698; -4.6204436E-03;  0.0000000E+00; -5.7157217E-06;  9.9887610E+02;  1.0000000E-01; -9.3113416E+02;3;  6.3386571E-01;  0.0000000E+00; -3.0336496E-01;0; -8.5863974E-03;  3.9903617E+04;  0.0000000E+00;  3.1604564E-01;  4.0000000E+04;  0.0000000E+00;  4.0010656E+04; -7.9029324E-03;  0.0000000E+00; -6.8346481E-04;  1.5148102E+03;
  3.6119115E-01;  9.9999998E-03;  2.7000180E-01;4699; -4.5272424E-03;  0.0000000E+00; -2.1077754E-05;  9.9874902E+02;  1.0000000E-01; -1.0364152E+03;3;  6.3960135E-01;  0.0000000E+00; -3.0773279E-01;0; -8.6095743E-03;  3.9892109E+04;  0.0000000E+00;  2.2806923E-01;  4.0000000E+04;  0.0000000E+00;  4.0012035E+04; -7.8403400E-03;  0.0000000E+00; -7.6923426E-04;  1.6642395E+03;
  3.6116678E-01;  9.9999998E-03;  2.7999905E-01;4700; -4.4329567E-03;  0.0000000E+00; -3.8808957E-05;  9.9864624E+02;  1.0000000E-01; -1.1215486E+03;3;  6.4544648E-01;  0.0000000E+00; -3.1250957E-01;0; -8.6791143E-03;  3.9883215E+04;  0.0000000E+00;  9.2061594E-02;  4.0000000E+04;  0.0000000E+00;  4.0013074E+04; -7.7871508E-03;  0.0000000E+00; -8.9196343E-04;  1.7826458E+03;
  3.6114785E-01;  9.9999998E-03;  2.8999674E-01;4701; -4.3347743E-03;  0.0000000E+00; -6.4919383E-05;  9.9856873E+02;  1.0000000E-01; -1.1857936E+03;3;  6.5170628E-01;  0.0000000E+00; -3.1605625E-01;0; -8.9021567E-03;  3.9876773E+04;  0.0000000E+00; -7.7544041E-02;  4.0000000E+04;  0.0000000E+00;  4.0013941E+04; -7.7440827E-03;  0.0000000E+00; -1.1580745E-03;  1.8784265E+03;
  3.6113855E-01;  9.9999998E-03;  2.9999465E-01;4702; -4.2249127E-03;  0.0000000E+00; -9.4582872E-05;  9.9851294E+02;  1.0000000E-01; -1.2320145E+03;3;  6.5802628E-01;  0.0000000E+00; -3.1866837E-01;0; -9.2087109E-03;  3.9872598E+04;  0.0000000E+00; -2.5219610E-01;  4.0000000E+04;  0.0000000E+00;  4.0014414E+04; -7.7109984E-03;  0.0000000E+00; -1.4977128E-03;  1.9728849E+03;
  3.7128314E-01;  9.9999998E-03;  2.4001582E-01;4757; -4.8756683E-03;  0.0000000E+00; -6.9857419E-06;  9.9919946E+02;  1.0000000E-01; -6.6324048E+02;3;  6.4941561E-01;  0.0000000E+00; -3.0377835E-01;0; -8.4324256E-03;  3.9931039E+04;  0.0000000E+00;  2.4948086E-01;  4.0000000E+04;  0.0000000E+00;  4.0007336E+04; -7.7215522E-03;  0.0000000E+00; -7.1087352E-04;  1.0349520E+03;
  3.7126416E-01;  9.9999998E-03;  2.5001082E-01;4758; -4.7841263E-03;  0.0000000E+00; -1.8865139E-05;  9.9903076E+02;  1.0000000E-01; -8.0298962E+02;3;  6.5286434E-01;  0.0000000E+00; -3.0931523E-01;0; -8.4112724E-03;  3.9915945E+04;  0.0000000E+00;  2.5429022E-01;  4.0000000E+04;  0.0000000E+00;  4.0009074E+04; -7.6389844E-03;  0.0000000E+00; -7.7228801E-04;  1.2771680E+03;
  3.7124130E-01;  9.9999998E-03;  2.6000682E-01;4759; -4.6920823E-03;  0.0000000E+00; -3.5383211E-05;  9.9887390E+02;  1.0000000E-01; -9.3296124E+02;3;  6.5716290E-01;  0.0000000E+00; -3.1328973E-01;0; -8.4284237E-03;  3.9901625E+04;  0.0000000E+00;  2.2058684E-01;  4.0000000E+04;  0.0000000E+00;  4.0010559E+04; -7.5657801E-03;  0.0000000E+00; -8.6264382E-04;  1.4810840E+03;
  3.7122712E-01;  9.9999998E-03;  2.7000341E-01;4760; -4.5993347E-03;  0.0000000E+00; -5.0101578E-05;  9.9873676E+02;  1.0000000E-01; -1.0465876E+03;3;  6.6201305E-01;  0.0000000E+00; -3.1855524E-01;0; -8.4380824E-03;  3.9889031E+04;  0.0000000E+00;  1.4634080E-01;  4.0000000E+04;  0.0000000E+00;  4.0012422E+04; -7.5021889E-03;  0.0000000E+00; -9.3589386E-04;  1.6624874E+03;
  3.7120596E-01;  9.9999998E-03;  2.8000051E-01;4761; -4.5049866E-03;  0.0000000E+00; -6.8835536E-05;  9.9861700E+02;  1.0000000E-01; -1.1457948E+03;3;  6.6743994E-01;  0.0000000E+00; -3.2351413E-01;0; -8.5060680E-03;  3.9878867E+04;  0.0000000E+00;  3.8557000E-02;  4.0000000E+04;  0.0000000E+00;  4.0013551E+04; -7.4487240E-03;  0.0000000E+00; -1.0573440E-03;  1.8173964E+03;
  3.7116805E-01;  9.9999998E-03;  2.8999799E-01;4762; -4.4059907E-03;  0.0000000E+00; -9.5985408E-05;  9.9852203E+02;  1.0000000E-01; -1.2244592E+03;3;  6.7379069E-01;  0.0000000E+00; -3.2572079E-01;0; -8.7256003E-03;  3.9870508E+04;  0.0000000E+00; -8.8554025E-02;  4.0000000E+04;  0.0000000E+00;  4.0014289E+04; -7.4051069E-03;  0.0000000E+00; -1.3204938E-03;  1.9397354E+03;
  3.7113202E-01;  9.9999998E-03;  2.9999560E-01;4763; -4.2943168E-03;  0.0000000E+00; -1.2665780E-04;  9.9844153E+02;  1.0000000E-01; -1.2911733E+03;3;  6.8082339E-01;  0.0000000E+00; -3.2667783E-01;0; -9.0231262E-03;  3.9863918E+04;  0.0000000E+00; -2.1885403E-01;  4.0000000E+04;  0.0000000E+00;  4.0015086E+04; -7.3696682E-03;  0.0000000E+00; -1.6534582E-03;  2.0562847E+03;
  3.8127086E-01;  9.9999998E-03;  2.4001363E-01;4818; -4.9476395E-03;  0.0000000E+00; -2.8771648E-05;  9.9918451E+02;  1.0000000E-01; -6.7563519E+02;3;  6.7382073E-01;  0.0000000E+00; -3.1384742E-01;0; -8.2353633E-03;  3.9928172E+04;  0.0000000E+00;  1.5499373E-01;  4.0000000E+04;  0.0000000E+00;  4.0007668E+04; -7.4060401E-03;  0.0000000E+00; -8.2932273E-04;  1.0618994E+03;
  3.8125613E-01;  9.9999998E-03;  2.5001058E-01;4819; -4.8578139E-03;  0.0000000E+00; -4.5887558E-05;  9.9901947E+02;  1.0000000E-01; -8.1237207E+02;3;  6.7648417E-01;  0.0000000E+00; -3.1886691E-01;0; -8.2320627E-03;  3.9913531E+04;  0.0000000E+00;  1.5261094E-01;  4.0000000E+04;  0.0000000E+00;  4.0008969E+04; -7.3192129E-03;  0.0000000E+00; -9.1285014E-04;  1.2690012E+03;
  3.8124332E-01;  9.9999998E-03;  2.6000729E-01;4820; -4.7676745E-03;  0.0000000E+00; -6.2591062E-05;  9.9886633E+02;  1.0000000E-01; -9.3923267E+02;3;  6.7987543E-01;  0.0000000E+00; -3.2295915E-01;0; -8.2385102E-03;  3.9899566E+04;  0.0000000E+00;  1.2160750E-01;  4.0000000E+04;  0.0000000E+00;  4.0010848E+04; -7.2428393E-03;  0.0000000E+00; -9.9567091E-04;  1.4759285E+03;
  3.8123313E-01;  9.9999998E-03;  2.7000418E-01;4821; -4.6772058E-03;  0.0000000E+00; -7.7821518E-05;  9.9872693E+02;  1.0000000E-01; -1.0547356E+03;3;  6.8366498E-01;  0.0000000E+00; -3.2787511E-01;0; -8.2350560E-03;  3.9886844E+04;  0.0000000E+00;  6.0773268E-02;  4.0000000E+04;  0.0000000E+00;  4.0012840E+04; -7.1772323E-03;  0.0000000E+00; -1.0578232E-03;  1.6714332E+03;
  3.8121089E-01;  9.9999998E-03;  2.8000140E-01;4822; -4.5856913E-03;  0.0000000E+00; -9.8352706E-05;  9.9860266E+02;  1.0000000E-01; -1.1576462E+03;3;  6.8822354E-01;  0.0000000E+00; -3.3122036E-01;0; -8.3040502E-03;  3.9875887E+04;  0.0000000E+00; -2.0964248E-02;  4.0000000E+04;  0.0000000E+00;  4.0013945E+04; -7.1223723E-03;  0.0000000E+00; -1.1816774E-03;  1.8392462E+03;
  3.8117412E-01;  9.9999998E-03;  2.8999883E-01;4823; -4.4904775E-03;  0.0000000E+00; -1.2672489E-04;  9.9849487E+02;  1.0000000E-01; -1.2469771E+03;3;  6.9340712E-01;  0.0000000E+00; -3.3339429E-01;0; -8.5152341E-03;  3.9866496E+04;  0.0000000E+00; -1.1353981E-01;  4.0000000E+04;  0.0000000E+00;  4.0014312E+04; -7.0769507E-03;  0.0000000E+00; -1.4382834E-03;  1.9802566E+03;
  3.8113320E-01;  9.9999998E-03;  2.9999635E-01;4824; -4.3846294E-03;  0.0000000E+00; -1.5782700E-04;  9.9840192E+02;  1.0000000E-01; -1.3239625E+03;3;  6.9922733E-01;  0.0000000E+00; -3.3253184E-01;0; -8.7910928E-03;  3.9858512E+04;  0.0000000E+00; -2.0671305E-01;  4.0000000E+04;  0.0000000E+00;  4.0015715E+04; -7.0385891E-03;  0.0000000E+00; -1.7525038E-03;  2.1070154E+03;
  3.9128444E-01;  9.9999998E-03;  2.4001095E-01;4879; -5.0218571E-03;  0.0000000E+00; -5.1860112E-05;  9.9916589E+02;  1.0000000E-01; -6.9104218E+02;3;  6.9814801E-01;  0.0000000E+00; -3.2242519E-01;0; -8.0418363E-03;  3.9925586E+04;  0.0000000E+00;  6.3872613E-02;  4.0000000E+04;  0.0000000E+00;  4.0008086E+04; -7.1005020E-03;  0.0000000E+00; -9.4133464E-04;  1.1039470E+03;
  3.9125958E-01;  9.9999998E-03;  2.5000948E-01;4880; -4.9336343E-03;  0.0000000E+00; -7.1065813E-05;  9.9900568E+02;  1.0000000E-01; -8.2377917E+02;3;  6.9975191E-01;  0.0000000E+00; -3.2733941E-01;0; -8.0296965E-03;  3.9911059E+04;  0.0000000E+00;  5.4550473E-02;  4.0000000E+04;  0.0000000E+00;  4.0009129E+04; -7.0057963E-03;  0.0000000E+00; -1.0238999E-03;  1.2880396E+03;
  3.9124191E-01;  9.9999998E-03;  2.6000693E-01;4881; -4.8457570E-03;  0.0000000E+00; -8.8418579E-05;  9.9885474E+02;  1.0000000E-01; -9.4881268E+02;3;  7.0205575E-01;  0.0000000E+00; -3.3073264E-01;0; -8.0165369E-03;  3.9897559E+04;  0.0000000E+00;  2.8250212E-02;  4.0000000E+04;  0.0000000E+00;  4.0011359E+04; -6.9226818E-03;  0.0000000E+00; -1.0938550E-03;  1.4941700E+03;
  3.9123493E-01;  9.9999998E-03;  2.7000433E-01;4882; -4.7584143E-03;  0.0000000E+00; -1.0534687E-04;  9.9871967E+02;  1.0000000E-01; -1.0607107E+03;3;  7.0485049E-01;  0.0000000E+00; -3.3507946E-01;0; -8.0005433E-03;  3.9884941E+04;  0.0000000E+00; -1.5999166E-02;  4.0000000E+04;  0.0000000E+00;  4.0012742E+04; -6.8511921E-03;  0.0000000E+00; -1.1493517E-03;  1.6863207E+03;
  3.9122006E-01;  9.9999998E-03;  2.8000176E-01;4883; -4.6713678E-03;  0.0000000E+00; -1.2813235E-04;  9.9859491E+02;  1.0000000E-01; -1.1641152E+03;3;  7.0825219E-01;  0.0000000E+00; -3.3807534E-01;0; -8.0664847E-03;  3.9873660E+04;  0.0000000E+00; -7.1439907E-02;  4.0000000E+04;  0.0000000E+00;  4.0014156E+04; -6.7910780E-03;  0.0000000E+00; -1.2754070E-03;  1.8561793E+03;
  3.9118838E-01;  9.9999998E-03;  2.8999931E-01;4884; -4.5825713E-03;  0.0000000E+00; -1.5777895E-04;  9.9848389E+02;  1.0000000E-01; -1.2560632E+03;3;  7.1237469E-01;  0.0000000E+00; -3.3931804E-01;0; -8.2642352E-03;  3.9863719E+04;  0.0000000E+00; -1.2976833E-01;  4.0000000E+04;  0.0000000E+00;  4.0014566E+04; -6.7407098E-03;  0.0000000E+00; -1.5235251E-03;  1.9997002E+03;
  3.9115039E-01;  9.9999998E-03;  2.9999682E-01;4885; -4.4872588E-03;  0.0000000E+00; -1.8941402E-04;  9.9838434E+02;  1.0000000E-01; -1.3385300E+03;3;  7.1673256E-01;  0.0000000E+00; -3.3984166E-01;0; -8.5139228E-03;  3.9855082E+04;  0.0000000E+00; -1.8695800E-01;  4.0000000E+04;  0.0000000E+00;  4.0015727E+04; -6.6970391E-03;  0.0000000E+00; -1.8168835E-03;  2.1297439E+03;
  4.0127942E-01;  9.9999998E-03;  2.4000844E-01;4940; -5.0967685E-03;  0.0000000E+00; -7.4823132E-05;  9.9915247E+02;  1.0000000E-01; -7.0215295E+02;3;  7.2223145E-01;  0.0000000E+00; -3.2961398E-01;0; -7.8378301E-03;  3.9923039E+04;  0.0000000E+00; -2.0482974E-02;  4.0000000E+04;  0.0000000E+00;  4.0008395E+04; -6.7968322E-03;  0.0000000E+00; -1.0409974E-03;  1.1515814E+03;
  4.0125287E-01;  9.9999998E-03;  2.5000817E-01;4941; -5.0097182E-03;  0.0000000E+00; -9.6364405E-05;  9.9899506E+02;  1.0000000E-01; -8.3256903E+02;3;  7.2273844E-01;  0.0000000E+00; -3.3420408E-01;0; -7.8089526E-03;  3.9908848E+04;  0.0000000E+00; -3.2880101E-02;  4.0000000E+04;  0.0000000E+00;  4.0009566E+04; -6.6894246E-03;  0.0000000E+00; -1.1195282E-03;  1.3148855E+03;
  4.0123528E-01;  9.9999998E-03;  2.6000625E-01;4942; -4.9236845E-03;  0.0000000E+00; -1.1465831E-04;  9.9884583E+02;  1.0000000E-01; -9.5621985E+02;3;  7.2398639E-01;  0.0000000E+00; -3.3731565E-01;0; -7.7684908E-03;  3.9895602E+04;  0.0000000E+00; -5.1412486E-02;  4.0000000E+04;  0.0000000E+00;  4.0011293E+04; -6.5946379E-03;  0.0000000E+00; -1.1738531E-03;  1.5163308E+03;
  4.0122676E-01;  9.9999998E-03;  2.7000400E-01;4943; -4.8394450E-03;  0.0000000E+00; -1.3376500E-04;  9.9871088E+02;  1.0000000E-01; -1.0680192E+03;3;  7.2552228E-01;  0.0000000E+00; -3.4101972E-01;0; -7.7367495E-03;  3.9883051E+04;  0.0000000E+00; -7.7637628E-02;  4.0000000E+04;  0.0000000E+00;  4.0012844E+04; -6.5125618E-03;  0.0000000E+00; -1.2241877E-03;  1.7069141E+03;
  4.0121505E-01;  9.9999998E-03;  2.8000173E-01;4944; -4.7569317E-03;  0.0000000E+00; -1.5878101E-04;  9.9858722E+02;  1.0000000E-01; -1.1704855E+03;3;  7.2787249E-01;  0.0000000E+00; -3.4297994E-01;0; -7.7924202E-03;  3.9872020E+04;  0.0000000E+00; -1.0861710E-01;  4.0000000E+04;  0.0000000E+00;  4.0014105E+04; -6.4426395E-03;  0.0000000E+00; -1.3497808E-03;  1.8732786E+03;
  4.0119284E-01;  9.9999998E-03;  2.8999946E-01;4945; -4.6753990E-03;  0.0000000E+00; -1.9044991E-04;  9.9847815E+02;  1.0000000E-01; -1.2608038E+03;3;  7.3042846E-01;  0.0000000E+00; -3.4464684E-01;0; -7.9817846E-03;  3.9862113E+04;  0.0000000E+00; -1.3965361E-01;  4.0000000E+04;  0.0000000E+00;  4.0014883E+04; -6.3830521E-03;  0.0000000E+00; -1.5987323E-03;  2.0116753E+03;
  4.0116075E-01;  9.9999998E-03;  2.9999700E-01;4946; -4.5922082E-03;  0.0000000E+00; -2.2312551E-04;  9.9837195E+02;  1.0000000E-01; -1.3488014E+03;3;  7.3347062E-01;  0.0000000E+00; -3.4506172E-01;0; -8.2119601E-03;  3.9853176E+04;  0.0000000E+00; -1.6759972E-01;  4.0000000E+04;  0.0000000E+00;  4.0016008E+04; -6.3308682E-03;  0.0000000E+00; -1.8810922E-03;  2.1480486E+03;
  4.1126814E-01;  9.9999998E-03;  2.4000660E-01;5001; -5.1702657E-03;  0.0000000E+00; -9.9701960E-05;  9.9914044E+02;  1.0000000E-01; -7.1212799E+02;3;  7.4609625E-01;  0.0000000E+00; -3.3566850E-01;0; -7.6260255E-03;  3.9921359E+04;  0.0000000E+00; -9.6266918E-02;  4.0000000E+04;  0.0000000E+00;  4.0008750E+04; -6.4869123E-03;  0.0000000E+00; -1.1391132E-03;  1.1942816E+03;
  4.1124797E-01;  9.9999998E-03;  2.5000703E-01;5002; -5.0834534E-03;  0.0000000E+00; -1.2327784E-04;  9.9898761E+02;  1.0000000E-01; -8.3874170E+02;3;  7.4553412E-01;  0.0000000E+00; -3.3953187E-01;0; -7.5730360E-03;  3.9907402E+04;  0.0000000E+00; -1.0937116E-01;  4.0000000E+04;  0.0000000E+00;  4.0009812E+04; -6.3623628E-03;  0.0000000E+00; -1.2106732E-03;  1.3394976E+03;
  4.1123566E-01;  9.9999998E-03;  2.6000550E-01;5003; -4.9984497E-03;  0.0000000E+00; -1.4243263E-04;  9.9884082E+02;  1.0000000E-01; -9.6036792E+02;3;  7.4547762E-01;  0.0000000E+00; -3.4280404E-01;0; -7.4980119E-03;  3.9894289E+04;  0.0000000E+00; -1.2114474E-01;  4.0000000E+04;  0.0000000E+00;  4.0011570E+04; -6.2511740E-03;  0.0000000E+00; -1.2468379E-03;  1.5360289E+03;
  4.1122758E-01;  9.9999998E-03;  2.7000359E-01;5004; -4.9163410E-03;  0.0000000E+00; -1.6391455E-04;  9.9870551E+02;  1.0000000E-01; -1.0724635E+03;3;  7.4595439E-01;  0.0000000E+00; -3.4554026E-01;0; -7.4460767E-03;  3.9882148E+04;  0.0000000E+00; -1.3369349E-01;  4.0000000E+04;  0.0000000E+00;  4.0012809E+04; -6.1536981E-03;  0.0000000E+00; -1.2923785E-03;  1.7233501E+03;
  4.1121551E-01;  9.9999998E-03;  2.8000155E-01;5005; -4.8375297E-03;  0.0000000E+00; -1.9191641E-04;  9.9858282E+02;  1.0000000E-01; -1.1740902E+03;3;  7.4681717E-01;  0.0000000E+00; -3.4757960E-01;0; -7.4962275E-03;  3.9870938E+04;  0.0000000E+00; -1.4673565E-01;  4.0000000E+04;  0.0000000E+00;  4.0014027E+04; -6.0694274E-03;  0.0000000E+00; -1.4268003E-03;  1.8853712E+03;
  4.1119257E-01;  9.9999998E-03;  2.8999940E-01;5006; -4.7622318E-03;  0.0000000E+00; -2.2593103E-04;  9.9847296E+02;  1.0000000E-01; -1.2651000E+03;3;  7.4793917E-01;  0.0000000E+00; -3.4870130E-01;0; -7.6800706E-03;  3.9860996E+04;  0.0000000E+00; -1.5548743E-01;  4.0000000E+04;  0.0000000E+00;  4.0014871E+04; -5.9967679E-03;  0.0000000E+00; -1.6833028E-03;  2.0237185E+03;
  4.1115856E-01;  9.9999998E-03;  2.9999709E-01;5007; -4.6898061E-03;  0.0000000E+00; -2.5997017E-04;  9.9837305E+02;  1.0000000E-01; -1.3479125E+03;3;  7.4947429E-01;  0.0000000E+00; -3.4818944E-01;0; -7.8947898E-03;  3.9852176E+04;  0.0000000E+00; -1.5412244E-01;  4.0000000E+04;  0.0000000E+00;  4.0016047E+04; -5.9330859E-03;  0.0000000E+00; -1.9617043E-03;  2.1501077E+03;
  4.2127335E-01;  9.9999998E-03;  2.4000604E-01;5062; -5.2398979E-03;  0.0000000E+00; -1.2837785E-04;  9.9914191E+02;  1.0000000E-01; -7.1089349E+02;3;  7.6986825E-01;  0.0000000E+00; -3.3956882E-01;0; -7.4119680E-03;  3.9920793E+04;  0.0000000E+00; -1.6083933E-01;  4.0000000E+04;  0.0000000E+00;  4.0008957E+04; -6.1660679E-03;  0.0000000E+00; -1.2459001E-03;  1.2045558E+03;
  4.2126474E-01;  9.9999998E-03;  2.5000635E-01;5063; -5.1521203E-03;  0.0000000E+00; -1.5337563E-04;  9.9898401E+02;  1.0000000E-01; -8.4175397E+02;3;  7.6805294E-01;  0.0000000E+00; -3.4322447E-01;0; -7.3295594E-03;  3.9906766E+04;  0.0000000E+00; -1.7407539E-01;  4.0000000E+04;  0.0000000E+00;  4.0010219E+04; -6.0211183E-03;  0.0000000E+00; -1.3084413E-03;  1.3553600E+03;
  4.2125955E-01;  9.9999998E-03;  2.6000497E-01;5064; -5.0668851E-03;  0.0000000E+00; -1.7313792E-04;  9.9884155E+02;  1.0000000E-01; -9.5977533E+02;3;  7.6667416E-01;  0.0000000E+00; -3.4669304E-01;0; -7.2154030E-03;  3.9893785E+04;  0.0000000E+00; -1.8110622E-01;  4.0000000E+04;  0.0000000E+00;  4.0011621E+04; -5.8899689E-03;  0.0000000E+00; -1.3254340E-03;  1.5475103E+03;
  4.2125002E-01;  9.9999998E-03;  2.7000323E-01;5065; -4.9854424E-03;  0.0000000E+00; -1.9707270E-04;  9.9870660E+02;  1.0000000E-01; -1.0715746E+03;3;  7.6584965E-01;  0.0000000E+00; -3.4867522E-01;0; -7.1412865E-03;  3.9881805E+04;  0.0000000E+00; -1.8217914E-01;  4.0000000E+04;  0.0000000E+00;  4.0013234E+04; -5.7734097E-03;  0.0000000E+00; -1.3678769E-03;  1.7305869E+03;
  4.2123225E-01;  9.9999998E-03;  2.8000137E-01;5066; -4.9085380E-03;  0.0000000E+00; -2.2830635E-04;  9.9858630E+02;  1.0000000E-01; -1.1712261E+03;3;  7.6527578E-01;  0.0000000E+00; -3.5072151E-01;0; -7.1873916E-03;  3.9870773E+04;  0.0000000E+00; -1.7522696E-01;  4.0000000E+04;  0.0000000E+00;  4.0014102E+04; -5.6712334E-03;  0.0000000E+00; -1.5161585E-03;  1.8851493E+03;
  4.2120248E-01;  9.9999998E-03;  2.8999934E-01;5067; -4.8371269E-03;  0.0000000E+00; -2.6498319E-04;  9.9847913E+02;  1.0000000E-01; -1.2600138E+03;3;  7.6485080E-01;  0.0000000E+00; -3.5099113E-01;0; -7.3700845E-03;  3.9861203E+04;  0.0000000E+00; -1.5426776E-01;  4.0000000E+04;  0.0000000E+00;  4.0014848E+04; -5.5822916E-03;  0.0000000E+00; -1.7877931E-03;  2.0173633E+03;
  4.2115769E-01;  9.9999998E-03;  2.9999712E-01;5068; -4.7719195E-03;  0.0000000E+00; -3.0034184E-04;  9.9838300E+02;  1.0000000E-01; -1.3396658E+03;3;  7.6492035E-01;  0.0000000E+00; -3.5020119E-01;0; -7.5676758E-03;  3.9852508E+04;  0.0000000E+00; -1.1118235E-01;  4.0000000E+04;  0.0000000E+00;  4.0015949E+04; -5.5047418E-03;  0.0000000E+00; -2.0629342E-03;  2.1378267E+03;
  4.3129513E-01;  9.9999998E-03;  2.4000661E-01;5123; -5.3032627E-03;  0.0000000E+00; -1.6226718E-04;  9.9915454E+02;  1.0000000E-01; -7.0042462E+02;3;  7.9356831E-01;  0.0000000E+00; -3.4200647E-01;0; -7.2039342E-03;  3.9921793E+04;  0.0000000E+00; -2.0699733E-01;  4.0000000E+04;  0.0000000E+00;  4.0008719E+04; -5.8349911E-03;  0.0000000E+00; -1.3689433E-03;  1.1793789E+03;
  4.3129364E-01;  9.9999998E-03;  2.5000632E-01;5124; -5.2131745E-03;  0.0000000E+00; -1.8720998E-04;  9.9899646E+02;  1.0000000E-01; -8.3143329E+02;3;  7.9046112E-01;  0.0000000E+00; -3.4458554E-01;0; -7.0857992E-03;  3.9908070E+04;  0.0000000E+00; -2.1687907E-01;  4.0000000E+04;  0.0000000E+00;  4.0010039E+04; -5.6682960E-03;  0.0000000E+00; -1.4175033E-03;  1.3419463E+03;
  4.3129185E-01;  9.9999998E-03;  2.6000482E-01;5125; -5.1261983E-03;  0.0000000E+00; -2.0723484E-04;  9.9885742E+02;  1.0000000E-01; -9.4659052E+02;3;  7.8758544E-01;  0.0000000E+00; -3.4760770E-01;0; -6.9302134E-03;  3.9895184E+04;  0.0000000E+00; -2.1613748E-01;  4.0000000E+04;  0.0000000E+00;  4.0011391E+04; -5.5154790E-03;  0.0000000E+00; -1.4147345E-03;  1.5333490E+03;
  4.3128052E-01;  9.9999998E-03;  2.7000314E-01;5126; -5.0436025E-03;  0.0000000E+00; -2.3349142E-04;  9.9872430E+02;  1.0000000E-01; -1.0569083E+03;3;  7.8548342E-01;  0.0000000E+00; -3.4906316E-01;0; -6.8323361E-03;  3.9883270E+04;  0.0000000E+00; -2.0240405E-01;  4.0000000E+04;  0.0000000E+00;  4.0012672E+04; -5.3777839E-03;  0.0000000E+00; -1.4545522E-03;  1.7098280E+03;
  4.3126008E-01;  9.9999998E-03;  2.8000134E-01;5127; -4.9663284E-03;  0.0000000E+00; -2.6802448E-04;  9.9860596E+02;  1.0000000E-01; -1.1549303E+03;3;  7.8329867E-01;  0.0000000E+00; -3.5047394E-01;0; -6.8744915E-03;  3.9872648E+04;  0.0000000E+00; -1.7043491E-01;  4.0000000E+04;  0.0000000E+00;  4.0013859E+04; -5.2553848E-03;  0.0000000E+00; -1.6191066E-03;  1.8569559E+03;
  4.3122670E-01;  9.9999998E-03;  2.8999940E-01;5128; -4.8956443E-03;  0.0000000E+00; -3.0800910E-04;  9.9850397E+02;  1.0000000E-01; -1.2394218E+03;3;  7.8128123E-01;  0.0000000E+00; -3.5063109E-01;0; -7.0642773E-03;  3.9863082E+04;  0.0000000E+00; -1.1146015E-01;  4.0000000E+04;  0.0000000E+00;  4.0014773E+04; -5.1479535E-03;  0.0000000E+00; -1.9163237E-03;  1.9797841E+03;
  4.3117651E-01;  9.9999998E-03;  2.9999724E-01;5129; -4.8328205E-03;  0.0000000E+00; -3.4484992E-04;  9.9841089E+02;  1.0000000E-01; -1.3165553E+03;3;  7.7980787E-01;  0.0000000E+00; -3.4962583E-01;0; -7.2469711E-03;  3.9854508E+04;  0.0000000E+00; -1.5150430E-02;  4.0000000E+04;  0.0000000E+00;  4.0015668E+04; -5.0545488E-03;  0.0000000E+00; -2.1924223E-03;  2.1009280E+03;
  4.4132763E-01;  9.9999998E-03;  2.4000819E-01;5184; -5.3587873E-03;  0.0000000E+00; -2.0186249E-04;  9.9918433E+02;  1.0000000E-01; -6.7578339E+02;3;  8.1713790E-01;  0.0000000E+00; -3.4136057E-01;0; -7.0103649E-03;  3.9924996E+04;  0.0000000E+00; -2.2952154E-01;  4.0000000E+04;  0.0000000E+00;  4.0008086E+04; -5.4986454E-03;  0.0000000E+00; -1.5117193E-03;  1.1105378E+03;
  4.4133055E-01;  9.9999998E-03;  2.5000700E-01;5185; -5.2650878E-03;  0.0000000E+00; -2.2505257E-04;  9.9903284E+02;  1.0000000E-01; -8.0126129E+02;3;  8.1254470E-01;  0.0000000E+00; -3.4407297E-01;0; -6.8506775E-03;  3.9911379E+04;  0.0000000E+00; -2.3286957E-01;  4.0000000E+04;  0.0000000E+00;  4.0009340E+04; -5.3105853E-03;  0.0000000E+00; -1.5400925E-03;  1.2871953E+03;
  4.4133082E-01;  9.9999998E-03;  2.6000518E-01;5186; -5.1748883E-03;  0.0000000E+00; -2.4529017E-04;  9.9889520E+02;  1.0000000E-01; -9.1528278E+02;3;  8.0787897E-01;  0.0000000E+00; -3.4729508E-01;0; -6.6558905E-03;  3.9898770E+04;  0.0000000E+00; -2.2146331E-01;  4.0000000E+04;  0.0000000E+00;  4.0010969E+04; -5.1361714E-03;  0.0000000E+00; -1.5197193E-03;  1.4812659E+03;
  4.4132122E-01;  9.9999998E-03;  2.7000344E-01;5187; -5.0893803E-03;  0.0000000E+00; -2.7392458E-04;  9.9876672E+02;  1.0000000E-01; -1.0217489E+03;3;  8.0330974E-01;  0.0000000E+00; -3.4940255E-01;0; -6.5364009E-03;  3.9886934E+04;  0.0000000E+00; -1.9028655E-01;  4.0000000E+04;  0.0000000E+00;  4.0012238E+04; -4.9769897E-03;  0.0000000E+00; -1.5594113E-03;  1.6476089E+03;
  4.4130376E-01;  9.9999998E-03;  2.8000158E-01;5188; -5.0095785E-03;  0.0000000E+00; -3.1167010E-04;  9.9864850E+02;  1.0000000E-01; -1.1196720E+03;3;  7.9840940E-01;  0.0000000E+00; -3.5110569E-01;0; -6.5748864E-03;  3.9876590E+04;  0.0000000E+00; -1.3113892E-01;  4.0000000E+04;  0.0000000E+00;  4.0013336E+04; -4.8337732E-03;  0.0000000E+00; -1.7411131E-03;  1.7919742E+03;
  4.4127315E-01;  9.9999998E-03;  2.8999963E-01;5189; -4.9366355E-03;  0.0000000E+00; -3.5442057E-04;  9.9854541E+02;  1.0000000E-01; -1.2051017E+03;3;  7.9408705E-01;  0.0000000E+00; -3.4942517E-01;0; -6.7643835E-03;  3.9866984E+04;  0.0000000E+00; -3.3218052E-02;  4.0000000E+04;  0.0000000E+00;  4.0014309E+04; -4.7070938E-03;  0.0000000E+00; -2.0572897E-03;  1.9204052E+03;
  4.4122660E-01;  9.9999998E-03;  2.9999751E-01;5190; -4.8712250E-03;  0.0000000E+00; -3.9363111E-04;  9.9845581E+02;  1.0000000E-01; -1.2793219E+03;3;  7.8978693E-01;  0.0000000E+00; -3.4669009E-01;0; -6.9455621E-03;  3.9859094E+04;  0.0000000E+00;  1.1484005E-01;  4.0000000E+04;  0.0000000E+00;  4.0015164E+04; -4.5969328E-03;  0.0000000E+00; -2.3486293E-03;  2.0526614E+03;
  4.5137280E-01;  9.9999998E-03;  2.4001020E-01;5245; -5.4060575E-03;  0.0000000E+00; -2.4705371E-04;  9.9922363E+02;  1.0000000E-01; -6.4319171E+02;3;  8.4054244E-01;  0.0000000E+00; -3.3860111E-01;0; -6.8377578E-03;  3.9929340E+04;  0.0000000E+00; -2.2908668E-01;  4.0000000E+04;  0.0000000E+00;  4.0007371E+04; -5.1641786E-03;  0.0000000E+00; -1.6735791E-03;  1.0135483E+03;
  4.5137817E-01;  9.9999998E-03;  2.5000802E-01;5246; -5.3076930E-03;  0.0000000E+00; -2.6745346E-04;  9.9908228E+02;  1.0000000E-01; -7.6032416E+02;3;  8.3430457E-01;  0.0000000E+00; -3.4221616E-01;0; -6.6363630E-03;  3.9916266E+04;  0.0000000E+00; -2.2489978E-01;  4.0000000E+04;  0.0000000E+00;  4.0008758E+04; -4.9566049E-03;  0.0000000E+00; -1.6797580E-03;  1.2070792E+03;
  4.5138130E-01;  9.9999998E-03;  2.6000589E-01;5247; -5.2129682E-03;  0.0000000E+00; -2.8859632E-04;  9.9894879E+02;  1.0000000E-01; -8.7088898E+02;3;  8.2793647E-01;  0.0000000E+00; -3.4509763E-01;0; -6.4133522E-03;  3.9903738E+04;  0.0000000E+00; -2.0206688E-01;  4.0000000E+04;  0.0000000E+00;  4.0010184E+04; -4.7622141E-03;  0.0000000E+00; -1.6511381E-03;  1.3992440E+03;
  4.5137924E-01;  9.9999998E-03;  2.7000400E-01;5248; -5.1228749E-03;  0.0000000E+00; -3.1956701E-04;  9.9882507E+02;  1.0000000E-01; -9.7340454E+02;3;  8.2110590E-01;  0.0000000E+00; -3.4731209E-01;0; -6.2788655E-03;  3.9892758E+04;  0.0000000E+00; -1.5343608E-01;  4.0000000E+04;  0.0000000E+00;  4.0011570E+04; -4.5828158E-03;  0.0000000E+00; -1.6960498E-03;  1.5579055E+03;
  4.5137230E-01;  9.9999998E-03;  2.8000206E-01;5249; -5.0383997E-03;  0.0000000E+00; -3.5969046E-04;  9.9870819E+02;  1.0000000E-01; -1.0702413E+03;3;  8.1334740E-01;  0.0000000E+00; -3.4879255E-01;0; -6.3075107E-03;  3.9882324E+04;  0.0000000E+00; -6.9516137E-02;  4.0000000E+04;  0.0000000E+00;  4.0012773E+04; -4.4197789E-03;  0.0000000E+00; -1.8877318E-03;  1.7033716E+03;
  4.5135337E-01;  9.9999998E-03;  2.9000005E-01;5250; -4.9600890E-03;  0.0000000E+00; -4.0470727E-04;  9.9860834E+02;  1.0000000E-01; -1.1529551E+03;3;  8.0854481E-01;  0.0000000E+00; -3.4673443E-01;0; -6.4904471E-03;  3.9873199E+04;  0.0000000E+00;  5.9895899E-02;  4.0000000E+04;  0.0000000E+00;  4.0013488E+04; -4.2745401E-03;  0.0000000E+00; -2.2159070E-03;  1.8387151E+03;
  4.5131850E-01;  9.9999998E-03;  2.9999796E-01;5251; -4.8873443E-03;  0.0000000E+00; -4.4615482E-04;  9.9852368E+02;  1.0000000E-01; -1.2231259E+03;3;  8.0278194E-01;  0.0000000E+00; -3.4241146E-01;0; -6.6684186E-03;  3.9865465E+04;  0.0000000E+00;  2.4558021E-01;  4.0000000E+04;  0.0000000E+00;  4.0014488E+04; -4.1480013E-03;  0.0000000E+00; -2.5204171E-03;  1.9895665E+03;
  4.6141994E-01;  9.9999998E-03;  2.4001236E-01;5306; -5.4457784E-03;  0.0000000E+00; -2.9633951E-04;  9.9927289E+02;  1.0000000E-01; -6.0240271E+02;3;  8.6336732E-01;  0.0000000E+00; -3.3483052E-01;0; -6.6860998E-03;  3.9934016E+04;  0.0000000E+00; -2.0845856E-01;  4.0000000E+04;  0.0000000E+00;  4.0006387E+04; -4.8391856E-03;  0.0000000E+00; -1.8469139E-03;  8.9933130E+02;
  4.6142843E-01;  9.9999998E-03;  2.5000915E-01;5307; -5.3421250E-03;  0.0000000E+00; -3.1508083E-04;  9.9913379E+02;  1.0000000E-01; -7.1765869E+02;3;  8.5585606E-01;  0.0000000E+00; -3.3789539E-01;0; -6.4552929E-03;  3.9921590E+04;  0.0000000E+00; -1.9713803E-01;  4.0000000E+04;  0.0000000E+00;  4.0008145E+04; -4.6148621E-03;  0.0000000E+00; -1.8404307E-03;  1.1172644E+03;
  4.6143520E-01;  9.9999998E-03;  2.6000676E-01;5308; -5.2417885E-03;  0.0000000E+00; -3.3819833E-04;  9.9900659E+02;  1.0000000E-01; -8.2303845E+02;3;  8.4806287E-01;  0.0000000E+00; -3.4045002E-01;0; -6.2218164E-03;  3.9909629E+04;  0.0000000E+00; -1.6350366E-01;  4.0000000E+04;  0.0000000E+00;  4.0009543E+04; -4.4032340E-03;  0.0000000E+00; -1.8185825E-03;  1.3029398E+03;
  4.6143749E-01;  9.9999998E-03;  2.7000469E-01;5309; -5.1457388E-03;  0.0000000E+00; -3.7077325E-04;  9.9888733E+02;  1.0000000E-01; -9.2185046E+02;3;  8.3899558E-01;  0.0000000E+00; -3.4276447E-01;0; -6.0750614E-03;  3.9898539E+04;  0.0000000E+00; -9.9518061E-02;  4.0000000E+04;  0.0000000E+00;  4.0010715E+04; -4.2064725E-03;  0.0000000E+00; -1.8685888E-03;  1.4602385E+03;
  4.6143621E-01;  9.9999998E-03;  2.8000265E-01;5310; -5.0547244E-03;  0.0000000E+00; -4.1179886E-04;  9.9877661E+02;  1.0000000E-01; -1.0135516E+03;3;  8.3016998E-01;  0.0000000E+00; -3.4327704E-01;0; -6.0821129E-03;  3.9888691E+04;  0.0000000E+00;  2.7595987E-03;  4.0000000E+04;  0.0000000E+00;  4.0011898E+04; -4.0263971E-03;  0.0000000E+00; -2.0557158E-03;  1.6073136E+03;
  4.6142712E-01;  9.9999998E-03;  2.9000059E-01;5311; -4.9681924E-03;  0.0000000E+00; -4.5861228E-04;  9.9868073E+02;  1.0000000E-01; -1.0930061E+03;3;  8.2226831E-01;  0.0000000E+00; -3.4061316E-01;0; -6.2549599E-03;  3.9880117E+04;  0.0000000E+00;  1.4980720E-01;  4.0000000E+04;  0.0000000E+00;  4.0012961E+04; -3.8649340E-03;  0.0000000E+00; -2.3900256E-03;  1.7532595E+03;
  4.6140590E-01;  9.9999998E-03;  2.9999840E-01;5312; -4.8836726E-03;  0.0000000E+00; -5.0153548E-04;  9.9859387E+02;  1.0000000E-01; -1.1649547E+03;3;  8.1790495E-01;  0.0000000E+00; -3.3604500E-01;0; -6.4177541E-03;  3.9872504E+04;  0.0000000E+00;  3.4872872E-01;  4.0000000E+04;  0.0000000E+00;  4.0013840E+04; -3.7236558E-03;  0.0000000E+00; -2.6940985E-03;  1.9321118E+03;
  4.7141740E-01;  9.9999998E-03;  2.4001355E-01;5367; -5.4797065E-03;  0.0000000E+00; -3.4850478E-04;  9.9930341E+02;  1.0000000E-01; -5.7711951E+02;3;  8.8545817E-01;  0.0000000E+00; -3.2969061E-01;0; -6.5552145E-03;  3.9937918E+04;  0.0000000E+00; -1.7171730E-01;  4.0000000E+04;  0.0000000E+00;  4.0005684E+04; -4.5300922E-03;  0.0000000E+00; -2.0251225E-03;  8.1606586E+02;
  4.7142816E-01;  9.9999998E-03;  2.5001010E-01;5368; -5.3705033E-03;  0.0000000E+00; -3.6973113E-04;  9.9917041E+02;  1.0000000E-01; -6.8728918E+02;3;  8.7697172E-01;  0.0000000E+00; -3.3141106E-01;0; -6.3259359E-03;  3.9925570E+04;  0.0000000E+00; -1.5560229E-01;  4.0000000E+04;  0.0000000E+00;  4.0007469E+04; -4.2922636E-03;  0.0000000E+00; -2.0336725E-03;  1.0346090E+03;
  4.7144029E-01;  9.9999998E-03;  2.6000753E-01;5369; -5.2642012E-03;  0.0000000E+00; -3.9768475E-04;  9.9904425E+02;  1.0000000E-01; -7.9182947E+02;3;  8.6737978E-01;  0.0000000E+00; -3.3357599E-01;0; -6.1218580E-03;  3.9914027E+04;  0.0000000E+00; -1.1600742E-01;  4.0000000E+04;  0.0000000E+00;  4.0009062E+04; -4.0666233E-03;  0.0000000E+00; -2.0552350E-03;  1.2193981E+03;
  4.7144875E-01;  9.9999998E-03;  2.7000526E-01;5370; -5.1613422E-03;  0.0000000E+00; -4.3143233E-04;  9.9893054E+02;  1.0000000E-01; -8.8604901E+02;3;  8.5662174E-01;  0.0000000E+00; -3.3571655E-01;0; -5.9802504E-03;  3.9903371E+04;  0.0000000E+00; -4.5690626E-02;  4.0000000E+04;  0.0000000E+00;  4.0010039E+04; -3.8557309E-03;  0.0000000E+00; -2.1245196E-03;  1.3820002E+03;
  4.7145048E-01;  9.9999998E-03;  2.8000307E-01;5371; -5.0624111E-03;  0.0000000E+00; -4.7154003E-04;  9.9882739E+02;  1.0000000E-01; -9.7147870E+02;3;  8.4674394E-01;  0.0000000E+00; -3.3554664E-01;0; -5.9599206E-03;  3.9893820E+04;  0.0000000E+00;  5.9893336E-02;  4.0000000E+04;  0.0000000E+00;  4.0011508E+04; -3.6618663E-03;  0.0000000E+00; -2.2980541E-03;  1.5352058E+03;
  4.7144786E-01;  9.9999998E-03;  2.9000089E-01;5372; -4.9660099E-03;  0.0000000E+00; -5.1696016E-04;  9.9873395E+02;  1.0000000E-01; -1.0489086E+03;3;  8.3897930E-01;  0.0000000E+00; -3.3240372E-01;0; -6.0830219E-03;  3.9885527E+04;  0.0000000E+00;  2.0214991E-01;  4.0000000E+04;  0.0000000E+00;  4.0012391E+04; -3.4870538E-03;  0.0000000E+00; -2.5959683E-03;  1.6931145E+03;
  4.7143883E-01;  9.9999998E-03;  2.9999870E-01;5373; -4.8671267E-03;  0.0000000E+00; -5.6082918E-04;  9.9865228E+02;  1.0000000E-01; -1.1165610E+03;3;  8.3455920E-01;  0.0000000E+00; -3.2703665E-01;0; -6.2256260E-03;  3.9878172E+04;  0.0000000E+00;  3.8325429E-01;  4.0000000E+04;  0.0000000E+00;  4.0013473E+04; -3.3330901E-03;  0.0000000E+00; -2.8925356E-03;  1.8707244E+03;
  4.8141488E-01;  9.9999998E-03;  2.9999870E-01;5434; -4.8456560E-03;  0.0000000E+00; -6.2202773E-04;  9.9867596E+02;  1.0000147E-01; -1.0969567E+03;3;  8.5627300E-01;  0.0000000E+00; -3.1439018E-01;0; -6.0577970E-03;  3.9879805E+04;  0.0000000E+00;  3.3540598E-01;  4.0000000E+04;  0.0000000E+00;  4.0012980E+04; -2.9751842E-03;  0.0000000E+00; -3.0826130E-03;  1.8219125E+03;
  4.8141825E-01;  9.9999998E-03;  2.9000095E-01;5433; -4.9603726E-03;  0.0000000E+00; -5.7791761E-04;  9.9875739E+02;  1.0000147E-01; -1.0295017E+03;3;  8.5742038E-01;  0.0000000E+00; -3.2136086E-01;0; -5.9447000E-03;  3.9887199E+04;  0.0000000E+00;  1.9366501E-01;  4.0000000E+04;  0.0000000E+00;  4.0012281E+04; -3.1400451E-03;  0.0000000E+00; -2.8046547E-03;  1.6603080E+03;
  4.8141551E-01;  9.9999998E-03;  2.8000319E-01;5432; -5.0667771E-03;  0.0000000E+00; -5.3381617E-04;  9.9885046E+02;  1.0000148E-01; -9.5236810E+02;3;  8.6378723E-01;  0.0000000E+00; -3.2543677E-01;0; -5.8672405E-03;  3.9895344E+04;  0.0000000E+00;  7.5519867E-02;  4.0000000E+04;  0.0000000E+00;  4.0011246E+04; -3.3257673E-03;  0.0000000E+00; -2.5414731E-03;  1.5011555E+03;
  4.8136556E-01;  9.9999998E-03;  2.4001394E-01;5428; -5.5103563E-03;  0.0000000E+00; -4.0323025E-04;  9.9931415E+02;  1.0000148E-01; -5.6823083E+02;3;  9.0718883E-01;  0.0000000E+00; -3.2293311E-01;0; -6.4427885E-03;  3.9938434E+04;  0.0000000E+00; -1.2882553E-01;  4.0000000E+04;  0.0000000E+00;  4.0005613E+04; -4.2376244E-03;  0.0000000E+00; -2.2051642E-03;  7.6853119E+02;
  4.8137981E-01;  9.9999998E-03;  2.5001067E-01;5429; -5.3956998E-03;  0.0000000E+00; -4.2939660E-04;  9.9918616E+02;  1.0000146E-01; -6.7425256E+02;3;  8.9717609E-01;  0.0000000E+00; -3.2414541E-01;0; -6.2337816E-03;  3.9926281E+04;  0.0000000E+00; -1.1455942E-01;  4.0000000E+04;  0.0000000E+00;  4.0007098E+04; -3.9891712E-03;  0.0000000E+00; -2.2446103E-03;  9.7773669E+02;
  4.8139471E-01;  9.9999998E-03;  2.6000798E-01;5430; -5.2834689E-03;  0.0000000E+00; -4.6163623E-04;  9.9906110E+02;  1.0000145E-01; -7.7785455E+02;3;  8.8605958E-01;  0.0000000E+00; -3.2544640E-01;0; -6.0631274E-03;  3.9914930E+04;  0.0000000E+00; -7.9046220E-02;  4.0000000E+04;  0.0000000E+00;  4.0008516E+04; -3.7526102E-03;  0.0000000E+00; -2.3105172E-03;  1.1664216E+03;
  4.8140880E-01;  9.9999998E-03;  2.7000555E-01;5431; -5.1737451E-03;  0.0000000E+00; -4.9575034E-04;  9.9895422E+02;  1.0000148E-01; -8.6639526E+02;3;  8.7513399E-01;  0.0000000E+00; -3.2578114E-01;0; -5.9257606E-03;  3.9904562E+04;  0.0000000E+00; -1.6200768E-02;  4.0000000E+04;  0.0000000E+00;  4.0009730E+04; -3.5306332E-03;  0.0000000E+00; -2.3951277E-03;  1.3340944E+03;
  4.9139661E-01;  9.9999998E-03;  2.4001274E-01;5489; -5.5407183E-03;  0.0000000E+00; -4.5906354E-04;  9.9927808E+02;  1.0000210E-01; -5.9810657E+02;3;  9.2914659E-01;  0.0000000E+00; -3.1442142E-01;0; -6.3324627E-03;  3.9934918E+04;  0.0000000E+00; -9.7438104E-02;  4.0000000E+04;  0.0000000E+00;  4.0005867E+04; -3.9550043E-03;  0.0000000E+00; -2.3774584E-03;  8.0844995E+02;
  4.9139467E-01;  9.9999998E-03;  2.5000995E-01;5490; -5.4209814E-03;  0.0000000E+00; -4.8930838E-04;  9.9914417E+02;  1.0000207E-01; -7.0906635E+02;3;  9.1677856E-01;  0.0000000E+00; -3.1570733E-01;0; -6.1362302E-03;  3.9922590E+04;  0.0000000E+00; -9.2714086E-02;  4.0000000E+04;  0.0000000E+00;  4.0007395E+04; -3.6984500E-03;  0.0000000E+00; -2.4377804E-03;  1.0210974E+03;
  4.9138823E-01;  9.9999998E-03;  2.6000744E-01;5491; -5.3032394E-03;  0.0000000E+00; -5.2384258E-04;  9.9902124E+02;  1.0000200E-01; -8.1089062E+02;3;  9.0465575E-01;  0.0000000E+00; -3.1615090E-01;0; -5.9772991E-03;  3.9911137E+04;  0.0000000E+00; -7.0572570E-02;  4.0000000E+04;  0.0000000E+00;  4.0009105E+04; -3.4537048E-03;  0.0000000E+00; -2.5235945E-03;  1.2123350E+03;
  4.9138525E-01;  9.9999998E-03;  2.7000502E-01;5492; -5.1874304E-03;  0.0000000E+00; -5.5843900E-04;  9.9891217E+02;  1.0000207E-01; -9.0125848E+02;3;  8.9293784E-01;  0.0000000E+00; -3.1521562E-01;0; -5.8365818E-03;  3.9901008E+04;  0.0000000E+00; -2.6512576E-02;  4.0000000E+04;  0.0000000E+00;  4.0010473E+04; -3.2233675E-03;  0.0000000E+00; -2.6132145E-03;  1.3903719E+03;
  4.9138328E-01;  9.9999998E-03;  2.8000265E-01;5493; -5.0731283E-03;  0.0000000E+00; -5.9530395E-04;  9.9880920E+02;  1.0000204E-01; -9.8653998E+02;3;  8.8155133E-01;  0.0000000E+00; -3.1316641E-01;0; -5.7442673E-03;  3.9891453E+04;  0.0000000E+00;  3.8655486E-02;  4.0000000E+04;  0.0000000E+00;  4.0011723E+04; -3.0098113E-03;  0.0000000E+00; -2.7344560E-03;  1.5580553E+03;
  4.9138331E-01;  9.9999998E-03;  2.9000041E-01;5494; -4.9579386E-03;  0.0000000E+00; -6.3920778E-04;  9.9871698E+02;  1.0000199E-01; -1.0629823E+03;3;  8.7623304E-01;  0.0000000E+00; -3.0852678E-01;0; -5.7900245E-03;  3.9883098E+04;  0.0000000E+00;  1.1963160E-01;  4.0000000E+04;  0.0000000E+00;  4.0012695E+04; -2.8148873E-03;  0.0000000E+00; -2.9751372E-03;  1.7056964E+03;
  4.9138489E-01;  9.9999998E-03;  2.9999813E-01;5495; -4.8296875E-03;  0.0000000E+00; -6.8414339E-04;  9.9863043E+02;  1.0000207E-01; -1.1346840E+03;3;  8.7781668E-01;  0.0000000E+00; -2.9930571E-01;0; -5.8823945E-03;  3.9875594E+04;  0.0000000E+00;  2.1024153E-01;  4.0000000E+04;  0.0000000E+00;  4.0013684E+04; -2.6397798E-03;  0.0000000E+00; -3.2426147E-03;  1.8482363E+03;
  5.0142825E-01;  9.9999998E-03;  2.4001044E-01;5550; -5.5730725E-03;  0.0000000E+00; -5.1363121E-04;  9.9921088E+02;  1.0000383E-01; -6.5375928E+02;3;  9.5055014E-01;  0.0000000E+00; -3.0497679E-01;0; -6.2084710E-03;  3.9927418E+04;  0.0000000E+00; -7.9234295E-02;  4.0000000E+04;  0.0000000E+00;  4.0006715E+04; -3.6785945E-03;  0.0000000E+00; -2.5298765E-03;  9.1941345E+02;
  5.0144035E-01;  9.9999998E-03;  2.5000831E-01;5551; -5.4489234E-03;  0.0000000E+00; -5.4561120E-04;  9.9906860E+02;  1.0000373E-01; -7.7163251E+02;3;  9.3703151E-01;  0.0000000E+00; -3.0528432E-01;0; -6.0006734E-03;  3.9914523E+04;  0.0000000E+00; -9.1502488E-02;  4.0000000E+04;  0.0000000E+00;  4.0008410E+04; -3.4139224E-03;  0.0000000E+00; -2.5867512E-03;  1.1395801E+03;
  5.0144190E-01;  9.9999998E-03;  2.6000613E-01;5552; -5.3266571E-03;  0.0000000E+00; -5.8229588E-04;  9.9893866E+02;  1.0000370E-01; -8.7928375E+02;3;  9.2314255E-01;  0.0000000E+00; -3.0498621E-01;0; -5.8346363E-03;  3.9902535E+04;  0.0000000E+00; -9.0076983E-02;  4.0000000E+04;  0.0000000E+00;  4.0010109E+04; -3.1609151E-03;  0.0000000E+00; -2.6737212E-03;  1.3387367E+03;
  5.0144207E-01;  9.9999998E-03;  2.7000389E-01;5553; -5.2059744E-03;  0.0000000E+00; -6.1840215E-04;  9.9882379E+02;  1.0000364E-01; -9.7449097E+02;3;  9.0975618E-01;  0.0000000E+00; -3.0406356E-01;0; -5.6828284E-03;  3.9891832E+04;  0.0000000E+00; -7.0100613E-02;  4.0000000E+04;  0.0000000E+00;  4.0011367E+04; -2.9222791E-03;  0.0000000E+00; -2.7605493E-03;  1.5242516E+03;
  5.0144821E-01;  9.9999998E-03;  2.8000161E-01;5554; -5.0861700E-03;  0.0000000E+00; -6.5666280E-04;  9.9871747E+02;  1.0000388E-01; -1.0625378E+03;3;  8.9809287E-01;  0.0000000E+00; -3.0121383E-01;0; -5.5777561E-03;  3.9881793E+04;  0.0000000E+00; -3.3579219E-02;  4.0000000E+04;  0.0000000E+00;  4.0012891E+04; -2.6999961E-03;  0.0000000E+00; -2.8777602E-03;  1.6923206E+03;
  5.0145793E-01;  9.9999998E-03;  2.8999940E-01;5555; -4.9644825E-03;  0.0000000E+00; -7.0234918E-04;  9.9861951E+02;  1.0000371E-01; -1.1437207E+03;3;  8.9175397E-01;  0.0000000E+00; -2.9479638E-01;0; -5.6163697E-03;  3.9873027E+04;  0.0000000E+00;  1.3657547E-02;  4.0000000E+04;  0.0000000E+00;  4.0013734E+04; -2.4955736E-03;  0.0000000E+00; -3.1207961E-03;  1.8375131E+03;
  5.0147277E-01;  9.9999998E-03;  2.9999709E-01;5556; -4.8284284E-03;  0.0000000E+00; -7.4924587E-04;  9.9852808E+02;  1.0000388E-01; -1.2194717E+03;3;  8.9825737E-01;  0.0000000E+00; -2.8285000E-01;0; -5.7049729E-03;  3.9865219E+04;  0.0000000E+00;  6.5269008E-02;  4.0000000E+04;  0.0000000E+00;  4.0014684E+04; -2.3094749E-03;  0.0000000E+00; -3.3954978E-03;  1.9706420E+03;
  5.1140177E-01;  9.9999998E-03;  2.4000721E-01;5611; -5.6090285E-03;  0.0000000E+00; -5.6604878E-04;  9.9911273E+02;  1.0000615E-01; -7.3509033E+02;3;  9.7023356E-01;  0.0000000E+00; -2.9555714E-01;0; -6.0604056E-03;  3.9916457E+04;  0.0000000E+00; -6.8865016E-02;  4.0000000E+04;  0.0000000E+00;  4.0008312E+04; -3.4024485E-03;  0.0000000E+00; -2.6579574E-03;  1.0992969E+03;
  5.1140755E-01;  9.9999998E-03;  2.5000596E-01;5612; -5.4812785E-03;  0.0000000E+00; -5.9974642E-04;  9.9895898E+02;  1.0000618E-01; -8.6244476E+02;3;  9.5594567E-01;  0.0000000E+00; -2.9496399E-01;0; -5.8315890E-03;  3.9902457E+04;  0.0000000E+00; -9.5738843E-02;  4.0000000E+04;  0.0000000E+00;  4.0009660E+04; -3.1297219E-03;  0.0000000E+00; -2.7018671E-03;  1.3205447E+03;
  5.1140320E-01;  9.9999998E-03;  2.6000419E-01;5613; -5.3554121E-03;  0.0000000E+00; -6.3786871E-04;  9.9881665E+02;  1.0000620E-01; -9.8036731E+02;3;  9.4062030E-01;  0.0000000E+00; -2.9371604E-01;0; -5.6412611E-03;  3.9889402E+04;  0.0000000E+00; -1.1155727E-01;  4.0000000E+04;  0.0000000E+00;  4.0011516E+04; -2.8682386E-03;  0.0000000E+00; -2.7730223E-03;  1.5311370E+03;
  5.1139390E-01;  9.9999998E-03;  2.7000216E-01;5614; -5.2310796E-03;  0.0000000E+00; -6.7624473E-04;  9.9869080E+02;  1.0000632E-01; -1.0846606E+03;3;  9.2623472E-01;  0.0000000E+00; -2.9260629E-01;0; -5.4743588E-03;  3.9877926E+04;  0.0000000E+00; -1.0967073E-01;  4.0000000E+04;  0.0000000E+00;  4.0012965E+04; -2.6209152E-03;  0.0000000E+00; -2.8534434E-03;  1.7274512E+03;
  5.1139802E-01;  9.9999998E-03;  2.8000012E-01;5615; -5.1077022E-03;  0.0000000E+00; -7.1763113E-04;  9.9858057E+02;  1.0000617E-01; -1.1759668E+03;3;  9.1194779E-01;  0.0000000E+00; -2.9064319E-01;0; -5.3703398E-03;  3.9867449E+04;  0.0000000E+00; -9.3760192E-02;  4.0000000E+04;  0.0000000E+00;  4.0014133E+04; -2.3892554E-03;  0.0000000E+00; -2.9810844E-03;  1.8960371E+03;
  5.1141214E-01;  9.9999998E-03;  2.8999799E-01;5616; -4.9828948E-03;  0.0000000E+00; -7.6675694E-04;  9.9847638E+02;  1.0000617E-01; -1.2622853E+03;3;  9.0225911E-01;  0.0000000E+00; -2.8381628E-01;0; -5.4239547E-03;  3.9858160E+04;  0.0000000E+00; -6.9397129E-02;  4.0000000E+04;  0.0000000E+00;  4.0015277E+04; -2.1743779E-03;  0.0000000E+00; -3.2495770E-03;  2.0443436E+03;
  5.1143903E-01;  9.9999998E-03;  2.9999575E-01;5617; -4.8468574E-03;  0.0000000E+00; -8.1645069E-04;  9.9838190E+02;  1.0000626E-01; -1.3405547E+03;3;  9.0963352E-01;  0.0000000E+00; -2.7045453E-01;0; -5.5217016E-03;  3.9849723E+04;  0.0000000E+00; -4.2108856E-02;  4.0000000E+04;  0.0000000E+00;  4.0016199E+04; -1.9760616E-03;  0.0000000E+00; -3.5456398E-03;  2.1765024E+03;
  5.2137315E-01;  9.9999998E-03;  2.4000417E-01;5672; -5.6490651E-03;  0.0000000E+00; -6.2044087E-04;  9.9900464E+02;  1.0001042E-01; -8.2461865E+02;3;  9.8942357E-01;  0.0000000E+00; -2.8511524E-01;0; -5.8975527E-03;  3.9902441E+04;  0.0000000E+00; -6.9141626E-02;  4.0000000E+04;  0.0000000E+00;  4.0009898E+04; -3.1176955E-03;  0.0000000E+00; -2.7798573E-03;  1.2920176E+03;
  5.2137357E-01;  9.9999998E-03;  2.5000349E-01;5673; -5.5185547E-03;  0.0000000E+00; -6.5502472E-04;  9.9883691E+02;  1.0001062E-01; -9.6357770E+02;3;  9.7243780E-01;  0.0000000E+00; -2.8475714E-01;0; -5.6376033E-03;  3.9887270E+04;  0.0000000E+00; -1.0907198E-01;  4.0000000E+04;  0.0000000E+00;  4.0011367E+04; -2.8349715E-03;  0.0000000E+00; -2.8026318E-03;  1.5217021E+03;
  5.2136308E-01;  9.9999998E-03;  2.6000205E-01;5674; -5.3898809E-03;  0.0000000E+00; -6.9424481E-04;  9.9868103E+02;  1.0001060E-01; -1.0927593E+03;3;  9.5728987E-01;  0.0000000E+00; -2.8328893E-01;0; -5.4130601E-03;  3.9873258E+04;  0.0000000E+00; -1.3904291E-01;  4.0000000E+04;  0.0000000E+00;  4.0012984E+04; -2.5628328E-03;  0.0000000E+00; -2.8502273E-03;  1.7454125E+03;
  5.2134633E-01;  9.9999998E-03;  2.7000025E-01;5675; -5.2630343E-03;  0.0000000E+00; -7.3451962E-04;  9.9854315E+02;  1.0001048E-01; -1.2069781E+03;3;  9.3981612E-01;  0.0000000E+00; -2.8155088E-01;0; -5.2182162E-03;  3.9860789E+04;  0.0000000E+00; -1.4934178E-01;  4.0000000E+04;  0.0000000E+00;  4.0014242E+04; -2.3043540E-03;  0.0000000E+00; -2.9138625E-03;  1.9537123E+03;
  5.2134293E-01;  9.9999998E-03;  2.7999836E-01;5676; -5.1373541E-03;  0.0000000E+00; -7.8006025E-04;  9.9841968E+02;  1.0001054E-01; -1.3092469E+03;3;  9.2513877E-01;  0.0000000E+00; -2.7866089E-01;0; -5.1231738E-03;  3.9849305E+04;  0.0000000E+00; -1.4427735E-01;  4.0000000E+04;  0.0000000E+00;  4.0015754E+04; -2.0609607E-03;  0.0000000E+00; -3.0622131E-03;  2.1343184E+03;
  5.2135766E-01;  9.9999998E-03;  2.8999642E-01;5677; -5.0112726E-03;  0.0000000E+00; -8.3280727E-04;  9.9831128E+02;  1.0001048E-01; -1.3990715E+03;3;  9.1144311E-01;  0.0000000E+00; -2.7252719E-01;0; -5.1901541E-03;  3.9839473E+04;  0.0000000E+00; -1.3423765E-01;  4.0000000E+04;  0.0000000E+00;  4.0017023E+04; -1.8332422E-03;  0.0000000E+00; -3.3569119E-03;  2.2851982E+03;
  5.2138937E-01;  9.9999998E-03;  2.9999426E-01;5678; -4.8797959E-03;  0.0000000E+00; -8.8655209E-04;  9.9820844E+02;  1.0001039E-01; -1.4842543E+03;3;  9.0767419E-01;  0.0000000E+00; -2.6259637E-01;0; -5.3146565E-03;  3.9830219E+04;  0.0000000E+00; -1.2547077E-01;  4.0000000E+04;  0.0000000E+00;  4.0017824E+04; -1.6207199E-03;  0.0000000E+00; -3.6939369E-03;  2.4282009E+03;
  5.3134942E-01;  9.9999998E-03;  2.4000214E-01;5733; -5.6914170E-03;  0.0000000E+00; -6.7902030E-04;  9.9891290E+02;  1.0001750E-01; -9.0061652E+02;3;  1.0085481E+00;  0.0000000E+00; -2.7378616E-01;0; -5.7240026E-03;  3.9888129E+04;  0.0000000E+00; -7.7633820E-02;  4.0000000E+04;  0.0000000E+00;  4.0010680E+04; -2.8184045E-03;  0.0000000E+00; -2.9055979E-03;  1.4454839E+03;
  5.3135222E-01;  9.9999998E-03;  2.5000131E-01;5734; -5.5587683E-03;  0.0000000E+00; -7.1402633E-04;  9.9872650E+02;  1.0001737E-01; -1.0550813E+03;3;  9.8871416E-01;  0.0000000E+00; -2.7388436E-01;0; -5.4276818E-03;  3.9871703E+04;  0.0000000E+00; -1.2745810E-01;  4.0000000E+04;  0.0000000E+00;  4.0012680E+04; -2.5223740E-03;  0.0000000E+00; -2.9053078E-03;  1.6985012E+03;
  5.3134239E-01;  9.9999998E-03;  2.5999999E-01;5735; -5.4279580E-03;  0.0000000E+00; -7.5344171E-04;  9.9855750E+02;  1.0001739E-01; -1.1950773E+03;3;  9.7051233E-01;  0.0000000E+00; -2.7203029E-01;0; -5.1572612E-03;  3.9856586E+04;  0.0000000E+00; -1.6652125E-01;  4.0000000E+04;  0.0000000E+00;  4.0014258E+04; -2.2359213E-03;  0.0000000E+00; -2.9213398E-03;  1.9400980E+03;
  5.3132343E-01;  9.9999998E-03;  2.6999843E-01;5736; -5.2993395E-03;  0.0000000E+00; -7.9662888E-04;  9.9840698E+02;  1.0001741E-01; -1.3197651E+03;3;  9.5389599E-01;  0.0000000E+00; -2.6946586E-01;0; -4.9415017E-03;  3.9842480E+04;  0.0000000E+00; -1.8018430E-01;  4.0000000E+04;  0.0000000E+00;  4.0015953E+04; -1.9624226E-03;  0.0000000E+00; -2.9790793E-03;  2.1589858E+03;
  5.3131884E-01;  9.9999998E-03;  2.7999675E-01;5737; -5.1723840E-03;  0.0000000E+00; -8.4608351E-04;  9.9827325E+02;  1.0001760E-01; -1.4305768E+03;3;  9.3690956E-01;  0.0000000E+00; -2.6511616E-01;0; -4.8494209E-03;  3.9830465E+04;  0.0000000E+00; -1.7371874E-01;  4.0000000E+04;  0.0000000E+00;  4.0017418E+04; -1.7033609E-03;  0.0000000E+00; -3.1460598E-03;  2.3476294E+03;
  5.3133762E-01;  9.9999998E-03;  2.8999498E-01;5738; -5.0458824E-03;  0.0000000E+00; -9.0242573E-04;  9.9815643E+02;  1.0001747E-01; -1.5273643E+03;3;  9.2385095E-01;  0.0000000E+00; -2.5811538E-01;0; -4.9279081E-03;  3.9819668E+04;  0.0000000E+00; -1.6851819E-01;  4.0000000E+04;  0.0000000E+00;  4.0018723E+04; -1.4592377E-03;  0.0000000E+00; -3.4686702E-03;  2.5082109E+03;
  5.3137565E-01;  9.9999998E-03;  2.9999301E-01;5739; -4.9161958E-03;  0.0000000E+00; -9.5833361E-04;  9.9805145E+02;  1.0001730E-01; -1.6143247E+03;3;  9.0971583E-01;  0.0000000E+00; -2.4966085E-01;0; -5.0454387E-03;  3.9810484E+04;  0.0000000E+00; -1.7699362E-01;  4.0000000E+04;  0.0000000E+00;  4.0019758E+04; -1.2297579E-03;  0.0000000E+00; -3.8156807E-03;  2.6563477E+03;
  5.4134494E-01;  9.9999998E-03;  2.4000199E-01;5794; -5.7329466E-03;  0.0000000E+00; -7.4322365E-04;  9.9887848E+02;  1.0002956E-01; -9.2915894E+02;3;  1.0236826E+00;  0.0000000E+00; -2.6223740E-01;0; -5.5430220E-03;  3.9875082E+04;  0.0000000E+00; -9.1856785E-02;  4.0000000E+04;  0.0000000E+00;  4.0010914E+04; -2.5014612E-03;  0.0000000E+00; -3.0415608E-03;  1.4938866E+03;
  5.4135579E-01;  9.9999998E-03;  2.5000033E-01;5795; -5.5981241E-03;  0.0000000E+00; -7.7807705E-04;  9.9868073E+02;  1.0002953E-01; -1.0930061E+03;3;  1.0051463E+00;  0.0000000E+00; -2.6071835E-01;0; -5.2061090E-03;  3.9857309E+04;  0.0000000E+00; -1.4748774E-01;  4.0000000E+04;  0.0000000E+00;  4.0012984E+04; -2.1882809E-03;  0.0000000E+00; -3.0178281E-03;  1.7722390E+03;
  5.4134977E-01;  9.9999998E-03;  2.5999871E-01;5796; -5.4654884E-03;  0.0000000E+00; -8.1831205E-04;  9.9849780E+02;  1.0002952E-01; -1.2445574E+03;3;  9.8336267E-01;  0.0000000E+00; -2.5985655E-01;0; -4.8938226E-03;  3.9840898E+04;  0.0000000E+00; -1.8953787E-01;  4.0000000E+04;  0.0000000E+00;  4.0014672E+04; -1.8832708E-03;  0.0000000E+00; -3.0105519E-03;  2.0347964E+03;
  5.4133224E-01;  9.9999998E-03;  2.6999721E-01;5797; -5.3352439E-03;  0.0000000E+00; -8.6343085E-04;  9.9833380E+02;  1.0002949E-01; -1.3804054E+03;3;  9.6478575E-01;  0.0000000E+00; -2.5607115E-01;0; -4.6464326E-03;  3.9826211E+04;  0.0000000E+00; -1.9756982E-01;  4.0000000E+04;  0.0000000E+00;  4.0016793E+04; -1.5902435E-03;  0.0000000E+00; -3.0561893E-03;  2.2689385E+03;
  5.4132867E-01;  9.9999998E-03;  2.7999574E-01;5798; -5.2075568E-03;  0.0000000E+00; -9.1667013E-04;  9.9819104E+02;  1.0002955E-01; -1.4986737E+03;3;  9.4815177E-01;  0.0000000E+00; -2.4981047E-01;0; -4.5552780E-03;  3.9813125E+04;  0.0000000E+00; -1.7880227E-01;  4.0000000E+04;  0.0000000E+00;  4.0018191E+04; -1.3110527E-03;  0.0000000E+00; -3.2442252E-03;  2.4643545E+03;
  5.4135370E-01;  9.9999998E-03;  2.8999424E-01;5799; -5.0808359E-03;  0.0000000E+00; -9.7642536E-04;  9.9807068E+02;  1.0002948E-01; -1.5984240E+03;3;  9.3159950E-01;  0.0000000E+00; -2.4118373E-01;0; -4.6418216E-03;  3.9802180E+04;  0.0000000E+00; -1.7410736E-01;  4.0000000E+04;  0.0000000E+00;  4.0019418E+04; -1.0465918E-03;  0.0000000E+00; -3.5952299E-03;  2.6287966E+03;
  5.4140109E-01;  9.9999998E-03;  2.9999259E-01;5800; -4.9516861E-03;  0.0000000E+00; -1.0335905E-03;  9.9797253E+02;  1.0002959E-01; -1.6797056E+03;3;  9.1923964E-01;  0.0000000E+00; -2.3163638E-01;0; -4.7370740E-03;  3.9792852E+04;  0.0000000E+00; -2.0892112E-01;  4.0000000E+04;  0.0000000E+00;  4.0020500E+04; -7.9727918E-04;  0.0000000E+00; -3.9397948E-03;  2.7725198E+03;
  5.5137312E-01;  9.9999998E-03;  2.4000382E-01;5855; -5.7694144E-03;  0.0000000E+00; -8.1468147E-04;  9.9892389E+02;  1.0004855E-01; -8.9153033E+02;3;  1.0403482E+00;  0.0000000E+00; -2.4837060E-01;0; -5.3630490E-03;  3.9863602E+04;  0.0000000E+00; -1.0904121E-01;  4.0000000E+04;  0.0000000E+00;  4.0010117E+04; -2.1678070E-03;  0.0000000E+00; -3.1952423E-03;  1.3986949E+03;
  5.5139637E-01;  9.9999998E-03;  2.5000054E-01;5856; -5.6322189E-03;  0.0000000E+00; -8.4928027E-04;  9.9871954E+02;  1.0004877E-01; -1.0608094E+03;3;  1.0173454E+00;  0.0000000E+00; -2.4708800E-01;0; -4.9862945E-03;  3.9845242E+04;  0.0000000E+00; -1.6915393E-01;  4.0000000E+04;  0.0000000E+00;  4.0012156E+04; -1.8337551E-03;  0.0000000E+00; -3.1525395E-03;  1.7092000E+03;
  5.5139756E-01;  9.9999998E-03;  2.5999841E-01;5857; -5.4970998E-03;  0.0000000E+00; -8.8906777E-04;  9.9852917E+02;  1.0004857E-01; -1.2185334E+03;3;  9.9687797E-01;  0.0000000E+00; -2.4419740E-01;0; -4.6244245E-03;  3.9827867E+04;  0.0000000E+00; -2.1413082E-01;  4.0000000E+04;  0.0000000E+00;  4.0014309E+04; -1.5059796E-03;  0.0000000E+00; -3.1184452E-03;  1.9937028E+03;
  5.5138373E-01;  9.9999998E-03;  2.6999688E-01;5858; -5.3649545E-03;  0.0000000E+00; -9.3617354E-04;  9.9835632E+02;  1.0004877E-01; -1.3617393E+03;3;  9.7555494E-01;  0.0000000E+00; -2.4068958E-01;0; -4.3469383E-03;  3.9812336E+04;  0.0000000E+00; -2.1731873E-01;  4.0000000E+04;  0.0000000E+00;  4.0016168E+04; -1.1888904E-03;  0.0000000E+00; -3.1580478E-03;  2.2394958E+03;
  5.5137914E-01;  9.9999998E-03;  2.7999568E-01;5859; -5.2360282E-03;  0.0000000E+00; -9.9274272E-04;  9.9820880E+02;  1.0004848E-01; -1.4839580E+03;3;  9.5897460E-01;  0.0000000E+00; -2.3369898E-01;0; -4.2518652E-03;  3.9799031E+04;  0.0000000E+00; -1.8430944E-01;  4.0000000E+04;  0.0000000E+00;  4.0017953E+04; -8.8526943E-04;  0.0000000E+00; -3.3665956E-03;  2.4376516E+03;
  5.5140746E-01;  9.9999998E-03;  2.8999448E-01;5860; -5.1079872E-03;  0.0000000E+00; -1.0551732E-03;  9.9808459E+02;  1.0004845E-01; -1.5868687E+03;3;  9.4089204E-01;  0.0000000E+00; -2.2348662E-01;0; -4.3359376E-03;  3.9787977E+04;  0.0000000E+00; -1.8150811E-01;  4.0000000E+04;  0.0000000E+00;  4.0018977E+04; -5.9692661E-04;  0.0000000E+00; -3.7390108E-03;  2.6079849E+03;
  5.5146122E-01;  9.9999998E-03;  2.9999325E-01;5861; -4.9764737E-03;  0.0000000E+00; -1.1135263E-03;  9.9799158E+02;  1.0004847E-01; -1.6639529E+03;3;  9.2894208E-01;  0.0000000E+00; -2.1401061E-01;0; -4.4087963E-03;  3.9779457E+04;  0.0000000E+00; -2.5275788E-01;  4.0000000E+04;  0.0000000E+00;  4.0020312E+04; -3.2575865E-04;  0.0000000E+00; -4.0830378E-03;  2.7519929E+03;
  5.6144392E-01;  9.9999998E-03;  2.4000704E-01;5916; -5.7965410E-03;  0.0000000E+00; -8.9324609E-04;  9.9905408E+02;  1.0007975E-01; -7.8368152E+02;3;  1.0592929E+00;  0.0000000E+00; -2.2899991E-01;0; -5.1875236E-03;  3.9850895E+04;  0.0000000E+00; -1.2858376E-01;  4.0000000E+04;  0.0000000E+00;  4.0007836E+04; -1.8215936E-03;  0.0000000E+00; -3.3659302E-03;  1.1579961E+03;
  5.6148380E-01;  9.9999998E-03;  2.5000179E-01;5917; -5.6559718E-03;  0.0000000E+00; -9.2773605E-04;  9.9884973E+02;  1.0007986E-01; -9.5296069E+02;3;  1.0332258E+00;  0.0000000E+00; -2.2886752E-01;0; -4.7737090E-03;  3.9832309E+04;  0.0000000E+00; -2.0018381E-01;  4.0000000E+04;  0.0000000E+00;  4.0010566E+04; -1.4635053E-03;  0.0000000E+00; -3.3102038E-03;  1.5029711E+03;
  5.6149888E-01;  9.9999998E-03;  2.5999901E-01;5918; -5.5171619E-03;  0.0000000E+00; -9.6689514E-04;  9.9865723E+02;  1.0007985E-01; -1.1124624E+03;3;  1.0119267E+00;  0.0000000E+00; -2.2652340E-01;0; -4.3633846E-03;  3.9814582E+04;  0.0000000E+00; -2.6578587E-01;  4.0000000E+04;  0.0000000E+00;  4.0012598E+04; -1.1092410E-03;  0.0000000E+00; -3.2541435E-03;  1.8151190E+03;
  5.6148857E-01;  9.9999998E-03;  2.6999754E-01;5919; -5.3819534E-03;  0.0000000E+00; -1.0148662E-03;  9.9848163E+02;  1.0007992E-01; -1.2579397E+03;3;  9.8885524E-01;  0.0000000E+00; -2.2126228E-01;0; -4.0472406E-03;  3.9798949E+04;  0.0000000E+00; -2.8780892E-01;  4.0000000E+04;  0.0000000E+00;  4.0014621E+04; -7.6423574E-04;  0.0000000E+00; -3.2830047E-03;  2.0734609E+03;
  5.6148148E-01;  9.9999998E-03;  2.7999666E-01;5920; -5.2497769E-03;  0.0000000E+00; -1.0736189E-03;  9.9833044E+02;  1.0007984E-01; -1.3831708E+03;3;  9.7035593E-01;  0.0000000E+00; -2.1462767E-01;0; -3.9340248E-03;  3.9785371E+04;  0.0000000E+00; -2.6580626E-01;  4.0000000E+04;  0.0000000E+00;  4.0016301E+04; -4.3257879E-04;  0.0000000E+00; -3.5014462E-03;  2.2769028E+03;
  5.6151140E-01;  9.9999998E-03;  2.8999606E-01;5921; -5.1181796E-03;  0.0000000E+00; -1.1378673E-03;  9.9821637E+02;  1.0007969E-01; -1.4776866E+03;3;  9.5181614E-01;  0.0000000E+00; -2.0393211E-01;0; -4.0023699E-03;  3.9774898E+04;  0.0000000E+00; -2.9338375E-01;  4.0000000E+04;  0.0000000E+00;  4.0017656E+04; -1.1746995E-04;  0.0000000E+00; -3.8849001E-03;  2.4390415E+03;
  5.6156749E-01;  9.9999998E-03;  2.9999539E-01;5922; -4.9808961E-03;  0.0000000E+00; -1.1985664E-03;  9.9813184E+02;  1.0007991E-01; -1.5477587E+03;3;  9.3950307E-01;  0.0000000E+00; -1.9436456E-01;0; -4.0752538E-03;  3.9767691E+04;  0.0000000E+00; -4.2315587E-01;  4.0000000E+04;  0.0000000E+00;  4.0018406E+04;  1.7661753E-04;  0.0000000E+00; -4.2518713E-03;  2.5930151E+03;
  5.7156175E-01;  9.9999998E-03;  2.4001038E-01;5977; -5.8120466E-03;  0.0000000E+00; -9.7660290E-04;  9.9925397E+02;  1.0013139E-01; -6.1805658E+02;3;  1.0768616E+00;  0.0000000E+00; -2.0783697E-01;0; -5.0091217E-03;  3.9828254E+04;  0.0000000E+00; -1.5416414E-01;  4.0000000E+04;  0.0000000E+00;  4.0004789E+04; -1.4668948E-03;  0.0000000E+00; -3.5422270E-03;  8.2071338E+02;
  5.7161570E-01;  9.9999998E-03;  2.5000352E-01;5978; -5.6660362E-03;  0.0000000E+00; -1.0124525E-03;  9.9905310E+02;  1.0013139E-01; -7.8447162E+02;3;  1.0546153E+00;  0.0000000E+00; -2.0378800E-01;0; -4.5675747E-03;  3.9810125E+04;  0.0000000E+00; -2.5270927E-01;  4.0000000E+04;  0.0000000E+00;  4.0007484E+04; -1.0829519E-03;  0.0000000E+00; -3.4846228E-03;  1.1957086E+03;
  5.7164741E-01;  9.9999998E-03;  2.6000038E-01;5979; -5.5211745E-03;  0.0000000E+00; -1.0511262E-03;  9.9886584E+02;  1.0013117E-01; -9.3962775E+02;3;  1.0338671E+00;  0.0000000E+00; -1.9992508E-01;0; -4.1131699E-03;  3.9793113E+04;  0.0000000E+00; -3.7282076E-01;  4.0000000E+04;  0.0000000E+00;  4.0010176E+04; -6.9996453E-04;  0.0000000E+00; -3.4132053E-03;  1.5451470E+03;
  5.7164758E-01;  9.9999998E-03;  2.6999921E-01;5980; -5.3815665E-03;  0.0000000E+00; -1.0998668E-03;  9.9869562E+02;  1.0013127E-01; -1.0806608E+03;3;  1.0052524E+00;  0.0000000E+00; -1.9863182E-01;0; -3.7592479E-03;  3.9777562E+04;  0.0000000E+00; -4.7257033E-01;  4.0000000E+04;  0.0000000E+00;  4.0012152E+04; -3.2412884E-04;  0.0000000E+00; -3.4351191E-03;  1.8383309E+03;
  5.7164121E-01;  9.9999998E-03;  2.7999893E-01;5981; -5.2437671E-03;  0.0000000E+00; -1.1586953E-03;  9.9855005E+02;  1.0013135E-01; -1.2012500E+03;3;  9.8618251E-01;  0.0000000E+00; -1.9244213E-01;0; -3.6017222E-03;  3.9764562E+04;  0.0000000E+00; -5.3471935E-01;  4.0000000E+04;  0.0000000E+00;  4.0013570E+04;  3.8148009E-05;  0.0000000E+00; -3.6398701E-03;  2.0641648E+03;
  5.7166564E-01;  9.9999998E-03;  2.8999901E-01;5982; -5.1051611E-03;  0.0000000E+00; -1.2253143E-03;  9.9844293E+02;  1.0013096E-01; -1.2899882E+03;3;  9.6614456E-01;  0.0000000E+00; -1.8120854E-01;0; -3.6662894E-03;  3.9754543E+04;  0.0000000E+00; -6.4828765E-01;  4.0000000E+04;  0.0000000E+00;  4.0014699E+04;  3.8140715E-04;  0.0000000E+00; -4.0476965E-03;  2.2605042E+03;
  5.7171404E-01;  9.9999998E-03;  2.9999909E-01;5983; -4.9574319E-03;  0.0000000E+00; -1.2879788E-03;  9.9836987E+02;  1.0013086E-01; -1.3505297E+03;3;  9.5737660E-01;  0.0000000E+00; -1.7207107E-01;0; -3.7379002E-03;  3.9748363E+04;  0.0000000E+00; -8.6716056E-01;  4.0000000E+04;  0.0000000E+00;  4.0015621E+04;  6.9816114E-04;  0.0000000E+00; -4.4360613E-03;  2.4876575E+03;
  5.8171171E-01;  9.9999998E-03;  2.4001130E-01;6038; -5.8142729E-03;  0.0000000E+00; -1.0627310E-03;  9.9944476E+02;  1.0021478E-01; -4.5998700E+02;3;  1.1012958E+00;  0.0000000E+00; -1.8088929E-01;0; -4.8206756E-03;  3.9780543E+04;  0.0000000E+00; -1.8753040E-01;  4.0000000E+04;  0.0000000E+00;  4.0001977E+04; -1.1052865E-03;  0.0000000E+00; -3.7153892E-03;  5.2641205E+02;
  5.8177733E-01;  9.9999998E-03;  2.5000453E-01;6039; -5.6618317E-03;  0.0000000E+00; -1.1055962E-03;  9.9925378E+02;  1.0021477E-01; -6.1820471E+02;3;  1.0793014E+00;  0.0000000E+00; -1.7652996E-01;0; -4.3850699E-03;  3.9763395E+04;  0.0000000E+00; -3.2957116E-01;  4.0000000E+04;  0.0000000E+00;  4.0004465E+04; -6.9488795E-04;  0.0000000E+00; -3.6901820E-03;  9.1453821E+02;
  5.8181649E-01;  9.9999998E-03;  2.6000187E-01;6040; -5.5083577E-03;  0.0000000E+00; -1.1452974E-03;  9.9908173E+02;  1.0021447E-01; -7.6076862E+02;3;  1.0620530E+00;  0.0000000E+00; -1.6872424E-01;0; -3.9128754E-03;  3.9747324E+04;  0.0000000E+00; -5.2789849E-01;  4.0000000E+04;  0.0000000E+00;  4.0006645E+04; -2.8333606E-04;  0.0000000E+00; -3.6295394E-03;  1.3248651E+03;
  5.8182591E-01;  9.9999998E-03;  2.7000147E-01;6041; -5.3579733E-03;  0.0000000E+00; -1.1918989E-03;  9.9892090E+02;  1.0021449E-01; -8.9399939E+02;3;  1.0432069E+00;  0.0000000E+00; -1.5946975E-01;0; -3.5091389E-03;  3.9732996E+04;  0.0000000E+00; -7.5198615E-01;  4.0000000E+04;  0.0000000E+00;  4.0008648E+04;  1.2276739E-04;  0.0000000E+00; -3.6319064E-03;  1.7233381E+03;
  5.8182096E-01;  9.9999998E-03;  2.8000215E-01;6042; -5.2114921E-03;  0.0000000E+00; -1.2495249E-03;  9.9878723E+02;  1.0021434E-01; -1.0047617E+03;3;  1.0212028E+00;  0.0000000E+00; -1.5687385E-01;0; -3.2993532E-03;  3.9720816E+04;  0.0000000E+00; -9.6684182E-01;  4.0000000E+04;  0.0000000E+00;  4.0010418E+04;  5.1600405E-04;  0.0000000E+00; -3.8153571E-03;  2.0711951E+03;
  5.8183312E-01;  9.9999998E-03;  2.9000315E-01;6043; -5.0614974E-03;  0.0000000E+00; -1.3158815E-03;  9.9868622E+02;  1.0021405E-01; -1.0884630E+03;3;  1.0102817E+00;  0.0000000E+00; -1.4919221E-01;0; -3.3246002E-03;  3.9711824E+04;  0.0000000E+00; -1.2162086E+00;  4.0000000E+04;  0.0000000E+00;  4.0011418E+04;  8.8722422E-04;  0.0000000E+00; -4.2118244E-03;  2.4143125E+03;
  5.8186042E-01;  9.9999998E-03;  3.0000415E-01;6044; -4.8886887E-03;  0.0000000E+00; -1.3774537E-03;  9.9862286E+02;  1.0021381E-01; -1.1409554E+03;3;  1.0274839E+00;  0.0000000E+00; -1.3162981E-01;0; -3.3553117E-03;  3.9706613E+04;  0.0000000E+00; -1.5233551E+00;  4.0000000E+04;  0.0000000E+00;  4.0012293E+04;  1.2231353E-03;  0.0000000E+00; -4.5784470E-03;  2.7921086E+03;
  5.9181702E-01;  9.9999998E-03;  2.4000783E-01;6099; -5.8062235E-03;  0.0000000E+00; -1.1529861E-03;  9.9953613E+02;  1.0034949E-01; -3.8428543E+02;3;  1.1338469E+00;  0.0000000E+00; -1.4709292E-01;0; -4.6288301E-03;  3.9684203E+04;  0.0000000E+00; -2.0382388E-01;  4.0000000E+04;  0.0000000E+00;  3.9999539E+04; -7.3456828E-04;  0.0000000E+00; -3.8942620E-03;  3.9131198E+02;
  5.9188837E-01;  9.9999998E-03;  2.5000340E-01;6100; -5.6451806E-03;  0.0000000E+00; -1.2032568E-03;  9.9935980E+02;  1.0034920E-01; -5.3040472E+02;3;  1.1123997E+00;  0.0000000E+00; -1.4119259E-01;0; -4.2055259E-03;  3.9668742E+04;  0.0000000E+00; -3.7202102E-01;  4.0000000E+04;  0.0000000E+00;  4.0001797E+04; -2.9911133E-04;  0.0000000E+00; -3.9064144E-03;  7.7019440E+02;
  5.9193259E-01;  9.9999998E-03;  2.6000261E-01;6101; -5.4790187E-03;  0.0000000E+00; -1.2436986E-03;  9.9920551E+02;  1.0034929E-01; -6.5820361E+02;3;  1.1015952E+00;  0.0000000E+00; -1.3012314E-01;0; -3.7202975E-03;  3.9654031E+04;  0.0000000E+00; -6.2308019E-01;  4.0000000E+04;  0.0000000E+00;  4.0004211E+04;  1.3861146E-04;  0.0000000E+00; -3.8589090E-03;  1.2313546E+03;
  5.9194720E-01;  9.9999998E-03;  2.7000383E-01;6102; -5.3107562E-03;  0.0000000E+00; -1.2859552E-03;  9.9905725E+02;  1.0034879E-01; -7.8106433E+02;3;  1.0953997E+00;  0.0000000E+00; -1.2049820E-01;0; -3.2471761E-03;  3.9640922E+04;  0.0000000E+00; -9.3684316E-01;  4.0000000E+04;  0.0000000E+00;  4.0006293E+04;  5.7124672E-04;  0.0000000E+00; -3.8184228E-03;  1.7381355E+03;
  5.9194797E-01;  9.9999998E-03;  2.8000593E-01;6103; -5.1398869E-03;  0.0000000E+00; -1.3348337E-03;  9.9893610E+02;  1.0034849E-01; -8.8140717E+02;3;  1.1010001E+00;  0.0000000E+00; -1.0572685E-01;0; -2.8869570E-03;  3.9629918E+04;  0.0000000E+00; -1.2901506E+00;  4.0000000E+04;  0.0000000E+00;  4.0007910E+04;  9.9023175E-04;  0.0000000E+00; -3.8771888E-03;  2.2557549E+03;
  5.9195554E-01;  9.9999998E-03;  2.9000825E-01;6104; -4.9562920E-03;  0.0000000E+00; -1.3931885E-03;  9.9884607E+02;  1.0034816E-01; -9.5602234E+02;3;  1.1315904E+00;  0.0000000E+00; -8.8614345E-02;0; -2.7438016E-03;  3.9622023E+04;  0.0000000E+00; -1.6885521E+00;  4.0000000E+04;  0.0000000E+00;  4.0008766E+04;  1.3832869E-03;  0.0000000E+00; -4.1270885E-03;  2.8005020E+03;
  5.9197015E-01;  9.9999998E-03;  3.0001038E-01;6105; -4.7367988E-03;  0.0000000E+00; -1.4461436E-03;  9.9878845E+02;  1.0034749E-01; -1.0037247E+03;3;  1.1765559E+00;  0.0000000E+00; -6.2695086E-02;0; -2.5945781E-03;  3.9617371E+04;  0.0000000E+00; -2.1194789E+00;  4.0000000E+04;  0.0000000E+00;  4.0009699E+04;  1.7331628E-03;  0.0000000E+00; -4.3277410E-03;  3.3730369E+03;
  6.0183221E-01;  9.9999998E-03;  2.3999843E-01;6160; -5.7914825E-03;  0.0000000E+00; -1.2391452E-03;  9.9945856E+02;  1.0056426E-01; -4.4857990E+02;3;  1.1714094E+00;  0.0000000E+00; -1.0954947E-01;0; -4.3885722E-03;  3.9510836E+04;  0.0000000E+00; -1.7161193E-01;  4.0000000E+04;  0.0000000E+00;  3.9999023E+04; -3.4583433E-04;  0.0000000E+00; -4.0427377E-03;  4.4739819E+02;
  6.0190558E-01;  9.9999998E-03;  2.4999924E-01;6161; -5.6198076E-03;  0.0000000E+00; -1.2950633E-03;  9.9929498E+02;  1.0056369E-01; -5.8408228E+02;3;  1.1548254E+00;  0.0000000E+00; -1.0576323E-01;0; -3.9548310E-03;  3.9496473E+04;  0.0000000E+00; -3.1806898E-01;  4.0000000E+04;  0.0000000E+00;  4.0000762E+04;  1.1290006E-04;  0.0000000E+00; -4.0677311E-03;  7.7186157E+02;
  6.0195035E-01;  9.9999998E-03;  2.6000205E-01;6162; -5.4387553E-03;  0.0000000E+00; -1.3377707E-03;  9.9914941E+02;  1.0056348E-01; -7.0467145E+02;3;  1.1501412E+00;  0.0000000E+00; -9.1482922E-02;0; -3.4541932E-03;  3.9483383E+04;  0.0000000E+00; -5.4653931E-01;  4.0000000E+04;  0.0000000E+00;  4.0003090E+04;  5.7406566E-04;  0.0000000E+00; -4.0282588E-03;  1.1950764E+03;
  6.0196716E-01;  9.9999998E-03;  2.7000600E-01;6163; -5.2436795E-03;  0.0000000E+00; -1.3714990E-03;  9.9901697E+02;  1.0056274E-01; -8.1444611E+02;3;  1.1687702E+00;  0.0000000E+00; -6.9234148E-02;0; -2.8553382E-03;  3.9471605E+04;  0.0000000E+00; -8.4581673E-01;  4.0000000E+04;  0.0000000E+00;  4.0005016E+04;  1.0280343E-03;  0.0000000E+00; -3.8833723E-03;  1.6739868E+03;
  6.0197151E-01;  9.9999998E-03;  2.8001028E-01;6164; -5.0295088E-03;  0.0000000E+00; -1.4043419E-03;  9.9890912E+02;  1.0056198E-01; -9.0377692E+02;3;  1.2151306E+00;  0.0000000E+00; -4.3478239E-02;0; -2.2226719E-03;  3.9462156E+04;  0.0000000E+00; -1.2023067E+00;  4.0000000E+04;  0.0000000E+00;  4.0006738E+04;  1.4646680E-03;  0.0000000E+00; -3.6873398E-03;  2.1857532E+03;
  6.0197634E-01;  9.9999998E-03;  2.9001424E-01;6165; -4.7865324E-03;  0.0000000E+00; -1.4462479E-03;  9.9882098E+02;  1.0056148E-01; -9.7681189E+02;3;  1.2664245E+00;  0.0000000E+00; -1.0851161E-02;0; -1.7519558E-03;  3.9454902E+04;  0.0000000E+00; -1.5997728E+00;  4.0000000E+04;  0.0000000E+00;  4.0007352E+04;  1.8707388E-03;  0.0000000E+00; -3.6226946E-03;  2.7274341E+03;
  6.0198426E-01;  9.9999998E-03;  3.0001768E-01;6166; -4.5225634E-03;  0.0000000E+00; -1.4865191E-03;  9.9875604E+02;  1.0056042E-01; -1.0305881E+03;3;  1.2923625E+00;  0.0000000E+00;  1.3915868E-02;0; -1.3188068E-03;  3.9449984E+04;  0.0000000E+00; -2.0084615E+00;  4.0000000E+04;  0.0000000E+00;  4.0008512E+04;  2.2378673E-03;  0.0000000E+00; -3.5566741E-03;  3.2754390E+03;
  6.1178547E-01;  9.9999998E-03;  2.3998453E-01;6221; -5.7811993E-03;  0.0000000E+00; -1.3215046E-03;  9.9920532E+02;  1.0089970E-01; -6.5835175E+02;3;  1.2085898E+00;  0.0000000E+00; -7.2700158E-02;0; -4.0842933E-03;  3.9229570E+04;  0.0000000E+00; -9.2961423E-02;  4.0000000E+04;  0.0000000E+00;  3.9999953E+04;  7.8851437E-05;  0.0000000E+00; -4.1631446E-03;  8.1636938E+02;
  6.1185557E-01;  9.9999998E-03;  2.4999334E-01;6222; -5.5996575E-03;  0.0000000E+00; -1.3819346E-03;  9.9904779E+02;  1.0089895E-01; -7.8886658E+02;3;  1.1924069E+00;  0.0000000E+00; -6.9277406E-02;0; -3.6211684E-03;  3.9216277E+04;  0.0000000E+00; -1.7793107E-01;  4.0000000E+04;  0.0000000E+00;  4.0001324E+04;  5.6097331E-04;  0.0000000E+00; -4.1821417E-03;  1.0315131E+03;
  6.1190051E-01;  9.9999998E-03;  2.6000145E-01;6223; -5.4024090E-03;  0.0000000E+00; -1.4251431E-03;  9.9891351E+02;  1.0089819E-01; -9.0012268E+02;3;  1.2052709E+00;  0.0000000E+00; -4.9190249E-02;0; -3.0736802E-03;  3.9204535E+04;  0.0000000E+00; -3.2857811E-01;  4.0000000E+04;  0.0000000E+00;  4.0003277E+04;  1.0452113E-03;  0.0000000E+00; -4.1188914E-03;  1.3348011E+03;
  6.1191976E-01;  9.9999998E-03;  2.7000907E-01;6224; -5.1808278E-03;  0.0000000E+00; -1.4520858E-03;  9.9879138E+02;  1.0089751E-01; -1.0013050E+03;3;  1.2395499E+00;  0.0000000E+00; -2.3676712E-02;0; -2.3437319E-03;  3.9193930E+04;  0.0000000E+00; -5.3914052E-01;  4.0000000E+04;  0.0000000E+00;  4.0005020E+04;  1.5206118E-03;  0.0000000E+00; -3.8643437E-03;  1.6796123E+03;
  6.1192405E-01;  9.9999998E-03;  2.8001595E-01;6225; -4.9244585E-03;  0.0000000E+00; -1.4714187E-03;  9.9868250E+02;  1.0089610E-01; -1.0915247E+03;3;  1.2967888E+00;  0.0000000E+00;  1.0067632E-02;0; -1.4549652E-03;  3.9185145E+04;  0.0000000E+00; -7.9314780E-01;  4.0000000E+04;  0.0000000E+00;  4.0006613E+04;  1.9757885E-03;  0.0000000E+00; -3.4307537E-03;  2.0398628E+03;
  6.1192447E-01;  9.9999998E-03;  2.9002184E-01;6226; -4.6433788E-03;  0.0000000E+00; -1.4995601E-03;  9.9858740E+02;  1.0089499E-01; -1.1702878E+03;3;  1.3317922E+00;  0.0000000E+00;  4.1910600E-02;0; -6.7391898E-04;  3.9178344E+04;  0.0000000E+00; -1.0617274E+00;  4.0000000E+04;  0.0000000E+00;  4.0007738E+04;  2.4040723E-03;  0.0000000E+00; -3.0779913E-03;  2.3919609E+03;
  6.1192399E-01;  9.9999998E-03;  3.0002671E-01;6227; -4.3398803E-03;  0.0000000E+00; -1.5294093E-03;  9.9850916E+02;  1.0089329E-01; -1.2351256E+03;3;  1.3631117E+00;  0.0000000E+00;  6.9487825E-02;0;  1.2411037E-05;  3.9172973E+04;  0.0000000E+00; -1.2934725E+00;  4.0000000E+04;  0.0000000E+00;  4.0008805E+04;  2.7977380E-03;  0.0000000E+00; -2.7853269E-03;  2.6964839E+03;
  6.2169558E-01;  9.9999998E-03;  2.3997177E-01;6282; -5.7889433E-03;  0.0000000E+00; -1.4042151E-03;  9.9888141E+02;  1.0140960E-01; -9.2673920E+02;3;  1.2386309E+00;  0.0000000E+00; -3.8077764E-02;0; -3.7183627E-03;  3.8811590E+04;  0.0000000E+00;  1.5663520E-02;  4.0000000E+04;  0.0000000E+00;  4.0001332E+04;  5.5722561E-04;  0.0000000E+00; -4.2755883E-03;  1.4067345E+03;
  6.2175912E-01;  9.9999998E-03;  2.4998958E-01;6283; -5.5985982E-03;  0.0000000E+00; -1.4657392E-03;  9.9871692E+02;  1.0140868E-01; -1.0630316E+03;3;  1.2256876E+00;  0.0000000E+00; -3.4676924E-02;0; -3.1961543E-03;  3.8798969E+04;  0.0000000E+00;  6.0776044E-03;  4.0000000E+04;  0.0000000E+00;  4.0002062E+04;  1.0663327E-03;  0.0000000E+00; -4.2624869E-03;  1.5470935E+03;
  6.2179983E-01;  9.9999998E-03;  2.6000354E-01;6284; -5.3920788E-03;  0.0000000E+00; -1.5120867E-03;  9.9857971E+02;  1.0140751E-01; -1.1766581E+03;3;  1.2374585E+00;  0.0000000E+00; -2.0275010E-02;0; -2.6052888E-03;  3.8787574E+04;  0.0000000E+00; -4.7433414E-02;  4.0000000E+04;  0.0000000E+00;  4.0003719E+04;  1.5789635E-03;  0.0000000E+00; -4.1842521E-03;  1.7672678E+03;
  6.2181777E-01;  9.9999998E-03;  2.7001509E-01;6285; -5.1566651E-03;  0.0000000E+00; -1.5399046E-03;  9.9845398E+02;  1.0140579E-01; -1.2808527E+03;3;  1.2795644E+00;  0.0000000E+00;  7.8262556E-03;0; -1.8199752E-03;  3.8777555E+04;  0.0000000E+00; -1.4579798E-01;  4.0000000E+04;  0.0000000E+00;  4.0005371E+04;  2.0839758E-03;  0.0000000E+00; -3.9039510E-03;  2.0082910E+03;
  6.2181890E-01;  9.9999998E-03;  2.8002474E-01;6286; -4.8831594E-03;  0.0000000E+00; -1.5585833E-03;  9.9833801E+02;  1.0140418E-01; -1.3769487E+03;3;  1.3337125E+00;  0.0000000E+00;  4.1842252E-02;0; -8.5641048E-04;  3.8768805E+04;  0.0000000E+00; -2.6799446E-01;  4.0000000E+04;  0.0000000E+00;  4.0007078E+04;  2.5711968E-03;  0.0000000E+00; -3.4276072E-03;  2.2334253E+03;
  6.2181449E-01;  9.9999998E-03;  2.9003263E-01;6287; -4.5824219E-03;  0.0000000E+00; -1.5824082E-03;  9.9823273E+02;  1.0140157E-01; -1.4641561E+03;3;  1.3642204E+00;  0.0000000E+00;  7.3773906E-02;0;  5.9701269E-05;  3.8761555E+04;  0.0000000E+00; -3.7805894E-01;  4.0000000E+04;  0.0000000E+00;  4.0008242E+04;  3.0356594E-03;  0.0000000E+00; -2.9759582E-03;  2.4214734E+03;
  6.2180644E-01;  9.9999998E-03;  3.0003881E-01;6288; -4.2480291E-03;  0.0000000E+00; -1.6076558E-03;  9.9812732E+02;  1.0139902E-01; -1.5514623E+03;3;  1.3990837E+00;  0.0000000E+00;  1.0113999E-01;0;  8.8927802E-04;  3.8755352E+04;  0.0000000E+00; -4.1674218E-01;  4.0000000E+04;  0.0000000E+00;  4.0009324E+04;  3.4700334E-03;  0.0000000E+00; -2.5807554E-03;  2.5733218E+03;
  6.3155842E-01;  9.9999998E-03;  2.3996831E-01;6343; -5.8199437E-03;  0.0000000E+00; -1.4937141E-03;  9.9864496E+02;  1.0215342E-01; -1.1226349E+03;3;  1.2482717E+00;  0.0000000E+00; -2.1329762E-02;0; -3.3125826E-03;  3.8232449E+04;  0.0000000E+00;  1.2567177E-01;  4.0000000E+04;  0.0000000E+00;  3.9999953E+04;  1.0955503E-03;  0.0000000E+00; -4.4081328E-03;  1.9299139E+03;
  6.3160908E-01;  9.9999998E-03;  2.4999373E-01;6344; -5.6253700E-03;  0.0000000E+00; -1.5560878E-03;  9.9846820E+02;  1.0215217E-01; -1.2690505E+03;3;  1.2457943E+00;  0.0000000E+00; -9.5460862E-03;0; -2.7324043E-03;  3.8219242E+04;  0.0000000E+00;  1.6944526E-01;  4.0000000E+04;  0.0000000E+00;  4.0000699E+04;  1.6391829E-03;  0.0000000E+00; -4.3715872E-03;  2.0322067E+03;
  6.3164002E-01;  9.9999998E-03;  2.6001245E-01;6345; -5.4154829E-03;  0.0000000E+00; -1.6059618E-03;  9.9831311E+02;  1.0215039E-01; -1.3975408E+03;3;  1.2578834E+00;  0.0000000E+00;  3.1264471E-03;0; -2.1043306E-03;  3.8207648E+04;  0.0000000E+00;  1.7057936E-01;  4.0000000E+04;  0.0000000E+00;  4.0001969E+04;  2.1895200E-03;  0.0000000E+00; -4.2938506E-03;  2.2294375E+03;
  6.3165110E-01;  9.9999998E-03;  2.7002725E-01;6346; -5.1801666E-03;  0.0000000E+00; -1.6406563E-03;  9.9817065E+02;  1.0214785E-01; -1.5155621E+03;3;  1.2931010E+00;  0.0000000E+00;  2.5244450E-02;0; -1.3326448E-03;  3.8197164E+04;  0.0000000E+00;  1.2103473E-01;  4.0000000E+04;  0.0000000E+00;  4.0004055E+04;  2.7366877E-03;  0.0000000E+00; -4.0693325E-03;  2.4495732E+03;
  6.3164639E-01;  9.9999998E-03;  2.8003919E-01;6347; -4.9106493E-03;  0.0000000E+00; -1.6694664E-03;  9.9804010E+02;  1.0214505E-01; -1.6237566E+03;3;  1.3415678E+00;  0.0000000E+00;  5.7181105E-02;0; -4.6106987E-04;  3.8188277E+04;  0.0000000E+00;  3.9184012E-02;  4.0000000E+04;  0.0000000E+00;  4.0005492E+04;  3.2716997E-03;  0.0000000E+00; -3.7327695E-03;  2.6491880E+03;
  6.3163477E-01;  9.9999998E-03;  2.9004866E-01;6348; -4.6110237E-03;  0.0000000E+00; -1.7017713E-03;  9.9790656E+02;  1.0214166E-01; -1.7343707E+03;3;  1.3755314E+00;  0.0000000E+00;  8.7806568E-02;0;  3.5631354E-04;  3.8179793E+04;  0.0000000E+00; -2.0886641E-02;  4.0000000E+04;  0.0000000E+00;  4.0007109E+04;  3.7888444E-03;  0.0000000E+00; -3.4325309E-03;  2.8388191E+03;
  6.3161570E-01;  9.9999998E-03;  3.0005601E-01;6349; -4.2680809E-03;  0.0000000E+00; -1.7305511E-03;  9.9777014E+02;  1.0213718E-01; -1.8474045E+03;3;  1.4160658E+00;  0.0000000E+00;  1.1646889E-01;0;  1.1711258E-03;  3.8172309E+04;  0.0000000E+00;  2.3313873E-02;  4.0000000E+04;  0.0000000E+00;  4.0008398E+04;  4.2811697E-03;  0.0000000E+00; -3.1100439E-03;  3.0221116E+03;
  6.4139575E-01;  9.9999998E-03;  2.3998259E-01;6404; -5.8615990E-03;  0.0000000E+00; -1.5864263E-03;  9.9866357E+02;  1.0318413E-01; -1.1072279E+03;3;  1.2515386E+00;  0.0000000E+00; -1.0434911E-02;0; -2.8574152E-03;  3.7477375E+04;  0.0000000E+00;  1.8301249E-01;  4.0000000E+04;  0.0000000E+00;  3.9994449E+04;  1.6868610E-03;  0.0000000E+00; -4.5442763E-03;  2.0784231E+03;
  6.4142925E-01;  9.9999998E-03;  2.5001124E-01;6405; -5.6674243E-03;  0.0000000E+00; -1.6511668E-03;  9.9846198E+02;  1.0318229E-01; -1.2742356E+03;3;  1.2471075E+00;  0.0000000E+00; -3.0139424E-03;0; -2.2168730E-03;  3.7463152E+04;  0.0000000E+00;  1.9774801E-01;  4.0000000E+04;  0.0000000E+00;  3.9995059E+04;  2.2746359E-03;  0.0000000E+00; -4.4915089E-03;  2.1685723E+03;
  6.4144653E-01;  9.9999998E-03;  2.6003224E-01;6406; -5.4615899E-03;  0.0000000E+00; -1.7083531E-03;  9.9828186E+02;  1.0317974E-01; -1.4234659E+03;3;  1.2538682E+00;  0.0000000E+00;  1.2156293E-02;0; -1.5797848E-03;  3.7449969E+04;  0.0000000E+00;  1.1155671E-01;  4.0000000E+04;  0.0000000E+00;  3.9996367E+04;  2.8742924E-03;  0.0000000E+00; -4.4540772E-03;  2.3462510E+03;
  6.4144802E-01;  9.9999998E-03;  2.7004859E-01;6407; -5.2352650E-03;  0.0000000E+00; -1.7541933E-03;  9.9811121E+02;  1.0317664E-01; -1.5648446E+03;3;  1.2864947E+00;  0.0000000E+00;  3.3635713E-02;0; -8.7640714E-04;  3.7438730E+04;  0.0000000E+00; -1.0454255E-01;  4.0000000E+04;  0.0000000E+00;  3.9998113E+04;  3.4768684E-03;  0.0000000E+00; -4.3532755E-03;  2.5839949E+03;
  6.4143795E-01;  9.9999998E-03;  2.8006172E-01;6408; -4.9809981E-03;  0.0000000E+00; -1.7974459E-03;  9.9794958E+02;  1.0317304E-01; -1.6987174E+03;3;  1.3328334E+00;  0.0000000E+00;  5.8520723E-02;0; -1.6779779E-04;  3.7428363E+04;  0.0000000E+00; -4.3053624E-01;  4.0000000E+04;  0.0000000E+00;  4.0000023E+04;  4.0738960E-03;  0.0000000E+00; -4.2416938E-03;  2.8860801E+03;
  6.4142191E-01;  9.9999998E-03;  2.9007214E-01;6409; -4.6981187E-03;  0.0000000E+00; -1.8432025E-03;  9.9778522E+02;  1.0316797E-01; -1.8349110E+03;3;  1.3682034E+00;  0.0000000E+00;  8.8942036E-02;0;  4.5622746E-04;  3.7419078E+04;  0.0000000E+00; -7.7478683E-01;  4.0000000E+04;  0.0000000E+00;  4.0001676E+04;  4.6579302E-03;  0.0000000E+00; -4.2017028E-03;  3.2573423E+03;
  6.4139587E-01;  9.9999998E-03;  3.0008033E-01;6410; -4.3736873E-03;  0.0000000E+00; -1.8830583E-03;  9.9761841E+02;  1.0316148E-01; -1.9730800E+03;3;  1.4092189E+00;  0.0000000E+00;  1.1886237E-01;0;  1.1184653E-03;  3.7410945E+04;  0.0000000E+00; -9.9732918E-01;  4.0000000E+04;  0.0000000E+00;  4.0003520E+04;  5.2210684E-03;  0.0000000E+00; -4.1026031E-03;  3.5998523E+03;
  6.5124077E-01;  9.9999998E-03;  3.0011258E-01;6471; -4.4474197E-03;  0.0000000E+00; -2.0283959E-03;  9.9771869E+02;  1.0450038E-01; -1.8900206E+03;3;  1.3948927E+00;  0.0000000E+00;  1.2093498E-01;0;  1.3655499E-03;  3.6470656E+04;  0.0000000E+00; -4.0061598E+00;  4.0000000E+04;  0.0000000E+00;  3.9993832E+04;  6.2663085E-03;  0.0000000E+00; -4.9007586E-03;  6.9559663E+03;
  6.5125304E-01;  9.9999998E-03;  2.9010385E-01;6470; -4.7667953E-03;  0.0000000E+00; -1.9812535E-03;  9.9790881E+02;  1.0450910E-01; -1.7324943E+03;3;  1.3563831E+00;  0.0000000E+00;  9.0797335E-02;0;  7.7331625E-04;  3.6478871E+04;  0.0000000E+00; -3.1114464E+00;  4.0000000E+04;  0.0000000E+00;  3.9991574E+04;  5.6262407E-03;  0.0000000E+00; -4.8529245E-03;  5.6257803E+03;
  6.5125918E-01;  9.9999998E-03;  2.8009307E-01;6469; -5.0404696E-03;  0.0000000E+00; -1.9260672E-03;  9.9809998E+02;  1.0451502E-01; -1.5741283E+03;3;  1.3195506E+00;  0.0000000E+00;  6.1324824E-02;0;  2.5882199E-04;  3.6489406E+04;  0.0000000E+00; -2.0508783E+00;  4.0000000E+04;  0.0000000E+00;  3.9989875E+04;  4.9644816E-03;  0.0000000E+00; -4.7056596E-03;  4.1396704E+03;
  6.5126556E-01;  9.9999998E-03;  2.7008000E-01;6468; -5.2823937E-03;  0.0000000E+00; -1.8696249E-03;  9.9829901E+02;  1.0452000E-01; -1.4092441E+03;3;  1.2778499E+00;  0.0000000E+00;  3.5371374E-02;0; -3.1935191E-04;  3.6501426E+04;  0.0000000E+00; -1.0869212E+00;  4.0000000E+04;  0.0000000E+00;  3.9987383E+04;  4.2931056E-03;  0.0000000E+00; -4.6124575E-03;  2.9142742E+03;
  6.5127206E-01;  9.9999998E-03;  2.6006395E-01;6467; -5.5001504E-03;  0.0000000E+00; -1.8125062E-03;  9.9849786E+02;  1.0452373E-01; -1.2445081E+03;3;  1.2556459E+00;  0.0000000E+00;  2.3122923E-02;0; -9.7476714E-04;  3.6514879E+04;  0.0000000E+00; -3.9074695E-01;  4.0000000E+04;  0.0000000E+00;  3.9985691E+04;  3.6225177E-03;  0.0000000E+00; -4.5972848E-03;  2.1959607E+03;
  6.5127420E-01;  9.9999998E-03;  2.5004402E-01;6466; -5.7018460E-03;  0.0000000E+00; -1.7500375E-03;  9.9871509E+02;  1.0452656E-01; -1.0645131E+03;3;  1.2501774E+00;  0.0000000E+00;  9.4895018E-03;0; -1.6530412E-03;  3.6529414E+04;  0.0000000E+00; -1.6235471E-03;  4.0000000E+04;  0.0000000E+00;  3.9984172E+04;  2.9616388E-03;  0.0000000E+00; -4.6146801E-03;  1.8805626E+03;
  6.5126580E-01;  9.9999998E-03;  2.4001756E-01;6465; -5.8940244E-03;  0.0000000E+00; -1.6849232E-03;  9.9894482E+02;  1.0452793E-01; -8.7419751E+02;3;  1.2600437E+00;  0.0000000E+00;  3.0284920E-03;0; -2.3734358E-03;  3.6545238E+04;  0.0000000E+00;  1.4188398E-01;  4.0000000E+04;  0.0000000E+00;  3.9983227E+04;  2.3188957E-03;  0.0000000E+00; -4.6923314E-03;  1.7600427E+03;
  6.6131282E-01;  9.9999998E-03;  3.0015177E-01;6532; -4.3201721E-03;  0.0000000E+00; -2.1364768E-03;  9.9792456E+02;  1.0615198E-01; -1.7194575E+03;3;  1.4553617E+00;  0.0000000E+00;  1.6190785E-01;0;  2.4758182E-03;  3.5364141E+04;  0.0000000E+00; -8.1165581E+00;  4.0000000E+04;  0.0000000E+00;  3.9981078E+04;  7.4379942E-03;  0.0000000E+00; -4.9621761E-03;  1.3217531E+04;
  6.6132820E-01;  9.9999998E-03;  2.4006814E-01;6526; -5.9005297E-03;  0.0000000E+00; -1.7939812E-03;  9.9929028E+02;  1.0617972E-01; -5.8798340E+02;3;  1.2819260E+00;  0.0000000E+00;  2.8011680E-02;0; -1.8756920E-03;  3.5446000E+04;  0.0000000E+00;  3.8391620E-02;  4.0000000E+04;  0.0000000E+00;  3.9968578E+04;  2.9910416E-03;  0.0000000E+00; -4.8667337E-03;  1.2340958E+03;
  6.6127563E-01;  9.9999998E-03;  2.9014263E-01;6531; -4.7310926E-03;  0.0000000E+00; -2.1026528E-03;  9.9812695E+02;  1.0616223E-01; -1.5518080E+03;3;  1.3827028E+00;  0.0000000E+00;  1.1961226E-01;0;  1.5583592E-03;  3.5371742E+04;  0.0000000E+00; -6.4694443E+00;  4.0000000E+04;  0.0000000E+00;  3.9978762E+04;  6.7018447E-03;  0.0000000E+00; -5.1434855E-03;  1.0642324E+04;
  6.6131854E-01;  9.9999998E-03;  2.5008848E-01;6527; -5.7083583E-03;  0.0000000E+00; -1.8536488E-03;  9.9903326E+02;  1.0617909E-01; -8.0091565E+02;3;  1.2744159E+00;  0.0000000E+00;  3.6933891E-02;0; -1.0294011E-03;  3.5428117E+04;  0.0000000E+00; -3.5065672E-01;  4.0000000E+04;  0.0000000E+00;  3.9970305E+04;  3.7026936E-03;  0.0000000E+00; -4.7320947E-03;  1.5923293E+03;
  6.6124773E-01;  9.9999998E-03;  2.7011973E-01;6529; -5.2926899E-03;  0.0000000E+00; -1.9865271E-03;  9.9857086E+02;  1.0617333E-01; -1.1840159E+03;3;  1.2925906E+00;  0.0000000E+00;  5.6957953E-02;0;  3.6334712E-04;  3.5397270E+04;  0.0000000E+00; -2.6293993E+00;  4.0000000E+04;  0.0000000E+00;  3.9974102E+04;  5.1876055E-03;  0.0000000E+00; -4.8242584E-03;  4.7081060E+03;
  6.6127688E-01;  9.9999998E-03;  2.6010549E-01;6528; -5.5095386E-03;  0.0000000E+00; -1.9213478E-03;  9.9880048E+02;  1.0617708E-01; -9.9379907E+02;3;  1.2713414E+00;  0.0000000E+00;  4.0238846E-02;0; -2.9160734E-04;  3.5412363E+04;  0.0000000E+00; -1.2104012E+00;  4.0000000E+04;  0.0000000E+00;  3.9972094E+04;  4.4369702E-03;  0.0000000E+00; -4.7285776E-03;  2.6362664E+03;
  6.6125286E-01;  9.9999998E-03;  2.8013200E-01;6530; -5.0406638E-03;  0.0000000E+00; -2.0482608E-03;  9.9834381E+02;  1.0616936E-01; -1.3721094E+03;3;  1.3335457E+00;  0.0000000E+00;  8.3227500E-02;0;  9.4990106E-04;  3.5383332E+04;  0.0000000E+00; -4.4789119E+00;  4.0000000E+04;  0.0000000E+00;  3.9976652E+04;  5.9470604E-03;  0.0000000E+00; -4.9971594E-03;  7.5463086E+03;
  6.7134649E-01;  9.9999998E-03;  2.4012569E-01;6587; -5.8709504E-03;  0.0000000E+00; -1.9056414E-03;  9.9949304E+02;  1.0811506E-01; -4.1998813E+02;3;  1.3262851E+00;  0.0000000E+00;  6.5919429E-02;0; -1.3448962E-03;  3.4205930E+04;  0.0000000E+00; -1.8565626E-01;  4.0000000E+04;  0.0000000E+00;  3.9953352E+04;  3.6891780E-03;  0.0000000E+00; -5.0340742E-03;  9.4341882E+02;
  6.7134607E-01;  9.9999998E-03;  2.5013912E-01;6588; -5.6767641E-03;  0.0000000E+00; -1.9598850E-03;  9.9922626E+02;  1.0811606E-01; -6.4101892E+02;3;  1.3222698E+00;  0.0000000E+00;  7.0457697E-02;0; -3.4952536E-04;  3.4187203E+04;  0.0000000E+00; -9.0785003E-01;  4.0000000E+04;  0.0000000E+00;  3.9955711E+04;  4.4838833E-03;  0.0000000E+00; -4.8334086E-03;  2.0159926E+03;
  6.7135555E-01;  9.9999998E-03;  2.6015231E-01;6589; -5.4789726E-03;  0.0000000E+00; -2.0321587E-03;  9.9896118E+02;  1.0811608E-01; -8.6061761E+02;3;  1.3179154E+00;  0.0000000E+00;  8.3383806E-02;0;  4.8188306E-04;  3.4168637E+04;  0.0000000E+00; -2.2555978E+00;  4.0000000E+04;  0.0000000E+00;  3.9957773E+04;  5.3099669E-03;  0.0000000E+00; -4.8280838E-03;  4.1425913E+03;
  6.7140162E-01;  9.9999998E-03;  2.7016455E-01;6590; -5.2485573E-03;  0.0000000E+00; -2.0997785E-03;  9.9870160E+02;  1.0811607E-01; -1.0757227E+03;3;  1.3442460E+00;  0.0000000E+00;  1.0199168E-01;0;  1.2477329E-03;  3.4149730E+04;  0.0000000E+00; -4.2776022E+00;  4.0000000E+04;  0.0000000E+00;  3.9960250E+04;  6.1625126E-03;  0.0000000E+00; -4.9147797E-03;  7.4054814E+03;
  6.7147744E-01;  9.9999998E-03;  2.8017601E-01;6591; -4.9503068E-03;  0.0000000E+00; -2.1572504E-03;  9.9845386E+02;  1.0811489E-01; -1.2809514E+03;3;  1.4002415E+00;  0.0000000E+00;  1.3637237E-01;0;  2.0347093E-03;  3.4132641E+04;  0.0000000E+00; -6.8000493E+00;  4.0000000E+04;  0.0000000E+00;  3.9962645E+04;  7.0325765E-03;  0.0000000E+00; -4.9978672E-03;  1.1484772E+04;
  6.7157876E-01;  9.9999998E-03;  2.9018658E-01;6592; -4.5266789E-03;  0.0000000E+00; -2.1931969E-03;  9.9822290E+02;  1.0810889E-01; -1.4723041E+03;3;  1.4872367E+00;  0.0000000E+00;  1.8424423E-01;0;  3.0990466E-03;  3.4120324E+04;  0.0000000E+00; -9.3364506E+00;  4.0000000E+04;  0.0000000E+00;  3.9965281E+04;  7.9108858E-03;  0.0000000E+00; -4.8118392E-03;  1.5569611E+04;
  6.7172855E-01;  9.9999998E-03;  3.0019623E-01;6593; -3.8490072E-03;  0.0000000E+00; -2.1660854E-03;  9.9801135E+02;  1.0809863E-01; -1.6475583E+03;3;  1.6723529E+00;  0.0000000E+00;  2.5873175E-01;0;  5.2631972E-03;  3.4112586E+04;  0.0000000E+00; -1.1035403E+01;  4.0000000E+04;  0.0000000E+00;  3.9967348E+04;  8.7994142E-03;  0.0000000E+00; -3.5362167E-03;  1.8270688E+04;
  6.8161726E-01;  9.9999998E-03;  2.4018256E-01;6648; -5.8159009E-03;  0.0000000E+00; -2.0223311E-03;  9.9940515E+02;  1.1032353E-01; -4.9282556E+02;3;  1.3843822E+00;  0.0000000E+00;  1.1204212E-01;0; -7.4360333E-04;  3.2850297E+04;  0.0000000E+00; -3.9958474E-01;  4.0000000E+04;  0.0000000E+00;  3.9939066E+04;  4.4466113E-03;  0.0000000E+00; -5.1902146E-03;  1.2269821E+03;
  6.8160897E-01;  9.9999998E-03;  2.5019115E-01;6649; -5.6155403E-03;  0.0000000E+00; -2.0702223E-03;  9.9915515E+02;  1.1033116E-01; -6.9993085E+02;3;  1.3812672E+00;  0.0000000E+00;  1.2206467E-01;0;  4.2817090E-04;  3.2829371E+04;  0.0000000E+00; -1.4342581E+00;  4.0000000E+04;  0.0000000E+00;  3.9941961E+04;  5.3369016E-03;  0.0000000E+00; -4.9087307E-03;  2.9659370E+03;
  6.8166566E-01;  9.9999998E-03;  2.6020193E-01;6650; -5.4047327E-03;  0.0000000E+00; -2.1399888E-03;  9.9889313E+02;  1.1034176E-01; -9.1701111E+02;3;  1.3936340E+00;  0.0000000E+00;  1.3653786E-01;0;  1.4486359E-03;  3.2805457E+04;  0.0000000E+00; -3.1788943E+00;  4.0000000E+04;  0.0000000E+00;  3.9944496E+04;  6.2690401E-03;  0.0000000E+00; -4.8204041E-03;  5.9016753E+03;
  6.8179166E-01;  9.9999998E-03;  2.7021304E-01;6651; -5.1403809E-03;  0.0000000E+00; -2.2056715E-03;  9.9862457E+02;  1.1035369E-01; -1.1395233E+03;3;  1.4291005E+00;  0.0000000E+00;  1.6029343E-01;0;  2.4261009E-03;  3.2780336E+04;  0.0000000E+00; -5.6023726E+00;  4.0000000E+04;  0.0000000E+00;  3.9947285E+04;  7.2387671E-03;  0.0000000E+00; -4.8126662E-03;  9.9905879E+03;
  6.8196797E-01;  9.9999998E-03;  2.8022435E-01;6652; -4.7580423E-03;  0.0000000E+00; -2.2534118E-03;  9.9837213E+02;  1.1036298E-01; -1.3486532E+03;3;  1.5121298E+00;  0.0000000E+00;  1.9991773E-01;0;  3.5588713E-03;  3.2757385E+04;  0.0000000E+00; -8.3633509E+00;  4.0000000E+04;  0.0000000E+00;  3.9949391E+04;  8.2401875E-03;  0.0000000E+00; -4.6813162E-03;  1.4624421E+04;
  6.8220717E-01;  9.9999998E-03;  2.9023540E-01;6653; -4.1477415E-03;  0.0000000E+00; -2.2486886E-03;  9.9813702E+02;  1.1036934E-01; -1.5434625E+03;3;  1.6818775E+00;  0.0000000E+00;  2.7684805E-01;0;  5.5217827E-03;  3.2738221E+04;  0.0000000E+00; -1.0600382E+01;  4.0000000E+04;  0.0000000E+00;  3.9951770E+04;  9.2758397E-03;  0.0000000E+00; -3.7540568E-03;  1.8329719E+04;
  6.8247479E-01;  9.9999998E-03;  3.0024609E-01;6654; -3.3944587E-03;  0.0000000E+00; -2.1884900E-03;  9.9793823E+02;  1.1036929E-01; -1.7081492E+03;3;  1.8294282E+00;  0.0000000E+00;  3.4387413E-01;0;  8.4796753E-03;  3.2725975E+04;  0.0000000E+00; -1.1623981E+01;  4.0000000E+04;  0.0000000E+00;  3.9953844E+04;  1.0285496E-02;  0.0000000E+00; -1.8058210E-03;  1.9940105E+04;
  6.9265622E-01;  9.9999998E-03;  2.4023980E-01;6709; -5.7434728E-03;  0.0000000E+00; -2.1544143E-03;  9.9912311E+02;  1.1291512E-01; -7.2649799E+02;3;  1.4678645E+00;  0.0000000E+00;  1.6143869E-01;0; -1.6948674E-05;  3.1353574E+04;  0.0000000E+00; -3.2498166E-01;  4.0000000E+04;  0.0000000E+00;  3.9925297E+04;  5.3373622E-03;  0.0000000E+00; -5.3543109E-03;  1.4400404E+03;
  6.9279176E-01;  9.9999998E-03;  2.5024584E-01;6710; -5.5256961E-03;  0.0000000E+00; -2.1981255E-03;  9.9888086E+02;  1.1294329E-01; -9.2718365E+02;3;  1.4757656E+00;  0.0000000E+00;  1.8187004E-01;0;  1.3707280E-03;  3.1322461E+04;  0.0000000E+00; -1.2424692E+00;  4.0000000E+04;  0.0000000E+00;  3.9928215E+04;  6.3580908E-03;  0.0000000E+00; -4.9873628E-03;  3.0522598E+03;
  6.9297850E-01;  9.9999998E-03;  2.6025629E-01;6711; -5.2893255E-03;  0.0000000E+00; -2.2637167E-03;  9.9864752E+02;  1.1297821E-01; -1.1205115E+03;3;  1.4924695E+00;  0.0000000E+00;  2.0187438E-01;0;  2.6439624E-03;  3.1288338E+04;  0.0000000E+00; -2.7078969E+00;  4.0000000E+04;  0.0000000E+00;  3.9930500E+04;  7.4275448E-03;  0.0000000E+00; -4.7835824E-03;  5.6060820E+03;
  6.9325233E-01;  9.9999998E-03;  2.7026823E-01;6712; -4.9853674E-03;  0.0000000E+00; -2.3283632E-03;  9.9842383E+02;  1.1302113E-01; -1.3058396E+03;3;  1.5386053E+00;  0.0000000E+00;  2.2717322E-01;0;  3.8750442E-03;  3.1250451E+04;  0.0000000E+00; -4.5535693E+00;  4.0000000E+04;  0.0000000E+00;  3.9932621E+04;  8.5409516E-03;  0.0000000E+00; -4.6659075E-03;  8.8595332E+03;
  6.9360137E-01;  9.9999998E-03;  2.8028089E-01;6713; -4.5564608E-03;  0.0000000E+00; -2.3732695E-03;  9.9821387E+02;  1.1306658E-01; -1.4797606E+03;3;  1.6330369E+00;  0.0000000E+00;  2.7019292E-01;0;  5.2916463E-03;  3.1212541E+04;  0.0000000E+00; -6.2662234E+00;  4.0000000E+04;  0.0000000E+00;  3.9934293E+04;  9.6856216E-03;  0.0000000E+00; -4.3939753E-03;  1.1880765E+04;
  6.9396317E-01;  9.9999998E-03;  2.9029360E-01;6714; -3.9600064E-03;  0.0000000E+00; -2.3733464E-03;  9.9803351E+02;  1.1310297E-01; -1.6291885E+03;3;  1.7825991E+00;  0.0000000E+00;  3.3909616E-01;0;  7.3707751E-03;  3.1182123E+04;  0.0000000E+00; -7.2722378E+00;  4.0000000E+04;  0.0000000E+00;  3.9936105E+04;  1.0832681E-02;  0.0000000E+00; -3.4619062E-03;  1.3620574E+04;
  6.9429439E-01;  9.9999998E-03;  3.0030617E-01;6715; -3.3236900E-03;  0.0000000E+00; -2.3558794E-03;  9.9790204E+02;  1.1312354E-01; -1.7381237E+03;3;  1.8813735E+00;  0.0000000E+00;  3.8354096E-01;0;  9.7021256E-03;  3.1164004E+04;  0.0000000E+00; -7.2134771E+00;  4.0000000E+04;  0.0000000E+00;  3.9937445E+04;  1.1914770E-02;  0.0000000E+00; -2.2126441E-03;  1.3432952E+04;
  7.0492977E-01;  9.9999998E-03;  2.4030825E-01;6770; -5.6196158E-03;  0.0000000E+00; -2.2969178E-03;  9.9903455E+02;  1.1607365E-01; -7.9987854E+02;3;  1.5825464E+00;  0.0000000E+00;  2.3029804E-01;0;  1.0273284E-03;  2.9686207E+04;  0.0000000E+00;  5.4179028E-02;  4.0000000E+04;  0.0000000E+00;  3.9906242E+04;  6.5011443E-03;  0.0000000E+00; -5.4738158E-03;  1.1560707E+03;
  7.0513916E-01;  9.9999998E-03;  2.5031349E-01;6771; -5.3649032E-03;  0.0000000E+00; -2.3389289E-03;  9.9885724E+02;  1.1612593E-01; -9.4673859E+02;3;  1.6024466E+00;  0.0000000E+00;  2.5539982E-01;0;  2.6762467E-03;  2.9648896E+04;  0.0000000E+00; -6.3159621E-01;  4.0000000E+04;  0.0000000E+00;  3.9908742E+04;  7.6772850E-03;  0.0000000E+00; -5.0010383E-03;  2.3595747E+03;
  7.0542878E-01;  9.9999998E-03;  2.6032430E-01;6772; -5.0752787E-03;  0.0000000E+00; -2.3961589E-03;  9.9870428E+02;  1.1619013E-01; -1.0734510E+03;3;  1.6387781E+00;  0.0000000E+00;  2.8019249E-01;0;  4.3058232E-03;  2.9606988E+04;  0.0000000E+00; -1.6739092E+00;  4.0000000E+04;  0.0000000E+00;  3.9910211E+04;  8.9132264E-03;  0.0000000E+00; -4.6074032E-03;  4.2644551E+03;
  7.0578617E-01;  9.9999998E-03;  2.7033734E-01;6773; -4.7086026E-03;  0.0000000E+00; -2.4494031E-03;  9.9857129E+02;  1.1626185E-01; -1.1836702E+03;3;  1.7030367E+00;  0.0000000E+00;  3.1128541E-01;0;  5.9728217E-03;  2.9562908E+04;  0.0000000E+00; -2.9499981E+00;  4.0000000E+04;  0.0000000E+00;  3.9911516E+04;  1.0190558E-02;  0.0000000E+00; -4.2177360E-03;  6.6630537E+03;
  7.0613629E-01;  9.9999998E-03;  2.8035119E-01;6774; -4.2118831E-03;  0.0000000E+00; -2.4688262E-03;  9.9845917E+02;  1.1632186E-01; -1.2765564E+03;3;  1.8080251E+00;  0.0000000E+00;  3.5996148E-01;0;  8.0387369E-03;  2.9526664E+04;  0.0000000E+00; -4.1880393E+00;  4.0000000E+04;  0.0000000E+00;  3.9912227E+04;  1.1479875E-02;  0.0000000E+00; -3.4411382E-03;  8.9952773E+03;
  7.0645392E-01;  9.9999998E-03;  2.9036534E-01;6775; -3.6118708E-03;  0.0000000E+00; -2.4583668E-03;  9.9836371E+02;  1.1636340E-01; -1.3556158E+03;3;  1.9120165E+00;  0.0000000E+00;  4.1574615E-01;0;  1.0543521E-02;  2.9501256E+04;  0.0000000E+00; -4.9546657E+00;  4.0000000E+04;  0.0000000E+00;  3.9913008E+04;  1.2738366E-02;  0.0000000E+00; -2.1948447E-03;  1.0412184E+04;
  7.0672351E-01;  9.9999998E-03;  3.0037931E-01;6776; -2.9873103E-03;  0.0000000E+00; -2.4511761E-03;  9.9828265E+02;  1.1638027E-01; -1.4227744E+03;3;  2.0078712E+00;  0.0000000E+00;  4.4456783E-01;0;  1.2867996E-02;  2.9489199E+04;  0.0000000E+00; -4.8764277E+00;  4.0000000E+04;  0.0000000E+00;  3.9913668E+04;  1.3924178E-02;  0.0000000E+00; -1.0561808E-03;  1.0201979E+04;
  7.1738583E-01;  9.9999998E-03;  2.4038412E-01;6831; -5.4848641E-03;  0.0000000E+00; -2.4502783E-03;  9.9922333E+02;  1.1959387E-01; -6.4343854E+02;3;  1.6914247E+00;  0.0000000E+00;  2.9348382E-01;0;  2.3791855E-03;  2.7999031E+04;  0.0000000E+00;  1.0529120E-01;  4.0000000E+04;  0.0000000E+00;  3.9883273E+04;  7.9677505E-03;  0.0000000E+00; -5.5885650E-03;  8.8118799E+02;
  7.1756530E-01;  9.9999998E-03;  2.5038844E-01;6832; -5.1870365E-03;  0.0000000E+00; -2.4932919E-03;  9.9909515E+02;  1.1964690E-01; -7.4965778E+02;3;  1.7221742E+00;  0.0000000E+00;  3.2035542E-01;0;  4.2803371E-03;  2.7966271E+04;  0.0000000E+00; -6.1842293E-01;  4.0000000E+04;  0.0000000E+00;  3.9885176E+04;  9.3034990E-03;  0.0000000E+00; -5.0231619E-03;  2.3087976E+03;
  7.1776861E-01;  9.9999998E-03;  2.6039866E-01;6833; -4.8353779E-03;  0.0000000E+00; -2.5342540E-03;  9.9899774E+02;  1.1970447E-01; -8.3034680E+02;3;  1.7758988E+00;  0.0000000E+00;  3.5003138E-01;0;  6.3057025E-03;  2.7933352E+04;  0.0000000E+00; -1.7934947E+00;  4.0000000E+04;  0.0000000E+00;  3.9886363E+04;  1.0694047E-02;  0.0000000E+00; -4.3883449E-03;  4.6377847E+03;
  7.1790379E-01;  9.9999998E-03;  2.7041084E-01;6834; -4.3954570E-03;  0.0000000E+00; -2.5593031E-03;  9.9890369E+02;  1.1973210E-01; -9.0827057E+02;3;  1.8543556E+00;  0.0000000E+00;  3.8926023E-01;0;  8.5351923E-03;  2.7915160E+04;  0.0000000E+00; -3.3988159E+00;  4.0000000E+04;  0.0000000E+00;  3.9887355E+04;  1.2098758E-02;  0.0000000E+00; -3.5635661E-03;  7.8069404E+03;
  7.1802205E-01;  9.9999998E-03;  2.8042421E-01;6835; -3.8414337E-03;  0.0000000E+00; -2.5467265E-03;  9.9881726E+02;  1.1974037E-01; -9.7987347E+02;3;  1.9432415E+00;  0.0000000E+00;  4.3363756E-01;0;  1.1308512E-02;  2.7906650E+04;  0.0000000E+00; -5.0983391E+00;  4.0000000E+04;  0.0000000E+00;  3.9888492E+04;  1.3497090E-02;  0.0000000E+00; -2.1885785E-03;  1.1120522E+04;
  7.1812510E-01;  9.9999998E-03;  2.9043812E-01;6836; -3.2032207E-03;  0.0000000E+00; -2.5210050E-03;  9.9871924E+02;  1.1973148E-01; -1.0611057E+03;3;  2.0359883E+00;  0.0000000E+00;  4.7226211E-01;0;  1.4306537E-02;  2.7905854E+04;  0.0000000E+00; -6.3847628E+00;  4.0000000E+04;  0.0000000E+00;  3.9889551E+04;  1.4856676E-02;  0.0000000E+00; -5.5013888E-04;  1.3571530E+04;
  7.1820951E-01;  9.9999998E-03;  3.0045223E-01;6837; -2.5140555E-03;  0.0000000E+00; -2.5018065E-03;  9.9860828E+02;  1.1970387E-01; -1.1530044E+03;3;  2.1071451E+00;  0.0000000E+00;  4.7991154E-01;0;  1.7014023E-02;  2.7913299E+04;  0.0000000E+00; -6.7920003E+00;  4.0000000E+04;  0.0000000E+00;  3.9890754E+04;  1.6154340E-02;  0.0000000E+00;  8.5968379E-04;  1.4250434E+04;
  7.2934318E-01;  9.9999998E-03;  2.4044493E-01;6892; -5.4208608E-03;  0.0000000E+00; -2.6239424E-03;  9.9918494E+02;  1.2325630E-01; -6.7524011E+02;3;  1.7496181E+00;  0.0000000E+00;  3.2626605E-01;0;  3.9819446E-03;  2.6377480E+04;  0.0000000E+00; -1.1779476E-01;  4.0000000E+04;  0.0000000E+00;  3.9863496E+04;  9.7601535E-03;  0.0000000E+00; -5.7782088E-03;  1.3456193E+03;
  7.2935510E-01;  9.9999998E-03;  2.5045246E-01;6893; -5.0989790E-03;  0.0000000E+00; -2.6752253E-03;  9.9902161E+02;  1.2325801E-01; -8.1059430E+02;3;  1.7942227E+00;  0.0000000E+00;  3.5682482E-01;0;  6.0284710E-03;  2.6366770E+04;  0.0000000E+00; -8.9309400E-01;  4.0000000E+04;  0.0000000E+00;  3.9865812E+04;  1.1239413E-02;  0.0000000E+00; -5.2109421E-03;  2.9392383E+03;
  7.2935909E-01;  9.9999998E-03;  2.6046395E-01;6894; -4.7092503E-03;  0.0000000E+00; -2.7039233E-03;  9.9889636E+02;  1.2325586E-01; -9.1434442E+02;3;  1.8563701E+00;  0.0000000E+00;  3.9502299E-01;0;  8.3129611E-03;  2.6359182E+04;  0.0000000E+00; -2.0583060E+00;  4.0000000E+04;  0.0000000E+00;  3.9867578E+04;  1.2763292E-02;  0.0000000E+00; -4.4503310E-03;  5.3174131E+03;
  7.2936535E-01;  9.9999998E-03;  2.7047744E-01;6895; -4.2443662E-03;  0.0000000E+00; -2.7191176E-03;  9.9878387E+02;  1.2324702E-01; -1.0075270E+03;3;  1.9312073E+00;  0.0000000E+00;  4.3093589E-01;0;  1.0825042E-02;  2.6356287E+04;  0.0000000E+00; -3.5360467E+00;  4.0000000E+04;  0.0000000E+00;  3.9869090E+04;  1.4301697E-02;  0.0000000E+00; -3.4766556E-03;  8.3167568E+03;
  7.2939247E-01;  9.9999998E-03;  2.8049198E-01;6896; -3.7004852E-03;  0.0000000E+00; -2.7154230E-03;  9.9867188E+02;  1.2323169E-01; -1.1003145E+03;3;  2.0103152E+00;  0.0000000E+00;  4.6581954E-01;0;  1.3640832E-02;  2.6356777E+04;  0.0000000E+00; -5.0557189E+00;  4.0000000E+04;  0.0000000E+00;  3.9870582E+04;  1.5830519E-02;  0.0000000E+00; -2.1896868E-03;  1.1373705E+04;
  7.2941947E-01;  9.9999998E-03;  2.9050717E-01;6897; -3.0859143E-03;  0.0000000E+00; -2.7120318E-03;  9.9854779E+02;  1.2320456E-01; -1.2031263E+03;3;  2.0971417E+00;  0.0000000E+00;  4.8552650E-01;0;  1.6403403E-02;  2.6361398E+04;  0.0000000E+00; -6.1652579E+00;  4.0000000E+04;  0.0000000E+00;  3.9871980E+04;  1.7322002E-02;  0.0000000E+00; -9.1859826E-04;  1.3571911E+04;
  7.2942674E-01;  9.9999998E-03;  3.0052242E-01;6898; -2.3972124E-03;  0.0000000E+00; -2.7063526E-03;  9.9839496E+02;  1.2316220E-01; -1.3297401E+03;3;  2.1687601E+00;  0.0000000E+00;  4.9511990E-01;0;  1.8960280E-02;  2.6372074E+04;  0.0000000E+00; -6.4328303E+00;  4.0000000E+04;  0.0000000E+00;  3.9873625E+04;  1.8755805E-02;  0.0000000E+00;  2.0447520E-04;  1.4059359E+04;
  7.4123383E-01;  9.9999998E-03;  2.4048562E-01;6953; -5.4287883E-03;  0.0000000E+00; -2.8298690E-03;  9.9867688E+02;  1.2709633E-01; -1.0961665E+03;3;  1.7708769E+00;  0.0000000E+00;  3.3389273E-01;0;  5.9515159E-03;  2.4796820E+04;  0.0000000E+00; -1.8379989E-01;  4.0000000E+04;  0.0000000E+00;  3.9849379E+04;  1.2032495E-02;  0.0000000E+00; -6.0809790E-03;  2.0717158E+03;
  7.4125141E-01;  9.9999998E-03;  2.5050476E-01;6954; -5.0973180E-03;  0.0000000E+00; -2.8980032E-03;  9.9846674E+02;  1.2709978E-01; -1.2702849E+03;3;  1.8157032E+00;  0.0000000E+00;  3.5994166E-01;0;  8.1136581E-03;  2.4782934E+04;  0.0000000E+00; -6.5874904E-01;  4.0000000E+04;  0.0000000E+00;  3.9851395E+04;  1.3706514E-02;  0.0000000E+00; -5.5928552E-03;  2.9586516E+03;
  7.4126661E-01;  9.9999998E-03;  2.6052293E-01;6955; -4.6977564E-03;  0.0000000E+00; -2.9375504E-03;  9.9828674E+02;  1.2709929E-01; -1.4194165E+03;3;  1.8818703E+00;  0.0000000E+00;  3.9564687E-01;0;  1.0471482E-02;  2.4772039E+04;  0.0000000E+00; -1.2055554E+00;  4.0000000E+04;  0.0000000E+00;  3.9853836E+04;  1.5423272E-02;  0.0000000E+00; -4.9517904E-03;  4.0478799E+03;
  7.4130136E-01;  9.9999998E-03;  2.7054095E-01;6956; -4.2407345E-03;  0.0000000E+00; -2.9653490E-03;  9.9811768E+02;  1.2709881E-01; -1.5594619E+03;3;  1.9539275E+00;  0.0000000E+00;  4.3266532E-01;0;  1.2959802E-02;  2.4762762E+04;  0.0000000E+00; -1.6845102E+00;  4.0000000E+04;  0.0000000E+00;  3.9855719E+04;  1.7156040E-02;  0.0000000E+00; -4.1962387E-03;  5.0254238E+03;
  7.4138075E-01;  9.9999998E-03;  2.8055915E-01;6957; -3.7309176E-03;  0.0000000E+00; -2.9872020E-03;  9.9795990E+02;  1.2710457E-01; -1.6901743E+03;3;  2.0323606E+00;  0.0000000E+00;  4.6327031E-01;0;  1.5503002E-02;  2.4752230E+04;  0.0000000E+00; -1.8953609E+00;  4.0000000E+04;  0.0000000E+00;  3.9857434E+04;  1.8885206E-02;  0.0000000E+00; -3.3822043E-03;  5.4951758E+03;
  7.4143040E-01;  9.9999998E-03;  2.9057717E-01;6958; -3.1716861E-03;  0.0000000E+00; -3.0121587E-03;  9.9779028E+02;  1.2709673E-01; -1.8307135E+03;3;  2.1195080E+00;  0.0000000E+00;  4.9106362E-01;0;  1.7838936E-02;  2.4746717E+04;  0.0000000E+00; -1.5639820E+00;  4.0000000E+04;  0.0000000E+00;  3.9859344E+04;  2.0567279E-02;  0.0000000E+00; -2.7283428E-03;  5.0180684E+03;
  7.4145365E-01;  9.9999998E-03;  3.0059499E-01;6959; -2.5509025E-03;  0.0000000E+00; -3.0336687E-03;  9.9760632E+02;  1.2707601E-01; -1.9831042E+03;3;  2.1889162E+00;  0.0000000E+00;  5.0214612E-01;0;  1.9980814E-02;  2.4745938E+04;  0.0000000E+00; -5.4905331E-01;  4.0000000E+04;  0.0000000E+00;  3.9861441E+04;  2.2180727E-02;  0.0000000E+00; -2.1999131E-03;  3.7518672E+03;
  7.5436562E-01;  9.9999998E-03;  2.4053036E-01;7014; -5.4675187E-03;  0.0000000E+00; -3.0882538E-03;  9.9813702E+02;  1.3146847E-01; -1.5434624E+03;3;  1.7826512E+00;  0.0000000E+00;  3.2877517E-01;0;  8.6625451E-03;  2.3164309E+04;  0.0000000E+00; -9.4924271E-02;  4.0000000E+04;  0.0000000E+00;  3.9833625E+04;  1.5171260E-02;  0.0000000E+00; -6.5087145E-03;  2.7480156E+03;
  7.5428373E-01;  9.9999998E-03;  2.5056103E-01;7015; -5.1293992E-03;  0.0000000E+00; -3.1689408E-03;  9.9785040E+02;  1.3144511E-01; -1.7808878E+03;3;  1.8299018E+00;  0.0000000E+00;  3.5471755E-01;0;  1.0952828E-02;  2.3156525E+04;  0.0000000E+00; -1.1756011E-01;  4.0000000E+04;  0.0000000E+00;  3.9835836E+04;  1.7064596E-02;  0.0000000E+00; -6.1117671E-03;  3.0238423E+03;
  7.5410414E-01;  9.9999998E-03;  2.6058564E-01;7016; -4.7279797E-03;  0.0000000E+00; -3.2183710E-03;  9.9757825E+02;  1.3139175E-01; -2.0063629E+03;3;  1.8954921E+00;  0.0000000E+00;  3.8706696E-01;0;  1.3313755E-02;  2.3159834E+04;  0.0000000E+00;  2.0436199E-01;  4.0000000E+04;  0.0000000E+00;  3.9839160E+04;  1.8960893E-02;  0.0000000E+00; -5.6471378E-03;  3.3091221E+03;
  7.5397736E-01;  9.9999998E-03;  2.7060792E-01;7017; -4.2713862E-03;  0.0000000E+00; -3.2542606E-03;  9.9731982E+02;  1.3134778E-01; -2.2204802E+03;3;  1.9710492E+00;  0.0000000E+00;  4.2435798E-01;0;  1.5727015E-02;  2.3161531E+04;  0.0000000E+00;  1.0682610E+00;  4.0000000E+04;  0.0000000E+00;  3.9842266E+04;  2.0871010E-02;  0.0000000E+00; -5.1439949E-03;  4.3055361E+03;
  7.5396150E-01;  9.9999998E-03;  2.8062943E-01;7018; -3.7655996E-03;  0.0000000E+00; -3.2880418E-03;  9.9708722E+02;  1.3132827E-01; -2.4131660E+03;3;  2.0546005E+00;  0.0000000E+00;  4.5566127E-01;0;  1.8094463E-02;  2.3156242E+04;  0.0000000E+00;  2.5581234E+00;  4.0000000E+04;  0.0000000E+00;  3.9844973E+04;  2.2787936E-02;  0.0000000E+00; -4.6934728E-03;  7.0408330E+03;
  7.5395250E-01;  9.9999998E-03;  2.9065016E-01;7019; -3.1832589E-03;  0.0000000E+00; -3.3171482E-03;  9.9686469E+02;  1.3130458E-01; -2.5975559E+03;3;  2.1507425E+00;  0.0000000E+00;  4.8519820E-01;0;  2.0347446E-02;  2.3153592E+04;  0.0000000E+00;  4.7747927E+00;  4.0000000E+04;  0.0000000E+00;  3.9847367E+04;  2.4648333E-02;  0.0000000E+00; -4.3008868E-03;  1.1742561E+04;
  7.5394732E-01;  9.9999998E-03;  3.0067039E-01;7020; -2.4157320E-03;  0.0000000E+00; -3.3180218E-03;  9.9665222E+02;  1.3127016E-01; -2.7735510E+03;3;  2.2697170E+00;  0.0000000E+00;  5.1029485E-01;0;  2.2854077E-02;  2.3155824E+04;  0.0000000E+00;  7.6640978E+00;  4.0000000E+04;  0.0000000E+00;  3.9849930E+04;  2.6403151E-02;  0.0000000E+00; -3.5490743E-03;  1.8055912E+04;
  7.6820129E-01;  9.9999998E-03;  2.4060677E-01;7075; -5.4984363E-03;  0.0000000E+00; -3.3736068E-03;  9.9820789E+02;  1.3629089E-01; -1.4847480E+03;3;  1.7901051E+00;  0.0000000E+00;  3.2572123E-01;0;  1.2134127E-02;  2.1569939E+04;  0.0000000E+00; -1.5895680E-01;  4.0000000E+04;  0.0000000E+00;  3.9808508E+04;  1.9084120E-02;  0.0000000E+00; -6.9499924E-03;  2.6696372E+03;
  7.6810533E-01;  9.9999998E-03;  2.5064093E-01;7076; -5.1533300E-03;  0.0000000E+00; -3.4623123E-03;  9.9788568E+02;  1.3625117E-01; -1.7516541E+03;3;  1.8429067E+00;  0.0000000E+00;  3.4654424E-01;0;  1.4642879E-02;  2.1565078E+04;  0.0000000E+00; -5.7329126E-03;  4.0000000E+04;  0.0000000E+00;  3.9811402E+04;  2.1244470E-02;  0.0000000E+00; -6.6015902E-03;  2.9075696E+03;
  7.6788628E-01;  9.9999998E-03;  2.6066735E-01;7077; -4.7401595E-03;  0.0000000E+00; -3.5228734E-03;  9.9752985E+02;  1.3617711E-01; -2.0464604E+03;3;  1.9157503E+00;  0.0000000E+00;  3.7793949E-01;0;  1.7087026E-02;  2.1570418E+04;  0.0000000E+00;  7.1594679E-01;  4.0000000E+04;  0.0000000E+00;  3.9815410E+04;  2.3377772E-02;  0.0000000E+00; -6.2907464E-03;  3.9591208E+03;
  7.6775593E-01;  9.9999998E-03;  2.7069163E-01;7078; -4.2591756E-03;  0.0000000E+00; -3.5644281E-03;  9.9720789E+02;  1.3612583E-01; -2.3132183E+03;3;  2.0000944E+00;  0.0000000E+00;  4.1565496E-01;0;  1.9546309E-02;  2.1570238E+04;  0.0000000E+00;  2.2378266E+00;  4.0000000E+04;  0.0000000E+00;  3.9819234E+04;  2.5514295E-02;  0.0000000E+00; -5.9679863E-03;  7.2832827E+03;
  7.6783884E-01;  9.9999998E-03;  2.8071594E-01;7079; -3.6844241E-03;  0.0000000E+00; -3.5975534E-03;  9.9695605E+02;  1.3612922E-01; -2.5218545E+03;3;  2.1052687E+00;  0.0000000E+00;  4.5347777E-01;0;  2.2022998E-02;  2.1556592E+04;  0.0000000E+00;  4.4222178E+00;  4.0000000E+04;  0.0000000E+00;  3.9821988E+04;  2.7658772E-02;  0.0000000E+00; -5.6357738E-03;  1.2694434E+04;
  7.6800299E-01;  9.9999998E-03;  2.9073986E-01;7080; -2.8623552E-03;  0.0000000E+00; -3.5910835E-03;  9.9673785E+02;  1.3613954E-01; -2.7026394E+03;3;  2.2741134E+00;  0.0000000E+00;  5.0604051E-01;0;  2.4923556E-02;  2.1543119E+04;  0.0000000E+00;  7.1804609E+00;  4.0000000E+04;  0.0000000E+00;  3.9824199E+04;  2.9687136E-02;  0.0000000E+00; -4.7635813E-03;  1.9625418E+04;
  7.6823676E-01;  9.9999998E-03;  3.0076399E-01;7081; -1.2067026E-03;  0.0000000E+00; -3.3919902E-03;  9.9657898E+02;  1.3613909E-01; -2.8342407E+03;3;  2.7396567E+00;  0.0000000E+00;  6.0939831E-01;0;  3.0812319E-02;  2.1536734E+04;  0.0000000E+00;  1.0190435E+01;  4.0000000E+04;  0.0000000E+00;  3.9825477E+04;  3.1381641E-02;  0.0000000E+00; -5.6932156E-04;  2.7032531E+04;
  7.8285599E-01;  9.9999998E-03;  2.4072245E-01;7136; -5.4913354E-03;  0.0000000E+00; -3.6809721E-03;  9.9905859E+02;  1.4168152E-01; -7.7992853E+02;3;  1.8200397E+00;  0.0000000E+00;  3.2860902E-01;0;  1.6170487E-02;  2.0001240E+04;  0.0000000E+00; -2.8888512E-01;  4.0000000E+04;  0.0000000E+00;  3.9772340E+04;  2.3515414E-02;  0.0000000E+00; -7.3449281E-03;  1.5687383E+03;
  7.8276074E-01;  9.9999998E-03;  2.5074959E-01;7137; -5.1235571E-03;  0.0000000E+00; -3.7726413E-03;  9.9873041E+02;  1.4163859E-01; -1.0518220E+03;3;  1.8852164E+00;  0.0000000E+00;  3.5111889E-01;0;  1.8931625E-02;  1.9996766E+04;  0.0000000E+00; -2.9448137E-01;  4.0000000E+04;  0.0000000E+00;  3.9775668E+04;  2.5922347E-02;  0.0000000E+00; -6.9907214E-03;  1.7545461E+03;
  7.8259361E-01;  9.9999998E-03;  2.6077288E-01;7138; -4.6776524E-03;  0.0000000E+00; -3.8414879E-03;  9.9836926E+02;  1.4157392E-01; -1.3510234E+03;3;  1.9774103E+00;  0.0000000E+00;  3.7976721E-01;0;  2.1522092E-02;  1.9997520E+04;  0.0000000E+00;  1.8894923E-01;  4.0000000E+04;  0.0000000E+00;  3.9779801E+04;  2.8285386E-02;  0.0000000E+00; -6.7632943E-03;  2.7282688E+03;
  7.8258032E-01;  9.9999998E-03;  2.7079636E-01;7139; -4.1307225E-03;  0.0000000E+00; -3.8880403E-03;  9.9805341E+02;  1.4155322E-01; -1.6126951E+03;3;  2.0870132E+00;  0.0000000E+00;  4.1820928E-01;0;  2.4067145E-02;  1.9988277E+04;  0.0000000E+00;  1.3856672E+00;  4.0000000E+04;  0.0000000E+00;  3.9783219E+04;  3.0620147E-02;  0.0000000E+00; -6.5530012E-03;  6.2250366E+03;
  7.8297573E-01;  9.9999998E-03;  2.8082293E-01;7140; -3.4202414E-03;  0.0000000E+00; -3.9261524E-03;  9.9787927E+02;  1.4165220E-01; -1.7569872E+03;3;  2.2335360E+00;  0.0000000E+00;  4.6491179E-01;0;  2.6601816E-02;  1.9952148E+04;  0.0000000E+00;  2.7630954E+00;  4.0000000E+04;  0.0000000E+00;  3.9784691E+04;  3.2936282E-02;  0.0000000E+00; -6.3344673E-03;  1.0776775E+04;
  7.8345090E-01;  9.9999998E-03;  2.9085019E-01;7141; -2.1231808E-03;  0.0000000E+00; -3.8581176E-03;  9.9774567E+02;  1.4175479E-01; -1.8676508E+03;3;  2.7041304E+00;  0.0000000E+00;  5.8715934E-01;0;  3.0365739E-02;  1.9917527E+04;  0.0000000E+00;  4.3397164E+00;  4.0000000E+04;  0.0000000E+00;  3.9785633E+04;  3.4897469E-02;  0.0000000E+00; -4.5317295E-03;  1.6011195E+04;
  7.8396946E-01;  9.9999998E-03;  3.0087852E-01;7142;  1.1624385E-04;  0.0000000E+00; -3.5357915E-03;  9.9766370E+02;  1.4184007E-01; -1.9355995E+03;3;  3.3431277E+00;  0.0000000E+00;  6.8504196E-01;0;  3.8080730E-02;  1.9890824E+04;  0.0000000E+00;  5.8626971E+00;  4.0000000E+04;  0.0000000E+00;  3.9785043E+04;  3.6240283E-02;  0.0000000E+00;  1.8404479E-03;  2.0946680E+04;
  7.9798788E-01;  9.9999998E-03;  2.4085067E-01;7197; -5.2950629E-03;  0.0000000E+00; -3.9811414E-03;  9.9994427E+02;  1.4757031E-01; -4.6171532E+01;3;  1.9528354E+00;  0.0000000E+00;  3.7332770E-01;0;  2.0082172E-02;  1.8470105E+04;  0.0000000E+00; -1.9635803E-01;  4.0000000E+04;  0.0000000E+00;  3.9733895E+04;  2.7650015E-02;  0.0000000E+00; -7.5678444E-03;  4.5723581E+02;
  7.9809749E-01;  9.9999998E-03;  2.5086942E-01;7198; -4.8382482E-03;  0.0000000E+00; -4.0693218E-03;  9.9967291E+02;  1.4758590E-01; -2.7100467E+02;3;  2.0483198E+00;  0.0000000E+00;  3.9942387E-01;0;  2.3130227E-02;  1.8452674E+04;  0.0000000E+00; -3.3967048E-01;  4.0000000E+04;  0.0000000E+00;  3.9736547E+04;  3.0205470E-02;  0.0000000E+00; -7.0752432E-03;  4.3579251E+02;
  7.9812324E-01;  9.9999998E-03;  2.6088905E-01;7199; -4.2725387E-03;  0.0000000E+00; -4.1388413E-03;  9.9936926E+02;  1.4757515E-01; -5.2255310E+02;3;  2.1758742E+00;  0.0000000E+00;  4.2781705E-01;0;  2.5920246E-02;  1.8441467E+04;  0.0000000E+00; -2.0236519E-01;  4.0000000E+04;  0.0000000E+00;  3.9739980E+04;  3.2658007E-02;  0.0000000E+00; -6.7377612E-03;  1.2145620E+03;
  7.9826200E-01;  9.9999998E-03;  2.7091086E-01;7200; -3.5193588E-03;  0.0000000E+00; -4.1713789E-03;  9.9909302E+02;  1.4760260E-01; -7.5143549E+02;3;  2.3831930E+00;  0.0000000E+00;  4.7852278E-01;0;  2.8678339E-02;  1.8422422E+04;  0.0000000E+00;  4.3539518E-01;  4.0000000E+04;  0.0000000E+00;  3.9742840E+04;  3.4962181E-02;  0.0000000E+00; -6.2838420E-03;  4.1158027E+03;
  7.9867238E-01;  9.9999998E-03;  2.8093636E-01;7201; -2.3175294E-03;  0.0000000E+00; -4.1307351E-03;  9.9889471E+02;  1.4771907E-01; -9.1572711E+02;3;  2.8313057E+00;  0.0000000E+00;  5.8644289E-01;0;  3.2060888E-02;  1.8384836E+04;  0.0000000E+00;  1.4062464E+00;  4.0000000E+04;  0.0000000E+00;  3.9744312E+04;  3.6977030E-02;  0.0000000E+00; -4.9161441E-03;  8.3519727E+03;
  7.9907393E-01;  9.9999998E-03;  2.9096365E-01;7202; -4.0629090E-04;  0.0000000E+00; -3.8846610E-03;  9.9869330E+02;  1.4780913E-01; -1.0825865E+03;3;  3.4350011E+00;  0.0000000E+00;  7.1300447E-01;0;  3.8341284E-02;  1.8354371E+04;  0.0000000E+00;  2.9331264E+00;  4.0000000E+04;  0.0000000E+00;  3.9745637E+04;  3.8434323E-02;  0.0000000E+00; -9.3039889E-05;  1.4263328E+04;
  7.9938525E-01;  9.9999998E-03;  3.0099183E-01;7203;  1.8836432E-03;  0.0000000E+00; -3.5596057E-03;  9.9848065E+02;  1.4782721E-01; -1.2587297E+03;3;  4.0265446E+00;  0.0000000E+00;  6.9872594E-01;0;  4.5884188E-02;  1.8343377E+04;  0.0000000E+00;  5.0465412E+00;  4.0000000E+04;  0.0000000E+00;  3.9746695E+04;  3.9378349E-02;  0.0000000E+00;  6.5058391E-03;  2.1473928E+04;
  8.1279260E-01;  9.9999998E-03;  2.4095039E-01;7258; -4.5154672E-03;  0.0000000E+00; -4.1960995E-03;  9.9993842E+02;  1.5356410E-01; -5.1010899E+01;3;  2.3960273E+00;  0.0000000E+00;  4.8851752E-01;0;  2.3070335E-02;  1.7054840E+04;  0.0000000E+00;  3.0648401E-01;  4.0000000E+04;  0.0000000E+00;  3.9704465E+04;  3.0424681E-02;  0.0000000E+00; -7.3543447E-03;  1.0042814E+03;
  8.1293118E-01;  9.9999998E-03;  2.5096616E-01;7259; -3.8074597E-03;  0.0000000E+00; -4.2604255E-03;  9.9968304E+02;  1.5358092E-01; -2.6260983E+02;3;  2.6046221E+00;  0.0000000E+00;  5.2989316E-01;0;  2.6375158E-02;  1.7039270E+04;  0.0000000E+00;  3.5637230E-01;  4.0000000E+04;  0.0000000E+00;  3.9707121E+04;  3.2797977E-02;  0.0000000E+00; -6.4228196E-03;  1.3881235E+03;
  8.1285208E-01;  9.9999998E-03;  2.6098418E-01;7260; -2.8930726E-03;  0.0000000E+00; -4.2958618E-03;  9.9938647E+02;  1.5351759E-01; -5.0828189E+02;3;  2.9341776E+00;  0.0000000E+00;  5.8822036E-01;0;  2.9530076E-02;  1.7040730E+04;  0.0000000E+00;  6.1132222E-01;  4.0000000E+04;  0.0000000E+00;  3.9710773E+04;  3.4983058E-02;  0.0000000E+00; -5.4529817E-03;  2.6730583E+03;
  8.1278777E-01;  9.9999998E-03;  2.7100465E-01;7261; -1.6519949E-03;  0.0000000E+00; -4.2083496E-03;  9.9910840E+02;  1.5345535E-01; -7.3869513E+02;3;  3.3362653E+00;  0.0000000E+00;  6.9056094E-01;0;  3.3687182E-02;  1.7043598E+04;  0.0000000E+00;  1.2646748E+00;  4.0000000E+04;  0.0000000E+00;  3.9714320E+04;  3.6916923E-02;  0.0000000E+00; -3.2297422E-03;  5.3506987E+03;
  8.1303060E-01;  9.9999998E-03;  2.8103003E-01;7262; -1.2299929E-04;  0.0000000E+00; -3.9895629E-03;  9.9889581E+02;  1.5350167E-01; -9.1478888E+02;3;  3.8122320E+00;  0.0000000E+00;  8.0152434E-01;0;  3.9867353E-02;  1.7025127E+04;  0.0000000E+00;  2.0769775E+00;  4.0000000E+04;  0.0000000E+00;  3.9716512E+04;  3.8563605E-02;  0.0000000E+00;  1.3037487E-03;  8.6412891E+03;
  8.1331843E-01;  9.9999998E-03;  2.9105818E-01;7263;  1.5011288E-03;  0.0000000E+00; -3.7852111E-03;  9.9866681E+02;  1.5355936E-01; -1.1045118E+03;3;  4.2259779E+00;  0.0000000E+00;  7.9349107E-01;0;  4.6153422E-02;  1.7004359E+04;  0.0000000E+00;  3.1480582E+00;  4.0000000E+04;  0.0000000E+00;  3.9718363E+04;  3.9887689E-02;  0.0000000E+00;  6.2657329E-03;  1.2738164E+04;
  8.1356573E-01;  9.9999998E-03;  3.0108777E-01;7264;  3.0384047E-03;  0.0000000E+00; -3.7075870E-03;  9.9837744E+02;  1.5358755E-01; -1.3442582E+03;3;  4.5223885E+00;  0.0000000E+00;  7.2622335E-01;0;  4.9821641E-02;  1.6989686E+04;  0.0000000E+00;  4.8162422E+00;  4.0000000E+04;  0.0000000E+00;  3.9720684E+04;  4.0931717E-02;  0.0000000E+00;  8.8899247E-03;  1.8464779E+04;
  8.2642221E-01;  9.9999998E-03;  2.7108261E-01;7322; -8.6954686E-05;  0.0000000E+00; -4.2028553E-03;  9.9834540E+02;  1.5924159E-01; -1.3708253E+03;3;  4.0792298E+00;  0.0000000E+00;  8.7151319E-01;0;  3.7845116E-02;  1.5810145E+04;  0.0000000E+00;  2.0250452E+00;  4.0000000E+04;  0.0000000E+00;  3.9696133E+04;  3.7545517E-02;  0.0000000E+00;  2.9960024E-04;  5.9448823E+03;
  8.2646465E-01;  9.9999998E-03;  2.6105845E-01;7321; -1.3422370E-03;  0.0000000E+00; -4.3395888E-03;  9.9864062E+02;  1.5929207E-01; -1.1262396E+03;3;  3.7013187E+00;  0.0000000E+00;  7.6745999E-01;0;  3.2597166E-02;  1.5809958E+04;  0.0000000E+00;  1.6159891E+00;  4.0000000E+04;  0.0000000E+00;  3.9692305E+04;  3.5835888E-02;  0.0000000E+00; -3.2387215E-03;  4.7838389E+03;
  8.2658702E-01;  9.9999998E-03;  2.8111017E-01;7323;  1.2726663E-03;  0.0000000E+00; -3.9971182E-03;  9.9804138E+02;  1.5926777E-01; -1.6226700E+03;3;  4.4493260E+00;  0.0000000E+00;  9.2379248E-01;0;  4.4457998E-02;  1.5795111E+04;  0.0000000E+00;  2.5224679E+00;  4.0000000E+04;  0.0000000E+00;  3.9699699E+04;  3.9019331E-02;  0.0000000E+00;  5.4386677E-03;  7.3892686E+03;
  8.2659501E-01;  9.9999998E-03;  2.5103623E-01;7320; -2.4180438E-03;  0.0000000E+00; -4.3510641E-03;  9.9894965E+02;  1.5937302E-01; -8.7019757E+02;3;  3.3839786E+00;  0.0000000E+00;  6.9153374E-01;0;  2.8723944E-02;  1.5804352E+04;  0.0000000E+00;  1.2658926E+00;  4.0000000E+04;  0.0000000E+00;  3.9688922E+04;  3.3928096E-02;  0.0000000E+00; -5.2041514E-03;  3.8347397E+03;
  8.2685161E-01;  9.9999998E-03;  2.9114071E-01;7324;  2.4884508E-03;  0.0000000E+00; -3.9504659E-03;  9.9772467E+02;  1.5933093E-01; -1.8850824E+03;3;  4.6968784E+00;  0.0000000E+00;  8.4125060E-01;0;  4.8649061E-02;  1.5773267E+04;  0.0000000E+00;  3.1821141E+00;  4.0000000E+04;  0.0000000E+00;  3.9702668E+04;  4.0246937E-02;  0.0000000E+00;  8.4021240E-03;  9.3241709E+03;
  8.2662928E-01;  9.9999998E-03;  2.4101648E-01;7319; -3.3575841E-03;  0.0000000E+00; -4.3368707E-03;  9.9922614E+02;  1.5942089E-01; -6.4111761E+02;3;  3.0753248E+00;  0.0000000E+00;  6.2796587E-01;0;  2.5001951E-02;  1.5805297E+04;  0.0000000E+00;  9.4013196E-01;  4.0000000E+04;  0.0000000E+00;  3.9684871E+04;  3.1861100E-02;  0.0000000E+00; -6.8591498E-03;  2.9698867E+03;
  8.2713115E-01;  9.9999998E-03;  3.0117300E-01;7325;  3.6274458E-03;  0.0000000E+00; -4.0171095E-03;  9.9736761E+02;  1.5939479E-01; -2.1808765E+03;3;  4.8836741E+00;  0.0000000E+00;  7.6609147E-01;0;  4.9906585E-02;  1.5751231E+04;  0.0000000E+00;  4.1842623E+00;  4.0000000E+04;  0.0000000E+00;  3.9705695E+04;  4.1248839E-02;  0.0000000E+00;  8.6577469E-03;  1.2312962E+04;
  8.4231853E-01;  9.9999998E-03;  2.8120187E-01;7384;  1.8023279E-03;  0.0000000E+00; -4.4475188E-03;  9.9721320E+02;  1.6597487E-01; -2.3088235E+03;3;  4.8095212E+00;  0.0000000E+00;  9.4940007E-01;0;  4.3007795E-02;  1.4538877E+04;  0.0000000E+00;  2.1081662E+00;  4.0000000E+04;  0.0000000E+00;  3.9680535E+04;  3.8654804E-02;  0.0000000E+00;  4.3529919E-03;  4.5150132E+03;
  8.4263265E-01;  9.9999998E-03;  2.9123577E-01;7385;  2.9009699E-03;  0.0000000E+00; -4.4397567E-03;  9.9681824E+02;  1.6607612E-01; -2.6360239E+03;3;  5.0014849E+00;  0.0000000E+00;  8.7083203E-01;0;  4.6362851E-02;  1.4511415E+04;  0.0000000E+00;  1.8921669E+00;  4.0000000E+04;  0.0000000E+00;  3.9684199E+04;  3.9724380E-02;  0.0000000E+00;  6.6384710E-03;  4.3247876E+03;
  8.4285295E-01;  9.9999998E-03;  3.0127054E-01;7386;  3.9893468E-03;  0.0000000E+00; -4.5104763E-03;  9.9638068E+02;  1.6614172E-01; -2.9985322E+03;3;  5.1996984E+00;  0.0000000E+00;  8.2123947E-01;0;  4.7396142E-02;  1.4490662E+04;  0.0000000E+00;  1.9135647E+00;  4.0000000E+04;  0.0000000E+00;  3.9688391E+04;  4.0649489E-02;  0.0000000E+00;  6.7466535E-03;  4.9184692E+03;
  8.4203964E-01;  9.9999998E-03;  2.7117002E-01;7383;  6.3904212E-04;  0.0000000E+00; -4.5602936E-03;  9.9758105E+02;  1.6589250E-01; -2.0040420E+03;3;  4.5055475E+00;  0.0000000E+00;  9.2529964E-01;0;  3.7780166E-02;  1.4563625E+04;  0.0000000E+00;  2.2805533E+00;  4.0000000E+04;  0.0000000E+00;  3.9676641E+04;  3.7403431E-02;  0.0000000E+00;  3.7673311E-04;  5.5039795E+03;
  8.4205371E-01;  9.9999998E-03;  2.6114130E-01;7382; -5.2274187E-04;  0.0000000E+00; -4.6440172E-03;  9.9793872E+02;  1.6592358E-01; -1.7077540E+03;3;  4.1452479E+00;  0.0000000E+00;  8.1991881E-01;0;  3.3154327E-02;  1.4567798E+04;  0.0000000E+00;  2.1951768E+00;  4.0000000E+04;  0.0000000E+00;  3.9672480E+04;  3.5973042E-02;  0.0000000E+00; -2.8187155E-03;  6.0786030E+03;
  8.4211469E-01;  9.9999998E-03;  2.5111234E-01;7381; -1.5717006E-03;  0.0000000E+00; -4.6491590E-03;  9.9828931E+02;  1.6597597E-01; -1.4172931E+03;3;  3.8348882E+00;  0.0000000E+00;  7.6177412E-01;0;  2.9387081E-02;  1.4568422E+04;  0.0000000E+00;  1.7907072E+00;  4.0000000E+04;  0.0000000E+00;  3.9668691E+04;  3.4412477E-02;  0.0000000E+00; -5.0253961E-03;  5.6387354E+03;
  8.4202313E-01;  9.9999998E-03;  2.4108340E-01;7380; -2.5920109E-03;  0.0000000E+00; -4.6599540E-03;  9.9861462E+02;  1.6597672E-01; -1.1477699E+03;3;  3.5232706E+00;  0.0000000E+00;  6.6394168E-01;0;  2.5661021E-02;  1.4577720E+04;  0.0000000E+00;  1.2224734E+00;  4.0000000E+04;  0.0000000E+00;  3.9665062E+04;  3.2716911E-02;  0.0000000E+00; -7.0558903E-03;  4.4783096E+03;
  8.5836101E-01;  9.9999998E-03;  2.4117640E-01;7441; -2.1135840E-03;  0.0000000E+00; -5.1917359E-03;  9.9863611E+02;  1.7342511E-01; -1.1299432E+03;3;  3.8673422E+00;  0.0000000E+00;  6.7519754E-01;0;  2.5630575E-02;  1.3377270E+04;  0.0000000E+00;  6.0184318E-01;  4.0000000E+04;  0.0000000E+00;  3.9636418E+04;  3.3813775E-02;  0.0000000E+00; -8.1832008E-03;  3.3927036E+03;
  8.5831589E-01;  9.9999998E-03;  2.5120988E-01;7442; -1.1193713E-03;  0.0000000E+00; -5.1811966E-03;  9.9826038E+02;  1.7338765E-01; -1.4412430E+03;3;  4.1733155E+00;  0.0000000E+00;  7.5192046E-01;0;  2.8819477E-02;  1.3374814E+04;  0.0000000E+00;  1.2493827E+00;  4.0000000E+04;  0.0000000E+00;  3.9640453E+04;  3.5052415E-02;  0.0000000E+00; -6.2329373E-03;  4.4476743E+03;
  8.5833329E-01;  9.9999998E-03;  2.6124299E-01;7443; -1.4003344E-04;  0.0000000E+00; -5.2042296E-03;  9.9783820E+02;  1.7338786E-01; -1.7910110E+03;3;  4.4855123E+00;  0.0000000E+00;  8.1372839E-01;0;  3.1853884E-02;  1.3366130E+04;  0.0000000E+00;  1.5670567E+00;  4.0000000E+04;  0.0000000E+00;  3.9644465E+04;  3.6223572E-02;  0.0000000E+00; -4.3696892E-03;  4.2893618E+03;
  8.5856462E-01;  9.9999998E-03;  2.7127632E-01;7444;  8.5821509E-04;  0.0000000E+00; -5.2099270E-03;  9.9739178E+02;  1.7348528E-01; -2.1608770E+03;3;  4.7049704E+00;  0.0000000E+00;  8.5418957E-01;0;  3.5026271E-02;  1.3341611E+04;  0.0000000E+00;  1.3976575E+00;  4.0000000E+04;  0.0000000E+00;  3.9648867E+04;  3.7337232E-02;  0.0000000E+00; -2.3109613E-03;  3.6137969E+03;
  8.5884941E-01;  9.9999998E-03;  2.8131101E-01;7445;  1.9587209E-03;  0.0000000E+00; -5.1489440E-03;  9.9694482E+02;  1.7360252E-01; -2.5311382E+03;3;  5.0030866E+00;  0.0000000E+00;  9.2235678E-01;0;  3.8989026E-02;  1.3313476E+04;  0.0000000E+00;  8.6231118E-01;  4.0000000E+04;  0.0000000E+00;  3.9653230E+04;  3.8427167E-02;  0.0000000E+00;  5.6185905E-04;  5.6941636E+03;
  8.5896188E-01;  9.9999998E-03;  2.9134646E-01;7446;  3.1572971E-03;  0.0000000E+00; -5.0680661E-03;  9.9648590E+02;  1.7363419E-01; -2.9113743E+03;3;  5.2900438E+00;  0.0000000E+00;  9.2080534E-01;0;  4.3098360E-02;  1.3299041E+04;  0.0000000E+00;  1.8137801E-02;  4.0000000E+04;  0.0000000E+00;  3.9657836E+04;  3.9498009E-02;  0.0000000E+00;  3.6003524E-03;  1.0122476E+04;
  8.5903591E-01;  9.9999998E-03;  3.0138293E-01;7447;  4.4551534E-03;  0.0000000E+00; -5.0398572E-03;  9.9599042E+02;  1.7362760E-01; -3.3218811E+03;3;  5.5394602E+00;  0.0000000E+00;  8.7883955E-01;0;  4.5874815E-02;  1.3290419E+04;  0.0000000E+00; -6.7681253E-01;  4.0000000E+04;  0.0000000E+00;  3.9662625E+04;  4.0558219E-02;  0.0000000E+00;  5.3165951E-03;  1.3876024E+04;
  8.7672484E-01;  9.9999998E-03;  2.4129342E-01;7502; -1.5578906E-03;  0.0000000E+00; -5.8821938E-03;  9.9902039E+02;  1.8215933E-01; -8.1158191E+02;3;  4.2292519E+00;  0.0000000E+00;  6.5457684E-01;0;  2.7522458E-02;  1.2162602E+04;  0.0000000E+00; -4.3061203E-01;  4.0000000E+04;  0.0000000E+00;  3.9598363E+04;  3.7571989E-02;  0.0000000E+00; -1.0049531E-02;  1.3827968E+03;
  8.7659407E-01;  9.9999998E-03;  2.5132814E-01;7503; -6.2788522E-04;  0.0000000E+00; -5.8759023E-03;  9.9859650E+02;  1.8209061E-01; -1.1627819E+03;3;  4.5313225E+00;  0.0000000E+00;  7.3235273E-01;0;  3.0125756E-02;  1.2165187E+04;  0.0000000E+00;  1.4893687E-01;  4.0000000E+04;  0.0000000E+00;  3.9603512E+04;  3.8369291E-02;  0.0000000E+00; -8.2435347E-03;  2.0876125E+03;
  8.7686974E-01;  9.9999998E-03;  2.6136509E-01;7504;  2.7938493E-04;  0.0000000E+00; -5.9111360E-03;  9.9810754E+02;  1.8223831E-01; -1.5678568E+03;3;  4.7566900E+00;  0.0000000E+00;  7.8207737E-01;0;  3.2752179E-02;  1.2138225E+04;  0.0000000E+00;  4.2719576E-01;  4.0000000E+04;  0.0000000E+00;  3.9608102E+04;  3.9325066E-02;  0.0000000E+00; -6.5728868E-03;  2.7266016E+03;
  8.7731737E-01;  9.9999998E-03;  2.7140254E-01;7505;  1.1791915E-03;  0.0000000E+00; -5.9726983E-03;  9.9760681E+02;  1.8247744E-01; -1.9827092E+03;3;  5.0015650E+00;  0.0000000E+00;  8.2255363E-01;0;  3.5132129E-02;  1.2098248E+04;  0.0000000E+00;  4.4062638E-01;  4.0000000E+04;  0.0000000E+00;  3.9612215E+04;  4.0366940E-02;  0.0000000E+00; -5.2348124E-03;  4.4908862E+03;
  8.7745315E-01;  9.9999998E-03;  2.8143924E-01;7506;  2.1952682E-03;  0.0000000E+00; -5.9537063E-03;  9.9713794E+02;  1.8255147E-01; -2.3711426E+03;3;  5.2491999E+00;  0.0000000E+00;  8.5400116E-01;0;  3.8227189E-02;  1.2079876E+04;  0.0000000E+00;  6.6969998E-02;  4.0000000E+04;  0.0000000E+00;  3.9616809E+04;  4.1430872E-02;  0.0000000E+00; -3.2036828E-03;  8.2571729E+03;
  8.7739927E-01;  9.9999998E-03;  2.9147649E-01;7507;  3.3935122E-03;  0.0000000E+00; -5.8479118E-03;  9.9664679E+02;  1.8250178E-01; -2.7780940E+03;3;  5.5420365E+00;  0.0000000E+00;  9.1469187E-01;0;  4.2553637E-02;  1.2077379E+04;  0.0000000E+00; -7.1806949E-01;  4.0000000E+04;  0.0000000E+00;  3.9622039E+04;  4.2591192E-02;  0.0000000E+00; -3.7553968E-05;  1.3426981E+04;
  8.7729824E-01;  9.9999998E-03;  3.0151466E-01;7508;  4.7322996E-03;  0.0000000E+00; -5.7627470E-03;  9.9610046E+02;  1.8238860E-01; -3.2306738E+03;3;  5.8074999E+00;  0.0000000E+00;  9.0554225E-01;0;  4.6437152E-02;  1.2082516E+04;  0.0000000E+00; -1.4977629E+00;  4.0000000E+04;  0.0000000E+00;  3.9627730E+04;  4.3857187E-02;  0.0000000E+00;  2.5799649E-03;  1.7578523E+04;
  8.9517558E-01;  9.9999998E-03;  2.4141333E-01;7563; -7.9737545E-04;  0.0000000E+00; -6.5966584E-03;  9.9955957E+02;  1.9141826E-01; -3.6487854E+02;3;  4.6505070E+00;  0.0000000E+00;  6.4583015E-01;0;  3.4175970E-02;  1.1049307E+04;  0.0000000E+00; -6.7947465E-01;  4.0000000E+04;  0.0000000E+00;  3.9557066E+04;  4.6494458E-02;  0.0000000E+00; -1.2318490E-02;  7.0819647E+02;
  8.9517134E-01;  9.9999998E-03;  2.5145113E-01;7564;  5.4251803E-05;  0.0000000E+00; -6.6053993E-03;  9.9915997E+02;  1.9143362E-01; -6.9593091E+02;3;  4.8815746E+00;  0.0000000E+00;  7.1270561E-01;0;  3.6615118E-02;  1.1044033E+04;  0.0000000E+00; -3.3296311E-01;  4.0000000E+04;  0.0000000E+00;  3.9562246E+04;  4.7214814E-02;  0.0000000E+00; -1.0599696E-02;  1.3211810E+03;
  8.9573276E-01;  9.9999998E-03;  2.6149103E-01;7565;  8.8968658E-04;  0.0000000E+00; -6.6477987E-03;  9.9864197E+02;  1.9173275E-01; -1.1251039E+03;3;  5.1230025E+00;  0.0000000E+00;  7.7041435E-01;0;  3.9530139E-02;  1.1003509E+04;  0.0000000E+00; -2.6024911E-01;  4.0000000E+04;  0.0000000E+00;  3.9566844E+04;  4.8479166E-02;  0.0000000E+00; -8.9490255E-03;  3.0277249E+03;
  8.9624029E-01;  9.9999998E-03;  2.7153102E-01;7566;  1.7215869E-03;  0.0000000E+00; -6.7174537E-03;  9.9811810E+02;  1.9199170E-01; -1.5591163E+03;3;  5.3288260E+00;  0.0000000E+00;  8.0962723E-01;0;  4.2251088E-02;  1.0966240E+04;  0.0000000E+00; -4.4383553E-01;  4.0000000E+04;  0.0000000E+00;  3.9571207E+04;  4.9891669E-02;  0.0000000E+00; -7.6405830E-03;  6.2086694E+03;
  8.9651793E-01;  9.9999998E-03;  2.8157124E-01;7567;  2.6763319E-03;  0.0000000E+00; -6.7133019E-03;  9.9760791E+02;  1.9212654E-01; -1.9818203E+03;3;  5.5392241E+00;  0.0000000E+00;  8.4975654E-01;0;  4.5717195E-02;  1.0942883E+04;  0.0000000E+00; -9.4431394E-01;  4.0000000E+04;  0.0000000E+00;  3.9575977E+04;  5.1376607E-02;  0.0000000E+00; -5.6594145E-03;  1.1065018E+04;
  8.9650339E-01;  9.9999998E-03;  2.9161212E-01;7568;  3.8526230E-03;  0.0000000E+00; -6.5996577E-03;  9.9710065E+02;  1.9208689E-01; -2.4020554E+03;3;  5.8237705E+00;  0.0000000E+00;  9.2672145E-01;0;  5.0716996E-02;  1.0939318E+04;  0.0000000E+00; -1.8317388E+00;  4.0000000E+04;  0.0000000E+00;  3.9581109E+04;  5.2909885E-02;  0.0000000E+00; -2.1928865E-03;  1.7286566E+04;
  8.9638752E-01;  9.9999998E-03;  3.0165404E-01;7569;  5.2405521E-03;  0.0000000E+00; -6.4830803E-03;  9.9655939E+02;  1.9194460E-01; -2.8504871E+03;3;  6.0100613E+00;  0.0000000E+00;  8.8195986E-01;0;  5.5806480E-02;  1.0946851E+04;  0.0000000E+00; -2.7414477E+00;  4.0000000E+04;  0.0000000E+00;  3.9586715E+04;  5.4601803E-02;  0.0000000E+00;  1.2046755E-03;  2.2509340E+04;
  9.1573852E-01;  9.9999998E-03;  2.4152169E-01;7624; -2.4938531E-04;  0.0000000E+00; -7.5268778E-03;  9.9925800E+02;  2.0196773E-01; -6.1474799E+02;3;  4.9346423E+00;  0.0000000E+00;  5.7639742E-01;0;  4.8128761E-02;  9.9329111E+03;  0.0000000E+00; -7.0042819E-01;  4.0000000E+04;  0.0000000E+00;  3.9520645E+04;  6.4053483E-02;  0.0000000E+00; -1.5924720E-02;  1.0183340E+03;
  9.1581851E-01;  9.9999998E-03;  2.5156721E-01;7625;  4.8852630E-04;  0.0000000E+00; -7.5797820E-03;  9.9883319E+02;  2.0204045E-01; -9.6668866E+02;3;  5.1548963E+00;  0.0000000E+00;  6.4649057E-01;0;  5.0507173E-02;  9.9225674E+03;  0.0000000E+00; -5.2400959E-01;  4.0000000E+04;  0.0000000E+00;  3.9526406E+04;  6.5202445E-02;  0.0000000E+00; -1.4695272E-02;  1.7202574E+03;
  9.1625398E-01;  9.9999998E-03;  2.6161155E-01;7626;  1.2629636E-03;  0.0000000E+00; -7.6083462E-03;  9.9831622E+02;  2.0229699E-01; -1.3949728E+03;3;  5.3531742E+00;  0.0000000E+00;  7.1175718E-01;0;  5.3833667E-02;  9.8916064E+03;  0.0000000E+00; -4.5539775E-01;  4.0000000E+04;  0.0000000E+00;  3.9532152E+04;  6.7085207E-02;  0.0000000E+00; -1.3251538E-02;  2.8469543E+03;
  9.1670805E-01;  9.9999998E-03;  2.7165577E-01;7627;  2.0315743E-03;  0.0000000E+00; -7.6604076E-03;  9.9775391E+02;  2.0254871E-01; -1.8608361E+03;3;  5.5435534E+00;  0.0000000E+00;  7.5527507E-01;0;  5.7318021E-02;  9.8591426E+03;  0.0000000E+00; -5.0124747E-01;  4.0000000E+04;  0.0000000E+00;  3.9537297E+04;  6.9310829E-02;  0.0000000E+00; -1.1992809E-02;  4.3687378E+03;
  9.1699427E-01;  9.9999998E-03;  2.8170049E-01;7628;  2.8266667E-03;  0.0000000E+00; -7.6918663E-03;  9.9718939E+02;  2.0270887E-01; -2.3285266E+03;3;  5.7193189E+00;  0.0000000E+00;  7.8959084E-01;0;  6.1016507E-02;  9.8351143E+03;  0.0000000E+00; -6.2026745E-01;  4.0000000E+04;  0.0000000E+00;  3.9543121E+04;  7.1622059E-02;  0.0000000E+00; -1.0605550E-02;  6.2934346E+03;
  9.1698259E-01;  9.9999998E-03;  2.9174611E-01;7629;  3.6810958E-03;  0.0000000E+00; -7.6716142E-03;  9.9664423E+02;  2.0270400E-01; -2.7802175E+03;3;  5.9009318E+00;  0.0000000E+00;  8.0849969E-01;0;  6.5151244E-02;  9.8275908E+03;  0.0000000E+00; -8.1614512E-01;  4.0000000E+04;  0.0000000E+00;  3.9548766E+04;  7.3787108E-02;  0.0000000E+00; -8.6358665E-03;  8.5792305E+03;
  9.1680813E-01;  9.9999998E-03;  3.0179298E-01;7630;  4.5618759E-03;  0.0000000E+00; -7.6602842E-03;  9.9612152E+02;  2.0259346E-01; -3.2132422E+03;3;  6.0590959E+00;  0.0000000E+00;  7.9726017E-01;0;  6.8863280E-02;  9.8308945E+03;  0.0000000E+00; -1.0526035E+00;  4.0000000E+04;  0.0000000E+00;  3.9554598E+04;  7.5881548E-02;  0.0000000E+00; -7.0182681E-03;  1.0855609E+04;
  9.3804926E-01;  9.9999998E-03;  2.4163270E-01;7685;  2.2668215E-04;  0.0000000E+00; -8.4636649E-03;  9.9859570E+02;  2.1391062E-01; -1.1634238E+03;3;  5.1380262E+00;  0.0000000E+00;  4.9293861E-01;0;  7.1708612E-02;  8.8518350E+03;  0.0000000E+00; -3.3288357E-01;  4.0000000E+04;  0.0000000E+00;  3.9483668E+04;  9.1772422E-02;  0.0000000E+00; -2.0063812E-02;  1.4353344E+03;
  9.3790621E-01;  9.9999998E-03;  2.5168204E-01;7686;  8.3746971E-04;  0.0000000E+00; -8.5805422E-03;  9.9806976E+02;  2.1386151E-01; -1.5991646E+03;3;  5.2875991E+00;  0.0000000E+00;  5.1307011E-01;0;  7.4120484E-02;  8.8506396E+03;  0.0000000E+00; -5.4094982E-01;  4.0000000E+04;  0.0000000E+00;  3.9491324E+04;  9.3535528E-02;  0.0000000E+00; -1.9415045E-02;  2.3424565E+03;
  9.3828142E-01;  9.9999998E-03;  2.6173082E-01;7687;  1.5729119E-03;  0.0000000E+00; -8.6193467E-03;  9.9749286E+02;  2.1408747E-01; -2.0771262E+03;3;  5.4915295E+00;  0.0000000E+00;  5.7779080E-01;0;  7.8083858E-02;  8.8245713E+03;  0.0000000E+00; -6.2272143E-01;  4.0000000E+04;  0.0000000E+00;  3.9499027E+04;  9.6420661E-02;  0.0000000E+00; -1.8336799E-02;  3.4711626E+03;
  9.3883336E-01;  9.9999998E-03;  2.7178082E-01;7688;  2.3299495E-03;  0.0000000E+00; -8.6396364E-03;  9.9686255E+02;  2.1439707E-01; -2.5993337E+03;3;  5.6895304E+00;  0.0000000E+00;  6.5336430E-01;0;  8.3048284E-02;  8.7900967E+03;  0.0000000E+00; -4.9883586E-01;  4.0000000E+04;  0.0000000E+00;  3.9506398E+04;  9.9951580E-02;  0.0000000E+00; -1.6903296E-02;  5.1647773E+03;
  9.3925178E-01;  9.9999998E-03;  2.8183123E-01;7689;  3.1375499E-03;  0.0000000E+00; -8.6335791E-03;  9.9617847E+02;  2.1462885E-01; -3.1660830E+03;3;  5.8915544E+00;  0.0000000E+00;  7.3207241E-01;0;  8.8648655E-02;  8.7612129E+03;  0.0000000E+00;  5.9892010E-02;  4.0000000E+04;  0.0000000E+00;  3.9513469E+04;  1.0358027E-01;  0.0000000E+00; -1.4931619E-02;  9.2944922E+03;
  9.3951523E-01;  9.9999998E-03;  2.9188335E-01;7690;  4.0995162E-03;  0.0000000E+00; -8.5920552E-03;  9.9550671E+02;  2.1475263E-01; -3.7226106E+03;3;  6.1083660E+00;  0.0000000E+00;  7.7101862E-01;0;  9.4858304E-02;  8.7414102E+03;  0.0000000E+00;  1.1612787E+00;  4.0000000E+04;  0.0000000E+00;  3.9520672E+04;  1.0709251E-01;  0.0000000E+00; -1.2234210E-02;  1.6500354E+04;
  9.3978107E-01;  9.9999998E-03;  3.0193782E-01;7691;  5.8346102E-03;  0.0000000E+00; -8.4783537E-03;  9.9489648E+02;  2.1482520E-01; -4.2281763E+03;3;  6.6389289E+00;  0.0000000E+00;  8.2077581E-01;0;  1.0215928E-01;  8.7272734E+03;  0.0000000E+00;  2.5459626E+00;  4.0000000E+04;  0.0000000E+00;  3.9527137E+04;  1.1038357E-01;  0.0000000E+00; -8.2242927E-03;  2.4862473E+04;
  9.6175754E-01;  9.9999998E-03;  2.4175595E-01;7746;  9.0815144E-04;  0.0000000E+00; -9.1535840E-03;  9.9833551E+02;  2.2722103E-01; -1.3790225E+03;3;  5.3521938E+00;  0.0000000E+00;  4.4891936E-01;0;  1.0118482E-01;  7.8473965E+03;  0.0000000E+00;  5.3458506E-01;  4.0000000E+04;  0.0000000E+00;  3.9438934E+04;  1.2459805E-01;  0.0000000E+00; -2.3413235E-02;  3.7561533E+03;
  9.6157330E-01;  9.9999998E-03;  2.5180790E-01;7747;  1.4576382E-03;  0.0000000E+00; -9.3957223E-03;  9.9766541E+02;  2.2714058E-01; -1.9341672E+03;3;  5.4841189E+00;  0.0000000E+00;  4.6721718E-01;0;  1.0390662E-01;  7.8455811E+03;  0.0000000E+00; -2.5846836E-01;  4.0000000E+04;  0.0000000E+00;  3.9447914E+04;  1.2729727E-01;  0.0000000E+00; -2.3390651E-02;  2.7561116E+03;
  9.6191025E-01;  9.9999998E-03;  2.6186055E-01;7748;  2.1959268E-03;  0.0000000E+00; -9.5129684E-03;  9.9702045E+02;  2.2734760E-01; -2.4685225E+03;3;  5.6833639E+00;  0.0000000E+00;  5.2512646E-01;0;  1.0783839E-01;  7.8229976E+03;  0.0000000E+00; -7.8876102E-01;  4.0000000E+04;  0.0000000E+00;  3.9457695E+04;  1.3078234E-01;  0.0000000E+00; -2.2943947E-02;  4.3162271E+03;
  9.6261179E-01;  9.9999998E-03;  2.7191725E-01;7749;  3.2257494E-03;  0.0000000E+00; -9.5159533E-03;  9.9643982E+02;  2.2774448E-01; -2.9495457E+03;3;  5.9832249E+00;  0.0000000E+00;  6.1079079E-01;0;  1.1344376E-01;  7.7882437E+03;  0.0000000E+00; -9.0804666E-01;  4.0000000E+04;  0.0000000E+00;  3.9465375E+04;  1.3469552E-01;  0.0000000E+00; -2.1251757E-02;  8.7598096E+03;
  9.6330947E-01;  9.9999998E-03;  2.8197646E-01;7750;  5.6577777E-03;  0.0000000E+00; -9.3470961E-03;  9.9587738E+02;  2.2810224E-01; -3.4155078E+03;3;  6.8453927E+00;  0.0000000E+00;  7.8994328E-01;0;  1.2092321E-01;  7.7566738E+03;  0.0000000E+00; -4.4821972E-01;  4.0000000E+04;  0.0000000E+00;  3.9471789E+04;  1.3758060E-01;  0.0000000E+00; -1.6657397E-02;  1.8237619E+04;
  9.6414912E-01;  9.9999998E-03;  2.9204088E-01;7751;  1.1592502E-02;  0.0000000E+00; -8.7233633E-03;  9.9540503E+02;  2.2846662E-01; -3.8068547E+03;3;  8.1311855E+00;  0.0000000E+00;  8.9513010E-01;0;  1.3397920E-01;  7.7275298E+03;  0.0000000E+00;  2.9901350E-01;  4.0000000E+04;  0.0000000E+00;  3.9474688E+04;  1.3752533E-01;  0.0000000E+00; -3.5461348E-03;  2.9618959E+04;
  9.6523100E-01;  9.9999998E-03;  3.0211100E-01;7752;  1.7426532E-02;  0.0000000E+00; -8.7460261E-03;  9.9519153E+02;  2.2883229E-01; -3.9837385E+03;3;  8.8681107E+00;  0.0000000E+00;  8.9200872E-01;0;  1.3632099E-01;  7.7035029E+03;  0.0000000E+00;  2.3024780E-01;  4.0000000E+04;  0.0000000E+00;  3.9472527E+04;  1.3664190E-01;  0.0000000E+00; -3.2091819E-04;  3.3897062E+04;
  9.8559171E-01;  9.9999998E-03;  2.4187660E-01;7807;  3.0707915E-03;  0.0000000E+00; -9.5560895E-03;  9.9861328E+02;  2.4115965E-01; -1.1488562E+03;3;  5.9632564E+00;  0.0000000E+00;  4.8191047E-01;0;  1.2118600E-01;  6.9757656E+03;  0.0000000E+00;  1.2199020E+00;  4.0000000E+04;  0.0000000E+00;  3.9393098E+04;  1.4635521E-01;  0.0000000E+00; -2.5169211E-02;  5.3603301E+03;
  9.8576480E-01;  9.9999998E-03;  2.5194132E-01;7808;  4.2491574E-03;  0.0000000E+00; -1.0014788E-02;  9.9799261E+02;  2.4128878E-01; -1.6630638E+03;3;  6.4187536E+00;  0.0000000E+00;  5.0185430E-01;0;  1.2269755E-01;  6.9624131E+03;  0.0000000E+00;  8.4985942E-02;  4.0000000E+04;  0.0000000E+00;  3.9398902E+04;  1.4873159E-01;  0.0000000E+00; -2.6034042E-02;  2.5544390E+03;
  9.8621738E-01;  9.9999998E-03;  2.6200339E-01;7809;  6.1965850E-03;  0.0000000E+00; -1.0394842E-02;  9.9741364E+02;  2.4158166E-01; -2.1427539E+03;3;  7.1290574E+00;  0.0000000E+00;  5.4481655E-01;0;  1.2243278E-01;  6.9393003E+03;  0.0000000E+00; -9.1338730E-01;  4.0000000E+04;  0.0000000E+00;  3.9405918E+04;  1.5014414E-01;  0.0000000E+00; -2.7711358E-02;  3.5313452E+03;
  9.8708761E-01;  9.9999998E-03;  2.7206865E-01;7810;  9.0240128E-03;  0.0000000E+00; -1.0385294E-02;  9.9701617E+02;  2.4211429E-01; -2.4720286E+03;3;  7.8767157E+00;  0.0000000E+00;  6.8472296E-01;0;  1.2405284E-01;  6.9047759E+03;  0.0000000E+00; -1.5199461E+00;  4.0000000E+04;  0.0000000E+00;  3.9412352E+04;  1.5022625E-01;  0.0000000E+00; -2.6173405E-02;  8.7575049E+03;
  9.8793846E-01;  9.9999998E-03;  2.8213739E-01;7811;  1.3686934E-02;  0.0000000E+00; -9.9727381E-03;  9.9669354E+02;  2.4259476E-01; -2.7393296E+03;3;  8.8186836E+00;  0.0000000E+00;  9.0178710E-01;0;  1.2942648E-01;  6.8749233E+03;  0.0000000E+00; -1.5727193E+00;  4.0000000E+04;  0.0000000E+00;  3.9415781E+04;  1.4758486E-01;  0.0000000E+00; -1.8158371E-02;  2.0234809E+04;
  9.8907256E-01;  9.9999998E-03;  2.9221350E-01;7812;  2.0283962E-02;  0.0000000E+00; -9.6029919E-03;  9.9653412E+02;  2.4315217E-01; -2.8714246E+03;3;  9.4894390E+00;  0.0000000E+00;  1.1717621E+00;0;  1.3307244E-01;  6.8446597E+03;  0.0000000E+00; -1.5357062E+00;  4.0000000E+04;  0.0000000E+00;  3.9413195E+04;  1.4167234E-01;  0.0000000E+00; -8.5999100E-03;  3.2588508E+04;
  9.9042040E-01;  9.9999998E-03;  3.0229416E-01;7813;  2.4657290E-02;  0.0000000E+00; -9.4019342E-03;  9.9659900E+02;  2.4372649E-01; -2.8176482E+03;3;  6.2168527E+00;  0.0000000E+00;  1.4031401E+00;0;  1.3541953E-01;  6.8182905E+03;  0.0000000E+00; -2.3944004E+00;  4.0000000E+04;  0.0000000E+00;  3.9407398E+04;  1.3657932E-01;  0.0000000E+00; -1.1597867E-03;  3.5825469E+04;
  1.0103874E+00;  9.9999998E-03;  2.4201623E-01;7868;  1.1959380E-02;  0.0000000E+00; -9.5196282E-03;  9.9895709E+02;  2.5624371E-01; -8.6402478E+02;3;  8.4303865E+00;  0.0000000E+00;  7.2813654E-01;0;  1.1419705E-01;  6.1884497E+03;  0.0000000E+00;  1.0074873E+00;  4.0000000E+04;  0.0000000E+00;  3.9346340E+04;  1.3778999E-01;  0.0000000E+00; -2.3592947E-02;  4.5116147E+03;
  1.0108489E+00;  9.9999998E-03;  2.5209403E-01;7869;  1.4095765E-02;  0.0000000E+00; -9.8656937E-03;  9.9846008E+02;  2.5657150E-01; -1.2758154E+03;3;  8.7500925E+00;  0.0000000E+00;  7.8492469E-01;0;  1.1437993E-01;  6.1691182E+03;  0.0000000E+00; -1.6752757E-02;  4.0000000E+04;  0.0000000E+00;  3.9347531E+04;  1.3667962E-01;  0.0000000E+00; -2.2299696E-02;  1.6396536E+03;
  1.0113450E+00;  9.9999998E-03;  2.6216677E-01;7870;  1.6483586E-02;  0.0000000E+00; -1.0277594E-02;  9.9797986E+02;  2.5692296E-01; -1.6736313E+03;3;  9.0646439E+00;  0.0000000E+00;  8.3023602E-01;0;  1.1201754E-01;  6.1488555E+03;  0.0000000E+00; -1.1013066E+00;  4.0000000E+04;  0.0000000E+00;  3.9349988E+04;  1.3427383E-01;  0.0000000E+00; -2.2256283E-02;  1.7583358E+03;
  1.0120443E+00;  9.9999998E-03;  2.7223736E-01;7871;  1.9021334E-02;  0.0000000E+00; -1.0489535E-02;  9.9762708E+02;  2.5739384E-01; -1.9659193E+03;3;  8.7280807E+00;  0.0000000E+00;  1.0018731E+00;0;  1.0924458E-01;  6.1237104E+03;  0.0000000E+00; -1.9545107E+00;  4.0000000E+04;  0.0000000E+00;  3.9353801E+04;  1.3048913E-01;  0.0000000E+00; -2.1244546E-02;  5.2291743E+03;
  1.0127639E+00;  9.9999998E-03;  2.8230971E-01;7872;  2.1613156E-02;  0.0000000E+00; -1.0406556E-02;  9.9735486E+02;  2.5785723E-01; -2.1914436E+03;3;  6.2129402E+00;  0.0000000E+00;  1.2758495E+00;0;  1.0912462E-01;  6.1004590E+03;  0.0000000E+00; -2.2942641E+00;  4.0000000E+04;  0.0000000E+00;  3.9356441E+04;  1.2565129E-01;  0.0000000E+00; -1.6526664E-02;  1.5269839E+04;
  1.0138006E+00;  9.9999998E-03;  2.9238853E-01;7873;  2.3559984E-02;  0.0000000E+00; -1.0420854E-02;  9.9716376E+02;  2.5849786E-01; -2.3497603E+03;3;  4.3259530E+00;  0.0000000E+00;  1.0678142E+00;0;  1.0785630E-01;  6.0708794E+03;  0.0000000E+00; -2.2792788E+00;  4.0000000E+04;  0.0000000E+00;  3.9356172E+04;  1.2026412E-01;  0.0000000E+00; -1.2407820E-02;  2.8459391E+04;
  1.0150038E+00;  9.9999998E-03;  3.0247211E-01;7874;  2.5554359E-02;  0.0000000E+00; -1.0586726E-02;  9.9702454E+02;  2.5917023E-01; -2.4651150E+03;3;  3.1589422E+00;  0.0000000E+00;  8.7382269E-01;0;  1.0307162E-01;  6.0425698E+03;  0.0000000E+00; -2.3264053E+00;  4.0000000E+04;  0.0000000E+00;  3.9353723E+04;  1.1419979E-01;  0.0000000E+00; -1.1128169E-02;  3.8499742E+04;
  1.0354887E+00;  9.9999998E-03;  2.4217060E-01;7929;  1.9480387E-02;  0.0000000E+00; -9.4889011E-03;  9.9878589E+02;  2.7204630E-01; -1.0058477E+03;3;  3.8953638E+00;  0.0000000E+00; -8.9950788E-01;0;  8.4912598E-02;  5.4941548E+03;  0.0000000E+00; -3.3387640E-01;  4.0000000E+04;  0.0000000E+00;  3.9303785E+04;  1.0417096E-01;  0.0000000E+00; -1.9258365E-02;  2.5789519E+03;
  1.0361038E+00;  9.9999998E-03;  2.5225174E-01;7930;  2.0435063E-02;  0.0000000E+00; -9.8039433E-03;  9.9833484E+02;  2.7251649E-01; -1.3795654E+03;3;  2.7528813E+00;  0.0000000E+00; -8.7906498E-01;0;  8.3940580E-02;  5.4724663E+03;  0.0000000E+00; -8.2091898E-01;  4.0000000E+04;  0.0000000E+00;  3.9305047E+04;  9.9794850E-02;  0.0000000E+00; -1.5854267E-02;  1.7176187E+03;
  1.0365117E+00;  9.9999998E-03;  2.6233047E-01;7931;  2.1279767E-02;  0.0000000E+00; -1.0243967E-02;  9.9784717E+02;  2.7284870E-01; -1.7836031E+03;3;  2.3275027E+00;  0.0000000E+00; -7.8833610E-01;0;  8.1060648E-02;  5.4566069E+03;  0.0000000E+00; -1.4341965E+00;  4.0000000E+04;  0.0000000E+00;  3.9304977E+04;  9.5021144E-02;  0.0000000E+00; -1.3960497E-02;  2.0920718E+03;
  1.0367190E+00;  9.9999998E-03;  2.7240232E-01;7932;  2.2085315E-02;  0.0000000E+00; -1.0690324E-02;  9.9742188E+02;  2.7302939E-01; -2.1359387E+03;3;  2.0342264E+00;  0.0000000E+00; -5.9040588E-01;0;  7.6257333E-02;  5.4468345E+03;  0.0000000E+00; -2.0025139E+00;  4.0000000E+04;  0.0000000E+00;  3.9307059E+04;  9.0106413E-02;  0.0000000E+00; -1.3849081E-02;  2.2477874E+03;
  1.0370197E+00;  9.9999998E-03;  2.8247431E-01;7933;  2.2922788E-02;  0.0000000E+00; -1.1025598E-02;  9.9707953E+02;  2.7327290E-01; -2.4195356E+03;3;  1.9060466E+00;  0.0000000E+00; -4.3873578E-01;0;  7.0555046E-02;  5.4353003E+03;  0.0000000E+00; -2.3112948E+00;  4.0000000E+04;  0.0000000E+00;  3.9310395E+04;  8.4732287E-02;  0.0000000E+00; -1.4177238E-02;  4.1232627E+03;
  1.0375707E+00;  9.9999998E-03;  2.9255122E-01;7934;  2.3907017E-02;  0.0000000E+00; -1.1225579E-02;  9.9674689E+02;  2.7371040E-01; -2.6951326E+03;3;  1.5766523E+00;  0.0000000E+00; -2.3185982E-01;0;  6.5023899E-02;  5.4169624E+03;  0.0000000E+00; -2.2377005E+00;  4.0000000E+04;  0.0000000E+00;  3.9313477E+04;  7.8750774E-02;  0.0000000E+00; -1.3726876E-02;  9.9060596E+03;
  1.0383183E+00;  9.9999998E-03;  3.0263317E-01;7935;  2.5146317E-02;  0.0000000E+00; -1.1310989E-02;  9.9632483E+02;  2.7430704E-01; -3.0448015E+03;3;  1.4133132E+00;  0.0000000E+00;  7.8891277E-02;0;  6.0329881E-02;  5.3930884E+03;  0.0000000E+00; -1.7598137E+00;  4.0000000E+04;  0.0000000E+00;  3.9317160E+04;  7.2386429E-02;  0.0000000E+00; -1.2056548E-02;  1.7435424E+04;
  1.0613105E+00;  9.9999998E-03;  2.4234425E-01;7990;  1.9573404E-02;  0.0000000E+00; -1.1272276E-02;  9.9842926E+02;  2.8875110E-01; -1.3013453E+03;3;  1.9359581E+00;  0.0000000E+00; -1.4566153E+00;0;  4.3909766E-02;  4.8787231E+03;  0.0000000E+00; -2.0594203E+00;  4.0000000E+04;  0.0000000E+00;  3.9262000E+04;  6.3410334E-02;  0.0000000E+00; -1.9500570E-02;  2.3035305E+03;
  1.0618473E+00;  9.9999998E-03;  2.5241241E-01;7991;  2.0286143E-02;  0.0000000E+00; -1.1405427E-02;  9.9791016E+02;  2.8922144E-01; -1.7314070E+03;3;  1.3946890E+00;  0.0000000E+00; -1.4090501E+00;0;  3.9171863E-02;  4.8592695E+03;  0.0000000E+00; -1.9853015E+00;  4.0000000E+04;  0.0000000E+00;  3.9269359E+04;  5.5522930E-02;  0.0000000E+00; -1.6351067E-02;  3.0762812E+03;
  1.0624769E+00;  9.9999998E-03;  2.6249209E-01;7992;  2.0942515E-02;  0.0000000E+00; -1.1655010E-02;  9.9731262E+02;  2.8976905E-01; -2.2264546E+03;3;  9.8634648E-01;  0.0000000E+00; -1.2395442E+00;0;  3.2848597E-02;  4.8374355E+03;  0.0000000E+00; -1.9521325E+00;  4.0000000E+04;  0.0000000E+00;  3.9271648E+04;  4.7337860E-02;  0.0000000E+00; -1.4489265E-02;  4.4357515E+03;
  1.0629294E+00;  9.9999998E-03;  2.7256900E-01;7993;  2.1604966E-02;  0.0000000E+00; -1.1943541E-02;  9.9679108E+02;  2.9016694E-01; -2.6585408E+03;3;  8.1776595E-01;  0.0000000E+00; -8.9473051E-01;0;  2.5062680E-02;  4.8211572E+03;  0.0000000E+00; -1.9328446E+00;  4.0000000E+04;  0.0000000E+00;  3.9272930E+04;  3.9549708E-02;  0.0000000E+00; -1.4487028E-02;  7.6948105E+03;
  1.0631927E+00;  9.9999998E-03;  2.8264382E-01;7994;  2.2353599E-02;  0.0000000E+00; -1.2124063E-02;  9.9635815E+02;  2.9040679E-01; -3.0171973E+03;3;  6.3625807E-01;  0.0000000E+00; -5.2893698E-01;0;  1.7604832E-02;  4.8107241E+03;  0.0000000E+00; -1.9330937E+00;  4.0000000E+04;  0.0000000E+00;  3.9275910E+04;  3.2441489E-02;  0.0000000E+00; -1.4836658E-02;  1.2910872E+04;
  1.0632937E+00;  9.9999998E-03;  2.9272020E-01;7995;  2.3281517E-02;  0.0000000E+00; -1.2177494E-02;  9.9593945E+02;  2.9052725E-01; -3.3641008E+03;3;  6.3472845E-02;  0.0000000E+00; -3.8531378E-01;0;  1.1977104E-02;  4.8052749E+03;  0.0000000E+00; -1.9174283E+00;  4.0000000E+04;  0.0000000E+00;  3.9279676E+04;  2.6181493E-02;  0.0000000E+00; -1.4204388E-02;  1.9084307E+04;
  1.0633805E+00;  9.9999998E-03;  3.0280003E-01;7996;  2.4607077E-02;  0.0000000E+00; -1.2174603E-02;  9.9539526E+02;  2.9062608E-01; -3.8149521E+03;3; -6.4528710E-01;  0.0000000E+00; -2.4339898E-01;0;  7.7447677E-03;  4.8009839E+03;  0.0000000E+00; -1.6724890E+00;  4.0000000E+04;  0.0000000E+00;  3.9284328E+04;  2.0691719E-02;  0.0000000E+00; -1.2946951E-02;  2.3457527E+04;
  1.0910473E+00;  9.9999998E-03;  2.5260618E-01;8052;  1.9265164E-02;  0.0000000E+00; -1.3319477E-02;  9.9739966E+02;  3.0885550E-01; -2.1543079E+03;3;  4.3494236E-01;  0.0000000E+00; -9.8223341E-01;0;  1.7870236E-03;  4.2603882E+03;  0.0000000E+00; -3.3713410E+00;  4.0000000E+04;  0.0000000E+00;  3.9228320E+04;  1.7966729E-02;  0.0000000E+00; -1.6179705E-02;  5.1601997E+03;
  1.0904912E+00;  9.9999998E-03;  2.4254942E-01;8051;  1.8859573E-02;  0.0000000E+00; -1.3410085E-02;  9.9808649E+02;  3.0827966E-01; -1.5852874E+03;3;  1.0474972E+00;  0.0000000E+00; -1.1458408E+00;0;  1.1500269E-02;  4.2810532E+03;  0.0000000E+00; -3.5996463E+00;  4.0000000E+04;  0.0000000E+00;  3.9214812E+04;  3.0688828E-02;  0.0000000E+00; -1.9188559E-02;  2.5971646E+03;
  1.0916550E+00;  9.9999998E-03;  2.6267916E-01;8053;  1.9618355E-02;  0.0000000E+00; -1.3143158E-02;  9.9656702E+02;  3.0947959E-01; -2.8441643E+03;3; -1.1216981E-01;  0.0000000E+00; -6.1496961E-01;0; -6.8360884E-03;  4.2379937E+03;  0.0000000E+00; -2.9715469E+00;  4.0000000E+04;  0.0000000E+00;  3.9237324E+04;  5.9611388E-03;  0.0000000E+00; -1.2797227E-02;  8.2755312E+03;
  1.0918928E+00;  9.9999998E-03;  2.7275476E-01;8054;  1.9978242E-02;  0.0000000E+00; -1.2969882E-02;  9.9585211E+02;  3.0978227E-01; -3.4364434E+03;3; -5.3184557E-01;  0.0000000E+00;  4.8616797E-02;0; -1.4610235E-02;  4.2255400E+03;  0.0000000E+00; -2.3439267E+00;  4.0000000E+04;  0.0000000E+00;  3.9242145E+04; -4.7341748E-03;  0.0000000E+00; -9.8760594E-03;  1.2541243E+04;
  1.0920261E+00;  9.9999998E-03;  2.8283045E-01;8055;  2.0428197E-02;  0.0000000E+00; -1.2580671E-02;  9.9523938E+02;  3.0995563E-01; -3.9440830E+03;3; -8.7510121E-01;  0.0000000E+00;  1.0155717E+00;0; -1.8615386E-02;  4.2173560E+03;  0.0000000E+00; -1.6982459E+00;  4.0000000E+04;  0.0000000E+00;  3.9246430E+04; -1.4192329E-02;  0.0000000E+00; -4.4230563E-03;  2.0459482E+04;
  1.0918666E+00;  9.9999998E-03;  2.9290721E-01;8056;  2.1176284E-02;  0.0000000E+00; -1.2185545E-02;  9.9464679E+02;  3.0978391E-01; -4.4350317E+03;3; -1.3034089E+00;  0.0000000E+00;  1.8142391E+00;0; -2.0467872E-02;  4.2193960E+03;  0.0000000E+00; -1.3145407E+00;  4.0000000E+04;  0.0000000E+00;  3.9250727E+04; -2.1905806E-02;  0.0000000E+00;  1.4379335E-03;  3.3023543E+04;
  1.0916971E+00;  9.9999998E-03;  3.0298516E-01;8057;  2.2453973E-02;  0.0000000E+00; -1.2098388E-02;  9.9377533E+02;  3.0938533E-01; -5.1570356E+03;3; -1.8298885E+00;  0.0000000E+00;  1.9765227E+00;0; -2.5747795E-02;  4.2262354E+03;  0.0000000E+00; -9.0752143E-01;  4.0000000E+04;  0.0000000E+00;  3.9256742E+04; -2.7932182E-02;  0.0000000E+00;  2.1843873E-03;  4.2668145E+04;
  1.1234733E+00;  9.9999998E-03;  2.4278206E-01;8112;  1.7843263E-02;  0.0000000E+00; -1.5485219E-02;  9.9815387E+02;  3.3099791E-01; -1.5294858E+03;3; -9.0188068E-01;  0.0000000E+00; -7.5812447E-01;0; -7.3965248E-03;  3.7168508E+03;  0.0000000E+00; -3.9069629E+00;  4.0000000E+04;  0.0000000E+00;  3.9153703E+04;  1.5650071E-02;  0.0000000E+00; -2.3046596E-02;  5.0145479E+03;
  1.1243132E+00;  9.9999998E-03;  2.5283727E-01;8113;  1.7592076E-02;  0.0000000E+00; -1.5250630E-02;  9.9723132E+02;  3.3188164E-01; -2.2938091E+03;3; -1.9676692E+00;  0.0000000E+00;  9.8129213E-02;0; -2.4190500E-02;  3.6913569E+03;  0.0000000E+00; -4.1329160E+00;  4.0000000E+04;  0.0000000E+00;  3.9170348E+04; -2.3574177E-03;  0.0000000E+00; -2.1833083E-02;  9.1150049E+03;
  1.1252503E+00;  9.9999998E-03;  2.6290074E-01;8114;  1.7225390E-02;  0.0000000E+00; -1.4316245E-02;  9.9605389E+02;  3.3286175E-01; -3.2692864E+03;3; -2.5630703E+00;  0.0000000E+00;  1.0651538E+00;0; -3.4007851E-02;  3.6626240E+03;  0.0000000E+00; -4.1718121E+00;  4.0000000E+04;  0.0000000E+00;  3.9189180E+04; -1.8755700E-02;  0.0000000E+00; -1.5252150E-02;  1.3438236E+04;
  1.1252654E+00;  9.9999998E-03;  2.7297208E-01;8115;  1.6928680E-02;  0.0000000E+00; -1.2861796E-02;  9.9501874E+02;  3.3303195E-01; -4.1268906E+03;3; -2.9794462E+00;  0.0000000E+00;  1.8728111E+00;0; -3.2740876E-02;  3.6531462E+03;  0.0000000E+00; -3.8134027E+00;  4.0000000E+04;  0.0000000E+00;  3.9200336E+04; -3.2904439E-02;  0.0000000E+00;  1.6356101E-04;  1.6409135E+04;
  1.1251243E+00;  9.9999998E-03;  2.8304812E-01;8116;  1.6793281E-02;  0.0000000E+00; -1.1175819E-02;  9.9402472E+02;  3.3303708E-01; -4.9504219E+03;3; -3.3756440E+00;  0.0000000E+00;  2.7483463E+00;0; -2.0998910E-02;  3.6478110E+03;  0.0000000E+00; -3.2731571E+00;  4.0000000E+04;  0.0000000E+00;  3.9207004E+04; -4.5087438E-02;  0.0000000E+00;  2.4088528E-02;  2.1469141E+04;
  1.1249392E+00;  9.9999998E-03;  2.9312792E-01;8117;  1.6939197E-02;  0.0000000E+00; -9.8364046E-03;  9.9301373E+02;  3.3293843E-01; -5.7879775E+03;3; -3.6895752E+00;  0.0000000E+00;  4.4886537E+00;0; -9.2125982E-03;  3.6451716E+03;  0.0000000E+00; -2.7749517E+00;  4.0000000E+04;  0.0000000E+00;  3.9213605E+04; -5.5346720E-02;  0.0000000E+00;  4.6134122E-02;  3.1064984E+04;
  1.1246139E+00;  9.9999998E-03;  3.0320877E-01;8118;  1.7633529E-02;  0.0000000E+00; -8.9827087E-03;  9.9192902E+02;  3.3254662E-01; -6.6866675E+03;3; -3.8825331E+00;  0.0000000E+00;  5.8046980E+00;0; -3.6541969E-03;  3.6490793E+03;  0.0000000E+00; -2.4202380E+00;  4.0000000E+04;  0.0000000E+00;  3.9222676E+04; -6.3448332E-02;  0.0000000E+00;  5.9794135E-02;  4.3504316E+04;
  1.1593804E+00;  9.9999998E-03;  2.4304330E-01;8173;  1.7083300E-02;  0.0000000E+00; -1.5558330E-02;  9.9853046E+02;  3.5607836E-01; -1.2174940E+03;3; -4.9048886E+00;  0.0000000E+00; -4.6262069E+00;0; -3.7127633E-02;  3.2202029E+03;  0.0000000E+00; -2.1750207E+00;  4.0000000E+04;  0.0000000E+00;  3.9064508E+04; -6.1485595E-03;  0.0000000E+00; -3.0979075E-02;  6.8140933E+03;
  1.1609237E+00;  9.9999998E-03;  2.5311074E-01;8174;  1.5931088E-02;  0.0000000E+00; -1.5820056E-02;  9.9760229E+02;  3.5757414E-01; -1.9864585E+03;3; -5.5545998E+00;  0.0000000E+00; -3.3956130E+00;0; -6.3681498E-02;  3.1892205E+03;  0.0000000E+00; -2.9575069E+00;  4.0000000E+04;  0.0000000E+00;  3.9069648E+04; -2.5888477E-02;  0.0000000E+00; -3.7793022E-02;  1.0595660E+04;
  1.1641228E+00;  9.9999998E-03;  2.6317912E-01;8175;  1.4491653E-02;  0.0000000E+00; -1.5118233E-02;  9.9649512E+02;  3.6059093E-01; -2.9037144E+03;3; -6.4890966E+00;  0.0000000E+00; -2.6100130E+00;0; -8.6613454E-02;  3.1303098E+03;  0.0000000E+00; -4.1204891E+00;  4.0000000E+04;  0.0000000E+00;  3.9084312E+04; -4.5070004E-02;  0.0000000E+00; -4.1543450E-02;  1.6247438E+04;
  1.1653721E+00;  9.9999998E-03;  2.8331238E-01;8177;  1.2591449E-02;  0.0000000E+00; -1.2897189E-02;  9.9402692E+02;  3.6200902E-01; -4.9485908E+03;3; -7.3019338E+00;  0.0000000E+00;  1.0197337E+00;0; -1.0304019E-01;  3.0939485E+03;  0.0000000E+00; -6.3740540E+00;  4.0000000E+04;  0.0000000E+00;  3.9123797E+04; -7.2376341E-02;  0.0000000E+00; -3.0663848E-02;  1.9595307E+04;
  1.1654315E+00;  9.9999998E-03;  2.7324343E-01;8176;  1.3335302E-02;  0.0000000E+00; -1.4084048E-02;  9.9532434E+02;  3.6191523E-01; -3.8737095E+03;3; -7.1047959E+00;  0.0000000E+00; -1.2543403E+00;0; -9.9873938E-02;  3.1017622E+03;  0.0000000E+00; -5.3647285E+00;  4.0000000E+04;  0.0000000E+00;  3.9104625E+04; -6.0287818E-02;  0.0000000E+00; -3.9586119E-02;  1.9453342E+04;
  1.1658762E+00;  9.9999998E-03;  2.9339576E-01;8178;  1.1932215E-02;  0.0000000E+00; -1.1129461E-02;  9.9258972E+02;  3.6263248E-01; -6.1392700E+03;3; -7.6921062E+00;  0.0000000E+00;  3.5449643E+00;0; -9.2295676E-02;  3.0769116E+03;  0.0000000E+00; -6.8740525E+00;  4.0000000E+04;  0.0000000E+00;  3.9140820E+04; -8.3322458E-02;  0.0000000E+00; -8.9732157E-03;  1.6295058E+04;
  1.1668040E+00;  9.9999998E-03;  3.0349022E-01;8179;  1.1342792E-02;  0.0000000E+00; -8.9005642E-03;  9.9105023E+02;  3.6368802E-01; -7.4146880E+03;3; -8.1361189E+00;  0.0000000E+00;  6.4713454E+00;0; -6.9639049E-02;  3.0530244E+03;  0.0000000E+00; -6.5267143E+00;  4.0000000E+04;  0.0000000E+00;  3.9157113E+04; -9.3137376E-02;  0.0000000E+00;  2.3498325E-02;  1.2796881E+04;
  1.1982601E+00;  9.9999998E-03;  2.4315070E-01;8234;  1.6083585E-02;  0.0000000E+00; -8.2883956E-03;  9.9830139E+02;  3.8426438E-01; -1.4072639E+03;3; -1.0454881E+01;  0.0000000E+00; -3.2190664E+00;0; -8.1326023E-02;  2.7709463E+03;  0.0000000E+00; -4.4528809E-01;  4.0000000E+04;  0.0000000E+00;  3.9013570E+04; -6.2799349E-02;  0.0000000E+00; -1.8526677E-02;  4.5073208E+03;
  1.2004796E+00;  9.9999998E-03;  2.5325477E-01;8235;  1.3834743E-02;  0.0000000E+00; -8.3672507E-03;  9.9744501E+02;  3.8636291E-01; -2.1167722E+03;3; -1.0777917E+01;  0.0000000E+00; -2.5861449E+00;0; -1.0322341E-01;  2.7384558E+03;  0.0000000E+00; -1.5771453E+00;  4.0000000E+04;  0.0000000E+00;  3.9009516E+04; -8.0075055E-02;  0.0000000E+00; -2.3148354E-02;  9.3933564E+03;
  1.2049491E+00;  9.9999998E-03;  2.6337504E-01;8236;  1.1473780E-02;  0.0000000E+00; -8.1222299E-03;  9.9689410E+02;  3.9063889E-01; -2.5731521E+03;3; -1.1706670E+01;  0.0000000E+00; -1.5036839E+00;0; -1.3148697E-01;  2.6769175E+03;  0.0000000E+00; -3.4488821E+00;  4.0000000E+04;  0.0000000E+00;  3.8998434E+04; -9.9166915E-02;  0.0000000E+00; -3.2320049E-02;  1.5571497E+04;
  1.2076266E+00;  9.9999998E-03;  2.7347654E-01;8237;  9.2930114E-03;  0.0000000E+00; -8.2720863E-03;  9.9616534E+02;  3.9331236E-01; -3.1769348E+03;3; -1.2538031E+01;  0.0000000E+00; -5.6394172E-01;0; -1.6038069E-01;  2.6387336E+03;  0.0000000E+00; -6.0784640E+00;  4.0000000E+04;  0.0000000E+00;  3.8996516E+04; -1.1362587E-01;  0.0000000E+00; -4.6754815E-02;  2.1626826E+04;
  1.2084022E+00;  9.9999998E-03;  2.8356320E-01;8238;  7.5106323E-03;  0.0000000E+00; -8.6974837E-03;  9.9481219E+02;  3.9421758E-01; -4.2979849E+03;3; -1.3205502E+01;  0.0000000E+00;  1.3020197E-01;0; -1.8722346E-01;  2.6220647E+03;  0.0000000E+00; -8.5714045E+00;  4.0000000E+04;  0.0000000E+00;  3.9009027E+04; -1.2392639E-01;  0.0000000E+00; -6.3297085E-02;  1.9087449E+04;
  1.2094102E+00;  9.9999998E-03;  2.9365784E-01;8239;  6.0433368E-03;  0.0000000E+00; -8.5697938E-03;  9.9324969E+02;  3.9537913E-01; -5.5924614E+03;3; -1.3903937E+01;  0.0000000E+00;  1.2331280E+00;0; -2.0589158E-01;  2.6012092E+03;  0.0000000E+00; -1.0154144E+01;  4.0000000E+04;  0.0000000E+00;  3.9027668E+04; -1.3355654E-01;  0.0000000E+00; -7.2335027E-02;  5.4666821E+03;
  1.2112734E+00;  9.9999998E-03;  3.0376783E-01;8240;  5.2105244E-03;  0.0000000E+00; -7.7870251E-03;  9.9170074E+02;  3.9736494E-01; -6.8757275E+03;3; -1.4754232E+01;  0.0000000E+00;  2.7785115E+00;0; -2.1392252E-01;  2.5703899E+03;  0.0000000E+00; -1.0607935E+01;  4.0000000E+04;  0.0000000E+00;  3.9044863E+04; -1.4386843E-01;  0.0000000E+00; -7.0054084E-02;  2.9035588E+04;
  1.2403409E+00;  9.9999998E-03;  2.4318318E-01;8295;  1.2141597E-02;  0.0000000E+00;  1.2823106E-03;  9.9657220E+02;  4.1604230E-01; -2.8398521E+03;3; -1.3130841E+01;  0.0000000E+00;  7.0815432E-01;0; -1.0988697E-01;  2.3603657E+03;  0.0000000E+00;  2.6930070E-01;  4.0000000E+04;  0.0000000E+00;  3.8982000E+04; -1.0344944E-01;  0.0000000E+00; -6.4375289E-03;  5.6453091E+03;
  1.2427747E+00;  9.9999998E-03;  2.5329626E-01;8296;  9.0710754E-03;  0.0000000E+00;  2.6390727E-03;  9.9597339E+02;  4.1839337E-01; -3.3359329E+03;3; -1.4124554E+01;  0.0000000E+00;  1.6159549E+00;0; -1.1371615E-01;  2.3316782E+03;  0.0000000E+00; -1.1946521E+00;  4.0000000E+04;  0.0000000E+00;  3.8995574E+04; -1.0954830E-01;  0.0000000E+00; -4.1678483E-03;  1.1118375E+04;
  1.2472574E+00;  9.9999998E-03;  2.6345977E-01;8297;  5.3696944E-03;  0.0000000E+00;  4.1508214E-03;  9.9557977E+02;  4.2281917E-01; -3.6620430E+03;3; -1.5427308E+01;  0.0000000E+00;  2.5062463E+00;0; -1.0882188E-01;  2.2812529E+03;  0.0000000E+00; -3.5529354E+00;  4.0000000E+04;  0.0000000E+00;  3.8985492E+04; -1.0659108E-01;  0.0000000E+00; -2.2307958E-03;  1.7384357E+04;
  1.2505592E+00;  9.9999998E-03;  2.7360788E-01;8298;  1.8542870E-03;  0.0000000E+00;  5.0148726E-03;  9.9502551E+02;  4.2622760E-01; -4.1212349E+03;3; -1.6706450E+01;  0.0000000E+00;  3.2588911E+00;0; -1.0584903E-01;  2.2438557E+03;  0.0000000E+00; -6.8559551E+00;  4.0000000E+04;  0.0000000E+00;  3.8974203E+04; -1.0268908E-01;  0.0000000E+00; -3.1599484E-03;  2.4858830E+04;
  1.2516612E+00;  9.9999998E-03;  2.8372669E-01;8299; -9.0440619E-04;  0.0000000E+00;  5.1659751E-03;  9.9354938E+02;  4.2752081E-01; -5.3441538E+03;3; -1.7804646E+01;  0.0000000E+00;  3.7459404E+00;0; -1.1347207E-01;  2.2266843E+03;  0.0000000E+00; -9.8530130E+00;  4.0000000E+04;  0.0000000E+00;  3.8978516E+04; -1.0756775E-01;  0.0000000E+00; -5.9043155E-03;  2.0326252E+04;
  1.2527982E+00;  9.9999998E-03;  2.9384428E-01;8300; -3.3160800E-03;  0.0000000E+00;  5.5686985E-03;  9.9165833E+02;  4.2889017E-01; -6.9108623E+03;3; -1.8893269E+01;  0.0000000E+00;  4.7626219E+00;0; -1.1722174E-01;  2.2075691E+03;  0.0000000E+00; -1.1487806E+01;  4.0000000E+04;  0.0000000E+00;  3.8991840E+04; -1.1236938E-01;  0.0000000E+00; -4.8523536E-03;  1.4030044E+04;
  1.2549199E+00;  9.9999998E-03;  3.0397338E-01;8301; -5.1878393E-03;  0.0000000E+00;  6.5156613E-03;  9.8979181E+02;  4.3126634E-01; -8.4572236E+03;3; -2.0010630E+01;  0.0000000E+00;  6.6499858E+00;0; -1.1001951E-01;  2.1789465E+03;  0.0000000E+00; -1.1749528E+01;  4.0000000E+04;  0.0000000E+00;  3.9005926E+04; -1.1177060E-01;  0.0000000E+00;  1.7510941E-03;  5.3073320E+04;
  1.2846440E+00;  9.9999998E-03;  2.4338932E-01;8356;  3.4175054E-03;  0.0000000E+00;  1.2195686E-02;  9.9373480E+02;  4.4940656E-01; -5.1905542E+03;3; -1.5290771E+01;  0.0000000E+00;  7.0108624E+00;0;  2.9442570E-01;  2.0153059E+03;  0.0000000E+00; -4.9190842E-02;  4.0000000E+04;  0.0000000E+00;  3.8896812E+04;  2.8417835E-01;  0.0000000E+00;  1.0247346E-02;  4.2600303E+03;
  1.2873764E+00;  9.9999998E-03;  2.5350249E-01;8357; -7.6446420E-04;  0.0000000E+00;  1.3387177E-02;  9.9351794E+02;  4.5210198E-01; -5.3701982E+03;3; -1.6714266E+01;  0.0000000E+00;  7.2668982E+00;0;  3.4349725E-01;  1.9900483E+03;  0.0000000E+00; -1.8248776E+00;  4.0000000E+04;  0.0000000E+00;  3.8916762E+04;  3.4097898E-01;  0.0000000E+00;  2.5182627E-03;  1.0260021E+04;
  1.2922299E+00;  9.9999998E-03;  2.6367643E-01;8358; -5.6997486E-03;  0.0000000E+00;  1.5416437E-02;  9.9362329E+02;  4.5699814E-01; -5.2828882E+03;3; -1.8333780E+01;  0.0000000E+00;  7.9146771E+00;0;  4.4715449E-01;  1.9471360E+03;  0.0000000E+00; -4.6001000E+00;  4.0000000E+04;  0.0000000E+00;  3.8913730E+04;  4.4843757E-01;  0.0000000E+00; -1.2830805E-03;  1.8399227E+04;
  1.2958167E+00;  9.9999998E-03;  2.7383593E-01;8359; -1.0337105E-02;  0.0000000E+00;  1.6668675E-02;  9.9322815E+02;  4.6074229E-01; -5.6102778E+03;3; -1.9929741E+01;  0.0000000E+00;  8.3882561E+00;0;  5.3258938E-01;  1.9151857E+03;  0.0000000E+00; -8.2009945E+00;  4.0000000E+04;  0.0000000E+00;  3.8907730E+04;  5.3925222E-01;  0.0000000E+00; -6.6628261E-03;  2.8566602E+04;
  1.2964278E+00;  9.9999998E-03;  2.8396106E-01;8360; -1.3926833E-02;  0.0000000E+00;  1.6461601E-02;  9.9173102E+02;  4.6161675E-01; -6.8505688E+03;3; -2.1335276E+01;  0.0000000E+00;  8.6033230E+00;0;  5.4239249E-01;  1.9053430E+03;  0.0000000E+00; -1.1181521E+01;  4.0000000E+04;  0.0000000E+00;  3.8916141E+04;  5.6006438E-01;  0.0000000E+00; -1.7671887E-02;  2.6425824E+04;
  1.2965480E+00;  9.9999998E-03;  2.9408327E-01;8361; -1.7337849E-02;  0.0000000E+00;  1.5920116E-02;  9.8977924E+02;  4.6212319E-01; -8.4675850E+03;3; -2.2702524E+01;  0.0000000E+00;  8.8870659E+00;0;  5.3737706E-01;  1.8976351E+03;  0.0000000E+00; -1.2502880E+01;  4.0000000E+04;  0.0000000E+00;  3.8930484E+04;  5.6654716E-01;  0.0000000E+00; -2.9170087E-02;  1.1599718E+04;
  1.2980013E+00;  9.9999998E-03;  3.0422053E-01;8362; -2.1613566E-02;  0.0000000E+00;  1.5768878E-02;  9.8795599E+02;  4.6410459E-01; -9.9780840E+03;3; -2.4330751E+01;  0.0000000E+00;  9.4266214E+00;0;  5.7146096E-01;  1.8788165E+03;  0.0000000E+00; -1.2477437E+01;  4.0000000E+04;  0.0000000E+00;  3.8943543E+04;  6.0825014E-01;  0.0000000E+00; -3.6789197E-02;  3.6912906E+04;
  1.3312994E+00;  9.9999998E-03;  2.4371779E-01;8417; -4.2869998E-03;  0.0000000E+00;  2.9294904E-02;  9.9939313E+02;  4.7981876E-01; -5.0278799E+02;3; -1.7148201E+01;  0.0000000E+00;  1.3842445E+01;0;  1.5284287E+00;  1.7903647E+03;  0.0000000E+00; -1.5239764E+00;  4.0000000E+04;  0.0000000E+00;  3.8785543E+04;  1.4260058E+00;  0.0000000E+00;  1.0242289E-01;  2.5506584E+03;
  1.3342954E+00;  9.9999998E-03;  2.5383577E-01;8418; -9.0840487E-03;  0.0000000E+00;  3.0473800E-02;  9.9969788E+02;  4.8218668E-01; -2.5030736E+02;3; -1.8857668E+01;  0.0000000E+00;  1.3946436E+01;0;  1.6726948E+00;  1.7738134E+03;  0.0000000E+00; -3.1090140E+00;  4.0000000E+04;  0.0000000E+00;  3.8789738E+04;  1.5733579E+00;  0.0000000E+00;  9.9336877E-02;  8.3216553E+03;
  1.3387450E+00;  9.9999998E-03;  2.6400670E-01;8419; -1.3559766E-02;  0.0000000E+00;  3.1341247E-02;  1.0000781E+03;  4.8581076E-01;  6.4687721E+01;3; -2.0699619E+01;  0.0000000E+00;  1.4260351E+01;0;  1.8595953E+00;  1.7492583E+03;  0.0000000E+00; -5.4571519E+00;  4.0000000E+04;  0.0000000E+00;  3.8768980E+04;  1.7612921E+00;  0.0000000E+00;  9.8303258E-02;  1.9189236E+04;
  1.3424196E+00;  9.9999998E-03;  2.7416945E-01;8420; -1.6983094E-02;  0.0000000E+00;  2.9873233E-02;  9.9979028E+02;  4.8875737E-01; -1.7371834E+02;3; -2.2647413E+01;  0.0000000E+00;  1.4548143E+01;0;  2.0009165E+00;  1.7295573E+03;  0.0000000E+00; -8.3989229E+00;  4.0000000E+04;  0.0000000E+00;  3.8739570E+04;  1.9269438E+00;  0.0000000E+00;  7.3972687E-02;  3.4360371E+04;
  1.3432351E+00;  9.9999998E-03;  2.8429434E-01;8421; -2.0637313E-02;  0.0000000E+00;  2.6732229E-02;  9.9849329E+02;  4.8961252E-01; -1.2482236E+03;3; -2.4562260E+01;  0.0000000E+00;  1.4554801E+01;0;  2.0302432E+00;  1.7223650E+03;  0.0000000E+00; -1.0920926E+01;  4.0000000E+04;  0.0000000E+00;  3.8732723E+04;  2.0098453E+00;  0.0000000E+00;  2.0397896E-02;  4.1664570E+04;
  1.3439335E+00;  9.9999998E-03;  2.9441440E-01;8422; -2.4848072E-02;  0.0000000E+00;  2.4467275E-02;  9.9709015E+02;  4.9043036E-01; -2.4106738E+03;3; -2.6798746E+01;  0.0000000E+00;  1.4795295E+01;0;  2.0594068E+00;  1.7150035E+03;  0.0000000E+00; -1.2312103E+01;  4.0000000E+04;  0.0000000E+00;  3.8746289E+04;  2.0845776E+00;  0.0000000E+00; -2.5170876E-02;  3.6301289E+04;
  1.3458179E+00;  9.9999998E-03;  3.0454823E-01;8423; -2.9823402E-02;  0.0000000E+00;  2.3771901E-02;  9.9583960E+02;  4.9208513E-01; -3.4467090E+03;3; -2.9955395E+01;  0.0000000E+00;  1.5544683E+01;0;  2.1492577E+00;  1.7028192E+03;  0.0000000E+00; -1.2438398E+01;  4.0000000E+04;  0.0000000E+00;  3.8766508E+04;  2.1905475E+00;  0.0000000E+00; -4.1289866E-02;  2.3623334E+04;
  1.3801321E+00;  9.9999998E-03;  2.4392785E-01;8478;  1.8350758E-01;  0.0000000E+00;  6.0883116E-02;  1.0066403E+03;  4.8624107E-01;  5.5010894E+03;3; -1.0049399E+00;  0.0000000E+00;  4.1791641E+01;0;  2.3281322E+00;  1.7703301E+03;  0.0000000E+00; -2.1282904E+00;  4.0000000E+04;  0.0000000E+00;  3.8705742E+04;  1.9415128E+00;  0.0000000E+00;  3.8661921E-01;  9.7274238E+03;
  1.3819528E+00;  9.9999998E-03;  2.5403482E-01;8479;  1.9125864E-01;  0.0000000E+00;  6.1597895E-02;  1.0061050E+03;  4.8650229E-01;  5.0576606E+03;3; -2.8065231E-01;  0.0000000E+00;  3.7713833E+01;0;  2.4960029E+00;  1.7674696E+03;  0.0000000E+00; -3.3837769E+00;  4.0000000E+04;  0.0000000E+00;  3.8693137E+04;  2.0470536E+00;  0.0000000E+00;  4.4894937E-01;  1.5211292E+04;
  1.3859187E+00;  9.9999998E-03;  2.6413459E-01;8480;  1.9580364E-01;  0.0000000E+00;  5.9252460E-02;  1.0054835E+03;  4.8694360E-01;  4.5427251E+03;3;  9.9456367E+00;  0.0000000E+00;  3.0903130E+01;0;  2.6276493E+00;  1.7617610E+03;  0.0000000E+00; -5.2669344E+00;  4.0000000E+04;  0.0000000E+00;  3.8694387E+04;  2.1113904E+00;  0.0000000E+00;  5.1625884E-01;  2.3638201E+04;
  1.3910334E+00;  9.9999998E-03;  2.7426970E-01;8481;  2.5482064E-01;  0.0000000E+00;  3.0882139E-02;  1.0043287E+03;  4.8745748E-01;  3.5860496E+03;3;  3.5353142E+01;  0.0000000E+00;  2.4772518E+01;0;  2.4121239E+00;  1.7546519E+03;  0.0000000E+00; -7.7027164E+00;  4.0000000E+04;  0.0000000E+00;  3.8678793E+04;  2.1224387E+00;  0.0000000E+00;  2.8968525E-01;  3.4627305E+04;
  1.3937542E+00;  9.9999998E-03;  2.8439444E-01;8482;  2.8613997E-01;  0.0000000E+00;  1.9784216E-02;  1.0032473E+03;  4.8762435E-01;  2.6901228E+03;3;  4.9829353E+01;  0.0000000E+00;  2.0753378E+01;0;  2.3024530E+00;  1.7513693E+03;  0.0000000E+00; -1.0049512E+01;  4.0000000E+04;  0.0000000E+00;  3.8677031E+04;  2.1547875E+00;  0.0000000E+00;  1.4766540E-01;  3.9567043E+04;
  1.3958948E+00;  9.9999998E-03;  2.9452288E-01;8483;  2.9854932E-01;  0.0000000E+00;  1.6205097E-02;  1.0021526E+03;  4.8760995E-01;  1.7832396E+03;3;  5.1495132E+01;  0.0000000E+00;  2.1565800E+01;0;  2.2622242E+00;  1.7499222E+03;  0.0000000E+00; -1.1595943E+01;  4.0000000E+04;  0.0000000E+00;  3.8688938E+04;  2.1841388E+00;  0.0000000E+00;  7.8085333E-02;  3.5707758E+04;
  1.3983560E+00;  9.9999998E-03;  3.0465829E-01;8484;  3.0790651E-01;  0.0000000E+00;  1.4177595E-02;  1.0009524E+03;  4.8735878E-01;  7.8896082E+02;3;  5.1662994E+01;  0.0000000E+00;  2.2393038E+01;0;  2.2277536E+00;  1.7507212E+03;  0.0000000E+00; -1.1808232E+01;  4.0000000E+04;  0.0000000E+00;  3.8711891E+04;  2.1909063E+00;  0.0000000E+00;  3.6847260E-02;  2.2330461E+04;
  1.4268364E+00;  9.9999998E-03;  2.4364620E-01;8539;  2.5780934E-01;  0.0000000E+00; -8.5645672E-03;  1.0027733E+03;  4.6244982E-01;  2.2973735E+03;3;  7.1069901E+01;  0.0000000E+00;  4.7860718E+01;0;  1.2983382E+00;  1.9360905E+03;  0.0000000E+00; -1.4106002E+00;  4.0000000E+04;  0.0000000E+00;  3.8780137E+04;  9.7389925E-01;  0.0000000E+00;  3.2443893E-01;  9.4971914E+03;
  1.4286957E+00;  9.9999998E-03;  2.5379032E-01;8540;  2.7611202E-01;  0.0000000E+00;  9.2696690E-04;  1.0027889E+03;  4.6181673E-01;  2.3103030E+03;3;  7.3921394E+01;  0.0000000E+00;  5.5292019E+01;0;  1.3798572E+00;  1.9409012E+03;  0.0000000E+00; -2.9479184E+00;  4.0000000E+04;  0.0000000E+00;  3.8786426E+04;  9.8111147E-01;  0.0000000E+00;  3.9874575E-01;  1.5970471E+04;
  1.4321164E+00;  9.9999998E-03;  2.6392430E-01;8541;  2.9386666E-01;  0.0000000E+00;  2.3826763E-02;  1.0024551E+03;  4.6100733E-01;  2.0337859E+03;3;  7.0968132E+01;  0.0000000E+00;  3.8753136E+01;0;  1.5853057E+00;  1.9449087E+03;  0.0000000E+00; -5.1682286E+00;  4.0000000E+04;  0.0000000E+00;  3.8806266E+04;  9.3596679E-01;  0.0000000E+00;  6.4933890E-01;  2.4493486E+04;
  1.4369296E+00;  9.9999998E-03;  2.7411965E-01;8542;  3.0644184E-01;  0.0000000E+00;  1.7968137E-02;  1.0010460E+03;  4.6017116E-01;  8.6653656E+02;3;  7.2118546E+01;  0.0000000E+00;  3.1028214E+01;0;  1.5447805E+00;  1.9471244E+03;  0.0000000E+00; -7.7102890E+00;  4.0000000E+04;  0.0000000E+00;  3.8779953E+04;  8.3934104E-01;  0.0000000E+00;  7.0543939E-01;  2.9039594E+04;
  1.4401282E+00;  9.9999998E-03;  2.8429186E-01;8543;  3.2022902E-01;  0.0000000E+00;  1.0038627E-02;  9.9994073E+02;  4.5938793E-01; -4.9078758E+01;3;  7.5263382E+01;  0.0000000E+00;  2.9617895E+01;0;  1.4439420E+00;  1.9514424E+03;  0.0000000E+00; -1.0093606E+01;  4.0000000E+04;  0.0000000E+00;  3.8756648E+04;  7.7626348E-01;  0.0000000E+00;  6.6767848E-01;  2.9305604E+04;
  1.4427838E+00;  9.9999998E-03;  2.9444775E-01;8544;  3.3352411E-01;  0.0000000E+00;  4.8043705E-03;  9.9889319E+02;  4.5831877E-01; -9.1683984E+02;3;  7.5120255E+01;  0.0000000E+00;  2.9989262E+01;0;  1.3255744E+00;  1.9592533E+03;  0.0000000E+00; -1.1545071E+01;  4.0000000E+04;  0.0000000E+00;  3.8751180E+04;  7.2038484E-01;  0.0000000E+00;  6.0518962E-01;  2.3509779E+04;
  1.4455496E+00;  9.9999998E-03;  3.0460030E-01;8545;  3.4692603E-01;  0.0000000E+00;  1.2934974E-03;  9.9750824E+02;  4.5692497E-01; -2.0640999E+03;3;  7.5932388E+01;  0.0000000E+00;  3.0821125E+01;0;  1.1923449E+00;  1.9702383E+03;  0.0000000E+00; -1.0938288E+01;  4.0000000E+04;  0.0000000E+00;  3.8760531E+04;  6.5512538E-01;  0.0000000E+00;  5.3721958E-01;  5.2383379E+03;
  1.4717658E+00;  9.9999998E-03;  2.4365327E-01;8600;  2.4951516E-01;  0.0000000E+00; -8.1999928E-02;  9.9383032E+02;  4.2944548E-01; -5.1104106E+03;3;  6.6040504E+01;  0.0000000E+00;  2.5111950E+01;0;  6.6905773E-01;  2.2010513E+03;  0.0000000E+00; -1.0217026E+00;  4.0000000E+04;  0.0000000E+00;  3.8826898E+04;  4.8527849E-01;  0.0000000E+00;  1.8377924E-01;  1.4525944E+04;
  1.4736204E+00;  9.9999998E-03;  2.5377807E-01;8601;  2.6330793E-01;  0.0000000E+00; -8.3380252E-02;  9.9396912E+02;  4.2846859E-01; -4.9953960E+03;3;  6.8156242E+01;  0.0000000E+00;  2.6548054E+01;0;  6.0259783E-01;  2.2098584E+03;  0.0000000E+00; -2.7603962E+00;  4.0000000E+04;  0.0000000E+00;  3.8845016E+04;  4.2796531E-01;  0.0000000E+00;  1.7463253E-01;  2.1618758E+04;
  1.4764646E+00;  9.9999998E-03;  2.6388192E-01;8602;  2.7839783E-01;  0.0000000E+00; -7.5787097E-02;  9.9419910E+02;  4.2741832E-01; -4.8048789E+03;3;  7.1561516E+01;  0.0000000E+00;  3.3336609E+01;0;  5.9852493E-01;  2.2178772E+03;  0.0000000E+00; -5.1704059E+00;  4.0000000E+04;  0.0000000E+00;  3.8891715E+04;  3.8203344E-01;  0.0000000E+00;  2.1649152E-01;  3.1133881E+04;
  1.4809428E+00;  9.9999998E-03;  2.7401954E-01;8603;  2.9383859E-01;  0.0000000E+00; -4.0865231E-02;  9.9403998E+02;  4.2611864E-01; -4.9366226E+03;3;  7.2270821E+01;  0.0000000E+00;  4.1723103E+01;0;  9.6126091E-01;  2.2266960E+03;  0.0000000E+00; -7.8510833E+00;  4.0000000E+04;  0.0000000E+00;  3.8934953E+04;  3.5581693E-01;  0.0000000E+00;  6.0544401E-01;  3.7231000E+04;
  1.4846456E+00;  9.9999998E-03;  2.8421715E-01;8604;  3.0585250E-01;  0.0000000E+00; -3.8061000E-02;  9.9303827E+02;  4.2456946E-01; -5.7662026E+03;3;  7.5656326E+01;  0.0000000E+00;  4.0735317E+01;0;  1.0269367E+00;  2.2399189E+03;  0.0000000E+00; -1.0446549E+01;  4.0000000E+04;  0.0000000E+00;  3.8909797E+04;  3.2953009E-01;  0.0000000E+00;  6.9740653E-01;  3.6579633E+04;
  1.4877639E+00;  9.9999998E-03;  2.9439637E-01;8605;  3.1677175E-01;  0.0000000E+00; -4.2949259E-02;  9.9164838E+02;  4.2266443E-01; -6.9173560E+03;3;  7.9768906E+01;  0.0000000E+00;  4.1849258E+01;0;  9.3782389E-01;  2.2579675E+03;  0.0000000E+00; -1.1677402E+01;  4.0000000E+04;  0.0000000E+00;  3.8887840E+04;  3.0393901E-01;  0.0000000E+00;  6.3388485E-01;  2.9278555E+04;
  1.4908158E+00;  9.9999998E-03;  3.0456242E-01;8606;  3.2576284E-01;  0.0000000E+00; -4.5881301E-02;  9.8964075E+02;  4.2062557E-01; -8.5800791E+03;3;  8.5328568E+01;  0.0000000E+00;  4.0100315E+01;0;  8.4578830E-01;  2.2775632E+03;  0.0000000E+00; -9.2586279E+00;  4.0000000E+04;  0.0000000E+00;  3.8882059E+04;  2.8563493E-01;  0.0000000E+00;  5.6015337E-01;  1.7046775E+04;
  1.5147289E+00;  9.9999998E-03;  2.4381083E-01;8661;  2.4064916E-01;  0.0000000E+00; -1.3715200E-01;  9.8723956E+02;  3.9248911E-01; -1.0567665E+04;3;  5.9448078E+01;  0.0000000E+00;  1.3589788E+01;0;  1.9194818E+00;  2.5957861E+03;  0.0000000E+00; -1.0160934E+00;  4.0000000E+04;  0.0000000E+00;  3.8864047E+04;  2.0120180E+00;  0.0000000E+00; -9.2536181E-02;  1.9808844E+04;
  1.5163025E+00;  9.9999998E-03;  2.5395468E-01;8662;  2.5038698E-01;  0.0000000E+00; -1.3979322E-01;  9.8719501E+02;  3.9139372E-01; -1.0604440E+04;3;  5.9226112E+01;  0.0000000E+00;  1.9705532E+01;0;  1.7636287E+00;  2.6082273E+03;  0.0000000E+00; -3.2706060E+00;  4.0000000E+04;  0.0000000E+00;  3.8866066E+04;  1.9052941E+00;  0.0000000E+00; -1.4166540E-01;  2.8618693E+04;
  1.5184857E+00;  9.9999998E-03;  2.6406130E-01;8663;  2.5968209E-01;  0.0000000E+00; -1.3973027E-01;  9.8760504E+02;  3.9026615E-01; -1.0264744E+04;3;  6.4392593E+01;  0.0000000E+00;  2.2758766E+01;0;  1.6400957E+00;  2.6216846E+03;  0.0000000E+00; -6.3666444E+00;  4.0000000E+04;  0.0000000E+00;  3.8894219E+04;  1.8558792E+00;  0.0000000E+00; -2.1578343E-01;  4.0769648E+04;
  1.5218998E+00;  9.9999998E-03;  2.7413046E-01;8664;  2.6938120E-01;  0.0000000E+00; -1.2379722E-01;  9.8877301E+02;  3.8879943E-01; -9.2973164E+03;3;  7.1965935E+01;  0.0000000E+00;  3.7347103E+01;0;  1.7534623E+00;  2.6400767E+03;  0.0000000E+00; -9.9119186E+00;  4.0000000E+04;  0.0000000E+00;  3.8974598E+04;  1.9039718E+00;  0.0000000E+00; -1.5050954E-01;  5.4388871E+04;
  1.5254484E+00;  9.9999998E-03;  2.8426942E-01;8665;  2.8369334E-01;  0.0000000E+00; -9.0574838E-02;  9.8900140E+02;  3.8683805E-01; -9.1079531E+03;3;  7.7661659E+01;  0.0000000E+00;  3.3350071E+01;0;  2.2076714E+00;  2.6656443E+03;  0.0000000E+00; -1.3241187E+01;  4.0000000E+04;  0.0000000E+00;  3.9006871E+04;  1.9810188E+00;  0.0000000E+00;  2.2665259E-01;  6.4142766E+04;
  1.5289396E+00;  9.9999998E-03;  2.9446051E-01;8666;  2.9125854E-01;  0.0000000E+00; -6.9302022E-02;  9.8738141E+02;  3.8428852E-01; -1.0449214E+04;3;  8.3032715E+01;  0.0000000E+00;  8.0816156E-01;0;  2.6368616E+00;  2.6987932E+03;  0.0000000E+00; -1.4136524E+01;  4.0000000E+04;  0.0000000E+00;  3.8970574E+04;  2.0798705E+00;  0.0000000E+00;  5.5699104E-01;  5.6845500E+04;
  1.5324943E+00;  9.9999998E-03;  3.0464199E-01;8667;  2.9304916E-01;  0.0000000E+00; -7.5960226E-02;  9.8471643E+02;  3.8174987E-01; -1.2655697E+04;3;  9.9594452E+01;  0.0000000E+00; -2.3779669E+01;0;  2.6378415E+00;  2.7315417E+03;  0.0000000E+00; -8.8153524E+00;  4.0000000E+04;  0.0000000E+00;  3.8938934E+04;  2.2115693E+00;  0.0000000E+00;  4.2627224E-01;  2.0800092E+04;
  1.5542724E+00;  9.9999998E-03;  2.4393895E-01;8722;  2.2824231E-01;  0.0000000E+00; -1.3779132E-01;  9.8663843E+02;  3.5339630E-01; -1.1061982E+04;3;  3.3578735E+01;  0.0000000E+00; -4.3514343E+01;0;  4.6967077E+00;  3.1942280E+03;  0.0000000E+00; -1.9640646E+00;  4.0000000E+04;  0.0000000E+00;  3.8872812E+04;  5.0529914E+00;  0.0000000E+00; -3.5628355E-01;  2.6079186E+04;
  1.5557834E+00;  9.9999998E-03;  2.5411212E-01;8723;  2.3429805E-01;  0.0000000E+00; -1.4220710E-01;  9.8644543E+02;  3.5227898E-01; -1.1221583E+04;3;  4.7962055E+01;  0.0000000E+00; -4.2849701E+01;0;  4.5216923E+00;  3.2116172E+03;  0.0000000E+00; -5.4778852E+00;  4.0000000E+04;  0.0000000E+00;  3.8858863E+04;  4.9633441E+00;  0.0000000E+00; -4.4165158E-01;  4.2420707E+04;
  1.5567424E+00;  9.9999998E-03;  2.6426810E-01;8724;  2.4172674E-01;  0.0000000E+00; -1.4852639E-01;  9.8637207E+02;  3.5147280E-01; -1.1282210E+04;3;  6.0466328E+01;  0.0000000E+00; -4.1855293E+01;0;  4.2595286E+00;  3.2252451E+03;  0.0000000E+00; -9.9599094E+00;  4.0000000E+04;  0.0000000E+00;  3.8840469E+04;  4.8455110E+00;  0.0000000E+00; -5.8598220E-01;  6.2773043E+04;
  1.5579400E+00;  9.9999998E-03;  2.7437967E-01;8725;  2.5174880E-01;  0.0000000E+00; -1.5488510E-01;  9.8680847E+02;  3.5063887E-01; -1.0920760E+04;3;  6.1247456E+01;  0.0000000E+00; -3.8703918E+01;0;  3.9711013E+00;  3.2412322E+03;  0.0000000E+00; -1.4548297E+01;  4.0000000E+04;  0.0000000E+00;  3.8850207E+04;  4.7651157E+00;  0.0000000E+00; -7.9401433E-01;  8.1436031E+04;
  1.5608193E+00;  9.9999998E-03;  2.8445593E-01;8726;  2.6115900E-01;  0.0000000E+00; -1.5287621E-01;  9.8769440E+02;  3.4881851E-01; -1.0187018E+04;3;  4.7372326E+01;  0.0000000E+00; -2.6078705E+01;0;  3.8917105E+00;  3.2761646E+03;  0.0000000E+00; -1.8355732E+01;  4.0000000E+04;  0.0000000E+00;  3.8914117E+04;  4.8502188E+00;  0.0000000E+00; -9.5850819E-01;  9.7300234E+04;
  1.5650127E+00;  9.9999998E-03;  2.9455289E-01;8727;  2.5914964E-01;  0.0000000E+00; -1.3189338E-01;  9.8726215E+02;  3.4577510E-01; -1.0544318E+04;3;  7.4579529E+01;  0.0000000E+00; -4.0814967E+00;0;  4.2677188E+00;  3.3329404E+03;  0.0000000E+00; -1.8091513E+01;  4.0000000E+04;  0.0000000E+00;  3.8980426E+04;  5.0781288E+00;  0.0000000E+00; -8.1041002E-01;  9.2284852E+04;
  1.5696880E+00;  9.9999998E-03;  3.0467978E-01;8728;  2.5065169E-01;  0.0000000E+00; -9.6502319E-02;  9.8526318E+02;  3.4293333E-01; -1.2198308E+04;3;  7.0566231E+01;  0.0000000E+00;  3.3529732E+01;0;  5.0485058E+00;  3.3856182E+03;  0.0000000E+00; -7.6956506E+00;  4.0000000E+04;  0.0000000E+00;  3.9020113E+04;  5.3703685E+00;  0.0000000E+00; -3.2186279E-01;  3.9076906E+04;
  1.5888257E+00;  9.9999998E-03;  2.7447793E-01;8786;  4.4664526E-01;  0.0000000E+00; -9.4636932E-02;  9.8963342E+02;  3.1572837E-01; -8.5783086E+03;3; -1.6469943E+02;  0.0000000E+00; -5.4315422E+01;0;  6.2182503E+00;  4.0263833E+03;  0.0000000E+00; -1.8991302E+01;  4.0000000E+04;  0.0000000E+00;  3.8788020E+04;  6.8980608E+00;  0.0000000E+00; -6.7981052E-01;  9.9098680E+04;
  1.5904949E+00;  9.9999998E-03;  2.6432911E-01;8785;  5.2533007E-01;  0.0000000E+00; -7.8153312E-02;  9.9023053E+02;  3.1537470E-01; -8.0839995E+03;3; -1.5738289E+02;  0.0000000E+00; -5.3990803E+01;0;  6.5015974E+00;  4.0388103E+03;  0.0000000E+00; -1.5530168E+01;  4.0000000E+04;  0.0000000E+00;  3.8811070E+04;  7.0144887E+00;  0.0000000E+00; -5.1289111E-01;  9.0048008E+04;
  1.5899386E+00;  9.9999998E-03;  2.8459382E-01;8787;  4.1483080E-01;  0.0000000E+00; -1.0048100E-01;  9.8944055E+02;  3.1458414E-01; -8.7377422E+03;3; -1.7358760E+02;  0.0000000E+00; -5.0082867E+01;0;  6.0698967E+00;  4.0558057E+03;  0.0000000E+00; -2.1354944E+01;  4.0000000E+04;  0.0000000E+00;  3.8797098E+04;  6.8944516E+00;  0.0000000E+00; -8.2455480E-01;  1.0414588E+05;
  1.5915183E+00;  9.9999998E-03;  2.4391373E-01;8783;  6.2066889E-01;  0.0000000E+00; -6.5927275E-02;  9.9178638E+02;  3.1534165E-01; -6.7964390E+03;3; -1.5094334E+02;  0.0000000E+00; -5.5320492E+01;0;  6.7285495E+00;  4.0500979E+03;  0.0000000E+00; -5.4116921E+00;  4.0000000E+04;  0.0000000E+00;  3.8875215E+04;  7.1366138E+00;  0.0000000E+00; -4.0806416E-01;  4.0702961E+04;
  1.5920385E+00;  9.9999998E-03;  2.5413951E-01;8784;  5.9694952E-01;  0.0000000E+00; -6.7975469E-02;  9.9117334E+02;  3.1496313E-01; -7.3036284E+03;3; -1.5332063E+02;  0.0000000E+00; -5.4616943E+01;0;  6.6643186E+00;  4.0551409E+03;  0.0000000E+00; -1.0570230E+01;  4.0000000E+04;  0.0000000E+00;  3.8846016E+04;  7.1058388E+00;  0.0000000E+00; -4.4152004E-01;  6.7706281E+04;
  1.5951391E+00;  9.9999998E-03;  2.9468247E-01;8788;  4.6999004E-01;  0.0000000E+00; -9.3223765E-02;  9.8855951E+02;  3.1136504E-01; -9.4658916E+03;3; -1.8110646E+02;  0.0000000E+00; -4.3152428E+01;0;  6.2048073E+00;  4.1400752E+03;  0.0000000E+00; -1.9959291E+01;  4.0000000E+04;  0.0000000E+00;  3.8859480E+04;  7.0667634E+00;  0.0000000E+00; -8.6195606E-01;  1.0327116E+05;
  1.6012071E+00;  9.9999998E-03;  3.0477059E-01;8789;  5.4148817E-01;  0.0000000E+00; -8.6876556E-02;  9.8622266E+02;  3.0877063E-01; -1.1397946E+04;3; -1.8735393E+02;  0.0000000E+00; -3.6483315E+01;0;  6.3669972E+00;  4.2023823E+03;  0.0000000E+00; -4.4319448E+00;  4.0000000E+04;  0.0000000E+00;  3.8942426E+04;  7.2528586E+00;  0.0000000E+00; -8.8586140E-01;  4.5954566E+04;
  1.6167394E+00;  9.9999998E-03;  2.7446261E-01;8847;  7.6022887E-01;  0.0000000E+00; -2.9219564E-02;  9.9479620E+02;  2.8496537E-01; -4.3034712E+03;3; -1.8333475E+02;  0.0000000E+00; -5.8240898E+01;0;  6.8738527E+00;  4.9970049E+03;  0.0000000E+00; -1.9022215E+01;  4.0000000E+04;  0.0000000E+00;  3.8774762E+04;  7.4025750E+00;  0.0000000E+00; -5.2872235E-01;  9.0869828E+04;
  1.6170033E+00;  9.9999998E-03;  2.8460410E-01;8848;  7.1174806E-01;  0.0000000E+00; -4.0252846E-02;  9.9439838E+02;  2.8431144E-01; -4.6324648E+03;3; -1.9926125E+02;  0.0000000E+00; -5.7530277E+01;0;  6.8026590E+00;  5.0205029E+03;  0.0000000E+00; -1.9818863E+01;  4.0000000E+04;  0.0000000E+00;  3.8769434E+04;  7.4547262E+00;  0.0000000E+00; -6.5206707E-01;  8.7112344E+04;
  1.6193322E+00;  9.9999998E-03;  2.6429135E-01;8846;  8.4182453E-01;  0.0000000E+00; -8.4765777E-03;  9.9524438E+02;  2.8398332E-01; -3.9325610E+03;3; -1.6725839E+02;  0.0000000E+00; -5.5255398E+01;0;  6.8943205E+00;  5.0363618E+03;  0.0000000E+00; -1.7981554E+01;  4.0000000E+04;  0.0000000E+00;  3.8799543E+04;  7.2854805E+00;  0.0000000E+00; -3.9116007E-01;  9.7645008E+04;
  1.6223209E+00;  9.9999998E-03;  2.5410843E-01;8845;  9.2110199E-01;  0.0000000E+00;  7.4848342E-03;  9.9631281E+02;  2.8269330E-01; -3.0487971E+03;3; -1.4826460E+02;  0.0000000E+00; -5.2721920E+01;0;  6.7682295E+00;  5.0932295E+03;  0.0000000E+00; -1.4368587E+01;  4.0000000E+04;  0.0000000E+00;  3.8819195E+04;  7.1035318E+00;  0.0000000E+00; -3.3530235E-01;  8.6516023E+04;
  1.6229084E+00;  9.9999998E-03;  2.4389867E-01;8844;  9.5762444E-01;  0.0000000E+00;  1.3007241E-02;  9.9751355E+02;  2.8238246E-01; -2.0559226E+03;3; -1.3847595E+02;  0.0000000E+00; -5.1757111E+01;0;  6.6338062E+00;  5.1144043E+03;  0.0000000E+00; -8.4104939E+00;  4.0000000E+04;  0.0000000E+00;  3.8841867E+04;  6.9567246E+00;  0.0000000E+00; -3.2291847E-01;  5.5326238E+04;
  1.6216921E+00;  9.9999998E-03;  2.9471216E-01;8849;  7.5908446E-01;  0.0000000E+00; -3.4774616E-02;  9.9210175E+02;  2.8160071E-01; -6.5308770E+03;3; -2.0105150E+02;  0.0000000E+00; -5.1833603E+01;0;  6.8222756E+00;  5.1124761E+03;  0.0000000E+00; -1.7441301E+01;  4.0000000E+04;  0.0000000E+00;  3.8809090E+04;  7.4626141E+00;  0.0000000E+00; -6.4033854E-01;  9.0355805E+04;
  1.6271671E+00;  9.9999998E-03;  3.0480307E-01;8850;  8.4995639E-01;  0.0000000E+00; -3.7754871E-02;  9.8764685E+02;  2.8007102E-01; -1.0212787E+04;3; -1.8479259E+02;  0.0000000E+00; -4.7058216E+01;0;  6.6982236E+00;  5.1383486E+03;  0.0000000E+00;  3.3933339E+00;  4.0000000E+04;  0.0000000E+00;  3.8885566E+04;  7.4626579E+00;  0.0000000E+00; -7.6443446E-01;  2.5883225E+04;
  1.6419708E+00;  9.9999998E-03;  2.7440882E-01;8908;  1.0264881E+00;  0.0000000E+00;  2.6652159E-02;  9.9933679E+02;  2.5868016E-01; -5.4802344E+02;3; -1.5013440E+02;  0.0000000E+00; -5.2420261E+01;0;  6.2627888E+00;  6.1237153E+03;  0.0000000E+00; -1.4070221E+01;  4.0000000E+04;  0.0000000E+00;  3.8771227E+04;  6.6087599E+00;  0.0000000E+00; -3.4597105E-01;  6.5375598E+04;
  1.6421274E+00;  9.9999998E-03;  2.8457540E-01;8909;  9.9865013E-01;  0.0000000E+00;  1.7251883E-02;  9.9880920E+02;  2.5827968E-01; -9.8394403E+02;3; -1.6413249E+02;  0.0000000E+00; -5.2503582E+01;0;  6.3384643E+00;  6.1440957E+03;  0.0000000E+00; -1.5417207E+01;  4.0000000E+04;  0.0000000E+00;  3.8754816E+04;  6.7462311E+00;  0.0000000E+00; -4.0776667E-01;  6.8274664E+04;
  1.6442760E+00;  9.9999998E-03;  2.6420793E-01;8907;  1.0785512E+00;  0.0000000E+00;  4.2366326E-02;  9.9942609E+02;  2.5771639E-01; -4.7420078E+02;3; -1.2852029E+02;  0.0000000E+00; -4.8180237E+01;0;  6.0477977E+00;  6.1706426E+03;  0.0000000E+00; -1.4542640E+01;  4.0000000E+04;  0.0000000E+00;  3.8804852E+04;  6.3125634E+00;  0.0000000E+00; -2.6476595E-01;  7.6107336E+04;
  1.6455981E+00;  9.9999998E-03;  2.9469484E-01;8910;  1.0197445E+00;  0.0000000E+00;  1.5389177E-02;  9.9550604E+02;  2.5642049E-01; -3.7128362E+03;3; -1.6179936E+02;  0.0000000E+00; -5.0199116E+01;0;  6.2833581E+00;  6.2181216E+03;  0.0000000E+00; -1.1438883E+01;  4.0000000E+04;  0.0000000E+00;  3.8792590E+04;  6.7131782E+00;  0.0000000E+00; -4.2981997E-01;  6.6162273E+04;
  1.6474757E+00;  9.9999998E-03;  2.5400952E-01;8906;  1.1302092E+00;  0.0000000E+00;  5.6214839E-02;  1.0000187E+03;  2.5621173E-01;  1.5461544E+01;3; -1.0407594E+02;  0.0000000E+00; -4.2400154E+01;0;  5.7022071E+00;  6.2527422E+03;  0.0000000E+00; -1.3711305E+01;  4.0000000E+04;  0.0000000E+00;  3.8819094E+04;  5.9247375E+00;  0.0000000E+00; -2.2253047E-01;  7.8897078E+04;
  1.6489692E+00;  9.9999998E-03;  3.0480886E-01;8911;  1.0682390E+00;  0.0000000E+00;  9.6502798E-03;  9.8999969E+02;  2.5619316E-01; -8.2609053E+03;3; -1.4591534E+02;  0.0000000E+00; -5.3985634E+01;0;  6.2053595E+00;  6.1724326E+03;  0.0000000E+00;  1.4808260E+01;  4.0000000E+04;  0.0000000E+00;  3.8845855E+04;  6.7130551E+00;  0.0000000E+00; -5.0769573E-01;  1.9249721E+04;
  1.6489685E+00;  9.9999998E-03;  2.4381363E-01;8905;  1.1590328E+00;  0.0000000E+00;  6.2442794E-02;  1.0013083E+03;  2.5532401E-01;  1.0807614E+03;3; -8.8558601E+01;  0.0000000E+00; -4.0570343E+01;0;  5.4013000E+00;  6.3108730E+03;  0.0000000E+00; -9.0069256E+00;  4.0000000E+04;  0.0000000E+00;  3.8826848E+04;  5.6147528E+00;  0.0000000E+00; -2.1345292E-01;  5.6234648E+04;
  1.6651182E+00;  9.9999998E-03;  2.7435684E-01;8968;  1.2036819E+00;  0.0000000E+00;  7.2741710E-02;  1.0014219E+03;  2.3641430E-01;  1.1736738E+03;3; -8.7972473E+01;  0.0000000E+00; -4.3772579E+01;0;  5.1078143E+00;  7.3728438E+03;  0.0000000E+00; -8.9905148E+00;  4.0000000E+04;  0.0000000E+00;  3.8767277E+04;  5.1921639E+00;  0.0000000E+00; -8.4349670E-02;  4.2778289E+04;
  1.6649842E+00;  9.9999998E-03;  2.8453648E-01;8969;  1.1874349E+00;  0.0000000E+00;  6.3305423E-02;  1.0007722E+03;  2.3623917E-01;  6.3731909E+02;3; -1.0005647E+02;  0.0000000E+00; -4.5584606E+01;0;  5.2703595E+00;  7.3852871E+03;  0.0000000E+00; -1.0420081E+01;  4.0000000E+04;  0.0000000E+00;  3.8751379E+04;  5.3967867E+00;  0.0000000E+00; -1.2642731E-01;  4.6910184E+04;
  1.6670675E+00;  9.9999998E-03;  2.6414648E-01;8967;  1.2280036E+00;  0.0000000E+00;  8.3531410E-02;  1.0012968E+03;  2.3562132E-01;  1.0702402E+03;3; -6.8583405E+01;  0.0000000E+00; -3.7938229E+01;0;  4.7833219E+00;  7.4197529E+03;  0.0000000E+00; -9.5573578E+00;  4.0000000E+04;  0.0000000E+00;  3.8800039E+04;  4.8411942E+00;  0.0000000E+00; -5.7872418E-02;  5.0242840E+04;
  1.6673996E+00;  9.9999998E-03;  2.9467010E-01;8970;  1.1941301E+00;  0.0000000E+00;  5.8926467E-02;  9.9670239E+02;  2.3522903E-01; -2.7215442E+03;3; -9.8569023E+01;  0.0000000E+00; -4.6303886E+01;0;  5.2767811E+00;  7.4176431E+03;  0.0000000E+00; -3.3733177E+00;  4.0000000E+04;  0.0000000E+00;  3.8785457E+04;  5.4195528E+00;  0.0000000E+00; -1.4277190E-01;  3.7075285E+04;
  1.6697193E+00;  9.9999998E-03;  2.5393978E-01;8966;  1.2484889E+00;  0.0000000E+00;  9.1611631E-02;  1.0016042E+03;  2.3438081E-01;  1.3237729E+03;3; -4.7541035E+01;  0.0000000E+00; -3.3523163E+01;0;  4.3669386E+00;  7.5047764E+03;  0.0000000E+00; -1.0075120E+01;  4.0000000E+04;  0.0000000E+00;  3.8813309E+04;  4.4258008E+00;  0.0000000E+00; -5.8862291E-02;  5.6287801E+04;
  1.6714257E+00;  9.9999998E-03;  2.4375089E-01;8965;  1.2592471E+00;  0.0000000E+00;  9.6065730E-02;  1.0028105E+03;  2.3339215E-01;  2.3190454E+03;3; -3.2018177E+01;  0.0000000E+00; -3.0966202E+01;0;  4.0064039E+00;  7.5852598E+03;  0.0000000E+00; -7.1286874E+00;  4.0000000E+04;  0.0000000E+00;  3.8812043E+04;  4.0734377E+00;  0.0000000E+00; -6.7033827E-02;  4.3321621E+04;
  1.6857033E+00;  9.9999998E-03;  2.8450823E-01;9028;  1.2833735E+00;  0.0000000E+00;  9.3188792E-02;  1.0006449E+03;  2.1791764E-01;  5.3161597E+02;3; -3.9900730E+01;  0.0000000E+00; -3.2535538E+01;0;  4.0490942E+00;  8.6899678E+03;  0.0000000E+00; -5.9458122E+00;  4.0000000E+04;  0.0000000E+00;  3.8759895E+04;  3.9514470E+00;  0.0000000E+00;  9.7647421E-02;  2.7503328E+04;
  1.6860311E+00;  9.9999998E-03;  2.7432165E-01;9027;  1.2896284E+00;  0.0000000E+00;  1.0051853E-01;  1.0014718E+03;  2.1792081E-01;  1.2131552E+03;3; -2.9617950E+01;  0.0000000E+00; -2.9734901E+01;0;  3.8459990E+00;  8.6897695E+03;  0.0000000E+00; -4.7924418E+00;  4.0000000E+04;  0.0000000E+00;  3.8771746E+04;  3.7269387E+00;  0.0000000E+00;  1.1906032E-01;  2.2615574E+04;
  1.6869844E+00;  9.9999998E-03;  2.9465491E-01;9029;  1.2856369E+00;  0.0000000E+00;  8.8957138E-02;  9.9662952E+02;  2.1764646E-01; -2.7780378E+03;3; -4.3201111E+01;  0.0000000E+00; -3.3525208E+01;0;  4.1542406E+00;  8.6659873E+03;  0.0000000E+00;  6.6844563E+00;  4.0000000E+04;  0.0000000E+00;  3.8789891E+04;  4.0618329E+00;  0.0000000E+00;  9.2407733E-02;  5.3673428E+03;
  1.6876910E+00;  9.9999998E-03;  2.6410517E-01;9026;  1.2966883E+00;  0.0000000E+00;  1.0836419E-01;  1.0012781E+03;  2.1728139E-01;  1.0533441E+03;3; -1.5929256E+01;  0.0000000E+00; -2.5687548E+01;0;  3.5283821E+00;  8.7349785E+03;  0.0000000E+00; -4.2051525E+00;  4.0000000E+04;  0.0000000E+00;  3.8802480E+04;  3.4032073E+00;  0.0000000E+00;  1.2517469E-01;  2.3118543E+04;
  1.6898614E+00;  9.9999998E-03;  2.5388318E-01;9025;  1.2995787E+00;  0.0000000E+00;  1.1321324E-01;  1.0015404E+03;  2.1631223E-01;  1.2693770E+03;3; -3.5711930E+00;  0.0000000E+00; -2.1172016E+01;0;  3.1458070E+00;  8.8169531E+03;  0.0000000E+00; -4.6722946E+00;  4.0000000E+04;  0.0000000E+00;  3.8820117E+04;  3.0464542E+00;  0.0000000E+00;  9.9352784E-02;  2.7418627E+04;
  1.6915717E+00;  9.9999998E-03;  2.4367717E-01;9024;  1.2982634E+00;  0.0000000E+00;  1.1501507E-01;  1.0027139E+03;  2.1541534E-01;  2.2360808E+03;3;  3.7736521E+00;  0.0000000E+00; -1.8305786E+01;0;  2.7980516E+00;  8.9084062E+03;  0.0000000E+00; -3.1683304E+00;  4.0000000E+04;  0.0000000E+00;  3.8817082E+04;  2.7296906E+00;  0.0000000E+00;  6.8360999E-02;  2.2255156E+04;
  1.7043289E+00;  9.9999998E-03;  2.9467884E-01;9088;  1.3257984E+00;  0.0000000E+00;  1.0316689E-01;  9.9748456E+02;  2.0306848E-01; -2.0701626E+03;3; -4.4859228E+00;  0.0000000E+00; -1.9651464E+01;0;  3.0949726E+00;  9.9633975E+03;  0.0000000E+00;  1.8300720E+01;  4.0000000E+04;  0.0000000E+00;  3.8778070E+04;  2.9053206E+00;  0.0000000E+00;  1.8965200E-01;  3.2802402E+04;
  1.7044158E+00;  9.9999998E-03;  2.8451255E-01;9087;  1.3229225E+00;  0.0000000E+00;  1.0613666E-01;  9.9981744E+02;  2.0278974E-01; -1.5025008E+02;3; -2.9790249E-02;  0.0000000E+00; -1.7572117E+01;0;  2.9022238E+00;  1.0026465E+04;  0.0000000E+00; -6.3971639E-02;  4.0000000E+04;  0.0000000E+00;  3.8766594E+04;  2.7130151E+00;  0.0000000E+00;  1.8920875E-01;  7.3028696E+03;
  1.7050594E+00;  9.9999998E-03;  2.7431861E-01;9086;  1.3225185E+00;  0.0000000E+00;  1.1106332E-01;  1.0004389E+03;  2.0261969E-01;  3.6120493E+02;3;  6.7691131E+00;  0.0000000E+00; -1.5027291E+01;0;  2.6990898E+00;  1.0040778E+04;  0.0000000E+00; -6.5526414E-01;  4.0000000E+04;  0.0000000E+00;  3.8779141E+04;  2.4937878E+00;  0.0000000E+00;  2.0530194E-01;  5.1976753E+03;
  1.7066369E+00;  9.9999998E-03;  2.6409584E-01;9085;  1.3211403E+00;  0.0000000E+00;  1.1576963E-01;  1.0000244E+03;  2.0207392E-01;  2.0009249E+01;3;  1.3957269E+01;  0.0000000E+00; -1.1188111E+01;0;  2.4277868E+00;  1.0083102E+04;  0.0000000E+00;  9.2023593E-01;  4.0000000E+04;  0.0000000E+00;  3.8808984E+04;  2.2229009E+00;  0.0000000E+00;  2.0488590E-01;  2.1252388E+03;
  1.7085010E+00;  9.9999998E-03;  2.5386342E-01;9084;  1.3168426E+00;  0.0000000E+00;  1.1778516E-01;  1.0002056E+03;  2.0129271E-01;  1.6906511E+02;3;  1.8628244E+01;  0.0000000E+00; -8.1170101E+00;0;  2.1214712E+00;  1.0163272E+04;  0.0000000E+00;  1.4903857E+00;  4.0000000E+04;  0.0000000E+00;  3.8827391E+04;  1.9462405E+00;  0.0000000E+00;  1.7523068E-01;  1.5174529E+03;
  1.7102128E+00;  9.9999998E-03;  2.4364072E-01;9083;  1.3108613E+00;  0.0000000E+00;  1.1777049E-01;  1.0012775E+03;  2.0049222E-01;  1.0507776E+03;3;  2.1041174E+01;  0.0000000E+00; -6.1935763E+00;0;  1.8385340E+00;  1.0263038E+04;  0.0000000E+00;  1.9839450E+00;  4.0000000E+04;  0.0000000E+00;  3.8823340E+04;  1.6943851E+00;  0.0000000E+00;  1.4414896E-01;  1.6226298E+03;
  1.7201446E+00;  9.9999998E-03;  2.9475293E-01;9147;  1.3407845E+00;  0.0000000E+00;  1.0693944E-01;  1.0000099E+03;  1.9078954E-01;  8.1285915E+00;3;  1.3856784E+01;  0.0000000E+00; -9.7208986E+00;0;  2.1862786E+00;  1.1331530E+04;  0.0000000E+00;  2.6280025E+01;  4.0000000E+04;  0.0000000E+00;  3.8737176E+04;  1.9917789E+00;  0.0000000E+00;  1.9449975E-01;  4.9071109E+04;
  1.7214218E+00;  9.9999998E-03;  2.8456742E-01;9146;  1.3363225E+00;  0.0000000E+00;  1.0809239E-01;  9.9959021E+02;  1.9025862E-01; -3.3659689E+02;3;  1.8395973E+01;  0.0000000E+00; -7.3869829E+00;0;  1.9588370E+00;  1.1390337E+04;  0.0000000E+00;  7.5666595E+00;  4.0000000E+04;  0.0000000E+00;  3.8752402E+04;  1.7682452E+00;  0.0000000E+00;  1.9059187E-01;  1.7599908E+04;
  1.7224830E+00;  9.9999998E-03;  2.7436632E-01;9145;  1.3323432E+00;  0.0000000E+00;  1.1050327E-01;  9.9935828E+02;  1.8995425E-01; -5.2702692E+02;3;  2.1756674E+01;  0.0000000E+00; -5.3036094E+00;0;  1.7748349E+00;  1.1409167E+04;  0.0000000E+00;  4.4388561E+00;  4.0000000E+04;  0.0000000E+00;  3.8771336E+04;  1.5713196E+00;  0.0000000E+00;  2.0351535E-01;  1.8207754E+04;
  1.7241433E+00;  9.9999998E-03;  2.6414022E-01;9144;  1.3273721E+00;  0.0000000E+00;  1.1257289E-01;  9.9829248E+02;  1.8946387E-01; -1.4020499E+03;3;  2.5165606E+01;  0.0000000E+00; -2.8123841E+00;0;  1.5654590E+00;  1.1441470E+04;  0.0000000E+00;  6.0175719E+00;  4.0000000E+04;  0.0000000E+00;  3.8802363E+04;  1.3583578E+00;  0.0000000E+00;  2.0710117E-01;  2.2676174E+04;
  1.7259821E+00;  9.9999998E-03;  2.5390401E-01;9143;  1.3209822E+00;  0.0000000E+00;  1.1304934E-01;  9.9796124E+02;  1.8880625E-01; -1.6736588E+03;3;  2.7098072E+01;  0.0000000E+00; -1.3241085E+00;0;  1.3457251E+00;  1.1513910E+04;  0.0000000E+00;  7.0024924E+00;  4.0000000E+04;  0.0000000E+00;  3.8820840E+04;  1.1526475E+00;  0.0000000E+00;  1.9307752E-01;  2.4578262E+04;
  1.7276202E+00;  9.9999998E-03;  2.4367046E-01;9142;  1.3137817E+00;  0.0000000E+00;  1.1244005E-01;  9.9889209E+02;  1.8812269E-01; -9.0931067E+02;3;  2.8061872E+01;  0.0000000E+00;  4.3684985E-02;0;  1.1486585E+00;  1.1616139E+04;  0.0000000E+00;  7.7868862E+00;  4.0000000E+04;  0.0000000E+00;  3.8817684E+04;  9.7140253E-01;  0.0000000E+00;  1.7725593E-01;  2.5233283E+04;
  1.7372122E+00;  9.9999998E-03;  2.8467485E-01;9204;  1.3398657E+00;  0.0000000E+00;  1.0452773E-01;  1.0004682E+03;  1.7976797E-01;  3.8375995E+02;3;  2.5359301E+01;  0.0000000E+00; -1.3684943E+00;0;  1.2431579E+00;  1.2783596E+04;  0.0000000E+00;  1.3683438E+01;  4.0000000E+04;  0.0000000E+00;  3.8712602E+04;  1.0898879E+00;  0.0000000E+00;  1.5327004E-01;  2.7064330E+04;
  1.7386893E+00;  9.9999998E-03;  2.7447081E-01;9203;  1.3344374E+00;  0.0000000E+00;  1.0518403E-01;  9.9883142E+02;  1.7940156E-01; -9.5751044E+02;3;  2.7469576E+01;  0.0000000E+00; -8.1069462E-02;0;  1.0934942E+00;  1.2788555E+04;  0.0000000E+00;  9.2558012E+00;  4.0000000E+04;  0.0000000E+00;  3.8741230E+04;  9.2422450E-01;  0.0000000E+00;  1.6926964E-01;  3.1548734E+04;
  1.7404379E+00;  9.9999998E-03;  2.6424429E-01;9202;  1.3283619E+00;  0.0000000E+00;  1.0586955E-01;  9.9685675E+02;  1.7897834E-01; -2.5747075E+03;3;  2.8973961E+01;  0.0000000E+00;  1.2614647E+00;0;  9.5015013E-01;  1.2797752E+04;  0.0000000E+00;  1.1006350E+01;  4.0000000E+04;  0.0000000E+00;  3.8776520E+04;  7.6396394E-01;  0.0000000E+00;  1.8618619E-01;  3.9868641E+04;
  1.7422523E+00;  9.9999998E-03;  2.5400490E-01;9201;  1.3214563E+00;  0.0000000E+00;  1.0576648E-01;  9.9582513E+02;  1.7844748E-01; -3.4186919E+03;3;  3.0021542E+01;  0.0000000E+00;  2.0534451E+00;0;  8.0943775E-01;  1.2849476E+04;  0.0000000E+00;  1.3068491E+01;  4.0000000E+04;  0.0000000E+00;  3.8800590E+04;  6.1674386E-01;  0.0000000E+00;  1.9269392E-01;  4.5811363E+04;
  1.7438452E+00;  9.9999998E-03;  2.4376176E-01;9200;  1.3139704E+00;  0.0000000E+00;  1.0503454E-01;  9.9638605E+02;  1.7788109E-01; -2.9585354E+03;3;  3.0638231E+01;  0.0000000E+00;  2.6699958E+00;0;  6.8471831E-01;  1.2944190E+04;  0.0000000E+00;  1.4792607E+01;  4.0000000E+04;  0.0000000E+00;  3.8802242E+04;  4.9101132E-01;  0.0000000E+00;  1.9370697E-01;  4.9202828E+04;
  1.7522146E+00;  9.9999998E-03;  2.8483251E-01;9261;  1.3400404E+00;  0.0000000E+00;  9.8314270E-02;  1.0022720E+03;  1.7091198E-01;  1.8570574E+03;3;  2.8883276E+01;  0.0000000E+00;  1.7235283E+00;0;  7.2847033E-01;  1.4198652E+04;  0.0000000E+00;  1.4495430E+01;  4.0000000E+04;  0.0000000E+00;  3.8648766E+04;  6.2533301E-01;  0.0000000E+00;  1.0313732E-01;  1.8571350E+04;
  1.7538886E+00;  9.9999998E-03;  2.7463299E-01;9260;  1.3338540E+00;  0.0000000E+00;  9.7943954E-02;  9.9948529E+02;  1.7056188E-01; -4.2054401E+02;3;  2.9672804E+01;  0.0000000E+00;  2.1147585E+00;0;  6.2148899E-01;  1.4180288E+04;  0.0000000E+00;  1.2856187E+01;  4.0000000E+04;  0.0000000E+00;  3.8684281E+04;  4.9636155E-01;  0.0000000E+00;  1.2512742E-01;  3.6154512E+04;
  1.7557306E+00;  9.9999998E-03;  2.6440850E-01;9259;  1.3276756E+00;  0.0000000E+00;  9.8028809E-02;  9.9635718E+02;  1.7020898E-01; -2.9753579E+03;3;  3.0672829E+01;  0.0000000E+00;  2.6829002E+00;0;  5.3745091E-01;  1.4150981E+04;  0.0000000E+00;  1.5630609E+01;  4.0000000E+04;  0.0000000E+00;  3.8727797E+04;  3.7996057E-01;  0.0000000E+00;  1.5749036E-01;  5.1528812E+04;
  1.7575883E+00;  9.9999998E-03;  2.5416729E-01;9258;  1.3207406E+00;  0.0000000E+00;  9.7885817E-02;  9.9423468E+02;  1.6978702E-01; -4.7071367E+03;3;  3.1468609E+01;  0.0000000E+00;  3.1953664E+00;0;  4.6120042E-01;  1.4164943E+04;  0.0000000E+00;  1.8679937E+01;  4.0000000E+04;  0.0000000E+00;  3.8761895E+04;  2.7654934E-01;  0.0000000E+00;  1.8465108E-01;  6.1688801E+04;
  1.7592491E+00;  9.9999998E-03;  2.4391827E-01;9257;  1.3131053E+00;  0.0000000E+00;  9.7074591E-02;  9.9391589E+02;  1.6932373E-01; -4.9656050E+03;3;  3.1647636E+01;  0.0000000E+00;  3.7846620E+00;0;  3.8903663E-01;  1.4235355E+04;  0.0000000E+00;  2.1098511E+01;  4.0000000E+04;  0.0000000E+00;  3.8772223E+04;  1.8931140E-01;  0.0000000E+00;  1.9972523E-01;  6.7516391E+04;
  1.7668772E+00;  9.9999998E-03;  2.8502831E-01;9318;  1.3396049E+00;  0.0000000E+00;  9.1534235E-02;  1.0039127E+03;  1.6340096E-01;  3.1877441E+03;3;  3.0926504E+01;  0.0000000E+00;  3.0841577E+00;0;  3.8777009E-01;  1.5596880E+04;  0.0000000E+00;  9.9901657E+00;  4.0000000E+04;  0.0000000E+00;  3.8575645E+04;  3.2442355E-01;  0.0000000E+00;  6.3346542E-02;  1.0620376E+04;
  1.7683924E+00;  9.9999998E-03;  2.7484635E-01;9317;  1.3325973E+00;  0.0000000E+00;  9.0577096E-02;  1.0013192E+03;  1.6310954E-01;  1.0743510E+03;3;  3.0628561E+01;  0.0000000E+00;  3.0364373E+00;0;  3.1463537E-01;  1.5580368E+04;  0.0000000E+00;  1.2518963E+01;  4.0000000E+04;  0.0000000E+00;  3.8604988E+04;  2.2627649E-01;  0.0000000E+00;  8.8358872E-02;  2.6849441E+04;
  1.7702570E+00;  9.9999998E-03;  2.6462936E-01;9316;  1.3263084E+00;  0.0000000E+00;  9.0244643E-02;  9.9709698E+02;  1.6282880E-01; -2.3631633E+03;3;  3.1738262E+01;  0.0000000E+00;  3.2882586E+00;0;  2.7026695E-01;  1.5504742E+04;  0.0000000E+00;  1.8332905E+01;  4.0000000E+04;  0.0000000E+00;  3.8655031E+04;  1.4027399E-01;  0.0000000E+00;  1.2999296E-01;  5.4114707E+04;
  1.7721831E+00;  9.9999998E-03;  2.5439176E-01;9315;  1.3193647E+00;  0.0000000E+00;  8.9910664E-02;  9.9350220E+02;  1.6250874E-01; -5.2867476E+03;3;  3.2366177E+01;  0.0000000E+00;  3.4238892E+00;0;  2.3522273E-01;  1.5461089E+04;  0.0000000E+00;  2.2563795E+01;  4.0000000E+04;  0.0000000E+00;  3.8700148E+04;  6.4690225E-02;  0.0000000E+00;  1.7053249E-01;  6.9624055E+04;
  1.7739153E+00;  9.9999998E-03;  2.4414192E-01;9314;  1.3117477E+00;  0.0000000E+00;  8.9174233E-02;  9.9191132E+02;  1.6214578E-01; -6.5780972E+03;3;  3.2589401E+01;  0.0000000E+00;  3.9552288E+00;0;  2.0114768E-01;  1.5486788E+04;  0.0000000E+00;  2.5931829E+01;  4.0000000E+04;  0.0000000E+00;  3.8722586E+04;  2.2467496E-03;  0.0000000E+00;  1.9890092E-01;  7.9205602E+04;
  1.7825954E+00;  9.9999998E-03;  2.7509707E-01;9373;  1.3312069E+00;  0.0000000E+00;  8.3642080E-02;  1.0032697E+03;  1.5679757E-01;  2.6524065E+03;3;  3.1921700E+01;  0.0000000E+00;  3.4024858E+00;0;  1.2775561E-01;  1.6950328E+04;  0.0000000E+00;  6.8751984E+00;  4.0000000E+04;  0.0000000E+00;  3.8517367E+04;  6.3822046E-02;  0.0000000E+00;  6.3933566E-02;  8.1169751E+03;
  1.7842203E+00;  9.9999998E-03;  2.6490086E-01;9372;  1.3246360E+00;  0.0000000E+00;  8.2989298E-02;  9.9913397E+02;  1.5658918E-01; -7.0220392E+02;3;  3.2583858E+01;  0.0000000E+00;  3.3277364E+00;0;  1.0658546E-01;  1.6859529E+04;  0.0000000E+00;  1.6945759E+01;  4.0000000E+04;  0.0000000E+00;  3.8560602E+04; -1.4485517E-03;  0.0000000E+00;  1.0803401E-01;  4.4040574E+04;
  1.7861105E+00;  9.9999998E-03;  2.5467354E-01;9371;  1.3177915E+00;  0.0000000E+00;  8.2599983E-02;  9.9423572E+02;  1.5636456E-01; -4.6709395E+03;3;  3.3037605E+01;  0.0000000E+00;  3.4148905E+00;0;  9.9380657E-02;  1.6750625E+04;  0.0000000E+00;  2.4572323E+01;  4.0000000E+04;  0.0000000E+00;  3.8613914E+04; -5.8320966E-02;  0.0000000E+00;  1.5770163E-01;  6.9871500E+04;
  1.7878907E+00;  9.9999998E-03;  2.4442874E-01;9370;  1.3102808E+00;  0.0000000E+00;  8.2004994E-02;  9.9103375E+02;  1.5610352E-01; -7.2613506E+03;3;  3.3404713E+01;  0.0000000E+00;  3.8067420E+00;0;  9.1120839E-02;  1.6709309E+04;  0.0000000E+00;  2.9448687E+01;  4.0000000E+04;  0.0000000E+00;  3.8649371E+04; -1.0605025E-01;  0.0000000E+00;  1.9717109E-01;  8.4795867E+04;
  1.7966022E+00;  9.9999998E-03;  2.7537689E-01;9428;  1.3298715E+00;  0.0000000E+00;  7.7143058E-02;  1.0045255E+03;  1.5146363E-01;  3.6537593E+03;3;  3.3130135E+01;  0.0000000E+00;  3.5671382E+00;0;  2.8708743E-02;  1.8242496E+04;  0.0000000E+00;  2.5676081E+00;  4.0000000E+04;  0.0000000E+00;  3.8426883E+04; -1.9875972E-02;  0.0000000E+00;  4.8584715E-02;  2.2188695E+04;
  1.7978715E+00;  9.9999998E-03;  2.6521108E-01;9427;  1.3227739E+00;  0.0000000E+00;  7.6327197E-02;  1.0018057E+03;  1.5130448E-01;  1.4571718E+03;3;  3.3398415E+01;  0.0000000E+00;  3.2889647E+00;0;  1.3788313E-02;  1.8189711E+04;  0.0000000E+00;  9.9954386E+00;  4.0000000E+04;  0.0000000E+00;  3.8454012E+04; -7.8551486E-02;  0.0000000E+00;  9.2339799E-02;  2.0979180E+04;
  1.7995589E+00;  9.9999998E-03;  2.5500411E-01;9426;  1.3159896E+00;  0.0000000E+00;  7.5902358E-02;  9.9646936E+02;  1.5115671E-01; -2.8473748E+03;3;  3.3701286E+01;  0.0000000E+00;  3.2883344E+00;0;  2.0033389E-02;  1.8038715E+04;  0.0000000E+00;  2.2478651E+01;  4.0000000E+04;  0.0000000E+00;  3.8505332E+04; -1.2643474E-01;  0.0000000E+00;  1.4646813E-01;  5.8948262E+04;
  1.8013176E+00;  9.9999998E-03;  2.4477236E-01;9425;  1.3085151E+00;  0.0000000E+00;  7.5235255E-02;  9.9165399E+02;  1.5098745E-01; -6.7262588E+03;3;  3.4222469E+01;  0.0000000E+00;  3.4896228E+00;0;  2.4152532E-02;  1.7918273E+04;  0.0000000E+00;  3.0412045E+01;  4.0000000E+04;  0.0000000E+00;  3.8550688E+04; -1.6788237E-01;  0.0000000E+00;  1.9203490E-01;  8.1983211E+04;
  1.8114096E+00;  9.9999998E-03;  2.6554543E-01;9481;  1.3209689E+00;  0.0000000E+00;  7.0220776E-02;  1.0039021E+03;  1.4683424E-01;  3.1313030E+03;3;  3.4307110E+01;  0.0000000E+00;  3.3549862E+00;0; -2.8424077E-02;  1.9438578E+04;  0.0000000E+00;  2.2278171E+00;  4.0000000E+04;  0.0000000E+00;  3.8346566E+04; -1.1130315E-01;  0.0000000E+00;  8.2879074E-02;  1.0575105E+04;
  1.8127248E+00;  9.9999998E-03;  2.5537130E-01;9480;  1.3139653E+00;  0.0000000E+00;  6.9628023E-02;  9.9974591E+02;  1.4673384E-01; -2.0378027E+02;3;  3.4571854E+01;  0.0000000E+00;  3.2330351E+00;0; -2.3186147E-02;  1.9311131E+04;  0.0000000E+00;  1.4549948E+01;  4.0000000E+04;  0.0000000E+00;  3.8381930E+04; -1.5858367E-01;  0.0000000E+00;  1.3539752E-01;  3.5651766E+04;
  1.8143200E+00;  9.9999998E-03;  2.4516116E-01;9479;  1.3066126E+00;  0.0000000E+00;  6.9092005E-02;  9.9408344E+02;  1.4663801E-01; -4.7414326E+03;3;  3.5104507E+01;  0.0000000E+00;  3.3128808E+00;0; -1.1741355E-02;  1.9130451E+04;  0.0000000E+00;  2.7442293E+01;  4.0000000E+04;  0.0000000E+00;  3.8429105E+04; -1.9880919E-01;  0.0000000E+00;  1.8706784E-01;  6.9379883E+04;
  1.8247466E+00;  9.9999998E-03;  2.6589751E-01;9534;  1.3192977E+00;  0.0000000E+00;  6.4428918E-02;  1.0054271E+03;  1.4307027E-01;  4.3262285E+03;3;  3.5511356E+01;  0.0000000E+00;  3.6964316E+00;0; -3.7485532E-02;  2.0585029E+04;  0.0000000E+00;  5.8015256E+00;  4.0000000E+04;  0.0000000E+00;  3.8237043E+04; -1.1224831E-01;  0.0000000E+00;  7.4762776E-02;  2.0979271E+04;
  1.8258240E+00;  9.9999998E-03;  2.5575864E-01;9533;  1.3118081E+00;  0.0000000E+00;  6.3725129E-02;  1.0027750E+03;  1.4299001E-01;  2.2108416E+03;3;  3.5654186E+01;  0.0000000E+00;  3.3635859E+00;0; -4.0820360E-02;  2.0511812E+04;  0.0000000E+00;  3.8959498E+00;  4.0000000E+04;  0.0000000E+00;  3.8256496E+04; -1.6636677E-01;  0.0000000E+00;  1.2554641E-01;  8.2658252E+03;
  1.8271002E+00;  9.9999998E-03;  2.4558035E-01;9532;  1.3044318E+00;  0.0000000E+00;  6.3216992E-02;  9.9781622E+02;  1.4293426E-01; -1.7385466E+03;3;  3.6028740E+01;  0.0000000E+00;  3.2888935E+00;0; -3.0494481E-02;  2.0335531E+04;  0.0000000E+00;  1.8123631E+01;  4.0000000E+04;  0.0000000E+00;  3.8292418E+04; -2.0986202E-01;  0.0000000E+00;  1.7936754E-01;  4.5141355E+04;
  1.8388593E+00;  9.9999998E-03;  2.5615391E-01;9585;  1.3096786E+00;  0.0000000E+00;  5.7990156E-02;  1.0048474E+03;  1.3983750E-01;  3.8316179E+03;3;  3.6833218E+01;  0.0000000E+00;  3.7515805E+00;0; -3.9054029E-02;  2.1594475E+04;  0.0000000E+00;  4.3905411E+00;  4.0000000E+04;  0.0000000E+00;  3.8133285E+04; -1.5331678E-01;  0.0000000E+00;  1.1426275E-01;  1.2747913E+04;
  1.8398554E+00;  9.9999998E-03;  2.4601193E-01;9584;  1.3020314E+00;  0.0000000E+00;  5.7413846E-02;  1.0015853E+03;  1.3979238E-01;  1.2522295E+03;3;  3.7005466E+01;  0.0000000E+00;  3.5469458E+00;0; -3.6857963E-02;  2.1479244E+04;  0.0000000E+00;  4.8643980E+00;  4.0000000E+04;  0.0000000E+00;  3.8153352E+04; -2.0435804E-01;  0.0000000E+00;  1.6750008E-01;  1.4697133E+04;
  1.8526340E+00;  9.9999998E-03;  2.4644235E-01;9634;  1.2995263E+00;  0.0000000E+00;  5.1521003E-02;  1.0041769E+03;  1.3715224E-01;  3.2691855E+03;3;  3.8101254E+01;  0.0000000E+00;  4.1134090E+00;0; -3.3240274E-02;  2.2497531E+04;  0.0000000E+00;  2.8210506E+00;  4.0000000E+04;  0.0000000E+00;  3.8017340E+04; -1.8291889E-01;  0.0000000E+00;  1.4967862E-01;  6.9202109E+03;
