TimeStep;Np;Nbound;Nfixed;Nmoving;Nfloat;Nfluid
0.240056;10047;2448;2448;0;0;7599

Pos.x;Pos.y;Pos.z;Idp;Vel.x;Vel.y;Vel.z;Rhop;Mass;Press;Type;Acec.x;Acec.y;Acec.z;CellOffSpring;GradVel;Qfxx;Qfxy;Qfxz;Qfyy;Qfyz;Qfzz;StrainDot.x;StrainDot.y;StrainDot.z;VonMises3D;
 -1.9000000E-01;  9.9999998E-03; -4.4999999E-01;89;  0.0000000E+00;  0.0000000E+00;  0.0000000E+00;  1.0000000E+03;  1.0000000E-01;  0.0000000E+00;0;  0.0000000E+00;  0.0000000E+00;  0.0000000E+00;0;  0.0000000E+00;  4.0000000E+04;  0.0000000E+00;  0.0000000E+00;  4.0000000E+04;  0.0000000E+00;  4.0000000E+04;  0.0000000E+00;  0.0000000E+00;  0.0000000E+00;  0.0000000E+00;
 -1.8000001E-01;  9.9999998E-03; -4.4999999E-01;180;  0.0000000E+00;  0.0000000E+00;  0.0000000E+00;  1.0000000E+03;  1.0000000E-01;  0.0000000E+00;0;  0.0000000E+00;  0.0000000E+00;  0.0000000E+00;0;  0.0000000E+00;  4.0000000E+04;  0.0000000E+00;  0.0000000E+00;  4.0000000E+04;  0.0000000E+00;  4.0000000E+04;  0.0000000E+00;  0.0000000E+00;  0.0000000E+00;  0.0000000E+00;
 -1.7000000E-01;  9.9999998E-03; -4.4999999E-01;271;  0.0000000E+00;  0.0000000E+00;  0.0000000E+00;  1.0000000E+03;  1.0000000E-01;  0.0000000E+00;0;  0.0000000E+00;  0.0000000E+00;  0.0000000E+00;0;  0.0000000E+00;  4.0000000E+04;  0.0000000E+00;  0.0000000E+00;  4.0000000E+04;  0.0000000E+00;  4.0000000E+04;  0.0000000E+00;  0.0000000E+00;  0.0000000E+00;  0.0000000E+00;
 -1.6000000E-01;  9.9999998E-03; -4.4999999E-01;362;  0.0000000E+00;  0.0000000E+00;  0.0000000E+00;  1.0000000E+03;  1.0000000E-01;  0.0000000E+00;0;  0.0000000E+00;  0.0000000E+00;  0.0000000E+00;0;  0.0000000E+00;  4.0000000E+04;  0.0000000E+00;  0.0000000E+00;  4.0000000E+04;  0.0000000E+00;  4.0000000E+04;  0.0000000E+00;  0.0000000E+00;  0.0000000E+00;  0.0000000E+00;
 -1.5000001E-01;  9.9999998E-03; -4.4999999E-01;453;  0.0000000E+00;  0.0000000E+00;  0.0000000E+00;  1.0000000E+03;  1.0000000E-01;  0.0000000E+00;0;  0.0000000E+00;  0.0000000E+00;  0.0000000E+00;0;  0.0000000E+00;  4.0000000E+04;  0.0000000E+00;  0.0000000E+00;  4.0000000E+04;  0.0000000E+00;  4.0000000E+04;  0.0000000E+00;  0.0000000E+00;  0.0000000E+00;  0.0000000E+00;
 -1.4000000E-01;  9.9999998E-03; -4.4999999E-01;544;  0.0000000E+00;  0.0000000E+00;  0.0000000E+00;  1.0000000E+03;  1.0000000E-01;  0.0000000E+00;0;  0.0000000E+00;  0.0000000E+00;  0.0000000E+00;0;  0.0000000E+00;  4.0000000E+04;  0.0000000E+00;  0.0000000E+00;  4.0000000E+04;  0.0000000E+00;  4.0000000E+04;  0.0000000E+00;  0.0000000E+00;  0.0000000E+00;  0.0000000E+00;
 -1.3000000E-01;  9.9999998E-03; -4.4999999E-01;635;  0.0000000E+00;  0.0000000E+00;  0.0000000E+00;  1.0000000E+03;  1.0000000E-01;  0.0000000E+00;0;  0.0000000E+00;  0.0000000E+00;  0.0000000E+00;0;  0.0000000E+00;  4.0000000E+04;  0.0000000E+00;  0.0000000E+00;  4.0000000E+04;  0.0000000E+00;  4.0000000E+04;  0.0000000E+00;  0.0000000E+00;  0.0000000E+00;  0.0000000E+00;
 -1.2000000E-01;  9.9999998E-03; -4.4999999E-01;726;  0.0000000E+00;  0.0000000E+00;  0.0000000E+00;  1.0000000E+03;  1.0000000E-01;  0.0000000E+00;0;  0.0000000E+00;  0.0000000E+00;  0.0000000E+00;0;  0.0000000E+00;  4.0000000E+04;  0.0000000E+00;  0.0000000E+00;  4.0000000E+04;  0.0000000E+00;  4.0000000E+04;  0.0000000E+00;  0.0000000E+00;  0.0000000E+00;  0.0000000E+00;
 -1.1000000E-01;  9.9999998E-03; -4.4999999E-01;817;  0.0000000E+00;  0.0000000E+00;  0.0000000E+00;  1.0000000E+03;  1.0000000E-01;  0.0000000E+00;0;  0.0000000E+00;  0.0000000E+00;  0.0000000E+00;0;  0.0000000E+00;  4.0000000E+04;  0.0000000E+00;  0.0000000E+00;  4.0000000E+04;  0.0000000E+00;  4.0000000E+04;  0.0000000E+00;  0.0000000E+00;  0.0000000E+00;  0.0000000E+00;
 -1.0000000E-01;  9.9999998E-03; -4.4999999E-01;908;  0.0000000E+00;  0.0000000E+00;  0.0000000E+00;  1.0000000E+03;  1.0000000E-01;  0.0000000E+00;0;  0.0000000E+00;  0.0000000E+00;  0.0000000E+00;0;  0.0000000E+00;  4.0000000E+04;  0.0000000E+00;  0.0000000E+00;  4.0000000E+04;  0.0000000E+00;  4.0000000E+04;  0.0000000E+00;  0.0000000E+00;  0.0000000E+00;  0.0000000E+00;
 -9.0000004E-02;  9.9999998E-03; -4.4999999E-01;999;  0.0000000E+00;  0.0000000E+00;  0.0000000E+00;  1.0000000E+03;  1.0000000E-01;  0.0000000E+00;0;  0.0000000E+00;  0.0000000E+00;  0.0000000E+00;0;  0.0000000E+00;  4.0000000E+04;  0.0000000E+00;  0.0000000E+00;  4.0000000E+04;  0.0000000E+00;  4.0000000E+04;  0.0000000E+00;  0.0000000E+00;  0.0000000E+00;  0.0000000E+00;
 -7.9999998E-02;  9.9999998E-03; -4.4999999E-01;1090;  0.0000000E+00;  0.0000000E+00;  0.0000000E+00;  1.0000000E+03;  1.0000000E-01;  0.0000000E+00;0;  0.0000000E+00;  0.0000000E+00;  0.0000000E+00;0;  0.0000000E+00;  4.0000000E+04;  0.0000000E+00;  0.0000000E+00;  4.0000000E+04;  0.0000000E+00;  4.0000000E+04;  0.0000000E+00;  0.0000000E+00;  0.0000000E+00;  0.0000000E+00;
 -7.0000000E-02;  9.9999998E-03; -4.4999999E-01;1181;  0.0000000E+00;  0.0000000E+00;  0.0000000E+00;  1.0000000E+03;  1.0000000E-01;  0.0000000E+00;0;  0.0000000E+00;  0.0000000E+00;  0.0000000E+00;0;  0.0000000E+00;  4.0000000E+04;  0.0000000E+00;  0.0000000E+00;  4.0000000E+04;  0.0000000E+00;  4.0000000E+04;  0.0000000E+00;  0.0000000E+00;  0.0000000E+00;  8.6648275E-12;
 -5.9999999E-02;  9.9999998E-03; -4.4999999E-01;1272;  0.0000000E+00;  0.0000000E+00;  0.0000000E+00;  1.0000000E+03;  1.0000000E-01;  0.0000000E+00;0;  0.0000000E+00;  0.0000000E+00;  0.0000000E+00;0;  2.4065137E-08;  4.0000000E+04;  0.0000000E+00;  0.0000000E+00;  4.0000000E+04;  0.0000000E+00;  4.0000000E+04;  7.3241893E-09;  0.0000000E+00;  1.6740948E-08;  4.6691306E-02;
 -5.0000001E-02;  9.9999998E-03; -4.4999999E-01;1363;  0.0000000E+00;  0.0000000E+00;  0.0000000E+00;  1.0000000E+03;  1.0000000E-01;  0.0000000E+00;0;  0.0000000E+00;  0.0000000E+00;  0.0000000E+00;0;  2.0849254E-07;  4.0000000E+04;  0.0000000E+00;  0.0000000E+00;  4.0000000E+04;  0.0000000E+00;  4.0000000E+04;  5.5789663E-08;  0.0000000E+00;  1.5270288E-07;  3.9658847E-01;
 -3.9999999E-02;  9.9999998E-03; -4.4999999E-01;1454;  0.0000000E+00;  0.0000000E+00;  0.0000000E+00;  1.0000000E+03;  1.0000000E-01;  0.0000000E+00;0;  0.0000000E+00;  0.0000000E+00;  0.0000000E+00;0;  7.6543154E-07;  4.0000000E+04;  0.0000000E+00;  0.0000000E+00;  4.0000000E+04;  0.0000000E+00;  4.0000000E+04;  1.7673158E-07;  0.0000000E+00;  5.8869995E-07;  1.4206048E+00;
 -2.9999999E-02;  9.9999998E-03; -4.4999999E-01;1545;  0.0000000E+00;  0.0000000E+00;  0.0000000E+00;  1.0000000E+03;  1.0000000E-01;  0.0000000E+00;0;  0.0000000E+00;  0.0000000E+00;  0.0000000E+00;0;  1.8083933E-06;  4.0000000E+04;  0.0000000E+00;  0.0000000E+00;  4.0000000E+04;  0.0000000E+00;  4.0000000E+04;  3.4527400E-07;  0.0000000E+00;  1.4631194E-06;  3.3693519E+00;
 -2.0000000E-02;  9.9999998E-03; -4.4999999E-01;1636;  0.0000000E+00;  0.0000000E+00;  0.0000000E+00;  1.0000000E+03;  1.0000000E-01;  0.0000000E+00;0;  0.0000000E+00;  0.0000000E+00;  0.0000000E+00;0;  3.2246212E-06;  4.0000000E+04;  0.0000000E+00;  0.0000000E+00;  4.0000000E+04;  0.0000000E+00;  4.0000000E+04;  4.7746522E-07;  0.0000000E+00;  2.7471560E-06;  6.1741700E+00;
 -9.9999998E-03;  9.9999998E-03; -4.4999999E-01;1727;  0.0000000E+00;  0.0000000E+00;  0.0000000E+00;  1.0000000E+03;  1.0000000E-01;  0.0000000E+00;0;  0.0000000E+00;  0.0000000E+00;  0.0000000E+00;0;  4.7022863E-06;  4.0000000E+04;  0.0000000E+00;  0.0000000E+00;  4.0000000E+04;  0.0000000E+00;  4.0000000E+04;  4.8355889E-07;  0.0000000E+00;  4.2187276E-06;  9.3999195E+00;
  0.0000000E+00;  9.9999998E-03; -4.4999999E-01;1818;  0.0000000E+00;  0.0000000E+00;  0.0000000E+00;  1.0000000E+03;  1.0000000E-01;  0.0000000E+00;0;  0.0000000E+00;  0.0000000E+00;  0.0000000E+00;0;  5.8309442E-06;  4.0000000E+04;  0.0000000E+00;  0.0000000E+00;  4.0000000E+04;  0.0000000E+00;  4.0000000E+04;  3.2285692E-07;  0.0000000E+00;  5.5080873E-06;  1.2360707E+01;
  9.9999998E-03;  9.9999998E-03; -4.4999999E-01;1850;  0.0000000E+00;  0.0000000E+00;  0.0000000E+00;  1.0000000E+03;  1.0000000E-01;  0.0000000E+00;0;  0.0000000E+00;  0.0000000E+00;  0.0000000E+00;0;  6.2264830E-06;  4.0000000E+04;  0.0000000E+00;  0.0000000E+00;  4.0000000E+04;  0.0000000E+00;  4.0000000E+04;  3.2274222E-08;  0.0000000E+00;  6.1942087E-06;  1.4330197E+01;
  2.0000000E-02;  9.9999998E-03; -4.4999999E-01;1880;  0.0000000E+00;  0.0000000E+00;  0.0000000E+00;  1.0000000E+03;  1.0000000E-01;  0.0000000E+00;0;  0.0000000E+00;  0.0000000E+00;  0.0000000E+00;0;  5.6562612E-06;  4.0000000E+04;  0.0000000E+00;  0.0000000E+00;  4.0000000E+04;  0.0000000E+00;  4.0000000E+04; -2.7998507E-07;  0.0000000E+00;  5.9362465E-06;  1.4769677E+01;
  2.9999999E-02;  9.9999998E-03; -4.4999999E-01;1910;  0.0000000E+00;  0.0000000E+00;  0.0000000E+00;  1.0000000E+03;  1.0000000E-01;  0.0000000E+00;0;  0.0000000E+00;  0.0000000E+00;  0.0000000E+00;0;  4.1268140E-06;  4.0000000E+04;  0.0000000E+00;  0.0000000E+00;  4.0000000E+04;  0.0000000E+00;  4.0000000E+04; -4.7126625E-07;  0.0000000E+00;  4.5980801E-06;  1.3507703E+01;
  3.9999999E-02;  9.9999998E-03; -4.4999999E-01;1940;  0.0000000E+00;  0.0000000E+00;  0.0000000E+00;  1.0000000E+03;  1.0000000E-01;  0.0000000E+00;0;  0.0000000E+00;  0.0000000E+00;  0.0000000E+00;0;  1.9447448E-06;  4.0000000E+04;  0.0000000E+00;  0.0000000E+00;  4.0000000E+04;  0.0000000E+00;  4.0000000E+04; -4.0411345E-07;  0.0000000E+00;  2.3488583E-06;  1.0836266E+01;
  5.0000001E-02;  9.9999998E-03; -4.4999999E-01;1970;  0.0000000E+00;  0.0000000E+00;  0.0000000E+00;  1.0000000E+03;  1.0000000E-01;  0.0000000E+00;0;  0.0000000E+00;  0.0000000E+00;  0.0000000E+00;0; -1.7142989E-07;  4.0000000E+04;  0.0000000E+00;  0.0000000E+00;  4.0000000E+04;  0.0000000E+00;  4.0000000E+04;  5.1509495E-08;  0.0000000E+00; -2.2293938E-07;  7.5051742E+00;
  5.9999999E-02;  9.9999998E-03; -4.4999999E-01;2000;  0.0000000E+00;  0.0000000E+00;  0.0000000E+00;  1.0000000E+03;  1.0000000E-01;  0.0000000E+00;0;  0.0000000E+00;  0.0000000E+00;  0.0000000E+00;0; -1.0468885E-06;  4.0000000E+04;  0.0000000E+00;  0.0000000E+00;  4.0000000E+04;  0.0000000E+00;  4.0000000E+04;  1.0294187E-06;  0.0000000E+00; -2.0763073E-06;  4.6049285E+00;
  7.0000000E-02;  9.9999998E-03; -4.4999999E-01;2030;  0.0000000E+00;  0.0000000E+00;  0.0000000E+00;  1.0000000E+03;  1.0000000E-01;  0.0000000E+00;0;  0.0000000E+00;  0.0000000E+00;  0.0000000E+00;0;  5.6640420E-07;  4.0000000E+04;  0.0000000E+00;  0.0000000E+00;  4.0000000E+04;  0.0000000E+00;  4.0000000E+04;  2.5741774E-06;  0.0000000E+00; -2.0077732E-06;  3.3537765E+00;
  7.9999998E-02;  9.9999998E-03; -4.4999999E-01;2060;  0.0000000E+00;  0.0000000E+00;  0.0000000E+00;  1.0000000E+03;  1.0000000E-01;  0.0000000E+00;0;  0.0000000E+00;  0.0000000E+00;  0.0000000E+00;0;  5.5162791E-06;  4.0000000E+04;  0.0000000E+00;  0.0000000E+00;  4.0000000E+04;  0.0000000E+00;  4.0000000E+04;  4.5477309E-06;  0.0000000E+00;  9.6854797E-07;  4.8422351E+00;
  9.0000004E-02;  9.9999998E-03; -4.4999999E-01;2090;  0.0000000E+00;  0.0000000E+00;  0.0000000E+00;  1.0000000E+03;  1.0000000E-01;  0.0000000E+00;0;  0.0000000E+00;  0.0000000E+00;  0.0000000E+00;0;  1.3872954E-05;  4.0000000E+04;  0.0000000E+00;  0.0000000E+00;  4.0000000E+04;  0.0000000E+00;  4.0000000E+04;  6.6531234E-06;  0.0000000E+00;  7.2198309E-06;  9.7181215E+00;
  1.0000000E-01;  9.9999998E-03; -4.4999999E-01;2120;  0.0000000E+00;  0.0000000E+00;  0.0000000E+00;  1.0000000E+03;  1.0000000E-01;  0.0000000E+00;0;  0.0000000E+00;  0.0000000E+00;  0.0000000E+00;0;  2.4829345E-05;  4.0000000E+04;  0.0000000E+00;  0.0000000E+00;  4.0000000E+04;  0.0000000E+00;  4.0000000E+04;  8.5553620E-06;  0.0000000E+00;  1.6273983E-05;  1.8013268E+01;
  1.1000000E-01;  9.9999998E-03; -4.4999999E-01;2150;  0.0000000E+00;  0.0000000E+00;  0.0000000E+00;  1.0000000E+03;  1.0000000E-01;  0.0000000E+00;0;  0.0000000E+00;  0.0000000E+00;  0.0000000E+00;0;  3.7008223E-05;  4.0000000E+04;  0.0000000E+00;  0.0000000E+00;  4.0000000E+04;  0.0000000E+00;  4.0000000E+04;  9.9965819E-06;  0.0000000E+00;  2.7011642E-05;  2.9565250E+01;
  1.2000000E-01;  9.9999998E-03; -4.4999999E-01;2180;  0.0000000E+00;  0.0000000E+00;  0.0000000E+00;  1.0000000E+03;  1.0000000E-01;  0.0000000E+00;0;  0.0000000E+00;  0.0000000E+00;  0.0000000E+00;0;  4.8910515E-05;  4.0000000E+04;  0.0000000E+00;  0.0000000E+00;  4.0000000E+04;  0.0000000E+00;  4.0000000E+04;  1.0808776E-05;  0.0000000E+00;  3.8101738E-05;  4.5497879E+01;
  1.3000000E-01;  9.9999998E-03; -4.4999999E-01;2210;  0.0000000E+00;  0.0000000E+00;  0.0000000E+00;  1.0000000E+03;  1.0000000E-01;  0.0000000E+00;0;  0.0000000E+00;  0.0000000E+00;  0.0000000E+00;0;  5.8904756E-05;  4.0000000E+04;  0.0000000E+00;  0.0000000E+00;  4.0000000E+04;  0.0000000E+00;  4.0000000E+04;  1.0646971E-05;  0.0000000E+00;  4.8257785E-05;  7.1662262E+01;
  1.4000000E-01;  9.9999998E-03; -4.4999999E-01;2240;  0.0000000E+00;  0.0000000E+00;  0.0000000E+00;  1.0000000E+03;  1.0000000E-01;  0.0000000E+00;0;  0.0000000E+00;  0.0000000E+00;  0.0000000E+00;0;  6.5037893E-05;  4.0000000E+04;  0.0000000E+00;  0.0000000E+00;  4.0000000E+04;  0.0000000E+00;  4.0000000E+04;  8.9206442E-06;  0.0000000E+00;  5.6117249E-05;  1.2342953E+02;
  1.5000001E-01;  9.9999998E-03; -4.4999999E-01;2270;  0.0000000E+00;  0.0000000E+00;  0.0000000E+00;  1.0000000E+03;  1.0000000E-01;  0.0000000E+00;0;  0.0000000E+00;  0.0000000E+00;  0.0000000E+00;0;  6.5560613E-05;  4.0000000E+04;  0.0000000E+00;  0.0000000E+00;  4.0000000E+04;  0.0000000E+00;  4.0000000E+04;  5.1866309E-06;  0.0000000E+00;  6.0373983E-05;  2.2837021E+02;
  1.6000000E-01;  9.9999998E-03; -4.4999999E-01;2300;  0.0000000E+00;  0.0000000E+00;  0.0000000E+00;  1.0000000E+03;  1.0000000E-01;  0.0000000E+00;0;  0.0000000E+00;  0.0000000E+00;  0.0000000E+00;0;  6.0292929E-05;  4.0000000E+04;  0.0000000E+00;  0.0000000E+00;  4.0000000E+04;  0.0000000E+00;  4.0000000E+04; -1.4549711E-07;  0.0000000E+00;  6.0438426E-05;  4.2687955E+02;
  1.7000000E-01;  9.9999998E-03; -4.4999999E-01;2330;  0.0000000E+00;  0.0000000E+00;  0.0000000E+00;  1.0000000E+03;  1.0000000E-01;  0.0000000E+00;0;  0.0000000E+00;  0.0000000E+00;  0.0000000E+00;0;  5.1799081E-05;  4.0000000E+04;  0.0000000E+00;  0.0000000E+00;  4.0000000E+04;  0.0000000E+00;  4.0000000E+04; -5.1149841E-06;  0.0000000E+00;  5.6914065E-05;  7.7137885E+02;
  1.8000001E-01;  9.9999998E-03; -4.4999999E-01;2360;  0.0000000E+00;  0.0000000E+00;  0.0000000E+00;  1.0000000E+03;  1.0000000E-01;  0.0000000E+00;0;  0.0000000E+00;  0.0000000E+00;  0.0000000E+00;0;  4.4999357E-05;  4.0000000E+04;  0.0000000E+00;  0.0000000E+00;  4.0000000E+04;  0.0000000E+00;  4.0000000E+04; -6.5693353E-06;  0.0000000E+00;  5.1568692E-05;  1.3166825E+03;
  1.9000000E-01;  9.9999998E-03; -4.4999999E-01;2390;  0.0000000E+00;  0.0000000E+00;  0.0000000E+00;  1.0000000E+03;  1.0000000E-01;  0.0000000E+00;0;  0.0000000E+00;  0.0000000E+00;  0.0000000E+00;0;  4.6047844E-05;  4.0000000E+04;  0.0000000E+00;  0.0000000E+00;  4.0000000E+04;  0.0000000E+00;  4.0000000E+04; -1.6073375E-06;  0.0000000E+00;  4.7655183E-05;  2.0971855E+03;
 -1.9000000E-01;  9.9999998E-03; -4.4000000E-01;90;  0.0000000E+00;  0.0000000E+00;  0.0000000E+00;  1.0000000E+03;  1.0000000E-01;  0.0000000E+00;0;  0.0000000E+00;  0.0000000E+00;  0.0000000E+00;0;  0.0000000E+00;  4.0000000E+04;  0.0000000E+00;  0.0000000E+00;  4.0000000E+04;  0.0000000E+00;  4.0000000E+04;  0.0000000E+00;  0.0000000E+00;  0.0000000E+00;  0.0000000E+00;
 -1.9000000E-01;  9.9999998E-03; -4.3000001E-01;91;  0.0000000E+00;  0.0000000E+00;  0.0000000E+00;  1.0000000E+03;  1.0000000E-01;  0.0000000E+00;0;  0.0000000E+00;  0.0000000E+00;  0.0000000E+00;0;  0.0000000E+00;  4.0000000E+04;  0.0000000E+00;  0.0000000E+00;  4.0000000E+04;  0.0000000E+00;  4.0000000E+04;  0.0000000E+00;  0.0000000E+00;  0.0000000E+00;  0.0000000E+00;
 -1.9000000E-01;  9.9999998E-03; -4.1999999E-01;92;  0.0000000E+00;  0.0000000E+00;  0.0000000E+00;  1.0000000E+03;  1.0000000E-01;  0.0000000E+00;0;  0.0000000E+00;  0.0000000E+00;  0.0000000E+00;0;  0.0000000E+00;  4.0000000E+04;  0.0000000E+00;  0.0000000E+00;  4.0000000E+04;  0.0000000E+00;  4.0000000E+04;  0.0000000E+00;  0.0000000E+00;  0.0000000E+00;  0.0000000E+00;
 -1.9000000E-01;  9.9999998E-03; -4.1000000E-01;93;  0.0000000E+00;  0.0000000E+00;  0.0000000E+00;  1.0000000E+03;  1.0000000E-01;  0.0000000E+00;0;  0.0000000E+00;  0.0000000E+00;  0.0000000E+00;0;  0.0000000E+00;  4.0000000E+04;  0.0000000E+00;  0.0000000E+00;  4.0000000E+04;  0.0000000E+00;  4.0000000E+04;  0.0000000E+00;  0.0000000E+00;  0.0000000E+00;  0.0000000E+00;
 -1.9000000E-01;  9.9999998E-03; -4.0000001E-01;94;  0.0000000E+00;  0.0000000E+00;  0.0000000E+00;  1.0000000E+03;  1.0000000E-01;  0.0000000E+00;0;  0.0000000E+00;  0.0000000E+00;  0.0000000E+00;0;  0.0000000E+00;  4.0000000E+04;  0.0000000E+00;  0.0000000E+00;  4.0000000E+04;  0.0000000E+00;  4.0000000E+04;  0.0000000E+00;  0.0000000E+00;  0.0000000E+00;  0.0000000E+00;
 -1.9000000E-01;  9.9999998E-03; -3.8999999E-01;95;  0.0000000E+00;  0.0000000E+00;  0.0000000E+00;  1.0000000E+03;  1.0000000E-01;  0.0000000E+00;0;  0.0000000E+00;  0.0000000E+00;  0.0000000E+00;0;  0.0000000E+00;  4.0000000E+04;  0.0000000E+00;  0.0000000E+00;  4.0000000E+04;  0.0000000E+00;  4.0000000E+04;  0.0000000E+00;  0.0000000E+00;  0.0000000E+00;  0.0000000E+00;
 -1.9000000E-01;  9.9999998E-03; -3.8000000E-01;96;  0.0000000E+00;  0.0000000E+00;  0.0000000E+00;  1.0000000E+03;  1.0000000E-01;  0.0000000E+00;0;  0.0000000E+00;  0.0000000E+00;  0.0000000E+00;0;  0.0000000E+00;  4.0000000E+04;  0.0000000E+00;  0.0000000E+00;  4.0000000E+04;  0.0000000E+00;  4.0000000E+04;  0.0000000E+00;  0.0000000E+00;  0.0000000E+00;  0.0000000E+00;
 -1.9000000E-01;  9.9999998E-03; -3.7000000E-01;97;  0.0000000E+00;  0.0000000E+00;  0.0000000E+00;  1.0000000E+03;  1.0000000E-01;  0.0000000E+00;0;  0.0000000E+00;  0.0000000E+00;  0.0000000E+00;0;  0.0000000E+00;  4.0000000E+04;  0.0000000E+00;  0.0000000E+00;  4.0000000E+04;  0.0000000E+00;  4.0000000E+04;  0.0000000E+00;  0.0000000E+00;  0.0000000E+00;  0.0000000E+00;
 -1.9000000E-01;  9.9999998E-03; -3.6000001E-01;98;  0.0000000E+00;  0.0000000E+00;  0.0000000E+00;  1.0000000E+03;  1.0000000E-01;  0.0000000E+00;0;  0.0000000E+00;  0.0000000E+00;  0.0000000E+00;0;  0.0000000E+00;  4.0000000E+04;  0.0000000E+00;  0.0000000E+00;  4.0000000E+04;  0.0000000E+00;  4.0000000E+04;  0.0000000E+00;  0.0000000E+00;  0.0000000E+00;  0.0000000E+00;
 -1.9000000E-01;  9.9999998E-03; -3.4999999E-01;99;  0.0000000E+00;  0.0000000E+00;  0.0000000E+00;  1.0000000E+03;  1.0000000E-01;  0.0000000E+00;0;  0.0000000E+00;  0.0000000E+00;  0.0000000E+00;0;  0.0000000E+00;  4.0000000E+04;  0.0000000E+00;  0.0000000E+00;  4.0000000E+04;  0.0000000E+00;  4.0000000E+04;  0.0000000E+00;  0.0000000E+00;  0.0000000E+00;  0.0000000E+00;
 -1.9000000E-01;  9.9999998E-03; -3.4000000E-01;100;  0.0000000E+00;  0.0000000E+00;  0.0000000E+00;  1.0000000E+03;  1.0000000E-01;  0.0000000E+00;0;  0.0000000E+00;  0.0000000E+00;  0.0000000E+00;0;  0.0000000E+00;  4.0000000E+04;  0.0000000E+00;  0.0000000E+00;  4.0000000E+04;  0.0000000E+00;  4.0000000E+04;  0.0000000E+00;  0.0000000E+00;  0.0000000E+00;  0.0000000E+00;
 -1.9000000E-01;  9.9999998E-03; -3.3000001E-01;101;  0.0000000E+00;  0.0000000E+00;  0.0000000E+00;  1.0000000E+03;  1.0000000E-01;  0.0000000E+00;0;  0.0000000E+00;  0.0000000E+00;  0.0000000E+00;0;  0.0000000E+00;  4.0000000E+04;  0.0000000E+00;  0.0000000E+00;  4.0000000E+04;  0.0000000E+00;  4.0000000E+04;  0.0000000E+00;  0.0000000E+00;  0.0000000E+00;  0.0000000E+00;
 -1.9000000E-01;  9.9999998E-03; -3.1999999E-01;102;  0.0000000E+00;  0.0000000E+00;  0.0000000E+00;  1.0000000E+03;  1.0000000E-01;  0.0000000E+00;0;  0.0000000E+00;  0.0000000E+00;  0.0000000E+00;0;  0.0000000E+00;  4.0000000E+04;  0.0000000E+00;  0.0000000E+00;  4.0000000E+04;  0.0000000E+00;  4.0000000E+04;  0.0000000E+00;  0.0000000E+00;  0.0000000E+00;  0.0000000E+00;
 -1.9000000E-01;  9.9999998E-03; -3.1000000E-01;103;  0.0000000E+00;  0.0000000E+00;  0.0000000E+00;  1.0000000E+03;  1.0000000E-01;  0.0000000E+00;0;  0.0000000E+00;  0.0000000E+00;  0.0000000E+00;0;  0.0000000E+00;  4.0000000E+04;  0.0000000E+00;  0.0000000E+00;  4.0000000E+04;  0.0000000E+00;  4.0000000E+04;  0.0000000E+00;  0.0000000E+00;  0.0000000E+00;  0.0000000E+00;
 -1.9000000E-01;  9.9999998E-03; -3.0000001E-01;104;  0.0000000E+00;  0.0000000E+00;  0.0000000E+00;  1.0000000E+03;  1.0000000E-01;  0.0000000E+00;0;  0.0000000E+00;  0.0000000E+00;  0.0000000E+00;0;  0.0000000E+00;  4.0000000E+04;  0.0000000E+00;  0.0000000E+00;  4.0000000E+04;  0.0000000E+00;  4.0000000E+04;  0.0000000E+00;  0.0000000E+00;  0.0000000E+00;  0.0000000E+00;
 -1.9000000E-01;  9.9999998E-03; -2.8999999E-01;105;  0.0000000E+00;  0.0000000E+00;  0.0000000E+00;  1.0000000E+03;  1.0000000E-01;  0.0000000E+00;0;  0.0000000E+00;  0.0000000E+00;  0.0000000E+00;0;  0.0000000E+00;  4.0000000E+04;  0.0000000E+00;  0.0000000E+00;  4.0000000E+04;  0.0000000E+00;  4.0000000E+04;  0.0000000E+00;  0.0000000E+00;  0.0000000E+00;  0.0000000E+00;
 -1.9000000E-01;  9.9999998E-03; -2.8000000E-01;106;  0.0000000E+00;  0.0000000E+00;  0.0000000E+00;  1.0000000E+03;  1.0000000E-01;  0.0000000E+00;0;  0.0000000E+00;  0.0000000E+00;  0.0000000E+00;0;  0.0000000E+00;  4.0000000E+04;  0.0000000E+00;  0.0000000E+00;  4.0000000E+04;  0.0000000E+00;  4.0000000E+04;  0.0000000E+00;  0.0000000E+00;  0.0000000E+00;  0.0000000E+00;
 -1.8000001E-01;  9.9999998E-03; -4.4000000E-01;181;  0.0000000E+00;  0.0000000E+00;  0.0000000E+00;  1.0000000E+03;  1.0000000E-01;  0.0000000E+00;0;  0.0000000E+00;  0.0000000E+00;  0.0000000E+00;0;  0.0000000E+00;  4.0000000E+04;  0.0000000E+00;  0.0000000E+00;  4.0000000E+04;  0.0000000E+00;  4.0000000E+04;  0.0000000E+00;  0.0000000E+00;  0.0000000E+00;  0.0000000E+00;
 -1.8000001E-01;  9.9999998E-03; -4.3000001E-01;182;  0.0000000E+00;  0.0000000E+00;  0.0000000E+00;  1.0000000E+03;  1.0000000E-01;  0.0000000E+00;0;  0.0000000E+00;  0.0000000E+00;  0.0000000E+00;0;  0.0000000E+00;  4.0000000E+04;  0.0000000E+00;  0.0000000E+00;  4.0000000E+04;  0.0000000E+00;  4.0000000E+04;  0.0000000E+00;  0.0000000E+00;  0.0000000E+00;  0.0000000E+00;
 -1.8000001E-01;  9.9999998E-03; -4.1999999E-01;183;  0.0000000E+00;  0.0000000E+00;  0.0000000E+00;  1.0000000E+03;  1.0000000E-01;  0.0000000E+00;0;  0.0000000E+00;  0.0000000E+00;  0.0000000E+00;0;  0.0000000E+00;  4.0000000E+04;  0.0000000E+00;  0.0000000E+00;  4.0000000E+04;  0.0000000E+00;  4.0000000E+04;  0.0000000E+00;  0.0000000E+00;  0.0000000E+00;  0.0000000E+00;
 -1.8000001E-01;  9.9999998E-03; -4.1000000E-01;184;  0.0000000E+00;  0.0000000E+00;  0.0000000E+00;  1.0000000E+03;  1.0000000E-01;  0.0000000E+00;0;  0.0000000E+00;  0.0000000E+00;  0.0000000E+00;0;  0.0000000E+00;  4.0000000E+04;  0.0000000E+00;  0.0000000E+00;  4.0000000E+04;  0.0000000E+00;  4.0000000E+04;  0.0000000E+00;  0.0000000E+00;  0.0000000E+00;  0.0000000E+00;
 -1.8000001E-01;  9.9999998E-03; -4.0000001E-01;185;  0.0000000E+00;  0.0000000E+00;  0.0000000E+00;  1.0000000E+03;  1.0000000E-01;  0.0000000E+00;0;  0.0000000E+00;  0.0000000E+00;  0.0000000E+00;0;  0.0000000E+00;  4.0000000E+04;  0.0000000E+00;  0.0000000E+00;  4.0000000E+04;  0.0000000E+00;  4.0000000E+04;  0.0000000E+00;  0.0000000E+00;  0.0000000E+00;  0.0000000E+00;
 -1.8000001E-01;  9.9999998E-03; -3.8999999E-01;186;  0.0000000E+00;  0.0000000E+00;  0.0000000E+00;  1.0000000E+03;  1.0000000E-01;  0.0000000E+00;0;  0.0000000E+00;  0.0000000E+00;  0.0000000E+00;0;  0.0000000E+00;  4.0000000E+04;  0.0000000E+00;  0.0000000E+00;  4.0000000E+04;  0.0000000E+00;  4.0000000E+04;  0.0000000E+00;  0.0000000E+00;  0.0000000E+00;  0.0000000E+00;
 -1.8000001E-01;  9.9999998E-03; -3.8000000E-01;187;  0.0000000E+00;  0.0000000E+00;  0.0000000E+00;  1.0000000E+03;  1.0000000E-01;  0.0000000E+00;0;  0.0000000E+00;  0.0000000E+00;  0.0000000E+00;0;  0.0000000E+00;  4.0000000E+04;  0.0000000E+00;  0.0000000E+00;  4.0000000E+04;  0.0000000E+00;  4.0000000E+04;  0.0000000E+00;  0.0000000E+00;  0.0000000E+00;  0.0000000E+00;
 -1.8000001E-01;  9.9999998E-03; -3.7000000E-01;188;  0.0000000E+00;  0.0000000E+00;  0.0000000E+00;  1.0000000E+03;  1.0000000E-01;  0.0000000E+00;0;  0.0000000E+00;  0.0000000E+00;  0.0000000E+00;0;  0.0000000E+00;  4.0000000E+04;  0.0000000E+00;  0.0000000E+00;  4.0000000E+04;  0.0000000E+00;  4.0000000E+04;  0.0000000E+00;  0.0000000E+00;  0.0000000E+00;  0.0000000E+00;
 -1.8000001E-01;  9.9999998E-03; -3.6000001E-01;189;  0.0000000E+00;  0.0000000E+00;  0.0000000E+00;  1.0000000E+03;  1.0000000E-01;  0.0000000E+00;0;  0.0000000E+00;  0.0000000E+00;  0.0000000E+00;0;  0.0000000E+00;  4.0000000E+04;  0.0000000E+00;  0.0000000E+00;  4.0000000E+04;  0.0000000E+00;  4.0000000E+04;  0.0000000E+00;  0.0000000E+00;  0.0000000E+00;  0.0000000E+00;
 -1.8000001E-01;  9.9999998E-03; -3.4999999E-01;190;  0.0000000E+00;  0.0000000E+00;  0.0000000E+00;  1.0000000E+03;  1.0000000E-01;  0.0000000E+00;0;  0.0000000E+00;  0.0000000E+00;  0.0000000E+00;0;  0.0000000E+00;  4.0000000E+04;  0.0000000E+00;  0.0000000E+00;  4.0000000E+04;  0.0000000E+00;  4.0000000E+04;  0.0000000E+00;  0.0000000E+00;  0.0000000E+00;  0.0000000E+00;
 -1.8000001E-01;  9.9999998E-03; -3.4000000E-01;191;  0.0000000E+00;  0.0000000E+00;  0.0000000E+00;  1.0000000E+03;  1.0000000E-01;  0.0000000E+00;0;  0.0000000E+00;  0.0000000E+00;  0.0000000E+00;0;  0.0000000E+00;  4.0000000E+04;  0.0000000E+00;  0.0000000E+00;  4.0000000E+04;  0.0000000E+00;  4.0000000E+04;  0.0000000E+00;  0.0000000E+00;  0.0000000E+00;  0.0000000E+00;
 -1.8000001E-01;  9.9999998E-03; -3.3000001E-01;192;  0.0000000E+00;  0.0000000E+00;  0.0000000E+00;  1.0000000E+03;  1.0000000E-01;  0.0000000E+00;0;  0.0000000E+00;  0.0000000E+00;  0.0000000E+00;0;  0.0000000E+00;  4.0000000E+04;  0.0000000E+00;  0.0000000E+00;  4.0000000E+04;  0.0000000E+00;  4.0000000E+04;  0.0000000E+00;  0.0000000E+00;  0.0000000E+00;  0.0000000E+00;
 -1.8000001E-01;  9.9999998E-03; -3.1999999E-01;193;  0.0000000E+00;  0.0000000E+00;  0.0000000E+00;  1.0000000E+03;  1.0000000E-01;  0.0000000E+00;0;  0.0000000E+00;  0.0000000E+00;  0.0000000E+00;0;  0.0000000E+00;  4.0000000E+04;  0.0000000E+00;  0.0000000E+00;  4.0000000E+04;  0.0000000E+00;  4.0000000E+04;  0.0000000E+00;  0.0000000E+00;  0.0000000E+00;  0.0000000E+00;
 -1.8000001E-01;  9.9999998E-03; -3.1000000E-01;194;  0.0000000E+00;  0.0000000E+00;  0.0000000E+00;  1.0000000E+03;  1.0000000E-01;  0.0000000E+00;0;  0.0000000E+00;  0.0000000E+00;  0.0000000E+00;0;  0.0000000E+00;  4.0000000E+04;  0.0000000E+00;  0.0000000E+00;  4.0000000E+04;  0.0000000E+00;  4.0000000E+04;  0.0000000E+00;  0.0000000E+00;  0.0000000E+00;  0.0000000E+00;
 -1.8000001E-01;  9.9999998E-03; -3.0000001E-01;195;  0.0000000E+00;  0.0000000E+00;  0.0000000E+00;  1.0000000E+03;  1.0000000E-01;  0.0000000E+00;0;  0.0000000E+00;  0.0000000E+00;  0.0000000E+00;0;  0.0000000E+00;  4.0000000E+04;  0.0000000E+00;  0.0000000E+00;  4.0000000E+04;  0.0000000E+00;  4.0000000E+04;  0.0000000E+00;  0.0000000E+00;  0.0000000E+00;  0.0000000E+00;
 -1.8000001E-01;  9.9999998E-03; -2.8999999E-01;196;  0.0000000E+00;  0.0000000E+00;  0.0000000E+00;  1.0000000E+03;  1.0000000E-01;  0.0000000E+00;0;  0.0000000E+00;  0.0000000E+00;  0.0000000E+00;0;  0.0000000E+00;  4.0000000E+04;  0.0000000E+00;  0.0000000E+00;  4.0000000E+04;  0.0000000E+00;  4.0000000E+04;  0.0000000E+00;  0.0000000E+00;  0.0000000E+00;  0.0000000E+00;
 -1.8000001E-01;  9.9999998E-03; -2.8000000E-01;197;  0.0000000E+00;  0.0000000E+00;  0.0000000E+00;  1.0000000E+03;  1.0000000E-01;  0.0000000E+00;0;  0.0000000E+00;  0.0000000E+00;  0.0000000E+00;0;  0.0000000E+00;  4.0000000E+04;  0.0000000E+00;  0.0000000E+00;  4.0000000E+04;  0.0000000E+00;  4.0000000E+04;  0.0000000E+00;  0.0000000E+00;  0.0000000E+00;  0.0000000E+00;
 -1.7000000E-01;  9.9999998E-03; -4.4000000E-01;272;  0.0000000E+00;  0.0000000E+00;  0.0000000E+00;  1.0000000E+03;  1.0000000E-01;  0.0000000E+00;0;  0.0000000E+00;  0.0000000E+00;  0.0000000E+00;0;  0.0000000E+00;  4.0000000E+04;  0.0000000E+00;  0.0000000E+00;  4.0000000E+04;  0.0000000E+00;  4.0000000E+04;  0.0000000E+00;  0.0000000E+00;  0.0000000E+00;  0.0000000E+00;
 -1.7000000E-01;  9.9999998E-03; -4.3000001E-01;273;  0.0000000E+00;  0.0000000E+00;  0.0000000E+00;  1.0000000E+03;  1.0000000E-01;  0.0000000E+00;0;  0.0000000E+00;  0.0000000E+00;  0.0000000E+00;0;  0.0000000E+00;  4.0000000E+04;  0.0000000E+00;  0.0000000E+00;  4.0000000E+04;  0.0000000E+00;  4.0000000E+04;  0.0000000E+00;  0.0000000E+00;  0.0000000E+00;  0.0000000E+00;
 -1.7000000E-01;  9.9999998E-03; -4.1999999E-01;274;  0.0000000E+00;  0.0000000E+00;  0.0000000E+00;  1.0000000E+03;  1.0000000E-01;  0.0000000E+00;0;  0.0000000E+00;  0.0000000E+00;  0.0000000E+00;0;  0.0000000E+00;  4.0000000E+04;  0.0000000E+00;  0.0000000E+00;  4.0000000E+04;  0.0000000E+00;  4.0000000E+04;  0.0000000E+00;  0.0000000E+00;  0.0000000E+00;  0.0000000E+00;
 -1.7000000E-01;  9.9999998E-03; -4.1000000E-01;275;  0.0000000E+00;  0.0000000E+00;  0.0000000E+00;  1.0000000E+03;  1.0000000E-01;  0.0000000E+00;0;  0.0000000E+00;  0.0000000E+00;  0.0000000E+00;0;  0.0000000E+00;  4.0000000E+04;  0.0000000E+00;  0.0000000E+00;  4.0000000E+04;  0.0000000E+00;  4.0000000E+04;  0.0000000E+00;  0.0000000E+00;  0.0000000E+00;  0.0000000E+00;
 -1.7000000E-01;  9.9999998E-03; -4.0000001E-01;276;  0.0000000E+00;  0.0000000E+00;  0.0000000E+00;  1.0000000E+03;  1.0000000E-01;  0.0000000E+00;0;  0.0000000E+00;  0.0000000E+00;  0.0000000E+00;0;  0.0000000E+00;  4.0000000E+04;  0.0000000E+00;  0.0000000E+00;  4.0000000E+04;  0.0000000E+00;  4.0000000E+04;  0.0000000E+00;  0.0000000E+00;  0.0000000E+00;  0.0000000E+00;
 -1.7000000E-01;  9.9999998E-03; -3.8999999E-01;277;  0.0000000E+00;  0.0000000E+00;  0.0000000E+00;  1.0000000E+03;  1.0000000E-01;  0.0000000E+00;0;  0.0000000E+00;  0.0000000E+00;  0.0000000E+00;0;  0.0000000E+00;  4.0000000E+04;  0.0000000E+00;  0.0000000E+00;  4.0000000E+04;  0.0000000E+00;  4.0000000E+04;  0.0000000E+00;  0.0000000E+00;  0.0000000E+00;  0.0000000E+00;
 -1.7000000E-01;  9.9999998E-03; -3.8000000E-01;278;  0.0000000E+00;  0.0000000E+00;  0.0000000E+00;  1.0000000E+03;  1.0000000E-01;  0.0000000E+00;0;  0.0000000E+00;  0.0000000E+00;  0.0000000E+00;0;  0.0000000E+00;  4.0000000E+04;  0.0000000E+00;  0.0000000E+00;  4.0000000E+04;  0.0000000E+00;  4.0000000E+04;  0.0000000E+00;  0.0000000E+00;  0.0000000E+00;  0.0000000E+00;
 -1.7000000E-01;  9.9999998E-03; -3.7000000E-01;279;  0.0000000E+00;  0.0000000E+00;  0.0000000E+00;  1.0000000E+03;  1.0000000E-01;  0.0000000E+00;0;  0.0000000E+00;  0.0000000E+00;  0.0000000E+00;0;  0.0000000E+00;  4.0000000E+04;  0.0000000E+00;  0.0000000E+00;  4.0000000E+04;  0.0000000E+00;  4.0000000E+04;  0.0000000E+00;  0.0000000E+00;  0.0000000E+00;  0.0000000E+00;
 -1.7000000E-01;  9.9999998E-03; -3.6000001E-01;280;  0.0000000E+00;  0.0000000E+00;  0.0000000E+00;  1.0000000E+03;  1.0000000E-01;  0.0000000E+00;0;  0.0000000E+00;  0.0000000E+00;  0.0000000E+00;0;  0.0000000E+00;  4.0000000E+04;  0.0000000E+00;  0.0000000E+00;  4.0000000E+04;  0.0000000E+00;  4.0000000E+04;  0.0000000E+00;  0.0000000E+00;  0.0000000E+00;  0.0000000E+00;
 -1.7000000E-01;  9.9999998E-03; -3.4999999E-01;281;  0.0000000E+00;  0.0000000E+00;  0.0000000E+00;  1.0000000E+03;  1.0000000E-01;  0.0000000E+00;0;  0.0000000E+00;  0.0000000E+00;  0.0000000E+00;0;  0.0000000E+00;  4.0000000E+04;  0.0000000E+00;  0.0000000E+00;  4.0000000E+04;  0.0000000E+00;  4.0000000E+04;  0.0000000E+00;  0.0000000E+00;  0.0000000E+00;  0.0000000E+00;
 -1.7000000E-01;  9.9999998E-03; -3.4000000E-01;282;  0.0000000E+00;  0.0000000E+00;  0.0000000E+00;  1.0000000E+03;  1.0000000E-01;  0.0000000E+00;0;  0.0000000E+00;  0.0000000E+00;  0.0000000E+00;0;  0.0000000E+00;  4.0000000E+04;  0.0000000E+00;  0.0000000E+00;  4.0000000E+04;  0.0000000E+00;  4.0000000E+04;  0.0000000E+00;  0.0000000E+00;  0.0000000E+00;  0.0000000E+00;
 -1.7000000E-01;  9.9999998E-03; -3.3000001E-01;283;  0.0000000E+00;  0.0000000E+00;  0.0000000E+00;  1.0000000E+03;  1.0000000E-01;  0.0000000E+00;0;  0.0000000E+00;  0.0000000E+00;  0.0000000E+00;0;  0.0000000E+00;  4.0000000E+04;  0.0000000E+00;  0.0000000E+00;  4.0000000E+04;  0.0000000E+00;  4.0000000E+04;  0.0000000E+00;  0.0000000E+00;  0.0000000E+00;  0.0000000E+00;
 -1.7000000E-01;  9.9999998E-03; -3.1999999E-01;284;  0.0000000E+00;  0.0000000E+00;  0.0000000E+00;  1.0000000E+03;  1.0000000E-01;  0.0000000E+00;0;  0.0000000E+00;  0.0000000E+00;  0.0000000E+00;0;  0.0000000E+00;  4.0000000E+04;  0.0000000E+00;  0.0000000E+00;  4.0000000E+04;  0.0000000E+00;  4.0000000E+04;  0.0000000E+00;  0.0000000E+00;  0.0000000E+00;  0.0000000E+00;
 -1.7000000E-01;  9.9999998E-03; -3.1000000E-01;285;  0.0000000E+00;  0.0000000E+00;  0.0000000E+00;  1.0000000E+03;  1.0000000E-01;  0.0000000E+00;0;  0.0000000E+00;  0.0000000E+00;  0.0000000E+00;0;  0.0000000E+00;  4.0000000E+04;  0.0000000E+00;  0.0000000E+00;  4.0000000E+04;  0.0000000E+00;  4.0000000E+04;  0.0000000E+00;  0.0000000E+00;  0.0000000E+00;  0.0000000E+00;
 -1.7000000E-01;  9.9999998E-03; -3.0000001E-01;286;  0.0000000E+00;  0.0000000E+00;  0.0000000E+00;  1.0000000E+03;  1.0000000E-01;  0.0000000E+00;0;  0.0000000E+00;  0.0000000E+00;  0.0000000E+00;0;  0.0000000E+00;  4.0000000E+04;  0.0000000E+00;  0.0000000E+00;  4.0000000E+04;  0.0000000E+00;  4.0000000E+04;  0.0000000E+00;  0.0000000E+00;  0.0000000E+00;  0.0000000E+00;
 -1.7000000E-01;  9.9999998E-03; -2.8999999E-01;287;  0.0000000E+00;  0.0000000E+00;  0.0000000E+00;  1.0000000E+03;  1.0000000E-01;  0.0000000E+00;0;  0.0000000E+00;  0.0000000E+00;  0.0000000E+00;0;  0.0000000E+00;  4.0000000E+04;  0.0000000E+00;  0.0000000E+00;  4.0000000E+04;  0.0000000E+00;  4.0000000E+04;  0.0000000E+00;  0.0000000E+00;  0.0000000E+00;  6.8926012E-14;
 -1.7000000E-01;  9.9999998E-03; -2.8000000E-01;288;  0.0000000E+00;  0.0000000E+00;  0.0000000E+00;  1.0000000E+03;  1.0000000E-01;  0.0000000E+00;0;  0.0000000E+00;  0.0000000E+00;  0.0000000E+00;0;  0.0000000E+00;  4.0000000E+04;  0.0000000E+00;  0.0000000E+00;  4.0000000E+04;  0.0000000E+00;  4.0000000E+04;  0.0000000E+00;  0.0000000E+00;  0.0000000E+00;  1.4968563E-11;
 -1.6000000E-01;  9.9999998E-03; -4.4000000E-01;363;  0.0000000E+00;  0.0000000E+00;  0.0000000E+00;  1.0000000E+03;  1.0000000E-01;  0.0000000E+00;0;  0.0000000E+00;  0.0000000E+00;  0.0000000E+00;0;  0.0000000E+00;  4.0000000E+04;  0.0000000E+00;  0.0000000E+00;  4.0000000E+04;  0.0000000E+00;  4.0000000E+04;  0.0000000E+00;  0.0000000E+00;  0.0000000E+00;  0.0000000E+00;
 -1.6000000E-01;  9.9999998E-03; -4.3000001E-01;364;  0.0000000E+00;  0.0000000E+00;  0.0000000E+00;  1.0000000E+03;  1.0000000E-01;  0.0000000E+00;0;  0.0000000E+00;  0.0000000E+00;  0.0000000E+00;0;  0.0000000E+00;  4.0000000E+04;  0.0000000E+00;  0.0000000E+00;  4.0000000E+04;  0.0000000E+00;  4.0000000E+04;  0.0000000E+00;  0.0000000E+00;  0.0000000E+00;  0.0000000E+00;
 -1.6000000E-01;  9.9999998E-03; -4.1999999E-01;365;  0.0000000E+00;  0.0000000E+00;  0.0000000E+00;  1.0000000E+03;  1.0000000E-01;  0.0000000E+00;0;  0.0000000E+00;  0.0000000E+00;  0.0000000E+00;0;  0.0000000E+00;  4.0000000E+04;  0.0000000E+00;  0.0000000E+00;  4.0000000E+04;  0.0000000E+00;  4.0000000E+04;  0.0000000E+00;  0.0000000E+00;  0.0000000E+00;  0.0000000E+00;
 -1.6000000E-01;  9.9999998E-03; -4.1000000E-01;366;  0.0000000E+00;  0.0000000E+00;  0.0000000E+00;  1.0000000E+03;  1.0000000E-01;  0.0000000E+00;0;  0.0000000E+00;  0.0000000E+00;  0.0000000E+00;0;  0.0000000E+00;  4.0000000E+04;  0.0000000E+00;  0.0000000E+00;  4.0000000E+04;  0.0000000E+00;  4.0000000E+04;  0.0000000E+00;  0.0000000E+00;  0.0000000E+00;  0.0000000E+00;
 -1.6000000E-01;  9.9999998E-03; -4.0000001E-01;367;  0.0000000E+00;  0.0000000E+00;  0.0000000E+00;  1.0000000E+03;  1.0000000E-01;  0.0000000E+00;0;  0.0000000E+00;  0.0000000E+00;  0.0000000E+00;0;  0.0000000E+00;  4.0000000E+04;  0.0000000E+00;  0.0000000E+00;  4.0000000E+04;  0.0000000E+00;  4.0000000E+04;  0.0000000E+00;  0.0000000E+00;  0.0000000E+00;  0.0000000E+00;
 -1.6000000E-01;  9.9999998E-03; -3.8999999E-01;368;  0.0000000E+00;  0.0000000E+00;  0.0000000E+00;  1.0000000E+03;  1.0000000E-01;  0.0000000E+00;0;  0.0000000E+00;  0.0000000E+00;  0.0000000E+00;0;  0.0000000E+00;  4.0000000E+04;  0.0000000E+00;  0.0000000E+00;  4.0000000E+04;  0.0000000E+00;  4.0000000E+04;  0.0000000E+00;  0.0000000E+00;  0.0000000E+00;  0.0000000E+00;
 -1.6000000E-01;  9.9999998E-03; -3.8000000E-01;369;  0.0000000E+00;  0.0000000E+00;  0.0000000E+00;  1.0000000E+03;  1.0000000E-01;  0.0000000E+00;0;  0.0000000E+00;  0.0000000E+00;  0.0000000E+00;0;  0.0000000E+00;  4.0000000E+04;  0.0000000E+00;  0.0000000E+00;  4.0000000E+04;  0.0000000E+00;  4.0000000E+04;  0.0000000E+00;  0.0000000E+00;  0.0000000E+00;  0.0000000E+00;
 -1.6000000E-01;  9.9999998E-03; -3.7000000E-01;370;  0.0000000E+00;  0.0000000E+00;  0.0000000E+00;  1.0000000E+03;  1.0000000E-01;  0.0000000E+00;0;  0.0000000E+00;  0.0000000E+00;  0.0000000E+00;0;  0.0000000E+00;  4.0000000E+04;  0.0000000E+00;  0.0000000E+00;  4.0000000E+04;  0.0000000E+00;  4.0000000E+04;  0.0000000E+00;  0.0000000E+00;  0.0000000E+00;  0.0000000E+00;
 -1.6000000E-01;  9.9999998E-03; -3.6000001E-01;371;  0.0000000E+00;  0.0000000E+00;  0.0000000E+00;  1.0000000E+03;  1.0000000E-01;  0.0000000E+00;0;  0.0000000E+00;  0.0000000E+00;  0.0000000E+00;0;  0.0000000E+00;  4.0000000E+04;  0.0000000E+00;  0.0000000E+00;  4.0000000E+04;  0.0000000E+00;  4.0000000E+04;  0.0000000E+00;  0.0000000E+00;  0.0000000E+00;  0.0000000E+00;
 -1.6000000E-01;  9.9999998E-03; -3.4999999E-01;372;  0.0000000E+00;  0.0000000E+00;  0.0000000E+00;  1.0000000E+03;  1.0000000E-01;  0.0000000E+00;0;  0.0000000E+00;  0.0000000E+00;  0.0000000E+00;0;  0.0000000E+00;  4.0000000E+04;  0.0000000E+00;  0.0000000E+00;  4.0000000E+04;  0.0000000E+00;  4.0000000E+04;  0.0000000E+00;  0.0000000E+00;  0.0000000E+00;  0.0000000E+00;
 -1.6000000E-01;  9.9999998E-03; -3.4000000E-01;373;  0.0000000E+00;  0.0000000E+00;  0.0000000E+00;  1.0000000E+03;  1.0000000E-01;  0.0000000E+00;0;  0.0000000E+00;  0.0000000E+00;  0.0000000E+00;0;  6.5730106E-09;  4.0000000E+04;  0.0000000E+00;  0.0000000E+00;  4.0000000E+04;  0.0000000E+00;  4.0000000E+04;  5.8778529E-09;  0.0000000E+00;  6.9515760E-10;  1.2802200E-03;
 -1.6000000E-01;  9.9999998E-03; -3.3000001E-01;374;  0.0000000E+00;  0.0000000E+00;  0.0000000E+00;  1.0000000E+03;  1.0000000E-01;  0.0000000E+00;0;  0.0000000E+00;  0.0000000E+00;  0.0000000E+00;0;  9.7882292E-08;  4.0000000E+04;  0.0000000E+00;  0.0000000E+00;  4.0000000E+04;  0.0000000E+00;  4.0000000E+04;  8.9561354E-08;  0.0000000E+00;  8.3209368E-09;  1.1263826E-02;
 -1.6000000E-01;  9.9999998E-03; -3.1999999E-01;375;  0.0000000E+00;  0.0000000E+00;  0.0000000E+00;  1.0000000E+03;  1.0000000E-01;  0.0000000E+00;0;  0.0000000E+00;  0.0000000E+00;  0.0000000E+00;0;  3.9858628E-07;  4.0000000E+04;  0.0000000E+00;  0.0000000E+00;  4.0000000E+04;  0.0000000E+00;  4.0000000E+04;  3.7236433E-07;  0.0000000E+00;  2.6221951E-08;  3.3422180E-02;
 -1.6000000E-01;  9.9999998E-03; -3.1000000E-01;376;  0.0000000E+00;  0.0000000E+00;  0.0000000E+00;  1.0000000E+03;  1.0000000E-01;  0.0000000E+00;0;  0.0000000E+00;  0.0000000E+00;  0.0000000E+00;0;  9.9594581E-07;  4.0000000E+04;  0.0000000E+00;  0.0000000E+00;  4.0000000E+04;  0.0000000E+00;  4.0000000E+04;  9.4803437E-07;  0.0000000E+00;  4.7911499E-08;  6.0546748E-02;
 -1.6000000E-01;  9.9999998E-03; -3.0000001E-01;377;  0.0000000E+00;  0.0000000E+00;  0.0000000E+00;  1.0000000E+03;  1.0000000E-01;  0.0000000E+00;0;  0.0000000E+00;  0.0000000E+00;  0.0000000E+00;0;  1.8827944E-06;  4.0000000E+04;  0.0000000E+00;  0.0000000E+00;  4.0000000E+04;  0.0000000E+00;  4.0000000E+04;  1.8222896E-06;  0.0000000E+00;  6.0504838E-08;  7.7540256E-02;
 -1.6000000E-01;  9.9999998E-03; -2.8999999E-01;378;  0.0000000E+00;  0.0000000E+00;  0.0000000E+00;  1.0000000E+03;  1.0000000E-01;  0.0000000E+00;0;  0.0000000E+00;  0.0000000E+00;  0.0000000E+00;0;  2.9469018E-06;  4.0000000E+04;  0.0000000E+00;  0.0000000E+00;  4.0000000E+04;  0.0000000E+00;  4.0000000E+04;  2.8932088E-06;  0.0000000E+00;  5.3692990E-08;  7.0038341E-02;
 -1.6000000E-01;  9.9999998E-03; -2.8000000E-01;379;  0.0000000E+00;  0.0000000E+00;  0.0000000E+00;  1.0000000E+03;  1.0000000E-01;  0.0000000E+00;0;  0.0000000E+00;  0.0000000E+00;  0.0000000E+00;0;  4.0044870E-06;  4.0000000E+04;  0.0000000E+00;  0.0000000E+00;  4.0000000E+04;  0.0000000E+00;  4.0000000E+04;  3.9770762E-06;  0.0000000E+00;  2.7410930E-08;  3.3491671E-02;
 -1.5000001E-01;  9.9999998E-03; -4.4000000E-01;454;  0.0000000E+00;  0.0000000E+00;  0.0000000E+00;  1.0000000E+03;  1.0000000E-01;  0.0000000E+00;0;  0.0000000E+00;  0.0000000E+00;  0.0000000E+00;0;  0.0000000E+00;  4.0000000E+04;  0.0000000E+00;  0.0000000E+00;  4.0000000E+04;  0.0000000E+00;  4.0000000E+04;  0.0000000E+00;  0.0000000E+00;  0.0000000E+00;  0.0000000E+00;
 -1.5000001E-01;  9.9999998E-03; -4.3000001E-01;455;  0.0000000E+00;  0.0000000E+00;  0.0000000E+00;  1.0000000E+03;  1.0000000E-01;  0.0000000E+00;0;  0.0000000E+00;  0.0000000E+00;  0.0000000E+00;0;  0.0000000E+00;  4.0000000E+04;  0.0000000E+00;  0.0000000E+00;  4.0000000E+04;  0.0000000E+00;  4.0000000E+04;  0.0000000E+00;  0.0000000E+00;  0.0000000E+00;  0.0000000E+00;
 -1.5000001E-01;  9.9999998E-03; -4.1999999E-01;456;  0.0000000E+00;  0.0000000E+00;  0.0000000E+00;  1.0000000E+03;  1.0000000E-01;  0.0000000E+00;0;  0.0000000E+00;  0.0000000E+00;  0.0000000E+00;0;  0.0000000E+00;  4.0000000E+04;  0.0000000E+00;  0.0000000E+00;  4.0000000E+04;  0.0000000E+00;  4.0000000E+04;  0.0000000E+00;  0.0000000E+00;  0.0000000E+00;  0.0000000E+00;
 -1.5000001E-01;  9.9999998E-03; -4.1000000E-01;457;  0.0000000E+00;  0.0000000E+00;  0.0000000E+00;  1.0000000E+03;  1.0000000E-01;  0.0000000E+00;0;  0.0000000E+00;  0.0000000E+00;  0.0000000E+00;0;  0.0000000E+00;  4.0000000E+04;  0.0000000E+00;  0.0000000E+00;  4.0000000E+04;  0.0000000E+00;  4.0000000E+04;  0.0000000E+00;  0.0000000E+00;  0.0000000E+00;  0.0000000E+00;
 -1.5000001E-01;  9.9999998E-03; -4.0000001E-01;458;  0.0000000E+00;  0.0000000E+00;  0.0000000E+00;  1.0000000E+03;  1.0000000E-01;  0.0000000E+00;0;  0.0000000E+00;  0.0000000E+00;  0.0000000E+00;0;  0.0000000E+00;  4.0000000E+04;  0.0000000E+00;  0.0000000E+00;  4.0000000E+04;  0.0000000E+00;  4.0000000E+04;  0.0000000E+00;  0.0000000E+00;  0.0000000E+00;  0.0000000E+00;
 -1.5000001E-01;  9.9999998E-03; -3.8999999E-01;459;  0.0000000E+00;  0.0000000E+00;  0.0000000E+00;  1.0000000E+03;  1.0000000E-01;  0.0000000E+00;0;  0.0000000E+00;  0.0000000E+00;  0.0000000E+00;0;  0.0000000E+00;  4.0000000E+04;  0.0000000E+00;  0.0000000E+00;  4.0000000E+04;  0.0000000E+00;  4.0000000E+04;  0.0000000E+00;  0.0000000E+00;  0.0000000E+00;  0.0000000E+00;
 -1.5000001E-01;  9.9999998E-03; -3.8000000E-01;460;  0.0000000E+00;  0.0000000E+00;  0.0000000E+00;  1.0000000E+03;  1.0000000E-01;  0.0000000E+00;0;  0.0000000E+00;  0.0000000E+00;  0.0000000E+00;0;  0.0000000E+00;  4.0000000E+04;  0.0000000E+00;  0.0000000E+00;  4.0000000E+04;  0.0000000E+00;  4.0000000E+04;  0.0000000E+00;  0.0000000E+00;  0.0000000E+00;  0.0000000E+00;
 -1.5000001E-01;  9.9999998E-03; -3.7000000E-01;461;  0.0000000E+00;  0.0000000E+00;  0.0000000E+00;  1.0000000E+03;  1.0000000E-01;  0.0000000E+00;0;  0.0000000E+00;  0.0000000E+00;  0.0000000E+00;0;  0.0000000E+00;  4.0000000E+04;  0.0000000E+00;  0.0000000E+00;  4.0000000E+04;  0.0000000E+00;  4.0000000E+04;  0.0000000E+00;  0.0000000E+00;  0.0000000E+00;  3.0836722E-09;
 -1.5000001E-01;  9.9999998E-03; -3.6000001E-01;462;  0.0000000E+00;  0.0000000E+00;  0.0000000E+00;  1.0000000E+03;  1.0000000E-01;  0.0000000E+00;0;  0.0000000E+00;  0.0000000E+00;  0.0000000E+00;0;  5.7204197E-08;  4.0000000E+04;  0.0000000E+00;  0.0000000E+00;  4.0000000E+04;  0.0000000E+00;  4.0000000E+04;  4.8091447E-08;  0.0000000E+00;  9.1127514E-09;  1.2399001E-02;
 -1.5000001E-01;  9.9999998E-03; -3.4999999E-01;463;  0.0000000E+00;  0.0000000E+00;  0.0000000E+00;  1.0000000E+03;  1.0000000E-01;  0.0000000E+00;0;  0.0000000E+00;  0.0000000E+00;  0.0000000E+00;0;  5.0883193E-07;  4.0000000E+04;  0.0000000E+00;  0.0000000E+00;  4.0000000E+04;  0.0000000E+00;  4.0000000E+04;  4.4039325E-07;  0.0000000E+00;  6.8438652E-08;  8.2721248E-02;
 -1.5000001E-01;  9.9999998E-03; -3.4000000E-01;464;  0.0000000E+00;  0.0000000E+00;  0.0000000E+00;  1.0000000E+03;  1.0000000E-01;  0.0000000E+00;0;  0.0000000E+00;  0.0000000E+00;  0.0000000E+00;0;  1.9296260E-06;  4.0000000E+04;  0.0000000E+00;  0.0000000E+00;  4.0000000E+04;  0.0000000E+00;  4.0000000E+04;  1.7142197E-06;  0.0000000E+00;  2.1540625E-07;  2.5527295E-01;
 -1.5000001E-01;  9.9999998E-03; -3.3000001E-01;465;  0.0000000E+00;  0.0000000E+00;  0.0000000E+00;  1.0000000E+03;  1.0000000E-01;  0.0000000E+00;0;  0.0000000E+00;  0.0000000E+00;  0.0000000E+00;0;  4.9687360E-06;  4.0000000E+04;  0.0000000E+00;  0.0000000E+00;  4.0000000E+04;  0.0000000E+00;  4.0000000E+04;  4.5192969E-06;  0.0000000E+00;  4.4943928E-07;  5.3070593E-01;
 -1.5000001E-01;  9.9999998E-03; -3.1999999E-01;466;  0.0000000E+00;  0.0000000E+00;  0.0000000E+00;  1.0000000E+03;  1.0000000E-01;  0.0000000E+00;0;  0.0000000E+00;  0.0000000E+00;  0.0000000E+00;0;  1.0138143E-05;  4.0000000E+04;  0.0000000E+00;  0.0000000E+00;  4.0000000E+04;  0.0000000E+00;  4.0000000E+04;  9.4185643E-06;  0.0000000E+00;  7.1957902E-07;  8.4840024E-01;
 -1.5000001E-01;  9.9999998E-03; -3.1000000E-01;467;  0.0000000E+00;  0.0000000E+00;  0.0000000E+00;  1.0000000E+03;  1.0000000E-01;  0.0000000E+00;0;  0.0000000E+00;  0.0000000E+00;  0.0000000E+00;0;  1.7621338E-05;  4.0000000E+04;  0.0000000E+00;  0.0000000E+00;  4.0000000E+04;  0.0000000E+00;  4.0000000E+04;  1.6682750E-05;  0.0000000E+00;  9.3858733E-07;  1.1017690E+00;
 -1.5000001E-01;  9.9999998E-03; -3.0000001E-01;468;  0.0000000E+00;  0.0000000E+00;  0.0000000E+00;  1.0000000E+03;  1.0000000E-01;  0.0000000E+00;0;  0.0000000E+00;  0.0000000E+00;  0.0000000E+00;0;  2.7171391E-05;  4.0000000E+04;  0.0000000E+00;  0.0000000E+00;  4.0000000E+04;  0.0000000E+00;  4.0000000E+04;  2.6154490E-05;  0.0000000E+00;  1.0168998E-06;  1.1762048E+00;
 -1.5000001E-01;  9.9999998E-03; -2.8999999E-01;469;  0.0000000E+00;  0.0000000E+00;  0.0000000E+00;  1.0000000E+03;  1.0000000E-01;  0.0000000E+00;0;  0.0000000E+00;  0.0000000E+00;  0.0000000E+00;0;  3.8124923E-05;  4.0000000E+04;  0.0000000E+00;  0.0000000E+00;  4.0000000E+04;  0.0000000E+00;  4.0000000E+04;  3.7223363E-05;  0.0000000E+00;  9.0155902E-07;  9.9328130E-01;
 -1.5000001E-01;  9.9999998E-03; -2.8000000E-01;470;  0.0000000E+00;  0.0000000E+00;  0.0000000E+00;  1.0000000E+03;  1.0000000E-01;  0.0000000E+00;0;  0.0000000E+00;  0.0000000E+00;  0.0000000E+00;0;  4.9525188E-05;  4.0000000E+04;  0.0000000E+00;  0.0000000E+00;  4.0000000E+04;  0.0000000E+00;  4.0000000E+04;  4.8922480E-05;  0.0000000E+00;  6.0270833E-07;  5.4305261E-01;
 -1.4000000E-01;  9.9999998E-03; -4.4000000E-01;545;  0.0000000E+00;  0.0000000E+00;  0.0000000E+00;  1.0000000E+03;  1.0000000E-01;  0.0000000E+00;0;  0.0000000E+00;  0.0000000E+00;  0.0000000E+00;0;  0.0000000E+00;  4.0000000E+04;  0.0000000E+00;  0.0000000E+00;  4.0000000E+04;  0.0000000E+00;  4.0000000E+04;  0.0000000E+00;  0.0000000E+00;  0.0000000E+00;  0.0000000E+00;
 -1.4000000E-01;  9.9999998E-03; -4.3000001E-01;546;  0.0000000E+00;  0.0000000E+00;  0.0000000E+00;  1.0000000E+03;  1.0000000E-01;  0.0000000E+00;0;  0.0000000E+00;  0.0000000E+00;  0.0000000E+00;0;  0.0000000E+00;  4.0000000E+04;  0.0000000E+00;  0.0000000E+00;  4.0000000E+04;  0.0000000E+00;  4.0000000E+04;  0.0000000E+00;  0.0000000E+00;  0.0000000E+00;  0.0000000E+00;
 -1.4000000E-01;  9.9999998E-03; -4.1999999E-01;547;  0.0000000E+00;  0.0000000E+00;  0.0000000E+00;  1.0000000E+03;  1.0000000E-01;  0.0000000E+00;0;  0.0000000E+00;  0.0000000E+00;  0.0000000E+00;0;  0.0000000E+00;  4.0000000E+04;  0.0000000E+00;  0.0000000E+00;  4.0000000E+04;  0.0000000E+00;  4.0000000E+04;  0.0000000E+00;  0.0000000E+00;  0.0000000E+00;  0.0000000E+00;
 -1.4000000E-01;  9.9999998E-03; -4.1000000E-01;548;  0.0000000E+00;  0.0000000E+00;  0.0000000E+00;  1.0000000E+03;  1.0000000E-01;  0.0000000E+00;0;  0.0000000E+00;  0.0000000E+00;  0.0000000E+00;0;  0.0000000E+00;  4.0000000E+04;  0.0000000E+00;  0.0000000E+00;  4.0000000E+04;  0.0000000E+00;  4.0000000E+04;  0.0000000E+00;  0.0000000E+00;  0.0000000E+00;  0.0000000E+00;
 -1.4000000E-01;  9.9999998E-03; -4.0000001E-01;549;  0.0000000E+00;  0.0000000E+00;  0.0000000E+00;  1.0000000E+03;  1.0000000E-01;  0.0000000E+00;0;  0.0000000E+00;  0.0000000E+00;  0.0000000E+00;0;  0.0000000E+00;  4.0000000E+04;  0.0000000E+00;  0.0000000E+00;  4.0000000E+04;  0.0000000E+00;  4.0000000E+04;  0.0000000E+00;  0.0000000E+00;  0.0000000E+00;  0.0000000E+00;
 -1.4000000E-01;  9.9999998E-03; -3.8999999E-01;550;  0.0000000E+00;  0.0000000E+00;  0.0000000E+00;  1.0000000E+03;  1.0000000E-01;  0.0000000E+00;0;  0.0000000E+00;  0.0000000E+00;  0.0000000E+00;0;  0.0000000E+00;  4.0000000E+04;  0.0000000E+00;  0.0000000E+00;  4.0000000E+04;  0.0000000E+00;  4.0000000E+04;  0.0000000E+00;  0.0000000E+00;  0.0000000E+00;  0.0000000E+00;
 -1.4000000E-01;  9.9999998E-03; -3.8000000E-01;551;  0.0000000E+00;  0.0000000E+00;  0.0000000E+00;  1.0000000E+03;  1.0000000E-01;  0.0000000E+00;0;  0.0000000E+00;  0.0000000E+00;  0.0000000E+00;0;  2.5387003E-08;  4.0000000E+04;  0.0000000E+00;  0.0000000E+00;  4.0000000E+04;  0.0000000E+00;  4.0000000E+04;  1.9549034E-08;  0.0000000E+00;  5.8379692E-09;  8.8917613E-03;
 -1.4000000E-01;  9.9999998E-03; -3.7000000E-01;552;  0.0000000E+00;  0.0000000E+00;  0.0000000E+00;  1.0000000E+03;  1.0000000E-01;  0.0000000E+00;0;  0.0000000E+00;  0.0000000E+00;  0.0000000E+00;0;  5.1208389E-07;  4.0000000E+04;  0.0000000E+00;  0.0000000E+00;  4.0000000E+04;  0.0000000E+00;  4.0000000E+04;  4.0793137E-07;  0.0000000E+00;  1.0415253E-07;  1.3402608E-01;
 -1.4000000E-01;  9.9999998E-03; -3.6000001E-01;553;  0.0000000E+00;  0.0000000E+00;  0.0000000E+00;  1.0000000E+03;  1.0000000E-01;  0.0000000E+00;0;  0.0000000E+00;  0.0000000E+00;  0.0000000E+00;0;  2.5342922E-06;  4.0000000E+04;  0.0000000E+00;  0.0000000E+00;  4.0000000E+04;  0.0000000E+00;  4.0000000E+04;  2.0907485E-06;  0.0000000E+00;  4.4354383E-07;  5.5889583E-01;
 -1.4000000E-01;  9.9999998E-03; -3.4999999E-01;554;  0.0000000E+00;  0.0000000E+00;  0.0000000E+00;  1.0000000E+03;  1.0000000E-01;  0.0000000E+00;0;  0.0000000E+00;  0.0000000E+00;  0.0000000E+00;0;  7.6654433E-06;  4.0000000E+04;  0.0000000E+00;  0.0000000E+00;  4.0000000E+04;  0.0000000E+00;  4.0000000E+04;  6.5343911E-06;  0.0000000E+00;  1.1310524E-06;  1.3958153E+00;
 -1.4000000E-01;  9.9999998E-03; -3.4000000E-01;555;  0.0000000E+00;  0.0000000E+00;  0.0000000E+00;  1.0000000E+03;  1.0000000E-01;  0.0000000E+00;0;  0.0000000E+00;  0.0000000E+00;  0.0000000E+00;0;  1.7667006E-05;  4.0000000E+04;  0.0000000E+00;  0.0000000E+00;  4.0000000E+04;  0.0000000E+00;  4.0000000E+04;  1.5510570E-05;  0.0000000E+00;  2.1564356E-06;  2.6213763E+00;
 -1.4000000E-01;  9.9999998E-03; -3.3000001E-01;556;  0.0000000E+00;  0.0000000E+00;  0.0000000E+00;  1.0000000E+03;  1.0000000E-01;  0.0000000E+00;0;  0.0000000E+00;  0.0000000E+00;  0.0000000E+00;0;  3.4115601E-05;  4.0000000E+04;  0.0000000E+00;  0.0000000E+00;  4.0000000E+04;  0.0000000E+00;  4.0000000E+04;  3.0743991E-05;  0.0000000E+00;  3.3716112E-06;  4.0475798E+00;
 -1.4000000E-01;  9.9999998E-03; -3.1999999E-01;557;  0.0000000E+00;  0.0000000E+00;  0.0000000E+00;  1.0000000E+03;  1.0000000E-01;  0.0000000E+00;0;  0.0000000E+00;  0.0000000E+00;  0.0000000E+00;0;  5.8006863E-05;  4.0000000E+04;  0.0000000E+00;  0.0000000E+00;  4.0000000E+04;  0.0000000E+00;  4.0000000E+04;  5.3491560E-05;  0.0000000E+00;  4.5153029E-06;  5.3433747E+00;
 -1.4000000E-01;  9.9999998E-03; -3.1000000E-01;558;  0.0000000E+00;  0.0000000E+00;  0.0000000E+00;  1.0000000E+03;  1.0000000E-01;  0.0000000E+00;0;  0.0000000E+00;  0.0000000E+00;  0.0000000E+00;0;  8.9429843E-05;  4.0000000E+04;  0.0000000E+00;  0.0000000E+00;  4.0000000E+04;  0.0000000E+00;  4.0000000E+04;  8.4152874E-05;  0.0000000E+00;  5.2769665E-06;  6.1131320E+00;
 -1.4000000E-01;  9.9999998E-03; -3.0000001E-01;559;  0.0000000E+00;  0.0000000E+00;  0.0000000E+00;  1.0000000E+03;  1.0000000E-01;  0.0000000E+00;0;  0.0000000E+00;  0.0000000E+00;  0.0000000E+00;0;  1.2741859E-04;  4.0000000E+04;  0.0000000E+00;  0.0000000E+00;  4.0000000E+04;  0.0000000E+00;  4.0000000E+04;  1.2203027E-04;  0.0000000E+00;  5.3883273E-06;  6.0066233E+00;
 -1.4000000E-01;  9.9999998E-03; -2.8999999E-01;560;  0.0000000E+00;  0.0000000E+00;  0.0000000E+00;  1.0000000E+03;  1.0000000E-01;  0.0000000E+00;0;  0.0000000E+00;  0.0000000E+00;  0.0000000E+00;0;  1.7002890E-04;  4.0000000E+04;  0.0000000E+00;  0.0000000E+00;  4.0000000E+04;  0.0000000E+00;  4.0000000E+04;  1.6531102E-04;  0.0000000E+00;  4.7178723E-06;  4.8289113E+00;
 -1.4000000E-01;  9.9999998E-03; -2.8000000E-01;561;  0.0000000E+00;  0.0000000E+00;  0.0000000E+00;  1.0000000E+03;  1.0000000E-01;  0.0000000E+00;0;  0.0000000E+00;  0.0000000E+00;  0.0000000E+00;0;  2.1461757E-04;  4.0000000E+04;  0.0000000E+00;  0.0000000E+00;  4.0000000E+04;  0.0000000E+00;  4.0000000E+04;  2.1128647E-04;  0.0000000E+00;  3.3310978E-06;  2.6118155E+00;
 -1.3000000E-01;  9.9999998E-03; -4.4000000E-01;636;  0.0000000E+00;  0.0000000E+00;  0.0000000E+00;  1.0000000E+03;  1.0000000E-01;  0.0000000E+00;0;  0.0000000E+00;  0.0000000E+00;  0.0000000E+00;0;  0.0000000E+00;  4.0000000E+04;  0.0000000E+00;  0.0000000E+00;  4.0000000E+04;  0.0000000E+00;  4.0000000E+04;  0.0000000E+00;  0.0000000E+00;  0.0000000E+00;  0.0000000E+00;
 -1.3000000E-01;  9.9999998E-03; -4.3000001E-01;637;  0.0000000E+00;  0.0000000E+00;  0.0000000E+00;  1.0000000E+03;  1.0000000E-01;  0.0000000E+00;0;  0.0000000E+00;  0.0000000E+00;  0.0000000E+00;0;  0.0000000E+00;  4.0000000E+04;  0.0000000E+00;  0.0000000E+00;  4.0000000E+04;  0.0000000E+00;  4.0000000E+04;  0.0000000E+00;  0.0000000E+00;  0.0000000E+00;  0.0000000E+00;
 -1.3000000E-01;  9.9999998E-03; -4.1999999E-01;638;  0.0000000E+00;  0.0000000E+00;  0.0000000E+00;  1.0000000E+03;  1.0000000E-01;  0.0000000E+00;0;  0.0000000E+00;  0.0000000E+00;  0.0000000E+00;0;  0.0000000E+00;  4.0000000E+04;  0.0000000E+00;  0.0000000E+00;  4.0000000E+04;  0.0000000E+00;  4.0000000E+04;  0.0000000E+00;  0.0000000E+00;  0.0000000E+00;  0.0000000E+00;
 -1.3000000E-01;  9.9999998E-03; -4.1000000E-01;639;  0.0000000E+00;  0.0000000E+00;  0.0000000E+00;  1.0000000E+03;  1.0000000E-01;  0.0000000E+00;0;  0.0000000E+00;  0.0000000E+00;  0.0000000E+00;0;  0.0000000E+00;  4.0000000E+04;  0.0000000E+00;  0.0000000E+00;  4.0000000E+04;  0.0000000E+00;  4.0000000E+04;  0.0000000E+00;  0.0000000E+00;  0.0000000E+00;  0.0000000E+00;
 -1.3000000E-01;  9.9999998E-03; -4.0000001E-01;640;  0.0000000E+00;  0.0000000E+00;  0.0000000E+00;  1.0000000E+03;  1.0000000E-01;  0.0000000E+00;0;  0.0000000E+00;  0.0000000E+00;  0.0000000E+00;0;  0.0000000E+00;  4.0000000E+04;  0.0000000E+00;  0.0000000E+00;  4.0000000E+04;  0.0000000E+00;  4.0000000E+04;  0.0000000E+00;  0.0000000E+00;  0.0000000E+00;  0.0000000E+00;
 -1.3000000E-01;  9.9999998E-03; -3.8999999E-01;641;  0.0000000E+00;  0.0000000E+00;  0.0000000E+00;  1.0000000E+03;  1.0000000E-01;  0.0000000E+00;0;  0.0000000E+00;  0.0000000E+00;  0.0000000E+00;0;  1.4601585E-07;  4.0000000E+04;  0.0000000E+00;  0.0000000E+00;  4.0000000E+04;  0.0000000E+00;  4.0000000E+04;  1.0347480E-07;  0.0000000E+00;  4.2541050E-08;  6.0358237E-02;
 -1.3000000E-01;  9.9999998E-03; -3.8000000E-01;642;  0.0000000E+00;  0.0000000E+00;  0.0000000E+00;  1.0000000E+03;  1.0000000E-01;  0.0000000E+00;0;  0.0000000E+00;  0.0000000E+00;  0.0000000E+00;0;  1.4730260E-06;  4.0000000E+04;  0.0000000E+00;  0.0000000E+00;  4.0000000E+04;  0.0000000E+00;  4.0000000E+04;  1.0877213E-06;  0.0000000E+00;  3.8530473E-07;  5.3163654E-01;
 -1.3000000E-01;  9.9999998E-03; -3.7000000E-01;643;  0.0000000E+00;  0.0000000E+00;  0.0000000E+00;  1.0000000E+03;  1.0000000E-01;  0.0000000E+00;0;  0.0000000E+00;  0.0000000E+00;  0.0000000E+00;0;  6.0845132E-06;  4.0000000E+04;  0.0000000E+00;  0.0000000E+00;  4.0000000E+04;  0.0000000E+00;  4.0000000E+04;  4.7004805E-06;  0.0000000E+00;  1.3840329E-06;  1.8340225E+00;
 -1.3000000E-01;  9.9999998E-03; -3.6000001E-01;644;  0.0000000E+00;  0.0000000E+00;  0.0000000E+00;  1.0000000E+03;  1.0000000E-01;  0.0000000E+00;0;  0.0000000E+00;  0.0000000E+00;  0.0000000E+00;0;  1.6945296E-05;  4.0000000E+04;  0.0000000E+00;  0.0000000E+00;  4.0000000E+04;  0.0000000E+00;  4.0000000E+04;  1.3655475E-05;  0.0000000E+00;  3.2898208E-06;  4.2274303E+00;
 -1.3000000E-01;  9.9999998E-03; -3.4999999E-01;645;  0.0000000E+00;  0.0000000E+00;  0.0000000E+00;  1.0000000E+03;  1.0000000E-01;  0.0000000E+00;0;  0.0000000E+00;  0.0000000E+00;  0.0000000E+00;0;  3.7508598E-05;  4.0000000E+04;  0.0000000E+00;  0.0000000E+00;  4.0000000E+04;  0.0000000E+00;  4.0000000E+04;  3.1395964E-05;  0.0000000E+00;  6.1126325E-06;  7.6685362E+00;
 -1.3000000E-01;  9.9999998E-03; -3.4000000E-01;646;  0.0000000E+00;  0.0000000E+00;  0.0000000E+00;  1.0000000E+03;  1.0000000E-01;  0.0000000E+00;0;  0.0000000E+00;  0.0000000E+00;  0.0000000E+00;0;  7.1178205E-05;  4.0000000E+04;  0.0000000E+00;  0.0000000E+00;  4.0000000E+04;  0.0000000E+00;  4.0000000E+04;  6.1599661E-05;  0.0000000E+00;  9.5785472E-06;  1.1775980E+01;
 -1.3000000E-01;  9.9999998E-03; -3.3000001E-01;647;  0.0000000E+00;  0.0000000E+00;  0.0000000E+00;  1.0000000E+03;  1.0000000E-01;  0.0000000E+00;0;  0.0000000E+00;  0.0000000E+00;  0.0000000E+00;0;  1.2068680E-04;  4.0000000E+04;  0.0000000E+00;  0.0000000E+00;  4.0000000E+04;  0.0000000E+00;  4.0000000E+04;  1.0752610E-04;  0.0000000E+00;  1.3160698E-05;  1.5857558E+01;
 -1.3000000E-01;  9.9999998E-03; -3.1999999E-01;648;  0.0000000E+00;  0.0000000E+00;  0.0000000E+00;  1.0000000E+03;  1.0000000E-01;  0.0000000E+00;0;  0.0000000E+00;  0.0000000E+00;  0.0000000E+00;0;  1.8745568E-04;  4.0000000E+04;  0.0000000E+00;  0.0000000E+00;  4.0000000E+04;  0.0000000E+00;  4.0000000E+04;  1.7129282E-04;  0.0000000E+00;  1.6162849E-05;  1.9013277E+01;
 -1.3000000E-01;  9.9999998E-03; -3.1000000E-01;649;  0.0000000E+00;  0.0000000E+00;  0.0000000E+00;  1.0000000E+03;  1.0000000E-01;  0.0000000E+00;0;  0.0000000E+00;  0.0000000E+00;  0.0000000E+00;0;  2.7109549E-04;  4.0000000E+04;  0.0000000E+00;  0.0000000E+00;  4.0000000E+04;  0.0000000E+00;  4.0000000E+04;  2.5323898E-04;  0.0000000E+00;  1.7856511E-05;  2.0312983E+01;
 -1.3000000E-01;  9.9999998E-03; -3.0000001E-01;650;  0.0000000E+00;  0.0000000E+00;  0.0000000E+00;  1.0000000E+03;  1.0000000E-01;  0.0000000E+00;0;  0.0000000E+00;  0.0000000E+00;  0.0000000E+00;0;  3.6922173E-04;  4.0000000E+04;  0.0000000E+00;  0.0000000E+00;  4.0000000E+04;  0.0000000E+00;  4.0000000E+04;  3.5155786E-04;  0.0000000E+00;  1.7663864E-05;  1.9016439E+01;
 -1.3000000E-01;  9.9999998E-03; -2.8999999E-01;651;  0.0000000E+00;  0.0000000E+00;  0.0000000E+00;  1.0000047E+03;  1.0000000E-01;  3.8517430E+00;0;  0.0000000E+00;  0.0000000E+00;  0.0000000E+00;0;  4.7765768E-04;  4.0000000E+04;  0.0000000E+00;  0.0000000E+00;  4.0000000E+04;  0.0000000E+00;  4.0000000E+04;  4.6231181E-04;  0.0000000E+00;  1.5345857E-05;  1.4789107E+01;
 -1.3000000E-01;  9.9999998E-03; -2.8000000E-01;652;  0.0000000E+00;  0.0000000E+00;  0.0000000E+00;  1.0000062E+03;  1.0000000E-01;  5.1356573E+00;0;  0.0000000E+00;  0.0000000E+00;  0.0000000E+00;0;  5.9095462E-04;  4.0000000E+04;  0.0000000E+00;  0.0000000E+00;  4.0000000E+04;  0.0000000E+00;  4.0000000E+04;  5.7983620E-04;  0.0000000E+00;  1.1118420E-05;  7.8344660E+00;
 -1.2000000E-01;  9.9999998E-03; -4.4000000E-01;727;  0.0000000E+00;  0.0000000E+00;  0.0000000E+00;  1.0000000E+03;  1.0000000E-01;  0.0000000E+00;0;  0.0000000E+00;  0.0000000E+00;  0.0000000E+00;0;  0.0000000E+00;  4.0000000E+04;  0.0000000E+00;  0.0000000E+00;  4.0000000E+04;  0.0000000E+00;  4.0000000E+04;  0.0000000E+00;  0.0000000E+00;  0.0000000E+00;  0.0000000E+00;
 -1.2000000E-01;  9.9999998E-03; -4.3000001E-01;728;  0.0000000E+00;  0.0000000E+00;  0.0000000E+00;  1.0000000E+03;  1.0000000E-01;  0.0000000E+00;0;  0.0000000E+00;  0.0000000E+00;  0.0000000E+00;0;  0.0000000E+00;  4.0000000E+04;  0.0000000E+00;  0.0000000E+00;  4.0000000E+04;  0.0000000E+00;  4.0000000E+04;  0.0000000E+00;  0.0000000E+00;  0.0000000E+00;  0.0000000E+00;
 -1.2000000E-01;  9.9999998E-03; -4.1999999E-01;729;  0.0000000E+00;  0.0000000E+00;  0.0000000E+00;  1.0000000E+03;  1.0000000E-01;  0.0000000E+00;0;  0.0000000E+00;  0.0000000E+00;  0.0000000E+00;0;  0.0000000E+00;  4.0000000E+04;  0.0000000E+00;  0.0000000E+00;  4.0000000E+04;  0.0000000E+00;  4.0000000E+04;  0.0000000E+00;  0.0000000E+00;  0.0000000E+00;  0.0000000E+00;
 -1.2000000E-01;  9.9999998E-03; -4.1000000E-01;730;  0.0000000E+00;  0.0000000E+00;  0.0000000E+00;  1.0000000E+03;  1.0000000E-01;  0.0000000E+00;0;  0.0000000E+00;  0.0000000E+00;  0.0000000E+00;0;  0.0000000E+00;  4.0000000E+04;  0.0000000E+00;  0.0000000E+00;  4.0000000E+04;  0.0000000E+00;  4.0000000E+04;  0.0000000E+00;  0.0000000E+00;  0.0000000E+00;  3.0553806E-06;
 -1.2000000E-01;  9.9999998E-03; -4.0000001E-01;731;  0.0000000E+00;  0.0000000E+00;  0.0000000E+00;  1.0000000E+03;  1.0000000E-01;  0.0000000E+00;0;  0.0000000E+00;  0.0000000E+00;  0.0000000E+00;0;  2.9350500E-07;  4.0000000E+04;  0.0000000E+00;  0.0000000E+00;  4.0000000E+04;  0.0000000E+00;  4.0000000E+04;  1.8632019E-07;  0.0000000E+00;  1.0718480E-07;  1.6538528E-01;
 -1.2000000E-01;  9.9999998E-03; -3.8999999E-01;732;  0.0000000E+00;  0.0000000E+00;  0.0000000E+00;  1.0000000E+03;  1.0000000E-01;  0.0000000E+00;0;  0.0000000E+00;  0.0000000E+00;  0.0000000E+00;0;  2.5346581E-06;  4.0000000E+04;  0.0000000E+00;  0.0000000E+00;  4.0000000E+04;  0.0000000E+00;  4.0000000E+04;  1.6981619E-06;  0.0000000E+00;  8.3649621E-07;  1.2141092E+00;
 -1.2000000E-01;  9.9999998E-03; -3.8000000E-01;733;  0.0000000E+00;  0.0000000E+00;  0.0000000E+00;  1.0000000E+03;  1.0000000E-01;  0.0000000E+00;0;  0.0000000E+00;  0.0000000E+00;  0.0000000E+00;0;  9.9622230E-06;  4.0000000E+04;  0.0000000E+00;  0.0000000E+00;  4.0000000E+04;  0.0000000E+00;  4.0000000E+04;  7.0584019E-06;  0.0000000E+00;  2.9038213E-06;  4.0077209E+00;
 -1.2000000E-01;  9.9999998E-03; -3.7000000E-01;734;  0.0000000E+00;  0.0000000E+00;  0.0000000E+00;  1.0000000E+03;  1.0000000E-01;  0.0000000E+00;0;  0.0000000E+00;  0.0000000E+00;  0.0000000E+00;0;  2.7130638E-05;  4.0000000E+04;  0.0000000E+00;  0.0000000E+00;  4.0000000E+04;  0.0000000E+00;  4.0000000E+04;  2.0290134E-05;  0.0000000E+00;  6.8405052E-06;  9.0795088E+00;
 -1.2000000E-01;  9.9999998E-03; -3.6000001E-01;735;  0.0000000E+00;  0.0000000E+00;  0.0000000E+00;  1.0000000E+03;  1.0000000E-01;  0.0000000E+00;0;  0.0000000E+00;  0.0000000E+00;  0.0000000E+00;0;  5.9501082E-05;  4.0000000E+04;  0.0000000E+00;  0.0000000E+00;  4.0000000E+04;  0.0000000E+00;  4.0000000E+04;  4.6739497E-05;  0.0000000E+00;  1.2761586E-05;  1.6428764E+01;
 -1.2000000E-01;  9.9999998E-03; -3.4999999E-01;736;  0.0000000E+00;  0.0000000E+00;  0.0000000E+00;  1.0000000E+03;  1.0000000E-01;  0.0000000E+00;0;  0.0000000E+00;  0.0000000E+00;  0.0000000E+00;0;  1.1290859E-04;  4.0000000E+04;  0.0000000E+00;  0.0000000E+00;  4.0000000E+04;  0.0000000E+00;  4.0000000E+04;  9.2607326E-05;  0.0000000E+00;  2.0301270E-05;  2.5465193E+01;
 -1.2000000E-01;  9.9999998E-03; -3.4000000E-01;737;  0.0000000E+00;  0.0000000E+00;  0.0000000E+00;  1.0000000E+03;  1.0000000E-01;  0.0000000E+00;0;  0.0000000E+00;  0.0000000E+00;  0.0000000E+00;0;  1.9275848E-04;  4.0000000E+04;  0.0000000E+00;  0.0000000E+00;  4.0000000E+04;  0.0000000E+00;  4.0000000E+04;  1.6412223E-04;  0.0000000E+00;  2.8636250E-05;  3.5047260E+01;
 -1.2000000E-01;  9.9999998E-03; -3.3000001E-01;738;  0.0000000E+00;  0.0000000E+00;  0.0000000E+00;  1.0000000E+03;  1.0000000E-01;  0.0000000E+00;0;  0.0000000E+00;  0.0000000E+00;  0.0000000E+00;0;  3.0305758E-04;  4.0000000E+04;  0.0000000E+00;  0.0000000E+00;  4.0000000E+04;  0.0000000E+00;  4.0000000E+04;  2.6648492E-04;  0.0000000E+00;  3.6572656E-05;  4.3595898E+01;
 -1.2000000E-01;  9.9999998E-03; -3.1999999E-01;739;  0.0000000E+00;  0.0000000E+00;  0.0000000E+00;  1.0000133E+03;  1.0000000E-01;  1.1061416E+01;0;  0.0000000E+00;  0.0000000E+00;  0.0000000E+00;0;  4.4544594E-04;  4.0000000E+04;  0.0000000E+00;  0.0000000E+00;  4.0000000E+04;  0.0000000E+00;  4.0000000E+04;  4.0274760E-04;  0.0000000E+00;  4.2698335E-05;  4.9300068E+01;
 -1.2000000E-01;  9.9999998E-03; -3.1000000E-01;740;  0.0000000E+00;  0.0000000E+00;  0.0000000E+00;  1.0000349E+03;  1.0000000E-01;  2.8937452E+01;0;  0.0000000E+00;  0.0000000E+00;  0.0000000E+00;0;  6.1849417E-04;  4.0000000E+04;  0.0000000E+00;  0.0000000E+00;  4.0000000E+04;  0.0000000E+00;  4.0000000E+04;  5.7287328E-04;  0.0000000E+00;  4.5620884E-05;  5.0423965E+01;
 -1.2000000E-01;  9.9999998E-03; -3.0000001E-01;741;  0.0000000E+00;  0.0000000E+00;  0.0000000E+00;  1.0000403E+03;  1.0000000E-01;  3.3381771E+01;0;  0.0000000E+00;  0.0000000E+00;  0.0000000E+00;0;  8.1751292E-04;  4.0000000E+04;  0.0000000E+00;  0.0000000E+00;  4.0000000E+04;  0.0000000E+00;  4.0000000E+04;  7.7322213E-04;  0.0000000E+00;  4.4290773E-05;  4.5688889E+01;
 -1.2000000E-01;  9.9999998E-03; -2.8999999E-01;742;  0.0000000E+00;  0.0000000E+00;  0.0000000E+00;  1.0000510E+03;  1.0000000E-01;  4.2270409E+01;0;  0.0000000E+00;  0.0000000E+00;  0.0000000E+00;0;  1.0349806E-03;  4.0000000E+04;  0.0000000E+00;  0.0000000E+00;  4.0000000E+04;  0.0000000E+00;  4.0000000E+04;  9.9664123E-04;  0.0000000E+00;  3.8339422E-05;  3.4656551E+01;
 -1.2000000E-01;  9.9999998E-03; -2.8000000E-01;743;  0.0000000E+00;  0.0000000E+00;  0.0000000E+00;  1.0000594E+03;  1.0000000E-01;  4.9282558E+01;0;  0.0000000E+00;  0.0000000E+00;  0.0000000E+00;0;  1.2614207E-03;  4.0000000E+04;  0.0000000E+00;  0.0000000E+00;  4.0000000E+04;  0.0000000E+00;  4.0000000E+04;  1.2331378E-03;  0.0000000E+00;  2.8282911E-05;  1.7942595E+01;
 -1.1000000E-01;  9.9999998E-03; -4.4000000E-01;818;  0.0000000E+00;  0.0000000E+00;  0.0000000E+00;  1.0000000E+03;  1.0000000E-01;  0.0000000E+00;0;  0.0000000E+00;  0.0000000E+00;  0.0000000E+00;0;  0.0000000E+00;  4.0000000E+04;  0.0000000E+00;  0.0000000E+00;  4.0000000E+04;  0.0000000E+00;  4.0000000E+04;  0.0000000E+00;  0.0000000E+00;  0.0000000E+00;  0.0000000E+00;
 -1.1000000E-01;  9.9999998E-03; -4.3000001E-01;819;  0.0000000E+00;  0.0000000E+00;  0.0000000E+00;  1.0000000E+03;  1.0000000E-01;  0.0000000E+00;0;  0.0000000E+00;  0.0000000E+00;  0.0000000E+00;0;  0.0000000E+00;  4.0000000E+04;  0.0000000E+00;  0.0000000E+00;  4.0000000E+04;  0.0000000E+00;  4.0000000E+04;  0.0000000E+00;  0.0000000E+00;  0.0000000E+00;  0.0000000E+00;
 -1.1000000E-01;  9.9999998E-03; -4.1999999E-01;820;  0.0000000E+00;  0.0000000E+00;  0.0000000E+00;  1.0000000E+03;  1.0000000E-01;  0.0000000E+00;0;  0.0000000E+00;  0.0000000E+00;  0.0000000E+00;0;  0.0000000E+00;  4.0000000E+04;  0.0000000E+00;  0.0000000E+00;  4.0000000E+04;  0.0000000E+00;  4.0000000E+04;  0.0000000E+00;  0.0000000E+00;  0.0000000E+00;  2.4097387E-06;
 -1.1000000E-01;  9.9999998E-03; -4.1000000E-01;821;  0.0000000E+00;  0.0000000E+00;  0.0000000E+00;  1.0000000E+03;  1.0000000E-01;  0.0000000E+00;0;  0.0000000E+00;  0.0000000E+00;  0.0000000E+00;0;  3.3729486E-07;  4.0000000E+04;  0.0000000E+00;  0.0000000E+00;  4.0000000E+04;  0.0000000E+00;  4.0000000E+04;  1.8885109E-07;  0.0000000E+00;  1.4844379E-07;  2.5128645E-01;
 -1.1000000E-01;  9.9999998E-03; -4.0000001E-01;822;  0.0000000E+00;  0.0000000E+00;  0.0000000E+00;  1.0000000E+03;  1.0000000E-01;  0.0000000E+00;0;  0.0000000E+00;  0.0000000E+00;  0.0000000E+00;0;  3.1357122E-06;  4.0000000E+04;  0.0000000E+00;  0.0000000E+00;  4.0000000E+04;  0.0000000E+00;  4.0000000E+04;  1.8659256E-06;  0.0000000E+00;  1.2697866E-06;  1.9413857E+00;
 -1.1000000E-01;  9.9999998E-03; -3.8999999E-01;823;  0.0000000E+00;  0.0000000E+00;  0.0000000E+00;  1.0000000E+03;  1.0000000E-01;  0.0000000E+00;0;  0.0000000E+00;  0.0000000E+00;  0.0000000E+00;0;  1.2696284E-05;  4.0000000E+04;  0.0000000E+00;  0.0000000E+00;  4.0000000E+04;  0.0000000E+00;  4.0000000E+04;  8.0688669E-06;  0.0000000E+00;  4.6274167E-06;  6.6292596E+00;
 -1.1000000E-01;  9.9999998E-03; -3.8000000E-01;824;  0.0000000E+00;  0.0000000E+00;  0.0000000E+00;  1.0000000E+03;  1.0000000E-01;  0.0000000E+00;0;  0.0000000E+00;  0.0000000E+00;  0.0000000E+00;0;  3.5118726E-05;  4.0000000E+04;  0.0000000E+00;  0.0000000E+00;  4.0000000E+04;  0.0000000E+00;  4.0000000E+04;  2.3858584E-05;  0.0000000E+00;  1.1260143E-05;  1.5386854E+01;
 -1.1000000E-01;  9.9999998E-03; -3.7000000E-01;825;  0.0000000E+00;  0.0000000E+00;  0.0000000E+00;  1.0000000E+03;  1.0000000E-01;  0.0000000E+00;0;  0.0000000E+00;  0.0000000E+00;  0.0000000E+00;0;  7.7912686E-05;  4.0000000E+04;  0.0000000E+00;  0.0000000E+00;  4.0000000E+04;  0.0000000E+00;  4.0000000E+04;  5.6344943E-05;  0.0000000E+00;  2.1567746E-05;  2.8399593E+01;
 -1.1000000E-01;  9.9999998E-03; -3.6000001E-01;826;  0.0000000E+00;  0.0000000E+00;  0.0000000E+00;  1.0000000E+03;  1.0000000E-01;  0.0000000E+00;0;  0.0000000E+00;  0.0000000E+00;  0.0000000E+00;0;  1.4953126E-04;  4.0000000E+04;  0.0000000E+00;  0.0000000E+00;  4.0000000E+04;  0.0000000E+00;  4.0000000E+04;  1.1433396E-04;  0.0000000E+00;  3.5197296E-05;  4.4924812E+01;
 -1.1000000E-01;  9.9999998E-03; -3.4999999E-01;827;  0.0000000E+00;  0.0000000E+00;  0.0000000E+00;  1.0000000E+03;  1.0000000E-01;  0.0000000E+00;0;  0.0000000E+00;  0.0000000E+00;  0.0000000E+00;0;  2.5864405E-04;  4.0000000E+04;  0.0000000E+00;  0.0000000E+00;  4.0000000E+04;  0.0000000E+00;  4.0000000E+04;  2.0755800E-04;  0.0000000E+00;  5.1086041E-05;  6.3366608E+01;
 -1.1000000E-01;  9.9999998E-03; -3.4000000E-01;828;  0.0000000E+00;  0.0000000E+00;  0.0000000E+00;  1.0000266E+03;  1.0000000E-01;  2.2024069E+01;0;  0.0000000E+00;  0.0000000E+00;  0.0000000E+00;0;  4.1297145E-04;  4.0000000E+04;  0.0000000E+00;  0.0000000E+00;  4.0000000E+04;  0.0000000E+00;  4.0000000E+04;  3.4542728E-04;  0.0000000E+00;  6.7544177E-05;  8.1394928E+01;
 -1.1000000E-01;  9.9999998E-03; -3.3000001E-01;829;  0.0000000E+00;  0.0000000E+00;  0.0000000E+00;  1.0000405E+03;  1.0000000E-01;  3.3480534E+01;0;  0.0000000E+00;  0.0000000E+00;  0.0000000E+00;0;  6.1783748E-04;  4.0000000E+04;  0.0000000E+00;  0.0000000E+00;  4.0000000E+04;  0.0000000E+00;  4.0000000E+04;  5.3545838E-04;  0.0000000E+00;  8.2379105E-05;  9.6141838E+01;
 -1.1000000E-01;  9.9999998E-03; -3.1999999E-01;830;  0.0000000E+00;  0.0000000E+00;  0.0000000E+00;  1.0000563E+03;  1.0000000E-01;  4.6714729E+01;0;  0.0000000E+00;  0.0000000E+00;  0.0000000E+00;0;  8.7477901E-04;  4.0000000E+04;  0.0000000E+00;  0.0000000E+00;  4.0000000E+04;  0.0000000E+00;  4.0000000E+04;  7.8165729E-04;  0.0000000E+00;  9.3121729E-05;  1.0451656E+02;
 -1.1000000E-01;  9.9999998E-03; -3.1000000E-01;831;  0.0000000E+00;  0.0000000E+00;  0.0000000E+00;  1.0000733E+03;  1.0000000E-01;  6.0739021E+01;0;  0.0000000E+00;  0.0000000E+00;  0.0000000E+00;0;  1.1806067E-03;  4.0000000E+04;  0.0000000E+00;  0.0000000E+00;  4.0000000E+04;  0.0000000E+00;  4.0000000E+04;  1.0832011E-03;  0.0000000E+00;  9.7405544E-05;  1.0368566E+02;
 -1.1000000E-01;  9.9999998E-03; -3.0000001E-01;832;  0.0000000E+00;  0.0000000E+00;  0.0000000E+00;  1.0000942E+03;  1.0000000E-01;  7.8121246E+01;0;  0.0000000E+00;  0.0000000E+00;  0.0000000E+00;0;  1.5272865E-03;  4.0000000E+04;  0.0000000E+00;  0.0000000E+00;  4.0000000E+04;  0.0000000E+00;  4.0000000E+04;  1.4337840E-03;  0.0000000E+00;  9.3502487E-05;  9.1707359E+01;
 -1.1000000E-01;  9.9999998E-03; -2.8999999E-01;833;  0.0000000E+00;  0.0000000E+00;  0.0000000E+00;  1.0001147E+03;  1.0000000E-01;  9.5108421E+01;0;  0.0000000E+00;  0.0000000E+00;  0.0000000E+00;0;  1.9027210E-03;  4.0000000E+04;  0.0000000E+00;  0.0000000E+00;  4.0000000E+04;  0.0000000E+00;  4.0000000E+04;  1.8218306E-03;  0.0000000E+00;  8.0890415E-05;  6.8151657E+01;
 -1.1000000E-01;  9.9999998E-03; -2.8000000E-01;834;  0.0000000E+00;  0.0000000E+00;  0.0000000E+00;  1.0001235E+03;  1.0000000E-01;  1.0231809E+02;0;  0.0000000E+00;  0.0000000E+00;  0.0000000E+00;0;  2.2921027E-03;  4.0000000E+04;  0.0000000E+00;  0.0000000E+00;  4.0000000E+04;  0.0000000E+00;  4.0000000E+04;  2.2315148E-03;  0.0000000E+00;  6.0587856E-05;  3.4433434E+01;
 -1.0000000E-01;  9.9999998E-03; -4.4000000E-01;909;  0.0000000E+00;  0.0000000E+00;  0.0000000E+00;  1.0000000E+03;  1.0000000E-01;  0.0000000E+00;0;  0.0000000E+00;  0.0000000E+00;  0.0000000E+00;0;  0.0000000E+00;  4.0000000E+04;  0.0000000E+00;  0.0000000E+00;  4.0000000E+04;  0.0000000E+00;  4.0000000E+04;  0.0000000E+00;  0.0000000E+00;  0.0000000E+00;  0.0000000E+00;
 -1.0000000E-01;  9.9999998E-03; -4.3000001E-01;910;  0.0000000E+00;  0.0000000E+00;  0.0000000E+00;  1.0000000E+03;  1.0000000E-01;  0.0000000E+00;0;  0.0000000E+00;  0.0000000E+00;  0.0000000E+00;0;  0.0000000E+00;  4.0000000E+04;  0.0000000E+00;  0.0000000E+00;  4.0000000E+04;  0.0000000E+00;  4.0000000E+04;  0.0000000E+00;  0.0000000E+00;  0.0000000E+00;  0.0000000E+00;
 -1.0000000E-01;  9.9999998E-03; -4.1999999E-01;911;  0.0000000E+00;  0.0000000E+00;  0.0000000E+00;  1.0000000E+03;  1.0000000E-01;  0.0000000E+00;0;  0.0000000E+00;  0.0000000E+00;  0.0000000E+00;0;  2.3603174E-07;  4.0000000E+04;  0.0000000E+00;  0.0000000E+00;  4.0000000E+04;  0.0000000E+00;  4.0000000E+04;  1.1502267E-07;  0.0000000E+00;  1.2100907E-07;  2.3246934E-01;
 -1.0000000E-01;  9.9999998E-03; -4.1000000E-01;912;  0.0000000E+00;  0.0000000E+00;  0.0000000E+00;  1.0000000E+03;  1.0000000E-01;  0.0000000E+00;0;  0.0000000E+00;  0.0000000E+00;  0.0000000E+00;0;  2.9467492E-06;  4.0000000E+04;  0.0000000E+00;  0.0000000E+00;  4.0000000E+04;  0.0000000E+00;  4.0000000E+04;  1.5325180E-06;  0.0000000E+00;  1.4142312E-06;  2.3032942E+00;
 -1.0000000E-01;  9.9999998E-03; -4.0000001E-01;913;  0.0000000E+00;  0.0000000E+00;  0.0000000E+00;  1.0000000E+03;  1.0000000E-01;  0.0000000E+00;0;  0.0000000E+00;  0.0000000E+00;  0.0000000E+00;0;  1.3264245E-05;  4.0000000E+04;  0.0000000E+00;  0.0000000E+00;  4.0000000E+04;  0.0000000E+00;  4.0000000E+04;  7.4044265E-06;  0.0000000E+00;  5.8598189E-06;  8.7553024E+00;
 -1.0000000E-01;  9.9999998E-03; -3.8999999E-01;914;  0.0000000E+00;  0.0000000E+00;  0.0000000E+00;  1.0000000E+03;  1.0000000E-01;  0.0000000E+00;0;  0.0000000E+00;  0.0000000E+00;  0.0000000E+00;0;  3.8674858E-05;  4.0000000E+04;  0.0000000E+00;  0.0000000E+00;  4.0000000E+04;  0.0000000E+00;  4.0000000E+04;  2.3332543E-05;  0.0000000E+00;  1.5342313E-05;  2.1614395E+01;
 -1.0000000E-01;  9.9999998E-03; -3.8000000E-01;915;  0.0000000E+00;  0.0000000E+00;  0.0000000E+00;  1.0000000E+03;  1.0000000E-01;  0.0000000E+00;0;  0.0000000E+00;  0.0000000E+00;  0.0000000E+00;0;  8.8490975E-05;  4.0000000E+04;  0.0000000E+00;  0.0000000E+00;  4.0000000E+04;  0.0000000E+00;  4.0000000E+04;  5.7637713E-05;  0.0000000E+00;  3.0853262E-05;  4.1567459E+01;
 -1.0000000E-01;  9.9999998E-03; -3.7000000E-01;916;  0.0000000E+00;  0.0000000E+00;  0.0000000E+00;  1.0000000E+03;  1.0000000E-01;  0.0000000E+00;0;  0.0000000E+00;  0.0000000E+00;  0.0000000E+00;0;  1.7357836E-04;  4.0000000E+04;  0.0000000E+00;  0.0000000E+00;  4.0000000E+04;  0.0000000E+00;  4.0000000E+04;  1.2130751E-04;  0.0000000E+00;  5.2270858E-05;  6.7880280E+01;
 -1.0000000E-01;  9.9999998E-03; -3.6000001E-01;917;  0.0000000E+00;  0.0000000E+00;  0.0000000E+00;  1.0000137E+03;  1.0000000E-01;  1.1357703E+01;0;  0.0000000E+00;  0.0000000E+00;  0.0000000E+00;0;  3.0587814E-04;  4.0000000E+04;  0.0000000E+00;  0.0000000E+00;  4.0000000E+04;  0.0000000E+00;  4.0000000E+04;  2.2744115E-04;  0.0000000E+00;  7.8436999E-05;  9.8577728E+01;
 -1.0000000E-01;  9.9999998E-03; -3.4999999E-01;918;  0.0000000E+00;  0.0000000E+00;  0.0000000E+00;  1.0000421E+03;  1.0000000E-01;  3.4863213E+01;0;  0.0000000E+00;  0.0000000E+00;  0.0000000E+00;0;  4.9736648E-04;  4.0000000E+04;  0.0000000E+00;  0.0000000E+00;  4.0000000E+04;  0.0000000E+00;  4.0000000E+04;  3.9009159E-04;  0.0000000E+00;  1.0727490E-04;  1.3062366E+02;
 -1.0000000E-01;  9.9999998E-03; -3.4000000E-01;919;  0.0000000E+00;  0.0000000E+00;  0.0000000E+00;  1.0000590E+03;  1.0000000E-01;  4.8887505E+01;0;  0.0000000E+00;  0.0000000E+00;  0.0000000E+00;0;  7.5838744E-04;  4.0000000E+04;  0.0000000E+00;  0.0000000E+00;  4.0000000E+04;  0.0000000E+00;  4.0000000E+04;  6.2249549E-04;  0.0000000E+00;  1.3589194E-04;  1.6008743E+02;
 -1.0000000E-01;  9.9999998E-03; -3.3000001E-01;920;  0.0000000E+00;  0.0000000E+00;  0.0000000E+00;  1.0000868E+03;  1.0000000E-01;  7.1899200E+01;0;  0.0000000E+00;  0.0000000E+00;  0.0000000E+00;0;  1.0955953E-03;  4.0000000E+04;  0.0000000E+00;  0.0000000E+00;  4.0000000E+04;  0.0000000E+00;  4.0000000E+04;  9.3487569E-04;  0.0000000E+00;  1.6071968E-04;  1.8239111E+02;
 -1.0000000E-01;  9.9999998E-03; -3.1999999E-01;921;  0.0000000E+00;  0.0000000E+00;  0.0000000E+00;  1.0001183E+03;  1.0000000E-01;  9.8071297E+01;0;  0.0000000E+00;  0.0000000E+00;  0.0000000E+00;0;  1.5100243E-03;  4.0000000E+04;  0.0000000E+00;  0.0000000E+00;  4.0000000E+04;  0.0000000E+00;  4.0000000E+04;  1.3322058E-03;  0.0000000E+00;  1.7781851E-04;  1.9275481E+02;
 -1.0000000E-01;  9.9999998E-03; -3.1000000E-01;922;  0.0000000E+00;  0.0000000E+00;  0.0000000E+00;  1.0001387E+03;  1.0000000E-01;  1.1495971E+02;0;  0.0000000E+00;  0.0000000E+00;  0.0000000E+00;0;  1.9958902E-03;  4.0000000E+04;  0.0000000E+00;  0.0000000E+00;  4.0000000E+04;  0.0000000E+00;  4.0000000E+04;  1.8124372E-03;  0.0000000E+00;  1.8345287E-04;  1.8694490E+02;
 -1.0000000E-01;  9.9999998E-03; -3.0000001E-01;923;  0.0000000E+00;  0.0000000E+00;  0.0000000E+00;  1.0001813E+03;  1.0000000E-01;  1.5021797E+02;0;  0.0000000E+00;  0.0000000E+00;  0.0000000E+00;0;  2.5406375E-03;  4.0000000E+04;  0.0000000E+00;  0.0000000E+00;  4.0000000E+04;  0.0000000E+00;  4.0000000E+04;  2.3656944E-03;  0.0000000E+00;  1.7494302E-04;  1.6225243E+02;
 -1.0000000E-01;  9.9999998E-03; -2.8999999E-01;924;  0.0000000E+00;  0.0000000E+00;  0.0000000E+00;  1.0002002E+03;  1.0000000E-01;  1.6582246E+02;0;  0.0000000E+00;  0.0000000E+00;  0.0000000E+00;0;  3.1262345E-03;  4.0000000E+04;  0.0000000E+00;  0.0000000E+00;  4.0000000E+04;  0.0000000E+00;  4.0000000E+04;  2.9746636E-03;  0.0000000E+00;  1.5157094E-04;  1.1846445E+02;
 -1.0000000E-01;  9.9999998E-03; -2.8000000E-01;925;  0.0000000E+00;  0.0000000E+00;  0.0000000E+00;  1.0002394E+03;  1.0000000E-01;  1.9841414E+02;0;  0.0000000E+00;  0.0000000E+00;  0.0000000E+00;0;  3.7311399E-03;  4.0000000E+04;  0.0000000E+00;  0.0000000E+00;  4.0000000E+04;  0.0000000E+00;  4.0000000E+04;  3.6160331E-03;  0.0000000E+00;  1.1510674E-04;  5.8389271E+01;
 -9.0000004E-02;  9.9999998E-03; -4.4000000E-01;1000;  0.0000000E+00;  0.0000000E+00;  0.0000000E+00;  1.0000000E+03;  1.0000000E-01;  0.0000000E+00;0;  0.0000000E+00;  0.0000000E+00;  0.0000000E+00;0;  0.0000000E+00;  4.0000000E+04;  0.0000000E+00;  0.0000000E+00;  4.0000000E+04;  0.0000000E+00;  4.0000000E+04;  0.0000000E+00;  0.0000000E+00;  0.0000000E+00;  0.0000000E+00;
 -9.0000004E-02;  9.9999998E-03; -4.3000001E-01;1001;  0.0000000E+00;  0.0000000E+00;  0.0000000E+00;  1.0000000E+03;  1.0000000E-01;  0.0000000E+00;0;  0.0000000E+00;  0.0000000E+00;  0.0000000E+00;0;  8.4192322E-08;  4.0000000E+04;  0.0000000E+00;  0.0000000E+00;  4.0000000E+04;  0.0000000E+00;  4.0000000E+04;  3.4684959E-08;  0.0000000E+00;  4.9507367E-08;  1.1757614E-01;
 -9.0000004E-02;  9.9999998E-03; -4.1999999E-01;1002;  0.0000000E+00;  0.0000000E+00;  0.0000000E+00;  1.0000000E+03;  1.0000000E-01;  0.0000000E+00;0;  0.0000000E+00;  0.0000000E+00;  0.0000000E+00;0;  2.0732468E-06;  4.0000000E+04;  0.0000000E+00;  0.0000000E+00;  4.0000000E+04;  0.0000000E+00;  4.0000000E+04;  9.3537841E-07;  0.0000000E+00;  1.1378685E-06;  2.0136626E+00;
 -9.0000004E-02;  9.9999998E-03; -4.1000000E-01;1003;  0.0000000E+00;  0.0000000E+00;  0.0000000E+00;  1.0000000E+03;  1.0000000E-01;  0.0000000E+00;0;  0.0000000E+00;  0.0000000E+00;  0.0000000E+00;0;  1.1452462E-05;  4.0000000E+04;  0.0000000E+00;  0.0000000E+00;  4.0000000E+04;  0.0000000E+00;  4.0000000E+04;  5.5289033E-06;  0.0000000E+00;  5.9235585E-06;  9.3278866E+00;
 -9.0000004E-02;  9.9999998E-03; -4.0000001E-01;1004;  0.0000000E+00;  0.0000000E+00;  0.0000000E+00;  1.0000000E+03;  1.0000000E-01;  0.0000000E+00;0;  0.0000000E+00;  0.0000000E+00;  0.0000000E+00;0;  3.6868511E-05;  4.0000000E+04;  0.0000000E+00;  0.0000000E+00;  4.0000000E+04;  0.0000000E+00;  4.0000000E+04;  1.9338007E-05;  0.0000000E+00;  1.7530503E-05;  2.5616488E+01;
 -9.0000004E-02;  9.9999998E-03; -3.8999999E-01;1005;  0.0000000E+00;  0.0000000E+00;  0.0000000E+00;  1.0000000E+03;  1.0000000E-01;  0.0000000E+00;0;  0.0000000E+00;  0.0000000E+00;  0.0000000E+00;0;  8.9163921E-05;  4.0000000E+04;  0.0000000E+00;  0.0000000E+00;  4.0000000E+04;  0.0000000E+00;  4.0000000E+04;  5.1105973E-05;  0.0000000E+00;  3.8057944E-05;  5.2650002E+01;
 -9.0000004E-02;  9.9999998E-03; -3.8000000E-01;1006;  0.0000000E+00;  0.0000000E+00;  0.0000000E+00;  1.0000000E+03;  1.0000000E-01;  0.0000000E+00;0;  0.0000000E+00;  0.0000000E+00;  0.0000000E+00;0;  1.8109485E-04;  4.0000000E+04;  0.0000000E+00;  0.0000000E+00;  4.0000000E+04;  0.0000000E+00;  4.0000000E+04;  1.1309575E-04;  0.0000000E+00;  6.7999092E-05;  9.0054726E+01;
 -9.0000004E-02;  9.9999998E-03; -3.7000000E-01;1007;  0.0000000E+00;  0.0000000E+00;  0.0000000E+00;  1.0000407E+03;  1.0000000E-01;  3.3776821E+01;0;  0.0000000E+00;  0.0000000E+00;  0.0000000E+00;0;  3.2728925E-04;  4.0000000E+04;  0.0000000E+00;  0.0000000E+00;  4.0000000E+04;  0.0000000E+00;  4.0000000E+04;  2.2094742E-04;  0.0000000E+00;  1.0634184E-04;  1.3565211E+02;
 -9.0000004E-02;  9.9999998E-03; -3.6000001E-01;1008;  0.0000000E+00;  0.0000000E+00;  0.0000000E+00;  1.0000530E+03;  1.0000000E-01;  4.3949375E+01;0;  0.0000000E+00;  0.0000000E+00;  0.0000000E+00;0;  5.4370024E-04;  4.0000000E+04;  0.0000000E+00;  0.0000000E+00;  4.0000000E+04;  0.0000000E+00;  4.0000000E+04;  3.9287968E-04;  0.0000000E+00;  1.5082055E-04;  1.8582362E+02;
 -9.0000004E-02;  9.9999998E-03; -3.4999999E-01;1009;  0.0000000E+00;  0.0000000E+00;  0.0000000E+00;  1.0000778E+03;  1.0000000E-01;  6.4393242E+01;0;  0.0000000E+00;  0.0000000E+00;  0.0000000E+00;0;  8.4614957E-04;  4.0000000E+04;  0.0000000E+00;  0.0000000E+00;  4.0000000E+04;  0.0000000E+00;  4.0000000E+04;  6.4809044E-04;  0.0000000E+00;  1.9805913E-04;  2.3571375E+02;
 -9.0000004E-02;  9.9999998E-03; -3.4000000E-01;1010;  0.0000000E+00;  0.0000000E+00;  0.0000000E+00;  1.0001224E+03;  1.0000000E-01;  1.0142923E+02;0;  0.0000000E+00;  0.0000000E+00;  0.0000000E+00;0;  1.2479712E-03;  4.0000000E+04;  0.0000000E+00;  0.0000000E+00;  4.0000000E+04;  0.0000000E+00;  4.0000000E+04;  1.0043507E-03;  0.0000000E+00;  2.4362052E-04;  2.7938269E+02;
 -9.0000004E-02;  9.9999998E-03; -3.3000001E-01;1011;  0.0000000E+00;  0.0000000E+00;  0.0000000E+00;  1.0001506E+03;  1.0000000E-01;  1.2473721E+02;0;  0.0000000E+00;  0.0000000E+00;  0.0000000E+00;0;  1.7571741E-03;  4.0000000E+04;  0.0000000E+00;  0.0000000E+00;  4.0000000E+04;  0.0000000E+00;  4.0000000E+04;  1.4750448E-03;  0.0000000E+00;  2.8212939E-04;  3.1009427E+02;
 -9.0000004E-02;  9.9999998E-03; -3.1999999E-01;1012;  0.0000000E+00;  0.0000000E+00;  0.0000000E+00;  1.0001996E+03;  1.0000000E-01;  1.6542741E+02;0;  0.0000000E+00;  0.0000000E+00;  0.0000000E+00;0;  2.3738502E-03;  4.0000000E+04;  0.0000000E+00;  0.0000000E+00;  4.0000000E+04;  0.0000000E+00;  4.0000000E+04;  2.0661822E-03;  0.0000000E+00;  3.0766806E-04;  3.2093494E+02;
 -9.0000004E-02;  9.9999998E-03; -3.1000000E-01;1013;  0.0000000E+00;  0.0000000E+00;  0.0000000E+00;  1.0002561E+03;  1.0000000E-01;  2.1214215E+02;0;  0.0000000E+00;  0.0000000E+00;  0.0000000E+00;0;  3.0887066E-03;  4.0000000E+04;  0.0000000E+00;  0.0000000E+00;  4.0000000E+04;  0.0000000E+00;  4.0000000E+04;  2.7740793E-03;  0.0000000E+00;  3.1462719E-04;  3.0592502E+02;
 -9.0000004E-02;  9.9999998E-03; -3.0000001E-01;1014;  0.0000000E+00;  0.0000000E+00;  0.0000000E+00;  1.0003123E+03;  1.0000000E-01;  2.5875812E+02;0;  0.0000000E+00;  0.0000000E+00;  0.0000000E+00;0;  3.8833702E-03;  4.0000000E+04;  0.0000000E+00;  0.0000000E+00;  4.0000000E+04;  0.0000000E+00;  4.0000000E+04;  3.5843626E-03;  0.0000000E+00;  2.9900752E-04;  2.6150513E+02;
 -9.0000004E-02;  9.9999998E-03; -2.8999999E-01;1015;  0.0000000E+00;  0.0000000E+00;  0.0000000E+00;  1.0003621E+03;  1.0000000E-01;  2.9994214E+02;0;  0.0000000E+00;  0.0000000E+00;  0.0000000E+00;0;  4.7323485E-03;  4.0000000E+04;  0.0000000E+00;  0.0000000E+00;  4.0000000E+04;  0.0000000E+00;  4.0000000E+04;  4.4725379E-03;  0.0000000E+00;  2.5981051E-04;  1.8798329E+02;
 -9.0000004E-02;  9.9999998E-03; -2.8000000E-01;1016;  0.0000000E+00;  0.0000000E+00;  0.0000000E+00;  1.0004174E+03;  1.0000000E-01;  3.4576801E+02;0;  0.0000000E+00;  0.0000000E+00;  0.0000000E+00;0;  5.6058182E-03;  4.0000000E+04;  0.0000000E+00;  0.0000000E+00;  4.0000000E+04;  0.0000000E+00;  4.0000000E+04;  5.4059657E-03;  0.0000000E+00;  1.9985239E-04;  9.0535477E+01;
 -7.9999998E-02;  9.9999998E-03; -4.4000000E-01;1091;  0.0000000E+00;  0.0000000E+00;  0.0000000E+00;  1.0000000E+03;  1.0000000E-01;  0.0000000E+00;0;  0.0000000E+00;  0.0000000E+00;  0.0000000E+00;0;  1.1411116E-08;  4.0000000E+04;  0.0000000E+00;  0.0000000E+00;  4.0000000E+04;  0.0000000E+00;  4.0000000E+04;  4.0093133E-09;  0.0000000E+00;  7.4018023E-09;  2.1352526E-02;
 -7.9999998E-02;  9.9999998E-03; -4.3000001E-01;1092;  0.0000000E+00;  0.0000000E+00;  0.0000000E+00;  1.0000000E+03;  1.0000000E-01;  0.0000000E+00;0;  0.0000000E+00;  0.0000000E+00;  0.0000000E+00;0;  1.0060018E-06;  4.0000000E+04;  0.0000000E+00;  0.0000000E+00;  4.0000000E+04;  0.0000000E+00;  4.0000000E+04;  3.9474330E-07;  0.0000000E+00;  6.1125849E-07;  1.2152128E+00;
 -7.9999998E-02;  9.9999998E-03; -4.1999999E-01;1093;  0.0000000E+00;  0.0000000E+00;  0.0000000E+00;  1.0000000E+03;  1.0000000E-01;  0.0000000E+00;0;  0.0000000E+00;  0.0000000E+00;  0.0000000E+00;0;  7.9426336E-06;  4.0000000E+04;  0.0000000E+00;  0.0000000E+00;  4.0000000E+04;  0.0000000E+00;  4.0000000E+04;  3.2951675E-06;  0.0000000E+00;  4.6474665E-06;  7.8482552E+00;
 -7.9999998E-02;  9.9999998E-03; -4.1000000E-01;1094;  0.0000000E+00;  0.0000000E+00;  0.0000000E+00;  1.0000000E+03;  1.0000000E-01;  0.0000000E+00;0;  0.0000000E+00;  0.0000000E+00;  0.0000000E+00;0;  3.0178264E-05;  4.0000000E+04;  0.0000000E+00;  0.0000000E+00;  4.0000000E+04;  0.0000000E+00;  4.0000000E+04;  1.3542181E-05;  0.0000000E+00;  1.6636082E-05;  2.5484295E+01;
 -7.9999998E-02;  9.9999998E-03; -4.0000001E-01;1095;  0.0000000E+00;  0.0000000E+00;  0.0000000E+00;  1.0000000E+03;  1.0000000E-01;  0.0000000E+00;0;  0.0000000E+00;  0.0000000E+00;  0.0000000E+00;0;  7.9922720E-05;  4.0000000E+04;  0.0000000E+00;  0.0000000E+00;  4.0000000E+04;  0.0000000E+00;  4.0000000E+04;  3.9429960E-05;  0.0000000E+00;  4.0492760E-05;  5.7922371E+01;
 -7.9999998E-02;  9.9999998E-03; -3.8999999E-01;1096;  0.0000000E+00;  0.0000000E+00;  0.0000000E+00;  1.0000000E+03;  1.0000000E-01;  0.0000000E+00;0;  0.0000000E+00;  0.0000000E+00;  0.0000000E+00;0;  1.7136612E-04;  4.0000000E+04;  0.0000000E+00;  0.0000000E+00;  4.0000000E+04;  0.0000000E+00;  4.0000000E+04;  9.3343959E-05;  0.0000000E+00;  7.8022167E-05;  1.0588400E+02;
 -7.9999998E-02;  9.9999998E-03; -3.8000000E-01;1097;  0.0000000E+00;  0.0000000E+00;  0.0000000E+00;  1.0000444E+03;  1.0000000E-01;  3.6739700E+01;0;  0.0000000E+00;  0.0000000E+00;  0.0000000E+00;0;  3.2087587E-04;  4.0000000E+04;  0.0000000E+00;  0.0000000E+00;  4.0000000E+04;  0.0000000E+00;  4.0000000E+04;  1.9209027E-04;  0.0000000E+00;  1.2878560E-04;  1.6735011E+02;
 -7.9999998E-02;  9.9999998E-03; -3.7000000E-01;1098;  0.0000000E+00;  0.0000000E+00;  0.0000000E+00;  1.0000587E+03;  1.0000000E-01;  4.8689980E+01;0;  0.0000000E+00;  0.0000000E+00;  0.0000000E+00;0;  5.4727466E-04;  4.0000000E+04;  0.0000000E+00;  0.0000000E+00;  4.0000000E+04;  0.0000000E+00;  4.0000000E+04;  3.5668295E-04;  0.0000000E+00;  1.9059172E-04;  2.3830315E+02;
 -7.9999998E-02;  9.9999998E-03; -3.6000001E-01;1099;  0.0000000E+00;  0.0000000E+00;  0.0000000E+00;  1.0000958E+03;  1.0000000E-01;  7.9405159E+01;0;  0.0000000E+00;  0.0000000E+00;  0.0000000E+00;0;  8.7112642E-04;  4.0000000E+04;  0.0000000E+00;  0.0000000E+00;  4.0000000E+04;  0.0000000E+00;  4.0000000E+04;  6.1127631E-04;  0.0000000E+00;  2.5985012E-04;  3.1316693E+02;
 -7.9999998E-02;  9.9999998E-03; -3.4999999E-01;1100;  0.0000000E+00;  0.0000000E+00;  0.0000000E+00;  1.0001410E+03;  1.0000000E-01;  1.1683620E+02;0;  0.0000000E+00;  0.0000000E+00;  0.0000000E+00;0;  1.3127060E-03;  4.0000000E+04;  0.0000000E+00;  0.0000000E+00;  4.0000000E+04;  0.0000000E+00;  4.0000000E+04;  9.8106195E-04;  0.0000000E+00;  3.3164409E-04;  3.8494769E+02;
 -7.9999998E-02;  9.9999998E-03; -3.4000000E-01;1101;  0.0000000E+00;  0.0000000E+00;  0.0000000E+00;  1.0002023E+03;  1.0000000E-01;  1.6760020E+02;0;  0.0000000E+00;  0.0000000E+00;  0.0000000E+00;0;  1.8887685E-03;  4.0000000E+04;  0.0000000E+00;  0.0000000E+00;  4.0000000E+04;  0.0000000E+00;  4.0000000E+04;  1.4891172E-03;  0.0000000E+00;  3.9965141E-04;  4.4529422E+02;
 -7.9999998E-02;  9.9999998E-03; -3.3000001E-01;1102;  0.0000000E+00;  0.0000000E+00;  0.0000000E+00;  1.0002650E+03;  1.0000000E-01;  2.1954935E+02;0;  0.0000000E+00;  0.0000000E+00;  0.0000000E+00;0;  2.6087561E-03;  4.0000000E+04;  0.0000000E+00;  0.0000000E+00;  4.0000000E+04;  0.0000000E+00;  4.0000000E+04;  2.1525545E-03;  0.0000000E+00;  4.5620149E-04;  4.8482343E+02;
 -7.9999998E-02;  9.9999998E-03; -3.1999999E-01;1103;  0.0000000E+00;  0.0000000E+00;  0.0000000E+00;  1.0003385E+03;  1.0000000E-01;  2.8048590E+02;0;  0.0000000E+00;  0.0000000E+00;  0.0000000E+00;0;  3.4713922E-03;  4.0000000E+04;  0.0000000E+00;  0.0000000E+00;  4.0000000E+04;  0.0000000E+00;  4.0000000E+04;  2.9786115E-03;  0.0000000E+00;  4.9278059E-04;  4.9397382E+02;
 -7.9999998E-02;  9.9999998E-03; -3.1000000E-01;1104;  0.0000000E+00;  0.0000000E+00;  0.0000000E+00;  1.0004128E+03;  1.0000000E-01;  3.4201501E+02;0;  0.0000000E+00;  0.0000000E+00;  0.0000000E+00;0;  4.4629462E-03;  4.0000000E+04;  0.0000000E+00;  0.0000000E+00;  4.0000000E+04;  0.0000000E+00;  4.0000000E+04;  3.9616833E-03;  0.0000000E+00;  5.0126290E-04;  4.6462491E+02;
 -7.9999998E-02;  9.9999998E-03; -3.0000001E-01;1105;  0.0000000E+00;  0.0000000E+00;  0.0000000E+00;  1.0005010E+03;  1.0000000E-01;  4.1509937E+02;0;  0.0000000E+00;  0.0000000E+00;  0.0000000E+00;0;  5.5577997E-03;  4.0000000E+04;  0.0000000E+00;  0.0000000E+00;  4.0000000E+04;  0.0000000E+00;  4.0000000E+04;  5.0819679E-03;  0.0000000E+00;  4.7583162E-04;  3.9226001E+02;
 -7.9999998E-02;  9.9999998E-03; -2.8999999E-01;1106;  0.0000000E+00;  0.0000000E+00;  0.0000000E+00;  1.0005896E+03;  1.0000000E-01;  4.8848001E+02;0;  0.0000000E+00;  0.0000000E+00;  0.0000000E+00;0;  6.7212852E-03;  4.0000000E+04;  0.0000000E+00;  0.0000000E+00;  4.0000000E+04;  0.0000000E+00;  4.0000000E+04;  6.3062194E-03;  0.0000000E+00;  4.1506573E-04;  2.7814352E+02;
 -7.9999998E-02;  9.9999998E-03; -2.8000000E-01;1107;  0.0000000E+00;  0.0000000E+00;  0.0000000E+00;  1.0006759E+03;  1.0000000E-01;  5.5998419E+02;0;  0.0000000E+00;  0.0000000E+00;  0.0000000E+00;0;  7.9135736E-03;  4.0000000E+04;  0.0000000E+00;  0.0000000E+00;  4.0000000E+04;  0.0000000E+00;  4.0000000E+04;  7.5904210E-03;  0.0000000E+00;  3.2315304E-04;  1.3143359E+02;
 -7.0000000E-02;  9.9999998E-03; -4.4000000E-01;1182;  0.0000000E+00;  0.0000000E+00;  0.0000000E+00;  1.0000000E+03;  1.0000000E-01;  0.0000000E+00;0;  0.0000000E+00;  0.0000000E+00;  0.0000000E+00;0;  2.6275146E-07;  4.0000000E+04;  0.0000000E+00;  0.0000000E+00;  4.0000000E+04;  0.0000000E+00;  4.0000000E+04;  8.8757403E-08;  0.0000000E+00;  1.7399405E-07;  4.1750884E-01;
 -7.0000000E-02;  9.9999998E-03; -4.3000001E-01;1183;  0.0000000E+00;  0.0000000E+00;  0.0000000E+00;  1.0000000E+03;  1.0000000E-01;  0.0000000E+00;0;  0.0000000E+00;  0.0000000E+00;  0.0000000E+00;0;  4.1027165E-06;  4.0000000E+04;  0.0000000E+00;  0.0000000E+00;  4.0000000E+04;  0.0000000E+00;  4.0000000E+04;  1.4648554E-06;  0.0000000E+00;  2.6378611E-06;  4.9117098E+00;
 -7.0000000E-02;  9.9999998E-03; -4.1999999E-01;1184;  0.0000000E+00;  0.0000000E+00;  0.0000000E+00;  1.0000000E+03;  1.0000000E-01;  0.0000000E+00;0;  0.0000000E+00;  0.0000000E+00;  0.0000000E+00;0;  2.0495827E-05;  4.0000000E+04;  0.0000000E+00;  0.0000000E+00;  4.0000000E+04;  0.0000000E+00;  4.0000000E+04;  7.8023941E-06;  0.0000000E+00;  1.2693432E-05;  2.0718166E+01;
 -7.0000000E-02;  9.9999998E-03; -4.1000000E-01;1185;  0.0000000E+00;  0.0000000E+00;  0.0000000E+00;  1.0000000E+03;  1.0000000E-01;  0.0000000E+00;0;  0.0000000E+00;  0.0000000E+00;  0.0000000E+00;0;  6.2745115E-05;  4.0000000E+04;  0.0000000E+00;  0.0000000E+00;  4.0000000E+04;  0.0000000E+00;  4.0000000E+04;  2.6166339E-05;  0.0000000E+00;  3.6578775E-05;  5.4680111E+01;
 -7.0000000E-02;  9.9999998E-03; -4.0000001E-01;1186;  0.0000000E+00;  0.0000000E+00;  0.0000000E+00;  1.0000000E+03;  1.0000000E-01;  0.0000000E+00;0;  0.0000000E+00;  0.0000000E+00;  0.0000000E+00;0;  1.4639489E-04;  4.0000000E+04;  0.0000000E+00;  0.0000000E+00;  4.0000000E+04;  0.0000000E+00;  4.0000000E+04;  6.7901150E-05;  0.0000000E+00;  7.8493729E-05;  1.0996565E+02;
 -7.0000000E-02;  9.9999998E-03; -3.8999999E-01;1187;  0.0000000E+00;  0.0000000E+00;  0.0000000E+00;  1.0000443E+03;  1.0000000E-01;  3.6739700E+01;0;  0.0000000E+00;  0.0000000E+00;  0.0000000E+00;0;  2.8881483E-04;  4.0000000E+04;  0.0000000E+00;  0.0000000E+00;  4.0000000E+04;  0.0000000E+00;  4.0000000E+04;  1.4938375E-04;  0.0000000E+00;  1.3943107E-04;  1.8557042E+02;
 -7.0000000E-02;  9.9999998E-03; -3.8000000E-01;1188;  0.0000000E+00;  0.0000000E+00;  0.0000000E+00;  1.0000620E+03;  1.0000000E-01;  5.1356571E+01;0;  0.0000000E+00;  0.0000000E+00;  0.0000000E+00;0;  5.1014469E-04;  4.0000000E+04;  0.0000000E+00;  0.0000000E+00;  4.0000000E+04;  0.0000000E+00;  4.0000000E+04;  2.9243951E-04;  0.0000000E+00;  2.1770518E-04;  2.7741956E+02;
 -7.0000000E-02;  9.9999998E-03; -3.7000000E-01;1189;  0.0000000E+00;  0.0000000E+00;  0.0000000E+00;  1.0001172E+03;  1.0000000E-01;  9.7182434E+01;0;  0.0000000E+00;  0.0000000E+00;  0.0000000E+00;0;  8.3383586E-04;  4.0000000E+04;  0.0000000E+00;  0.0000000E+00;  4.0000000E+04;  0.0000000E+00;  4.0000000E+04;  5.2405806E-04;  0.0000000E+00;  3.0977780E-04;  3.7940921E+02;
 -7.0000000E-02;  9.9999998E-03; -3.6000001E-01;1190;  0.0000000E+00;  0.0000000E+00;  0.0000000E+00;  1.0001527E+03;  1.0000000E-01;  1.2651494E+02;0;  0.0000000E+00;  0.0000000E+00;  0.0000000E+00;0;  1.2856747E-03;  4.0000000E+04;  0.0000000E+00;  0.0000000E+00;  4.0000000E+04;  0.0000000E+00;  4.0000000E+04;  8.7505323E-04;  0.0000000E+00;  4.1062158E-04;  4.8380374E+02;
 -7.0000000E-02;  9.9999998E-03; -3.4999999E-01;1191;  0.0000000E+00;  0.0000000E+00;  0.0000000E+00;  1.0002218E+03;  1.0000000E-01;  1.8379727E+02;0;  0.0000000E+00;  0.0000000E+00;  0.0000000E+00;0;  1.8910209E-03;  4.0000000E+04;  0.0000000E+00;  0.0000000E+00;  4.0000000E+04;  0.0000000E+00;  4.0000000E+04;  1.3774154E-03;  0.0000000E+00;  5.1360554E-04;  5.8120190E+02;
 -7.0000000E-02;  9.9999998E-03; -3.4000000E-01;1192;  0.0000000E+00;  0.0000000E+00;  0.0000000E+00;  1.0003171E+03;  1.0000000E-01;  2.6270862E+02;0;  0.0000000E+00;  0.0000000E+00;  0.0000000E+00;0;  2.6705381E-03;  4.0000000E+04;  0.0000000E+00;  0.0000000E+00;  4.0000000E+04;  0.0000000E+00;  4.0000000E+04;  2.0603403E-03;  0.0000000E+00;  6.1019801E-04;  6.6045087E+02;
 -7.0000000E-02;  9.9999998E-03; -3.3000001E-01;1193;  0.0000000E+00;  0.0000000E+00;  0.0000000E+00;  1.0004119E+03;  1.0000000E-01;  3.4122491E+02;0;  0.0000000E+00;  0.0000000E+00;  0.0000000E+00;0;  3.6352607E-03;  4.0000000E+04;  0.0000000E+00;  0.0000000E+00;  4.0000000E+04;  0.0000000E+00;  4.0000000E+04;  2.9453633E-03;  0.0000000E+00;  6.8989740E-04;  7.0899268E+02;
 -7.0000000E-02;  9.9999998E-03; -3.1999999E-01;1194;  0.0000000E+00;  0.0000000E+00;  0.0000000E+00;  1.0005294E+03;  1.0000000E-01;  4.3860489E+02;0;  0.0000000E+00;  0.0000000E+00;  0.0000000E+00;0;  4.7822585E-03;  4.0000000E+04;  0.0000000E+00;  0.0000000E+00;  4.0000000E+04;  0.0000000E+00;  4.0000000E+04;  4.0413872E-03;  0.0000000E+00;  7.4087130E-04;  7.1402545E+02;
 -7.0000000E-02;  9.9999998E-03; -3.1000000E-01;1195;  0.0000000E+00;  0.0000000E+00;  0.0000000E+00;  1.0006481E+03;  1.0000000E-01;  5.3697247E+02;0;  0.0000000E+00;  0.0000000E+00;  0.0000000E+00;0;  6.0924217E-03;  4.0000000E+04;  0.0000000E+00;  0.0000000E+00;  4.0000000E+04;  0.0000000E+00;  4.0000000E+04;  5.3407545E-03;  0.0000000E+00;  7.5166731E-04;  6.6476270E+02;
 -7.0000000E-02;  9.9999998E-03; -3.0000001E-01;1196;  0.0000000E+00;  0.0000000E+00;  0.0000000E+00;  1.0007743E+03;  1.0000000E-01;  6.4146332E+02;0;  0.0000000E+00;  0.0000000E+00;  0.0000000E+00;0;  7.5313845E-03;  4.0000000E+04;  0.0000000E+00;  0.0000000E+00;  4.0000000E+04;  0.0000000E+00;  4.0000000E+04;  6.8174000E-03;  0.0000000E+00;  7.1398437E-04;  5.5557788E+02;
 -7.0000000E-02;  9.9999998E-03; -2.8999999E-01;1197;  0.0000000E+00;  0.0000000E+00;  0.0000000E+00;  1.0009062E+03;  1.0000000E-01;  7.5079358E+02;0;  0.0000000E+00;  0.0000000E+00;  0.0000000E+00;0;  9.0534398E-03;  4.0000000E+04;  0.0000000E+00;  0.0000000E+00;  4.0000000E+04;  0.0000000E+00;  4.0000000E+04;  8.4277289E-03;  0.0000000E+00;  6.2571093E-04;  3.8926318E+02;
 -7.0000000E-02;  9.9999998E-03; -2.8000000E-01;1198;  0.0000000E+00;  0.0000000E+00;  0.0000000E+00;  1.0010414E+03;  1.0000000E-01;  8.6279041E+02;0;  0.0000000E+00;  0.0000000E+00;  0.0000000E+00;0;  1.0606914E-02;  4.0000000E+04;  0.0000000E+00;  0.0000000E+00;  4.0000000E+04;  0.0000000E+00;  4.0000000E+04;  1.0114182E-02;  0.0000000E+00;  4.9273210E-04;  1.8157858E+02;
 -5.9999999E-02;  9.9999998E-03; -4.4000000E-01;1273;  0.0000000E+00;  0.0000000E+00;  0.0000000E+00;  1.0000000E+03;  1.0000000E-01;  0.0000000E+00;0;  0.0000000E+00;  0.0000000E+00;  0.0000000E+00;0;  1.3655675E-06;  4.0000000E+04;  0.0000000E+00;  0.0000000E+00;  4.0000000E+04;  0.0000000E+00;  4.0000000E+04;  4.2207296E-07;  0.0000000E+00;  9.4349457E-07;  2.0214801E+00;
 -5.9999999E-02;  9.9999998E-03; -4.3000001E-01;1274;  0.0000000E+00;  0.0000000E+00;  0.0000000E+00;  1.0000000E+03;  1.0000000E-01;  0.0000000E+00;0;  0.0000000E+00;  0.0000000E+00;  0.0000000E+00;0;  1.0822037E-05;  4.0000000E+04;  0.0000000E+00;  0.0000000E+00;  4.0000000E+04;  0.0000000E+00;  4.0000000E+04;  3.4925324E-06;  0.0000000E+00;  7.3295055E-06;  1.3065771E+01;
 -5.9999999E-02;  9.9999998E-03; -4.1999999E-01;1275;  0.0000000E+00;  0.0000000E+00;  0.0000000E+00;  1.0000000E+03;  1.0000000E-01;  0.0000000E+00;0;  0.0000000E+00;  0.0000000E+00;  0.0000000E+00;0;  4.1642077E-05;  4.0000000E+04;  0.0000000E+00;  0.0000000E+00;  4.0000000E+04;  0.0000000E+00;  4.0000000E+04;  1.4505629E-05;  0.0000000E+00;  2.7136448E-05;  4.3076824E+01;
 -5.9999999E-02;  9.9999998E-03; -4.1000000E-01;1276;  0.0000000E+00;  0.0000000E+00;  0.0000000E+00;  1.0000000E+03;  1.0000000E-01;  0.0000000E+00;0;  0.0000000E+00;  0.0000000E+00;  0.0000000E+00;0;  1.1077519E-04;  4.0000000E+04;  0.0000000E+00;  0.0000000E+00;  4.0000000E+04;  0.0000000E+00;  4.0000000E+04;  4.2820913E-05;  0.0000000E+00;  6.7954272E-05;  9.9350113E+01;
 -5.9999999E-02;  9.9999998E-03; -4.0000001E-01;1277;  0.0000000E+00;  0.0000000E+00;  0.0000000E+00;  1.0000315E+03;  1.0000000E-01;  2.6073338E+01;0;  0.0000000E+00;  0.0000000E+00;  0.0000000E+00;0;  2.3661066E-04;  4.0000000E+04;  0.0000000E+00;  0.0000000E+00;  4.0000000E+04;  0.0000000E+00;  4.0000000E+04;  1.0290972E-04;  0.0000000E+00;  1.3370095E-04;  1.8367108E+02;
 -5.9999999E-02;  9.9999998E-03; -3.8999999E-01;1278;  0.0000000E+00;  0.0000000E+00;  0.0000000E+00;  1.0000620E+03;  1.0000000E-01;  5.1356571E+01;0;  0.0000000E+00;  0.0000000E+00;  0.0000000E+00;0;  4.3946796E-04;  4.0000000E+04;  0.0000000E+00;  0.0000000E+00;  4.0000000E+04;  0.0000000E+00;  4.0000000E+04;  2.1529540E-04;  0.0000000E+00;  2.2417257E-04;  2.9284317E+02;
 -5.9999999E-02;  9.9999998E-03; -3.8000000E-01;1279;  0.0000000E+00;  0.0000000E+00;  0.0000000E+00;  1.0001144E+03;  1.0000000E-01;  9.4713371E+01;0;  0.0000000E+00;  0.0000000E+00;  0.0000000E+00;0;  7.4333174E-04;  4.0000000E+04;  0.0000000E+00;  0.0000000E+00;  4.0000000E+04;  0.0000000E+00;  4.0000000E+04;  4.0706521E-04;  0.0000000E+00;  3.3626656E-04;  4.2051907E+02;
 -5.9999999E-02;  9.9999998E-03; -3.7000000E-01;1280;  0.0000000E+00;  0.0000000E+00;  0.0000000E+00;  1.0001651E+03;  1.0000000E-01;  1.3678625E+02;0;  0.0000000E+00;  0.0000000E+00;  0.0000000E+00;0;  1.1766257E-03;  4.0000000E+04;  0.0000000E+00;  0.0000000E+00;  4.0000000E+04;  0.0000000E+00;  4.0000000E+04;  7.1154255E-04;  0.0000000E+00;  4.6508320E-04;  5.5841241E+02;
 -5.9999999E-02;  9.9999998E-03; -3.6000001E-01;1281;  0.0000000E+00;  0.0000000E+00;  0.0000000E+00;  1.0002477E+03;  1.0000000E-01;  2.0522876E+02;0;  0.0000000E+00;  0.0000000E+00;  0.0000000E+00;0;  1.7708626E-03;  4.0000000E+04;  0.0000000E+00;  0.0000000E+00;  4.0000000E+04;  0.0000000E+00;  4.0000000E+04;  1.1666918E-03;  0.0000000E+00;  6.0417090E-04;  6.9653693E+02;
 -5.9999999E-02;  9.9999998E-03; -3.4999999E-01;1282;  0.0000000E+00;  0.0000000E+00;  0.0000000E+00;  1.0003530E+03;  1.0000000E-01;  2.9243619E+02;0;  0.0000000E+00;  0.0000000E+00;  0.0000000E+00;0;  2.5570532E-03;  4.0000000E+04;  0.0000000E+00;  0.0000000E+00;  4.0000000E+04;  0.0000000E+00;  4.0000000E+04;  1.8119402E-03;  0.0000000E+00;  7.4511301E-04;  8.2289270E+02;
 -5.9999999E-02;  9.9999998E-03; -3.4000000E-01;1283;  0.0000000E+00;  0.0000000E+00;  0.0000000E+00;  1.0004778E+03;  1.0000000E-01;  3.9584067E+02;0;  0.0000000E+00;  0.0000000E+00;  0.0000000E+00;0;  3.5602797E-03;  4.0000000E+04;  0.0000000E+00;  0.0000000E+00;  4.0000000E+04;  0.0000000E+00;  4.0000000E+04;  2.6833816E-03;  0.0000000E+00;  8.7689818E-04;  9.2317371E+02;
 -5.9999999E-02;  9.9999998E-03; -3.3000001E-01;1284;  0.0000000E+00;  0.0000000E+00;  0.0000000E+00;  1.0006230E+03;  1.0000000E-01;  5.1613354E+02;0;  0.0000000E+00;  0.0000000E+00;  0.0000000E+00;0;  4.7934772E-03;  4.0000000E+04;  0.0000000E+00;  0.0000000E+00;  4.0000000E+04;  0.0000000E+00;  4.0000000E+04;  3.8078099E-03;  0.0000000E+00;  9.8566758E-04;  9.8107074E+02;
 -5.9999999E-02;  9.9999998E-03; -3.1999999E-01;1285;  0.0000000E+00;  0.0000000E+00;  0.0000000E+00;  1.0007783E+03;  1.0000000E-01;  6.4482129E+02;0;  0.0000000E+00;  0.0000000E+00;  0.0000000E+00;0;  6.2519256E-03;  4.0000000E+04;  0.0000000E+00;  0.0000000E+00;  4.0000000E+04;  0.0000000E+00;  4.0000000E+04;  5.1964745E-03;  0.0000000E+00;  1.0554509E-03;  9.7982416E+02;
 -5.9999999E-02;  9.9999998E-03; -3.1000000E-01;1286;  0.0000000E+00;  0.0000000E+00;  0.0000000E+00;  1.0009645E+03;  1.0000000E-01;  7.9908850E+02;0;  0.0000000E+00;  0.0000000E+00;  0.0000000E+00;0;  7.9103326E-03;  4.0000000E+04;  0.0000000E+00;  0.0000000E+00;  4.0000000E+04;  0.0000000E+00;  4.0000000E+04;  6.8398733E-03;  0.0000000E+00;  1.0704590E-03;  9.0529163E+02;
 -5.9999999E-02;  9.9999998E-03; -3.0000001E-01;1287;  0.0000000E+00;  0.0000000E+00;  0.0000000E+00;  1.0011489E+03;  1.0000000E-01;  9.5187433E+02;0;  0.0000000E+00;  0.0000000E+00;  0.0000000E+00;0;  9.7240536E-03;  4.0000000E+04;  0.0000000E+00;  0.0000000E+00;  4.0000000E+04;  0.0000000E+00;  4.0000000E+04;  8.7050898E-03;  0.0000000E+00;  1.0189641E-03;  7.5045801E+02;
 -5.9999999E-02;  9.9999998E-03; -2.8999999E-01;1288;  0.0000000E+00;  0.0000000E+00;  0.0000000E+00;  1.0013397E+03;  1.0000000E-01;  1.1098945E+03;0;  0.0000000E+00;  0.0000000E+00;  0.0000000E+00;0;  1.1634434E-02;  4.0000000E+04;  0.0000000E+00;  0.0000000E+00;  4.0000000E+04;  0.0000000E+00;  4.0000000E+04;  1.0736743E-02;  0.0000000E+00;  8.9769030E-04;  5.2034888E+02;
 -5.9999999E-02;  9.9999998E-03; -2.8000000E-01;1289;  0.0000000E+00;  0.0000000E+00;  0.0000000E+00;  1.0015349E+03;  1.0000000E-01;  1.2715690E+03;0;  0.0000000E+00;  0.0000000E+00;  0.0000000E+00;0;  1.3575950E-02;  4.0000000E+04;  0.0000000E+00;  0.0000000E+00;  4.0000000E+04;  0.0000000E+00;  4.0000000E+04;  1.2861444E-02;  0.0000000E+00;  7.1450562E-04;  2.4114136E+02;
 -5.0000001E-02;  9.9999998E-03; -4.4000000E-01;1364;  0.0000000E+00;  0.0000000E+00;  0.0000000E+00;  1.0000000E+03;  1.0000000E-01;  0.0000000E+00;0;  0.0000000E+00;  0.0000000E+00;  0.0000000E+00;0;  3.9395950E-06;  4.0000000E+04;  0.0000000E+00;  0.0000000E+00;  4.0000000E+04;  0.0000000E+00;  4.0000000E+04;  1.0782759E-06;  0.0000000E+00;  2.8613192E-06;  5.7807231E+00;
 -5.0000001E-02;  9.9999998E-03; -4.3000001E-01;1365;  0.0000000E+00;  0.0000000E+00;  0.0000000E+00;  1.0000000E+03;  1.0000000E-01;  0.0000000E+00;0;  0.0000000E+00;  0.0000000E+00;  0.0000000E+00;0;  2.1955801E-05;  4.0000000E+04;  0.0000000E+00;  0.0000000E+00;  4.0000000E+04;  0.0000000E+00;  4.0000000E+04;  6.3411649E-06;  0.0000000E+00;  1.5614636E-05;  2.6962219E+01;
 -5.0000001E-02;  9.9999998E-03; -4.1999999E-01;1366;  0.0000000E+00;  0.0000000E+00;  0.0000000E+00;  1.0000000E+03;  1.0000000E-01;  0.0000000E+00;0;  0.0000000E+00;  0.0000000E+00;  0.0000000E+00;0;  7.1577830E-05;  4.0000000E+04;  0.0000000E+00;  0.0000000E+00;  4.0000000E+04;  0.0000000E+00;  4.0000000E+04;  2.2648212E-05;  0.0000000E+00;  4.8929618E-05;  7.5863579E+01;
 -5.0000001E-02;  9.9999998E-03; -4.1000000E-01;1367;  0.0000000E+00;  0.0000000E+00;  0.0000000E+00;  1.0000088E+03;  1.0000000E-01;  7.3084354E+00;0;  0.0000000E+00;  0.0000000E+00;  0.0000000E+00;0;  1.7273409E-04;  4.0000000E+04;  0.0000000E+00;  0.0000000E+00;  4.0000000E+04;  0.0000000E+00;  4.0000000E+04;  6.1499559E-05;  0.0000000E+00;  1.1123453E-04;  1.5948273E+02;
 -5.0000001E-02;  9.9999998E-03; -4.0000001E-01;1368;  0.0000000E+00;  0.0000000E+00;  0.0000000E+00;  1.0000590E+03;  1.0000000E-01;  4.8887505E+01;0;  0.0000000E+00;  0.0000000E+00;  0.0000000E+00;0;  3.4605904E-04;  4.0000000E+04;  0.0000000E+00;  0.0000000E+00;  4.0000000E+04;  0.0000000E+00;  4.0000000E+04;  1.4034432E-04;  0.0000000E+00;  2.0571472E-04;  2.7770276E+02;
 -5.0000001E-02;  9.9999998E-03; -3.8999999E-01;1369;  0.0000000E+00;  0.0000000E+00;  0.0000000E+00;  1.0001024E+03;  1.0000000E-01;  8.4837105E+01;0;  0.0000000E+00;  0.0000000E+00;  0.0000000E+00;0;  6.1445171E-04;  4.0000000E+04;  0.0000000E+00;  0.0000000E+00;  4.0000000E+04;  0.0000000E+00;  4.0000000E+04;  2.8371104E-04;  0.0000000E+00;  3.3074067E-04;  4.2490848E+02;
 -5.0000001E-02;  9.9999998E-03; -3.8000000E-01;1370;  0.0000000E+00;  0.0000000E+00;  0.0000000E+00;  1.0001589E+03;  1.0000000E-01;  1.3165060E+02;0;  0.0000000E+00;  0.0000000E+00;  0.0000000E+00;0;  1.0056501E-03;  4.0000000E+04;  0.0000000E+00;  0.0000000E+00;  4.0000000E+04;  0.0000000E+00;  4.0000000E+04;  5.2384194E-04;  0.0000000E+00;  4.8180824E-04;  5.9244800E+02;
 -5.0000001E-02;  9.9999998E-03; -3.7000000E-01;1371;  0.0000000E+00;  0.0000000E+00;  0.0000000E+00;  1.0002488E+03;  1.0000000E-01;  2.0611763E+02;0;  0.0000000E+00;  0.0000000E+00;  0.0000000E+00;0;  1.5531563E-03;  4.0000000E+04;  0.0000000E+00;  0.0000000E+00;  4.0000000E+04;  0.0000000E+00;  4.0000000E+04;  9.0035278E-04;  0.0000000E+00;  6.5280352E-04;  7.6990088E+02;
 -5.0000001E-02;  9.9999998E-03; -3.6000001E-01;1372;  0.0000000E+00;  0.0000000E+00;  0.0000000E+00;  1.0003639E+03;  1.0000000E-01;  3.0152234E+02;0;  0.0000000E+00;  0.0000000E+00;  0.0000000E+00;0;  2.2944803E-03;  4.0000000E+04;  0.0000000E+00;  0.0000000E+00;  4.0000000E+04;  0.0000000E+00;  4.0000000E+04;  1.4584563E-03;  0.0000000E+00;  8.3602412E-04;  9.4506238E+02;
 -5.0000001E-02;  9.9999998E-03; -3.4999999E-01;1373;  0.0000000E+00;  0.0000000E+00;  0.0000000E+00;  1.0005048E+03;  1.0000000E-01;  4.1816101E+02;0;  0.0000000E+00;  0.0000000E+00;  0.0000000E+00;0;  3.2666689E-03;  4.0000000E+04;  0.0000000E+00;  0.0000000E+00;  4.0000000E+04;  0.0000000E+00;  4.0000000E+04;  2.2453275E-03;  0.0000000E+00;  1.0213415E-03;  1.1032532E+03;
 -5.0000001E-02;  9.9999998E-03; -3.4000000E-01;1374;  0.0000000E+00;  0.0000000E+00;  0.0000000E+00;  1.0006805E+03;  1.0000000E-01;  5.6373712E+02;0;  0.0000000E+00;  0.0000000E+00;  0.0000000E+00;0;  4.4997162E-03;  4.0000000E+04;  0.0000000E+00;  0.0000000E+00;  4.0000000E+04;  0.0000000E+00;  4.0000000E+04;  3.3045714E-03;  0.0000000E+00;  1.1951447E-03;  1.2267208E+03;
 -5.0000001E-02;  9.9999998E-03; -3.3000001E-01;1375;  0.0000000E+00;  0.0000000E+00;  0.0000000E+00;  1.0008824E+03;  1.0000000E-01;  7.3104108E+02;0;  0.0000000E+00;  0.0000000E+00;  0.0000000E+00;0;  6.0088988E-03;  4.0000000E+04;  0.0000000E+00;  0.0000000E+00;  4.0000000E+04;  0.0000000E+00;  4.0000000E+04;  4.6691345E-03;  0.0000000E+00;  1.3397646E-03;  1.2948579E+03;
 -5.0000001E-02;  9.9999998E-03; -3.1999999E-01;1376;  0.0000000E+00;  0.0000000E+00;  0.0000000E+00;  1.0011086E+03;  1.0000000E-01;  9.1839380E+02;0;  0.0000000E+00;  0.0000000E+00;  0.0000000E+00;0;  7.7877576E-03;  4.0000000E+04;  0.0000000E+00;  0.0000000E+00;  4.0000000E+04;  0.0000000E+00;  4.0000000E+04;  6.3535511E-03;  0.0000000E+00;  1.4342065E-03;  1.2860524E+03;
 -5.0000001E-02;  9.9999998E-03; -3.1000000E-01;1377;  0.0000000E+00;  0.0000000E+00;  0.0000000E+00;  1.0013633E+03;  1.0000000E-01;  1.1294496E+03;0;  0.0000000E+00;  0.0000000E+00;  0.0000000E+00;0;  9.8042404E-03;  4.0000000E+04;  0.0000000E+00;  0.0000000E+00;  4.0000000E+04;  0.0000000E+00;  4.0000000E+04;  8.3471760E-03;  0.0000000E+00;  1.4570644E-03;  1.1819178E+03;
 -5.0000001E-02;  9.9999998E-03; -3.0000001E-01;1378;  0.0000000E+00;  0.0000000E+00;  0.0000000E+00;  1.0016271E+03;  1.0000000E-01;  1.3480112E+03;0;  0.0000000E+00;  0.0000000E+00;  0.0000000E+00;0;  1.2002009E-02;  4.0000000E+04;  0.0000000E+00;  0.0000000E+00;  4.0000000E+04;  0.0000000E+00;  4.0000000E+04;  1.0610185E-02;  0.0000000E+00;  1.3918247E-03;  9.7354034E+02;
 -5.0000001E-02;  9.9999998E-03; -2.8999999E-01;1379;  0.0000000E+00;  0.0000000E+00;  0.0000000E+00;  1.0018944E+03;  1.0000000E-01;  1.5694371E+03;0;  0.0000000E+00;  0.0000000E+00;  0.0000000E+00;0;  1.4307344E-02;  4.0000000E+04;  0.0000000E+00;  0.0000000E+00;  4.0000000E+04;  0.0000000E+00;  4.0000000E+04;  1.3074121E-02;  0.0000000E+00;  1.2332234E-03;  6.6884106E+02;
 -5.0000001E-02;  9.9999998E-03; -2.8000000E-01;1380;  0.0000000E+00;  0.0000000E+00;  0.0000000E+00;  1.0021668E+03;  1.0000000E-01;  1.7952085E+03;0;  0.0000000E+00;  0.0000000E+00;  0.0000000E+00;0;  1.6639004E-02;  4.0000000E+04;  0.0000000E+00;  0.0000000E+00;  4.0000000E+04;  0.0000000E+00;  4.0000000E+04;  1.5647657E-02;  0.0000000E+00;  9.9134666E-04;  3.0931897E+02;
 -3.9999999E-02;  9.9999998E-03; -4.4000000E-01;1455;  0.0000000E+00;  0.0000000E+00;  0.0000000E+00;  1.0000000E+03;  1.0000000E-01;  0.0000000E+00;0;  0.0000000E+00;  0.0000000E+00;  0.0000000E+00;0;  8.2641172E-06;  4.0000000E+04;  0.0000000E+00;  0.0000000E+00;  4.0000000E+04;  0.0000000E+00;  4.0000000E+04;  1.9580716E-06;  0.0000000E+00;  6.3060456E-06;  1.2284530E+01;
 -3.9999999E-02;  9.9999998E-03; -4.3000001E-01;1456;  0.0000000E+00;  0.0000000E+00;  0.0000000E+00;  1.0000000E+03;  1.0000000E-01;  0.0000000E+00;0;  0.0000000E+00;  0.0000000E+00;  0.0000000E+00;0;  3.7181126E-05;  4.0000000E+04;  0.0000000E+00;  0.0000000E+00;  4.0000000E+04;  0.0000000E+00;  4.0000000E+04;  9.4588813E-06;  0.0000000E+00;  2.7722243E-05;  4.6708580E+01;
 -3.9999999E-02;  9.9999998E-03; -4.1999999E-01;1457;  0.0000000E+00;  0.0000000E+00;  0.0000000E+00;  1.0000000E+03;  1.0000000E-01;  0.0000000E+00;0;  0.0000000E+00;  0.0000000E+00;  0.0000000E+00;0;  1.0825392E-04;  4.0000000E+04;  0.0000000E+00;  0.0000000E+00;  4.0000000E+04;  0.0000000E+00;  4.0000000E+04;  3.0708085E-05;  0.0000000E+00;  7.7545839E-05;  1.1796041E+02;
 -3.9999999E-02;  9.9999998E-03; -4.1000000E-01;1458;  0.0000000E+00;  0.0000000E+00;  0.0000000E+00;  1.0000480E+03;  1.0000000E-01;  3.9801342E+01;0;  0.0000000E+00;  0.0000000E+00;  0.0000000E+00;0;  2.4355168E-04;  4.0000000E+04;  0.0000000E+00;  0.0000000E+00;  4.0000000E+04;  0.0000000E+00;  4.0000000E+04;  7.8983801E-05;  0.0000000E+00;  1.6456789E-04;  2.3221046E+02;
 -3.9999999E-02;  9.9999998E-03; -4.0000001E-01;1459;  0.0000000E+00;  0.0000000E+00;  0.0000000E+00;  1.0000781E+03;  1.0000000E-01;  6.4689529E+01;0;  0.0000000E+00;  0.0000000E+00;  0.0000000E+00;0;  4.6522875E-04;  4.0000000E+04;  0.0000000E+00;  0.0000000E+00;  4.0000000E+04;  0.0000000E+00;  4.0000000E+04;  1.7428744E-04;  0.0000000E+00;  2.9094130E-04;  3.8720633E+02;
 -3.9999999E-02;  9.9999998E-03; -3.8999999E-01;1460;  0.0000000E+00;  0.0000000E+00;  0.0000000E+00;  1.0001484E+03;  1.0000000E-01;  1.2295949E+02;0;  0.0000000E+00;  0.0000000E+00;  0.0000000E+00;0;  7.9825358E-04;  4.0000000E+04;  0.0000000E+00;  0.0000000E+00;  4.0000000E+04;  0.0000000E+00;  4.0000000E+04;  3.4466141E-04;  0.0000000E+00;  4.5359216E-04;  5.7491364E+02;
 -3.9999999E-02;  9.9999998E-03; -3.8000000E-01;1461;  0.0000000E+00;  0.0000000E+00;  0.0000000E+00;  1.0002319E+03;  1.0000000E-01;  1.9219209E+02;0;  0.0000000E+00;  0.0000000E+00;  0.0000000E+00;0;  1.2737911E-03;  4.0000000E+04;  0.0000000E+00;  0.0000000E+00;  4.0000000E+04;  0.0000000E+00;  4.0000000E+04;  6.2696933E-04;  0.0000000E+00;  6.4682169E-04;  7.8448871E+02;
 -3.9999999E-02;  9.9999998E-03; -3.7000000E-01;1462;  0.0000000E+00;  0.0000000E+00;  0.0000000E+00;  1.0003555E+03;  1.0000000E-01;  2.9451019E+02;0;  0.0000000E+00;  0.0000000E+00;  0.0000000E+00;0;  1.9302440E-03;  4.0000000E+04;  0.0000000E+00;  0.0000000E+00;  4.0000000E+04;  0.0000000E+00;  4.0000000E+04;  1.0666049E-03;  0.0000000E+00;  8.6363911E-04;  1.0035619E+03;
 -3.9999999E-02;  9.9999998E-03; -3.6000001E-01;1463;  0.0000000E+00;  0.0000000E+00;  0.0000000E+00;  1.0005070E+03;  1.0000000E-01;  4.2003751E+02;0;  0.0000000E+00;  0.0000000E+00;  0.0000000E+00;0;  2.8111162E-03;  4.0000000E+04;  0.0000000E+00;  0.0000000E+00;  4.0000000E+04;  0.0000000E+00;  4.0000000E+04;  1.7156570E-03;  0.0000000E+00;  1.0954593E-03;  1.2178727E+03;
 -3.9999999E-02;  9.9999998E-03; -3.4999999E-01;1464;  0.0000000E+00;  0.0000000E+00;  0.0000000E+00;  1.0006989E+03;  1.0000000E-01;  5.7904535E+02;0;  0.0000000E+00;  0.0000000E+00;  0.0000000E+00;0;  3.9596623E-03;  4.0000000E+04;  0.0000000E+00;  0.0000000E+00;  4.0000000E+04;  0.0000000E+00;  4.0000000E+04;  2.6289248E-03;  0.0000000E+00;  1.3307377E-03;  1.4101398E+03;
 -3.9999999E-02;  9.9999998E-03; -3.4000000E-01;1465;  0.0000000E+00;  0.0000000E+00;  0.0000000E+00;  1.0009296E+03;  1.0000000E-01;  7.7015106E+02;0;  0.0000000E+00;  0.0000000E+00;  0.0000000E+00;0;  5.4111173E-03;  4.0000000E+04;  0.0000000E+00;  0.0000000E+00;  4.0000000E+04;  0.0000000E+00;  4.0000000E+04;  3.8577658E-03;  0.0000000E+00;  1.5533516E-03;  1.5590015E+03;
 -3.9999999E-02;  9.9999998E-03; -3.3000001E-01;1466;  0.0000000E+00;  0.0000000E+00;  0.0000000E+00;  1.0012084E+03;  1.0000000E-01;  1.0011569E+03;0;  0.0000000E+00;  0.0000000E+00;  0.0000000E+00;0;  7.1834377E-03;  4.0000000E+04;  0.0000000E+00;  0.0000000E+00;  4.0000000E+04;  0.0000000E+00;  4.0000000E+04;  5.4419274E-03;  0.0000000E+00;  1.7415102E-03;  1.6390560E+03;
 -3.9999999E-02;  9.9999998E-03; -3.1999999E-01;1467;  0.0000000E+00;  0.0000000E+00;  0.0000000E+00;  1.0015135E+03;  1.0000000E-01;  1.2538905E+03;0;  0.0000000E+00;  0.0000000E+00;  0.0000000E+00;0;  9.2685521E-03;  4.0000000E+04;  0.0000000E+00;  0.0000000E+00;  4.0000000E+04;  0.0000000E+00;  4.0000000E+04;  7.4002808E-03;  0.0000000E+00;  1.8682708E-03;  1.6229514E+03;
 -3.9999999E-02;  9.9999998E-03; -3.1000000E-01;1468;  0.0000000E+00;  0.0000000E+00;  0.0000000E+00;  1.0018545E+03;  1.0000000E-01;  1.5364503E+03;0;  0.0000000E+00;  0.0000000E+00;  0.0000000E+00;0;  1.1627097E-02;  4.0000000E+04;  0.0000000E+00;  0.0000000E+00;  4.0000000E+04;  0.0000000E+00;  4.0000000E+04;  9.7221043E-03;  0.0000000E+00;  1.9049920E-03;  1.4867830E+03;
 -3.9999999E-02;  9.9999998E-03; -3.0000001E-01;1469;  0.0000000E+00;  0.0000000E+00;  0.0000000E+00;  1.0022113E+03;  1.0000000E-01;  1.8320470E+03;0;  0.0000000E+00;  0.0000000E+00;  0.0000000E+00;0;  1.4189617E-02;  4.0000000E+04;  0.0000000E+00;  0.0000000E+00;  4.0000000E+04;  0.0000000E+00;  4.0000000E+04;  1.2361174E-02;  0.0000000E+00;  1.8284431E-03;  1.2187855E+03;
 -3.9999999E-02;  9.9999998E-03; -2.8999999E-01;1470;  0.0000000E+00;  0.0000000E+00;  0.0000000E+00;  1.0025745E+03;  1.0000000E-01;  2.1329768E+03;0;  0.0000000E+00;  0.0000000E+00;  0.0000000E+00;0;  1.6865257E-02;  4.0000000E+04;  0.0000000E+00;  0.0000000E+00;  4.0000000E+04;  0.0000000E+00;  4.0000000E+04;  1.5235241E-02;  0.0000000E+00;  1.6300164E-03;  8.3033496E+02;
 -3.9999999E-02;  9.9999998E-03; -2.8000000E-01;1471;  0.0000000E+00;  0.0000000E+00;  0.0000000E+00;  1.0029398E+03;  1.0000000E-01;  2.4354866E+03;0;  0.0000000E+00;  0.0000000E+00;  0.0000000E+00;0;  1.9555334E-02;  4.0000000E+04;  0.0000000E+00;  0.0000000E+00;  4.0000000E+04;  0.0000000E+00;  4.0000000E+04;  1.8233145E-02;  0.0000000E+00;  1.3221893E-03;  3.8385883E+02;
 -2.9999999E-02;  9.9999998E-03; -4.4000000E-01;1546;  0.0000000E+00;  0.0000000E+00;  0.0000000E+00;  1.0000000E+03;  1.0000000E-01;  0.0000000E+00;0;  0.0000000E+00;  0.0000000E+00;  0.0000000E+00;0;  1.4058393E-05;  4.0000000E+04;  0.0000000E+00;  0.0000000E+00;  4.0000000E+04;  0.0000000E+00;  4.0000000E+04;  2.7948679E-06;  0.0000000E+00;  1.1263525E-05;  2.1401926E+01;
 -2.9999999E-02;  9.9999998E-03; -4.3000001E-01;1547;  0.0000000E+00;  0.0000000E+00;  0.0000000E+00;  1.0000000E+03;  1.0000000E-01;  0.0000000E+00;0;  0.0000000E+00;  0.0000000E+00;  0.0000000E+00;0;  5.4880540E-05;  4.0000000E+04;  0.0000000E+00;  0.0000000E+00;  4.0000000E+04;  0.0000000E+00;  4.0000000E+04;  1.1994542E-05;  0.0000000E+00;  4.2885997E-05;  7.0971161E+01;
 -2.9999999E-02;  9.9999998E-03; -4.1999999E-01;1548;  0.0000000E+00;  0.0000000E+00;  0.0000000E+00;  1.0000106E+03;  1.0000000E-01;  8.7898750E+00;0;  0.0000000E+00;  0.0000000E+00;  0.0000000E+00;0;  1.4748191E-04;  4.0000000E+04;  0.0000000E+00;  0.0000000E+00;  4.0000000E+04;  0.0000000E+00;  4.0000000E+04;  3.6745048E-05;  0.0000000E+00;  1.1073687E-04;  1.6613271E+02;
 -2.9999999E-02;  9.9999998E-03; -4.1000000E-01;1549;  0.0000000E+00;  0.0000000E+00;  0.0000000E+00;  1.0000668E+03;  1.0000000E-01;  5.5307079E+01;0;  0.0000000E+00;  0.0000000E+00;  0.0000000E+00;0;  3.1516125E-04;  4.0000000E+04;  0.0000000E+00;  0.0000000E+00;  4.0000000E+04;  0.0000000E+00;  4.0000000E+04;  9.1554364E-05;  0.0000000E+00;  2.2360690E-04;  3.1199646E+02;
 -2.9999999E-02;  9.9999998E-03; -4.0000001E-01;1550;  0.0000000E+00;  0.0000000E+00;  0.0000000E+00;  1.0001307E+03;  1.0000000E-01;  1.0824385E+02;0;  0.0000000E+00;  0.0000000E+00;  0.0000000E+00;0;  5.8083574E-04;  4.0000000E+04;  0.0000000E+00;  0.0000000E+00;  4.0000000E+04;  0.0000000E+00;  4.0000000E+04;  1.9830483E-04;  0.0000000E+00;  3.8253094E-04;  5.0421768E+02;
 -2.9999999E-02;  9.9999998E-03; -3.8999999E-01;1551;  0.0000000E+00;  0.0000000E+00;  0.0000000E+00;  1.0002177E+03;  1.0000000E-01;  1.8034058E+02;0;  0.0000000E+00;  0.0000000E+00;  0.0000000E+00;0;  9.7099278E-04;  4.0000000E+04;  0.0000000E+00;  0.0000000E+00;  4.0000000E+04;  0.0000000E+00;  4.0000000E+04;  3.8777379E-04;  0.0000000E+00;  5.8321899E-04;  7.3251270E+02;
 -2.9999999E-02;  9.9999998E-03; -3.8000000E-01;1552;  0.0000000E+00;  0.0000000E+00;  0.0000000E+00;  1.0003321E+03;  1.0000000E-01;  2.7515271E+02;0;  0.0000000E+00;  0.0000000E+00;  0.0000000E+00;0;  1.5198642E-03;  4.0000000E+04;  0.0000000E+00;  0.0000000E+00;  4.0000000E+04;  0.0000000E+00;  4.0000000E+04;  7.0062559E-04;  0.0000000E+00;  8.1923854E-04;  9.8410071E+02;
 -2.9999999E-02;  9.9999998E-03; -3.7000000E-01;1553;  0.0000000E+00;  0.0000000E+00;  0.0000000E+00;  1.0004795E+03;  1.0000000E-01;  3.9722333E+02;0;  0.0000000E+00;  0.0000000E+00;  0.0000000E+00;0;  2.2704885E-03;  4.0000000E+04;  0.0000000E+00;  0.0000000E+00;  4.0000000E+04;  0.0000000E+00;  4.0000000E+04;  1.1872101E-03;  0.0000000E+00;  1.0832784E-03;  1.2449315E+03;
 -2.9999999E-02;  9.9999998E-03; -3.6000001E-01;1554;  0.0000000E+00;  0.0000000E+00;  0.0000000E+00;  1.0006844E+03;  1.0000000E-01;  5.6709509E+02;0;  0.0000000E+00;  0.0000000E+00;  0.0000000E+00;0;  3.2721502E-03;  4.0000000E+04;  0.0000000E+00;  0.0000000E+00;  4.0000000E+04;  0.0000000E+00;  4.0000000E+04;  1.9057317E-03;  0.0000000E+00;  1.3664183E-03;  1.4989751E+03;
 -2.9999999E-02;  9.9999998E-03; -3.4999999E-01;1555;  0.0000000E+00;  0.0000000E+00;  0.0000000E+00;  1.0009326E+03;  1.0000000E-01;  7.7262012E+02;0;  0.0000000E+00;  0.0000000E+00;  0.0000000E+00;0;  4.5740185E-03;  4.0000000E+04;  0.0000000E+00;  0.0000000E+00;  4.0000000E+04;  0.0000000E+00;  4.0000000E+04;  2.9178846E-03;  0.0000000E+00;  1.6561341E-03;  1.7265682E+03;
 -2.9999999E-02;  9.9999998E-03; -3.4000000E-01;1556;  0.0000000E+00;  0.0000000E+00;  0.0000000E+00;  1.0012330E+03;  1.0000000E-01;  1.0215020E+03;0;  0.0000000E+00;  0.0000000E+00;  0.0000000E+00;0;  6.2161079E-03;  4.0000000E+04;  0.0000000E+00;  0.0000000E+00;  4.0000000E+04;  0.0000000E+00;  4.0000000E+04;  4.2820782E-03;  0.0000000E+00;  1.9340297E-03;  1.9028502E+03;
 -2.9999999E-02;  9.9999998E-03; -3.3000001E-01;1557;  0.0000000E+00;  0.0000000E+00;  0.0000000E+00;  1.0015914E+03;  1.0000000E-01;  1.3183824E+03;0;  0.0000000E+00;  0.0000000E+00;  0.0000000E+00;0;  8.2184970E-03;  4.0000000E+04;  0.0000000E+00;  0.0000000E+00;  4.0000000E+04;  0.0000000E+00;  4.0000000E+04;  6.0444344E-03;  0.0000000E+00;  2.1740624E-03;  1.9973229E+03;
 -2.9999999E-02;  9.9999998E-03; -3.1999999E-01;1558;  0.0000000E+00;  0.0000000E+00;  0.0000000E+00;  1.0019917E+03;  1.0000000E-01;  1.6501262E+03;0;  0.0000000E+00;  0.0000000E+00;  0.0000000E+00;0;  1.0570991E-02;  4.0000000E+04;  0.0000000E+00;  0.0000000E+00;  4.0000000E+04;  0.0000000E+00;  4.0000000E+04;  8.2284603E-03;  0.0000000E+00;  2.3425305E-03;  1.9760204E+03;
 -2.9999999E-02;  9.9999998E-03; -3.1000000E-01;1559;  0.0000000E+00;  0.0000000E+00;  0.0000000E+00;  1.0024312E+03;  1.0000000E-01;  2.0141653E+03;0;  0.0000000E+00;  0.0000000E+00;  0.0000000E+00;0;  1.3226319E-02;  4.0000000E+04;  0.0000000E+00;  0.0000000E+00;  4.0000000E+04;  0.0000000E+00;  4.0000000E+04;  1.0824543E-02;  0.0000000E+00;  2.4017754E-03;  1.8080010E+03;
 -2.9999999E-02;  9.9999998E-03; -3.0000001E-01;1560;  0.0000000E+00;  0.0000000E+00;  0.0000000E+00;  1.0028961E+03;  1.0000000E-01;  2.3993396E+03;0;  0.0000000E+00;  0.0000000E+00;  0.0000000E+00;0;  1.6100634E-02;  4.0000000E+04;  0.0000000E+00;  0.0000000E+00;  4.0000000E+04;  0.0000000E+00;  4.0000000E+04;  1.3781413E-02;  0.0000000E+00;  2.3192212E-03;  1.4770973E+03;
 -2.9999999E-02;  9.9999998E-03; -2.8999999E-01;1561;  0.0000000E+00;  0.0000000E+00;  0.0000000E+00;  1.0033678E+03;  1.0000000E-01;  2.7901433E+03;0;  0.0000000E+00;  0.0000000E+00;  0.0000000E+00;0;  1.9084089E-02;  4.0000000E+04;  0.0000000E+00;  0.0000000E+00;  4.0000000E+04;  0.0000000E+00;  4.0000000E+04;  1.7003343E-02;  0.0000000E+00;  2.0807453E-03;  9.9825702E+02;
 -2.9999999E-02;  9.9999998E-03; -2.8000000E-01;1562;  0.0000000E+00;  0.0000000E+00;  0.0000000E+00;  1.0038383E+03;  1.0000000E-01;  3.1799595E+03;0;  0.0000000E+00;  0.0000000E+00;  0.0000000E+00;0;  2.2059368E-02;  4.0000000E+04;  0.0000000E+00;  0.0000000E+00;  4.0000000E+04;  0.0000000E+00;  4.0000000E+04;  2.0358037E-02;  0.0000000E+00;  1.7013309E-03;  4.6147995E+02;
 -2.0000000E-02;  9.9999998E-03; -4.4000000E-01;1637;  0.0000000E+00;  0.0000000E+00;  0.0000000E+00;  1.0000000E+03;  1.0000000E-01;  0.0000000E+00;0;  0.0000000E+00;  0.0000000E+00;  0.0000000E+00;0;  2.0441155E-05;  4.0000000E+04;  0.0000000E+00;  0.0000000E+00;  4.0000000E+04;  0.0000000E+00;  4.0000000E+04;  3.2456419E-06;  0.0000000E+00;  1.7195513E-05;  3.2172428E+01;
 -2.0000000E-02;  9.9999998E-03; -4.3000001E-01;1638;  0.0000000E+00;  0.0000000E+00;  0.0000000E+00;  1.0000000E+03;  1.0000000E-01;  0.0000000E+00;0;  0.0000000E+00;  0.0000000E+00;  0.0000000E+00;0;  7.2356182E-05;  4.0000000E+04;  0.0000000E+00;  0.0000000E+00;  4.0000000E+04;  0.0000000E+00;  4.0000000E+04;  1.3069466E-05;  0.0000000E+00;  5.9286718E-05;  9.7094437E+01;
 -2.0000000E-02;  9.9999998E-03; -4.1999999E-01;1639;  0.0000000E+00;  0.0000000E+00;  0.0000000E+00;  1.0000462E+03;  1.0000000E-01;  3.8319904E+01;0;  0.0000000E+00;  0.0000000E+00;  0.0000000E+00;0;  1.8363382E-04;  4.0000000E+04;  0.0000000E+00;  0.0000000E+00;  4.0000000E+04;  0.0000000E+00;  4.0000000E+04;  3.8995269E-05;  0.0000000E+00;  1.4463854E-04;  2.1545152E+02;
 -2.0000000E-02;  9.9999998E-03; -4.1000000E-01;1640;  0.0000000E+00;  0.0000000E+00;  0.0000000E+00;  1.0000828E+03;  1.0000000E-01;  6.8541275E+01;0;  0.0000000E+00;  0.0000000E+00;  0.0000000E+00;0;  3.7795375E-04;  4.0000000E+04;  0.0000000E+00;  0.0000000E+00;  4.0000000E+04;  0.0000000E+00;  4.0000000E+04;  9.6117001E-05;  0.0000000E+00;  2.8183675E-04;  3.9137729E+02;
 -2.0000000E-02;  9.9999998E-03; -4.0000001E-01;1641;  0.0000000E+00;  0.0000000E+00;  0.0000000E+00;  1.0001629E+03;  1.0000000E-01;  1.3500853E+02;0;  0.0000000E+00;  0.0000000E+00;  0.0000000E+00;0;  6.7851401E-04;  4.0000000E+04;  0.0000000E+00;  0.0000000E+00;  4.0000000E+04;  0.0000000E+00;  4.0000000E+04;  2.0747274E-04;  0.0000000E+00;  4.7104130E-04;  6.1871667E+02;
 -2.0000000E-02;  9.9999998E-03; -3.8999999E-01;1642;  0.0000000E+00;  0.0000000E+00;  0.0000000E+00;  1.0002701E+03;  1.0000000E-01;  2.2379614E+02;0;  0.0000000E+00;  0.0000000E+00;  0.0000000E+00;0;  1.1132150E-03;  4.0000000E+04;  0.0000000E+00;  0.0000000E+00;  4.0000000E+04;  0.0000000E+00;  4.0000000E+04;  4.0585134E-04;  0.0000000E+00;  7.0736359E-04;  8.8525537E+02;
 -2.0000000E-02;  9.9999998E-03; -3.8000000E-01;1643;  0.0000000E+00;  0.0000000E+00;  0.0000000E+00;  1.0004194E+03;  1.0000000E-01;  3.4744696E+02;0;  0.0000000E+00;  0.0000000E+00;  0.0000000E+00;0;  1.7194028E-03;  4.0000000E+04;  0.0000000E+00;  0.0000000E+00;  4.0000000E+04;  0.0000000E+00;  4.0000000E+04;  7.3501450E-04;  0.0000000E+00;  9.8438829E-04;  1.1765780E+03;
 -2.0000000E-02;  9.9999998E-03; -3.7000000E-01;1644;  0.0000000E+00;  0.0000000E+00;  0.0000000E+00;  1.0006244E+03;  1.0000000E-01;  5.1731873E+02;0;  0.0000000E+00;  0.0000000E+00;  0.0000000E+00;0;  2.5445023E-03;  4.0000000E+04;  0.0000000E+00;  0.0000000E+00;  4.0000000E+04;  0.0000000E+00;  4.0000000E+04;  1.2494178E-03;  0.0000000E+00;  1.2950844E-03;  1.4772289E+03;
 -2.0000000E-02;  9.9999998E-03; -3.6000001E-01;1645;  0.0000000E+00;  0.0000000E+00;  0.0000000E+00;  1.0008726E+03;  1.0000000E-01;  7.2294250E+02;0;  0.0000000E+00;  0.0000000E+00;  0.0000000E+00;0;  3.6425670E-03;  4.0000000E+04;  0.0000000E+00;  0.0000000E+00;  4.0000000E+04;  0.0000000E+00;  4.0000000E+04;  2.0120000E-03;  0.0000000E+00;  1.6305669E-03;  1.7697323E+03;
 -2.0000000E-02;  9.9999998E-03; -3.4999999E-01;1646;  0.0000000E+00;  0.0000000E+00;  0.0000000E+00;  1.0011904E+03;  1.0000000E-01;  9.8624371E+02;0;  0.0000000E+00;  0.0000000E+00;  0.0000000E+00;0;  5.0669853E-03;  4.0000000E+04;  0.0000000E+00;  0.0000000E+00;  4.0000000E+04;  0.0000000E+00;  4.0000000E+04;  3.0893299E-03;  0.0000000E+00;  1.9776551E-03;  2.0323942E+03;
 -2.0000000E-02;  9.9999998E-03; -3.4000000E-01;1647;  0.0000000E+00;  0.0000000E+00;  0.0000000E+00;  1.0015741E+03;  1.0000000E-01;  1.3040619E+03;0;  0.0000000E+00;  0.0000000E+00;  0.0000000E+00;0;  6.8604560E-03;  4.0000000E+04;  0.0000000E+00;  0.0000000E+00;  4.0000000E+04;  0.0000000E+00;  4.0000000E+04;  4.5444192E-03;  0.0000000E+00;  2.3160367E-03;  2.2372268E+03;
 -2.0000000E-02;  9.9999998E-03; -3.3000001E-01;1648;  0.0000000E+00;  0.0000000E+00;  0.0000000E+00;  1.0020239E+03;  1.0000000E-01;  1.6767921E+03;0;  0.0000000E+00;  0.0000000E+00;  0.0000000E+00;0;  9.0432158E-03;  4.0000000E+04;  0.0000000E+00;  0.0000000E+00;  4.0000000E+04;  0.0000000E+00;  4.0000000E+04;  6.4275404E-03;  0.0000000E+00;  2.6156756E-03;  2.3488025E+03;
 -2.0000000E-02;  9.9999998E-03; -3.1999999E-01;1649;  0.0000000E+00;  0.0000000E+00;  0.0000000E+00;  1.0025301E+03;  1.0000000E-01;  2.0961382E+03;0;  0.0000000E+00;  0.0000000E+00;  0.0000000E+00;0;  1.1601354E-02;  4.0000000E+04;  0.0000000E+00;  0.0000000E+00;  4.0000000E+04;  0.0000000E+00;  4.0000000E+04;  8.7655429E-03;  0.0000000E+00;  2.8358113E-03;  2.3259326E+03;
 -2.0000000E-02;  9.9999998E-03; -3.1000000E-01;1650;  0.0000000E+00;  0.0000000E+00;  0.0000000E+00;  1.0030816E+03;  1.0000000E-01;  2.5530142E+03;0;  0.0000000E+00;  0.0000000E+00;  0.0000000E+00;0;  1.4478652E-02;  4.0000000E+04;  0.0000000E+00;  0.0000000E+00;  4.0000000E+04;  0.0000000E+00;  4.0000000E+04;  1.1550389E-02;  0.0000000E+00;  2.9282623E-03;  2.1290654E+03;
 -2.0000000E-02;  9.9999998E-03; -3.0000001E-01;1651;  0.0000000E+00;  0.0000000E+00;  0.0000000E+00;  1.0036594E+03;  1.0000000E-01;  3.0317168E+03;0;  0.0000000E+00;  0.0000000E+00;  0.0000000E+00;0;  1.7576100E-02;  4.0000000E+04;  0.0000000E+00;  0.0000000E+00;  4.0000000E+04;  0.0000000E+00;  4.0000000E+04;  1.4728121E-02;  0.0000000E+00;  2.8479791E-03;  1.7354507E+03;
 -2.0000000E-02;  9.9999998E-03; -2.8999999E-01;1652;  0.0000000E+00;  0.0000000E+00;  0.0000000E+00;  1.0042484E+03;  1.0000000E-01;  3.5197029E+03;0;  0.0000000E+00;  0.0000000E+00;  0.0000000E+00;0;  2.0763570E-02;  4.0000000E+04;  0.0000000E+00;  0.0000000E+00;  4.0000000E+04;  0.0000000E+00;  4.0000000E+04;  1.8191678E-02;  0.0000000E+00;  2.5718920E-03;  1.1632412E+03;
 -2.0000000E-02;  9.9999998E-03; -2.8000000E-01;1653;  0.0000000E+00;  0.0000000E+00;  0.0000000E+00;  1.0048337E+03;  1.0000000E-01;  4.0046274E+03;0;  0.0000000E+00;  0.0000000E+00;  0.0000000E+00;0;  2.3906145E-02;  4.0000000E+04;  0.0000000E+00;  0.0000000E+00;  4.0000000E+04;  0.0000000E+00;  4.0000000E+04;  2.1788621E-02;  0.0000000E+00;  2.1175246E-03;  5.3920270E+02;
 -9.9999998E-03;  9.9999998E-03; -4.4000000E-01;1728;  0.0000000E+00;  0.0000000E+00;  0.0000000E+00;  1.0000000E+03;  1.0000000E-01;  0.0000000E+00;0;  0.0000000E+00;  0.0000000E+00;  0.0000000E+00;0;  2.6109587E-05;  4.0000000E+04;  0.0000000E+00;  0.0000000E+00;  4.0000000E+04;  0.0000000E+00;  4.0000000E+04;  3.0420342E-06;  0.0000000E+00;  2.3067552E-05;  4.2972198E+01;
 -9.9999998E-03;  9.9999998E-03; -4.3000001E-01;1729;  0.0000000E+00;  0.0000000E+00;  0.0000000E+00;  1.0000000E+03;  1.0000000E-01;  0.0000000E+00;0;  0.0000000E+00;  0.0000000E+00;  0.0000000E+00;0;  8.6425425E-05;  4.0000000E+04;  0.0000000E+00;  0.0000000E+00;  4.0000000E+04;  0.0000000E+00;  4.0000000E+04;  1.2131578E-05;  0.0000000E+00;  7.4293850E-05;  1.2158704E+02;
 -9.9999998E-03;  9.9999998E-03; -4.1999999E-01;1730;  0.0000000E+00;  0.0000000E+00;  0.0000000E+00;  1.0000550E+03;  1.0000000E-01;  4.5529575E+01;0;  0.0000000E+00;  0.0000000E+00;  0.0000000E+00;0;  2.1083043E-04;  4.0000000E+04;  0.0000000E+00;  0.0000000E+00;  4.0000000E+04;  0.0000000E+00;  4.0000000E+04;  3.6549089E-05;  0.0000000E+00;  1.7428135E-04;  2.6015656E+02;
 -9.9999998E-03;  9.9999998E-03; -4.1000000E-01;1731;  0.0000000E+00;  0.0000000E+00;  0.0000000E+00;  1.0001279E+03;  1.0000000E-01;  1.0597231E+02;0;  0.0000000E+00;  0.0000000E+00;  0.0000000E+00;0;  4.2303916E-04;  4.0000000E+04;  0.0000000E+00;  0.0000000E+00;  4.0000000E+04;  0.0000000E+00;  4.0000000E+04;  9.1476184E-05;  0.0000000E+00;  3.3156297E-04;  4.6223239E+02;
 -9.9999998E-03;  9.9999998E-03; -4.0000001E-01;1732;  0.0000000E+00;  0.0000000E+00;  0.0000000E+00;  1.0002181E+03;  1.0000000E-01;  1.8073563E+02;0;  0.0000000E+00;  0.0000000E+00;  0.0000000E+00;0;  7.4701477E-04;  4.0000000E+04;  0.0000000E+00;  0.0000000E+00;  4.0000000E+04;  0.0000000E+00;  4.0000000E+04;  2.0076091E-04;  0.0000000E+00;  5.4625387E-04;  7.2034924E+02;
 -9.9999998E-03;  9.9999998E-03; -3.8999999E-01;1733;  0.0000000E+00;  0.0000000E+00;  0.0000000E+00;  1.0003542E+03;  1.0000000E-01;  2.9342380E+02;0;  0.0000000E+00;  0.0000000E+00;  0.0000000E+00;0;  1.2129748E-03;  4.0000000E+04;  0.0000000E+00;  0.0000000E+00;  4.0000000E+04;  0.0000000E+00;  4.0000000E+04;  3.9903662E-04;  0.0000000E+00;  8.1393821E-04;  1.0207621E+03;
 -9.9999998E-03;  9.9999998E-03; -3.8000000E-01;1734;  0.0000000E+00;  0.0000000E+00;  0.0000000E+00;  1.0005274E+03;  1.0000000E-01;  4.3692590E+02;0;  0.0000000E+00;  0.0000000E+00;  0.0000000E+00;0;  1.8614619E-03;  4.0000000E+04;  0.0000000E+00;  0.0000000E+00;  4.0000000E+04;  0.0000000E+00;  4.0000000E+04;  7.3267432E-04;  0.0000000E+00;  1.1287875E-03;  1.3476349E+03;
 -9.9999998E-03;  9.9999998E-03; -3.7000000E-01;1735;  0.0000000E+00;  0.0000000E+00;  0.0000000E+00;  1.0007711E+03;  1.0000000E-01;  6.3889551E+02;0;  0.0000000E+00;  0.0000000E+00;  0.0000000E+00;0;  2.7430865E-03;  4.0000000E+04;  0.0000000E+00;  0.0000000E+00;  4.0000000E+04;  0.0000000E+00;  4.0000000E+04;  1.2589574E-03;  0.0000000E+00;  1.4841291E-03;  1.6842710E+03;
 -9.9999998E-03;  9.9999998E-03; -3.6000001E-01;1736;  0.0000000E+00;  0.0000000E+00;  0.0000000E+00;  1.0010823E+03;  1.0000000E-01;  8.9666602E+02;0;  0.0000000E+00;  0.0000000E+00;  0.0000000E+00;0;  3.9143404E-03;  4.0000000E+04;  0.0000000E+00;  0.0000000E+00;  4.0000000E+04;  0.0000000E+00;  4.0000000E+04;  2.0432493E-03;  0.0000000E+00;  1.8710913E-03;  2.0119006E+03;
 -9.9999998E-03;  9.9999998E-03; -3.4999999E-01;1737;  0.0000000E+00;  0.0000000E+00;  0.0000000E+00;  1.0014689E+03;  1.0000000E-01;  1.2169532E+03;0;  0.0000000E+00;  0.0000000E+00;  0.0000000E+00;0;  5.4297359E-03;  4.0000000E+04;  0.0000000E+00;  0.0000000E+00;  4.0000000E+04;  0.0000000E+00;  4.0000000E+04;  3.1537060E-03;  0.0000000E+00;  2.2760299E-03;  2.3072556E+03;
 -9.9999998E-03;  9.9999998E-03; -3.4000000E-01;1738;  0.0000000E+00;  0.0000000E+00;  0.0000000E+00;  1.0019410E+03;  1.0000000E-01;  1.6080533E+03;0;  0.0000000E+00;  0.0000000E+00;  0.0000000E+00;0;  7.3311590E-03;  4.0000000E+04;  0.0000000E+00;  0.0000000E+00;  4.0000000E+04;  0.0000000E+00;  4.0000000E+04;  4.6539484E-03;  0.0000000E+00;  2.6772106E-03;  2.5397666E+03;
 -9.9999998E-03;  9.9999998E-03; -3.3000001E-01;1739;  0.0000000E+00;  0.0000000E+00;  0.0000000E+00;  1.0024881E+03;  1.0000000E-01;  2.0613738E+03;0;  0.0000000E+00;  0.0000000E+00;  0.0000000E+00;0;  9.6353143E-03;  4.0000000E+04;  0.0000000E+00;  0.0000000E+00;  4.0000000E+04;  0.0000000E+00;  4.0000000E+04;  6.5940307E-03;  0.0000000E+00;  3.0412839E-03;  2.6697305E+03;
 -9.9999998E-03;  9.9999998E-03; -3.1999999E-01;1740;  0.0000000E+00;  0.0000000E+00;  0.0000000E+00;  1.0031089E+03;  1.0000000E-01;  2.5757297E+03;0;  0.0000000E+00;  0.0000000E+00;  0.0000000E+00;0;  1.2321087E-02;  4.0000000E+04;  0.0000000E+00;  0.0000000E+00;  4.0000000E+04;  0.0000000E+00;  4.0000000E+04;  9.0001291E-03;  0.0000000E+00;  3.3209575E-03;  2.6489841E+03;
 -9.9999998E-03;  9.9999998E-03; -3.1000000E-01;1741;  0.0000000E+00;  0.0000000E+00;  0.0000000E+00;  1.0037830E+03;  1.0000000E-01;  3.1341335E+03;0;  0.0000000E+00;  0.0000000E+00;  0.0000000E+00;0;  1.5320575E-02;  4.0000000E+04;  0.0000000E+00;  0.0000000E+00;  4.0000000E+04;  0.0000000E+00;  4.0000000E+04;  1.1863566E-02;  0.0000000E+00;  3.4570093E-03;  2.4280315E+03;
 -9.9999998E-03;  9.9999998E-03; -3.0000001E-01;1742;  0.0000000E+00;  0.0000000E+00;  0.0000000E+00;  1.0044829E+03;  1.0000000E-01;  3.7139690E+03;0;  0.0000000E+00;  0.0000000E+00;  0.0000000E+00;0;  1.8518655E-02;  4.0000000E+04;  0.0000000E+00;  0.0000000E+00;  4.0000000E+04;  0.0000000E+00;  4.0000000E+04;  1.5129298E-02;  0.0000000E+00;  3.3893560E-03;  1.9751669E+03;
 -9.9999998E-03;  9.9999998E-03; -2.8999999E-01;1743;  0.0000000E+00;  0.0000000E+00;  0.0000000E+00;  1.0051879E+03;  1.0000000E-01;  4.2980513E+03;0;  0.0000000E+00;  0.0000000E+00;  0.0000000E+00;0;  2.1765562E-02;  4.0000000E+04;  0.0000000E+00;  0.0000000E+00;  4.0000000E+04;  0.0000000E+00;  4.0000000E+04;  1.8684434E-02;  0.0000000E+00;  3.0811287E-03;  1.3116461E+03;
 -9.9999998E-03;  9.9999998E-03; -2.8000000E-01;1744;  0.0000000E+00;  0.0000000E+00;  0.0000000E+00;  1.0058873E+03;  1.0000000E-01;  4.8774917E+03;0;  0.0000000E+00;  0.0000000E+00;  0.0000000E+00;0;  2.4913248E-02;  4.0000000E+04;  0.0000000E+00;  0.0000000E+00;  4.0000000E+04;  0.0000000E+00;  4.0000000E+04;  2.2360833E-02;  0.0000000E+00;  2.5524138E-03;  6.1573132E+02;
  0.0000000E+00;  9.9999998E-03; -4.4000000E-01;1819;  0.0000000E+00;  0.0000000E+00;  0.0000000E+00;  1.0000000E+03;  1.0000000E-01;  0.0000000E+00;0;  0.0000000E+00;  0.0000000E+00;  0.0000000E+00;0;  2.9690022E-05;  4.0000000E+04;  0.0000000E+00;  0.0000000E+00;  4.0000000E+04;  0.0000000E+00;  4.0000000E+04;  2.1296223E-06;  0.0000000E+00;  2.7560400E-05;  5.1892574E+01;
  0.0000000E+00;  9.9999998E-03; -4.3000001E-01;1820;  0.0000000E+00;  0.0000000E+00;  0.0000000E+00;  1.0000084E+03;  1.0000000E-01;  6.9133849E+00;0;  0.0000000E+00;  0.0000000E+00;  0.0000000E+00;0;  9.4167583E-05;  4.0000000E+04;  0.0000000E+00;  0.0000000E+00;  4.0000000E+04;  0.0000000E+00;  4.0000000E+04;  9.2294640E-06;  0.0000000E+00;  8.4938118E-05;  1.4085294E+02;
  0.0000000E+00;  9.9999998E-03; -4.1999999E-01;1821;  0.0000000E+00;  0.0000000E+00;  0.0000000E+00;  1.0000707E+03;  1.0000000E-01;  5.8566246E+01;0;  0.0000000E+00;  0.0000000E+00;  0.0000000E+00;0;  2.2448711E-04;  4.0000000E+04;  0.0000000E+00;  0.0000000E+00;  4.0000000E+04;  0.0000000E+00;  4.0000000E+04;  2.9910221E-05;  0.0000000E+00;  1.9457689E-04;  2.9482132E+02;
  0.0000000E+00;  9.9999998E-03; -4.1000000E-01;1822;  0.0000000E+00;  0.0000000E+00;  0.0000000E+00;  1.0001499E+03;  1.0000000E-01;  1.2414464E+02;0;  0.0000000E+00;  0.0000000E+00;  0.0000000E+00;0;  4.4538462E-04;  4.0000000E+04;  0.0000000E+00;  0.0000000E+00;  4.0000000E+04;  0.0000000E+00;  4.0000000E+04;  7.9515448E-05;  0.0000000E+00;  3.6586917E-04;  5.1747192E+02;
  0.0000000E+00;  9.9999998E-03; -4.0000001E-01;1823;  0.0000000E+00;  0.0000000E+00;  0.0000000E+00;  1.0002663E+03;  1.0000000E-01;  2.2063574E+02;0;  0.0000000E+00;  0.0000000E+00;  0.0000000E+00;0;  7.8353786E-04;  4.0000000E+04;  0.0000000E+00;  0.0000000E+00;  4.0000000E+04;  0.0000000E+00;  4.0000000E+04;  1.8314811E-04;  0.0000000E+00;  6.0038979E-04;  8.0071625E+02;
  0.0000000E+00;  9.9999998E-03; -3.8999999E-01;1824;  0.0000000E+00;  0.0000000E+00;  0.0000000E+00;  1.0004247E+03;  1.0000000E-01;  3.5189130E+02;0;  0.0000000E+00;  0.0000000E+00;  0.0000000E+00;0;  1.2723036E-03;  4.0000000E+04;  0.0000000E+00;  0.0000000E+00;  4.0000000E+04;  0.0000000E+00;  4.0000000E+04;  3.7740465E-04;  0.0000000E+00;  8.9489901E-04;  1.1295822E+03;
  0.0000000E+00;  9.9999998E-03; -3.8000000E-01;1825;  0.0000000E+00;  0.0000000E+00;  0.0000000E+00;  1.0006463E+03;  1.0000000E-01;  5.3549103E+02;0;  0.0000000E+00;  0.0000000E+00;  0.0000000E+00;0;  1.9545956E-03;  4.0000000E+04;  0.0000000E+00;  0.0000000E+00;  4.0000000E+04;  0.0000000E+00;  4.0000000E+04;  7.1059720E-04;  0.0000000E+00;  1.2439984E-03;  1.4868129E+03;
  0.0000000E+00;  9.9999998E-03; -3.7000000E-01;1826;  0.0000000E+00;  0.0000000E+00;  0.0000000E+00;  1.0009313E+03;  1.0000000E-01;  7.7153375E+02;0;  0.0000000E+00;  0.0000000E+00;  0.0000000E+00;0;  2.8820685E-03;  4.0000000E+04;  0.0000000E+00;  0.0000000E+00;  4.0000000E+04;  0.0000000E+00;  4.0000000E+04;  1.2411597E-03;  0.0000000E+00;  1.6409089E-03;  1.8543387E+03;
  0.0000000E+00;  9.9999998E-03; -3.6000001E-01;1827;  0.0000000E+00;  0.0000000E+00;  0.0000000E+00;  1.0013019E+03;  1.0000000E-01;  1.0785868E+03;0;  0.0000000E+00;  0.0000000E+00;  0.0000000E+00;0;  4.1106166E-03;  4.0000000E+04;  0.0000000E+00;  0.0000000E+00;  4.0000000E+04;  0.0000000E+00;  4.0000000E+04;  2.0341817E-03;  0.0000000E+00;  2.0764349E-03;  2.2120515E+03;
  0.0000000E+00;  9.9999998E-03; -3.4999999E-01;1828;  0.0000000E+00;  0.0000000E+00;  0.0000000E+00;  1.0017573E+03;  1.0000000E-01;  1.4558601E+03;0;  0.0000000E+00;  0.0000000E+00;  0.0000000E+00;0;  5.6920806E-03;  4.0000000E+04;  0.0000000E+00;  0.0000000E+00;  4.0000000E+04;  0.0000000E+00;  4.0000000E+04;  3.1556454E-03;  0.0000000E+00;  2.5364351E-03;  2.5352151E+03;
  0.0000000E+00;  9.9999998E-03; -3.4000000E-01;1829;  0.0000000E+00;  0.0000000E+00;  0.0000000E+00;  1.0023111E+03;  1.0000000E-01;  1.9147113E+03;0;  0.0000000E+00;  0.0000000E+00;  0.0000000E+00;0;  7.6630106E-03;  4.0000000E+04;  0.0000000E+00;  0.0000000E+00;  4.0000000E+04;  0.0000000E+00;  4.0000000E+04;  4.6648709E-03;  0.0000000E+00;  2.9981399E-03;  2.7912168E+03;
  0.0000000E+00;  9.9999998E-03; -3.3000001E-01;1830;  0.0000000E+00;  0.0000000E+00;  0.0000000E+00;  1.0029622E+03;  1.0000000E-01;  2.4541528E+03;0;  0.0000000E+00;  0.0000000E+00;  0.0000000E+00;0;  1.0031429E-02;  4.0000000E+04;  0.0000000E+00;  0.0000000E+00;  4.0000000E+04;  0.0000000E+00;  4.0000000E+04;  6.6056591E-03;  0.0000000E+00;  3.4257702E-03;  2.9371201E+03;
  0.0000000E+00;  9.9999998E-03; -3.1999999E-01;1831;  0.0000000E+00;  0.0000000E+00;  0.0000000E+00;  1.0036971E+03;  1.0000000E-01;  3.0629258E+03;0;  0.0000000E+00;  0.0000000E+00;  0.0000000E+00;0;  1.2763666E-02;  4.0000000E+04;  0.0000000E+00;  0.0000000E+00;  4.0000000E+04;  0.0000000E+00;  4.0000000E+04;  8.9968620E-03;  0.0000000E+00;  3.7668035E-03;  2.9190266E+03;
  0.0000000E+00;  9.9999998E-03; -3.1000000E-01;1832;  0.0000000E+00;  0.0000000E+00;  0.0000000E+00;  1.0044948E+03;  1.0000000E-01;  3.7238452E+03;0;  0.0000000E+00;  0.0000000E+00;  0.0000000E+00;0;  1.5774798E-02;  4.0000000E+04;  0.0000000E+00;  0.0000000E+00;  4.0000000E+04;  0.0000000E+00;  4.0000000E+04;  1.1822917E-02;  0.0000000E+00;  3.9518797E-03;  2.6775217E+03;
  0.0000000E+00;  9.9999998E-03; -3.0000001E-01;1833;  0.0000000E+00;  0.0000000E+00;  0.0000000E+00;  1.0053224E+03;  1.0000000E-01;  4.4094556E+03;0;  0.0000000E+00;  0.0000000E+00;  0.0000000E+00;0;  1.8927729E-02;  4.0000000E+04;  0.0000000E+00;  0.0000000E+00;  4.0000000E+04;  0.0000000E+00;  4.0000000E+04;  1.5022888E-02;  0.0000000E+00;  3.9048407E-03;  2.1687634E+03;
  9.9999998E-03;  9.9999998E-03; -4.4000000E-01;1851;  0.0000000E+00;  0.0000000E+00;  0.0000000E+00;  1.0000000E+03;  1.0000000E-01;  0.0000000E+00;0;  0.0000000E+00;  0.0000000E+00;  0.0000000E+00;0;  3.0123185E-05;  4.0000000E+04;  0.0000000E+00;  0.0000000E+00;  4.0000000E+04;  0.0000000E+00;  4.0000000E+04;  7.3561654E-07;  0.0000000E+00;  2.9387569E-05;  5.7222744E+01;
  9.9999998E-03;  9.9999998E-03; -4.3000001E-01;1852;  0.0000000E+00;  0.0000000E+00;  0.0000000E+00;  1.0000317E+03;  1.0000000E-01;  2.6270863E+01;0;  0.0000000E+00;  0.0000000E+00;  0.0000000E+00;0;  9.3802671E-05;  4.0000000E+04;  0.0000000E+00;  0.0000000E+00;  4.0000000E+04;  0.0000000E+00;  4.0000000E+04;  5.1766319E-06;  0.0000000E+00;  8.8626039E-05;  1.5204797E+02;
  9.9999998E-03;  9.9999998E-03; -4.1999999E-01;1853;  0.0000000E+00;  0.0000000E+00;  0.0000000E+00;  1.0000889E+03;  1.0000000E-01;  7.3676926E+01;0;  0.0000000E+00;  0.0000000E+00;  0.0000000E+00;0;  2.2343903E-04;  4.0000000E+04;  0.0000000E+00;  0.0000000E+00;  4.0000000E+04;  0.0000000E+00;  4.0000000E+04;  2.1486281E-05;  0.0000000E+00;  2.0195275E-04;  3.1570886E+02;
  9.9999998E-03;  9.9999998E-03; -4.1000000E-01;1854;  0.0000000E+00;  0.0000000E+00;  0.0000000E+00;  1.0001780E+03;  1.0000000E-01;  1.4745262E+02;0;  0.0000000E+00;  0.0000000E+00;  0.0000000E+00;0;  4.4755038E-04;  4.0000000E+04;  0.0000000E+00;  0.0000000E+00;  4.0000000E+04;  0.0000000E+00;  4.0000000E+04;  6.6102984E-05;  0.0000000E+00;  3.8144740E-04;  5.5301440E+02;
  9.9999998E-03;  9.9999998E-03; -4.0000001E-01;1855;  0.0000000E+00;  0.0000000E+00;  0.0000000E+00;  1.0003118E+03;  1.0000000E-01;  2.5826431E+02;0;  0.0000000E+00;  0.0000000E+00;  0.0000000E+00;0;  7.9734687E-04;  4.0000000E+04;  0.0000000E+00;  0.0000000E+00;  4.0000000E+04;  0.0000000E+00;  4.0000000E+04;  1.6610567E-04;  0.0000000E+00;  6.3124119E-04;  8.5589124E+02;
  9.9999998E-03;  9.9999998E-03; -3.8999999E-01;1856;  0.0000000E+00;  0.0000000E+00;  0.0000000E+00;  1.0004986E+03;  1.0000000E-01;  4.1312411E+02;0;  0.0000000E+00;  0.0000000E+00;  0.0000000E+00;0;  1.3092599E-03;  4.0000000E+04;  0.0000000E+00;  0.0000000E+00;  4.0000000E+04;  0.0000000E+00;  4.0000000E+04;  3.6011895E-04;  0.0000000E+00;  9.4914099E-04;  1.2082587E+03;
  9.9999998E-03;  9.9999998E-03; -3.8000000E-01;1857;  0.0000000E+00;  0.0000000E+00;  0.0000000E+00;  1.0007545E+03;  1.0000000E-01;  6.2506873E+02;0;  0.0000000E+00;  0.0000000E+00;  0.0000000E+00;0;  2.0271081E-03;  4.0000000E+04;  0.0000000E+00;  0.0000000E+00;  4.0000000E+04;  0.0000000E+00;  4.0000000E+04;  6.9768191E-04;  0.0000000E+00;  1.3294262E-03;  1.5911085E+03;
  9.9999998E-03;  9.9999998E-03; -3.7000000E-01;1858;  0.0000000E+00;  0.0000000E+00;  0.0000000E+00;  1.0010854E+03;  1.0000000E-01;  8.9923383E+02;0;  0.0000000E+00;  0.0000000E+00;  0.0000000E+00;0;  3.0012806E-03;  4.0000000E+04;  0.0000000E+00;  0.0000000E+00;  4.0000000E+04;  0.0000000E+00;  4.0000000E+04;  1.2368970E-03;  0.0000000E+00;  1.7643835E-03;  1.9844580E+03;
  9.9999998E-03;  9.9999998E-03; -3.6000001E-01;1859;  0.0000000E+00;  0.0000000E+00;  0.0000000E+00;  1.0015104E+03;  1.0000000E-01;  1.2513226E+03;0;  0.0000000E+00;  0.0000000E+00;  0.0000000E+00;0;  4.2841043E-03;  4.0000000E+04;  0.0000000E+00;  0.0000000E+00;  4.0000000E+04;  0.0000000E+00;  4.0000000E+04;  2.0402635E-03;  0.0000000E+00;  2.2438408E-03;  2.3664065E+03;
  9.9999998E-03;  9.9999998E-03; -3.4999999E-01;1860;  0.0000000E+00;  0.0000000E+00;  0.0000000E+00;  1.0020350E+03;  1.0000000E-01;  1.6859771E+03;0;  0.0000000E+00;  0.0000000E+00;  0.0000000E+00;0;  5.9210612E-03;  4.0000000E+04;  0.0000000E+00;  0.0000000E+00;  4.0000000E+04;  0.0000000E+00;  4.0000000E+04;  3.1682863E-03;  0.0000000E+00;  2.7527751E-03;  2.7104204E+03;
  9.9999998E-03;  9.9999998E-03; -3.4000000E-01;1861;  0.0000000E+00;  0.0000000E+00;  0.0000000E+00;  1.0026736E+03;  1.0000000E-01;  2.2150486E+03;0;  0.0000000E+00;  0.0000000E+00;  0.0000000E+00;0;  7.9388814E-03;  4.0000000E+04;  0.0000000E+00;  0.0000000E+00;  4.0000000E+04;  0.0000000E+00;  4.0000000E+04;  4.6714768E-03;  0.0000000E+00;  3.2674044E-03;  2.9819763E+03;
  9.9999998E-03;  9.9999998E-03; -3.3000001E-01;1862;  0.0000000E+00;  0.0000000E+00;  0.0000000E+00;  1.0034206E+03;  1.0000000E-01;  2.8338953E+03;0;  0.0000000E+00;  0.0000000E+00;  0.0000000E+00;0;  1.0331864E-02;  4.0000000E+04;  0.0000000E+00;  0.0000000E+00;  4.0000000E+04;  0.0000000E+00;  4.0000000E+04;  6.5816580E-03;  0.0000000E+00;  3.7502064E-03;  3.1356055E+03;
  9.9999998E-03;  9.9999998E-03; -3.1999999E-01;1863;  0.0000000E+00;  0.0000000E+00;  0.0000000E+00;  1.0042627E+03;  1.0000000E-01;  3.5315544E+03;0;  0.0000000E+00;  0.0000000E+00;  0.0000000E+00;0;  1.3048598E-02;  4.0000000E+04;  0.0000000E+00;  0.0000000E+00;  4.0000000E+04;  0.0000000E+00;  4.0000000E+04;  8.9035379E-03;  0.0000000E+00;  4.1450597E-03;  3.1135137E+03;
  9.9999998E-03;  9.9999998E-03; -3.1000000E-01;1864;  0.0000000E+00;  0.0000000E+00;  0.0000000E+00;  1.0051807E+03;  1.0000000E-01;  4.2921255E+03;0;  0.0000000E+00;  0.0000000E+00;  0.0000000E+00;0;  1.5982397E-02;  4.0000000E+04;  0.0000000E+00;  0.0000000E+00;  4.0000000E+04;  0.0000000E+00;  4.0000000E+04;  1.1607424E-02;  0.0000000E+00;  4.3749716E-03;  2.8491467E+03;
  2.0000000E-02;  9.9999998E-03; -4.4000000E-01;1881;  0.0000000E+00;  0.0000000E+00;  0.0000000E+00;  1.0000000E+03;  1.0000000E-01;  0.0000000E+00;0;  0.0000000E+00;  0.0000000E+00;  0.0000000E+00;0;  2.7011378E-05;  4.0000000E+04;  0.0000000E+00;  0.0000000E+00;  4.0000000E+04;  0.0000000E+00;  4.0000000E+04; -6.4802208E-07;  0.0000000E+00;  2.7659400E-05;  5.7921814E+01;
  2.0000000E-02;  9.9999998E-03; -4.3000001E-01;1882;  0.0000000E+00;  0.0000000E+00;  0.0000000E+00;  1.0000461E+03;  1.0000000E-01;  3.8221142E+01;0;  0.0000000E+00;  0.0000000E+00;  0.0000000E+00;0;  8.5842687E-05;  4.0000000E+04;  0.0000000E+00;  0.0000000E+00;  4.0000000E+04;  0.0000000E+00;  4.0000000E+04;  1.6469827E-06;  0.0000000E+00;  8.4195701E-05;  1.5392760E+02;
  2.0000000E-02;  9.9999998E-03; -4.1999999E-01;1883;  0.0000000E+00;  0.0000000E+00;  0.0000000E+00;  1.0001116E+03;  1.0000000E-01;  9.2441833E+01;0;  0.0000000E+00;  0.0000000E+00;  0.0000000E+00;0;  2.1218283E-04;  4.0000000E+04;  0.0000000E+00;  0.0000000E+00;  4.0000000E+04;  0.0000000E+00;  4.0000000E+04;  1.5775806E-05;  0.0000000E+00;  1.9640703E-04;  3.2210162E+02;
  2.0000000E-02;  9.9999998E-03; -4.1000000E-01;1884;  0.0000000E+00;  0.0000000E+00;  0.0000000E+00;  1.0002037E+03;  1.0000000E-01;  1.6878535E+02;0;  0.0000000E+00;  0.0000000E+00;  0.0000000E+00;0;  4.4108790E-04;  4.0000000E+04;  0.0000000E+00;  0.0000000E+00;  4.0000000E+04;  0.0000000E+00;  4.0000000E+04;  6.0446102E-05;  0.0000000E+00;  3.8064181E-04;  5.6950201E+02;
  2.0000000E-02;  9.9999998E-03; -4.0000001E-01;1885;  0.0000000E+00;  0.0000000E+00;  0.0000000E+00;  1.0003650E+03;  1.0000000E-01;  3.0241119E+02;0;  0.0000000E+00;  0.0000000E+00;  0.0000000E+00;0;  8.0913282E-04;  4.0000000E+04;  0.0000000E+00;  0.0000000E+00;  4.0000000E+04;  0.0000000E+00;  4.0000000E+04;  1.6536374E-04;  0.0000000E+00;  6.4376910E-04;  8.8855713E+02;
  2.0000000E-02;  9.9999998E-03; -3.8999999E-01;1886;  0.0000000E+00;  0.0000000E+00;  0.0000000E+00;  1.0005716E+03;  1.0000000E-01;  4.7356686E+02;0;  0.0000000E+00;  0.0000000E+00;  0.0000000E+00;0;  1.3551246E-03;  4.0000000E+04;  0.0000000E+00;  0.0000000E+00;  4.0000000E+04;  0.0000000E+00;  4.0000000E+04;  3.7127908E-04;  0.0000000E+00;  9.8384556E-04;  1.2618032E+03;
  2.0000000E-02;  9.9999998E-03; -3.8000000E-01;1887;  0.0000000E+00;  0.0000000E+00;  0.0000000E+00;  1.0008604E+03;  1.0000000E-01;  7.1286871E+02;0;  0.0000000E+00;  0.0000000E+00;  0.0000000E+00;0;  2.1223146E-03;  4.0000000E+04;  0.0000000E+00;  0.0000000E+00;  4.0000000E+04;  0.0000000E+00;  4.0000000E+04;  7.2859653E-04;  0.0000000E+00;  1.3937181E-03;  1.6677234E+03;
  2.0000000E-02;  9.9999998E-03; -3.7000000E-01;1888;  0.0000000E+00;  0.0000000E+00;  0.0000000E+00;  1.0012259E+03;  1.0000000E-01;  1.0156750E+03;0;  0.0000000E+00;  0.0000000E+00;  0.0000000E+00;0;  3.1579926E-03;  4.0000000E+04;  0.0000000E+00;  0.0000000E+00;  4.0000000E+04;  0.0000000E+00;  4.0000000E+04;  1.2942898E-03;  0.0000000E+00;  1.8637028E-03;  2.0835837E+03;
  2.0000000E-02;  9.9999998E-03; -3.6000001E-01;1889;  0.0000000E+00;  0.0000000E+00;  0.0000000E+00;  1.0017017E+03;  1.0000000E-01;  1.4098367E+03;0;  0.0000000E+00;  0.0000000E+00;  0.0000000E+00;0;  4.5087738E-03;  4.0000000E+04;  0.0000000E+00;  0.0000000E+00;  4.0000000E+04;  0.0000000E+00;  4.0000000E+04;  2.1270027E-03;  0.0000000E+00;  2.3817709E-03;  2.4847517E+03;
  2.0000000E-02;  9.9999998E-03; -3.4999999E-01;1890;  0.0000000E+00;  0.0000000E+00;  0.0000000E+00;  1.0022900E+03;  1.0000000E-01;  1.8972303E+03;0;  0.0000000E+00;  0.0000000E+00;  0.0000000E+00;0;  6.2112086E-03;  4.0000000E+04;  0.0000000E+00;  0.0000000E+00;  4.0000000E+04;  0.0000000E+00;  4.0000000E+04;  3.2798827E-03;  0.0000000E+00;  2.9313259E-03;  2.8421528E+03;
  2.0000000E-02;  9.9999998E-03; -3.4000000E-01;1891;  0.0000000E+00;  0.0000000E+00;  0.0000000E+00;  1.0030015E+03;  1.0000000E-01;  2.4867444E+03;0;  0.0000000E+00;  0.0000000E+00;  0.0000000E+00;0;  8.2792193E-03;  4.0000000E+04;  0.0000000E+00;  0.0000000E+00;  4.0000000E+04;  0.0000000E+00;  4.0000000E+04;  4.7920342E-03;  0.0000000E+00;  3.4871851E-03;  3.1189290E+03;
  2.0000000E-02;  9.9999998E-03; -3.3000001E-01;1892;  0.0000000E+00;  0.0000000E+00;  0.0000000E+00;  1.0038369E+03;  1.0000000E-01;  3.1787744E+03;0;  0.0000000E+00;  0.0000000E+00;  0.0000000E+00;0;  1.0690398E-02;  4.0000000E+04;  0.0000000E+00;  0.0000000E+00;  4.0000000E+04;  0.0000000E+00;  4.0000000E+04;  6.6800495E-03;  0.0000000E+00;  4.0103481E-03;  3.2672961E+03;
  2.0000000E-02;  9.9999998E-03; -3.1999999E-01;1893;  0.0000000E+00;  0.0000000E+00;  0.0000000E+00;  1.0047800E+03;  1.0000000E-01;  3.9601843E+03;0;  0.0000000E+00;  0.0000000E+00;  0.0000000E+00;0;  1.3373500E-02;  4.0000000E+04;  0.0000000E+00;  0.0000000E+00;  4.0000000E+04;  0.0000000E+00;  4.0000000E+04;  8.9308461E-03;  0.0000000E+00;  4.4426532E-03;  3.2271172E+03;
  2.0000000E-02;  9.9999998E-03; -3.1000000E-01;1894;  0.0000000E+00;  0.0000000E+00;  0.0000000E+00;  1.0057978E+03;  1.0000000E-01;  4.8033208E+03;0;  0.0000000E+00;  0.0000000E+00;  0.0000000E+00;0;  1.6201301E-02;  4.0000000E+04;  0.0000000E+00;  0.0000000E+00;  4.0000000E+04;  0.0000000E+00;  4.0000000E+04;  1.1497636E-02;  0.0000000E+00;  4.7036638E-03;  2.9294519E+03;
  2.9999999E-02;  9.9999998E-03; -4.4000000E-01;1911;  0.0000000E+00;  0.0000000E+00;  0.0000000E+00;  1.0000000E+03;  1.0000000E-01;  0.0000000E+00;0;  0.0000000E+00;  0.0000000E+00;  0.0000000E+00;0;  2.1043232E-05;  4.0000000E+04;  0.0000000E+00;  0.0000000E+00;  4.0000000E+04;  0.0000000E+00;  4.0000000E+04; -1.3078168E-06;  0.0000000E+00;  2.2351049E-05;  5.4008110E+01;
  2.9999999E-02;  9.9999998E-03; -4.3000001E-01;1912;  0.0000000E+00;  0.0000000E+00;  0.0000000E+00;  1.0000506E+03;  1.0000000E-01;  4.1875359E+01;0;  0.0000000E+00;  0.0000000E+00;  0.0000000E+00;0;  7.4255564E-05;  4.0000000E+04;  0.0000000E+00;  0.0000000E+00;  4.0000000E+04;  0.0000000E+00;  4.0000000E+04;  1.1173738E-06;  0.0000000E+00;  7.3138188E-05;  1.4754851E+02;
  2.9999999E-02;  9.9999998E-03; -4.1999999E-01;1913;  0.0000000E+00;  0.0000000E+00;  0.0000000E+00;  1.0001301E+03;  1.0000000E-01;  1.0775004E+02;0;  0.0000000E+00;  0.0000000E+00;  0.0000000E+00;0;  2.0100965E-04;  4.0000000E+04;  0.0000000E+00;  0.0000000E+00;  4.0000000E+04;  0.0000000E+00;  4.0000000E+04;  1.8469367E-05;  0.0000000E+00;  1.8254029E-04;  3.1726663E+02;
  2.9999999E-02;  9.9999998E-03; -4.1000000E-01;1914;  0.0000000E+00;  0.0000000E+00;  0.0000000E+00;  1.0002367E+03;  1.0000000E-01;  1.9614259E+02;0;  0.0000000E+00;  0.0000000E+00;  0.0000000E+00;0;  4.4457044E-04;  4.0000000E+04;  0.0000000E+00;  0.0000000E+00;  4.0000000E+04;  0.0000000E+00;  4.0000000E+04;  7.2737836E-05;  0.0000000E+00;  3.7183260E-04;  5.7344788E+02;
  2.9999999E-02;  9.9999998E-03; -4.0000001E-01;1915;  0.0000000E+00;  0.0000000E+00;  0.0000000E+00;  1.0004026E+03;  1.0000000E-01;  3.3362021E+02;0;  0.0000000E+00;  0.0000000E+00;  0.0000000E+00;0;  8.4682205E-04;  4.0000000E+04;  0.0000000E+00;  0.0000000E+00;  4.0000000E+04;  0.0000000E+00;  4.0000000E+04;  1.9684297E-04;  0.0000000E+00;  6.4997905E-04;  9.0908130E+02;
  2.9999999E-02;  9.9999998E-03; -3.8999999E-01;1916;  0.0000000E+00;  0.0000000E+00;  0.0000000E+00;  1.0006354E+03;  1.0000000E-01;  5.2640485E+02;0;  0.0000000E+00;  0.0000000E+00;  0.0000000E+00;0;  1.4480349E-03;  4.0000000E+04;  0.0000000E+00;  0.0000000E+00;  4.0000000E+04;  0.0000000E+00;  4.0000000E+04;  4.3398282E-04;  0.0000000E+00;  1.0140521E-03;  1.3045548E+03;
  2.9999999E-02;  9.9999998E-03; -3.8000000E-01;1917;  0.0000000E+00;  0.0000000E+00;  0.0000000E+00;  1.0009457E+03;  1.0000000E-01;  7.8348401E+02;0;  0.0000000E+00;  0.0000000E+00;  0.0000000E+00;0;  2.2899178E-03;  4.0000000E+04;  0.0000000E+00;  0.0000000E+00;  4.0000000E+04;  0.0000000E+00;  4.0000000E+04;  8.3565817E-04;  0.0000000E+00;  1.4542595E-03;  1.7348018E+03;
  2.9999999E-02;  9.9999998E-03; -3.7000000E-01;1918;  0.0000000E+00;  0.0000000E+00;  0.0000000E+00;  1.0013502E+03;  1.0000000E-01;  1.1185857E+03;0;  0.0000000E+00;  0.0000000E+00;  0.0000000E+00;0;  3.4158272E-03;  4.0000000E+04;  0.0000000E+00;  0.0000000E+00;  4.0000000E+04;  0.0000000E+00;  4.0000000E+04;  1.4579132E-03;  0.0000000E+00;  1.9579141E-03;  2.1731733E+03;
  2.9999999E-02;  9.9999998E-03; -3.6000001E-01;1919;  0.0000000E+00;  0.0000000E+00;  0.0000000E+00;  1.0018646E+03;  1.0000000E-01;  1.5447465E+03;0;  0.0000000E+00;  0.0000000E+00;  0.0000000E+00;0;  4.8658447E-03;  4.0000000E+04;  0.0000000E+00;  0.0000000E+00;  4.0000000E+04;  0.0000000E+00;  4.0000000E+04;  2.3555888E-03;  0.0000000E+00;  2.5102559E-03;  2.5913157E+03;
  2.9999999E-02;  9.9999998E-03; -3.4999999E-01;1920;  0.0000000E+00;  0.0000000E+00;  0.0000000E+00;  1.0025109E+03;  1.0000000E-01;  2.0802375E+03;0;  0.0000000E+00;  0.0000000E+00;  0.0000000E+00;0;  6.6668149E-03;  4.0000000E+04;  0.0000000E+00;  0.0000000E+00;  4.0000000E+04;  0.0000000E+00;  4.0000000E+04;  3.5744947E-03;  0.0000000E+00;  3.0923202E-03;  2.9566548E+03;
  2.9999999E-02;  9.9999998E-03; -3.4000000E-01;1921;  0.0000000E+00;  0.0000000E+00;  0.0000000E+00;  1.0032880E+03;  1.0000000E-01;  2.7239724E+03;0;  0.0000000E+00;  0.0000000E+00;  0.0000000E+00;0;  8.8192094E-03;  4.0000000E+04;  0.0000000E+00;  0.0000000E+00;  4.0000000E+04;  0.0000000E+00;  4.0000000E+04;  5.1423367E-03;  0.0000000E+00;  3.6768729E-03;  3.2293267E+03;
  2.9999999E-02;  9.9999998E-03; -3.3000001E-01;1922;  0.0000000E+00;  0.0000000E+00;  0.0000000E+00;  1.0041968E+03;  1.0000000E-01;  3.4769387E+03;0;  0.0000000E+00;  0.0000000E+00;  0.0000000E+00;0;  1.1283854E-02;  4.0000000E+04;  0.0000000E+00;  0.0000000E+00;  4.0000000E+04;  0.0000000E+00;  4.0000000E+04;  7.0604840E-03;  0.0000000E+00;  4.2233700E-03;  3.3593972E+03;
  2.9999999E-02;  9.9999998E-03; -3.1999999E-01;1923;  0.0000000E+00;  0.0000000E+00;  0.0000000E+00;  1.0052192E+03;  1.0000000E-01;  4.3240259E+03;0;  0.0000000E+00;  0.0000000E+00;  0.0000000E+00;0;  1.3971549E-02;  4.0000000E+04;  0.0000000E+00;  0.0000000E+00;  4.0000000E+04;  0.0000000E+00;  4.0000000E+04;  9.2983264E-03;  0.0000000E+00;  4.6732225E-03;  3.2864758E+03;
  2.9999999E-02;  9.9999998E-03; -3.1000000E-01;1924;  0.0000000E+00;  0.0000000E+00;  0.0000000E+00;  1.0063195E+03;  1.0000000E-01;  5.2356050E+03;0;  0.0000000E+00;  0.0000000E+00;  0.0000000E+00;0;  1.6740639E-02;  4.0000000E+04;  0.0000000E+00;  0.0000000E+00;  4.0000000E+04;  0.0000000E+00;  4.0000000E+04;  1.1792709E-02;  0.0000000E+00;  4.9479292E-03;  2.9462327E+03;
  3.9999999E-02;  9.9999998E-03; -4.4000000E-01;1941;  0.0000000E+00;  0.0000000E+00;  0.0000000E+00;  1.0000000E+03;  1.0000000E-01;  0.0000000E+00;0;  0.0000000E+00;  0.0000000E+00;  0.0000000E+00;0;  1.4479897E-05;  4.0000000E+04;  0.0000000E+00;  0.0000000E+00;  4.0000000E+04;  0.0000000E+00;  4.0000000E+04; -3.6314461E-07;  0.0000000E+00;  1.4843042E-05;  4.6792507E+01;
  3.9999999E-02;  9.9999998E-03; -4.3000001E-01;1942;  0.0000000E+00;  0.0000000E+00;  0.0000000E+00;  1.0000569E+03;  1.0000000E-01;  4.7109779E+01;0;  0.0000000E+00;  0.0000000E+00;  0.0000000E+00;0;  6.6138469E-05;  4.0000000E+04;  0.0000000E+00;  0.0000000E+00;  4.0000000E+04;  0.0000000E+00;  4.0000000E+04;  6.2031822E-06;  0.0000000E+00;  5.9935286E-05;  1.3659608E+02;
  3.9999999E-02;  9.9999998E-03; -4.1999999E-01;1943;  0.0000000E+00;  0.0000000E+00;  0.0000000E+00;  1.0001376E+03;  1.0000000E-01;  1.1407085E+02;0;  0.0000000E+00;  0.0000000E+00;  0.0000000E+00;0;  2.0377790E-04;  4.0000000E+04;  0.0000000E+00;  0.0000000E+00;  4.0000000E+04;  0.0000000E+00;  4.0000000E+04;  3.4667992E-05;  0.0000000E+00;  1.6910992E-04;  3.0867944E+02;
  3.9999999E-02;  9.9999998E-03; -4.1000000E-01;1944;  0.0000000E+00;  0.0000000E+00;  0.0000000E+00;  1.0002566E+03;  1.0000000E-01;  2.1253720E+02;0;  0.0000000E+00;  0.0000000E+00;  0.0000000E+00;0;  4.7932638E-04;  4.0000000E+04;  0.0000000E+00;  0.0000000E+00;  4.0000000E+04;  0.0000000E+00;  4.0000000E+04;  1.1109267E-04;  0.0000000E+00;  3.6823371E-04;  5.7709906E+02;
  3.9999999E-02;  9.9999998E-03; -4.0000001E-01;1945;  0.0000000E+00;  0.0000000E+00;  0.0000000E+00;  1.0004395E+03;  1.0000000E-01;  3.6413785E+02;0;  0.0000000E+00;  0.0000000E+00;  0.0000000E+00;0;  9.3927351E-04;  4.0000000E+04;  0.0000000E+00;  0.0000000E+00;  4.0000000E+04;  0.0000000E+00;  4.0000000E+04;  2.7219817E-04;  0.0000000E+00;  6.6707534E-04;  9.3473230E+02;
  3.9999999E-02;  9.9999998E-03; -3.8999999E-01;1946;  0.0000000E+00;  0.0000000E+00;  0.0000000E+00;  1.0006859E+03;  1.0000000E-01;  5.6828021E+02;0;  0.0000000E+00;  0.0000000E+00;  0.0000000E+00;0;  1.6246800E-03;  4.0000000E+04;  0.0000000E+00;  0.0000000E+00;  4.0000000E+04;  0.0000000E+00;  4.0000000E+04;  5.6431594E-04;  0.0000000E+00;  1.0603641E-03;  1.3586049E+03;
  3.9999999E-02;  9.9999998E-03; -3.8000000E-01;1947;  0.0000000E+00;  0.0000000E+00;  0.0000000E+00;  1.0010139E+03;  1.0000000E-01;  8.3997626E+02;0;  0.0000000E+00;  0.0000000E+00;  0.0000000E+00;0;  2.5754387E-03;  4.0000000E+04;  0.0000000E+00;  0.0000000E+00;  4.0000000E+04;  0.0000000E+00;  4.0000000E+04;  1.0408006E-03;  0.0000000E+00;  1.5346381E-03;  1.8189897E+03;
  3.9999999E-02;  9.9999998E-03; -3.7000000E-01;1948;  0.0000000E+00;  0.0000000E+00;  0.0000000E+00;  1.0014479E+03;  1.0000000E-01;  1.1995710E+03;0;  0.0000000E+00;  0.0000000E+00;  0.0000000E+00;0;  3.8312820E-03;  4.0000000E+04;  0.0000000E+00;  0.0000000E+00;  4.0000000E+04;  0.0000000E+00;  4.0000000E+04;  1.7577899E-03;  0.0000000E+00;  2.0734922E-03;  2.2843479E+03;
  3.9999999E-02;  9.9999998E-03; -3.6000001E-01;1949;  0.0000000E+00;  0.0000000E+00;  0.0000000E+00;  1.0020053E+03;  1.0000000E-01;  1.6613851E+03;0;  0.0000000E+00;  0.0000000E+00;  0.0000000E+00;0;  5.4261782E-03;  4.0000000E+04;  0.0000000E+00;  0.0000000E+00;  4.0000000E+04;  0.0000000E+00;  4.0000000E+04;  2.7674739E-03;  0.0000000E+00;  2.6587043E-03;  2.7216294E+03;
  3.9999999E-02;  9.9999998E-03; -3.4999999E-01;1950;  0.0000000E+00;  0.0000000E+00;  0.0000000E+00;  1.0026913E+03;  1.0000000E-01;  2.2296653E+03;0;  0.0000000E+00;  0.0000000E+00;  0.0000000E+00;0;  7.3780818E-03;  4.0000000E+04;  0.0000000E+00;  0.0000000E+00;  4.0000000E+04;  0.0000000E+00;  4.0000000E+04;  4.1099088E-03;  0.0000000E+00;  3.2681730E-03;  3.0939397E+03;
  3.9999999E-02;  9.9999998E-03; -3.4000000E-01;1951;  0.0000000E+00;  0.0000000E+00;  0.0000000E+00;  1.0035212E+03;  1.0000000E-01;  2.9172507E+03;0;  0.0000000E+00;  0.0000000E+00;  0.0000000E+00;0;  9.6757049E-03;  4.0000000E+04;  0.0000000E+00;  0.0000000E+00;  4.0000000E+04;  0.0000000E+00;  4.0000000E+04;  5.8037881E-03;  0.0000000E+00;  3.8719166E-03;  3.3578215E+03;
  3.9999999E-02;  9.9999998E-03; -3.3000001E-01;1952;  0.0000000E+00;  0.0000000E+00;  0.0000000E+00;  1.0044871E+03;  1.0000000E-01;  3.7175244E+03;0;  0.0000000E+00;  0.0000000E+00;  0.0000000E+00;0;  1.2265743E-02;  4.0000000E+04;  0.0000000E+00;  0.0000000E+00;  4.0000000E+04;  0.0000000E+00;  4.0000000E+04;  7.8381086E-03;  0.0000000E+00;  4.4276342E-03;  3.4614517E+03;
  3.9999999E-02;  9.9999998E-03; -3.1999999E-01;1953;  0.0000000E+00;  0.0000000E+00;  0.0000000E+00;  1.0055707E+03;  1.0000000E-01;  4.6151782E+03;0;  0.0000000E+00;  0.0000000E+00;  0.0000000E+00;0;  1.5044939E-02;  4.0000000E+04;  0.0000000E+00;  0.0000000E+00;  4.0000000E+04;  0.0000000E+00;  4.0000000E+04;  1.0167410E-02;  0.0000000E+00;  4.8775296E-03;  3.3462996E+03;
  3.9999999E-02;  9.9999998E-03; -3.1000000E-01;1954;  0.0000000E+00;  0.0000000E+00;  0.0000000E+00;  1.0067355E+03;  1.0000000E-01;  5.5801880E+03;0;  0.0000000E+00;  0.0000000E+00;  0.0000000E+00;0;  1.7862435E-02;  4.0000000E+04;  0.0000000E+00;  0.0000000E+00;  4.0000000E+04;  0.0000000E+00;  4.0000000E+04;  1.2713389E-02;  0.0000000E+00;  5.1490474E-03;  2.9574929E+03;
  5.0000001E-02;  9.9999998E-03; -4.4000000E-01;1971;  0.0000000E+00;  0.0000000E+00;  0.0000000E+00;  1.0000000E+03;  1.0000000E-01;  0.0000000E+00;0;  0.0000000E+00;  0.0000000E+00;  0.0000000E+00;0;  1.0963187E-05;  4.0000000E+04;  0.0000000E+00;  0.0000000E+00;  4.0000000E+04;  0.0000000E+00;  4.0000000E+04;  2.9699318E-06;  0.0000000E+00;  7.9932552E-06;  3.8862267E+01;
  5.0000001E-02;  9.9999998E-03; -4.3000001E-01;1972;  0.0000000E+00;  0.0000000E+00;  0.0000000E+00;  1.0000646E+03;  1.0000000E-01;  5.3529350E+01;0;  0.0000000E+00;  0.0000000E+00;  0.0000000E+00;0;  6.9988339E-05;  4.0000000E+04;  0.0000000E+00;  0.0000000E+00;  4.0000000E+04;  0.0000000E+00;  4.0000000E+04;  1.8662782E-05;  0.0000000E+00;  5.1325555E-05;  1.2714414E+02;
  5.0000001E-02;  9.9999998E-03; -4.1999999E-01;1973;  0.0000000E+00;  0.0000000E+00;  0.0000000E+00;  1.0001482E+03;  1.0000000E-01;  1.2276196E+02;0;  0.0000000E+00;  0.0000000E+00;  0.0000000E+00;0;  2.3444390E-04;  4.0000000E+04;  0.0000000E+00;  0.0000000E+00;  4.0000000E+04;  0.0000000E+00;  4.0000000E+04;  6.7069479E-05;  0.0000000E+00;  1.6737441E-04;  3.0726328E+02;
  5.0000001E-02;  9.9999998E-03; -4.1000000E-01;1974;  0.0000000E+00;  0.0000000E+00;  0.0000000E+00;  1.0002643E+03;  1.0000000E-01;  2.1895677E+02;0;  0.0000000E+00;  0.0000000E+00;  0.0000000E+00;0;  5.6429661E-04;  4.0000000E+04;  0.0000000E+00;  0.0000000E+00;  4.0000000E+04;  0.0000000E+00;  4.0000000E+04;  1.7893121E-04;  0.0000000E+00;  3.8536539E-04;  5.9662872E+02;
  5.0000001E-02;  9.9999998E-03; -4.0000001E-01;1975;  0.0000000E+00;  0.0000000E+00;  0.0000000E+00;  1.0004586E+03;  1.0000000E-01;  3.7993988E+02;0;  0.0000000E+00;  0.0000000E+00;  0.0000000E+00;0;  1.1096955E-03;  4.0000000E+04;  0.0000000E+00;  0.0000000E+00;  4.0000000E+04;  0.0000000E+00;  4.0000000E+04;  3.9544253E-04;  0.0000000E+00;  7.1425299E-04;  9.8662427E+02;
  5.0000001E-02;  9.9999998E-03; -3.8999999E-01;1976;  0.0000000E+00;  0.0000000E+00;  0.0000000E+00;  1.0007198E+03;  1.0000000E-01;  5.9642755E+02;0;  0.0000000E+00;  0.0000000E+00;  0.0000000E+00;0;  1.9120865E-03;  4.0000000E+04;  0.0000000E+00;  0.0000000E+00;  4.0000000E+04;  0.0000000E+00;  4.0000000E+04;  7.6679705E-04;  0.0000000E+00;  1.1452895E-03;  1.4496956E+03;
  5.0000001E-02;  9.9999998E-03; -3.8000000E-01;1977;  0.0000000E+00;  0.0000000E+00;  0.0000000E+00;  1.0010684E+03;  1.0000000E-01;  8.8511078E+02;0;  0.0000000E+00;  0.0000000E+00;  0.0000000E+00;0;  3.0097105E-03;  4.0000000E+04;  0.0000000E+00;  0.0000000E+00;  4.0000000E+04;  0.0000000E+00;  4.0000000E+04;  1.3490234E-03;  0.0000000E+00;  1.6606872E-03;  1.9505294E+03;
  5.0000001E-02;  9.9999998E-03; -3.7000000E-01;1978;  0.0000000E+00;  0.0000000E+00;  0.0000000E+00;  1.0015242E+03;  1.0000000E-01;  1.2627791E+03;0;  0.0000000E+00;  0.0000000E+00;  0.0000000E+00;0;  4.4392431E-03;  4.0000000E+04;  0.0000000E+00;  0.0000000E+00;  4.0000000E+04;  0.0000000E+00;  4.0000000E+04;  2.1993585E-03;  0.0000000E+00;  2.2398848E-03;  2.4520044E+03;
  5.0000001E-02;  9.9999998E-03; -3.6000001E-01;1979;  0.0000000E+00;  0.0000000E+00;  0.0000000E+00;  1.0021074E+03;  1.0000000E-01;  1.7459259E+03;0;  0.0000000E+00;  0.0000000E+00;  0.0000000E+00;0;  6.2302821E-03;  4.0000000E+04;  0.0000000E+00;  0.0000000E+00;  4.0000000E+04;  0.0000000E+00;  4.0000000E+04;  3.3694871E-03;  0.0000000E+00;  2.8607950E-03;  2.9156143E+03;
  5.0000001E-02;  9.9999998E-03; -3.4999999E-01;1980;  0.0000000E+00;  0.0000000E+00;  0.0000000E+00;  1.0028296E+03;  1.0000000E-01;  2.3442300E+03;0;  0.0000000E+00;  0.0000000E+00;  0.0000000E+00;0;  8.3945561E-03;  4.0000000E+04;  0.0000000E+00;  0.0000000E+00;  4.0000000E+04;  0.0000000E+00;  4.0000000E+04;  4.8969374E-03;  0.0000000E+00;  3.4976189E-03;  3.2995247E+03;
  5.0000001E-02;  9.9999998E-03; -3.4000000E-01;1981;  0.0000000E+00;  0.0000000E+00;  0.0000000E+00;  1.0036973E+03;  1.0000000E-01;  3.0631233E+03;0;  0.0000000E+00;  0.0000000E+00;  0.0000000E+00;0;  1.0912507E-02;  4.0000000E+04;  0.0000000E+00;  0.0000000E+00;  4.0000000E+04;  0.0000000E+00;  4.0000000E+04;  6.7955176E-03;  0.0000000E+00;  4.1169892E-03;  3.5562043E+03;
  5.0000001E-02;  9.9999998E-03; -3.3000001E-01;1982;  0.0000000E+00;  0.0000000E+00;  0.0000000E+00;  1.0047079E+03;  1.0000000E-01;  3.9004329E+03;0;  0.0000000E+00;  0.0000000E+00;  0.0000000E+00;0;  1.3720583E-02;  4.0000000E+04;  0.0000000E+00;  0.0000000E+00;  4.0000000E+04;  0.0000000E+00;  4.0000000E+04;  9.0462696E-03;  0.0000000E+00;  4.6743136E-03;  3.6318071E+03;
  5.0000001E-02;  9.9999998E-03; -3.1999999E-01;1983;  0.0000000E+00;  0.0000000E+00;  0.0000000E+00;  1.0058374E+03;  1.0000000E-01;  4.8362090E+03;0;  0.0000000E+00;  0.0000000E+00;  0.0000000E+00;0;  1.6705159E-02;  4.0000000E+04;  0.0000000E+00;  0.0000000E+00;  4.0000000E+04;  0.0000000E+00;  4.0000000E+04;  1.1592512E-02;  0.0000000E+00;  5.1126461E-03;  3.4700283E+03;
  5.0000001E-02;  9.9999998E-03; -3.1000000E-01;1984;  0.0000000E+00;  0.0000000E+00;  0.0000000E+00;  1.0070440E+03;  1.0000000E-01;  5.8357856E+03;0;  0.0000000E+00;  0.0000000E+00;  0.0000000E+00;0;  1.9708337E-02;  4.0000000E+04;  0.0000000E+00;  0.0000000E+00;  4.0000000E+04;  0.0000000E+00;  4.0000000E+04;  1.4341904E-02;  0.0000000E+00;  5.3664334E-03;  3.0256082E+03;
  5.9999999E-02;  9.9999998E-03; -4.4000000E-01;2001;  0.0000000E+00;  0.0000000E+00;  0.0000000E+00;  1.0000000E+03;  1.0000000E-01;  0.0000000E+00;0;  0.0000000E+00;  0.0000000E+00;  0.0000000E+00;0;  1.4487759E-05;  4.0000000E+04;  0.0000000E+00;  0.0000000E+00;  4.0000000E+04;  0.0000000E+00;  4.0000000E+04;  9.0011090E-06;  0.0000000E+00;  5.4866500E-06;  3.3718266E+01;
  5.9999999E-02;  9.9999998E-03; -4.3000001E-01;2002;  0.0000000E+00;  0.0000000E+00;  0.0000000E+00;  1.0000660E+03;  1.0000000E-01;  5.4615738E+01;0;  0.0000000E+00;  0.0000000E+00;  0.0000000E+00;0;  9.3330709E-05;  4.0000000E+04;  0.0000000E+00;  0.0000000E+00;  4.0000000E+04;  0.0000000E+00;  4.0000000E+04;  3.8610833E-05;  0.0000000E+00;  5.4719876E-05;  1.2672298E+02;
  5.9999999E-02;  9.9999998E-03; -4.1999999E-01;2003;  0.0000000E+00;  0.0000000E+00;  0.0000000E+00;  1.0001510E+03;  1.0000000E-01;  1.2513226E+02;0;  0.0000000E+00;  0.0000000E+00;  0.0000000E+00;0;  3.0350755E-04;  4.0000000E+04;  0.0000000E+00;  0.0000000E+00;  4.0000000E+04;  0.0000000E+00;  4.0000000E+04;  1.1494750E-04;  0.0000000E+00;  1.8856006E-04;  3.2527988E+02;
  5.9999999E-02;  9.9999998E-03; -4.1000000E-01;2004;  0.0000000E+00;  0.0000000E+00;  0.0000000E+00;  1.0002708E+03;  1.0000000E-01;  2.2428995E+02;0;  0.0000000E+00;  0.0000000E+00;  0.0000000E+00;0;  7.1172649E-04;  4.0000000E+04;  0.0000000E+00;  0.0000000E+00;  4.0000000E+04;  0.0000000E+00;  4.0000000E+04;  2.7395913E-04;  0.0000000E+00;  4.3776739E-04;  6.4869501E+02;
  5.9999999E-02;  9.9999998E-03; -4.0000001E-01;2005;  0.0000000E+00;  0.0000000E+00;  0.0000000E+00;  1.0004775E+03;  1.0000000E-01;  3.9564313E+02;0;  0.0000000E+00;  0.0000000E+00;  0.0000000E+00;0;  1.3706539E-03;  4.0000000E+04;  0.0000000E+00;  0.0000000E+00;  4.0000000E+04;  0.0000000E+00;  4.0000000E+04;  5.6169915E-04;  0.0000000E+00;  8.0895470E-04;  1.0852445E+03;
  5.9999999E-02;  9.9999998E-03; -3.8999999E-01;2006;  0.0000000E+00;  0.0000000E+00;  0.0000000E+00;  1.0007469E+03;  1.0000000E-01;  6.1874792E+02;0;  0.0000000E+00;  0.0000000E+00;  0.0000000E+00;0;  2.3210938E-03;  4.0000000E+04;  0.0000000E+00;  0.0000000E+00;  4.0000000E+04;  0.0000000E+00;  4.0000000E+04;  1.0321540E-03;  0.0000000E+00;  1.2889400E-03;  1.6018154E+03;
  5.9999999E-02;  9.9999998E-03; -3.8000000E-01;2007;  0.0000000E+00;  0.0000000E+00;  0.0000000E+00;  1.0011132E+03;  1.0000000E-01;  9.2224554E+02;0;  0.0000000E+00;  0.0000000E+00;  0.0000000E+00;0;  3.5996875E-03;  4.0000000E+04;  0.0000000E+00;  0.0000000E+00;  4.0000000E+04;  0.0000000E+00;  4.0000000E+04;  1.7444480E-03;  0.0000000E+00;  1.8552396E-03;  2.1568372E+03;
  5.9999999E-02;  9.9999998E-03; -3.7000000E-01;2008;  0.0000000E+00;  0.0000000E+00;  0.0000000E+00;  1.0015787E+03;  1.0000000E-01;  1.3079136E+03;0;  0.0000000E+00;  0.0000000E+00;  0.0000000E+00;0;  5.2415654E-03;  4.0000000E+04;  0.0000000E+00;  0.0000000E+00;  4.0000000E+04;  0.0000000E+00;  4.0000000E+04;  2.7584950E-03;  0.0000000E+00;  2.4830706E-03;  2.7071013E+03;
  5.9999999E-02;  9.9999998E-03; -3.6000001E-01;2009;  0.0000000E+00;  0.0000000E+00;  0.0000000E+00;  1.0021813E+03;  1.0000000E-01;  1.8071588E+03;0;  0.0000000E+00;  0.0000000E+00;  0.0000000E+00;0;  7.2751045E-03;  4.0000000E+04;  0.0000000E+00;  0.0000000E+00;  4.0000000E+04;  0.0000000E+00;  4.0000000E+04;  4.1284766E-03;  0.0000000E+00;  3.1466282E-03;  3.2084053E+03;
  5.9999999E-02;  9.9999998E-03; -3.4999999E-01;2010;  0.0000000E+00;  0.0000000E+00;  0.0000000E+00;  1.0029256E+03;  1.0000000E-01;  2.4238328E+03;0;  0.0000000E+00;  0.0000000E+00;  0.0000000E+00;0;  9.7100399E-03;  4.0000000E+04;  0.0000000E+00;  0.0000000E+00;  4.0000000E+04;  0.0000000E+00;  4.0000000E+04;  5.8936425E-03;  0.0000000E+00;  3.8163976E-03;  3.6133716E+03;
  5.9999999E-02;  9.9999998E-03; -3.4000000E-01;2011;  0.0000000E+00;  0.0000000E+00;  0.0000000E+00;  1.0038284E+03;  1.0000000E-01;  3.1717622E+03;0;  0.0000000E+00;  0.0000000E+00;  0.0000000E+00;0;  1.2522702E-02;  4.0000000E+04;  0.0000000E+00;  0.0000000E+00;  4.0000000E+04;  0.0000000E+00;  4.0000000E+04;  8.0676610E-03;  0.0000000E+00;  4.4550411E-03;  3.8693086E+03;
  5.9999999E-02;  9.9999998E-03; -3.3000001E-01;2012;  0.0000000E+00;  0.0000000E+00;  0.0000000E+00;  1.0048688E+03;  1.0000000E-01;  4.0336638E+03;0;  0.0000000E+00;  0.0000000E+00;  0.0000000E+00;0;  1.5642978E-02;  4.0000000E+04;  0.0000000E+00;  0.0000000E+00;  4.0000000E+04;  0.0000000E+00;  4.0000000E+04;  1.0628438E-02;  0.0000000E+00;  5.0145402E-03;  3.9186733E+03;
  5.9999999E-02;  9.9999998E-03; -3.1999999E-01;2013;  0.0000000E+00;  0.0000000E+00;  0.0000000E+00;  1.0060275E+03;  1.0000000E-01;  4.9937354E+03;0;  0.0000000E+00;  0.0000000E+00;  0.0000000E+00;0;  1.8948629E-02;  4.0000000E+04;  0.0000000E+00;  0.0000000E+00;  4.0000000E+04;  0.0000000E+00;  4.0000000E+04;  1.3511595E-02;  0.0000000E+00;  5.4370346E-03;  3.7045857E+03;
  5.9999999E-02;  9.9999998E-03; -3.1000000E-01;2014;  0.0000000E+00;  0.0000000E+00;  0.0000000E+00;  1.0072592E+03;  1.0000000E-01;  6.0140522E+03;0;  0.0000000E+00;  0.0000000E+00;  0.0000000E+00;0;  2.2273239E-02;  4.0000000E+04;  0.0000000E+00;  0.0000000E+00;  4.0000000E+04;  0.0000000E+00;  4.0000000E+04;  1.6611565E-02;  0.0000000E+00;  5.6616729E-03;  3.1870112E+03;
  7.0000000E-02;  9.9999998E-03; -4.4000000E-01;2031;  0.0000000E+00;  0.0000000E+00;  0.0000000E+00;  1.0000000E+03;  1.0000000E-01;  0.0000000E+00;0;  0.0000000E+00;  0.0000000E+00;  0.0000000E+00;0;  2.8139099E-05;  4.0000000E+04;  0.0000000E+00;  0.0000000E+00;  4.0000000E+04;  0.0000000E+00;  4.0000000E+04;  1.7353257E-05;  0.0000000E+00;  1.0785841E-05;  3.5119598E+01;
  7.0000000E-02;  9.9999998E-03; -4.3000001E-01;2032;  0.0000000E+00;  0.0000000E+00;  0.0000000E+00;  1.0000672E+03;  1.0000000E-01;  5.5702129E+01;0;  0.0000000E+00;  0.0000000E+00;  0.0000000E+00;0;  1.4068204E-04;  4.0000000E+04;  0.0000000E+00;  0.0000000E+00;  4.0000000E+04;  0.0000000E+00;  4.0000000E+04;  6.4411746E-05;  0.0000000E+00;  7.6270284E-05;  1.4261887E+02;
  7.0000000E-02;  9.9999998E-03; -4.1999999E-01;2033;  0.0000000E+00;  0.0000000E+00;  0.0000000E+00;  1.0001518E+03;  1.0000000E-01;  1.2572484E+02;0;  0.0000000E+00;  0.0000000E+00;  0.0000000E+00;0;  4.1566195E-04;  4.0000000E+04;  0.0000000E+00;  0.0000000E+00;  4.0000000E+04;  0.0000000E+00;  4.0000000E+04;  1.7445363E-04;  0.0000000E+00;  2.4120833E-04;  3.7326663E+02;
  7.0000000E-02;  9.9999998E-03; -4.1000000E-01;2034;  0.0000000E+00;  0.0000000E+00;  0.0000000E+00;  1.0002794E+03;  1.0000000E-01;  2.3140086E+02;0;  0.0000000E+00;  0.0000000E+00;  0.0000000E+00;0;  9.2464685E-04;  4.0000000E+04;  0.0000000E+00;  0.0000000E+00;  4.0000000E+04;  0.0000000E+00;  4.0000000E+04;  3.8869691E-04;  0.0000000E+00;  5.3594995E-04;  7.4633319E+02;
  7.0000000E-02;  9.9999998E-03; -4.0000001E-01;2035;  0.0000000E+00;  0.0000000E+00;  0.0000000E+00;  1.0004819E+03;  1.0000000E-01;  3.9919858E+02;0;  0.0000000E+00;  0.0000000E+00;  0.0000000E+00;0;  1.7202898E-03;  4.0000000E+04;  0.0000000E+00;  0.0000000E+00;  4.0000000E+04;  0.0000000E+00;  4.0000000E+04;  7.5719098E-04;  0.0000000E+00;  9.6309884E-04;  1.2456414E+03;
  7.0000000E-02;  9.9999998E-03; -3.8999999E-01;2036;  0.0000000E+00;  0.0000000E+00;  0.0000000E+00;  1.0007610E+03;  1.0000000E-01;  6.3050067E+02;0;  0.0000000E+00;  0.0000000E+00;  0.0000000E+00;0;  2.8414000E-03;  4.0000000E+04;  0.0000000E+00;  0.0000000E+00;  4.0000000E+04;  0.0000000E+00;  4.0000000E+04;  1.3372959E-03;  0.0000000E+00;  1.5041042E-03;  1.8315573E+03;
  7.0000000E-02;  9.9999998E-03; -3.8000000E-01;2037;  0.0000000E+00;  0.0000000E+00;  0.0000000E+00;  1.0011313E+03;  1.0000000E-01;  9.3725745E+02;0;  0.0000000E+00;  0.0000000E+00;  0.0000000E+00;0;  4.3238141E-03;  4.0000000E+04;  0.0000000E+00;  0.0000000E+00;  4.0000000E+04;  0.0000000E+00;  4.0000000E+04;  2.1919524E-03;  0.0000000E+00;  2.1318614E-03;  2.4558154E+03;
  7.0000000E-02;  9.9999998E-03; -3.7000000E-01;2038;  0.0000000E+00;  0.0000000E+00;  0.0000000E+00;  1.0016136E+03;  1.0000000E-01;  1.3368511E+03;0;  0.0000000E+00;  0.0000000E+00;  0.0000000E+00;0;  6.2041916E-03;  4.0000000E+04;  0.0000000E+00;  0.0000000E+00;  4.0000000E+04;  0.0000000E+00;  4.0000000E+04;  3.3859699E-03;  0.0000000E+00;  2.8182219E-03;  3.0690457E+03;
  7.0000000E-02;  9.9999998E-03; -3.6000001E-01;2039;  0.0000000E+00;  0.0000000E+00;  0.0000000E+00;  1.0022358E+03;  1.0000000E-01;  1.8522933E+03;0;  0.0000000E+00;  0.0000000E+00;  0.0000000E+00;0;  8.5139265E-03;  4.0000000E+04;  0.0000000E+00;  0.0000000E+00;  4.0000000E+04;  0.0000000E+00;  4.0000000E+04;  4.9793492E-03;  0.0000000E+00;  3.5345776E-03;  3.6211858E+03;
  7.0000000E-02;  9.9999998E-03; -3.4999999E-01;2040;  0.0000000E+00;  0.0000000E+00;  0.0000000E+00;  1.0030020E+03;  1.0000000E-01;  2.4871396E+03;0;  0.0000000E+00;  0.0000000E+00;  0.0000000E+00;0;  1.1265229E-02;  4.0000000E+04;  0.0000000E+00;  0.0000000E+00;  4.0000000E+04;  0.0000000E+00;  4.0000000E+04;  7.0171589E-03;  0.0000000E+00;  4.2480701E-03;  4.0584463E+03;
  7.0000000E-02;  9.9999998E-03; -3.4000000E-01;2041;  0.0000000E+00;  0.0000000E+00;  0.0000000E+00;  1.0039231E+03;  1.0000000E-01;  3.2501797E+03;0;  0.0000000E+00;  0.0000000E+00;  0.0000000E+00;0;  1.4433982E-02;  4.0000000E+04;  0.0000000E+00;  0.0000000E+00;  4.0000000E+04;  0.0000000E+00;  4.0000000E+04;  9.5171444E-03;  0.0000000E+00;  4.9168379E-03;  4.3206343E+03;
  7.0000000E-02;  9.9999998E-03; -3.3000001E-01;2042;  0.0000000E+00;  0.0000000E+00;  0.0000000E+00;  1.0049896E+03;  1.0000000E-01;  4.1338091E+03;0;  0.0000000E+00;  0.0000000E+00;  0.0000000E+00;0;  1.7945101E-02;  4.0000000E+04;  0.0000000E+00;  0.0000000E+00;  4.0000000E+04;  0.0000000E+00;  4.0000000E+04;  1.2457672E-02;  0.0000000E+00;  5.4874294E-03;  4.3421519E+03;
  7.0000000E-02;  9.9999998E-03; -3.1999999E-01;2043;  0.0000000E+00;  0.0000000E+00;  0.0000000E+00;  1.0061694E+03;  1.0000000E-01;  5.1111641E+03;0;  0.0000000E+00;  0.0000000E+00;  0.0000000E+00;0;  2.1666704E-02;  4.0000000E+04;  0.0000000E+00;  0.0000000E+00;  4.0000000E+04;  0.0000000E+00;  4.0000000E+04;  1.5769230E-02;  0.0000000E+00;  5.8974735E-03;  4.0596973E+03;
  7.0000000E-02;  9.9999998E-03; -3.1000000E-01;2044;  0.0000000E+00;  0.0000000E+00;  0.0000000E+00;  1.0074120E+03;  1.0000000E-01;  6.1406660E+03;0;  0.0000000E+00;  0.0000000E+00;  0.0000000E+00;0;  2.5419287E-02;  4.0000000E+04;  0.0000000E+00;  0.0000000E+00;  4.0000000E+04;  0.0000000E+00;  4.0000000E+04;  1.9333629E-02;  0.0000000E+00;  6.0856584E-03;  3.4312312E+03;
  7.9999998E-02;  9.9999998E-03; -4.4000000E-01;2061;  0.0000000E+00;  0.0000000E+00;  0.0000000E+00;  1.0000000E+03;  1.0000000E-01;  0.0000000E+00;0;  0.0000000E+00;  0.0000000E+00;  0.0000000E+00;0;  5.3114807E-05;  4.0000000E+04;  0.0000000E+00;  0.0000000E+00;  4.0000000E+04;  0.0000000E+00;  4.0000000E+04;  2.7043243E-05;  0.0000000E+00;  2.6071564E-05;  4.6126564E+01;
  7.9999998E-02;  9.9999998E-03; -4.3000001E-01;2062;  0.0000000E+00;  0.0000000E+00;  0.0000000E+00;  1.0000687E+03;  1.0000000E-01;  5.6887280E+01;0;  0.0000000E+00;  0.0000000E+00;  0.0000000E+00;0;  2.1245511E-04;  4.0000000E+04;  0.0000000E+00;  0.0000000E+00;  4.0000000E+04;  0.0000000E+00;  4.0000000E+04;  9.3254588E-05;  0.0000000E+00;  1.1920053E-04;  1.7972099E+02;
  7.9999998E-02;  9.9999998E-03; -4.1999999E-01;2063;  0.0000000E+00;  0.0000000E+00;  0.0000000E+00;  1.0001471E+03;  1.0000000E-01;  1.2187309E+02;0;  0.0000000E+00;  0.0000000E+00;  0.0000000E+00;0;  5.6874705E-04;  4.0000000E+04;  0.0000000E+00;  0.0000000E+00;  4.0000000E+04;  0.0000000E+00;  4.0000000E+04;  2.3951274E-04;  0.0000000E+00;  3.2923432E-04;  4.5706448E+02;
  7.9999998E-02;  9.9999998E-03; -4.1000000E-01;2064;  0.0000000E+00;  0.0000000E+00;  0.0000000E+00;  1.0002816E+03;  1.0000000E-01;  2.3327736E+02;0;  0.0000000E+00;  0.0000000E+00;  0.0000000E+00;0;  1.1946813E-03;  4.0000000E+04;  0.0000000E+00;  0.0000000E+00;  4.0000000E+04;  0.0000000E+00;  4.0000000E+04;  5.1095843E-04;  0.0000000E+00;  6.8372290E-04;  8.9564526E+02;
  7.9999998E-02;  9.9999998E-03; -4.0000001E-01;2065;  0.0000000E+00;  0.0000000E+00;  0.0000000E+00;  1.0004875E+03;  1.0000000E-01;  4.0393918E+02;0;  0.0000000E+00;  0.0000000E+00;  0.0000000E+00;0;  2.1396687E-03;  4.0000000E+04;  0.0000000E+00;  0.0000000E+00;  4.0000000E+04;  0.0000000E+00;  4.0000000E+04;  9.6048665E-04;  0.0000000E+00;  1.1791821E-03;  1.4734290E+03;
  7.9999998E-02;  9.9999998E-03; -3.8999999E-01;2066;  0.0000000E+00;  0.0000000E+00;  0.0000000E+00;  1.0007662E+03;  1.0000000E-01;  6.3474750E+02;0;  0.0000000E+00;  0.0000000E+00;  0.0000000E+00;0;  3.4404579E-03;  4.0000000E+04;  0.0000000E+00;  0.0000000E+00;  4.0000000E+04;  0.0000000E+00;  4.0000000E+04;  1.6490406E-03;  0.0000000E+00;  1.7914172E-03;  2.1435461E+03;
  7.9999998E-02;  9.9999998E-03; -3.8000000E-01;2067;  0.0000000E+00;  0.0000000E+00;  0.0000000E+00;  1.0011444E+03;  1.0000000E-01;  9.4812134E+02;0;  0.0000000E+00;  0.0000000E+00;  0.0000000E+00;0;  5.1349290E-03;  4.0000000E+04;  0.0000000E+00;  0.0000000E+00;  4.0000000E+04;  0.0000000E+00;  4.0000000E+04;  2.6449342E-03;  0.0000000E+00;  2.4899945E-03;  2.8509199E+03;
  7.9999998E-02;  9.9999998E-03; -3.7000000E-01;2068;  0.0000000E+00;  0.0000000E+00;  0.0000000E+00;  1.0016458E+03;  1.0000000E-01;  1.3635170E+03;0;  0.0000000E+00;  0.0000000E+00;  0.0000000E+00;0;  7.2654206E-03;  4.0000000E+04;  0.0000000E+00;  0.0000000E+00;  4.0000000E+04;  0.0000000E+00;  4.0000000E+04;  4.0203212E-03;  0.0000000E+00;  3.2450994E-03;  3.5400249E+03;
  7.9999998E-02;  9.9999998E-03; -3.6000001E-01;2069;  0.0000000E+00;  0.0000000E+00;  0.0000000E+00;  1.0022781E+03;  1.0000000E-01;  1.8873540E+03;0;  0.0000000E+00;  0.0000000E+00;  0.0000000E+00;0;  9.8701026E-03;  4.0000000E+04;  0.0000000E+00;  0.0000000E+00;  4.0000000E+04;  0.0000000E+00;  4.0000000E+04;  5.8436114E-03;  0.0000000E+00;  4.0264912E-03;  4.1546587E+03;
  7.9999998E-02;  9.9999998E-03; -3.4999999E-01;2070;  0.0000000E+00;  0.0000000E+00;  0.0000000E+00;  1.0030640E+03;  1.0000000E-01;  2.5383975E+03;0;  0.0000000E+00;  0.0000000E+00;  0.0000000E+00;0;  1.2966290E-02;  4.0000000E+04;  0.0000000E+00;  0.0000000E+00;  4.0000000E+04;  0.0000000E+00;  4.0000000E+04;  8.1679467E-03;  0.0000000E+00;  4.7983429E-03;  4.6334570E+03;
  7.9999998E-02;  9.9999998E-03; -3.4000000E-01;2071;  0.0000000E+00;  0.0000000E+00;  0.0000000E+00;  1.0040089E+03;  1.0000000E-01;  3.3212888E+03;0;  0.0000000E+00;  0.0000000E+00;  0.0000000E+00;0;  1.6530558E-02;  4.0000000E+04;  0.0000000E+00;  0.0000000E+00;  4.0000000E+04;  0.0000000E+00;  4.0000000E+04;  1.1016983E-02;  0.0000000E+00;  5.5135754E-03;  4.9058809E+03;
  7.9999998E-02;  9.9999998E-03; -3.3000001E-01;2072;  0.0000000E+00;  0.0000000E+00;  0.0000000E+00;  1.0050941E+03;  1.0000000E-01;  4.2204238E+03;0;  0.0000000E+00;  0.0000000E+00;  0.0000000E+00;0;  2.0482041E-02;  4.0000000E+04;  0.0000000E+00;  0.0000000E+00;  4.0000000E+04;  0.0000000E+00;  4.0000000E+04;  1.4371038E-02;  0.0000000E+00;  6.1110030E-03;  4.8939692E+03;
  7.9999998E-02;  9.9999998E-03; -3.1999999E-01;2073;  0.0000000E+00;  0.0000000E+00;  0.0000000E+00;  1.0062892E+03;  1.0000000E-01;  5.2105195E+03;0;  0.0000000E+00;  0.0000000E+00;  0.0000000E+00;0;  2.4675274E-02;  4.0000000E+04;  0.0000000E+00;  0.0000000E+00;  4.0000000E+04;  0.0000000E+00;  4.0000000E+04;  1.8156422E-02;  0.0000000E+00;  6.5188520E-03;  4.5235894E+03;
  7.9999998E-02;  9.9999998E-03; -3.1000000E-01;2074;  0.0000000E+00;  0.0000000E+00;  0.0000000E+00;  1.0075363E+03;  1.0000000E-01;  6.2436753E+03;0;  0.0000000E+00;  0.0000000E+00;  0.0000000E+00;0;  2.8910236E-02;  4.0000000E+04;  0.0000000E+00;  0.0000000E+00;  4.0000000E+04;  0.0000000E+00;  4.0000000E+04;  2.2242280E-02;  0.0000000E+00;  6.6679567E-03;  3.7476865E+03;
  9.0000004E-02;  9.9999998E-03; -4.4000000E-01;2091;  0.0000000E+00;  0.0000000E+00;  0.0000000E+00;  1.0000000E+03;  1.0000000E-01;  0.0000000E+00;0;  0.0000000E+00;  0.0000000E+00;  0.0000000E+00;0;  8.8337212E-05;  4.0000000E+04;  0.0000000E+00;  0.0000000E+00;  4.0000000E+04;  0.0000000E+00;  4.0000000E+04;  3.6873818E-05;  0.0000000E+00;  5.1463398E-05;  6.8009209E+01;
  9.0000004E-02;  9.9999998E-03; -4.3000001E-01;2092;  0.0000000E+00;  0.0000000E+00;  0.0000000E+00;  1.0000709E+03;  1.0000000E-01;  5.8763771E+01;0;  0.0000000E+00;  0.0000000E+00;  0.0000000E+00;0;  3.0482313E-04;  4.0000000E+04;  0.0000000E+00;  0.0000000E+00;  4.0000000E+04;  0.0000000E+00;  4.0000000E+04;  1.2188383E-04;  0.0000000E+00;  1.8293930E-04;  2.3889720E+02;
  9.0000004E-02;  9.9999998E-03; -4.1999999E-01;2093;  0.0000000E+00;  0.0000000E+00;  0.0000000E+00;  1.0001422E+03;  1.0000000E-01;  1.1782383E+02;0;  0.0000000E+00;  0.0000000E+00;  0.0000000E+00;0;  7.5265265E-04;  4.0000000E+04;  0.0000000E+00;  0.0000000E+00;  4.0000000E+04;  0.0000000E+00;  4.0000000E+04;  3.0214188E-04;  0.0000000E+00;  4.5051076E-04;  5.7621790E+02;
  9.0000004E-02;  9.9999998E-03; -4.1000000E-01;2094;  0.0000000E+00;  0.0000000E+00;  0.0000000E+00;  1.0002789E+03;  1.0000000E-01;  2.3100581E+02;0;  0.0000000E+00;  0.0000000E+00;  0.0000000E+00;0;  1.5007183E-03;  4.0000000E+04;  0.0000000E+00;  0.0000000E+00;  4.0000000E+04;  0.0000000E+00;  4.0000000E+04;  6.2503078E-04;  0.0000000E+00;  8.7568746E-04;  1.0938597E+03;
  9.0000004E-02;  9.9999998E-03; -4.0000001E-01;2095;  0.0000000E+00;  0.0000000E+00;  0.0000000E+00;  1.0004874E+03;  1.0000000E-01;  4.0374167E+02;0;  0.0000000E+00;  0.0000000E+00;  0.0000000E+00;0;  2.5938840E-03;  4.0000000E+04;  0.0000000E+00;  0.0000000E+00;  4.0000000E+04;  0.0000000E+00;  4.0000000E+04;  1.1462254E-03;  0.0000000E+00;  1.4476586E-03;  1.7626497E+03;
  9.0000004E-02;  9.9999998E-03; -3.8999999E-01;2096;  0.0000000E+00;  0.0000000E+00;  0.0000000E+00;  1.0007690E+03;  1.0000000E-01;  6.3711780E+02;0;  0.0000000E+00;  0.0000000E+00;  0.0000000E+00;0;  4.0695872E-03;  4.0000000E+04;  0.0000000E+00;  0.0000000E+00;  4.0000000E+04;  0.0000000E+00;  4.0000000E+04;  1.9316761E-03;  0.0000000E+00;  2.1379110E-03;  2.5281035E+03;
  9.0000004E-02;  9.9999998E-03; -3.8000000E-01;2097;  0.0000000E+00;  0.0000000E+00;  0.0000000E+00;  1.0011599E+03;  1.0000000E-01;  9.6096045E+02;0;  0.0000000E+00;  0.0000000E+00;  0.0000000E+00;0;  5.9722066E-03;  4.0000000E+04;  0.0000000E+00;  0.0000000E+00;  4.0000000E+04;  0.0000000E+00;  4.0000000E+04;  3.0574386E-03;  0.0000000E+00;  2.9147677E-03;  3.3286003E+03;
  9.0000004E-02;  9.9999998E-03; -3.7000000E-01;2098;  0.0000000E+00;  0.0000000E+00;  0.0000000E+00;  1.0016699E+03;  1.0000000E-01;  1.3834670E+03;0;  0.0000000E+00;  0.0000000E+00;  0.0000000E+00;0;  8.3529176E-03;  4.0000000E+04;  0.0000000E+00;  0.0000000E+00;  4.0000000E+04;  0.0000000E+00;  4.0000000E+04;  4.6047084E-03;  0.0000000E+00;  3.7482092E-03;  4.1028921E+03;
  9.0000004E-02;  9.9999998E-03; -3.6000001E-01;2099;  0.0000000E+00;  0.0000000E+00;  0.0000000E+00;  1.0023241E+03;  1.0000000E-01;  1.9254764E+03;0;  0.0000000E+00;  0.0000000E+00;  0.0000000E+00;0;  1.1257518E-02;  4.0000000E+04;  0.0000000E+00;  0.0000000E+00;  4.0000000E+04;  0.0000000E+00;  4.0000000E+04;  6.6504441E-03;  0.0000000E+00;  4.6070740E-03;  4.7887642E+03;
  9.0000004E-02;  9.9999998E-03; -3.4999999E-01;2100;  0.0000000E+00;  0.0000000E+00;  0.0000000E+00;  1.0031350E+03;  1.0000000E-01;  2.5972598E+03;0;  0.0000000E+00;  0.0000000E+00;  0.0000000E+00;0;  1.4707267E-02;  4.0000000E+04;  0.0000000E+00;  0.0000000E+00;  4.0000000E+04;  0.0000000E+00;  4.0000000E+04;  9.2544919E-03;  0.0000000E+00;  5.4527759E-03;  5.3178027E+03;
  9.0000004E-02;  9.9999998E-03; -3.4000000E-01;2101;  0.0000000E+00;  0.0000000E+00;  0.0000000E+00;  1.0041046E+03;  1.0000000E-01;  3.4005952E+03;0;  0.0000000E+00;  0.0000000E+00;  0.0000000E+00;0;  1.8677203E-02;  4.0000000E+04;  0.0000000E+00;  0.0000000E+00;  4.0000000E+04;  0.0000000E+00;  4.0000000E+04;  1.2444620E-02;  0.0000000E+00;  6.2325830E-03;  5.6119121E+03;
  9.0000004E-02;  9.9999998E-03; -3.3000001E-01;2102;  0.0000000E+00;  0.0000000E+00;  0.0000000E+00;  1.0052133E+03;  1.0000000E-01;  4.3190879E+03;0;  0.0000000E+00;  0.0000000E+00;  0.0000000E+00;0;  2.3077497E-02;  4.0000000E+04;  0.0000000E+00;  0.0000000E+00;  4.0000000E+04;  0.0000000E+00;  4.0000000E+04;  1.6201822E-02;  0.0000000E+00;  6.8756752E-03;  5.5871240E+03;
  9.0000004E-02;  9.9999998E-03; -3.1999999E-01;2103;  0.0000000E+00;  0.0000000E+00;  0.0000000E+00;  1.0064247E+03;  1.0000000E-01;  5.3227139E+03;0;  0.0000000E+00;  0.0000000E+00;  0.0000000E+00;0;  2.7743939E-02;  4.0000000E+04;  0.0000000E+00;  0.0000000E+00;  4.0000000E+04;  0.0000000E+00;  4.0000000E+04;  2.0447860E-02;  0.0000000E+00;  7.2960788E-03;  5.1705093E+03;
  9.0000004E-02;  9.9999998E-03; -3.1000000E-01;2104;  0.0000000E+00;  0.0000000E+00;  0.0000000E+00;  1.0076741E+03;  1.0000000E-01;  6.3578447E+03;0;  0.0000000E+00;  0.0000000E+00;  0.0000000E+00;0;  3.2447256E-02;  4.0000000E+04;  0.0000000E+00;  0.0000000E+00;  4.0000000E+04;  0.0000000E+00;  4.0000000E+04;  2.5039429E-02;  0.0000000E+00;  7.4078259E-03;  4.3347925E+03;
  1.0000000E-01;  9.9999998E-03; -4.4000000E-01;2121;  0.0000000E+00;  0.0000000E+00;  0.0000000E+00;  1.0000000E+03;  1.0000000E-01;  0.0000000E+00;0;  0.0000000E+00;  0.0000000E+00;  0.0000000E+00;0;  1.3076616E-04;  4.0000000E+04;  0.0000000E+00;  0.0000000E+00;  4.0000000E+04;  0.0000000E+00;  4.0000000E+04;  4.5689834E-05;  0.0000000E+00;  8.5076317E-05;  1.0003629E+02;
  1.0000000E-01;  9.9999998E-03; -4.3000001E-01;2122;  0.0000000E+00;  0.0000000E+00;  0.0000000E+00;  1.0000734E+03;  1.0000000E-01;  6.0837784E+01;0;  0.0000000E+00;  0.0000000E+00;  0.0000000E+00;0;  4.0945242E-04;  4.0000000E+04;  0.0000000E+00;  0.0000000E+00;  4.0000000E+04;  0.0000000E+00;  4.0000000E+04;  1.4644857E-04;  0.0000000E+00;  2.6300387E-04;  3.1746207E+02;
  1.0000000E-01;  9.9999998E-03; -4.1999999E-01;2123;  0.0000000E+00;  0.0000000E+00;  0.0000000E+00;  1.0001379E+03;  1.0000000E-01;  1.1426837E+02;0;  0.0000000E+00;  0.0000000E+00;  0.0000000E+00;0;  9.4879547E-04;  4.0000000E+04;  0.0000000E+00;  0.0000000E+00;  4.0000000E+04;  0.0000000E+00;  4.0000000E+04;  3.5291884E-04;  0.0000000E+00;  5.9587666E-04;  7.2492657E+02;
  1.0000000E-01;  9.9999998E-03; -4.1000000E-01;2124;  0.0000000E+00;  0.0000000E+00;  0.0000000E+00;  1.0002726E+03;  1.0000000E-01;  2.2587015E+02;0;  0.0000000E+00;  0.0000000E+00;  0.0000000E+00;0;  1.8111811E-03;  4.0000000E+04;  0.0000000E+00;  0.0000000E+00;  4.0000000E+04;  0.0000000E+00;  4.0000000E+04;  7.1436574E-04;  0.0000000E+00;  1.0968153E-03;  1.3306964E+03;
  1.0000000E-01;  9.9999998E-03; -4.0000001E-01;2125;  0.0000000E+00;  0.0000000E+00;  0.0000000E+00;  1.0004850E+03;  1.0000000E-01;  4.0186517E+02;0;  0.0000000E+00;  0.0000000E+00;  0.0000000E+00;0;  3.0395295E-03;  4.0000000E+04;  0.0000000E+00;  0.0000000E+00;  4.0000000E+04;  0.0000000E+00;  4.0000000E+04;  1.2908936E-03;  0.0000000E+00;  1.7486360E-03;  2.0970432E+03;
  1.0000000E-01;  9.9999998E-03; -3.8999999E-01;2126;  0.0000000E+00;  0.0000000E+00;  0.0000000E+00;  1.0007766E+03;  1.0000000E-01;  6.4343860E+02;0;  0.0000000E+00;  0.0000000E+00;  0.0000000E+00;0;  4.6770903E-03;  4.0000000E+04;  0.0000000E+00;  0.0000000E+00;  4.0000000E+04;  0.0000000E+00;  4.0000000E+04;  2.1564653E-03;  0.0000000E+00;  2.5206250E-03;  2.9619941E+03;
  1.0000000E-01;  9.9999998E-03; -3.8000000E-01;2127;  0.0000000E+00;  0.0000000E+00;  0.0000000E+00;  1.0011803E+03;  1.0000000E-01;  9.7784888E+02;0;  0.0000000E+00;  0.0000000E+00;  0.0000000E+00;0;  6.7774132E-03;  4.0000000E+04;  0.0000000E+00;  0.0000000E+00;  4.0000000E+04;  0.0000000E+00;  4.0000000E+04;  3.3963542E-03;  0.0000000E+00;  3.3810588E-03;  3.8589128E+03;
  1.0000000E-01;  9.9999998E-03; -3.7000000E-01;2128;  0.0000000E+00;  0.0000000E+00;  0.0000000E+00;  1.0017114E+03;  1.0000000E-01;  1.4178364E+03;0;  0.0000000E+00;  0.0000000E+00;  0.0000000E+00;0;  9.3999272E-03;  4.0000000E+04;  0.0000000E+00;  0.0000000E+00;  4.0000000E+04;  0.0000000E+00;  4.0000000E+04;  5.0997995E-03;  0.0000000E+00;  4.3001277E-03;  4.7237783E+03;
  1.0000000E-01;  9.9999998E-03; -3.6000001E-01;2129;  0.0000000E+00;  0.0000000E+00;  0.0000000E+00;  1.0023898E+03;  1.0000000E-01;  1.9798947E+03;0;  0.0000000E+00;  0.0000000E+00;  0.0000000E+00;0;  1.2595262E-02;  4.0000000E+04;  0.0000000E+00;  0.0000000E+00;  4.0000000E+04;  0.0000000E+00;  4.0000000E+04;  7.3492317E-03;  0.0000000E+00;  5.2460306E-03;  5.4938618E+03;
  1.0000000E-01;  9.9999998E-03; -3.4999999E-01;2130;  0.0000000E+00;  0.0000000E+00;  0.0000000E+00;  1.0032346E+03;  1.0000000E-01;  2.6797266E+03;0;  0.0000000E+00;  0.0000000E+00;  0.0000000E+00;0;  1.6384520E-02;  4.0000000E+04;  0.0000000E+00;  0.0000000E+00;  4.0000000E+04;  0.0000000E+00;  4.0000000E+04;  1.0206832E-02;  0.0000000E+00;  6.1776871E-03;  6.1045454E+03;
  1.0000000E-01;  9.9999998E-03; -3.4000000E-01;2131;  0.0000000E+00;  0.0000000E+00;  0.0000000E+00;  1.0042340E+03;  1.0000000E-01;  3.5077527E+03;0;  0.0000000E+00;  0.0000000E+00;  0.0000000E+00;0;  2.0736262E-02;  4.0000000E+04;  0.0000000E+00;  0.0000000E+00;  4.0000000E+04;  0.0000000E+00;  4.0000000E+04;  1.3699514E-02;  0.0000000E+00;  7.0367483E-03;  6.4907075E+03;
  1.0000000E-01;  9.9999998E-03; -3.3000001E-01;2132;  0.0000000E+00;  0.0000000E+00;  0.0000000E+00;  1.0053735E+03;  1.0000000E-01;  4.4518247E+03;0;  0.0000000E+00;  0.0000000E+00;  0.0000000E+00;0;  2.5546094E-02;  4.0000000E+04;  0.0000000E+00;  0.0000000E+00;  4.0000000E+04;  0.0000000E+00;  4.0000000E+04;  1.7804230E-02;  0.0000000E+00;  7.7418652E-03;  6.5961426E+03;
  1.0000000E-01;  9.9999998E-03; -3.1999999E-01;2133;  0.0000000E+00;  0.0000000E+00;  0.0000000E+00;  1.0066050E+03;  1.0000000E-01;  5.4721416E+03;0;  0.0000000E+00;  0.0000000E+00;  0.0000000E+00;0;  3.0625258E-02;  4.0000000E+04;  0.0000000E+00;  0.0000000E+00;  4.0000000E+04;  0.0000000E+00;  4.0000000E+04;  2.2435792E-02;  0.0000000E+00;  8.1894649E-03;  6.3935200E+03;
  1.0000000E-01;  9.9999998E-03; -3.1000000E-01;2134;  0.0000000E+00;  0.0000000E+00;  0.0000000E+00;  1.0078623E+03;  1.0000000E-01;  6.5137910E+03;0;  0.0000000E+00;  0.0000000E+00;  0.0000000E+00;0;  3.5707608E-02;  4.0000000E+04;  0.0000000E+00;  0.0000000E+00;  4.0000000E+04;  0.0000000E+00;  4.0000000E+04;  2.7439330E-02;  0.0000000E+00;  8.2682772E-03;  5.9179829E+03;
  1.1000000E-01;  9.9999998E-03; -4.4000000E-01;2151;  0.0000000E+00;  0.0000000E+00;  0.0000000E+00;  1.0000000E+03;  1.0000000E-01;  0.0000000E+00;0;  0.0000000E+00;  0.0000000E+00;  0.0000000E+00;0;  1.7567787E-04;  4.0000000E+04;  0.0000000E+00;  0.0000000E+00;  4.0000000E+04;  0.0000000E+00;  4.0000000E+04;  5.2211344E-05;  0.0000000E+00;  1.2346653E-04;  1.4125172E+02;
  1.1000000E-01;  9.9999998E-03; -4.3000001E-01;2152;  0.0000000E+00;  0.0000000E+00;  0.0000000E+00;  1.0000676E+03;  1.0000000E-01;  5.5998417E+01;0;  0.0000000E+00;  0.0000000E+00;  0.0000000E+00;0;  5.1346177E-04;  4.0000000E+04;  0.0000000E+00;  0.0000000E+00;  4.0000000E+04;  0.0000000E+00;  4.0000000E+04;  1.6240783E-04;  0.0000000E+00;  3.5105395E-04;  4.1342154E+02;
  1.1000000E-01;  9.9999998E-03; -4.1999999E-01;2153;  0.0000000E+00;  0.0000000E+00;  0.0000000E+00;  1.0001387E+03;  1.0000000E-01;  1.1486095E+02;0;  0.0000000E+00;  0.0000000E+00;  0.0000000E+00;0;  1.1327835E-03;  4.0000000E+04;  0.0000000E+00;  0.0000000E+00;  4.0000000E+04;  0.0000000E+00;  4.0000000E+04;  3.8271095E-04;  0.0000000E+00;  7.5007259E-04;  8.9875854E+02;
  1.1000000E-01;  9.9999998E-03; -4.1000000E-01;2154;  0.0000000E+00;  0.0000000E+00;  0.0000000E+00;  1.0002712E+03;  1.0000000E-01;  2.2468500E+02;0;  0.0000000E+00;  0.0000000E+00;  0.0000000E+00;0;  2.0918630E-03;  4.0000000E+04;  0.0000000E+00;  0.0000000E+00;  4.0000000E+04;  0.0000000E+00;  4.0000000E+04;  7.6582469E-04;  0.0000000E+00;  1.3260383E-03;  1.5961017E+03;
  1.1000000E-01;  9.9999998E-03; -4.0000001E-01;2155;  0.0000000E+00;  0.0000000E+00;  0.0000000E+00;  1.0004890E+03;  1.0000000E-01;  4.0512436E+02;0;  0.0000000E+00;  0.0000000E+00;  0.0000000E+00;0;  3.4376632E-03;  4.0000000E+04;  0.0000000E+00;  0.0000000E+00;  4.0000000E+04;  0.0000000E+00;  4.0000000E+04;  1.3801176E-03;  0.0000000E+00;  2.0575456E-03;  2.4569031E+03;
  1.1000000E-01;  9.9999998E-03; -3.8999999E-01;2156;  0.0000000E+00;  0.0000000E+00;  0.0000000E+00;  1.0007962E+03;  1.0000000E-01;  6.5963568E+02;0;  0.0000000E+00;  0.0000000E+00;  0.0000000E+00;0;  5.2218894E-03;  4.0000000E+04;  0.0000000E+00;  0.0000000E+00;  4.0000000E+04;  0.0000000E+00;  4.0000000E+04;  2.3094628E-03;  0.0000000E+00;  2.9124264E-03;  3.4130029E+03;
  1.1000000E-01;  9.9999998E-03; -3.8000000E-01;2157;  0.0000000E+00;  0.0000000E+00;  0.0000000E+00;  1.0012150E+03;  1.0000000E-01;  1.0065888E+03;0;  0.0000000E+00;  0.0000000E+00;  0.0000000E+00;0;  7.5060874E-03;  4.0000000E+04;  0.0000000E+00;  0.0000000E+00;  4.0000000E+04;  0.0000000E+00;  4.0000000E+04;  3.6473540E-03;  0.0000000E+00;  3.8587337E-03;  4.3990649E+03;
  1.1000000E-01;  9.9999998E-03; -3.7000000E-01;2158;  0.0000000E+00;  0.0000000E+00;  0.0000000E+00;  1.0017764E+03;  1.0000000E-01;  1.4717609E+03;0;  0.0000000E+00;  0.0000000E+00;  0.0000000E+00;0;  1.0354562E-02;  4.0000000E+04;  0.0000000E+00;  0.0000000E+00;  4.0000000E+04;  0.0000000E+00;  4.0000000E+04;  5.4879636E-03;  0.0000000E+00;  4.8665986E-03;  5.3617842E+03;
  1.1000000E-01;  9.9999998E-03; -3.6000001E-01;2159;  0.0000000E+00;  0.0000000E+00;  0.0000000E+00;  1.0024929E+03;  1.0000000E-01;  2.0653242E+03;0;  0.0000000E+00;  0.0000000E+00;  0.0000000E+00;0;  1.3817936E-02;  4.0000000E+04;  0.0000000E+00;  0.0000000E+00;  4.0000000E+04;  0.0000000E+00;  4.0000000E+04;  7.9144724E-03;  0.0000000E+00;  5.9034638E-03;  6.2620977E+03;
  1.1000000E-01;  9.9999998E-03; -3.4999999E-01;2160;  0.0000000E+00;  0.0000000E+00;  0.0000000E+00;  1.0033781E+03;  1.0000000E-01;  2.7986370E+03;0;  0.0000000E+00;  0.0000000E+00;  0.0000000E+00;0;  1.7910983E-02;  4.0000000E+04;  0.0000000E+00;  0.0000000E+00;  4.0000000E+04;  0.0000000E+00;  4.0000000E+04;  1.0985089E-02;  0.0000000E+00;  6.9258935E-03;  7.0778486E+03;
  1.1000000E-01;  9.9999998E-03; -3.4000000E-01;2161;  0.0000000E+00;  0.0000000E+00;  0.0000000E+00;  1.0044213E+03;  1.0000000E-01;  3.6629087E+03;0;  0.0000000E+00;  0.0000000E+00;  0.0000000E+00;0;  2.2588439E-02;  4.0000000E+04;  0.0000000E+00;  0.0000000E+00;  4.0000000E+04;  0.0000000E+00;  4.0000000E+04;  1.4718196E-02;  0.0000000E+00;  7.8702429E-03;  7.8071245E+03;
  1.1000000E-01;  9.9999998E-03; -3.3000001E-01;2162;  0.0000000E+00;  0.0000000E+00;  0.0000000E+00;  1.0055999E+03;  1.0000000E-01;  4.6393750E+03;0;  0.0000000E+00;  0.0000000E+00;  0.0000000E+00;0;  2.7723879E-02;  4.0000000E+04;  0.0000000E+00;  0.0000000E+00;  4.0000000E+04;  0.0000000E+00;  4.0000000E+04;  1.9079119E-02;  0.0000000E+00;  8.6447606E-03;  8.4628896E+03;
  1.1000000E-01;  9.9999998E-03; -3.1999999E-01;2163;  0.0000000E+00;  0.0000000E+00;  0.0000000E+00;  1.0068608E+03;  1.0000000E-01;  5.6840859E+03;0;  0.0000000E+00;  0.0000000E+00;  0.0000000E+00;0;  3.3097353E-02;  4.0000000E+04;  0.0000000E+00;  0.0000000E+00;  4.0000000E+04;  0.0000000E+00;  4.0000000E+04;  2.3970084E-02;  0.0000000E+00;  9.1272686E-03;  9.0480703E+03;
  1.1000000E-01;  9.9999998E-03; -3.1000000E-01;2164;  0.0000000E+00;  0.0000000E+00;  0.0000000E+00;  1.0081286E+03;  1.0000000E-01;  6.7344268E+03;0;  0.0000000E+00;  0.0000000E+00;  0.0000000E+00;0;  3.8400501E-02;  4.0000000E+04;  0.0000000E+00;  0.0000000E+00;  4.0000000E+04;  0.0000000E+00;  4.0000000E+04;  2.9224433E-02;  0.0000000E+00;  9.1760699E-03;  9.5228574E+03;
  1.2000000E-01;  9.9999998E-03; -4.4000000E-01;2181;  0.0000000E+00;  0.0000000E+00;  0.0000000E+00;  1.0000000E+03;  1.0000000E-01;  0.0000000E+00;0;  0.0000000E+00;  0.0000000E+00;  0.0000000E+00;0;  2.1674823E-04;  4.0000000E+04;  0.0000000E+00;  0.0000000E+00;  4.0000000E+04;  0.0000000E+00;  4.0000000E+04;  5.4728836E-05;  0.0000000E+00;  1.6201939E-04;  1.9655499E+02;
  1.2000000E-01;  9.9999998E-03; -4.3000001E-01;2182;  0.0000000E+00;  0.0000000E+00;  0.0000000E+00;  1.0000652E+03;  1.0000000E-01;  5.4023163E+01;0;  0.0000000E+00;  0.0000000E+00;  0.0000000E+00;0;  6.0140982E-04;  4.0000000E+04;  0.0000000E+00;  0.0000000E+00;  4.0000000E+04;  0.0000000E+00;  4.0000000E+04;  1.6527530E-04;  0.0000000E+00;  4.3613452E-04;  5.3876422E+02;
  1.2000000E-01;  9.9999998E-03; -4.1999999E-01;2183;  0.0000000E+00;  0.0000000E+00;  0.0000000E+00;  1.0001401E+03;  1.0000000E-01;  1.1604610E+02;0;  0.0000000E+00;  0.0000000E+00;  0.0000000E+00;0;  1.2813091E-03;  4.0000000E+04;  0.0000000E+00;  0.0000000E+00;  4.0000000E+04;  0.0000000E+00;  4.0000000E+04;  3.8539595E-04;  0.0000000E+00;  8.9591311E-04;  1.1146449E+03;
  1.2000000E-01;  9.9999998E-03; -4.1000000E-01;2184;  0.0000000E+00;  0.0000000E+00;  0.0000000E+00;  1.0002827E+03;  1.0000000E-01;  2.3416621E+02;0;  0.0000000E+00;  0.0000000E+00;  0.0000000E+00;0;  2.3174267E-03;  4.0000000E+04;  0.0000000E+00;  0.0000000E+00;  4.0000000E+04;  0.0000000E+00;  4.0000000E+04;  7.7496981E-04;  0.0000000E+00;  1.5424570E-03;  1.9027196E+03;
  1.2000000E-01;  9.9999998E-03; -4.0000001E-01;2185;  0.0000000E+00;  0.0000000E+00;  0.0000000E+00;  1.0005012E+03;  1.0000000E-01;  4.1529691E+02;0;  0.0000000E+00;  0.0000000E+00;  0.0000000E+00;0;  3.7643434E-03;  4.0000000E+04;  0.0000000E+00;  0.0000000E+00;  4.0000000E+04;  0.0000000E+00;  4.0000000E+04;  1.4132318E-03;  0.0000000E+00;  2.3511115E-03;  2.8374336E+03;
  1.2000000E-01;  9.9999998E-03; -3.8999999E-01;2186;  0.0000000E+00;  0.0000000E+00;  0.0000000E+00;  1.0008260E+03;  1.0000000E-01;  6.8432635E+02;0;  0.0000000E+00;  0.0000000E+00;  0.0000000E+00;0;  5.6811343E-03;  4.0000000E+04;  0.0000000E+00;  0.0000000E+00;  4.0000000E+04;  0.0000000E+00;  4.0000000E+04;  2.3935603E-03;  0.0000000E+00;  3.2875740E-03;  3.8498804E+03;
  1.2000000E-01;  9.9999998E-03; -3.8000000E-01;2187;  0.0000000E+00;  0.0000000E+00;  0.0000000E+00;  1.0012737E+03;  1.0000000E-01;  1.0551801E+03;0;  0.0000000E+00;  0.0000000E+00;  0.0000000E+00;0;  8.1342421E-03;  4.0000000E+04;  0.0000000E+00;  0.0000000E+00;  4.0000000E+04;  0.0000000E+00;  4.0000000E+04;  3.8155420E-03;  0.0000000E+00;  4.3186997E-03;  4.8991782E+03;
  1.2000000E-01;  9.9999998E-03; -3.7000000E-01;2188;  0.0000000E+00;  0.0000000E+00;  0.0000000E+00;  1.0018773E+03;  1.0000000E-01;  1.5553141E+03;0;  0.0000000E+00;  0.0000000E+00;  0.0000000E+00;0;  1.1188373E-02;  4.0000000E+04;  0.0000000E+00;  0.0000000E+00;  4.0000000E+04;  0.0000000E+00;  4.0000000E+04;  5.7746726E-03;  0.0000000E+00;  5.4137008E-03;  5.9886387E+03;
  1.2000000E-01;  9.9999998E-03; -3.6000001E-01;2189;  0.0000000E+00;  0.0000000E+00;  0.0000000E+00;  1.0026437E+03;  1.0000000E-01;  2.1902590E+03;0;  0.0000000E+00;  0.0000000E+00;  0.0000000E+00;0;  1.4888311E-02;  4.0000000E+04;  0.0000000E+00;  0.0000000E+00;  4.0000000E+04;  0.0000000E+00;  4.0000000E+04;  8.3496179E-03;  0.0000000E+00;  6.5386929E-03;  7.1717637E+03;
  1.2000000E-01;  9.9999998E-03; -3.4999999E-01;2190;  0.0000000E+00;  0.0000000E+00;  0.0000000E+00;  1.0035838E+03;  1.0000000E-01;  2.9691013E+03;0;  0.0000000E+00;  0.0000000E+00;  0.0000000E+00;0;  1.9235088E-02;  4.0000000E+04;  0.0000000E+00;  0.0000000E+00;  4.0000000E+04;  0.0000000E+00;  4.0000000E+04;  1.1587464E-02;  0.0000000E+00;  7.6476233E-03;  8.5414756E+03;
  1.2000000E-01;  9.9999998E-03; -3.4000000E-01;2191;  0.0000000E+00;  0.0000000E+00;  0.0000000E+00;  1.0046843E+03;  1.0000000E-01;  3.8808779E+03;0;  0.0000000E+00;  0.0000000E+00;  0.0000000E+00;0;  2.4161339E-02;  4.0000000E+04;  0.0000000E+00;  0.0000000E+00;  4.0000000E+04;  0.0000000E+00;  4.0000000E+04;  1.5489626E-02;  0.0000000E+00;  8.6717140E-03;  1.0184490E+04;
  1.2000000E-01;  9.9999998E-03; -3.3000001E-01;2192;  0.0000000E+00;  0.0000000E+00;  0.0000000E+00;  1.0059136E+03;  1.0000000E-01;  4.8993184E+03;0;  0.0000000E+00;  0.0000000E+00;  0.0000000E+00;0;  2.9510446E-02;  4.0000000E+04;  0.0000000E+00;  0.0000000E+00;  4.0000000E+04;  0.0000000E+00;  4.0000000E+04;  2.0000961E-02;  0.0000000E+00;  9.5094852E-03;  1.2098533E+04;
  1.2000000E-01;  9.9999998E-03; -3.1999999E-01;2193;  0.0000000E+00;  0.0000000E+00;  0.0000000E+00;  1.0072114E+03;  1.0000000E-01;  5.9745469E+03;0;  0.0000000E+00;  0.0000000E+00;  0.0000000E+00;0;  3.5024732E-02;  4.0000000E+04;  0.0000000E+00;  0.0000000E+00;  4.0000000E+04;  0.0000000E+00;  4.0000000E+04;  2.5003700E-02;  0.0000000E+00;  1.0021034E-02;  1.4115847E+04;
  1.2000000E-01;  9.9999998E-03; -3.1000000E-01;2194;  0.0000000E+00;  0.0000000E+00;  0.0000000E+00;  1.0084979E+03;  1.0000000E-01;  7.0402949E+03;0;  0.0000000E+00;  0.0000000E+00;  0.0000000E+00;0;  4.0351413E-02;  4.0000000E+04;  0.0000000E+00;  0.0000000E+00;  4.0000000E+04;  0.0000000E+00;  4.0000000E+04;  3.0316968E-02;  0.0000000E+00;  1.0034448E-02;  1.5896392E+04;
  1.3000000E-01;  9.9999998E-03; -4.4000000E-01;2211;  0.0000000E+00;  0.0000000E+00;  0.0000000E+00;  1.0000000E+03;  1.0000000E-01;  0.0000000E+00;0;  0.0000000E+00;  0.0000000E+00;  0.0000000E+00;0;  2.4682697E-04;  4.0000000E+04;  0.0000000E+00;  0.0000000E+00;  4.0000000E+04;  0.0000000E+00;  4.0000000E+04;  5.1317518E-05;  0.0000000E+00;  1.9550943E-04;  2.9028439E+02;
  1.3000000E-01;  9.9999998E-03; -4.3000001E-01;2212;  0.0000000E+00;  0.0000000E+00;  0.0000000E+00;  1.0000662E+03;  1.0000000E-01;  5.4912025E+01;0;  0.0000000E+00;  0.0000000E+00;  0.0000000E+00;0;  6.6031143E-04;  4.0000000E+04;  0.0000000E+00;  0.0000000E+00;  4.0000000E+04;  0.0000000E+00;  4.0000000E+04;  1.5251282E-04;  0.0000000E+00;  5.0779863E-04;  7.4803851E+02;
  1.3000000E-01;  9.9999998E-03; -4.1999999E-01;2213;  0.0000000E+00;  0.0000000E+00;  0.0000000E+00;  1.0001429E+03;  1.0000000E-01;  1.1841640E+02;0;  0.0000000E+00;  0.0000000E+00;  0.0000000E+00;0;  1.3812343E-03;  4.0000000E+04;  0.0000000E+00;  0.0000000E+00;  4.0000000E+04;  0.0000000E+00;  4.0000000E+04;  3.6146175E-04;  0.0000000E+00;  1.0197725E-03;  1.4550115E+03;
  1.3000000E-01;  9.9999998E-03; -4.1000000E-01;2214;  0.0000000E+00;  0.0000000E+00;  0.0000000E+00;  1.0003007E+03;  1.0000000E-01;  2.4907938E+02;0;  0.0000000E+00;  0.0000000E+00;  0.0000000E+00;0;  2.4791358E-03;  4.0000000E+04;  0.0000000E+00;  0.0000000E+00;  4.0000000E+04;  0.0000000E+00;  4.0000000E+04;  7.4858713E-04;  0.0000000E+00;  1.7305486E-03;  2.3369922E+03;
  1.3000000E-01;  9.9999998E-03; -4.0000001E-01;2215;  0.0000000E+00;  0.0000000E+00;  0.0000000E+00;  1.0005317E+03;  1.0000000E-01;  4.4058014E+02;0;  0.0000000E+00;  0.0000000E+00;  0.0000000E+00;0;  4.0158588E-03;  4.0000000E+04;  0.0000000E+00;  0.0000000E+00;  4.0000000E+04;  0.0000000E+00;  4.0000000E+04;  1.4036353E-03;  0.0000000E+00;  2.6122234E-03;  3.2910276E+03;
  1.3000000E-01;  9.9999998E-03; -3.8999999E-01;2216;  0.0000000E+00;  0.0000000E+00;  0.0000000E+00;  1.0008796E+03;  1.0000000E-01;  7.2867078E+02;0;  0.0000000E+00;  0.0000000E+00;  0.0000000E+00;0;  6.0552927E-03;  4.0000000E+04;  0.0000000E+00;  0.0000000E+00;  4.0000000E+04;  0.0000000E+00;  4.0000000E+04;  2.4281596E-03;  0.0000000E+00;  3.6271331E-03;  4.2627773E+03;
  1.3000000E-01;  9.9999998E-03; -3.8000000E-01;2217;  0.0000000E+00;  0.0000000E+00;  0.0000000E+00;  1.0013730E+03;  1.0000000E-01;  1.1375481E+03;0;  0.0000000E+00;  0.0000000E+00;  0.0000000E+00;0;  8.6651444E-03;  4.0000000E+04;  0.0000000E+00;  0.0000000E+00;  4.0000000E+04;  0.0000000E+00;  4.0000000E+04;  3.9257226E-03;  0.0000000E+00;  4.7394214E-03;  5.3090654E+03;
  1.3000000E-01;  9.9999998E-03; -3.7000000E-01;2218;  0.0000000E+00;  0.0000000E+00;  0.0000000E+00;  1.0020213E+03;  1.0000000E-01;  1.6746193E+03;0;  0.0000000E+00;  0.0000000E+00;  0.0000000E+00;0;  1.1906100E-02;  4.0000000E+04;  0.0000000E+00;  0.0000000E+00;  4.0000000E+04;  0.0000000E+00;  4.0000000E+04;  5.9899921E-03;  0.0000000E+00;  5.9161084E-03;  6.6237095E+03;
  1.3000000E-01;  9.9999998E-03; -3.6000001E-01;2219;  0.0000000E+00;  0.0000000E+00;  0.0000000E+00;  1.0028534E+03;  1.0000000E-01;  2.3639824E+03;0;  0.0000000E+00;  0.0000000E+00;  0.0000000E+00;0;  1.5811307E-02;  4.0000000E+04;  0.0000000E+00;  0.0000000E+00;  4.0000000E+04;  0.0000000E+00;  4.0000000E+04;  8.6903526E-03;  0.0000000E+00;  7.1209543E-03;  8.4849785E+03;
  1.3000000E-01;  9.9999998E-03; -3.4999999E-01;2220;  0.0000000E+00;  0.0000000E+00;  0.0000000E+00;  1.0038636E+03;  1.0000000E-01;  3.2008972E+03;0;  0.0000000E+00;  0.0000000E+00;  0.0000000E+00;0;  2.0361245E-02;  4.0000000E+04;  0.0000000E+00;  0.0000000E+00;  4.0000000E+04;  0.0000000E+00;  4.0000000E+04;  1.2056594E-02;  0.0000000E+00;  8.3046509E-03;  1.1112040E+04;
  1.3000000E-01;  9.9999998E-03; -3.4000000E-01;2221;  0.0000000E+00;  0.0000000E+00;  0.0000000E+00;  1.0050360E+03;  1.0000000E-01;  4.1722275E+03;0;  0.0000000E+00;  0.0000000E+00;  0.0000000E+00;0;  2.5459114E-02;  4.0000000E+04;  0.0000000E+00;  0.0000000E+00;  4.0000000E+04;  0.0000000E+00;  4.0000000E+04;  1.6065942E-02;  0.0000000E+00;  9.3931733E-03;  1.4519210E+04;
  1.3000000E-01;  9.9999998E-03; -3.3000001E-01;2222;  0.0000000E+00;  0.0000000E+00;  0.0000000E+00;  1.0063262E+03;  1.0000000E-01;  5.2411357E+03;0;  0.0000000E+00;  0.0000000E+00;  0.0000000E+00;0;  3.0911826E-02;  4.0000000E+04;  0.0000000E+00;  0.0000000E+00;  4.0000000E+04;  0.0000000E+00;  4.0000000E+04;  2.0635948E-02;  0.0000000E+00;  1.0275877E-02;  1.8449775E+04;
  1.3000000E-01;  9.9999998E-03; -3.1999999E-01;2223;  0.0000000E+00;  0.0000000E+00;  0.0000000E+00;  1.0076687E+03;  1.0000000E-01;  6.3534004E+03;0;  0.0000000E+00;  0.0000000E+00;  0.0000000E+00;0;  3.6420871E-02;  4.0000000E+04;  0.0000000E+00;  0.0000000E+00;  4.0000000E+04;  0.0000000E+00;  4.0000000E+04;  2.5623837E-02;  0.0000000E+00;  1.0797032E-02;  2.2379123E+04;
  1.3000000E-01;  9.9999998E-03; -3.1000000E-01;2224;  0.0000000E+00;  0.0000000E+00;  0.0000000E+00;  1.0089764E+03;  1.0000000E-01;  7.4368267E+03;0;  0.0000000E+00;  0.0000000E+00;  0.0000000E+00;0;  4.1594803E-02;  4.0000000E+04;  0.0000000E+00;  0.0000000E+00;  4.0000000E+04;  0.0000000E+00;  4.0000000E+04;  3.0834967E-02;  0.0000000E+00;  1.0759837E-02;  2.5592373E+04;
  1.4000000E-01;  9.9999998E-03; -4.4000000E-01;2241;  0.0000000E+00;  0.0000000E+00;  0.0000000E+00;  1.0000000E+03;  1.0000000E-01;  0.0000000E+00;0;  0.0000000E+00;  0.0000000E+00;  0.0000000E+00;0;  2.6047375E-04;  4.0000000E+04;  0.0000000E+00;  0.0000000E+00;  4.0000000E+04;  0.0000000E+00;  4.0000000E+04;  4.0916486E-05;  0.0000000E+00;  2.1955726E-04;  4.8009320E+02;
  1.4000000E-01;  9.9999998E-03; -4.3000001E-01;2242;  0.0000000E+00;  0.0000000E+00;  0.0000000E+00;  1.0000692E+03;  1.0000000E-01;  5.7282330E+01;0;  0.0000000E+00;  0.0000000E+00;  0.0000000E+00;0;  6.8593229E-04;  4.0000000E+04;  0.0000000E+00;  0.0000000E+00;  4.0000000E+04;  0.0000000E+00;  4.0000000E+04;  1.2607926E-04;  0.0000000E+00;  5.5985304E-04;  1.1669445E+03;
  1.4000000E-01;  9.9999998E-03; -4.1999999E-01;2243;  0.0000000E+00;  0.0000000E+00;  0.0000000E+00;  1.0001513E+03;  1.0000000E-01;  1.2532979E+02;0;  0.0000000E+00;  0.0000000E+00;  0.0000000E+00;0;  1.4350208E-03;  4.0000000E+04;  0.0000000E+00;  0.0000000E+00;  4.0000000E+04;  0.0000000E+00;  4.0000000E+04;  3.1996481E-04;  0.0000000E+00;  1.1150560E-03;  2.1161882E+03;
  1.4000000E-01;  9.9999998E-03; -4.1000000E-01;2244;  0.0000000E+00;  0.0000000E+00;  0.0000000E+00;  1.0003186E+03;  1.0000000E-01;  2.6399252E+02;0;  0.0000000E+00;  0.0000000E+00;  0.0000000E+00;0;  2.5877135E-03;  4.0000000E+04;  0.0000000E+00;  0.0000000E+00;  4.0000000E+04;  0.0000000E+00;  4.0000000E+04;  7.0401974E-04;  0.0000000E+00;  1.8836939E-03;  3.1286272E+03;
  1.4000000E-01;  9.9999998E-03; -4.0000001E-01;2245;  0.0000000E+00;  0.0000000E+00;  0.0000000E+00;  1.0005713E+03;  1.0000000E-01;  4.7327057E+02;0;  0.0000000E+00;  0.0000000E+00;  0.0000000E+00;0;  4.2114523E-03;  4.0000000E+04;  0.0000000E+00;  0.0000000E+00;  4.0000000E+04;  0.0000000E+00;  4.0000000E+04;  1.3773985E-03;  0.0000000E+00;  2.8340539E-03;  4.0009243E+03;
  1.4000000E-01;  9.9999998E-03; -3.8999999E-01;2246;  0.0000000E+00;  0.0000000E+00;  0.0000000E+00;  1.0009633E+03;  1.0000000E-01;  7.9810089E+02;0;  0.0000000E+00;  0.0000000E+00;  0.0000000E+00;0;  6.3719125E-03;  4.0000000E+04;  0.0000000E+00;  0.0000000E+00;  4.0000000E+04;  0.0000000E+00;  4.0000000E+04;  2.4480745E-03;  0.0000000E+00;  3.9238380E-03;  4.7039438E+03;
  1.4000000E-01;  9.9999998E-03; -3.8000000E-01;2247;  0.0000000E+00;  0.0000000E+00;  0.0000000E+00;  1.0014988E+03;  1.0000000E-01;  1.2417427E+03;0;  0.0000000E+00;  0.0000000E+00;  0.0000000E+00;0;  9.1348402E-03;  4.0000000E+04;  0.0000000E+00;  0.0000000E+00;  4.0000000E+04;  0.0000000E+00;  4.0000000E+04;  4.0219128E-03;  0.0000000E+00;  5.1129279E-03;  5.5851260E+03;
  1.4000000E-01;  9.9999998E-03; -3.7000000E-01;2248;  0.0000000E+00;  0.0000000E+00;  0.0000000E+00;  1.0022157E+03;  1.0000000E-01;  1.8357012E+03;0;  0.0000000E+00;  0.0000000E+00;  0.0000000E+00;0;  1.2553276E-02;  4.0000000E+04;  0.0000000E+00;  0.0000000E+00;  4.0000000E+04;  0.0000000E+00;  4.0000000E+04;  6.1886003E-03;  0.0000000E+00;  6.3646757E-03;  7.3840566E+03;
  1.4000000E-01;  9.9999998E-03; -3.6000001E-01;2249;  0.0000000E+00;  0.0000000E+00;  0.0000000E+00;  1.0031235E+03;  1.0000000E-01;  2.5877786E+03;0;  0.0000000E+00;  0.0000000E+00;  0.0000000E+00;0;  1.6644403E-02;  4.0000000E+04;  0.0000000E+00;  0.0000000E+00;  4.0000000E+04;  0.0000000E+00;  4.0000000E+04;  9.0050483E-03;  0.0000000E+00;  7.6393546E-03;  1.0702402E+04;
  1.4000000E-01;  9.9999998E-03; -3.4999999E-01;2250;  0.0000000E+00;  0.0000000E+00;  0.0000000E+00;  1.0042185E+03;  1.0000000E-01;  3.4949136E+03;0;  0.0000000E+00;  0.0000000E+00;  0.0000000E+00;0;  2.1363318E-02;  4.0000000E+04;  0.0000000E+00;  0.0000000E+00;  4.0000000E+04;  0.0000000E+00;  4.0000000E+04;  1.2479668E-02;  0.0000000E+00;  8.8836504E-03;  1.5590166E+04;
  1.4000000E-01;  9.9999998E-03; -3.4000000E-01;2251;  0.0000000E+00;  0.0000000E+00;  0.0000000E+00;  1.0054742E+03;  1.0000000E-01;  4.5352793E+03;0;  0.0000000E+00;  0.0000000E+00;  0.0000000E+00;0;  2.6579253E-02;  4.0000000E+04;  0.0000000E+00;  0.0000000E+00;  4.0000000E+04;  0.0000000E+00;  4.0000000E+04;  1.6561301E-02;  0.0000000E+00;  1.0017953E-02;  2.1684262E+04;
  1.4000000E-01;  9.9999998E-03; -3.3000001E-01;2252;  0.0000000E+00;  0.0000000E+00;  0.0000000E+00;  1.0068354E+03;  1.0000000E-01;  5.6630498E+03;0;  0.0000000E+00;  0.0000000E+00;  0.0000000E+00;0;  3.2059915E-02;  4.0000000E+04;  0.0000000E+00;  0.0000000E+00;  4.0000000E+04;  0.0000000E+00;  4.0000000E+04;  2.1136891E-02;  0.0000000E+00;  1.0923026E-02;  2.8310939E+04;
  1.4000000E-01;  9.9999998E-03; -3.1999999E-01;2253;  0.0000000E+00;  0.0000000E+00;  0.0000000E+00;  1.0082264E+03;  1.0000000E-01;  6.8154121E+03;0;  0.0000000E+00;  0.0000000E+00;  0.0000000E+00;0;  3.7468903E-02;  4.0000000E+04;  0.0000000E+00;  0.0000000E+00;  4.0000000E+04;  0.0000000E+00;  4.0000000E+04;  2.6038634E-02;  0.0000000E+00;  1.1430268E-02;  3.4503148E+04;
  1.4000000E-01;  9.9999998E-03; -3.1000000E-01;2254;  0.0000000E+00;  0.0000000E+00;  0.0000000E+00;  1.0095519E+03;  1.0000000E-01;  7.9135542E+03;0;  0.0000000E+00;  0.0000000E+00;  0.0000000E+00;0;  4.2390723E-02;  4.0000000E+04;  0.0000000E+00;  0.0000000E+00;  4.0000000E+04;  0.0000000E+00;  4.0000000E+04;  3.1062821E-02;  0.0000000E+00;  1.1327902E-02;  3.9122180E+04;
  1.5000001E-01;  9.9999998E-03; -4.4000000E-01;2271;  0.0000000E+00;  0.0000000E+00;  0.0000000E+00;  1.0000000E+03;  1.0000000E-01;  0.0000000E+00;0;  0.0000000E+00;  0.0000000E+00;  0.0000000E+00;0;  2.5733680E-04;  4.0000000E+04;  0.0000000E+00;  0.0000000E+00;  4.0000000E+04;  0.0000000E+00;  4.0000000E+04;  2.4983330E-05;  0.0000000E+00;  2.3235346E-04;  8.5531769E+02;
  1.5000001E-01;  9.9999998E-03; -4.3000001E-01;2272;  0.0000000E+00;  0.0000000E+00;  0.0000000E+00;  1.0000769E+03;  1.0000000E-01;  6.3701900E+01;0;  0.0000000E+00;  0.0000000E+00;  0.0000000E+00;0;  6.8606850E-04;  4.0000000E+04;  0.0000000E+00;  0.0000000E+00;  4.0000000E+04;  0.0000000E+00;  4.0000000E+04;  9.3868694E-05;  0.0000000E+00;  5.9219979E-04;  1.9791233E+03;
  1.5000001E-01;  9.9999998E-03; -4.1999999E-01;2273;  0.0000000E+00;  0.0000000E+00;  0.0000000E+00;  1.0001617E+03;  1.0000000E-01;  1.3392213E+02;0;  0.0000000E+00;  0.0000000E+00;  0.0000000E+00;0;  1.4616122E-03;  4.0000000E+04;  0.0000000E+00;  0.0000000E+00;  4.0000000E+04;  0.0000000E+00;  4.0000000E+04;  2.7770866E-04;  0.0000000E+00;  1.1839035E-03;  3.3860234E+03;
  1.5000001E-01;  9.9999998E-03; -4.1000000E-01;2274;  0.0000000E+00;  0.0000000E+00;  0.0000000E+00;  1.0003392E+03;  1.0000000E-01;  2.8097971E+02;0;  0.0000000E+00;  0.0000000E+00;  0.0000000E+00;0;  2.6737810E-03;  4.0000000E+04;  0.0000000E+00;  0.0000000E+00;  4.0000000E+04;  0.0000000E+00;  4.0000000E+04;  6.6753401E-04;  0.0000000E+00;  2.0062469E-03;  4.6431289E+03;
  1.5000001E-01;  9.9999998E-03; -4.0000001E-01;2275;  0.0000000E+00;  0.0000000E+00;  0.0000000E+00;  1.0006391E+03;  1.0000000E-01;  5.2946649E+02;0;  0.0000000E+00;  0.0000000E+00;  0.0000000E+00;0;  4.3933853E-03;  4.0000000E+04;  0.0000000E+00;  0.0000000E+00;  4.0000000E+04;  0.0000000E+00;  4.0000000E+04;  1.3703670E-03;  0.0000000E+00;  3.0230181E-03;  5.3250659E+03;
  1.5000001E-01;  9.9999998E-03; -3.8999999E-01;2276;  0.0000000E+00;  0.0000000E+00;  0.0000000E+00;  1.0010599E+03;  1.0000000E-01;  8.7809863E+02;0;  0.0000000E+00;  0.0000000E+00;  0.0000000E+00;0;  6.6854921E-03;  4.0000000E+04;  0.0000000E+00;  0.0000000E+00;  4.0000000E+04;  0.0000000E+00;  4.0000000E+04;  2.4995580E-03;  0.0000000E+00;  4.1859341E-03;  5.3523774E+03;
  1.5000001E-01;  9.9999998E-03; -3.8000000E-01;2277;  0.0000000E+00;  0.0000000E+00;  0.0000000E+00;  1.0016602E+03;  1.0000000E-01;  1.3754673E+03;0;  0.0000000E+00;  0.0000000E+00;  0.0000000E+00;0;  9.6117649E-03;  4.0000000E+04;  0.0000000E+00;  0.0000000E+00;  4.0000000E+04;  0.0000000E+00;  4.0000000E+04;  4.1623767E-03;  0.0000000E+00;  5.4493882E-03;  5.6959761E+03;
  1.5000001E-01;  9.9999998E-03; -3.7000000E-01;2278;  0.0000000E+00;  0.0000000E+00;  0.0000000E+00;  1.0024537E+03;  1.0000000E-01;  2.0328314E+03;0;  0.0000000E+00;  0.0000000E+00;  0.0000000E+00;0;  1.3215523E-02;  4.0000000E+04;  0.0000000E+00;  0.0000000E+00;  4.0000000E+04;  0.0000000E+00;  4.0000000E+04;  6.4435131E-03;  0.0000000E+00;  6.7720097E-03;  8.5162744E+03;
  1.5000001E-01;  9.9999998E-03; -3.6000001E-01;2279;  0.0000000E+00;  0.0000000E+00;  0.0000000E+00;  1.0034494E+03;  1.0000000E-01;  2.8577957E+03;0;  0.0000000E+00;  0.0000000E+00;  0.0000000E+00;0;  1.7496042E-02;  4.0000000E+04;  0.0000000E+00;  0.0000000E+00;  4.0000000E+04;  0.0000000E+00;  4.0000000E+04;  9.3863346E-03;  0.0000000E+00;  8.1097065E-03;  1.4420759E+04;
  1.5000001E-01;  9.9999998E-03; -3.4999999E-01;2280;  0.0000000E+00;  0.0000000E+00;  0.0000000E+00;  1.0046417E+03;  1.0000000E-01;  3.8455208E+03;0;  0.0000000E+00;  0.0000000E+00;  0.0000000E+00;0;  2.2380903E-02;  4.0000000E+04;  0.0000000E+00;  0.0000000E+00;  4.0000000E+04;  0.0000000E+00;  4.0000000E+04;  1.2976361E-02;  0.0000000E+00;  9.4045429E-03;  2.2665902E+04;
  1.5000001E-01;  9.9999998E-03; -3.4000000E-01;2281;  0.0000000E+00;  0.0000000E+00;  0.0000000E+00;  1.0059852E+03;  1.0000000E-01;  4.9585757E+03;0;  0.0000000E+00;  0.0000000E+00;  0.0000000E+00;0;  2.7703580E-02;  4.0000000E+04;  0.0000000E+00;  0.0000000E+00;  4.0000000E+04;  0.0000000E+00;  4.0000000E+04;  1.7132556E-02;  0.0000000E+00;  1.0571023E-02;  3.2362451E+04;
  1.5000001E-01;  9.9999998E-03; -3.3000001E-01;2282;  0.0000000E+00;  0.0000000E+00;  0.0000000E+00;  1.0074195E+03;  1.0000000E-01;  6.1468877E+03;0;  0.0000000E+00;  0.0000000E+00;  0.0000000E+00;0;  3.3192590E-02;  4.0000000E+04;  0.0000000E+00;  0.0000000E+00;  4.0000000E+04;  0.0000000E+00;  4.0000000E+04;  2.1710878E-02;  0.0000000E+00;  1.1481714E-02;  4.2338883E+04;
  1.5000001E-01;  9.9999998E-03; -3.1999999E-01;2283;  0.0000000E+00;  0.0000000E+00;  0.0000000E+00;  1.0088557E+03;  1.0000000E-01;  7.3367803E+03;0;  0.0000000E+00;  0.0000000E+00;  0.0000000E+00;0;  3.8479581E-02;  4.0000000E+04;  0.0000000E+00;  0.0000000E+00;  4.0000000E+04;  0.0000000E+00;  4.0000000E+04;  2.6520982E-02;  0.0000000E+00;  1.1958601E-02;  5.1071707E+04;
  1.5000001E-01;  9.9999998E-03; -3.1000000E-01;2284;  0.0000000E+00;  0.0000000E+00;  0.0000000E+00;  1.0101923E+03;  1.0000000E-01;  8.4441064E+03;0;  0.0000000E+00;  0.0000000E+00;  0.0000000E+00;0;  4.3138232E-02;  4.0000000E+04;  0.0000000E+00;  0.0000000E+00;  4.0000000E+04;  0.0000000E+00;  4.0000000E+04;  3.1354275E-02;  0.0000000E+00;  1.1783957E-02;  5.6908988E+04;
  1.6000000E-01;  9.9999998E-03; -4.4000000E-01;2301;  0.0000000E+00;  0.0000000E+00;  0.0000000E+00;  1.0000000E+03;  1.0000000E-01;  0.0000000E+00;0;  0.0000000E+00;  0.0000000E+00;  0.0000000E+00;0;  2.4397676E-04;  4.0000000E+04;  0.0000000E+00;  0.0000000E+00;  4.0000000E+04;  0.0000000E+00;  4.0000000E+04;  8.5674637E-06;  0.0000000E+00;  2.3540929E-04;  1.5303724E+03;
  1.6000000E-01;  9.9999998E-03; -4.3000001E-01;2302;  0.0000000E+00;  0.0000000E+00;  0.0000000E+00;  1.0000897E+03;  1.0000000E-01;  7.4368271E+01;0;  0.0000000E+00;  0.0000000E+00;  0.0000000E+00;0;  6.7976210E-04;  4.0000000E+04;  0.0000000E+00;  0.0000000E+00;  4.0000000E+04;  0.0000000E+00;  4.0000000E+04;  6.8938563E-05;  0.0000000E+00;  6.1082351E-04;  3.3959541E+03;
  1.6000000E-01;  9.9999998E-03; -4.1999999E-01;2303;  0.0000000E+00;  0.0000000E+00;  0.0000000E+00;  1.0001824E+03;  1.0000000E-01;  1.5110684E+02;0;  0.0000000E+00;  0.0000000E+00;  0.0000000E+00;0;  1.4941799E-03;  4.0000000E+04;  0.0000000E+00;  0.0000000E+00;  4.0000000E+04;  0.0000000E+00;  4.0000000E+04;  2.5661461E-04;  0.0000000E+00;  1.2375653E-03;  5.5664824E+03;
  1.6000000E-01;  9.9999998E-03; -4.1000000E-01;2304;  0.0000000E+00;  0.0000000E+00;  0.0000000E+00;  1.0003873E+03;  1.0000000E-01;  3.2087982E+02;0;  0.0000000E+00;  0.0000000E+00;  0.0000000E+00;0;  2.7844650E-03;  4.0000000E+04;  0.0000000E+00;  0.0000000E+00;  4.0000000E+04;  0.0000000E+00;  4.0000000E+04;  6.6993118E-04;  0.0000000E+00;  2.1145339E-03;  7.2508408E+03;
  1.6000000E-01;  9.9999998E-03; -4.0000001E-01;2305;  0.0000000E+00;  0.0000000E+00;  0.0000000E+00;  1.0007123E+03;  1.0000000E-01;  5.9020551E+02;0;  0.0000000E+00;  0.0000000E+00;  0.0000000E+00;0;  4.6219896E-03;  4.0000000E+04;  0.0000000E+00;  0.0000000E+00;  4.0000000E+04;  0.0000000E+00;  4.0000000E+04;  1.4218175E-03;  0.0000000E+00;  3.2001722E-03;  7.6768384E+03;
  1.6000000E-01;  9.9999998E-03; -3.8999999E-01;2306;  0.0000000E+00;  0.0000000E+00;  0.0000000E+00;  1.0011819E+03;  1.0000000E-01;  9.7913281E+02;0;  0.0000000E+00;  0.0000000E+00;  0.0000000E+00;0;  7.0696855E-03;  4.0000000E+04;  0.0000000E+00;  0.0000000E+00;  4.0000000E+04;  0.0000000E+00;  4.0000000E+04;  2.6304929E-03;  0.0000000E+00;  4.4391924E-03;  6.5378345E+03;
  1.6000000E-01;  9.9999998E-03; -3.8000000E-01;2307;  0.0000000E+00;  0.0000000E+00;  0.0000000E+00;  1.0018440E+03;  1.0000000E-01;  1.5277593E+03;0;  0.0000000E+00;  0.0000000E+00;  0.0000000E+00;0;  1.0184968E-02;  4.0000000E+04;  0.0000000E+00;  0.0000000E+00;  4.0000000E+04;  0.0000000E+00;  4.0000000E+04;  4.4052866E-03;  0.0000000E+00;  5.7796808E-03;  5.6271675E+03;
  1.6000000E-01;  9.9999998E-03; -3.7000000E-01;2308;  0.0000000E+00;  0.0000000E+00;  0.0000000E+00;  1.0027111E+03;  1.0000000E-01;  2.2460598E+03;0;  0.0000000E+00;  0.0000000E+00;  0.0000000E+00;0;  1.4002141E-02;  4.0000000E+04;  0.0000000E+00;  0.0000000E+00;  4.0000000E+04;  0.0000000E+00;  4.0000000E+04;  6.8270536E-03;  0.0000000E+00;  7.1750865E-03;  1.0316528E+04;
  1.6000000E-01;  9.9999998E-03; -3.6000001E-01;2309;  0.0000000E+00;  0.0000000E+00;  0.0000000E+00;  1.0038042E+03;  1.0000000E-01;  3.1517134E+03;0;  0.0000000E+00;  0.0000000E+00;  0.0000000E+00;0;  1.8503468E-02;  4.0000000E+04;  0.0000000E+00;  0.0000000E+00;  4.0000000E+04;  0.0000000E+00;  4.0000000E+04;  9.9267233E-03;  0.0000000E+00;  8.5767461E-03;  2.0026893E+04;
  1.6000000E-01;  9.9999998E-03; -3.4999999E-01;2310;  0.0000000E+00;  0.0000000E+00;  0.0000000E+00;  1.0050894E+03;  1.0000000E-01;  4.2164731E+03;0;  0.0000000E+00;  0.0000000E+00;  0.0000000E+00;0;  2.3589473E-02;  4.0000000E+04;  0.0000000E+00;  0.0000000E+00;  4.0000000E+04;  0.0000000E+00;  4.0000000E+04;  1.3667587E-02;  0.0000000E+00;  9.9218851E-03;  3.2699398E+04;
  1.6000000E-01;  9.9999998E-03; -3.4000000E-01;2311;  0.0000000E+00;  0.0000000E+00;  0.0000000E+00;  1.0065249E+03;  1.0000000E-01;  5.4057729E+03;0;  0.0000000E+00;  0.0000000E+00;  0.0000000E+00;0;  2.9057616E-02;  4.0000000E+04;  0.0000000E+00;  0.0000000E+00;  4.0000000E+04;  0.0000000E+00;  4.0000000E+04;  1.7938806E-02;  0.0000000E+00;  1.1118811E-02;  4.6924859E+04;
  1.6000000E-01;  9.9999998E-03; -3.3000001E-01;2312;  0.0000000E+00;  0.0000000E+00;  0.0000000E+00;  1.0080311E+03;  1.0000000E-01;  6.6535400E+03;0;  0.0000000E+00;  0.0000000E+00;  0.0000000E+00;0;  3.4598008E-02;  4.0000000E+04;  0.0000000E+00;  0.0000000E+00;  4.0000000E+04;  0.0000000E+00;  4.0000000E+04;  2.2565573E-02;  0.0000000E+00;  1.2032433E-02;  6.0910906E+04;
  1.6000000E-01;  9.9999998E-03; -3.1999999E-01;2313;  0.0000000E+00;  0.0000000E+00;  0.0000000E+00;  1.0095046E+03;  1.0000000E-01;  7.8743452E+03;0;  0.0000000E+00;  0.0000000E+00;  0.0000000E+00;0;  3.9813526E-02;  4.0000000E+04;  0.0000000E+00;  0.0000000E+00;  4.0000000E+04;  0.0000000E+00;  4.0000000E+04;  2.7336188E-02;  0.0000000E+00;  1.2477338E-02;  7.2412469E+04;
  1.6000000E-01;  9.9999998E-03; -3.1000000E-01;2314;  0.0000000E+00;  0.0000000E+00;  0.0000000E+00;  1.0108387E+03;  1.0000000E-01;  8.9796963E+03;0;  0.0000000E+00;  0.0000000E+00;  0.0000000E+00;0;  4.4272911E-02;  4.0000000E+04;  0.0000000E+00;  0.0000000E+00;  4.0000000E+04;  0.0000000E+00;  4.0000000E+04;  3.2038566E-02;  0.0000000E+00;  1.2234346E-02;  7.9145367E+04;
  1.7000000E-01;  9.9999998E-03; -4.4000000E-01;2331;  0.0000000E+00;  0.0000000E+00;  0.0000000E+00;  1.0000000E+03;  1.0000000E-01;  0.0000000E+00;0;  0.0000000E+00;  0.0000000E+00;  0.0000000E+00;0;  2.3280308E-04;  4.0000000E+04;  0.0000000E+00;  0.0000000E+00;  4.0000000E+04;  0.0000000E+00;  4.0000000E+04; -4.3828896E-07;  0.0000000E+00;  2.3324137E-04;  2.6384658E+03;
  1.7000000E-01;  9.9999998E-03; -4.3000001E-01;2332;  0.0000000E+00;  0.0000000E+00;  0.0000000E+00;  1.0000969E+03;  1.0000000E-01;  8.0294022E+01;0;  0.0000000E+00;  0.0000000E+00;  0.0000000E+00;0;  6.9344445E-04;  4.0000000E+04;  0.0000000E+00;  0.0000000E+00;  4.0000000E+04;  0.0000000E+00;  4.0000000E+04;  6.6362911E-05;  0.0000000E+00;  6.2708155E-04;  5.6323989E+03;
  1.7000000E-01;  9.9999998E-03; -4.1999999E-01;2333;  0.0000000E+00;  0.0000000E+00;  0.0000000E+00;  1.0002131E+03;  1.0000000E-01;  1.7648883E+02;0;  0.0000000E+00;  0.0000000E+00;  0.0000000E+00;0;  1.5740417E-03;  4.0000000E+04;  0.0000000E+00;  0.0000000E+00;  4.0000000E+04;  0.0000000E+00;  4.0000000E+04;  2.7813038E-04;  0.0000000E+00;  1.2959113E-03;  8.9136416E+03;
  1.7000000E-01;  9.9999998E-03; -4.1000000E-01;2334;  0.0000000E+00;  0.0000000E+00;  0.0000000E+00;  1.0004316E+03;  1.0000000E-01;  3.5761951E+02;0;  0.0000000E+00;  0.0000000E+00;  0.0000000E+00;0;  2.9742592E-03;  4.0000000E+04;  0.0000000E+00;  0.0000000E+00;  4.0000000E+04;  0.0000000E+00;  4.0000000E+04;  7.3740160E-04;  0.0000000E+00;  2.2368575E-03;  1.1203646E+04;
  1.7000000E-01;  9.9999998E-03; -4.0000001E-01;2335;  0.0000000E+00;  0.0000000E+00;  0.0000000E+00;  1.0007780E+03;  1.0000000E-01;  6.4452496E+02;0;  0.0000000E+00;  0.0000000E+00;  0.0000000E+00;0;  4.9626105E-03;  4.0000000E+04;  0.0000000E+00;  0.0000000E+00;  4.0000000E+04;  0.0000000E+00;  4.0000000E+04;  1.5609829E-03;  0.0000000E+00;  3.4016278E-03;  1.1309591E+04;
  1.7000000E-01;  9.9999998E-03; -3.8999999E-01;2336;  0.0000000E+00;  0.0000000E+00;  0.0000000E+00;  1.0012995E+03;  1.0000000E-01;  1.0766116E+03;0;  0.0000000E+00;  0.0000000E+00;  0.0000000E+00;0;  7.5993221E-03;  4.0000000E+04;  0.0000000E+00;  0.0000000E+00;  4.0000000E+04;  0.0000000E+00;  4.0000000E+04;  2.8720673E-03;  0.0000000E+00;  4.7272551E-03;  8.5881797E+03;
  1.7000000E-01;  9.9999998E-03; -3.8000000E-01;2337;  0.0000000E+00;  0.0000000E+00;  0.0000000E+00;  1.0020190E+03;  1.0000000E-01;  1.6726440E+03;0;  0.0000000E+00;  0.0000000E+00;  0.0000000E+00;0;  1.0939509E-02;  4.0000000E+04;  0.0000000E+00;  0.0000000E+00;  4.0000000E+04;  0.0000000E+00;  4.0000000E+04;  4.7841007E-03;  0.0000000E+00;  6.1554080E-03;  5.3889390E+03;
  1.7000000E-01;  9.9999998E-03; -3.7000000E-01;2338;  0.0000000E+00;  0.0000000E+00;  0.0000000E+00;  1.0029653E+03;  1.0000000E-01;  2.4567207E+03;0;  0.0000000E+00;  0.0000000E+00;  0.0000000E+00;0;  1.5012283E-02;  4.0000000E+04;  0.0000000E+00;  0.0000000E+00;  4.0000000E+04;  0.0000000E+00;  4.0000000E+04;  7.3776678E-03;  0.0000000E+00;  7.6346146E-03;  1.2912396E+04;
  1.7000000E-01;  9.9999998E-03; -3.6000001E-01;2339;  0.0000000E+00;  0.0000000E+00;  0.0000000E+00;  1.0041365E+03;  1.0000000E-01;  3.4270635E+03;0;  0.0000000E+00;  0.0000000E+00;  0.0000000E+00;0;  1.9787580E-02;  4.0000000E+04;  0.0000000E+00;  0.0000000E+00;  4.0000000E+04;  0.0000000E+00;  4.0000000E+04;  1.0675450E-02;  0.0000000E+00;  9.1121290E-03;  2.7462152E+04;
  1.7000000E-01;  9.9999998E-03; -3.4999999E-01;2340;  0.0000000E+00;  0.0000000E+00;  0.0000000E+00;  1.0055112E+03;  1.0000000E-01;  4.5659941E+03;0;  0.0000000E+00;  0.0000000E+00;  0.0000000E+00;0;  2.5142515E-02;  4.0000000E+04;  0.0000000E+00;  0.0000000E+00;  4.0000000E+04;  0.0000000E+00;  4.0000000E+04;  1.4622095E-02;  0.0000000E+00;  1.0520420E-02;  4.5513070E+04;
  1.7000000E-01;  9.9999998E-03; -3.4000000E-01;2341;  0.0000000E+00;  0.0000000E+00;  0.0000000E+00;  1.0070282E+03;  1.0000000E-01;  5.8227490E+03;0;  0.0000000E+00;  0.0000000E+00;  0.0000000E+00;0;  3.0840158E-02;  4.0000000E+04;  0.0000000E+00;  0.0000000E+00;  4.0000000E+04;  0.0000000E+00;  4.0000000E+04;  1.9078594E-02;  0.0000000E+00;  1.1761565E-02;  6.5124371E+04;
  1.7000000E-01;  9.9999998E-03; -3.3000001E-01;2342;  0.0000000E+00;  0.0000000E+00;  0.0000000E+00;  1.0085916E+03;  1.0000000E-01;  7.1179224E+03;0;  0.0000000E+00;  0.0000000E+00;  0.0000000E+00;0;  3.6530972E-02;  4.0000000E+04;  0.0000000E+00;  0.0000000E+00;  4.0000000E+04;  0.0000000E+00;  4.0000000E+04;  2.3837823E-02;  0.0000000E+00;  1.2693146E-02;  8.3736727E+04;
  1.7000000E-01;  9.9999998E-03; -3.1999999E-01;2343;  0.0000000E+00;  0.0000000E+00;  0.0000000E+00;  1.0100947E+03;  1.0000000E-01;  8.3632207E+03;0;  0.0000000E+00;  0.0000000E+00;  0.0000000E+00;0;  4.1785277E-02;  4.0000000E+04;  0.0000000E+00;  0.0000000E+00;  4.0000000E+04;  0.0000000E+00;  4.0000000E+04;  2.8661938E-02;  0.0000000E+00;  1.3123337E-02;  9.8211195E+04;
  1.7000000E-01;  9.9999998E-03; -3.1000000E-01;2344;  0.0000000E+00;  0.0000000E+00;  0.0000000E+00;  1.0114141E+03;  1.0000000E-01;  9.4563252E+03;0;  0.0000000E+00;  0.0000000E+00;  0.0000000E+00;0;  4.6162672E-02;  4.0000000E+04;  0.0000000E+00;  0.0000000E+00;  4.0000000E+04;  0.0000000E+00;  4.0000000E+04;  3.3331271E-02;  0.0000000E+00;  1.2831401E-02;  1.0549066E+05;
  1.8000001E-01;  9.9999998E-03; -4.4000000E-01;2361;  0.0000000E+00;  0.0000000E+00;  0.0000000E+00;  1.0000000E+03;  1.0000000E-01;  0.0000000E+00;0;  0.0000000E+00;  0.0000000E+00;  0.0000000E+00;0;  2.3914441E-04;  4.0000000E+04;  0.0000000E+00;  0.0000000E+00;  4.0000000E+04;  0.0000000E+00;  4.0000000E+04;  5.9741883E-06;  0.0000000E+00;  2.3317023E-04;  4.3011440E+03;
  1.8000001E-01;  9.9999998E-03; -4.3000001E-01;2362;  0.0000000E+00;  0.0000000E+00;  0.0000000E+00;  1.0000991E+03;  1.0000000E-01;  8.2071754E+01;0;  0.0000000E+00;  0.0000000E+00;  0.0000000E+00;0;  7.5510365E-04;  4.0000000E+04;  0.0000000E+00;  0.0000000E+00;  4.0000000E+04;  0.0000000E+00;  4.0000000E+04;  9.7567929E-05;  0.0000000E+00;  6.5753574E-04;  8.8430234E+03;
  1.8000001E-01;  9.9999998E-03; -4.1999999E-01;2363;  0.0000000E+00;  0.0000000E+00;  0.0000000E+00;  1.0002331E+03;  1.0000000E-01;  1.9308096E+02;0;  0.0000000E+00;  0.0000000E+00;  0.0000000E+00;0;  1.7408959E-03;  4.0000000E+04;  0.0000000E+00;  0.0000000E+00;  4.0000000E+04;  0.0000000E+00;  4.0000000E+04;  3.5385945E-04;  0.0000000E+00;  1.3870364E-03;  1.3543851E+04;
  1.8000001E-01;  9.9999998E-03; -4.1000000E-01;2364;  0.0000000E+00;  0.0000000E+00;  0.0000000E+00;  1.0004797E+03;  1.0000000E-01;  3.9742087E+02;0;  0.0000000E+00;  0.0000000E+00;  0.0000000E+00;0;  3.2910127E-03;  4.0000000E+04;  0.0000000E+00;  0.0000000E+00;  4.0000000E+04;  0.0000000E+00;  4.0000000E+04;  8.7791460E-04;  0.0000000E+00;  2.4130980E-03;  1.6531668E+04;
  1.8000001E-01;  9.9999998E-03; -4.0000001E-01;2365;  0.0000000E+00;  0.0000000E+00;  0.0000000E+00;  1.0008452E+03;  1.0000000E-01;  7.0022711E+02;0;  0.0000000E+00;  0.0000000E+00;  0.0000000E+00;0;  5.4670805E-03;  4.0000000E+04;  0.0000000E+00;  0.0000000E+00;  4.0000000E+04;  0.0000000E+00;  4.0000000E+04;  1.7890180E-03;  0.0000000E+00;  3.6780622E-03;  1.6190827E+04;
  1.8000001E-01;  9.9999998E-03; -3.8999999E-01;2366;  0.0000000E+00;  0.0000000E+00;  0.0000000E+00;  1.0014031E+03;  1.0000000E-01;  1.1624363E+03;0;  0.0000000E+00;  0.0000000E+00;  0.0000000E+00;0;  8.3268126E-03;  4.0000000E+04;  0.0000000E+00;  0.0000000E+00;  4.0000000E+04;  0.0000000E+00;  4.0000000E+04;  3.2160794E-03;  0.0000000E+00;  5.1107332E-03;  1.1578429E+04;
  1.8000001E-01;  9.9999998E-03; -3.8000000E-01;2367;  0.0000000E+00;  0.0000000E+00;  0.0000000E+00;  1.0021671E+03;  1.0000000E-01;  1.7954060E+03;0;  0.0000000E+00;  0.0000000E+00;  0.0000000E+00;0;  1.1926545E-02;  4.0000000E+04;  0.0000000E+00;  0.0000000E+00;  4.0000000E+04;  0.0000000E+00;  4.0000000E+04;  5.2796532E-03;  0.0000000E+00;  6.6468916E-03;  5.0353589E+03;
  1.8000001E-01;  9.9999998E-03; -3.7000000E-01;2368;  0.0000000E+00;  0.0000000E+00;  0.0000000E+00;  1.0031674E+03;  1.0000000E-01;  2.6241233E+03;0;  0.0000000E+00;  0.0000000E+00;  0.0000000E+00;0;  1.6296558E-02;  4.0000000E+04;  0.0000000E+00;  0.0000000E+00;  4.0000000E+04;  0.0000000E+00;  4.0000000E+04;  8.0652609E-03;  0.0000000E+00;  8.2312962E-03;  1.6094214E+04;
  1.8000001E-01;  9.9999998E-03; -3.6000001E-01;2369;  0.0000000E+00;  0.0000000E+00;  0.0000000E+00;  1.0044033E+03;  1.0000000E-01;  3.6479956E+03;0;  0.0000000E+00;  0.0000000E+00;  0.0000000E+00;0;  2.1402379E-02;  4.0000000E+04;  0.0000000E+00;  0.0000000E+00;  4.0000000E+04;  0.0000000E+00;  4.0000000E+04;  1.1594238E-02;  0.0000000E+00;  9.8081417E-03;  3.6117379E+04;
  1.8000001E-01;  9.9999998E-03; -3.4999999E-01;2370;  0.0000000E+00;  0.0000000E+00;  0.0000000E+00;  1.0058417E+03;  1.0000000E-01;  4.8397642E+03;0;  0.0000000E+00;  0.0000000E+00;  0.0000000E+00;0;  2.7105872E-02;  4.0000000E+04;  0.0000000E+00;  0.0000000E+00;  4.0000000E+04;  0.0000000E+00;  4.0000000E+04;  1.5799984E-02;  0.0000000E+00;  1.1305887E-02;  6.0158801E+04;
  1.8000001E-01;  9.9999998E-03; -3.4000000E-01;2371;  0.0000000E+00;  0.0000000E+00;  0.0000000E+00;  1.0074165E+03;  1.0000000E-01;  6.1444189E+03;0;  0.0000000E+00;  0.0000000E+00;  0.0000000E+00;0;  3.3141132E-02;  4.0000000E+04;  0.0000000E+00;  0.0000000E+00;  4.0000000E+04;  0.0000000E+00;  4.0000000E+04;  2.0520542E-02;  0.0000000E+00;  1.2620591E-02;  8.5718227E+04;
  1.8000001E-01;  9.9999998E-03; -3.3000001E-01;2372;  0.0000000E+00;  0.0000000E+00;  0.0000000E+00;  1.0090233E+03;  1.0000000E-01;  7.4756406E+03;0;  0.0000000E+00;  0.0000000E+00;  0.0000000E+00;0;  3.9118230E-02;  4.0000000E+04;  0.0000000E+00;  0.0000000E+00;  4.0000000E+04;  0.0000000E+00;  4.0000000E+04;  2.5516015E-02;  0.0000000E+00;  1.3602217E-02;  1.0938384E+05;
  1.8000001E-01;  9.9999998E-03; -3.1999999E-01;2373;  0.0000000E+00;  0.0000000E+00;  0.0000000E+00;  1.0105386E+03;  1.0000000E-01;  8.7310127E+03;0;  0.0000000E+00;  0.0000000E+00;  0.0000000E+00;0;  4.4564657E-02;  4.0000000E+04;  0.0000000E+00;  0.0000000E+00;  4.0000000E+04;  0.0000000E+00;  4.0000000E+04;  3.0512441E-02;  0.0000000E+00;  1.4052216E-02;  1.2700512E+05;
  1.8000001E-01;  9.9999998E-03; -3.1000000E-01;2374;  0.0000000E+00;  0.0000000E+00;  0.0000000E+00;  1.0118410E+03;  1.0000000E-01;  9.8100928E+03;0;  0.0000000E+00;  0.0000000E+00;  0.0000000E+00;0;  4.9012721E-02;  4.0000000E+04;  0.0000000E+00;  0.0000000E+00;  4.0000000E+04;  0.0000000E+00;  4.0000000E+04;  3.5265785E-02;  0.0000000E+00;  1.3746936E-02;  1.3461394E+05;
  1.9000000E-01;  9.9999998E-03; -4.4000000E-01;2391;  0.0000000E+00;  0.0000000E+00;  0.0000000E+00;  1.0000082E+03;  1.0000000E-01;  6.8146219E+00;0;  0.0000000E+00;  0.0000000E+00;  0.0000000E+00;0;  2.7801516E-04;  4.0000000E+04;  0.0000000E+00;  0.0000000E+00;  4.0000000E+04;  0.0000000E+00;  4.0000000E+04;  3.1807278E-05;  0.0000000E+00;  2.4620787E-04;  6.5711426E+03;
  1.9000000E-01;  9.9999998E-03; -4.3000001E-01;2392;  0.0000000E+00;  0.0000000E+00;  0.0000000E+00;  1.0001163E+03;  1.0000000E-01;  9.6293571E+01;0;  0.0000000E+00;  0.0000000E+00;  0.0000000E+00;0;  8.8867778E-04;  4.0000000E+04;  0.0000000E+00;  0.0000000E+00;  4.0000000E+04;  0.0000000E+00;  4.0000000E+04;  1.6343518E-04;  0.0000000E+00;  7.2524260E-04;  1.3028206E+04;
  1.9000000E-01;  9.9999998E-03; -4.1999999E-01;2393;  0.0000000E+00;  0.0000000E+00;  0.0000000E+00;  1.0002666E+03;  1.0000000E-01;  2.2083327E+02;0;  0.0000000E+00;  0.0000000E+00;  0.0000000E+00;0;  2.0245444E-03;  4.0000000E+04;  0.0000000E+00;  0.0000000E+00;  4.0000000E+04;  0.0000000E+00;  4.0000000E+04;  4.7630782E-04;  0.0000000E+00;  1.5482367E-03;  1.9327674E+04;
  1.9000000E-01;  9.9999998E-03; -4.1000000E-01;2394;  0.0000000E+00;  0.0000000E+00;  0.0000000E+00;  1.0005206E+03;  1.0000000E-01;  4.3129645E+02;0;  0.0000000E+00;  0.0000000E+00;  0.0000000E+00;0;  3.7658252E-03;  4.0000000E+04;  0.0000000E+00;  0.0000000E+00;  4.0000000E+04;  0.0000000E+00;  4.0000000E+04;  1.0710775E-03;  0.0000000E+00;  2.6947476E-03;  2.2964805E+04;
  1.9000000E-01;  9.9999998E-03; -4.0000001E-01;2395;  0.0000000E+00;  0.0000000E+00;  0.0000000E+00;  1.0009033E+03;  1.0000000E-01;  7.4842328E+02;0;  0.0000000E+00;  0.0000000E+00;  0.0000000E+00;0;  6.1628995E-03;  4.0000000E+04;  0.0000000E+00;  0.0000000E+00;  4.0000000E+04;  0.0000000E+00;  4.0000000E+04;  2.0691622E-03;  0.0000000E+00;  4.0937373E-03;  2.1982336E+04;
  1.9000000E-01;  9.9999998E-03; -3.8999999E-01;2396;  0.0000000E+00;  0.0000000E+00;  0.0000000E+00;  1.0014746E+03;  1.0000000E-01;  1.2216938E+03;0;  0.0000000E+00;  0.0000000E+00;  0.0000000E+00;0;  9.2710154E-03;  4.0000000E+04;  0.0000000E+00;  0.0000000E+00;  4.0000000E+04;  0.0000000E+00;  4.0000000E+04;  3.6062596E-03;  0.0000000E+00;  5.6647556E-03;  1.5271602E+04;
  1.9000000E-01;  9.9999998E-03; -3.8000000E-01;2397;  0.0000000E+00;  0.0000000E+00;  0.0000000E+00;  1.0022699E+03;  1.0000000E-01;  1.8805394E+03;0;  0.0000000E+00;  0.0000000E+00;  0.0000000E+00;0;  1.3151297E-02;  4.0000000E+04;  0.0000000E+00;  0.0000000E+00;  4.0000000E+04;  0.0000000E+00;  4.0000000E+04;  5.8125043E-03;  0.0000000E+00;  7.3387930E-03;  4.6941069E+03;
  1.9000000E-01;  9.9999998E-03; -3.7000000E-01;2398;  0.0000000E+00;  0.0000000E+00;  0.0000000E+00;  1.0032974E+03;  1.0000000E-01;  2.7318733E+03;0;  0.0000000E+00;  0.0000000E+00;  0.0000000E+00;0;  1.7841944E-02;  4.0000000E+04;  0.0000000E+00;  0.0000000E+00;  4.0000000E+04;  0.0000000E+00;  4.0000000E+04;  8.7831728E-03;  0.0000000E+00;  9.0587717E-03;  1.9374967E+04;
  1.9000000E-01;  9.9999998E-03; -3.6000001E-01;2399;  0.0000000E+00;  0.0000000E+00;  0.0000000E+00;  1.0045631E+03;  1.0000000E-01;  3.7804363E+03;0;  0.0000000E+00;  0.0000000E+00;  0.0000000E+00;0;  2.3313964E-02;  4.0000000E+04;  0.0000000E+00;  0.0000000E+00;  4.0000000E+04;  0.0000000E+00;  4.0000000E+04;  1.2546044E-02;  0.0000000E+00;  1.0767920E-02;  4.4910637E+04;
  1.9000000E-01;  9.9999998E-03; -3.4999999E-01;2400;  0.0000000E+00;  0.0000000E+00;  0.0000000E+00;  1.0060339E+03;  1.0000000E-01;  4.9989697E+03;0;  0.0000000E+00;  0.0000000E+00;  0.0000000E+00;0;  2.9426031E-02;  4.0000000E+04;  0.0000000E+00;  0.0000000E+00;  4.0000000E+04;  0.0000000E+00;  4.0000000E+04;  1.7033618E-02;  0.0000000E+00;  1.2392413E-02;  7.4925930E+04;
  1.9000000E-01;  9.9999998E-03; -3.4000000E-01;2401;  0.0000000E+00;  0.0000000E+00;  0.0000000E+00;  1.0076367E+03;  1.0000000E-01;  6.3268335E+03;0;  0.0000000E+00;  0.0000000E+00;  0.0000000E+00;0;  3.5894863E-02;  4.0000000E+04;  0.0000000E+00;  0.0000000E+00;  4.0000000E+04;  0.0000000E+00;  4.0000000E+04;  2.2071939E-02;  0.0000000E+00;  1.3822926E-02;  1.0639875E+05;
  1.9000000E-01;  9.9999998E-03; -3.3000001E-01;2402;  0.0000000E+00;  0.0000000E+00;  0.0000000E+00;  1.0092572E+03;  1.0000000E-01;  7.6694126E+03;0;  0.0000000E+00;  0.0000000E+00;  0.0000000E+00;0;  4.2295732E-02;  4.0000000E+04;  0.0000000E+00;  0.0000000E+00;  4.0000000E+04;  0.0000000E+00;  4.0000000E+04;  2.7395109E-02;  0.0000000E+00;  1.4900621E-02;  1.3511386E+05;
  1.9000000E-01;  9.9999998E-03; -3.1999999E-01;2403;  0.0000000E+00;  0.0000000E+00;  0.0000000E+00;  1.0107731E+03;  1.0000000E-01;  8.9253770E+03;0;  0.0000000E+00;  0.0000000E+00;  0.0000000E+00;0;  4.8105791E-02;  4.0000000E+04;  0.0000000E+00;  0.0000000E+00;  4.0000000E+04;  0.0000000E+00;  4.0000000E+04;  3.2688975E-02;  0.0000000E+00;  1.5416814E-02;  1.5591806E+05;
  1.9000000E-01;  9.9999998E-03; -3.1000000E-01;2404;  0.0000000E+00;  0.0000000E+00;  0.0000000E+00;  1.0120460E+03;  1.0000000E-01;  9.9798662E+03;0;  0.0000000E+00;  0.0000000E+00;  0.0000000E+00;0;  5.2804019E-02;  4.0000000E+04;  0.0000000E+00;  0.0000000E+00;  4.0000000E+04;  0.0000000E+00;  4.0000000E+04;  3.7662808E-02;  0.0000000E+00;  1.5141211E-02;  1.6385484E+05;
  2.0000000E-01;  9.9999998E-03; -4.4000000E-01;2420;  0.0000000E+00;  0.0000000E+00;  0.0000000E+00;  1.0000304E+03;  1.0000000E-01;  2.5184473E+01;0;  0.0000000E+00;  0.0000000E+00;  0.0000000E+00;0;  3.6308772E-04;  4.0000000E+04;  0.0000000E+00;  0.0000000E+00;  4.0000000E+04;  0.0000000E+00;  4.0000000E+04;  7.3832132E-05;  0.0000000E+00;  2.8925558E-04;  9.3913184E+03;
  2.0000000E-01;  9.9999998E-03; -4.3000001E-01;2421;  0.0000000E+00;  0.0000000E+00;  0.0000000E+00;  1.0001308E+03;  1.0000000E-01;  1.0834261E+02;0;  0.0000000E+00;  0.0000000E+00;  0.0000000E+00;0;  1.1137807E-03;  4.0000000E+04;  0.0000000E+00;  0.0000000E+00;  4.0000000E+04;  0.0000000E+00;  4.0000000E+04;  2.5123041E-04;  0.0000000E+00;  8.6255022E-04;  1.8003787E+04;
  2.0000000E-01;  9.9999998E-03; -4.1999999E-01;2422;  0.0000000E+00;  0.0000000E+00;  0.0000000E+00;  1.0002852E+03;  1.0000000E-01;  2.3624023E+02;0;  0.0000000E+00;  0.0000000E+00;  0.0000000E+00;0;  2.4471518E-03;  4.0000000E+04;  0.0000000E+00;  0.0000000E+00;  4.0000000E+04;  0.0000000E+00;  4.0000000E+04;  6.1881175E-04;  0.0000000E+00;  1.8283401E-03;  2.5910664E+04;
  2.0000000E-01;  9.9999998E-03; -4.1000000E-01;2423;  0.0000000E+00;  0.0000000E+00;  0.0000000E+00;  1.0005472E+03;  1.0000000E-01;  4.5332053E+02;0;  0.0000000E+00;  0.0000000E+00;  0.0000000E+00;0;  4.4194763E-03;  4.0000000E+04;  0.0000000E+00;  0.0000000E+00;  4.0000000E+04;  0.0000000E+00;  4.0000000E+04;  1.2739300E-03;  0.0000000E+00;  3.1455464E-03;  3.0016559E+04;
  2.0000000E-01;  9.9999998E-03; -4.0000001E-01;2424;  0.0000000E+00;  0.0000000E+00;  0.0000000E+00;  1.0009548E+03;  1.0000000E-01;  7.9108875E+02;0;  0.0000000E+00;  0.0000000E+00;  0.0000000E+00;0;  7.0648398E-03;  4.0000000E+04;  0.0000000E+00;  0.0000000E+00;  4.0000000E+04;  0.0000000E+00;  4.0000000E+04;  2.3405531E-03;  0.0000000E+00;  4.7242870E-03;  2.8170121E+04;
  2.0000000E-01;  9.9999998E-03; -3.8999999E-01;2425;  0.0000000E+00;  0.0000000E+00;  0.0000000E+00;  1.0015335E+03;  1.0000000E-01;  1.2704825E+03;0;  0.0000000E+00;  0.0000000E+00;  0.0000000E+00;0;  1.0434842E-02;  4.0000000E+04;  0.0000000E+00;  0.0000000E+00;  4.0000000E+04;  0.0000000E+00;  4.0000000E+04;  3.9612832E-03;  0.0000000E+00;  6.4735580E-03;  1.9271340E+04;
  2.0000000E-01;  9.9999998E-03; -3.8000000E-01;2426;  0.0000000E+00;  0.0000000E+00;  0.0000000E+00;  1.0023248E+03;  1.0000000E-01;  1.9260690E+03;0;  0.0000000E+00;  0.0000000E+00;  0.0000000E+00;0;  1.4597237E-02;  4.0000000E+04;  0.0000000E+00;  0.0000000E+00;  4.0000000E+04;  0.0000000E+00;  4.0000000E+04;  6.2760604E-03;  0.0000000E+00;  8.3211772E-03;  4.5662769E+03;
  2.0000000E-01;  9.9999998E-03; -3.7000000E-01;2427;  0.0000000E+00;  0.0000000E+00;  0.0000000E+00;  1.0033585E+03;  1.0000000E-01;  2.7824399E+03;0;  0.0000000E+00;  0.0000000E+00;  0.0000000E+00;0;  1.9603033E-02;  4.0000000E+04;  0.0000000E+00;  0.0000000E+00;  4.0000000E+04;  0.0000000E+00;  4.0000000E+04;  9.3916822E-03;  0.0000000E+00;  1.0211350E-02;  2.2231010E+04;
  2.0000000E-01;  9.9999998E-03; -3.6000001E-01;2428;  0.0000000E+00;  0.0000000E+00;  0.0000000E+00;  1.0046259E+03;  1.0000000E-01;  3.8324841E+03;0;  0.0000000E+00;  0.0000000E+00;  0.0000000E+00;0;  2.5437063E-02;  4.0000000E+04;  0.0000000E+00;  0.0000000E+00;  4.0000000E+04;  0.0000000E+00;  4.0000000E+04;  1.3347230E-02;  0.0000000E+00;  1.2089833E-02;  5.2660133E+04;
  2.0000000E-01;  9.9999998E-03; -3.4999999E-01;2429;  0.0000000E+00;  0.0000000E+00;  0.0000000E+00;  1.0060963E+03;  1.0000000E-01;  5.0507212E+03;0;  0.0000000E+00;  0.0000000E+00;  0.0000000E+00;0;  3.1967301E-02;  4.0000000E+04;  0.0000000E+00;  0.0000000E+00;  4.0000000E+04;  0.0000000E+00;  4.0000000E+04;  1.8083580E-02;  0.0000000E+00;  1.3883722E-02;  8.7860773E+04;
  2.0000000E-01;  9.9999998E-03; -3.4000000E-01;2430;  0.0000000E+00;  0.0000000E+00;  0.0000000E+00;  1.0076882E+03;  1.0000000E-01;  6.3694990E+03;0;  0.0000000E+00;  0.0000000E+00;  0.0000000E+00;0;  3.8908724E-02;  4.0000000E+04;  0.0000000E+00;  0.0000000E+00;  4.0000000E+04;  0.0000000E+00;  4.0000000E+04;  2.3428101E-02;  0.0000000E+00;  1.5480622E-02;  1.2441139E+05;
  2.0000000E-01;  9.9999998E-03; -3.3000001E-01;2431;  0.0000000E+00;  0.0000000E+00;  0.0000000E+00;  1.0092962E+03;  1.0000000E-01;  7.7017080E+03;0;  0.0000000E+00;  0.0000000E+00;  0.0000000E+00;0;  4.5816205E-02;  4.0000000E+04;  0.0000000E+00;  0.0000000E+00;  4.0000000E+04;  0.0000000E+00;  4.0000000E+04;  2.9104199E-02;  0.0000000E+00;  1.6712004E-02;  1.5747794E+05;
  2.0000000E-01;  9.9999998E-03; -3.1999999E-01;2432;  0.0000000E+00;  0.0000000E+00;  0.0000000E+00;  1.0107844E+03;  1.0000000E-01;  8.9346611E+03;0;  0.0000000E+00;  0.0000000E+00;  0.0000000E+00;0;  5.2120842E-02;  4.0000000E+04;  0.0000000E+00;  0.0000000E+00;  4.0000000E+04;  0.0000000E+00;  4.0000000E+04;  3.4768797E-02;  0.0000000E+00;  1.7352046E-02;  1.8111044E+05;
  2.0000000E-01;  9.9999998E-03; -3.1000000E-01;2433;  0.0000000E+00;  0.0000000E+00;  0.0000000E+00;  1.0120170E+03;  1.0000000E-01;  9.9558662E+03;0;  0.0000000E+00;  0.0000000E+00;  0.0000000E+00;0;  5.7228580E-02;  4.0000000E+04;  0.0000000E+00;  0.0000000E+00;  4.0000000E+04;  0.0000000E+00;  4.0000000E+04;  4.0076781E-02;  0.0000000E+00;  1.7151797E-02;  1.8949259E+05;
 -1.9000000E-01;  9.9999998E-03; -2.7000001E-01;107;  0.0000000E+00;  0.0000000E+00;  0.0000000E+00;  1.0000000E+03;  1.0000000E-01;  0.0000000E+00;0;  0.0000000E+00;  0.0000000E+00;  0.0000000E+00;0;  0.0000000E+00;  4.0000000E+04;  0.0000000E+00;  0.0000000E+00;  4.0000000E+04;  0.0000000E+00;  4.0000000E+04;  0.0000000E+00;  0.0000000E+00;  0.0000000E+00;  0.0000000E+00;
 -1.9000000E-01;  9.9999998E-03; -2.5999999E-01;108;  0.0000000E+00;  0.0000000E+00;  0.0000000E+00;  1.0000000E+03;  1.0000000E-01;  0.0000000E+00;0;  0.0000000E+00;  0.0000000E+00;  0.0000000E+00;0;  0.0000000E+00;  4.0000000E+04;  0.0000000E+00;  0.0000000E+00;  4.0000000E+04;  0.0000000E+00;  4.0000000E+04;  0.0000000E+00;  0.0000000E+00;  0.0000000E+00;  0.0000000E+00;
 -1.9000000E-01;  9.9999998E-03; -2.5000000E-01;109;  0.0000000E+00;  0.0000000E+00;  0.0000000E+00;  1.0000000E+03;  1.0000000E-01;  0.0000000E+00;0;  0.0000000E+00;  0.0000000E+00;  0.0000000E+00;0;  0.0000000E+00;  4.0000000E+04;  0.0000000E+00;  0.0000000E+00;  4.0000000E+04;  0.0000000E+00;  4.0000000E+04;  0.0000000E+00;  0.0000000E+00;  0.0000000E+00;  0.0000000E+00;
 -1.9000000E-01;  9.9999998E-03; -2.3999999E-01;110;  0.0000000E+00;  0.0000000E+00;  0.0000000E+00;  1.0000000E+03;  1.0000000E-01;  0.0000000E+00;0;  0.0000000E+00;  0.0000000E+00;  0.0000000E+00;0;  0.0000000E+00;  4.0000000E+04;  0.0000000E+00;  0.0000000E+00;  4.0000000E+04;  0.0000000E+00;  4.0000000E+04;  0.0000000E+00;  0.0000000E+00;  0.0000000E+00;  0.0000000E+00;
 -1.9000000E-01;  9.9999998E-03; -2.3000000E-01;111;  0.0000000E+00;  0.0000000E+00;  0.0000000E+00;  1.0000000E+03;  1.0000000E-01;  0.0000000E+00;0;  0.0000000E+00;  0.0000000E+00;  0.0000000E+00;0;  0.0000000E+00;  4.0000000E+04;  0.0000000E+00;  0.0000000E+00;  4.0000000E+04;  0.0000000E+00;  4.0000000E+04;  0.0000000E+00;  0.0000000E+00;  0.0000000E+00;  0.0000000E+00;
 -1.9000000E-01;  9.9999998E-03; -2.2000000E-01;112;  0.0000000E+00;  0.0000000E+00;  0.0000000E+00;  1.0000000E+03;  1.0000000E-01;  0.0000000E+00;0;  0.0000000E+00;  0.0000000E+00;  0.0000000E+00;0;  0.0000000E+00;  4.0000000E+04;  0.0000000E+00;  0.0000000E+00;  4.0000000E+04;  0.0000000E+00;  4.0000000E+04;  0.0000000E+00;  0.0000000E+00;  0.0000000E+00;  0.0000000E+00;
 -1.9000000E-01;  9.9999998E-03; -2.0999999E-01;113;  0.0000000E+00;  0.0000000E+00;  0.0000000E+00;  1.0000000E+03;  1.0000000E-01;  0.0000000E+00;0;  0.0000000E+00;  0.0000000E+00;  0.0000000E+00;0;  0.0000000E+00;  4.0000000E+04;  0.0000000E+00;  0.0000000E+00;  4.0000000E+04;  0.0000000E+00;  4.0000000E+04;  0.0000000E+00;  0.0000000E+00;  0.0000000E+00;  0.0000000E+00;
 -1.9000000E-01;  9.9999998E-03; -2.0000000E-01;114;  0.0000000E+00;  0.0000000E+00;  0.0000000E+00;  1.0000000E+03;  1.0000000E-01;  0.0000000E+00;0;  0.0000000E+00;  0.0000000E+00;  0.0000000E+00;0;  0.0000000E+00;  4.0000000E+04;  0.0000000E+00;  0.0000000E+00;  4.0000000E+04;  0.0000000E+00;  4.0000000E+04;  0.0000000E+00;  0.0000000E+00;  0.0000000E+00;  0.0000000E+00;
 -1.9000000E-01;  9.9999998E-03; -1.9000000E-01;115;  0.0000000E+00;  0.0000000E+00;  0.0000000E+00;  1.0000000E+03;  1.0000000E-01;  0.0000000E+00;0;  0.0000000E+00;  0.0000000E+00;  0.0000000E+00;0;  0.0000000E+00;  4.0000000E+04;  0.0000000E+00;  0.0000000E+00;  4.0000000E+04;  0.0000000E+00;  4.0000000E+04;  0.0000000E+00;  0.0000000E+00;  0.0000000E+00;  0.0000000E+00;
 -1.9000000E-01;  9.9999998E-03; -1.8000001E-01;116;  0.0000000E+00;  0.0000000E+00;  0.0000000E+00;  1.0000000E+03;  1.0000000E-01;  0.0000000E+00;0;  0.0000000E+00;  0.0000000E+00;  0.0000000E+00;0;  0.0000000E+00;  4.0000000E+04;  0.0000000E+00;  0.0000000E+00;  4.0000000E+04;  0.0000000E+00;  4.0000000E+04;  0.0000000E+00;  0.0000000E+00;  0.0000000E+00;  0.0000000E+00;
 -1.9000000E-01;  9.9999998E-03; -1.7000000E-01;117;  0.0000000E+00;  0.0000000E+00;  0.0000000E+00;  1.0000000E+03;  1.0000000E-01;  0.0000000E+00;0;  0.0000000E+00;  0.0000000E+00;  0.0000000E+00;0;  0.0000000E+00;  4.0000000E+04;  0.0000000E+00;  0.0000000E+00;  4.0000000E+04;  0.0000000E+00;  4.0000000E+04;  0.0000000E+00;  0.0000000E+00;  0.0000000E+00;  0.0000000E+00;
 -1.9000000E-01;  9.9999998E-03; -1.6000000E-01;118;  0.0000000E+00;  0.0000000E+00;  0.0000000E+00;  1.0000000E+03;  1.0000000E-01;  0.0000000E+00;0;  0.0000000E+00;  0.0000000E+00;  0.0000000E+00;0;  0.0000000E+00;  4.0000000E+04;  0.0000000E+00;  0.0000000E+00;  4.0000000E+04;  0.0000000E+00;  4.0000000E+04;  0.0000000E+00;  0.0000000E+00;  0.0000000E+00;  0.0000000E+00;
 -1.9000000E-01;  9.9999998E-03; -1.5000001E-01;119;  0.0000000E+00;  0.0000000E+00;  0.0000000E+00;  1.0000000E+03;  1.0000000E-01;  0.0000000E+00;0;  0.0000000E+00;  0.0000000E+00;  0.0000000E+00;0;  0.0000000E+00;  4.0000000E+04;  0.0000000E+00;  0.0000000E+00;  4.0000000E+04;  0.0000000E+00;  4.0000000E+04;  0.0000000E+00;  0.0000000E+00;  0.0000000E+00;  0.0000000E+00;
 -1.9000000E-01;  9.9999998E-03; -1.4000000E-01;120;  0.0000000E+00;  0.0000000E+00;  0.0000000E+00;  1.0000000E+03;  1.0000000E-01;  0.0000000E+00;0;  0.0000000E+00;  0.0000000E+00;  0.0000000E+00;0;  0.0000000E+00;  4.0000000E+04;  0.0000000E+00;  0.0000000E+00;  4.0000000E+04;  0.0000000E+00;  4.0000000E+04;  0.0000000E+00;  0.0000000E+00;  0.0000000E+00;  0.0000000E+00;
 -1.9000000E-01;  9.9999998E-03; -1.3000000E-01;121;  0.0000000E+00;  0.0000000E+00;  0.0000000E+00;  1.0000000E+03;  1.0000000E-01;  0.0000000E+00;0;  0.0000000E+00;  0.0000000E+00;  0.0000000E+00;0;  0.0000000E+00;  4.0000000E+04;  0.0000000E+00;  0.0000000E+00;  4.0000000E+04;  0.0000000E+00;  4.0000000E+04;  0.0000000E+00;  0.0000000E+00;  0.0000000E+00;  0.0000000E+00;
 -1.9000000E-01;  9.9999998E-03; -1.2000000E-01;122;  0.0000000E+00;  0.0000000E+00;  0.0000000E+00;  1.0000000E+03;  1.0000000E-01;  0.0000000E+00;0;  0.0000000E+00;  0.0000000E+00;  0.0000000E+00;0;  0.0000000E+00;  4.0000000E+04;  0.0000000E+00;  0.0000000E+00;  4.0000000E+04;  0.0000000E+00;  4.0000000E+04;  0.0000000E+00;  0.0000000E+00;  0.0000000E+00;  0.0000000E+00;
 -1.9000000E-01;  9.9999998E-03; -1.1000000E-01;123;  0.0000000E+00;  0.0000000E+00;  0.0000000E+00;  1.0000000E+03;  1.0000000E-01;  0.0000000E+00;0;  0.0000000E+00;  0.0000000E+00;  0.0000000E+00;0;  0.0000000E+00;  4.0000000E+04;  0.0000000E+00;  0.0000000E+00;  4.0000000E+04;  0.0000000E+00;  4.0000000E+04;  0.0000000E+00;  0.0000000E+00;  0.0000000E+00;  0.0000000E+00;
 -1.8000001E-01;  9.9999998E-03; -2.7000001E-01;198;  0.0000000E+00;  0.0000000E+00;  0.0000000E+00;  1.0000000E+03;  1.0000000E-01;  0.0000000E+00;0;  0.0000000E+00;  0.0000000E+00;  0.0000000E+00;0;  0.0000000E+00;  4.0000000E+04;  0.0000000E+00;  0.0000000E+00;  4.0000000E+04;  0.0000000E+00;  4.0000000E+04;  0.0000000E+00;  0.0000000E+00;  0.0000000E+00;  0.0000000E+00;
 -1.8000001E-01;  9.9999998E-03; -2.5999999E-01;199;  0.0000000E+00;  0.0000000E+00;  0.0000000E+00;  1.0000000E+03;  1.0000000E-01;  0.0000000E+00;0;  0.0000000E+00;  0.0000000E+00;  0.0000000E+00;0;  0.0000000E+00;  4.0000000E+04;  0.0000000E+00;  0.0000000E+00;  4.0000000E+04;  0.0000000E+00;  4.0000000E+04;  0.0000000E+00;  0.0000000E+00;  0.0000000E+00;  0.0000000E+00;
 -1.8000001E-01;  9.9999998E-03; -2.5000000E-01;200;  0.0000000E+00;  0.0000000E+00;  0.0000000E+00;  1.0000000E+03;  1.0000000E-01;  0.0000000E+00;0;  0.0000000E+00;  0.0000000E+00;  0.0000000E+00;0;  0.0000000E+00;  4.0000000E+04;  0.0000000E+00;  0.0000000E+00;  4.0000000E+04;  0.0000000E+00;  4.0000000E+04;  0.0000000E+00;  0.0000000E+00;  0.0000000E+00;  0.0000000E+00;
 -1.8000001E-01;  9.9999998E-03; -2.3999999E-01;201;  0.0000000E+00;  0.0000000E+00;  0.0000000E+00;  1.0000000E+03;  1.0000000E-01;  0.0000000E+00;0;  0.0000000E+00;  0.0000000E+00;  0.0000000E+00;0;  0.0000000E+00;  4.0000000E+04;  0.0000000E+00;  0.0000000E+00;  4.0000000E+04;  0.0000000E+00;  4.0000000E+04;  0.0000000E+00;  0.0000000E+00;  0.0000000E+00;  0.0000000E+00;
 -1.8000001E-01;  9.9999998E-03; -2.3000000E-01;202;  0.0000000E+00;  0.0000000E+00;  0.0000000E+00;  1.0000000E+03;  1.0000000E-01;  0.0000000E+00;0;  0.0000000E+00;  0.0000000E+00;  0.0000000E+00;0;  0.0000000E+00;  4.0000000E+04;  0.0000000E+00;  0.0000000E+00;  4.0000000E+04;  0.0000000E+00;  4.0000000E+04;  0.0000000E+00;  0.0000000E+00;  0.0000000E+00;  0.0000000E+00;
 -1.8000001E-01;  9.9999998E-03; -2.2000000E-01;203;  0.0000000E+00;  0.0000000E+00;  0.0000000E+00;  1.0000000E+03;  1.0000000E-01;  0.0000000E+00;0;  0.0000000E+00;  0.0000000E+00;  0.0000000E+00;0;  0.0000000E+00;  4.0000000E+04;  0.0000000E+00;  0.0000000E+00;  4.0000000E+04;  0.0000000E+00;  4.0000000E+04;  0.0000000E+00;  0.0000000E+00;  0.0000000E+00;  0.0000000E+00;
 -1.8000001E-01;  9.9999998E-03; -2.0999999E-01;204;  0.0000000E+00;  0.0000000E+00;  0.0000000E+00;  1.0000000E+03;  1.0000000E-01;  0.0000000E+00;0;  0.0000000E+00;  0.0000000E+00;  0.0000000E+00;0;  0.0000000E+00;  4.0000000E+04;  0.0000000E+00;  0.0000000E+00;  4.0000000E+04;  0.0000000E+00;  4.0000000E+04;  0.0000000E+00;  0.0000000E+00;  0.0000000E+00;  0.0000000E+00;
 -1.8000001E-01;  9.9999998E-03; -2.0000000E-01;205;  0.0000000E+00;  0.0000000E+00;  0.0000000E+00;  1.0000000E+03;  1.0000000E-01;  0.0000000E+00;0;  0.0000000E+00;  0.0000000E+00;  0.0000000E+00;0;  0.0000000E+00;  4.0000000E+04;  0.0000000E+00;  0.0000000E+00;  4.0000000E+04;  0.0000000E+00;  4.0000000E+04;  0.0000000E+00;  0.0000000E+00;  0.0000000E+00;  0.0000000E+00;
 -1.8000001E-01;  9.9999998E-03; -1.9000000E-01;206;  0.0000000E+00;  0.0000000E+00;  0.0000000E+00;  1.0000000E+03;  1.0000000E-01;  0.0000000E+00;0;  0.0000000E+00;  0.0000000E+00;  0.0000000E+00;0;  0.0000000E+00;  4.0000000E+04;  0.0000000E+00;  0.0000000E+00;  4.0000000E+04;  0.0000000E+00;  4.0000000E+04;  0.0000000E+00;  0.0000000E+00;  0.0000000E+00;  0.0000000E+00;
 -1.8000001E-01;  9.9999998E-03; -1.8000001E-01;207;  0.0000000E+00;  0.0000000E+00;  0.0000000E+00;  1.0000000E+03;  1.0000000E-01;  0.0000000E+00;0;  0.0000000E+00;  0.0000000E+00;  0.0000000E+00;0;  0.0000000E+00;  4.0000000E+04;  0.0000000E+00;  0.0000000E+00;  4.0000000E+04;  0.0000000E+00;  4.0000000E+04;  0.0000000E+00;  0.0000000E+00;  0.0000000E+00;  0.0000000E+00;
 -1.8000001E-01;  9.9999998E-03; -1.7000000E-01;208;  0.0000000E+00;  0.0000000E+00;  0.0000000E+00;  1.0000000E+03;  1.0000000E-01;  0.0000000E+00;0;  0.0000000E+00;  0.0000000E+00;  0.0000000E+00;0;  0.0000000E+00;  4.0000000E+04;  0.0000000E+00;  0.0000000E+00;  4.0000000E+04;  0.0000000E+00;  4.0000000E+04;  0.0000000E+00;  0.0000000E+00;  0.0000000E+00;  0.0000000E+00;
 -1.8000001E-01;  9.9999998E-03; -1.6000000E-01;209;  0.0000000E+00;  0.0000000E+00;  0.0000000E+00;  1.0000000E+03;  1.0000000E-01;  0.0000000E+00;0;  0.0000000E+00;  0.0000000E+00;  0.0000000E+00;0;  0.0000000E+00;  4.0000000E+04;  0.0000000E+00;  0.0000000E+00;  4.0000000E+04;  0.0000000E+00;  4.0000000E+04;  0.0000000E+00;  0.0000000E+00;  0.0000000E+00;  0.0000000E+00;
 -1.8000001E-01;  9.9999998E-03; -1.5000001E-01;210;  0.0000000E+00;  0.0000000E+00;  0.0000000E+00;  1.0000000E+03;  1.0000000E-01;  0.0000000E+00;0;  0.0000000E+00;  0.0000000E+00;  0.0000000E+00;0;  0.0000000E+00;  4.0000000E+04;  0.0000000E+00;  0.0000000E+00;  4.0000000E+04;  0.0000000E+00;  4.0000000E+04;  0.0000000E+00;  0.0000000E+00;  0.0000000E+00;  0.0000000E+00;
 -1.8000001E-01;  9.9999998E-03; -1.4000000E-01;211;  0.0000000E+00;  0.0000000E+00;  0.0000000E+00;  1.0000000E+03;  1.0000000E-01;  0.0000000E+00;0;  0.0000000E+00;  0.0000000E+00;  0.0000000E+00;0;  0.0000000E+00;  4.0000000E+04;  0.0000000E+00;  0.0000000E+00;  4.0000000E+04;  0.0000000E+00;  4.0000000E+04;  0.0000000E+00;  0.0000000E+00;  0.0000000E+00;  0.0000000E+00;
 -1.8000001E-01;  9.9999998E-03; -1.3000000E-01;212;  0.0000000E+00;  0.0000000E+00;  0.0000000E+00;  1.0000000E+03;  1.0000000E-01;  0.0000000E+00;0;  0.0000000E+00;  0.0000000E+00;  0.0000000E+00;0;  0.0000000E+00;  4.0000000E+04;  0.0000000E+00;  0.0000000E+00;  4.0000000E+04;  0.0000000E+00;  4.0000000E+04;  0.0000000E+00;  0.0000000E+00;  0.0000000E+00;  0.0000000E+00;
 -1.8000001E-01;  9.9999998E-03; -1.2000000E-01;213;  0.0000000E+00;  0.0000000E+00;  0.0000000E+00;  1.0000000E+03;  1.0000000E-01;  0.0000000E+00;0;  0.0000000E+00;  0.0000000E+00;  0.0000000E+00;0;  0.0000000E+00;  4.0000000E+04;  0.0000000E+00;  0.0000000E+00;  4.0000000E+04;  0.0000000E+00;  4.0000000E+04;  0.0000000E+00;  0.0000000E+00;  0.0000000E+00;  0.0000000E+00;
 -1.8000001E-01;  9.9999998E-03; -1.1000000E-01;214;  0.0000000E+00;  0.0000000E+00;  0.0000000E+00;  1.0000000E+03;  1.0000000E-01;  0.0000000E+00;0;  0.0000000E+00;  0.0000000E+00;  0.0000000E+00;0;  0.0000000E+00;  4.0000000E+04;  0.0000000E+00;  0.0000000E+00;  4.0000000E+04;  0.0000000E+00;  4.0000000E+04;  0.0000000E+00;  0.0000000E+00;  0.0000000E+00;  0.0000000E+00;
 -1.7000000E-01;  9.9999998E-03; -2.7000001E-01;289;  0.0000000E+00;  0.0000000E+00;  0.0000000E+00;  1.0000000E+03;  1.0000000E-01;  0.0000000E+00;0;  0.0000000E+00;  0.0000000E+00;  0.0000000E+00;0;  0.0000000E+00;  4.0000000E+04;  0.0000000E+00;  0.0000000E+00;  4.0000000E+04;  0.0000000E+00;  4.0000000E+04;  0.0000000E+00;  0.0000000E+00;  0.0000000E+00;  9.0627929E-11;
 -1.7000000E-01;  9.9999998E-03; -2.5999999E-01;290;  0.0000000E+00;  0.0000000E+00;  0.0000000E+00;  1.0000000E+03;  1.0000000E-01;  0.0000000E+00;0;  0.0000000E+00;  0.0000000E+00;  0.0000000E+00;0;  0.0000000E+00;  4.0000000E+04;  0.0000000E+00;  0.0000000E+00;  4.0000000E+04;  0.0000000E+00;  4.0000000E+04;  0.0000000E+00;  0.0000000E+00;  0.0000000E+00;  2.4658295E-10;
 -1.7000000E-01;  9.9999998E-03; -2.5000000E-01;291;  0.0000000E+00;  0.0000000E+00;  0.0000000E+00;  1.0000000E+03;  1.0000000E-01;  0.0000000E+00;0;  0.0000000E+00;  0.0000000E+00;  0.0000000E+00;0;  0.0000000E+00;  4.0000000E+04;  0.0000000E+00;  0.0000000E+00;  4.0000000E+04;  0.0000000E+00;  4.0000000E+04;  0.0000000E+00;  0.0000000E+00;  0.0000000E+00;  4.6683907E-10;
 -1.7000000E-01;  9.9999998E-03; -2.3999999E-01;292;  0.0000000E+00;  0.0000000E+00;  0.0000000E+00;  1.0000000E+03;  1.0000000E-01;  0.0000000E+00;0;  0.0000000E+00;  0.0000000E+00;  0.0000000E+00;0;  0.0000000E+00;  4.0000000E+04;  0.0000000E+00;  0.0000000E+00;  4.0000000E+04;  0.0000000E+00;  4.0000000E+04;  0.0000000E+00;  0.0000000E+00;  0.0000000E+00;  7.1558121E-10;
 -1.7000000E-01;  9.9999998E-03; -2.3000000E-01;293;  0.0000000E+00;  0.0000000E+00;  0.0000000E+00;  1.0000000E+03;  1.0000000E-01;  0.0000000E+00;0;  0.0000000E+00;  0.0000000E+00;  0.0000000E+00;0;  0.0000000E+00;  4.0000000E+04;  0.0000000E+00;  0.0000000E+00;  4.0000000E+04;  0.0000000E+00;  4.0000000E+04;  0.0000000E+00;  0.0000000E+00;  0.0000000E+00;  9.6112662E-10;
 -1.7000000E-01;  9.9999998E-03; -2.2000000E-01;294;  0.0000000E+00;  0.0000000E+00;  0.0000000E+00;  1.0000000E+03;  1.0000000E-01;  0.0000000E+00;0;  0.0000000E+00;  0.0000000E+00;  0.0000000E+00;0;  0.0000000E+00;  4.0000000E+04;  0.0000000E+00;  0.0000000E+00;  4.0000000E+04;  0.0000000E+00;  4.0000000E+04;  0.0000000E+00;  0.0000000E+00;  0.0000000E+00;  1.1699183E-09;
 -1.7000000E-01;  9.9999998E-03; -2.0999999E-01;295;  0.0000000E+00;  0.0000000E+00;  0.0000000E+00;  1.0000000E+03;  1.0000000E-01;  0.0000000E+00;0;  0.0000000E+00;  0.0000000E+00;  0.0000000E+00;0;  0.0000000E+00;  4.0000000E+04;  0.0000000E+00;  0.0000000E+00;  4.0000000E+04;  0.0000000E+00;  4.0000000E+04;  0.0000000E+00;  0.0000000E+00;  0.0000000E+00;  1.3086691E-09;
 -1.7000000E-01;  9.9999998E-03; -2.0000000E-01;296;  0.0000000E+00;  0.0000000E+00;  0.0000000E+00;  1.0000000E+03;  1.0000000E-01;  0.0000000E+00;0;  0.0000000E+00;  0.0000000E+00;  0.0000000E+00;0;  0.0000000E+00;  4.0000000E+04;  0.0000000E+00;  0.0000000E+00;  4.0000000E+04;  0.0000000E+00;  4.0000000E+04;  0.0000000E+00;  0.0000000E+00;  0.0000000E+00;  1.3572687E-09;
 -1.7000000E-01;  9.9999998E-03; -1.9000000E-01;297;  0.0000000E+00;  0.0000000E+00;  0.0000000E+00;  1.0000000E+03;  1.0000000E-01;  0.0000000E+00;0;  0.0000000E+00;  0.0000000E+00;  0.0000000E+00;0;  0.0000000E+00;  4.0000000E+04;  0.0000000E+00;  0.0000000E+00;  4.0000000E+04;  0.0000000E+00;  4.0000000E+04;  0.0000000E+00;  0.0000000E+00;  0.0000000E+00;  1.3804570E-09;
 -1.7000000E-01;  9.9999998E-03; -1.8000001E-01;298;  0.0000000E+00;  0.0000000E+00;  0.0000000E+00;  1.0000000E+03;  1.0000000E-01;  0.0000000E+00;0;  0.0000000E+00;  0.0000000E+00;  0.0000000E+00;0;  0.0000000E+00;  4.0000000E+04;  0.0000000E+00;  0.0000000E+00;  4.0000000E+04;  0.0000000E+00;  4.0000000E+04;  0.0000000E+00;  0.0000000E+00;  0.0000000E+00;  1.4541069E-09;
 -1.7000000E-01;  9.9999998E-03; -1.7000000E-01;299;  0.0000000E+00;  0.0000000E+00;  0.0000000E+00;  1.0000000E+03;  1.0000000E-01;  0.0000000E+00;0;  0.0000000E+00;  0.0000000E+00;  0.0000000E+00;0;  0.0000000E+00;  4.0000000E+04;  0.0000000E+00;  0.0000000E+00;  4.0000000E+04;  0.0000000E+00;  4.0000000E+04;  0.0000000E+00;  0.0000000E+00;  0.0000000E+00;  1.5733465E-09;
 -1.7000000E-01;  9.9999998E-03; -1.6000000E-01;300;  0.0000000E+00;  0.0000000E+00;  0.0000000E+00;  1.0000000E+03;  1.0000000E-01;  0.0000000E+00;0;  0.0000000E+00;  0.0000000E+00;  0.0000000E+00;0;  0.0000000E+00;  4.0000000E+04;  0.0000000E+00;  0.0000000E+00;  4.0000000E+04;  0.0000000E+00;  4.0000000E+04;  0.0000000E+00;  0.0000000E+00;  0.0000000E+00;  1.7068523E-09;
 -1.7000000E-01;  9.9999998E-03; -1.5000001E-01;301;  0.0000000E+00;  0.0000000E+00;  0.0000000E+00;  1.0000000E+03;  1.0000000E-01;  0.0000000E+00;0;  0.0000000E+00;  0.0000000E+00;  0.0000000E+00;0;  0.0000000E+00;  4.0000000E+04;  0.0000000E+00;  0.0000000E+00;  4.0000000E+04;  0.0000000E+00;  4.0000000E+04;  0.0000000E+00;  0.0000000E+00;  0.0000000E+00;  1.8278684E-09;
 -1.7000000E-01;  9.9999998E-03; -1.4000000E-01;302;  0.0000000E+00;  0.0000000E+00;  0.0000000E+00;  1.0000000E+03;  1.0000000E-01;  0.0000000E+00;0;  0.0000000E+00;  0.0000000E+00;  0.0000000E+00;0;  0.0000000E+00;  4.0000000E+04;  0.0000000E+00;  0.0000000E+00;  4.0000000E+04;  0.0000000E+00;  4.0000000E+04;  0.0000000E+00;  0.0000000E+00;  0.0000000E+00;  1.9071082E-09;
 -1.7000000E-01;  9.9999998E-03; -1.3000000E-01;303;  0.0000000E+00;  0.0000000E+00;  0.0000000E+00;  1.0000000E+03;  1.0000000E-01;  0.0000000E+00;0;  0.0000000E+00;  0.0000000E+00;  0.0000000E+00;0;  0.0000000E+00;  4.0000000E+04;  0.0000000E+00;  0.0000000E+00;  4.0000000E+04;  0.0000000E+00;  4.0000000E+04;  0.0000000E+00;  0.0000000E+00;  0.0000000E+00;  1.9297872E-09;
 -1.7000000E-01;  9.9999998E-03; -1.2000000E-01;304;  0.0000000E+00;  0.0000000E+00;  0.0000000E+00;  1.0000000E+03;  1.0000000E-01;  0.0000000E+00;0;  0.0000000E+00;  0.0000000E+00;  0.0000000E+00;0;  0.0000000E+00;  4.0000000E+04;  0.0000000E+00;  0.0000000E+00;  4.0000000E+04;  0.0000000E+00;  4.0000000E+04;  0.0000000E+00;  0.0000000E+00;  0.0000000E+00;  1.9547151E-09;
 -1.7000000E-01;  9.9999998E-03; -1.1000000E-01;305;  0.0000000E+00;  0.0000000E+00;  0.0000000E+00;  1.0000000E+03;  1.0000000E-01;  0.0000000E+00;0;  0.0000000E+00;  0.0000000E+00;  0.0000000E+00;0;  0.0000000E+00;  4.0000000E+04;  0.0000000E+00;  0.0000000E+00;  4.0000000E+04;  0.0000000E+00;  4.0000000E+04;  0.0000000E+00;  0.0000000E+00;  0.0000000E+00;  1.9624904E-09;
 -1.6000000E-01;  9.9999998E-03; -2.7000001E-01;380;  0.0000000E+00;  0.0000000E+00;  0.0000000E+00;  1.0000000E+03;  1.0000000E-01;  0.0000000E+00;0;  0.0000000E+00;  0.0000000E+00;  0.0000000E+00;0;  4.8624574E-06;  4.0000000E+04;  0.0000000E+00;  0.0000000E+00;  4.0000000E+04;  0.0000000E+00;  4.0000000E+04;  4.8695742E-06;  0.0000000E+00; -7.1168778E-09;  2.3434093E-02;
 -1.6000000E-01;  9.9999998E-03; -2.5999999E-01;381;  0.0000000E+00;  0.0000000E+00;  0.0000000E+00;  1.0000000E+03;  1.0000000E-01;  0.0000000E+00;0;  0.0000000E+00;  0.0000000E+00;  0.0000000E+00;0;  5.3868062E-06;  4.0000000E+04;  0.0000000E+00;  0.0000000E+00;  4.0000000E+04;  0.0000000E+00;  4.0000000E+04;  5.4208767E-06;  0.0000000E+00; -3.4070673E-08;  8.3427273E-02;
 -1.6000000E-01;  9.9999998E-03; -2.5000000E-01;382;  0.0000000E+00;  0.0000000E+00;  0.0000000E+00;  1.0000000E+03;  1.0000000E-01;  0.0000000E+00;0;  0.0000000E+00;  0.0000000E+00;  0.0000000E+00;0;  5.5504884E-06;  4.0000000E+04;  0.0000000E+00;  0.0000000E+00;  4.0000000E+04;  0.0000000E+00;  4.0000000E+04;  5.5940818E-06;  0.0000000E+00; -4.3593392E-08;  1.3178150E-01;
 -1.6000000E-01;  9.9999998E-03; -2.3999999E-01;383;  0.0000000E+00;  0.0000000E+00;  0.0000000E+00;  1.0000000E+03;  1.0000000E-01;  0.0000000E+00;0;  0.0000000E+00;  0.0000000E+00;  0.0000000E+00;0;  5.4340335E-06;  4.0000000E+04;  0.0000000E+00;  0.0000000E+00;  4.0000000E+04;  0.0000000E+00;  4.0000000E+04;  5.4728080E-06;  0.0000000E+00; -3.8774697E-08;  1.6533422E-01;
 -1.6000000E-01;  9.9999998E-03; -2.3000000E-01;384;  0.0000000E+00;  0.0000000E+00;  0.0000000E+00;  1.0000000E+03;  1.0000000E-01;  0.0000000E+00;0;  0.0000000E+00;  0.0000000E+00;  0.0000000E+00;0;  5.1558909E-06;  4.0000000E+04;  0.0000000E+00;  0.0000000E+00;  4.0000000E+04;  0.0000000E+00;  4.0000000E+04;  5.1856109E-06;  0.0000000E+00; -2.9720033E-08;  1.9055271E-01;
 -1.6000000E-01;  9.9999998E-03; -2.2000000E-01;385;  0.0000000E+00;  0.0000000E+00;  0.0000000E+00;  1.0000000E+03;  1.0000000E-01;  0.0000000E+00;0;  0.0000000E+00;  0.0000000E+00;  0.0000000E+00;0;  4.8004190E-06;  4.0000000E+04;  0.0000000E+00;  0.0000000E+00;  4.0000000E+04;  0.0000000E+00;  4.0000000E+04;  4.8214361E-06;  0.0000000E+00; -2.1017090E-08;  2.1149214E-01;
 -1.6000000E-01;  9.9999998E-03; -2.0999999E-01;386;  0.0000000E+00;  0.0000000E+00;  0.0000000E+00;  1.0000000E+03;  1.0000000E-01;  0.0000000E+00;0;  0.0000000E+00;  0.0000000E+00;  0.0000000E+00;0;  4.4304447E-06;  4.0000000E+04;  0.0000000E+00;  0.0000000E+00;  4.0000000E+04;  0.0000000E+00;  4.0000000E+04;  4.4444264E-06;  0.0000000E+00; -1.3981452E-08;  2.3013803E-01;
 -1.6000000E-01;  9.9999998E-03; -2.0000000E-01;387;  0.0000000E+00;  0.0000000E+00;  0.0000000E+00;  1.0000000E+03;  1.0000000E-01;  0.0000000E+00;0;  0.0000000E+00;  0.0000000E+00;  0.0000000E+00;0;  4.0890973E-06;  4.0000000E+04;  0.0000000E+00;  0.0000000E+00;  4.0000000E+04;  0.0000000E+00;  4.0000000E+04;  4.0978475E-06;  0.0000000E+00; -8.7500860E-09;  2.4664991E-01;
 -1.6000000E-01;  9.9999998E-03; -1.9000000E-01;388;  0.0000000E+00;  0.0000000E+00;  0.0000000E+00;  1.0000000E+03;  1.0000000E-01;  0.0000000E+00;0;  0.0000000E+00;  0.0000000E+00;  0.0000000E+00;0;  3.8012270E-06;  4.0000000E+04;  0.0000000E+00;  0.0000000E+00;  4.0000000E+04;  0.0000000E+00;  4.0000000E+04;  3.8062944E-06;  0.0000000E+00; -5.0673754E-09;  2.6021427E-01;
 -1.6000000E-01;  9.9999998E-03; -1.8000001E-01;389;  0.0000000E+00;  0.0000000E+00;  0.0000000E+00;  1.0000000E+03;  1.0000000E-01;  0.0000000E+00;0;  0.0000000E+00;  0.0000000E+00;  0.0000000E+00;0;  3.5764356E-06;  4.0000000E+04;  0.0000000E+00;  0.0000000E+00;  4.0000000E+04;  0.0000000E+00;  4.0000000E+04;  3.5790329E-06;  0.0000000E+00; -2.5973235E-09;  2.7005631E-01;
 -1.6000000E-01;  9.9999998E-03; -1.7000000E-01;390;  0.0000000E+00;  0.0000000E+00;  0.0000000E+00;  1.0000000E+03;  1.0000000E-01;  0.0000000E+00;0;  0.0000000E+00;  0.0000000E+00;  0.0000000E+00;0;  3.4134257E-06;  4.0000000E+04;  0.0000000E+00;  0.0000000E+00;  4.0000000E+04;  0.0000000E+00;  4.0000000E+04;  3.4144700E-06;  0.0000000E+00; -1.0442615E-09;  2.7588588E-01;
 -1.6000000E-01;  9.9999998E-03; -1.6000000E-01;391;  0.0000000E+00;  0.0000000E+00;  0.0000000E+00;  1.0000000E+03;  1.0000000E-01;  0.0000000E+00;0;  0.0000000E+00;  0.0000000E+00;  0.0000000E+00;0;  3.3049741E-06;  4.0000000E+04;  0.0000000E+00;  0.0000000E+00;  4.0000000E+04;  0.0000000E+00;  4.0000000E+04;  3.3051751E-06;  0.0000000E+00; -2.0093510E-10;  2.7791831E-01;
 -1.6000000E-01;  9.9999998E-03; -1.5000001E-01;392;  0.0000000E+00;  0.0000000E+00;  0.0000000E+00;  1.0000000E+03;  1.0000000E-01;  0.0000000E+00;0;  0.0000000E+00;  0.0000000E+00;  0.0000000E+00;0;  3.2413027E-06;  4.0000000E+04;  0.0000000E+00;  0.0000000E+00;  4.0000000E+04;  0.0000000E+00;  4.0000000E+04;  3.2412177E-06;  0.0000000E+00;  8.4928863E-11;  2.7674773E-01;
 -1.6000000E-01;  9.9999998E-03; -1.4000000E-01;393;  0.0000000E+00;  0.0000000E+00;  0.0000000E+00;  1.0000000E+03;  1.0000000E-01;  0.0000000E+00;0;  0.0000000E+00;  0.0000000E+00;  0.0000000E+00;0;  3.2119535E-06;  4.0000000E+04;  0.0000000E+00;  0.0000000E+00;  4.0000000E+04;  0.0000000E+00;  4.0000000E+04;  3.2119960E-06;  0.0000000E+00; -4.2416959E-11;  2.7317452E-01;
 -1.6000000E-01;  9.9999998E-03; -1.3000000E-01;394;  0.0000000E+00;  0.0000000E+00;  0.0000000E+00;  1.0000000E+03;  1.0000000E-01;  0.0000000E+00;0;  0.0000000E+00;  0.0000000E+00;  0.0000000E+00;0;  3.2069540E-06;  4.0000000E+04;  0.0000000E+00;  0.0000000E+00;  4.0000000E+04;  0.0000000E+00;  4.0000000E+04;  3.2073874E-06;  0.0000000E+00; -4.3338680E-10;  2.6809275E-01;
 -1.6000000E-01;  9.9999998E-03; -1.2000000E-01;395;  0.0000000E+00;  0.0000000E+00;  0.0000000E+00;  1.0000000E+03;  1.0000000E-01;  0.0000000E+00;0;  0.0000000E+00;  0.0000000E+00;  0.0000000E+00;0;  3.2174273E-06;  4.0000000E+04;  0.0000000E+00;  0.0000000E+00;  4.0000000E+04;  0.0000000E+00;  4.0000000E+04;  3.2183814E-06;  0.0000000E+00; -9.5398900E-10;  2.6245016E-01;
 -1.6000000E-01;  9.9999998E-03; -1.1000000E-01;396;  0.0000000E+00;  0.0000000E+00;  0.0000000E+00;  1.0000000E+03;  1.0000000E-01;  0.0000000E+00;0;  0.0000000E+00;  0.0000000E+00;  0.0000000E+00;0;  3.2358778E-06;  4.0000000E+04;  0.0000000E+00;  0.0000000E+00;  4.0000000E+04;  0.0000000E+00;  4.0000000E+04;  3.2373789E-06;  0.0000000E+00; -1.5012273E-09;  2.5716829E-01;
 -1.5000001E-01;  9.9999998E-03; -2.7000001E-01;471;  0.0000000E+00;  0.0000000E+00;  0.0000000E+00;  1.0000000E+03;  1.0000000E-01;  0.0000000E+00;0;  0.0000000E+00;  0.0000000E+00;  0.0000000E+00;0;  6.0314924E-05;  4.0000000E+04;  0.0000000E+00;  0.0000000E+00;  4.0000000E+04;  0.0000000E+00;  4.0000000E+04;  6.0121878E-05;  0.0000000E+00;  1.9304721E-07;  1.1411215E-01;
 -1.5000001E-01;  9.9999998E-03; -2.5999999E-01;472;  0.0000000E+00;  0.0000000E+00;  0.0000000E+00;  1.0000000E+03;  1.0000000E-01;  0.0000000E+00;0;  0.0000000E+00;  0.0000000E+00;  0.0000000E+00;0;  6.9552902E-05;  4.0000000E+04;  0.0000000E+00;  0.0000000E+00;  4.0000000E+04;  0.0000000E+00;  4.0000000E+04;  6.9773050E-05;  0.0000000E+00; -2.2014629E-07;  8.6529642E-01;
 -1.5000001E-01;  9.9999998E-03; -2.5000000E-01;473;  0.0000000E+00;  0.0000000E+00;  0.0000000E+00;  1.0000000E+03;  1.0000000E-01;  0.0000000E+00;0;  0.0000000E+00;  0.0000000E+00;  0.0000000E+00;0;  7.6601616E-05;  4.0000000E+04;  0.0000000E+00;  0.0000000E+00;  4.0000000E+04;  0.0000000E+00;  4.0000000E+04;  7.7137913E-05;  0.0000000E+00; -5.3629464E-07;  1.6009868E+00;
 -1.5000001E-01;  9.9999998E-03; -2.3999999E-01;474;  0.0000000E+00;  0.0000000E+00;  0.0000000E+00;  1.0000000E+03;  1.0000000E-01;  0.0000000E+00;0;  0.0000000E+00;  0.0000000E+00;  0.0000000E+00;0;  8.1232945E-05;  4.0000000E+04;  0.0000000E+00;  0.0000000E+00;  4.0000000E+04;  0.0000000E+00;  4.0000000E+04;  8.1930171E-05;  0.0000000E+00; -6.9722711E-07;  2.2341719E+00;
 -1.5000001E-01;  9.9999998E-03; -2.3000000E-01;475;  0.0000000E+00;  0.0000000E+00;  0.0000000E+00;  1.0000000E+03;  1.0000000E-01;  0.0000000E+00;0;  0.0000000E+00;  0.0000000E+00;  0.0000000E+00;0;  8.3618419E-05;  4.0000000E+04;  0.0000000E+00;  0.0000000E+00;  4.0000000E+04;  0.0000000E+00;  4.0000000E+04;  8.4320149E-05;  0.0000000E+00; -7.0172928E-07;  2.7238278E+00;
 -1.5000001E-01;  9.9999998E-03; -2.2000000E-01;476;  0.0000000E+00;  0.0000000E+00;  0.0000000E+00;  1.0000000E+03;  1.0000000E-01;  0.0000000E+00;0;  0.0000000E+00;  0.0000000E+00;  0.0000000E+00;0;  8.4227751E-05;  4.0000000E+04;  0.0000000E+00;  0.0000000E+00;  4.0000000E+04;  0.0000000E+00;  4.0000000E+04;  8.4828396E-05;  0.0000000E+00; -6.0064190E-07;  3.0866473E+00;
 -1.5000001E-01;  9.9999998E-03; -2.0999999E-01;477;  0.0000000E+00;  0.0000000E+00;  0.0000000E+00;  1.0000000E+03;  1.0000000E-01;  0.0000000E+00;0;  0.0000000E+00;  0.0000000E+00;  0.0000000E+00;0;  8.3646271E-05;  4.0000000E+04;  0.0000000E+00;  0.0000000E+00;  4.0000000E+04;  0.0000000E+00;  4.0000000E+04;  8.4110703E-05;  0.0000000E+00; -4.6442969E-07;  3.3703215E+00;
 -1.5000001E-01;  9.9999998E-03; -2.0000000E-01;478;  0.0000000E+00;  0.0000000E+00;  0.0000000E+00;  1.0000000E+03;  1.0000000E-01;  0.0000000E+00;0;  0.0000000E+00;  0.0000000E+00;  0.0000000E+00;0;  8.2365063E-05;  4.0000000E+04;  0.0000000E+00;  0.0000000E+00;  4.0000000E+04;  0.0000000E+00;  4.0000000E+04;  8.2696446E-05;  0.0000000E+00; -3.3138605E-07;  3.6011846E+00;
 -1.5000001E-01;  9.9999998E-03; -1.9000000E-01;479;  0.0000000E+00;  0.0000000E+00;  0.0000000E+00;  1.0000000E+03;  1.0000000E-01;  0.0000000E+00;0;  0.0000000E+00;  0.0000000E+00;  0.0000000E+00;0;  8.0786805E-05;  4.0000000E+04;  0.0000000E+00;  0.0000000E+00;  4.0000000E+04;  0.0000000E+00;  4.0000000E+04;  8.1003462E-05;  0.0000000E+00; -2.1665531E-07;  3.7861979E+00;
 -1.5000001E-01;  9.9999998E-03; -1.8000001E-01;480;  0.0000000E+00;  0.0000000E+00;  0.0000000E+00;  1.0000000E+03;  1.0000000E-01;  0.0000000E+00;0;  0.0000000E+00;  0.0000000E+00;  0.0000000E+00;0;  7.9223864E-05;  4.0000000E+04;  0.0000000E+00;  0.0000000E+00;  4.0000000E+04;  0.0000000E+00;  4.0000000E+04;  7.9350386E-05;  0.0000000E+00; -1.2652288E-07;  3.9227984E+00;
 -1.5000001E-01;  9.9999998E-03; -1.7000000E-01;481;  0.0000000E+00;  0.0000000E+00;  0.0000000E+00;  1.0000000E+03;  1.0000000E-01;  0.0000000E+00;0;  0.0000000E+00;  0.0000000E+00;  0.0000000E+00;0;  7.7887824E-05;  4.0000000E+04;  0.0000000E+00;  0.0000000E+00;  4.0000000E+04;  0.0000000E+00;  4.0000000E+04;  7.7950797E-05;  0.0000000E+00; -6.2972475E-08;  4.0059180E+00;
 -1.5000001E-01;  9.9999998E-03; -1.6000000E-01;482;  0.0000000E+00;  0.0000000E+00;  0.0000000E+00;  1.0000000E+03;  1.0000000E-01;  0.0000000E+00;0;  0.0000000E+00;  0.0000000E+00;  0.0000000E+00;0;  7.6893477E-05;  4.0000000E+04;  0.0000000E+00;  0.0000000E+00;  4.0000000E+04;  0.0000000E+00;  4.0000000E+04;  7.6918783E-05;  0.0000000E+00; -2.5307285E-08;  4.0340376E+00;
 -1.5000001E-01;  9.9999998E-03; -1.5000001E-01;483;  0.0000000E+00;  0.0000000E+00;  0.0000000E+00;  1.0000000E+03;  1.0000000E-01;  0.0000000E+00;0;  0.0000000E+00;  0.0000000E+00;  0.0000000E+00;0;  7.6271208E-05;  4.0000000E+04;  0.0000000E+00;  0.0000000E+00;  4.0000000E+04;  0.0000000E+00;  4.0000000E+04;  7.6281991E-05;  0.0000000E+00; -1.0782232E-08;  4.0114188E+00;
 -1.5000001E-01;  9.9999998E-03; -1.4000000E-01;484;  0.0000000E+00;  0.0000000E+00;  0.0000000E+00;  1.0000000E+03;  1.0000000E-01;  0.0000000E+00;0;  0.0000000E+00;  0.0000000E+00;  0.0000000E+00;0;  7.5988617E-05;  4.0000000E+04;  0.0000000E+00;  0.0000000E+00;  4.0000000E+04;  0.0000000E+00;  4.0000000E+04;  7.6003736E-05;  0.0000000E+00; -1.5119301E-08;  3.9482105E+00;
 -1.5000001E-01;  9.9999998E-03; -1.3000000E-01;485;  0.0000000E+00;  0.0000000E+00;  0.0000000E+00;  1.0000000E+03;  1.0000000E-01;  0.0000000E+00;0;  0.0000000E+00;  0.0000000E+00;  0.0000000E+00;0;  7.5972959E-05;  4.0000000E+04;  0.0000000E+00;  0.0000000E+00;  4.0000000E+04;  0.0000000E+00;  4.0000000E+04;  7.6005985E-05;  0.0000000E+00; -3.3027618E-08;  3.8591251E+00;
 -1.5000001E-01;  9.9999998E-03; -1.2000000E-01;486;  0.0000000E+00;  0.0000000E+00;  0.0000000E+00;  1.0000000E+03;  1.0000000E-01;  0.0000000E+00;0;  0.0000000E+00;  0.0000000E+00;  0.0000000E+00;0;  7.6133001E-05;  4.0000000E+04;  0.0000000E+00;  0.0000000E+00;  4.0000000E+04;  0.0000000E+00;  4.0000000E+04;  7.6191740E-05;  0.0000000E+00; -5.8736777E-08;  3.7613723E+00;
 -1.5000001E-01;  9.9999998E-03; -1.1000000E-01;487;  0.0000000E+00;  0.0000000E+00;  0.0000000E+00;  1.0000000E+03;  1.0000000E-01;  0.0000000E+00;0;  0.0000000E+00;  0.0000000E+00;  0.0000000E+00;0;  7.6376331E-05;  4.0000000E+04;  0.0000000E+00;  0.0000000E+00;  4.0000000E+04;  0.0000000E+00;  4.0000000E+04;  7.6462900E-05;  0.0000000E+00; -8.6565876E-08;  3.6717823E+00;
 -1.4000000E-01;  9.9999998E-03; -2.7000001E-01;562;  0.0000000E+00;  0.0000000E+00;  0.0000000E+00;  1.0000000E+03;  1.0000000E-01;  0.0000000E+00;0;  0.0000000E+00;  0.0000000E+00;  0.0000000E+00;0;  2.5823765E-04;  4.0000000E+04;  0.0000000E+00;  0.0000000E+00;  4.0000000E+04;  0.0000000E+00;  4.0000000E+04;  2.5675652E-04;  0.0000000E+00;  1.4811254E-06;  4.0126544E-01;
 -1.4000000E-01;  9.9999998E-03; -2.5999999E-01;563;  0.0000000E+00;  0.0000000E+00;  0.0000000E+00;  1.0000000E+03;  1.0000000E-01;  0.0000000E+00;0;  0.0000000E+00;  0.0000000E+00;  0.0000000E+00;0;  2.9808303E-04;  4.0000000E+04;  0.0000000E+00;  0.0000000E+00;  4.0000000E+04;  0.0000000E+00;  4.0000000E+04;  2.9854980E-04;  0.0000000E+00; -4.6675592E-07;  3.7985792E+00;
 -1.4000000E-01;  9.9999998E-03; -2.5000000E-01;564;  0.0000000E+00;  0.0000000E+00;  0.0000000E+00;  1.0000000E+03;  1.0000000E-01;  0.0000000E+00;0;  0.0000000E+00;  0.0000000E+00;  0.0000000E+00;0;  3.3190873E-04;  4.0000000E+04;  0.0000000E+00;  0.0000000E+00;  4.0000000E+04;  0.0000000E+00;  4.0000000E+04;  3.3404949E-04;  0.0000000E+00; -2.1407502E-06;  7.1828146E+00;
 -1.4000000E-01;  9.9999998E-03; -2.3999999E-01;565;  0.0000000E+00;  0.0000000E+00;  0.0000000E+00;  1.0000000E+03;  1.0000000E-01;  0.0000000E+00;0;  0.0000000E+00;  0.0000000E+00;  0.0000000E+00;0;  3.5834606E-04;  4.0000000E+04;  0.0000000E+00;  0.0000000E+00;  4.0000000E+04;  0.0000000E+00;  4.0000000E+04;  3.6161128E-04;  0.0000000E+00; -3.2652090E-06;  1.0208851E+01;
 -1.4000000E-01;  9.9999998E-03; -2.3000000E-01;566;  0.0000000E+00;  0.0000000E+00;  0.0000000E+00;  1.0000000E+03;  1.0000000E-01;  0.0000000E+00;0;  0.0000000E+00;  0.0000000E+00;  0.0000000E+00;0;  3.7703253E-04;  4.0000000E+04;  0.0000000E+00;  0.0000000E+00;  4.0000000E+04;  0.0000000E+00;  4.0000000E+04;  3.8075980E-04;  0.0000000E+00; -3.7272835E-06;  1.2678325E+01;
 -1.4000000E-01;  9.9999998E-03; -2.2000000E-01;567;  0.0000000E+00;  0.0000000E+00;  0.0000000E+00;  1.0000000E+03;  1.0000000E-01;  0.0000000E+00;0;  0.0000000E+00;  0.0000000E+00;  0.0000000E+00;0;  3.8854667E-04;  4.0000000E+04;  0.0000000E+00;  0.0000000E+00;  4.0000000E+04;  0.0000000E+00;  4.0000000E+04;  3.9213811E-04;  0.0000000E+00; -3.5914538E-06;  1.4550795E+01;
 -1.4000000E-01;  9.9999998E-03; -2.0999999E-01;568;  0.0000000E+00;  0.0000000E+00;  0.0000000E+00;  1.0000000E+03;  1.0000000E-01;  0.0000000E+00;0;  0.0000000E+00;  0.0000000E+00;  0.0000000E+00;0;  3.9417687E-04;  4.0000000E+04;  0.0000000E+00;  0.0000000E+00;  4.0000000E+04;  0.0000000E+00;  4.0000000E+04;  3.9722599E-04;  0.0000000E+00; -3.0491110E-06;  1.5890056E+01;
 -1.4000000E-01;  9.9999998E-03; -2.0000000E-01;569;  0.0000000E+00;  0.0000000E+00;  0.0000000E+00;  1.0000000E+03;  1.0000000E-01;  0.0000000E+00;0;  0.0000000E+00;  0.0000000E+00;  0.0000000E+00;0;  3.9556372E-04;  4.0000000E+04;  0.0000000E+00;  0.0000000E+00;  4.0000000E+04;  0.0000000E+00;  4.0000000E+04;  3.9790277E-04;  0.0000000E+00; -2.3390564E-06;  1.6835747E+01;
 -1.4000000E-01;  9.9999998E-03; -1.9000000E-01;570;  0.0000000E+00;  0.0000000E+00;  0.0000000E+00;  1.0000000E+03;  1.0000000E-01;  0.0000000E+00;0;  0.0000000E+00;  0.0000000E+00;  0.0000000E+00;0;  3.9430408E-04;  4.0000000E+04;  0.0000000E+00;  0.0000000E+00;  4.0000000E+04;  0.0000000E+00;  4.0000000E+04;  3.9595459E-04;  0.0000000E+00; -1.6505006E-06;  1.7512442E+01;
 -1.4000000E-01;  9.9999998E-03; -1.8000001E-01;571;  0.0000000E+00;  0.0000000E+00;  0.0000000E+00;  1.0000000E+03;  1.0000000E-01;  0.0000000E+00;0;  0.0000000E+00;  0.0000000E+00;  0.0000000E+00;0;  3.9171442E-04;  4.0000000E+04;  0.0000000E+00;  0.0000000E+00;  4.0000000E+04;  0.0000000E+00;  4.0000000E+04;  3.9278547E-04;  0.0000000E+00; -1.0710495E-06;  1.7963623E+01;
 -1.4000000E-01;  9.9999998E-03; -1.7000000E-01;572;  0.0000000E+00;  0.0000000E+00;  0.0000000E+00;  1.0000000E+03;  1.0000000E-01;  0.0000000E+00;0;  0.0000000E+00;  0.0000000E+00;  0.0000000E+00;0;  3.8882715E-04;  4.0000000E+04;  0.0000000E+00;  0.0000000E+00;  4.0000000E+04;  0.0000000E+00;  4.0000000E+04;  3.8946589E-04;  0.0000000E+00; -6.3873614E-07;  1.8196468E+01;
 -1.4000000E-01;  9.9999998E-03; -1.6000000E-01;573;  0.0000000E+00;  0.0000000E+00;  0.0000000E+00;  1.0000000E+03;  1.0000000E-01;  0.0000000E+00;0;  0.0000000E+00;  0.0000000E+00;  0.0000000E+00;0;  3.8635297E-04;  4.0000000E+04;  0.0000000E+00;  0.0000000E+00;  4.0000000E+04;  0.0000000E+00;  4.0000000E+04;  3.8671761E-04;  0.0000000E+00; -3.6464186E-07;  1.8210583E+01;
 -1.4000000E-01;  9.9999998E-03; -1.5000001E-01;574;  0.0000000E+00;  0.0000000E+00;  0.0000000E+00;  1.0000000E+03;  1.0000000E-01;  0.0000000E+00;0;  0.0000000E+00;  0.0000000E+00;  0.0000000E+00;0;  3.8468049E-04;  4.0000000E+04;  0.0000000E+00;  0.0000000E+00;  4.0000000E+04;  0.0000000E+00;  4.0000000E+04;  3.8492159E-04;  0.0000000E+00; -2.4110287E-07;  1.8021248E+01;
 -1.4000000E-01;  9.9999998E-03; -1.4000000E-01;575;  0.0000000E+00;  0.0000000E+00;  0.0000000E+00;  1.0000000E+03;  1.0000000E-01;  0.0000000E+00;0;  0.0000000E+00;  0.0000000E+00;  0.0000000E+00;0;  3.8391651E-04;  4.0000000E+04;  0.0000000E+00;  0.0000000E+00;  4.0000000E+04;  0.0000000E+00;  4.0000000E+04;  3.8416291E-04;  0.0000000E+00; -2.4638967E-07;  1.7669428E+01;
 -1.4000000E-01;  9.9999998E-03; -1.3000000E-01;576;  0.0000000E+00;  0.0000000E+00;  0.0000000E+00;  1.0000000E+03;  1.0000000E-01;  0.0000000E+00;0;  0.0000000E+00;  0.0000000E+00;  0.0000000E+00;0;  3.8395161E-04;  4.0000000E+04;  0.0000000E+00;  0.0000000E+00;  4.0000000E+04;  0.0000000E+00;  4.0000000E+04;  3.8430034E-04;  0.0000000E+00; -3.4872596E-07;  1.7219494E+01;
 -1.4000000E-01;  9.9999998E-03; -1.2000000E-01;577;  0.0000000E+00;  0.0000000E+00;  0.0000000E+00;  1.0000000E+03;  1.0000000E-01;  0.0000000E+00;0;  0.0000000E+00;  0.0000000E+00;  0.0000000E+00;0;  3.8454524E-04;  4.0000000E+04;  0.0000000E+00;  0.0000000E+00;  4.0000000E+04;  0.0000000E+00;  4.0000000E+04;  3.8505587E-04;  0.0000000E+00; -5.1061664E-07;  1.6748384E+01;
 -1.4000000E-01;  9.9999998E-03; -1.1000000E-01;578;  0.0000000E+00;  0.0000000E+00;  0.0000000E+00;  1.0000000E+03;  1.0000000E-01;  0.0000000E+00;0;  0.0000000E+00;  0.0000000E+00;  0.0000000E+00;0;  3.8540026E-04;  4.0000000E+04;  0.0000000E+00;  0.0000000E+00;  4.0000000E+04;  0.0000000E+00;  4.0000000E+04;  3.8609345E-04;  0.0000000E+00; -6.9319663E-07;  1.6331379E+01;
 -1.3000000E-01;  9.9999998E-03; -2.7000001E-01;653;  0.0000000E+00;  0.0000000E+00;  0.0000000E+00;  1.0000203E+03;  1.0000000E-01;  1.6789648E+01;0;  0.0000000E+00;  0.0000000E+00;  0.0000000E+00;0;  7.0306862E-04;  4.0000000E+04;  0.0000000E+00;  0.0000000E+00;  4.0000000E+04;  0.0000000E+00;  4.0000000E+04;  6.9744745E-04;  0.0000000E+00;  5.6211866E-06;  1.1513437E+00;
 -1.3000000E-01;  9.9999998E-03; -2.5999999E-01;654;  0.0000000E+00;  0.0000000E+00;  0.0000000E+00;  1.0000237E+03;  1.0000000E-01;  1.9653765E+01;0;  0.0000000E+00;  0.0000000E+00;  0.0000000E+00;0;  8.0809853E-04;  4.0000000E+04;  0.0000000E+00;  0.0000000E+00;  4.0000000E+04;  0.0000000E+00;  4.0000000E+04;  8.0834294E-04;  0.0000000E+00; -2.4442036E-07;  1.1140641E+01;
 -1.3000000E-01;  9.9999998E-03; -2.5000000E-01;655;  0.0000000E+00;  0.0000000E+00;  0.0000000E+00;  1.0000321E+03;  1.0000000E-01;  2.6567150E+01;0;  0.0000000E+00;  0.0000000E+00;  0.0000000E+00;0;  9.0102729E-04;  4.0000000E+04;  0.0000000E+00;  0.0000000E+00;  4.0000000E+04;  0.0000000E+00;  4.0000000E+04;  9.0655824E-04;  0.0000000E+00; -5.5309220E-06;  2.1061596E+01;
 -1.3000000E-01;  9.9999998E-03; -2.3999999E-01;656;  0.0000000E+00;  0.0000000E+00;  0.0000000E+00;  1.0000341E+03;  1.0000000E-01;  2.8246115E+01;0;  0.0000000E+00;  0.0000000E+00;  0.0000000E+00;0;  9.7832608E-04;  4.0000000E+04;  0.0000000E+00;  0.0000000E+00;  4.0000000E+04;  0.0000000E+00;  4.0000000E+04;  9.8779250E-04;  0.0000000E+00; -9.4663883E-06;  2.9986103E+01;
 -1.3000000E-01;  9.9999998E-03; -2.3000000E-01;657;  0.0000000E+00;  0.0000000E+00;  0.0000000E+00;  1.0000365E+03;  1.0000000E-01;  3.0221367E+01;0;  0.0000000E+00;  0.0000000E+00;  0.0000000E+00;0;  1.0382943E-03;  4.0000000E+04;  0.0000000E+00;  0.0000000E+00;  4.0000000E+04;  0.0000000E+00;  4.0000000E+04;  1.0499170E-03;  0.0000000E+00; -1.1622711E-05;  3.7320095E+01;
 -1.3000000E-01;  9.9999998E-03; -2.2000000E-01;658;  0.0000000E+00;  0.0000000E+00;  0.0000000E+00;  1.0000442E+03;  1.0000000E-01;  3.6640938E+01;0;  0.0000000E+00;  0.0000000E+00;  0.0000000E+00;0;  1.0811129E-03;  4.0000000E+04;  0.0000000E+00;  0.0000000E+00;  4.0000000E+04;  0.0000000E+00;  4.0000000E+04;  1.0930991E-03;  0.0000000E+00; -1.1986248E-05;  4.2862488E+01;
 -1.3000000E-01;  9.9999998E-03; -2.0999999E-01;659;  0.0000000E+00;  0.0000000E+00;  0.0000000E+00;  1.0000466E+03;  1.0000000E-01;  3.8616192E+01;0;  0.0000000E+00;  0.0000000E+00;  0.0000000E+00;0;  1.1085953E-03;  4.0000000E+04;  0.0000000E+00;  0.0000000E+00;  4.0000000E+04;  0.0000000E+00;  4.0000000E+04;  1.1195022E-03;  0.0000000E+00; -1.0906921E-05;  4.6728935E+01;
 -1.3000000E-01;  9.9999998E-03; -2.0000000E-01;660;  0.0000000E+00;  0.0000000E+00;  0.0000000E+00;  1.0000490E+03;  1.0000000E-01;  4.0591446E+01;0;  0.0000000E+00;  0.0000000E+00;  0.0000000E+00;0;  1.1236991E-03;  4.0000000E+04;  0.0000000E+00;  0.0000000E+00;  4.0000000E+04;  0.0000000E+00;  4.0000000E+04;  1.1326544E-03;  0.0000000E+00; -8.9552050E-06;  4.9222275E+01;
 -1.3000000E-01;  9.9999998E-03; -1.9000000E-01;661;  0.0000000E+00;  0.0000000E+00;  0.0000000E+00;  1.0000519E+03;  1.0000000E-01;  4.2961746E+01;0;  0.0000000E+00;  0.0000000E+00;  0.0000000E+00;0;  1.1298972E-03;  4.0000000E+04;  0.0000000E+00;  0.0000000E+00;  4.0000000E+04;  0.0000000E+00;  4.0000000E+04;  1.1366326E-03;  0.0000000E+00; -6.7354486E-06;  5.0685661E+01;
 -1.3000000E-01;  9.9999998E-03; -1.8000001E-01;662;  0.0000000E+00;  0.0000000E+00;  0.0000000E+00;  1.0000537E+03;  1.0000000E-01;  4.4541950E+01;0;  0.0000000E+00;  0.0000000E+00;  0.0000000E+00;0;  1.1305368E-03;  4.0000000E+04;  0.0000000E+00;  0.0000000E+00;  4.0000000E+04;  0.0000000E+00;  4.0000000E+04;  1.1352571E-03;  0.0000000E+00; -4.7203002E-06;  5.1421299E+01;
 -1.3000000E-01;  9.9999998E-03; -1.7000000E-01;663;  0.0000000E+00;  0.0000000E+00;  0.0000000E+00;  1.0000549E+03;  1.0000000E-01;  4.5430813E+01;0;  0.0000000E+00;  0.0000000E+00;  0.0000000E+00;0;  1.1283717E-03;  4.0000000E+04;  0.0000000E+00;  0.0000000E+00;  4.0000000E+04;  0.0000000E+00;  4.0000000E+04;  1.1315158E-03;  0.0000000E+00; -3.1441564E-06;  5.1568996E+01;
 -1.3000000E-01;  9.9999998E-03; -1.6000000E-01;664;  0.0000000E+00;  0.0000000E+00;  0.0000000E+00;  1.0000557E+03;  1.0000000E-01;  4.6122154E+01;0;  0.0000000E+00;  0.0000000E+00;  0.0000000E+00;0;  1.1254728E-03;  4.0000000E+04;  0.0000000E+00;  0.0000000E+00;  4.0000000E+04;  0.0000000E+00;  4.0000000E+04;  1.1275640E-03;  0.0000000E+00; -2.0912250E-06;  5.1191223E+01;
 -1.3000000E-01;  9.9999998E-03; -1.5000001E-01;665;  0.0000000E+00;  0.0000000E+00;  0.0000000E+00;  1.0000561E+03;  1.0000000E-01;  4.6517204E+01;0;  0.0000000E+00;  0.0000000E+00;  0.0000000E+00;0;  1.1231911E-03;  4.0000000E+04;  0.0000000E+00;  0.0000000E+00;  4.0000000E+04;  0.0000000E+00;  4.0000000E+04;  1.1247513E-03;  0.0000000E+00; -1.5602532E-06;  5.0351234E+01;
 -1.3000000E-01;  9.9999998E-03; -1.4000000E-01;666;  0.0000000E+00;  0.0000000E+00;  0.0000000E+00;  1.0000571E+03;  1.0000000E-01;  4.7307304E+01;0;  0.0000000E+00;  0.0000000E+00;  0.0000000E+00;0;  1.1221775E-03;  4.0000000E+04;  0.0000000E+00;  0.0000000E+00;  4.0000000E+04;  0.0000000E+00;  4.0000000E+04;  1.1236680E-03;  0.0000000E+00; -1.4905661E-06;  4.9157196E+01;
 -1.3000000E-01;  9.9999998E-03; -1.3000000E-01;667;  0.0000000E+00;  0.0000000E+00;  0.0000000E+00;  1.0000574E+03;  1.0000000E-01;  4.7504829E+01;0;  0.0000000E+00;  0.0000000E+00;  0.0000000E+00;0;  1.1225110E-03;  4.0000000E+04;  0.0000000E+00;  0.0000000E+00;  4.0000000E+04;  0.0000000E+00;  4.0000000E+04;  1.1242904E-03;  0.0000000E+00; -1.7794605E-06;  4.7772652E+01;
 -1.3000000E-01;  9.9999998E-03; -1.2000000E-01;668;  0.0000000E+00;  0.0000000E+00;  0.0000000E+00;  1.0000571E+03;  1.0000000E-01;  4.7307304E+01;0;  0.0000000E+00;  0.0000000E+00;  0.0000000E+00;0;  1.1238635E-03;  4.0000000E+04;  0.0000000E+00;  0.0000000E+00;  4.0000000E+04;  0.0000000E+00;  4.0000000E+04;  1.1261619E-03;  0.0000000E+00; -2.2983595E-06;  4.6394638E+01;
 -1.3000000E-01;  9.9999998E-03; -1.1000000E-01;669;  0.0000000E+00;  0.0000000E+00;  0.0000000E+00;  1.0000567E+03;  1.0000000E-01;  4.7011017E+01;0;  0.0000000E+00;  0.0000000E+00;  0.0000000E+00;0;  1.1256915E-03;  4.0000000E+04;  0.0000000E+00;  0.0000000E+00;  4.0000000E+04;  0.0000000E+00;  4.0000000E+04;  1.1286010E-03;  0.0000000E+00; -2.9096029E-06;  4.5219681E+01;
 -1.2000000E-01;  9.9999998E-03; -2.7000001E-01;744;  0.0000000E+00;  0.0000000E+00;  0.0000000E+00;  1.0000623E+03;  1.0000000E-01;  5.1652859E+01;0;  0.0000000E+00;  0.0000000E+00;  0.0000000E+00;0;  1.4864238E-03;  4.0000000E+04;  0.0000000E+00;  0.0000000E+00;  4.0000000E+04;  0.0000000E+00;  4.0000000E+04;  1.4709739E-03;  0.0000000E+00;  1.5449812E-05;  2.9097838E+00;
 -1.2000000E-01;  9.9999998E-03; -2.5999999E-01;745;  0.0000000E+00;  0.0000000E+00;  0.0000000E+00;  1.0000664E+03;  1.0000000E-01;  5.5010788E+01;0;  0.0000000E+00;  0.0000000E+00;  0.0000000E+00;0;  1.6997518E-03;  4.0000000E+04;  0.0000000E+00;  0.0000000E+00;  4.0000000E+04;  0.0000000E+00;  4.0000000E+04;  1.6980731E-03;  0.0000000E+00;  1.6787249E-06;  2.5720318E+01;
 -1.2000000E-01;  9.9999998E-03; -2.5000000E-01;746;  0.0000000E+00;  0.0000000E+00;  0.0000000E+00;  1.0000845E+03;  1.0000000E-01;  7.0022713E+01;0;  0.0000000E+00;  0.0000000E+00;  0.0000000E+00;0;  1.8924710E-03;  4.0000000E+04;  0.0000000E+00;  0.0000000E+00;  4.0000000E+04;  0.0000000E+00;  4.0000000E+04;  1.9035385E-03;  0.0000000E+00; -1.1067488E-05;  4.8246796E+01;
 -1.2000000E-01;  9.9999998E-03; -2.3999999E-01;747;  0.0000000E+00;  0.0000000E+00;  0.0000000E+00;  1.0000900E+03;  1.0000000E-01;  7.4565796E+01;0;  0.0000000E+00;  0.0000000E+00;  0.0000000E+00;0;  2.0578930E-03;  4.0000000E+04;  0.0000000E+00;  0.0000000E+00;  4.0000000E+04;  0.0000000E+00;  4.0000000E+04;  2.0790009E-03;  0.0000000E+00; -2.1107935E-05;  6.8494644E+01;
 -1.2000000E-01;  9.9999998E-03; -2.3000000E-01;748;  0.0000000E+00;  0.0000000E+00;  0.0000000E+00;  1.0000953E+03;  1.0000000E-01;  7.9010109E+01;0;  0.0000000E+00;  0.0000000E+00;  0.0000000E+00;0;  2.1921860E-03;  4.0000000E+04;  0.0000000E+00;  0.0000000E+00;  4.0000000E+04;  0.0000000E+00;  4.0000000E+04;  2.2195627E-03;  0.0000000E+00; -2.7376786E-05;  8.5110657E+01;
 -1.2000000E-01;  9.9999998E-03; -2.2000000E-01;749;  0.0000000E+00;  0.0000000E+00;  0.0000000E+00;  1.0001079E+03;  1.0000000E-01;  8.9380188E+01;0;  0.0000000E+00;  0.0000000E+00;  0.0000000E+00;0;  2.2945565E-03;  4.0000000E+04;  0.0000000E+00;  0.0000000E+00;  4.0000000E+04;  0.0000000E+00;  4.0000000E+04;  2.3241576E-03;  0.0000000E+00; -2.9601257E-05;  9.7526443E+01;
 -1.2000000E-01;  9.9999998E-03; -2.0999999E-01;750;  0.0000000E+00;  0.0000000E+00;  0.0000000E+00;  1.0001130E+03;  1.0000000E-01;  9.3626984E+01;0;  0.0000000E+00;  0.0000000E+00;  0.0000000E+00;0;  2.3670427E-03;  4.0000000E+04;  0.0000000E+00;  0.0000000E+00;  4.0000000E+04;  0.0000000E+00;  4.0000000E+04;  2.3953242E-03;  0.0000000E+00; -2.8281573E-05;  1.0589400E+02;
 -1.2000000E-01;  9.9999998E-03; -2.0000000E-01;751;  0.0000000E+00;  0.0000000E+00;  0.0000000E+00;  1.0001177E+03;  1.0000000E-01;  9.7577484E+01;0;  0.0000000E+00;  0.0000000E+00;  0.0000000E+00;0;  2.4138945E-03;  4.0000000E+04;  0.0000000E+00;  0.0000000E+00;  4.0000000E+04;  0.0000000E+00;  4.0000000E+04;  2.4383760E-03;  0.0000000E+00; -2.4481362E-05;  1.1085055E+02;
 -1.2000000E-01;  9.9999998E-03; -1.9000000E-01;752;  0.0000000E+00;  0.0000000E+00;  0.0000000E+00;  1.0001251E+03;  1.0000000E-01;  1.0360201E+02;0;  0.0000000E+00;  0.0000000E+00;  0.0000000E+00;0;  2.4407292E-03;  4.0000000E+04;  0.0000000E+00;  0.0000000E+00;  4.0000000E+04;  0.0000000E+00;  4.0000000E+04;  2.4602280E-03;  0.0000000E+00; -1.9498977E-05;  1.1319772E+02;
 -1.2000000E-01;  9.9999998E-03; -1.8000001E-01;753;  0.0000000E+00;  0.0000000E+00;  0.0000000E+00;  1.0001324E+03;  1.0000000E-01;  1.0972529E+02;0;  0.0000000E+00;  0.0000000E+00;  0.0000000E+00;0;  2.4535418E-03;  4.0000000E+04;  0.0000000E+00;  0.0000000E+00;  4.0000000E+04;  0.0000000E+00;  4.0000000E+04;  2.4680705E-03;  0.0000000E+00; -1.4528707E-05;  1.1366278E+02;
 -1.2000000E-01;  9.9999998E-03; -1.7000000E-01;754;  0.0000000E+00;  0.0000000E+00;  0.0000000E+00;  1.0001422E+03;  1.0000000E-01;  1.1782383E+02;0;  0.0000000E+00;  0.0000000E+00;  0.0000000E+00;0;  2.4578306E-03;  4.0000000E+04;  0.0000000E+00;  0.0000000E+00;  4.0000000E+04;  0.0000000E+00;  4.0000000E+04;  2.4682472E-03;  0.0000000E+00; -1.0416496E-05;  1.1283052E+02;
 -1.2000000E-01;  9.9999998E-03; -1.6000000E-01;755;  0.0000000E+00;  0.0000000E+00;  0.0000000E+00;  1.0001506E+03;  1.0000000E-01;  1.2473721E+02;0;  0.0000000E+00;  0.0000000E+00;  0.0000000E+00;0;  2.4579612E-03;  4.0000000E+04;  0.0000000E+00;  0.0000000E+00;  4.0000000E+04;  0.0000000E+00;  4.0000000E+04;  2.4655000E-03;  0.0000000E+00; -7.5388834E-06;  1.1103017E+02;
 -1.2000000E-01;  9.9999998E-03; -1.5000001E-01;756;  0.0000000E+00;  0.0000000E+00;  0.0000000E+00;  1.0001613E+03;  1.0000000E-01;  1.3362585E+02;0;  0.0000000E+00;  0.0000000E+00;  0.0000000E+00;0;  2.4570129E-03;  4.0000000E+04;  0.0000000E+00;  0.0000000E+00;  4.0000000E+04;  0.0000000E+00;  4.0000000E+04;  2.4629738E-03;  0.0000000E+00; -5.9608769E-06;  1.0848044E+02;
 -1.2000000E-01;  9.9999998E-03; -1.4000000E-01;757;  0.0000000E+00;  0.0000000E+00;  0.0000000E+00;  1.0001650E+03;  1.0000000E-01;  1.3668748E+02;0;  0.0000000E+00;  0.0000000E+00;  0.0000000E+00;0;  2.4567989E-03;  4.0000000E+04;  0.0000000E+00;  0.0000000E+00;  4.0000000E+04;  0.0000000E+00;  4.0000000E+04;  2.4623629E-03;  0.0000000E+00; -5.5638993E-06;  1.0542151E+02;
 -1.2000000E-01;  9.9999998E-03; -1.3000000E-01;758;  0.0000000E+00;  0.0000000E+00;  0.0000000E+00;  1.0001644E+03;  1.0000000E-01;  1.3619368E+02;0;  0.0000000E+00;  0.0000000E+00;  0.0000000E+00;0;  2.4580075E-03;  4.0000000E+04;  0.0000000E+00;  0.0000000E+00;  4.0000000E+04;  0.0000000E+00;  4.0000000E+04;  2.4641147E-03;  0.0000000E+00; -6.1070773E-06;  1.0216629E+02;
 -1.2000000E-01;  9.9999998E-03; -1.2000000E-01;759;  0.0000000E+00;  0.0000000E+00;  0.0000000E+00;  1.0001634E+03;  1.0000000E-01;  1.3540358E+02;0;  0.0000000E+00;  0.0000000E+00;  0.0000000E+00;0;  2.4604613E-03;  4.0000000E+04;  0.0000000E+00;  0.0000000E+00;  4.0000000E+04;  0.0000000E+00;  4.0000000E+04;  2.4677357E-03;  0.0000000E+00; -7.2742628E-06;  9.9088432E+01;
 -1.2000000E-01;  9.9999998E-03; -1.1000000E-01;760;  0.0000000E+00;  0.0000000E+00;  0.0000000E+00;  1.0001619E+03;  1.0000000E-01;  1.3411966E+02;0;  0.0000000E+00;  0.0000000E+00;  0.0000000E+00;0;  2.4634635E-03;  4.0000000E+04;  0.0000000E+00;  0.0000000E+00;  4.0000000E+04;  0.0000000E+00;  4.0000000E+04;  2.4721820E-03;  0.0000000E+00; -8.7185481E-06;  9.6565918E+01;
 -1.1000000E-01;  9.9999998E-03; -2.7000001E-01;835;  0.0000000E+00;  0.0000000E+00;  0.0000000E+00;  1.0001402E+03;  1.0000000E-01;  1.1614487E+02;0;  0.0000000E+00;  0.0000000E+00;  0.0000000E+00;0;  2.6793708E-03;  4.0000000E+04;  0.0000000E+00;  0.0000000E+00;  4.0000000E+04;  0.0000000E+00;  4.0000000E+04;  2.6443556E-03;  0.0000000E+00;  3.5015084E-05;  6.8942280E+00;
 -1.1000000E-01;  9.9999998E-03; -2.5999999E-01;836;  0.0000000E+00;  0.0000000E+00;  0.0000000E+00;  1.0001606E+03;  1.0000000E-01;  1.3303328E+02;0;  0.0000000E+00;  0.0000000E+00;  0.0000000E+00;0;  3.0487410E-03;  4.0000000E+04;  0.0000000E+00;  0.0000000E+00;  4.0000000E+04;  0.0000000E+00;  4.0000000E+04;  3.0412637E-03;  0.0000000E+00;  7.4774562E-06;  5.0838375E+01;
 -1.1000000E-01;  9.9999998E-03; -2.5000000E-01;837;  0.0000000E+00;  0.0000000E+00;  0.0000000E+00;  1.0001734E+03;  1.0000000E-01;  1.4369965E+02;0;  0.0000000E+00;  0.0000000E+00;  0.0000000E+00;0;  3.3862900E-03;  4.0000000E+04;  0.0000000E+00;  0.0000000E+00;  4.0000000E+04;  0.0000000E+00;  4.0000000E+04;  3.4047570E-03;  0.0000000E+00; -1.8466975E-05;  9.4167480E+01;
 -1.1000000E-01;  9.9999998E-03; -2.3999999E-01;838;  0.0000000E+00;  0.0000000E+00;  0.0000000E+00;  1.0001823E+03;  1.0000000E-01;  1.5100807E+02;0;  0.0000000E+00;  0.0000000E+00;  0.0000000E+00;0;  3.6812839E-03;  4.0000000E+04;  0.0000000E+00;  0.0000000E+00;  4.0000000E+04;  0.0000000E+00;  4.0000000E+04;  3.7209622E-03;  0.0000000E+00; -3.9678343E-05;  1.3300513E+02;
 -1.1000000E-01;  9.9999998E-03; -2.3000000E-01;839;  0.0000000E+00;  0.0000000E+00;  0.0000000E+00;  1.0002043E+03;  1.0000000E-01;  1.6927916E+02;0;  0.0000000E+00;  0.0000000E+00;  0.0000000E+00;0;  3.9270711E-03;  4.0000000E+04;  0.0000000E+00;  0.0000000E+00;  4.0000000E+04;  0.0000000E+00;  4.0000000E+04;  3.9810785E-03;  0.0000000E+00; -5.4007487E-05;  1.6477141E+02;
 -1.1000000E-01;  9.9999998E-03; -2.2000000E-01;840;  0.0000000E+00;  0.0000000E+00;  0.0000000E+00;  1.0002178E+03;  1.0000000E-01;  1.8043935E+02;0;  0.0000000E+00;  0.0000000E+00;  0.0000000E+00;0;  4.1214097E-03;  4.0000000E+04;  0.0000000E+00;  0.0000000E+00;  4.0000000E+04;  0.0000000E+00;  4.0000000E+04;  4.1820523E-03;  0.0000000E+00; -6.0642422E-05;  1.8824898E+02;
 -1.1000000E-01;  9.9999998E-03; -2.0999999E-01;841;  0.0000000E+00;  0.0000000E+00;  0.0000000E+00;  1.0002408E+03;  1.0000000E-01;  1.9950053E+02;0;  0.0000000E+00;  0.0000000E+00;  0.0000000E+00;0;  4.2662895E-03;  4.0000000E+04;  0.0000000E+00;  0.0000000E+00;  4.0000000E+04;  0.0000000E+00;  4.0000000E+04;  4.3264460E-03;  0.0000000E+00; -6.0156362E-05;  2.0354137E+02;
 -1.1000000E-01;  9.9999998E-03; -2.0000000E-01;842;  0.0000000E+00;  0.0000000E+00;  0.0000000E+00;  1.0002546E+03;  1.0000000E-01;  2.1095700E+02;0;  0.0000000E+00;  0.0000000E+00;  0.0000000E+00;0;  4.3671806E-03;  4.0000000E+04;  0.0000000E+00;  0.0000000E+00;  4.0000000E+04;  0.0000000E+00;  4.0000000E+04;  4.4214269E-03;  0.0000000E+00; -5.4246149E-05;  2.1176585E+02;
 -1.1000000E-01;  9.9999998E-03; -1.9000000E-01;843;  0.0000000E+00;  0.0000000E+00;  0.0000000E+00;  1.0002760E+03;  1.0000000E-01;  2.2863551E+02;0;  0.0000000E+00;  0.0000000E+00;  0.0000000E+00;0;  4.4319821E-03;  4.0000000E+04;  0.0000000E+00;  0.0000000E+00;  4.0000000E+04;  0.0000000E+00;  4.0000000E+04;  4.4772173E-03;  0.0000000E+00; -4.5235349E-05;  2.1454376E+02;
 -1.1000000E-01;  9.9999998E-03; -1.8000001E-01;844;  0.0000000E+00;  0.0000000E+00;  0.0000000E+00;  1.0002859E+03;  1.0000000E-01;  2.3683281E+02;0;  0.0000000E+00;  0.0000000E+00;  0.0000000E+00;0;  4.4696927E-03;  4.0000000E+04;  0.0000000E+00;  0.0000000E+00;  4.0000000E+04;  0.0000000E+00;  4.0000000E+04;  4.5051719E-03;  0.0000000E+00; -3.5479316E-05;  2.1349020E+02;
 -1.1000000E-01;  9.9999998E-03; -1.7000000E-01;845;  0.0000000E+00;  0.0000000E+00;  0.0000000E+00;  1.0003031E+03;  1.0000000E-01;  2.5115340E+02;0;  0.0000000E+00;  0.0000000E+00;  0.0000000E+00;0;  4.4891620E-03;  4.0000000E+04;  0.0000000E+00;  0.0000000E+00;  4.0000000E+04;  0.0000000E+00;  4.0000000E+04;  4.5160288E-03;  0.0000000E+00; -2.6866892E-05;  2.0990871E+02;
 -1.1000000E-01;  9.9999998E-03; -1.6000000E-01;846;  0.0000000E+00;  0.0000000E+00;  0.0000000E+00;  1.0003104E+03;  1.0000000E-01;  2.5717792E+02;0;  0.0000000E+00;  0.0000000E+00;  0.0000000E+00;0;  4.4979556E-03;  4.0000000E+04;  0.0000000E+00;  0.0000000E+00;  4.0000000E+04;  0.0000000E+00;  4.0000000E+04;  4.5184917E-03;  0.0000000E+00; -2.0536314E-05;  2.0478308E+02;
 -1.1000000E-01;  9.9999998E-03; -1.5000001E-01;847;  0.0000000E+00;  0.0000000E+00;  0.0000000E+00;  1.0003166E+03;  1.0000000E-01;  2.6231357E+02;0;  0.0000000E+00;  0.0000000E+00;  0.0000000E+00;0;  4.5017535E-03;  4.0000000E+04;  0.0000000E+00;  0.0000000E+00;  4.0000000E+04;  0.0000000E+00;  4.0000000E+04;  4.5185778E-03;  0.0000000E+00; -1.6824450E-05;  1.9872110E+02;
 -1.1000000E-01;  9.9999998E-03; -1.4000000E-01;848;  0.0000000E+00;  0.0000000E+00;  0.0000000E+00;  1.0003242E+03;  1.0000000E-01;  2.6863437E+02;0;  0.0000000E+00;  0.0000000E+00;  0.0000000E+00;0;  4.5042471E-03;  4.0000000E+04;  0.0000000E+00;  0.0000000E+00;  4.0000000E+04;  0.0000000E+00;  4.0000000E+04;  4.5198146E-03;  0.0000000E+00; -1.5567681E-05;  1.9220352E+02;
 -1.1000000E-01;  9.9999998E-03; -1.3000000E-01;849;  0.0000000E+00;  0.0000000E+00;  0.0000000E+00;  1.0003375E+03;  1.0000000E-01;  2.7959702E+02;0;  0.0000000E+00;  0.0000000E+00;  0.0000000E+00;0;  4.5072846E-03;  4.0000000E+04;  0.0000000E+00;  0.0000000E+00;  4.0000000E+04;  0.0000000E+00;  4.0000000E+04;  4.5235921E-03;  0.0000000E+00; -1.6307569E-05;  1.8574487E+02;
 -1.1000000E-01;  9.9999998E-03; -1.2000000E-01;850;  0.0000000E+00;  0.0000000E+00;  0.0000000E+00;  1.0003402E+03;  1.0000000E-01;  2.8186856E+02;0;  0.0000000E+00;  0.0000000E+00;  0.0000000E+00;0;  4.5112213E-03;  4.0000000E+04;  0.0000000E+00;  0.0000000E+00;  4.0000000E+04;  0.0000000E+00;  4.0000000E+04;  4.5296312E-03;  0.0000000E+00; -1.8409972E-05;  1.7993059E+02;
 -1.1000000E-01;  9.9999998E-03; -1.1000000E-01;851;  0.0000000E+00;  0.0000000E+00;  0.0000000E+00;  1.0003386E+03;  1.0000000E-01;  2.8058466E+02;0;  0.0000000E+00;  0.0000000E+00;  0.0000000E+00;0;  4.5154360E-03;  4.0000000E+04;  0.0000000E+00;  0.0000000E+00;  4.0000000E+04;  0.0000000E+00;  4.0000000E+04;  4.5366008E-03;  0.0000000E+00; -2.1164673E-05;  1.7535791E+02;
 -1.0000000E-01;  9.9999998E-03; -2.7000001E-01;926;  0.0000000E+00;  0.0000000E+00;  0.0000000E+00;  1.0002713E+03;  1.0000000E-01;  2.2478377E+02;0;  0.0000000E+00;  0.0000000E+00;  0.0000000E+00;0;  4.3323091E-03;  4.0000000E+04;  0.0000000E+00;  0.0000000E+00;  4.0000000E+04;  0.0000000E+00;  4.0000000E+04;  4.2627379E-03;  0.0000000E+00;  6.9571150E-05;  1.5414618E+01;
 -1.0000000E-01;  9.9999998E-03; -2.5999999E-01;927;  0.0000000E+00;  0.0000000E+00;  0.0000000E+00;  1.0002969E+03;  1.0000000E-01;  2.4601773E+02;0;  0.0000000E+00;  0.0000000E+00;  0.0000000E+00;0;  4.9071913E-03;  4.0000000E+04;  0.0000000E+00;  0.0000000E+00;  4.0000000E+04;  0.0000000E+00;  4.0000000E+04;  4.8867865E-03;  0.0000000E+00;  2.0404927E-05;  9.0294960E+01;
 -1.0000000E-01;  9.9999998E-03; -2.5000000E-01;928;  0.0000000E+00;  0.0000000E+00;  0.0000000E+00;  1.0003354E+03;  1.0000000E-01;  2.7791806E+02;0;  0.0000000E+00;  0.0000000E+00;  0.0000000E+00;0;  5.4358742E-03;  4.0000000E+04;  0.0000000E+00;  0.0000000E+00;  4.0000000E+04;  0.0000000E+00;  4.0000000E+04;  5.4623894E-03;  0.0000000E+00; -2.6515450E-05;  1.6446962E+02;
 -1.0000000E-01;  9.9999998E-03; -2.3999999E-01;929;  0.0000000E+00;  0.0000000E+00;  0.0000000E+00;  1.0003516E+03;  1.0000000E-01;  2.9134979E+02;0;  0.0000000E+00;  0.0000000E+00;  0.0000000E+00;0;  5.9028040E-03;  4.0000000E+04;  0.0000000E+00;  0.0000000E+00;  4.0000000E+04;  0.0000000E+00;  4.0000000E+04;  5.9687183E-03;  0.0000000E+00; -6.5914399E-05;  2.3069821E+02;
 -1.0000000E-01;  9.9999998E-03; -2.3000000E-01;930;  0.0000000E+00;  0.0000000E+00;  0.0000000E+00;  1.0003920E+03;  1.0000000E-01;  3.2483032E+02;0;  0.0000000E+00;  0.0000000E+00;  0.0000000E+00;0;  6.2979725E-03;  4.0000000E+04;  0.0000000E+00;  0.0000000E+00;  4.0000000E+04;  0.0000000E+00;  4.0000000E+04;  6.3919821E-03;  0.0000000E+00; -9.4009338E-05;  2.8461926E+02;
 -1.0000000E-01;  9.9999998E-03; -2.2000000E-01;931;  0.0000000E+00;  0.0000000E+00;  0.0000000E+00;  1.0004185E+03;  1.0000000E-01;  3.4665686E+02;0;  0.0000000E+00;  0.0000000E+00;  0.0000000E+00;0;  6.6174022E-03;  4.0000000E+04;  0.0000000E+00;  0.0000000E+00;  4.0000000E+04;  0.0000000E+00;  4.0000000E+04;  6.7264829E-03;  0.0000000E+00; -1.0908066E-04;  3.2405450E+02;
 -1.0000000E-01;  9.9999998E-03; -2.0999999E-01;932;  0.0000000E+00;  0.0000000E+00;  0.0000000E+00;  1.0004524E+03;  1.0000000E-01;  3.7480423E+02;0;  0.0000000E+00;  0.0000000E+00;  0.0000000E+00;0;  6.8628998E-03;  4.0000000E+04;  0.0000000E+00;  0.0000000E+00;  4.0000000E+04;  0.0000000E+00;  4.0000000E+04;  6.9745216E-03;  0.0000000E+00; -1.1162187E-04;  3.4897125E+02;
 -1.0000000E-01;  9.9999998E-03; -2.0000000E-01;933;  0.0000000E+00;  0.0000000E+00;  0.0000000E+00;  1.0004788E+03;  1.0000000E-01;  3.9672952E+02;0;  0.0000000E+00;  0.0000000E+00;  0.0000000E+00;0;  7.0412229E-03;  4.0000000E+04;  0.0000000E+00;  0.0000000E+00;  4.0000000E+04;  0.0000000E+00;  4.0000000E+04;  7.1452730E-03;  0.0000000E+00; -1.0405016E-04;  3.6110217E+02;
 -1.0000000E-01;  9.9999998E-03; -1.9000000E-01;934;  0.0000000E+00;  0.0000000E+00;  0.0000000E+00;  1.0005085E+03;  1.0000000E-01;  4.2122266E+02;0;  0.0000000E+00;  0.0000000E+00;  0.0000000E+00;0;  7.1626934E-03;  4.0000000E+04;  0.0000000E+00;  0.0000000E+00;  4.0000000E+04;  0.0000000E+00;  4.0000000E+04;  7.2527267E-03;  0.0000000E+00; -9.0033471E-05;  3.6325537E+02;
 -1.0000000E-01;  9.9999998E-03; -1.8000001E-01;935;  0.0000000E+00;  0.0000000E+00;  0.0000000E+00;  1.0005416E+03;  1.0000000E-01;  4.4867868E+02;0;  0.0000000E+00;  0.0000000E+00;  0.0000000E+00;0;  7.2396104E-03;  4.0000000E+04;  0.0000000E+00;  0.0000000E+00;  4.0000000E+04;  0.0000000E+00;  4.0000000E+04;  7.3132049E-03;  0.0000000E+00; -7.3594470E-05;  3.5850821E+02;
 -1.0000000E-01;  9.9999998E-03; -1.7000000E-01;936;  0.0000000E+00;  0.0000000E+00;  0.0000000E+00;  1.0005655E+03;  1.0000000E-01;  4.6852997E+02;0;  0.0000000E+00;  0.0000000E+00;  0.0000000E+00;0;  7.2845696E-03;  4.0000000E+04;  0.0000000E+00;  0.0000000E+00;  4.0000000E+04;  0.0000000E+00;  4.0000000E+04;  7.3427977E-03;  0.0000000E+00; -5.8228030E-05;  3.4950760E+02;
 -1.0000000E-01;  9.9999998E-03; -1.6000000E-01;937;  0.0000000E+00;  0.0000000E+00;  0.0000000E+00;  1.0005807E+03;  1.0000000E-01;  4.8117157E+02;0;  0.0000000E+00;  0.0000000E+00;  0.0000000E+00;0;  7.3089371E-03;  4.0000000E+04;  0.0000000E+00;  0.0000000E+00;  4.0000000E+04;  0.0000000E+00;  4.0000000E+04;  7.3552527E-03;  0.0000000E+00; -4.6315432E-05;  3.3822433E+02;
 -1.0000000E-01;  9.9999998E-03; -1.5000001E-01;938;  0.0000000E+00;  0.0000000E+00;  0.0000000E+00;  1.0006028E+03;  1.0000000E-01;  4.9944266E+02;0;  0.0000000E+00;  0.0000000E+00;  0.0000000E+00;0;  7.3218136E-03;  4.0000000E+04;  0.0000000E+00;  0.0000000E+00;  4.0000000E+04;  0.0000000E+00;  4.0000000E+04;  7.3607257E-03;  0.0000000E+00; -3.8912007E-05;  3.2604547E+02;
 -1.0000000E-01;  9.9999998E-03; -1.4000000E-01;939;  0.0000000E+00;  0.0000000E+00;  0.0000000E+00;  1.0006119E+03;  1.0000000E-01;  5.0694864E+02;0;  0.0000000E+00;  0.0000000E+00;  0.0000000E+00;0;  7.3294640E-03;  4.0000000E+04;  0.0000000E+00;  0.0000000E+00;  4.0000000E+04;  0.0000000E+00;  4.0000000E+04;  7.3653883E-03;  0.0000000E+00; -3.5924419E-05;  3.1387085E+02;
 -1.0000000E-01;  9.9999998E-03; -1.3000000E-01;940;  0.0000000E+00;  0.0000000E+00;  0.0000000E+00;  1.0006179E+03;  1.0000000E-01;  5.1188675E+02;0;  0.0000000E+00;  0.0000000E+00;  0.0000000E+00;0;  7.3355362E-03;  4.0000000E+04;  0.0000000E+00;  0.0000000E+00;  4.0000000E+04;  0.0000000E+00;  4.0000000E+04;  7.3721437E-03;  0.0000000E+00; -3.6607486E-05;  3.0248050E+02;
 -1.0000000E-01;  9.9999998E-03; -1.2000000E-01;941;  0.0000000E+00;  0.0000000E+00;  0.0000000E+00;  1.0006191E+03;  1.0000000E-01;  5.1297314E+02;0;  0.0000000E+00;  0.0000000E+00;  0.0000000E+00;0;  7.3413583E-03;  4.0000000E+04;  0.0000000E+00;  0.0000000E+00;  4.0000000E+04;  0.0000000E+00;  4.0000000E+04;  7.3812134E-03;  0.0000000E+00; -3.9855229E-05;  2.9267456E+02;
 -1.0000000E-01;  9.9999998E-03; -1.1000000E-01;942;  0.0000000E+00;  0.0000000E+00;  0.0000000E+00;  1.0006193E+03;  1.0000000E-01;  5.1307190E+02;0;  0.0000000E+00;  0.0000000E+00;  0.0000000E+00;0;  7.3466790E-03;  4.0000000E+04;  0.0000000E+00;  0.0000000E+00;  4.0000000E+04;  0.0000000E+00;  4.0000000E+04;  7.3910826E-03;  0.0000000E+00; -4.4403754E-05;  2.8528271E+02;
 -9.0000004E-02;  9.9999998E-03; -2.7000001E-01;1017;  0.0000000E+00;  0.0000000E+00;  0.0000000E+00;  1.0004713E+03;  1.0000000E-01;  3.9040872E+02;0;  0.0000000E+00;  0.0000000E+00;  0.0000000E+00;0;  6.4723054E-03;  4.0000000E+04;  0.0000000E+00;  0.0000000E+00;  4.0000000E+04;  0.0000000E+00;  4.0000000E+04;  6.3469238E-03;  0.0000000E+00;  1.2538163E-04;  3.1932949E+01;
 -9.0000004E-02;  9.9999998E-03; -2.5999999E-01;1018;  0.0000000E+00;  0.0000000E+00;  0.0000000E+00;  1.0005191E+03;  1.0000000E-01;  4.3011130E+02;0;  0.0000000E+00;  0.0000000E+00;  0.0000000E+00;0;  7.3012775E-03;  4.0000000E+04;  0.0000000E+00;  0.0000000E+00;  4.0000000E+04;  0.0000000E+00;  4.0000000E+04;  7.2564902E-03;  0.0000000E+00;  4.4787324E-05;  1.4839806E+02;
 -9.0000004E-02;  9.9999998E-03; -2.5000000E-01;1019;  0.0000000E+00;  0.0000000E+00;  0.0000000E+00;  1.0005674E+03;  1.0000000E-01;  4.7011017E+02;0;  0.0000000E+00;  0.0000000E+00;  0.0000000E+00;0;  8.0658616E-03;  4.0000000E+04;  0.0000000E+00;  0.0000000E+00;  4.0000000E+04;  0.0000000E+00;  4.0000000E+04;  8.0987345E-03;  0.0000000E+00; -3.2873329E-05;  2.6479190E+02;
 -9.0000004E-02;  9.9999998E-03; -2.3999999E-01;1020;  0.0000000E+00;  0.0000000E+00;  0.0000000E+00;  1.0006241E+03;  1.0000000E-01;  5.1702240E+02;0;  0.0000000E+00;  0.0000000E+00;  0.0000000E+00;0;  8.7450128E-03;  4.0000000E+04;  0.0000000E+00;  0.0000000E+00;  4.0000000E+04;  0.0000000E+00;  4.0000000E+04;  8.8444138E-03;  0.0000000E+00; -9.9401004E-05;  3.6821585E+02;
 -9.0000004E-02;  9.9999998E-03; -2.3000000E-01;1021;  0.0000000E+00;  0.0000000E+00;  0.0000000E+00;  1.0006755E+03;  1.0000000E-01;  5.5958911E+02;0;  0.0000000E+00;  0.0000000E+00;  0.0000000E+00;0;  9.3250368E-03;  4.0000000E+04;  0.0000000E+00;  0.0000000E+00;  4.0000000E+04;  0.0000000E+00;  4.0000000E+04;  9.4737904E-03;  0.0000000E+00; -1.4875352E-04;  4.5189328E+02;
 -9.0000004E-02;  9.9999998E-03; -2.2000000E-01;1022;  0.0000000E+00;  0.0000000E+00;  0.0000000E+00;  1.0007324E+03;  1.0000000E-01;  6.0669891E+02;0;  0.0000000E+00;  0.0000000E+00;  0.0000000E+00;0;  9.8000877E-03;  4.0000000E+04;  0.0000000E+00;  0.0000000E+00;  4.0000000E+04;  0.0000000E+00;  4.0000000E+04;  9.9779731E-03;  0.0000000E+00; -1.7788500E-04;  5.1239752E+02;
 -9.0000004E-02;  9.9999998E-03; -2.0999999E-01;1023;  0.0000000E+00;  0.0000000E+00;  0.0000000E+00;  1.0007768E+03;  1.0000000E-01;  6.4353735E+02;0;  0.0000000E+00;  0.0000000E+00;  0.0000000E+00;0;  1.0171966E-02;  4.0000000E+04;  0.0000000E+00;  0.0000000E+00;  4.0000000E+04;  0.0000000E+00;  4.0000000E+04;  1.0358977E-02;  0.0000000E+00; -1.8701178E-04;  5.4955145E+02;
 -9.0000004E-02;  9.9999998E-03; -2.0000000E-01;1024;  0.0000000E+00;  0.0000000E+00;  0.0000000E+00;  1.0008291E+03;  1.0000000E-01;  6.8689417E+02;0;  0.0000000E+00;  0.0000000E+00;  0.0000000E+00;0;  1.0448926E-02;  4.0000000E+04;  0.0000000E+00;  0.0000000E+00;  4.0000000E+04;  0.0000000E+00;  4.0000000E+04;  1.0628217E-02;  0.0000000E+00; -1.7929076E-04;  5.6590167E+02;
 -9.0000004E-02;  9.9999998E-03; -1.9000000E-01;1025;  0.0000000E+00;  0.0000000E+00;  0.0000000E+00;  1.0008832E+03;  1.0000000E-01;  7.3173242E+02;0;  0.0000000E+00;  0.0000000E+00;  0.0000000E+00;0;  1.0644109E-02;  4.0000000E+04;  0.0000000E+00;  0.0000000E+00;  4.0000000E+04;  0.0000000E+00;  4.0000000E+04;  1.0804094E-02;  0.0000000E+00; -1.5998534E-04;  5.6582361E+02;
 -9.0000004E-02;  9.9999998E-03; -1.8000001E-01;1026;  0.0000000E+00;  0.0000000E+00;  0.0000000E+00;  1.0009289E+03;  1.0000000E-01;  7.6955847E+02;0;  0.0000000E+00;  0.0000000E+00;  0.0000000E+00;0;  1.0773435E-02;  4.0000000E+04;  0.0000000E+00;  0.0000000E+00;  4.0000000E+04;  0.0000000E+00;  4.0000000E+04;  1.0908701E-02;  0.0000000E+00; -1.3526579E-04;  5.5441626E+02;
 -9.0000004E-02;  9.9999998E-03; -1.7000000E-01;1027;  0.0000000E+00;  0.0000000E+00;  0.0000000E+00;  1.0009678E+03;  1.0000000E-01;  8.0185388E+02;0;  0.0000000E+00;  0.0000000E+00;  0.0000000E+00;0;  1.0853637E-02;  4.0000000E+04;  0.0000000E+00;  0.0000000E+00;  4.0000000E+04;  0.0000000E+00;  4.0000000E+04;  1.0964512E-02;  0.0000000E+00; -1.1087533E-04;  5.3638806E+02;
 -9.0000004E-02;  9.9999998E-03; -1.6000000E-01;1028;  0.0000000E+00;  0.0000000E+00;  0.0000000E+00;  1.0010015E+03;  1.0000000E-01;  8.2970496E+02;0;  0.0000000E+00;  0.0000000E+00;  0.0000000E+00;0;  1.0900303E-02;  4.0000000E+04;  0.0000000E+00;  0.0000000E+00;  4.0000000E+04;  0.0000000E+00;  4.0000000E+04;  1.0991354E-02;  0.0000000E+00; -9.1050912E-05;  5.1532306E+02;
 -9.0000004E-02;  9.9999998E-03; -1.5000001E-01;1029;  0.0000000E+00;  0.0000000E+00;  0.0000000E+00;  1.0010308E+03;  1.0000000E-01;  8.5400055E+02;0;  0.0000000E+00;  0.0000000E+00;  0.0000000E+00;0;  1.0926481E-02;  4.0000000E+04;  0.0000000E+00;  0.0000000E+00;  4.0000000E+04;  0.0000000E+00;  4.0000000E+04;  1.1004520E-02;  0.0000000E+00; -7.8038458E-05;  4.9369150E+02;
 -9.0000004E-02;  9.9999998E-03; -1.4000000E-01;1030;  0.0000000E+00;  0.0000000E+00;  0.0000000E+00;  1.0010497E+03;  1.0000000E-01;  8.6960504E+02;0;  0.0000000E+00;  0.0000000E+00;  0.0000000E+00;0;  1.0941709E-02;  4.0000000E+04;  0.0000000E+00;  0.0000000E+00;  4.0000000E+04;  0.0000000E+00;  4.0000000E+04;  1.1013846E-02;  0.0000000E+00; -7.2136958E-05;  4.7311093E+02;
 -9.0000004E-02;  9.9999998E-03; -1.3000000E-01;1031;  0.0000000E+00;  0.0000000E+00;  0.0000000E+00;  1.0010654E+03;  1.0000000E-01;  8.8264172E+02;0;  0.0000000E+00;  0.0000000E+00;  0.0000000E+00;0;  1.0951934E-02;  4.0000000E+04;  0.0000000E+00;  0.0000000E+00;  4.0000000E+04;  0.0000000E+00;  4.0000000E+04;  1.1024232E-02;  0.0000000E+00; -7.2297335E-05;  4.5469452E+02;
 -9.0000004E-02;  9.9999998E-03; -1.2000000E-01;1032;  0.0000000E+00;  0.0000000E+00;  0.0000000E+00;  1.0010698E+03;  1.0000000E-01;  8.8629590E+02;0;  0.0000000E+00;  0.0000000E+00;  0.0000000E+00;0;  1.0959934E-02;  4.0000000E+04;  0.0000000E+00;  0.0000000E+00;  4.0000000E+04;  0.0000000E+00;  4.0000000E+04;  1.1036718E-02;  0.0000000E+00; -7.6785109E-05;  4.3946036E+02;
 -9.0000004E-02;  9.9999998E-03; -1.1000000E-01;1033;  0.0000000E+00;  0.0000000E+00;  0.0000000E+00;  1.0010677E+03;  1.0000000E-01;  8.8451819E+02;0;  0.0000000E+00;  0.0000000E+00;  0.0000000E+00;0;  1.0966112E-02;  4.0000000E+04;  0.0000000E+00;  0.0000000E+00;  4.0000000E+04;  0.0000000E+00;  4.0000000E+04;  1.1049682E-02;  0.0000000E+00; -8.3570776E-05;  4.2843033E+02;
 -7.9999998E-02;  9.9999998E-03; -2.7000001E-01;1108;  0.0000000E+00;  0.0000000E+00;  0.0000000E+00;  1.0007643E+03;  1.0000000E-01;  6.3326605E+02;0;  0.0000000E+00;  0.0000000E+00;  0.0000000E+00;0;  9.0932436E-03;  4.0000000E+04;  0.0000000E+00;  0.0000000E+00;  4.0000000E+04;  0.0000000E+00;  4.0000000E+04;  8.8839363E-03;  0.0000000E+00;  2.0930728E-04;  6.0662899E+01;
 -7.9999998E-02;  9.9999998E-03; -2.5999999E-01;1109;  0.0000000E+00;  0.0000000E+00;  0.0000000E+00;  1.0008438E+03;  1.0000000E-01;  6.9904193E+02;0;  0.0000000E+00;  0.0000000E+00;  0.0000000E+00;0;  1.0220509E-02;  4.0000000E+04;  0.0000000E+00;  0.0000000E+00;  4.0000000E+04;  0.0000000E+00;  4.0000000E+04;  1.0134681E-02;  0.0000000E+00;  8.5827975E-05;  2.2973796E+02;
 -7.9999998E-02;  9.9999998E-03; -2.5000000E-01;1110;  0.0000000E+00;  0.0000000E+00;  0.0000000E+00;  1.0009295E+03;  1.0000000E-01;  7.7005231E+02;0;  0.0000000E+00;  0.0000000E+00;  0.0000000E+00;0;  1.1260645E-02;  4.0000000E+04;  0.0000000E+00;  0.0000000E+00;  4.0000000E+04;  0.0000000E+00;  4.0000000E+04;  1.1294689E-02;  0.0000000E+00; -3.4043864E-05;  4.0031448E+02;
 -7.9999998E-02;  9.9999998E-03; -2.3999999E-01;1111;  0.0000000E+00;  0.0000000E+00;  0.0000000E+00;  1.0010129E+03;  1.0000000E-01;  8.3918616E+02;0;  0.0000000E+00;  0.0000000E+00;  0.0000000E+00;0;  1.2186626E-02;  4.0000000E+04;  0.0000000E+00;  0.0000000E+00;  4.0000000E+04;  0.0000000E+00;  4.0000000E+04;  1.2324925E-02;  0.0000000E+00; -1.3829903E-04;  5.5097760E+02;
 -7.9999998E-02;  9.9999998E-03; -2.3000000E-01;1112;  0.0000000E+00;  0.0000000E+00;  0.0000000E+00;  1.0010980E+03;  1.0000000E-01;  9.0960388E+02;0;  0.0000000E+00;  0.0000000E+00;  0.0000000E+00;0;  1.2980904E-02;  4.0000000E+04;  0.0000000E+00;  0.0000000E+00;  4.0000000E+04;  0.0000000E+00;  4.0000000E+04;  1.3198869E-02;  0.0000000E+00; -2.1796499E-04;  6.7183008E+02;
 -7.9999998E-02;  9.9999998E-03; -2.2000000E-01;1113;  0.0000000E+00;  0.0000000E+00;  0.0000000E+00;  1.0011782E+03;  1.0000000E-01;  9.7607117E+02;0;  0.0000000E+00;  0.0000000E+00;  0.0000000E+00;0;  1.3635937E-02;  4.0000000E+04;  0.0000000E+00;  0.0000000E+00;  4.0000000E+04;  0.0000000E+00;  4.0000000E+04;  1.3904184E-02;  0.0000000E+00; -2.6824707E-04;  7.5804291E+02;
 -7.9999998E-02;  9.9999998E-03; -2.0999999E-01;1114;  0.0000000E+00;  0.0000000E+00;  0.0000000E+00;  1.0012632E+03;  1.0000000E-01;  1.0464889E+03;0;  0.0000000E+00;  0.0000000E+00;  0.0000000E+00;0;  1.4153861E-02;  4.0000000E+04;  0.0000000E+00;  0.0000000E+00;  4.0000000E+04;  0.0000000E+00;  4.0000000E+04;  1.4442755E-02;  0.0000000E+00; -2.8889431E-04;  8.0942273E+02;
 -7.9999998E-02;  9.9999998E-03; -2.0000000E-01;1115;  0.0000000E+00;  0.0000000E+00;  0.0000000E+00;  1.0013427E+03;  1.0000000E-01;  1.1123636E+03;0;  0.0000000E+00;  0.0000000E+00;  0.0000000E+00;0;  1.4545030E-02;  4.0000000E+04;  0.0000000E+00;  0.0000000E+00;  4.0000000E+04;  0.0000000E+00;  4.0000000E+04;  1.4828837E-02;  0.0000000E+00; -2.8380778E-04;  8.2967499E+02;
 -7.9999998E-02;  9.9999998E-03; -1.9000000E-01;1116;  0.0000000E+00;  0.0000000E+00;  0.0000000E+00;  1.0014222E+03;  1.0000000E-01;  1.1783370E+03;0;  0.0000000E+00;  0.0000000E+00;  0.0000000E+00;0;  1.4825968E-02;  4.0000000E+04;  0.0000000E+00;  0.0000000E+00;  4.0000000E+04;  0.0000000E+00;  4.0000000E+04;  1.5085985E-02;  0.0000000E+00; -2.6001726E-04;  8.2518811E+02;
 -7.9999998E-02;  9.9999998E-03; -1.8000001E-01;1117;  0.0000000E+00;  0.0000000E+00;  0.0000000E+00;  1.0014953E+03;  1.0000000E-01;  1.2387798E+03;0;  0.0000000E+00;  0.0000000E+00;  0.0000000E+00;0;  1.5016847E-02;  4.0000000E+04;  0.0000000E+00;  0.0000000E+00;  4.0000000E+04;  0.0000000E+00;  4.0000000E+04;  1.5243042E-02;  0.0000000E+00; -2.2619481E-04;  8.0357800E+02;
 -7.9999998E-02;  9.9999998E-03; -1.7000000E-01;1118;  0.0000000E+00;  0.0000000E+00;  0.0000000E+00;  1.0015573E+03;  1.0000000E-01;  1.2902351E+03;0;  0.0000000E+00;  0.0000000E+00;  0.0000000E+00;0;  1.5138954E-02;  4.0000000E+04;  0.0000000E+00;  0.0000000E+00;  4.0000000E+04;  0.0000000E+00;  4.0000000E+04;  1.5329869E-02;  0.0000000E+00; -1.9091480E-04;  7.7224542E+02;
 -7.9999998E-02;  9.9999998E-03; -1.6000000E-01;1119;  0.0000000E+00;  0.0000000E+00;  0.0000000E+00;  1.0016116E+03;  1.0000000E-01;  1.3351721E+03;0;  0.0000000E+00;  0.0000000E+00;  0.0000000E+00;0;  1.5212497E-02;  4.0000000E+04;  0.0000000E+00;  0.0000000E+00;  4.0000000E+04;  0.0000000E+00;  4.0000000E+04;  1.5373475E-02;  0.0000000E+00; -1.6097863E-04;  7.3713922E+02;
 -7.9999998E-02;  9.9999998E-03; -1.5000001E-01;1120;  0.0000000E+00;  0.0000000E+00;  0.0000000E+00;  1.0016577E+03;  1.0000000E-01;  1.3732944E+03;0;  0.0000000E+00;  0.0000000E+00;  0.0000000E+00;0;  1.5254804E-02;  4.0000000E+04;  0.0000000E+00;  0.0000000E+00;  4.0000000E+04;  0.0000000E+00;  4.0000000E+04;  1.5395185E-02;  0.0000000E+00; -1.4038087E-04;  7.0223761E+02;
 -7.9999998E-02;  9.9999998E-03; -1.4000000E-01;1121;  0.0000000E+00;  0.0000000E+00;  0.0000000E+00;  1.0016862E+03;  1.0000000E-01;  1.3969976E+03;0;  0.0000000E+00;  0.0000000E+00;  0.0000000E+00;0;  1.5279072E-02;  4.0000000E+04;  0.0000000E+00;  0.0000000E+00;  4.0000000E+04;  0.0000000E+00;  4.0000000E+04;  1.5409292E-02;  0.0000000E+00; -1.3021978E-04;  6.7010046E+02;
 -7.9999998E-02;  9.9999998E-03; -1.3000000E-01;1122;  0.0000000E+00;  0.0000000E+00;  0.0000000E+00;  1.0017112E+03;  1.0000000E-01;  1.4176389E+03;0;  0.0000000E+00;  0.0000000E+00;  0.0000000E+00;0;  1.5293991E-02;  4.0000000E+04;  0.0000000E+00;  0.0000000E+00;  4.0000000E+04;  0.0000000E+00;  4.0000000E+04;  1.5423243E-02;  0.0000000E+00; -1.2925208E-04;  6.4230481E+02;
 -7.9999998E-02;  9.9999998E-03; -1.2000000E-01;1123;  0.0000000E+00;  0.0000000E+00;  0.0000000E+00;  1.0017195E+03;  1.0000000E-01;  1.4246511E+03;0;  0.0000000E+00;  0.0000000E+00;  0.0000000E+00;0;  1.5304110E-02;  4.0000000E+04;  0.0000000E+00;  0.0000000E+00;  4.0000000E+04;  0.0000000E+00;  4.0000000E+04;  1.5439092E-02;  0.0000000E+00; -1.3498258E-04;  6.2005444E+02;
 -7.9999998E-02;  9.9999998E-03; -1.1000000E-01;1124;  0.0000000E+00;  0.0000000E+00;  0.0000000E+00;  1.0017185E+03;  1.0000000E-01;  1.4237622E+03;0;  0.0000000E+00;  0.0000000E+00;  0.0000000E+00;0;  1.5310676E-02;  4.0000000E+04;  0.0000000E+00;  0.0000000E+00;  4.0000000E+04;  0.0000000E+00;  4.0000000E+04;  1.5455077E-02;  0.0000000E+00; -1.4440161E-04;  6.0451691E+02;
 -7.0000000E-02;  9.9999998E-03; -2.7000001E-01;1199;  0.0000000E+00;  0.0000000E+00;  0.0000000E+00;  1.0011771E+03;  1.0000000E-01;  9.7518231E+02;0;  0.0000000E+00;  0.0000000E+00;  0.0000000E+00;0;  1.2138785E-02;  4.0000000E+04;  0.0000000E+00;  0.0000000E+00;  4.0000000E+04;  0.0000000E+00;  4.0000000E+04;  1.1810704E-02;  0.0000000E+00;  3.2808114E-04;  1.0573453E+02;
 -7.0000000E-02;  9.9999998E-03; -2.5999999E-01;1200;  0.0000000E+00;  0.0000000E+00;  0.0000000E+00;  1.0013046E+03;  1.0000000E-01;  1.0807595E+03;0;  0.0000000E+00;  0.0000000E+00;  0.0000000E+00;0;  1.3598883E-02;  4.0000000E+04;  0.0000000E+00;  0.0000000E+00;  4.0000000E+04;  0.0000000E+00;  4.0000000E+04;  1.3449775E-02;  0.0000000E+00;  1.4910793E-04;  3.3855368E+02;
 -7.0000000E-02;  9.9999998E-03; -2.5000000E-01;1201;  0.0000000E+00;  0.0000000E+00;  0.0000000E+00;  1.0014313E+03;  1.0000000E-01;  1.1858430E+03;0;  0.0000000E+00;  0.0000000E+00;  0.0000000E+00;0;  1.4943882E-02;  4.0000000E+04;  0.0000000E+00;  0.0000000E+00;  4.0000000E+04;  0.0000000E+00;  4.0000000E+04;  1.4969488E-02;  0.0000000E+00; -2.5605414E-05;  5.7496332E+02;
 -7.0000000E-02;  9.9999998E-03; -2.3999999E-01;1202;  0.0000000E+00;  0.0000000E+00;  0.0000000E+00;  1.0015612E+03;  1.0000000E-01;  1.2933955E+03;0;  0.0000000E+00;  0.0000000E+00;  0.0000000E+00;0;  1.6140539E-02;  4.0000000E+04;  0.0000000E+00;  0.0000000E+00;  4.0000000E+04;  0.0000000E+00;  4.0000000E+04;  1.6319811E-02;  0.0000000E+00; -1.7927299E-04;  7.8215106E+02;
 -7.0000000E-02;  9.9999998E-03; -2.3000000E-01;1203;  0.0000000E+00;  0.0000000E+00;  0.0000000E+00;  1.0016871E+03;  1.0000000E-01;  1.3976888E+03;0;  0.0000000E+00;  0.0000000E+00;  0.0000000E+00;0;  1.7167572E-02;  4.0000000E+04;  0.0000000E+00;  0.0000000E+00;  4.0000000E+04;  0.0000000E+00;  4.0000000E+04;  1.7466899E-02;  0.0000000E+00; -2.9932702E-04;  9.4643347E+02;
 -7.0000000E-02;  9.9999998E-03; -2.2000000E-01;1204;  0.0000000E+00;  0.0000000E+00;  0.0000000E+00;  1.0018112E+03;  1.0000000E-01;  1.5005995E+03;0;  0.0000000E+00;  0.0000000E+00;  0.0000000E+00;0;  1.8016167E-02;  4.0000000E+04;  0.0000000E+00;  0.0000000E+00;  4.0000000E+04;  0.0000000E+00;  4.0000000E+04;  1.8395031E-02;  0.0000000E+00; -3.7886336E-04;  1.0615992E+03;
 -7.0000000E-02;  9.9999998E-03; -2.0999999E-01;1205;  0.0000000E+00;  0.0000000E+00;  0.0000000E+00;  1.0019374E+03;  1.0000000E-01;  1.6050905E+03;0;  0.0000000E+00;  0.0000000E+00;  0.0000000E+00;0;  1.8689539E-02;  4.0000000E+04;  0.0000000E+00;  0.0000000E+00;  4.0000000E+04;  0.0000000E+00;  4.0000000E+04;  1.9106591E-02;  0.0000000E+00; -4.1705102E-04;  1.1278671E+03;
 -7.0000000E-02;  9.9999998E-03; -2.0000000E-01;1206;  0.0000000E+00;  0.0000000E+00;  0.0000000E+00;  1.0020576E+03;  1.0000000E-01;  1.7046432E+03;0;  0.0000000E+00;  0.0000000E+00;  0.0000000E+00;0;  1.9200934E-02;  4.0000000E+04;  0.0000000E+00;  0.0000000E+00;  4.0000000E+04;  0.0000000E+00;  4.0000000E+04;  1.9619519E-02;  0.0000000E+00; -4.1858459E-04;  1.1506290E+03;
 -7.0000000E-02;  9.9999998E-03; -1.9000000E-01;1207;  0.0000000E+00;  0.0000000E+00;  0.0000000E+00;  1.0021740E+03;  1.0000000E-01;  1.8010355E+03;0;  0.0000000E+00;  0.0000000E+00;  0.0000000E+00;0;  1.9571193E-02;  4.0000000E+04;  0.0000000E+00;  0.0000000E+00;  4.0000000E+04;  0.0000000E+00;  4.0000000E+04;  1.9963600E-02;  0.0000000E+00; -3.9240802E-04;  1.1388104E+03;
 -7.0000000E-02;  9.9999998E-03; -1.8000001E-01;1208;  0.0000000E+00;  0.0000000E+00;  0.0000000E+00;  1.0022807E+03;  1.0000000E-01;  1.8895269E+03;0;  0.0000000E+00;  0.0000000E+00;  0.0000000E+00;0;  1.9825516E-02;  4.0000000E+04;  0.0000000E+00;  0.0000000E+00;  4.0000000E+04;  0.0000000E+00;  4.0000000E+04;  2.0175433E-02;  0.0000000E+00; -3.4991693E-04;  1.1030729E+03;
 -7.0000000E-02;  9.9999998E-03; -1.7000000E-01;1209;  0.0000000E+00;  0.0000000E+00;  0.0000000E+00;  1.0023754E+03;  1.0000000E-01;  1.9680431E+03;0;  0.0000000E+00;  0.0000000E+00;  0.0000000E+00;0;  1.9990474E-02;  4.0000000E+04;  0.0000000E+00;  0.0000000E+00;  4.0000000E+04;  0.0000000E+00;  4.0000000E+04;  2.0293340E-02;  0.0000000E+00; -3.0286566E-04;  1.0539409E+03;
 -7.0000000E-02;  9.9999998E-03; -1.6000000E-01;1210;  0.0000000E+00;  0.0000000E+00;  0.0000000E+00;  1.0024604E+03;  1.0000000E-01;  2.0384608E+03;0;  0.0000000E+00;  0.0000000E+00;  0.0000000E+00;0;  2.0091251E-02;  4.0000000E+04;  0.0000000E+00;  0.0000000E+00;  4.0000000E+04;  0.0000000E+00;  4.0000000E+04;  2.0352475E-02;  0.0000000E+00; -2.6122492E-04;  1.0002657E+03;
 -7.0000000E-02;  9.9999998E-03; -1.5000001E-01;1211;  0.0000000E+00;  0.0000000E+00;  0.0000000E+00;  1.0025219E+03;  1.0000000E-01;  2.0893237E+03;0;  0.0000000E+00;  0.0000000E+00;  0.0000000E+00;0;  2.0149581E-02;  4.0000000E+04;  0.0000000E+00;  0.0000000E+00;  4.0000000E+04;  0.0000000E+00;  4.0000000E+04;  2.0381004E-02;  0.0000000E+00; -2.3142203E-04;  9.4813654E+02;
 -7.0000000E-02;  9.9999998E-03; -1.4000000E-01;1212;  0.0000000E+00;  0.0000000E+00;  0.0000000E+00;  1.0025701E+03;  1.0000000E-01;  2.1292236E+03;0;  0.0000000E+00;  0.0000000E+00;  0.0000000E+00;0;  2.0182449E-02;  4.0000000E+04;  0.0000000E+00;  0.0000000E+00;  4.0000000E+04;  0.0000000E+00;  4.0000000E+04;  2.0398229E-02;  0.0000000E+00; -2.1577977E-04;  9.0116583E+02;
 -7.0000000E-02;  9.9999998E-03; -1.3000000E-01;1213;  0.0000000E+00;  0.0000000E+00;  0.0000000E+00;  1.0026042E+03;  1.0000000E-01;  2.1575686E+03;0;  0.0000000E+00;  0.0000000E+00;  0.0000000E+00;0;  2.0201439E-02;  4.0000000E+04;  0.0000000E+00;  0.0000000E+00;  4.0000000E+04;  0.0000000E+00;  4.0000000E+04;  2.0414559E-02;  0.0000000E+00; -2.1312058E-04;  8.6151740E+02;
 -7.0000000E-02;  9.9999998E-03; -1.2000000E-01;1214;  0.0000000E+00;  0.0000000E+00;  0.0000000E+00;  1.0026168E+03;  1.0000000E-01;  2.1679387E+03;0;  0.0000000E+00;  0.0000000E+00;  0.0000000E+00;0;  2.0212920E-02;  4.0000000E+04;  0.0000000E+00;  0.0000000E+00;  4.0000000E+04;  0.0000000E+00;  4.0000000E+04;  2.0433033E-02;  0.0000000E+00; -2.2011263E-04;  8.3056067E+02;
 -7.0000000E-02;  9.9999998E-03; -1.1000000E-01;1215;  0.0000000E+00;  0.0000000E+00;  0.0000000E+00;  1.0026234E+03;  1.0000000E-01;  2.1734695E+03;0;  0.0000000E+00;  0.0000000E+00;  0.0000000E+00;0;  2.0219095E-02;  4.0000000E+04;  0.0000000E+00;  0.0000000E+00;  4.0000000E+04;  0.0000000E+00;  4.0000000E+04;  2.0451669E-02;  0.0000000E+00; -2.3257299E-04;  8.0954572E+02;
 -5.9999999E-02;  9.9999998E-03; -2.7000001E-01;1290;  0.0000000E+00;  0.0000000E+00;  0.0000000E+00;  1.0017271E+03;  1.0000000E-01;  1.4308732E+03;0;  0.0000000E+00;  0.0000000E+00;  0.0000000E+00;0;  1.5482555E-02;  4.0000000E+04;  0.0000000E+00;  0.0000000E+00;  4.0000000E+04;  0.0000000E+00;  4.0000000E+04;  1.4995280E-02;  0.0000000E+00;  4.8727571E-04;  1.7008429E+02;
 -5.9999999E-02;  9.9999998E-03; -2.5999999E-01;1291;  0.0000000E+00;  0.0000000E+00;  0.0000000E+00;  1.0019174E+03;  1.0000000E-01;  1.5884983E+03;0;  0.0000000E+00;  0.0000000E+00;  0.0000000E+00;0;  1.7292688E-02;  4.0000000E+04;  0.0000000E+00;  0.0000000E+00;  4.0000000E+04;  0.0000000E+00;  4.0000000E+04;  1.7052913E-02;  0.0000000E+00;  2.3977502E-04;  4.7768042E+02;
 -5.9999999E-02;  9.9999998E-03; -2.5000000E-01;1292;  0.0000000E+00;  0.0000000E+00;  0.0000000E+00;  1.0021033E+03;  1.0000000E-01;  1.7425680E+03;0;  0.0000000E+00;  0.0000000E+00;  0.0000000E+00;0;  1.8954137E-02;  4.0000000E+04;  0.0000000E+00;  0.0000000E+00;  4.0000000E+04;  0.0000000E+00;  4.0000000E+04;  1.8956874E-02;  0.0000000E+00; -2.7371557E-06;  7.9027307E+02;
 -5.9999999E-02;  9.9999998E-03; -2.3999999E-01;1293;  0.0000000E+00;  0.0000000E+00;  0.0000000E+00;  1.0022902E+03;  1.0000000E-01;  1.8973291E+03;0;  0.0000000E+00;  0.0000000E+00;  0.0000000E+00;0;  2.0427611E-02;  4.0000000E+04;  0.0000000E+00;  0.0000000E+00;  4.0000000E+04;  0.0000000E+00;  4.0000000E+04;  2.0645296E-02;  0.0000000E+00; -2.1768625E-04;  1.0613408E+03;
 -5.9999999E-02;  9.9999998E-03; -2.3000000E-01;1294;  0.0000000E+00;  0.0000000E+00;  0.0000000E+00;  1.0024739E+03;  1.0000000E-01;  2.0495222E+03;0;  0.0000000E+00;  0.0000000E+00;  0.0000000E+00;0;  2.1688653E-02;  4.0000000E+04;  0.0000000E+00;  0.0000000E+00;  4.0000000E+04;  0.0000000E+00;  4.0000000E+04;  2.2076974E-02;  0.0000000E+00; -3.8831998E-04;  1.2729478E+03;
 -5.9999999E-02;  9.9999998E-03; -2.2000000E-01;1295;  0.0000000E+00;  0.0000000E+00;  0.0000000E+00;  1.0026552E+03;  1.0000000E-01;  2.1997402E+03;0;  0.0000000E+00;  0.0000000E+00;  0.0000000E+00;0;  2.2728100E-02;  4.0000000E+04;  0.0000000E+00;  0.0000000E+00;  4.0000000E+04;  0.0000000E+00;  4.0000000E+04;  2.3233520E-02;  0.0000000E+00; -5.0541892E-04;  1.4178716E+03;
 -5.9999999E-02;  9.9999998E-03; -2.0999999E-01;1296;  0.0000000E+00;  0.0000000E+00;  0.0000000E+00;  1.0028329E+03;  1.0000000E-01;  2.3469954E+03;0;  0.0000000E+00;  0.0000000E+00;  0.0000000E+00;0;  2.3551125E-02;  4.0000000E+04;  0.0000000E+00;  0.0000000E+00;  4.0000000E+04;  0.0000000E+00;  4.0000000E+04;  2.4118742E-02;  0.0000000E+00; -5.6761678E-04;  1.4974783E+03;
 -5.9999999E-02;  9.9999998E-03; -2.0000000E-01;1297;  0.0000000E+00;  0.0000000E+00;  0.0000000E+00;  1.0030060E+03;  1.0000000E-01;  2.4903987E+03;0;  0.0000000E+00;  0.0000000E+00;  0.0000000E+00;0;  2.4175106E-02;  4.0000000E+04;  0.0000000E+00;  0.0000000E+00;  4.0000000E+04;  0.0000000E+00;  4.0000000E+04;  2.4755670E-02;  0.0000000E+00; -5.8056478E-04;  1.5196816E+03;
 -5.9999999E-02;  9.9999998E-03; -1.9000000E-01;1298;  0.0000000E+00;  0.0000000E+00;  0.0000000E+00;  1.0031671E+03;  1.0000000E-01;  2.6239258E+03;0;  0.0000000E+00;  0.0000000E+00;  0.0000000E+00;0;  2.4626218E-02;  4.0000000E+04;  0.0000000E+00;  0.0000000E+00;  4.0000000E+04;  0.0000000E+00;  4.0000000E+04;  2.5181517E-02;  0.0000000E+00; -5.5529882E-04;  1.4966710E+03;
 -5.9999999E-02;  9.9999998E-03; -1.8000001E-01;1299;  0.0000000E+00;  0.0000000E+00;  0.0000000E+00;  1.0033204E+03;  1.0000000E-01;  2.7509346E+03;0;  0.0000000E+00;  0.0000000E+00;  0.0000000E+00;0;  2.4935804E-02;  4.0000000E+04;  0.0000000E+00;  0.0000000E+00;  4.0000000E+04;  0.0000000E+00;  4.0000000E+04;  2.5441879E-02;  0.0000000E+00; -5.0607539E-04;  1.4425796E+03;
 -5.9999999E-02;  9.9999998E-03; -1.7000000E-01;1300;  0.0000000E+00;  0.0000000E+00;  0.0000000E+00;  1.0034562E+03;  1.0000000E-01;  2.8634253E+03;0;  0.0000000E+00;  0.0000000E+00;  0.0000000E+00;0;  2.5136432E-02;  4.0000000E+04;  0.0000000E+00;  0.0000000E+00;  4.0000000E+04;  0.0000000E+00;  4.0000000E+04;  2.5584385E-02;  0.0000000E+00; -4.4795329E-04;  1.3713621E+03;
 -5.9999999E-02;  9.9999998E-03; -1.6000000E-01;1301;  0.0000000E+00;  0.0000000E+00;  0.0000000E+00;  1.0035710E+03;  1.0000000E-01;  2.9585337E+03;0;  0.0000000E+00;  0.0000000E+00;  0.0000000E+00;0;  2.5258610E-02;  4.0000000E+04;  0.0000000E+00;  0.0000000E+00;  4.0000000E+04;  0.0000000E+00;  4.0000000E+04;  2.5652921E-02;  0.0000000E+00; -3.9431141E-04;  1.2949675E+03;
 -5.9999999E-02;  9.9999998E-03; -1.5000001E-01;1302;  0.0000000E+00;  0.0000000E+00;  0.0000000E+00;  1.0036658E+03;  1.0000000E-01;  3.0370498E+03;0;  0.0000000E+00;  0.0000000E+00;  0.0000000E+00;0;  2.5328564E-02;  4.0000000E+04;  0.0000000E+00;  0.0000000E+00;  4.0000000E+04;  0.0000000E+00;  4.0000000E+04;  2.5683137E-02;  0.0000000E+00; -3.5457275E-04;  1.2219261E+03;
 -5.9999999E-02;  9.9999998E-03; -1.4000000E-01;1303;  0.0000000E+00;  0.0000000E+00;  0.0000000E+00;  1.0037349E+03;  1.0000000E-01;  3.0943323E+03;0;  0.0000000E+00;  0.0000000E+00;  0.0000000E+00;0;  2.5366869E-02;  4.0000000E+04;  0.0000000E+00;  0.0000000E+00;  4.0000000E+04;  0.0000000E+00;  4.0000000E+04;  2.5699694E-02;  0.0000000E+00; -3.3282518E-04;  1.1571699E+03;
 -5.9999999E-02;  9.9999998E-03; -1.3000000E-01;1304;  0.0000000E+00;  0.0000000E+00;  0.0000000E+00;  1.0037796E+03;  1.0000000E-01;  3.1313682E+03;0;  0.0000000E+00;  0.0000000E+00;  0.0000000E+00;0;  2.5387749E-02;  4.0000000E+04;  0.0000000E+00;  0.0000000E+00;  4.0000000E+04;  0.0000000E+00;  4.0000000E+04;  2.5716010E-02;  0.0000000E+00; -3.2826205E-04;  1.1033392E+03;
 -5.9999999E-02;  9.9999998E-03; -1.2000000E-01;1305;  0.0000000E+00;  0.0000000E+00;  0.0000000E+00;  1.0038051E+03;  1.0000000E-01;  3.1524048E+03;0;  0.0000000E+00;  0.0000000E+00;  0.0000000E+00;0;  2.5399098E-02;  4.0000000E+04;  0.0000000E+00;  0.0000000E+00;  4.0000000E+04;  0.0000000E+00;  4.0000000E+04;  2.5735851E-02;  0.0000000E+00; -3.3675411E-04;  1.0619600E+03;
 -5.9999999E-02;  9.9999998E-03; -1.1000000E-01;1306;  0.0000000E+00;  0.0000000E+00;  0.0000000E+00;  1.0038151E+03;  1.0000000E-01;  3.1607996E+03;0;  0.0000000E+00;  0.0000000E+00;  0.0000000E+00;0;  2.5403911E-02;  4.0000000E+04;  0.0000000E+00;  0.0000000E+00;  4.0000000E+04;  0.0000000E+00;  4.0000000E+04;  2.5756715E-02;  0.0000000E+00; -3.5280429E-04;  1.0343351E+03;
 -5.0000001E-02;  9.9999998E-03; -2.7000001E-01;1381;  0.0000000E+00;  0.0000000E+00;  0.0000000E+00;  1.0024364E+03;  1.0000000E-01;  2.0185109E+03;0;  0.0000000E+00;  0.0000000E+00;  0.0000000E+00;0;  1.8916642E-02;  4.0000000E+04;  0.0000000E+00;  0.0000000E+00;  4.0000000E+04;  0.0000000E+00;  4.0000000E+04;  1.8226488E-02;  0.0000000E+00;  6.9015409E-04;  2.5459935E+02;
 -5.0000001E-02;  9.9999998E-03; -2.5999999E-01;1382;  0.0000000E+00;  0.0000000E+00;  0.0000000E+00;  1.0026980E+03;  1.0000000E-01;  2.2351960E+03;0;  0.0000000E+00;  0.0000000E+00;  0.0000000E+00;0;  2.1067144E-02;  4.0000000E+04;  0.0000000E+00;  0.0000000E+00;  4.0000000E+04;  0.0000000E+00;  4.0000000E+04;  2.0705592E-02;  0.0000000E+00;  3.6155173E-04;  6.4743799E+02;
 -5.0000001E-02;  9.9999998E-03; -2.5000000E-01;1383;  0.0000000E+00;  0.0000000E+00;  0.0000000E+00;  1.0029622E+03;  1.0000000E-01;  2.4541528E+03;0;  0.0000000E+00;  0.0000000E+00;  0.0000000E+00;0;  2.3029869E-02;  4.0000000E+04;  0.0000000E+00;  0.0000000E+00;  4.0000000E+04;  0.0000000E+00;  4.0000000E+04;  2.2990858E-02;  0.0000000E+00;  3.9011611E-05;  1.0441995E+03;
 -5.0000001E-02;  9.9999998E-03; -2.3999999E-01;1384;  0.0000000E+00;  0.0000000E+00;  0.0000000E+00;  1.0032173E+03;  1.0000000E-01;  2.6655049E+03;0;  0.0000000E+00;  0.0000000E+00;  0.0000000E+00;0;  2.4760358E-02;  4.0000000E+04;  0.0000000E+00;  0.0000000E+00;  4.0000000E+04;  0.0000000E+00;  4.0000000E+04;  2.5008461E-02;  0.0000000E+00; -2.4810314E-04;  1.3832654E+03;
 -5.0000001E-02;  9.9999998E-03; -2.3000000E-01;1385;  0.0000000E+00;  0.0000000E+00;  0.0000000E+00;  1.0034720E+03;  1.0000000E-01;  2.8764619E+03;0;  0.0000000E+00;  0.0000000E+00;  0.0000000E+00;0;  2.6232103E-02;  4.0000000E+04;  0.0000000E+00;  0.0000000E+00;  4.0000000E+04;  0.0000000E+00;  4.0000000E+04;  2.6710551E-02;  0.0000000E+00; -4.7844829E-04;  1.6423969E+03;
 -5.0000001E-02;  9.9999998E-03; -2.2000000E-01;1386;  0.0000000E+00;  0.0000000E+00;  0.0000000E+00;  1.0037232E+03;  1.0000000E-01;  3.0846536E+03;0;  0.0000000E+00;  0.0000000E+00;  0.0000000E+00;0;  2.7436823E-02;  4.0000000E+04;  0.0000000E+00;  0.0000000E+00;  4.0000000E+04;  0.0000000E+00;  4.0000000E+04;  2.8077353E-02;  0.0000000E+00; -6.4053084E-04;  1.8142224E+03;
 -5.0000001E-02;  9.9999998E-03; -2.0999999E-01;1387;  0.0000000E+00;  0.0000000E+00;  0.0000000E+00;  1.0039663E+03;  1.0000000E-01;  3.2860305E+03;0;  0.0000000E+00;  0.0000000E+00;  0.0000000E+00;0;  2.8383246E-02;  4.0000000E+04;  0.0000000E+00;  0.0000000E+00;  4.0000000E+04;  0.0000000E+00;  4.0000000E+04;  2.9115979E-02;  0.0000000E+00; -7.3273276E-04;  1.9024803E+03;
 -5.0000001E-02;  9.9999998E-03; -2.0000000E-01;1388;  0.0000000E+00;  0.0000000E+00;  0.0000000E+00;  1.0042039E+03;  1.0000000E-01;  3.4828645E+03;0;  0.0000000E+00;  0.0000000E+00;  0.0000000E+00;0;  2.9094253E-02;  4.0000000E+04;  0.0000000E+00;  0.0000000E+00;  4.0000000E+04;  0.0000000E+00;  4.0000000E+04;  2.9856257E-02;  0.0000000E+00; -7.6200458E-04;  1.9187979E+03;
 -5.0000001E-02;  9.9999998E-03; -1.9000000E-01;1389;  0.0000000E+00;  0.0000000E+00;  0.0000000E+00;  1.0044277E+03;  1.0000000E-01;  3.6682419E+03;0;  0.0000000E+00;  0.0000000E+00;  0.0000000E+00;0;  2.9602692E-02;  4.0000000E+04;  0.0000000E+00;  0.0000000E+00;  4.0000000E+04;  0.0000000E+00;  4.0000000E+04;  3.0344412E-02;  0.0000000E+00; -7.4172002E-04;  1.8794811E+03;
 -5.0000001E-02;  9.9999998E-03; -1.8000001E-01;1390;  0.0000000E+00;  0.0000000E+00;  0.0000000E+00;  1.0046333E+03;  1.0000000E-01;  3.8386074E+03;0;  0.0000000E+00;  0.0000000E+00;  0.0000000E+00;0;  2.9946953E-02;  4.0000000E+04;  0.0000000E+00;  0.0000000E+00;  4.0000000E+04;  0.0000000E+00;  4.0000000E+04;  3.0636050E-02;  0.0000000E+00; -6.8909599E-04;  1.8026226E+03;
 -5.0000001E-02;  9.9999998E-03; -1.7000000E-01;1391;  0.0000000E+00;  0.0000000E+00;  0.0000000E+00;  1.0048160E+03;  1.0000000E-01;  3.9900105E+03;0;  0.0000000E+00;  0.0000000E+00;  0.0000000E+00;0;  3.0166341E-02;  4.0000000E+04;  0.0000000E+00;  0.0000000E+00;  4.0000000E+04;  0.0000000E+00;  4.0000000E+04;  3.0788787E-02;  0.0000000E+00; -6.2244618E-04;  1.7056638E+03;
 -5.0000001E-02;  9.9999998E-03; -1.6000000E-01;1392;  0.0000000E+00;  0.0000000E+00;  0.0000000E+00;  1.0049721E+03;  1.0000000E-01;  4.1192910E+03;0;  0.0000000E+00;  0.0000000E+00;  0.0000000E+00;0;  3.0296981E-02;  4.0000000E+04;  0.0000000E+00;  0.0000000E+00;  4.0000000E+04;  0.0000000E+00;  4.0000000E+04;  3.0855438E-02;  0.0000000E+00; -5.5845716E-04;  1.6034468E+03;
 -5.0000001E-02;  9.9999998E-03; -1.5000001E-01;1393;  0.0000000E+00;  0.0000000E+00;  0.0000000E+00;  1.0050977E+03;  1.0000000E-01;  4.2233867E+03;0;  0.0000000E+00;  0.0000000E+00;  0.0000000E+00;0;  3.0369500E-02;  4.0000000E+04;  0.0000000E+00;  0.0000000E+00;  4.0000000E+04;  0.0000000E+00;  4.0000000E+04;  3.0879142E-02;  0.0000000E+00; -5.0964282E-04;  1.5068364E+03;
 -5.0000001E-02;  9.9999998E-03; -1.4000000E-01;1394;  0.0000000E+00;  0.0000000E+00;  0.0000000E+00;  1.0051937E+03;  1.0000000E-01;  4.3028906E+03;0;  0.0000000E+00;  0.0000000E+00;  0.0000000E+00;0;  3.0407377E-02;  4.0000000E+04;  0.0000000E+00;  0.0000000E+00;  4.0000000E+04;  0.0000000E+00;  4.0000000E+04;  3.0889710E-02;  0.0000000E+00; -4.8233473E-04;  1.4221198E+03;
 -5.0000001E-02;  9.9999998E-03; -1.3000000E-01;1395;  0.0000000E+00;  0.0000000E+00;  0.0000000E+00;  1.0052596E+03;  1.0000000E-01;  4.3575063E+03;0;  0.0000000E+00;  0.0000000E+00;  0.0000000E+00;0;  3.0426726E-02;  4.0000000E+04;  0.0000000E+00;  0.0000000E+00;  4.0000000E+04;  0.0000000E+00;  4.0000000E+04;  3.0903159E-02;  0.0000000E+00; -4.7643372E-04;  1.3522522E+03;
 -5.0000001E-02;  9.9999998E-03; -1.2000000E-01;1396;  0.0000000E+00;  0.0000000E+00;  0.0000000E+00;  1.0052998E+03;  1.0000000E-01;  4.3907896E+03;0;  0.0000000E+00;  0.0000000E+00;  0.0000000E+00;0;  3.0436557E-02;  4.0000000E+04;  0.0000000E+00;  0.0000000E+00;  4.0000000E+04;  0.0000000E+00;  4.0000000E+04;  3.0923737E-02;  0.0000000E+00; -4.8718051E-04;  1.2988405E+03;
 -5.0000001E-02;  9.9999998E-03; -1.1000000E-01;1397;  0.0000000E+00;  0.0000000E+00;  0.0000000E+00;  1.0053193E+03;  1.0000000E-01;  4.4069863E+03;0;  0.0000000E+00;  0.0000000E+00;  0.0000000E+00;0;  3.0439675E-02;  4.0000000E+04;  0.0000000E+00;  0.0000000E+00;  4.0000000E+04;  0.0000000E+00;  4.0000000E+04;  3.0947387E-02;  0.0000000E+00; -5.0771266E-04;  1.2632382E+03;
 -3.9999999E-02;  9.9999998E-03; -2.7000001E-01;1472;  0.0000000E+00;  0.0000000E+00;  0.0000000E+00;  1.0032985E+03;  1.0000000E-01;  2.7327622E+03;0;  0.0000000E+00;  0.0000000E+00;  0.0000000E+00;0;  2.2164831E-02;  4.0000000E+04;  0.0000000E+00;  0.0000000E+00;  4.0000000E+04;  0.0000000E+00;  4.0000000E+04;  2.1228131E-02;  0.0000000E+00;  9.3670067E-04;  3.5825400E+02;
 -3.9999999E-02;  9.9999998E-03; -2.5999999E-01;1473;  0.0000000E+00;  0.0000000E+00;  0.0000000E+00;  1.0036506E+03;  1.0000000E-01;  3.0244082E+03;0;  0.0000000E+00;  0.0000000E+00;  0.0000000E+00;0;  2.4609976E-02;  4.0000000E+04;  0.0000000E+00;  0.0000000E+00;  4.0000000E+04;  0.0000000E+00;  4.0000000E+04;  2.4094190E-02;  0.0000000E+00;  5.1578513E-04;  8.4523804E+02;
 -3.9999999E-02;  9.9999998E-03; -2.5000000E-01;1474;  0.0000000E+00;  0.0000000E+00;  0.0000000E+00;  1.0039976E+03;  1.0000000E-01;  3.3119062E+03;0;  0.0000000E+00;  0.0000000E+00;  0.0000000E+00;0;  2.6823489E-02;  4.0000000E+04;  0.0000000E+00;  0.0000000E+00;  4.0000000E+04;  0.0000000E+00;  4.0000000E+04;  2.6720634E-02;  0.0000000E+00;  1.0285596E-04;  1.3304543E+03;
 -3.9999999E-02;  9.9999998E-03; -2.3999999E-01;1475;  0.0000000E+00;  0.0000000E+00;  0.0000000E+00;  1.0043406E+03;  1.0000000E-01;  3.5961453E+03;0;  0.0000000E+00;  0.0000000E+00;  0.0000000E+00;0;  2.8757522E-02;  4.0000000E+04;  0.0000000E+00;  0.0000000E+00;  4.0000000E+04;  0.0000000E+00;  4.0000000E+04;  2.9022587E-02;  0.0000000E+00; -2.6506544E-04;  1.7369515E+03;
 -3.9999999E-02;  9.9999998E-03; -2.3000000E-01;1476;  0.0000000E+00;  0.0000000E+00;  0.0000000E+00;  1.0046794E+03;  1.0000000E-01;  3.8768286E+03;0;  0.0000000E+00;  0.0000000E+00;  0.0000000E+00;0;  3.0385448E-02;  4.0000000E+04;  0.0000000E+00;  0.0000000E+00;  4.0000000E+04;  0.0000000E+00;  4.0000000E+04;  3.0947391E-02;  0.0000000E+00; -5.6194409E-04;  2.0387433E+03;
 -3.9999999E-02;  9.9999998E-03; -2.2000000E-01;1477;  0.0000000E+00;  0.0000000E+00;  0.0000000E+00;  1.0050114E+03;  1.0000000E-01;  4.1517837E+03;0;  0.0000000E+00;  0.0000000E+00;  0.0000000E+00;0;  3.1701699E-02;  4.0000000E+04;  0.0000000E+00;  0.0000000E+00;  4.0000000E+04;  0.0000000E+00;  4.0000000E+04;  3.2476109E-02;  0.0000000E+00; -7.7440881E-04;  2.2297971E+03;
 -3.9999999E-02;  9.9999998E-03; -2.0999999E-01;1478;  0.0000000E+00;  0.0000000E+00;  0.0000000E+00;  1.0053337E+03;  1.0000000E-01;  4.4189365E+03;0;  0.0000000E+00;  0.0000000E+00;  0.0000000E+00;0;  3.2720268E-02;  4.0000000E+04;  0.0000000E+00;  0.0000000E+00;  4.0000000E+04;  0.0000000E+00;  4.0000000E+04;  3.3621430E-02;  0.0000000E+00; -9.0116251E-04;  2.3180015E+03;
 -3.9999999E-02;  9.9999998E-03; -2.0000000E-01;1479;  0.0000000E+00;  0.0000000E+00;  0.0000000E+00;  1.0056455E+03;  1.0000000E-01;  4.6772012E+03;0;  0.0000000E+00;  0.0000000E+00;  0.0000000E+00;0;  3.3471197E-02;  4.0000000E+04;  0.0000000E+00;  0.0000000E+00;  4.0000000E+04;  0.0000000E+00;  4.0000000E+04;  3.4422163E-02;  0.0000000E+00; -9.5096743E-04;  2.3202991E+03;
 -3.9999999E-02;  9.9999998E-03; -1.9000000E-01;1480;  0.0000000E+00;  0.0000000E+00;  0.0000000E+00;  1.0059375E+03;  1.0000000E-01;  4.9190708E+03;0;  0.0000000E+00;  0.0000000E+00;  0.0000000E+00;0;  3.3995632E-02;  4.0000000E+04;  0.0000000E+00;  0.0000000E+00;  4.0000000E+04;  0.0000000E+00;  4.0000000E+04;  3.4935497E-02;  0.0000000E+00; -9.3986595E-04;  2.2582107E+03;
 -3.9999999E-02;  9.9999998E-03; -1.8000001E-01;1481;  0.0000000E+00;  0.0000000E+00;  0.0000000E+00;  1.0062084E+03;  1.0000000E-01;  5.1435581E+03;0;  0.0000000E+00;  0.0000000E+00;  0.0000000E+00;0;  3.4340288E-02;  4.0000000E+04;  0.0000000E+00;  0.0000000E+00;  4.0000000E+04;  0.0000000E+00;  4.0000000E+04;  3.5228390E-02;  0.0000000E+00; -8.8810280E-04;  2.1541589E+03;
 -3.9999999E-02;  9.9999998E-03; -1.7000000E-01;1482;  0.0000000E+00;  0.0000000E+00;  0.0000000E+00;  1.0064460E+03;  1.0000000E-01;  5.3403921E+03;0;  0.0000000E+00;  0.0000000E+00;  0.0000000E+00;0;  3.4551840E-02;  4.0000000E+04;  0.0000000E+00;  0.0000000E+00;  4.0000000E+04;  0.0000000E+00;  4.0000000E+04;  3.5368912E-02;  0.0000000E+00; -8.1707147E-04;  2.0288430E+03;
 -3.9999999E-02;  9.9999998E-03; -1.6000000E-01;1483;  0.0000000E+00;  0.0000000E+00;  0.0000000E+00;  1.0066488E+03;  1.0000000E-01;  5.5083872E+03;0;  0.0000000E+00;  0.0000000E+00;  0.0000000E+00;0;  3.4672350E-02;  4.0000000E+04;  0.0000000E+00;  0.0000000E+00;  4.0000000E+04;  0.0000000E+00;  4.0000000E+04;  3.5418782E-02;  0.0000000E+00; -7.4643386E-04;  1.8994135E+03;
 -3.9999999E-02;  9.9999998E-03; -1.5000001E-01;1484;  0.0000000E+00;  0.0000000E+00;  0.0000000E+00;  1.0068145E+03;  1.0000000E-01;  5.6456675E+03;0;  0.0000000E+00;  0.0000000E+00;  0.0000000E+00;0;  3.4735970E-02;  4.0000000E+04;  0.0000000E+00;  0.0000000E+00;  4.0000000E+04;  0.0000000E+00;  4.0000000E+04;  3.5427433E-02;  0.0000000E+00; -6.9146167E-04;  1.7783093E+03;
 -3.9999999E-02;  9.9999998E-03; -1.4000000E-01;1485;  0.0000000E+00;  0.0000000E+00;  0.0000000E+00;  1.0069443E+03;  1.0000000E-01;  5.7532202E+03;0;  0.0000000E+00;  0.0000000E+00;  0.0000000E+00;0;  3.4768067E-02;  4.0000000E+04;  0.0000000E+00;  0.0000000E+00;  4.0000000E+04;  0.0000000E+00;  4.0000000E+04;  3.5428863E-02;  0.0000000E+00; -6.6079746E-04;  1.6728207E+03;
 -3.9999999E-02;  9.9999998E-03; -1.3000000E-01;1486;  0.0000000E+00;  0.0000000E+00;  0.0000000E+00;  1.0070370E+03;  1.0000000E-01;  5.8300571E+03;0;  0.0000000E+00;  0.0000000E+00;  0.0000000E+00;0;  3.4785312E-02;  4.0000000E+04;  0.0000000E+00;  0.0000000E+00;  4.0000000E+04;  0.0000000E+00;  4.0000000E+04;  3.5440695E-02;  0.0000000E+00; -6.5538345E-04;  1.5859484E+03;
 -3.9999999E-02;  9.9999998E-03; -1.2000000E-01;1487;  0.0000000E+00;  0.0000000E+00;  0.0000000E+00;  1.0070919E+03;  1.0000000E-01;  5.8754883E+03;0;  0.0000000E+00;  0.0000000E+00;  0.0000000E+00;0;  3.4796253E-02;  4.0000000E+04;  0.0000000E+00;  0.0000000E+00;  4.0000000E+04;  0.0000000E+00;  4.0000000E+04;  3.5466291E-02;  0.0000000E+00; -6.7003630E-04;  1.5192137E+03;
 -3.9999999E-02;  9.9999998E-03; -1.1000000E-01;1488;  0.0000000E+00;  0.0000000E+00;  0.0000000E+00;  1.0071164E+03;  1.0000000E-01;  5.8958335E+03;0;  0.0000000E+00;  0.0000000E+00;  0.0000000E+00;0;  3.4802608E-02;  4.0000000E+04;  0.0000000E+00;  0.0000000E+00;  4.0000000E+04;  0.0000000E+00;  4.0000000E+04;  3.5499182E-02;  0.0000000E+00; -6.9657358E-04;  1.4740737E+03;
 -2.9999999E-02;  9.9999998E-03; -2.7000001E-01;1563;  0.0000000E+00;  0.0000000E+00;  0.0000000E+00;  1.0043000E+03;  1.0000000E-01;  3.5624670E+03;0;  0.0000000E+00;  0.0000000E+00;  0.0000000E+00;0;  2.4918586E-02;  4.0000000E+04;  0.0000000E+00;  0.0000000E+00;  4.0000000E+04;  0.0000000E+00;  4.0000000E+04;  2.3695663E-02;  0.0000000E+00;  1.2229228E-03;  4.7972357E+02;
 -2.9999999E-02;  9.9999998E-03; -2.5999999E-01;1564;  0.0000000E+00;  0.0000000E+00;  0.0000000E+00;  1.0047545E+03;  1.0000000E-01;  3.9390491E+03;0;  0.0000000E+00;  0.0000000E+00;  0.0000000E+00;0;  2.7570780E-02;  4.0000000E+04;  0.0000000E+00;  0.0000000E+00;  4.0000000E+04;  0.0000000E+00;  4.0000000E+04;  2.6869895E-02;  0.0000000E+00;  7.0088502E-04;  1.0662585E+03;
 -2.9999999E-02;  9.9999998E-03; -2.5000000E-01;1565;  0.0000000E+00;  0.0000000E+00;  0.0000000E+00;  1.0051974E+03;  1.0000000E-01;  4.3059521E+03;0;  0.0000000E+00;  0.0000000E+00;  0.0000000E+00;0;  2.9945385E-02;  4.0000000E+04;  0.0000000E+00;  0.0000000E+00;  4.0000000E+04;  0.0000000E+00;  4.0000000E+04;  2.9755050E-02;  0.0000000E+00;  1.9033505E-04;  1.6387942E+03;
 -2.9999999E-02;  9.9999998E-03; -2.3999999E-01;1566;  0.0000000E+00;  0.0000000E+00;  0.0000000E+00;  1.0056365E+03;  1.0000000E-01;  4.6696953E+03;0;  0.0000000E+00;  0.0000000E+00;  0.0000000E+00;0;  3.1994257E-02;  4.0000000E+04;  0.0000000E+00;  0.0000000E+00;  4.0000000E+04;  0.0000000E+00;  4.0000000E+04;  3.2257795E-02;  0.0000000E+00; -2.6353856E-04;  2.1058926E+03;
 -2.9999999E-02;  9.9999998E-03; -2.3000000E-01;1567;  0.0000000E+00;  0.0000000E+00;  0.0000000E+00;  1.0060690E+03;  1.0000000E-01;  5.0280059E+03;0;  0.0000000E+00;  0.0000000E+00;  0.0000000E+00;0;  3.3692665E-02;  4.0000000E+04;  0.0000000E+00;  0.0000000E+00;  4.0000000E+04;  0.0000000E+00;  4.0000000E+04;  3.4323055E-02;  0.0000000E+00; -6.3039025E-04;  2.4391917E+03;
 -2.9999999E-02;  9.9999998E-03; -2.2000000E-01;1568;  0.0000000E+00;  0.0000000E+00;  0.0000000E+00;  1.0064888E+03;  1.0000000E-01;  5.3758481E+03;0;  0.0000000E+00;  0.0000000E+00;  0.0000000E+00;0;  3.5039861E-02;  4.0000000E+04;  0.0000000E+00;  0.0000000E+00;  4.0000000E+04;  0.0000000E+00;  4.0000000E+04;  3.5935618E-02;  0.0000000E+00; -8.9575571E-04;  2.6361748E+03;
 -2.9999999E-02;  9.9999998E-03; -2.0999999E-01;1569;  0.0000000E+00;  0.0000000E+00;  0.0000000E+00;  1.0069004E+03;  1.0000000E-01;  5.7168755E+03;0;  0.0000000E+00;  0.0000000E+00;  0.0000000E+00;0;  3.6056891E-02;  4.0000000E+04;  0.0000000E+00;  0.0000000E+00;  4.0000000E+04;  0.0000000E+00;  4.0000000E+04;  3.7116371E-02;  0.0000000E+00; -1.0594812E-03;  2.7111758E+03;
 -2.9999999E-02;  9.9999998E-03; -2.0000000E-01;1570;  0.0000000E+00;  0.0000000E+00;  0.0000000E+00;  1.0072943E+03;  1.0000000E-01;  6.0431870E+03;0;  0.0000000E+00;  0.0000000E+00;  0.0000000E+00;0;  3.6782704E-02;  4.0000000E+04;  0.0000000E+00;  0.0000000E+00;  4.0000000E+04;  0.0000000E+00;  4.0000000E+04;  3.7915483E-02;  0.0000000E+00; -1.1327806E-03;  2.6884136E+03;
 -2.9999999E-02;  9.9999998E-03; -1.9000000E-01;1571;  0.0000000E+00;  0.0000000E+00;  0.0000000E+00;  1.0076646E+03;  1.0000000E-01;  6.3499438E+03;0;  0.0000000E+00;  0.0000000E+00;  0.0000000E+00;0;  3.7268434E-02;  4.0000000E+04;  0.0000000E+00;  0.0000000E+00;  4.0000000E+04;  0.0000000E+00;  4.0000000E+04;  3.8403098E-02;  0.0000000E+00; -1.1346638E-03;  2.5958120E+03;
 -2.9999999E-02;  9.9999998E-03; -1.8000001E-01;1572;  0.0000000E+00;  0.0000000E+00;  0.0000000E+00;  1.0080031E+03;  1.0000000E-01;  6.6303311E+03;0;  0.0000000E+00;  0.0000000E+00;  0.0000000E+00;0;  3.7570201E-02;  4.0000000E+04;  0.0000000E+00;  0.0000000E+00;  4.0000000E+04;  0.0000000E+00;  4.0000000E+04;  3.8658582E-02;  0.0000000E+00; -1.0883824E-03;  2.4603662E+03;
 -2.9999999E-02;  9.9999998E-03; -1.7000000E-01;1573;  0.0000000E+00;  0.0000000E+00;  0.0000000E+00;  1.0083045E+03;  1.0000000E-01;  6.8801016E+03;0;  0.0000000E+00;  0.0000000E+00;  0.0000000E+00;0;  3.7742760E-02;  4.0000000E+04;  0.0000000E+00;  0.0000000E+00;  4.0000000E+04;  0.0000000E+00;  4.0000000E+04;  3.8760882E-02;  0.0000000E+00; -1.0181235E-03;  2.3055461E+03;
 -2.9999999E-02;  9.9999998E-03; -1.6000000E-01;1574;  0.0000000E+00;  0.0000000E+00;  0.0000000E+00;  1.0085605E+03;  1.0000000E-01;  7.0922437E+03;0;  0.0000000E+00;  0.0000000E+00;  0.0000000E+00;0;  3.7833665E-02;  4.0000000E+04;  0.0000000E+00;  0.0000000E+00;  4.0000000E+04;  0.0000000E+00;  4.0000000E+04;  3.8779732E-02;  0.0000000E+00; -9.4606820E-04;  2.1496685E+03;
 -2.9999999E-02;  9.9999998E-03; -1.5000001E-01;1575;  0.0000000E+00;  0.0000000E+00;  0.0000000E+00;  1.0087759E+03;  1.0000000E-01;  7.2707080E+03;0;  0.0000000E+00;  0.0000000E+00;  0.0000000E+00;0;  3.7879854E-02;  4.0000000E+04;  0.0000000E+00;  0.0000000E+00;  4.0000000E+04;  0.0000000E+00;  4.0000000E+04;  3.8769607E-02;  0.0000000E+00; -8.8975334E-04;  2.0055254E+03;
 -2.9999999E-02;  9.9999998E-03; -1.4000000E-01;1576;  0.0000000E+00;  0.0000000E+00;  0.0000000E+00;  1.0089431E+03;  1.0000000E-01;  7.4091733E+03;0;  0.0000000E+00;  0.0000000E+00;  0.0000000E+00;0;  3.7906781E-02;  4.0000000E+04;  0.0000000E+00;  0.0000000E+00;  4.0000000E+04;  0.0000000E+00;  4.0000000E+04;  3.8766548E-02;  0.0000000E+00; -8.5976615E-04;  1.8804723E+03;
 -2.9999999E-02;  9.9999998E-03; -1.3000000E-01;1577;  0.0000000E+00;  0.0000000E+00;  0.0000000E+00;  1.0090558E+03;  1.0000000E-01;  7.5026025E+03;0;  0.0000000E+00;  0.0000000E+00;  0.0000000E+00;0;  3.7928857E-02;  4.0000000E+04;  0.0000000E+00;  0.0000000E+00;  4.0000000E+04;  0.0000000E+00;  4.0000000E+04;  3.8787059E-02;  0.0000000E+00; -8.5820392E-04;  1.7771219E+03;
 -2.9999999E-02;  9.9999998E-03; -1.2000000E-01;1578;  0.0000000E+00;  0.0000000E+00;  0.0000000E+00;  1.0091226E+03;  1.0000000E-01;  7.5579097E+03;0;  0.0000000E+00;  0.0000000E+00;  0.0000000E+00;0;  3.7951905E-02;  4.0000000E+04;  0.0000000E+00;  0.0000000E+00;  4.0000000E+04;  0.0000000E+00;  4.0000000E+04;  3.8831532E-02;  0.0000000E+00; -8.7962730E-04;  1.6966101E+03;
 -2.9999999E-02;  9.9999998E-03; -1.1000000E-01;1579;  0.0000000E+00;  0.0000000E+00;  0.0000000E+00;  1.0091464E+03;  1.0000000E-01;  7.5776621E+03;0;  0.0000000E+00;  0.0000000E+00;  0.0000000E+00;0;  3.7974376E-02;  4.0000000E+04;  0.0000000E+00;  0.0000000E+00;  4.0000000E+04;  0.0000000E+00;  4.0000000E+04;  3.8888961E-02;  0.0000000E+00; -9.1458467E-04;  1.6405327E+03;
 -2.0000000E-02;  9.9999998E-03; -2.7000001E-01;1654;  0.0000000E+00;  0.0000000E+00;  0.0000000E+00;  1.0054058E+03;  1.0000000E-01;  4.4785894E+03;0;  0.0000000E+00;  0.0000000E+00;  0.0000000E+00;0;  2.6888521E-02;  4.0000000E+04;  0.0000000E+00;  0.0000000E+00;  4.0000000E+04;  0.0000000E+00;  4.0000000E+04;  2.5347920E-02;  0.0000000E+00;  1.5406011E-03;  6.1978925E+02;
 -2.0000000E-02;  9.9999998E-03; -2.5999999E-01;1655;  0.0000000E+00;  0.0000000E+00;  0.0000000E+00;  1.0059678E+03;  1.0000000E-01;  4.9441562E+03;0;  0.0000000E+00;  0.0000000E+00;  0.0000000E+00;0;  2.9619353E-02;  4.0000000E+04;  0.0000000E+00;  0.0000000E+00;  4.0000000E+04;  0.0000000E+00;  4.0000000E+04;  2.8706586E-02;  0.0000000E+00;  9.1276749E-04;  1.3047202E+03;
 -2.0000000E-02;  9.9999998E-03; -2.5000000E-01;1656;  0.0000000E+00;  0.0000000E+00;  0.0000000E+00;  1.0065178E+03;  1.0000000E-01;  5.3998472E+03;0;  0.0000000E+00;  0.0000000E+00;  0.0000000E+00;0;  3.2030094E-02;  4.0000000E+04;  0.0000000E+00;  0.0000000E+00;  4.0000000E+04;  0.0000000E+00;  4.0000000E+04;  3.1728007E-02;  0.0000000E+00;  3.0208894E-04;  1.9557484E+03;
 -2.0000000E-02;  9.9999998E-03; -2.3999999E-01;1657;  0.0000000E+00;  0.0000000E+00;  0.0000000E+00;  1.0070564E+03;  1.0000000E-01;  5.8460566E+03;0;  0.0000000E+00;  0.0000000E+00;  0.0000000E+00;0;  3.4075636E-02;  4.0000000E+04;  0.0000000E+00;  0.0000000E+00;  4.0000000E+04;  0.0000000E+00;  4.0000000E+04;  3.4313880E-02;  0.0000000E+00; -2.3824381E-04;  2.4689075E+03;
 -2.0000000E-02;  9.9999998E-03; -2.3000000E-01;1658;  0.0000000E+00;  0.0000000E+00;  0.0000000E+00;  1.0075872E+03;  1.0000000E-01;  6.2858467E+03;0;  0.0000000E+00;  0.0000000E+00;  0.0000000E+00;0;  3.5736006E-02;  4.0000000E+04;  0.0000000E+00;  0.0000000E+00;  4.0000000E+04;  0.0000000E+00;  4.0000000E+04;  3.6410429E-02;  0.0000000E+00; -6.7442167E-04;  2.8156150E+03;
 -2.0000000E-02;  9.9999998E-03; -2.2000000E-01;1659;  0.0000000E+00;  0.0000000E+00;  0.0000000E+00;  1.0081038E+03;  1.0000000E-01;  6.7137856E+03;0;  0.0000000E+00;  0.0000000E+00;  0.0000000E+00;0;  3.7017126E-02;  4.0000000E+04;  0.0000000E+00;  0.0000000E+00;  4.0000000E+04;  0.0000000E+00;  4.0000000E+04;  3.8009088E-02;  0.0000000E+00; -9.9196262E-04;  2.9995557E+03;
 -2.0000000E-02;  9.9999998E-03; -2.0999999E-01;1660;  0.0000000E+00;  0.0000000E+00;  0.0000000E+00;  1.0086069E+03;  1.0000000E-01;  7.1306626E+03;0;  0.0000000E+00;  0.0000000E+00;  0.0000000E+00;0;  3.7948605E-02;  4.0000000E+04;  0.0000000E+00;  0.0000000E+00;  4.0000000E+04;  0.0000000E+00;  4.0000000E+04;  3.9141439E-02;  0.0000000E+00; -1.1928353E-03;  3.0442080E+03;
 -2.0000000E-02;  9.9999998E-03; -2.0000000E-01;1661;  0.0000000E+00;  0.0000000E+00;  0.0000000E+00;  1.0090876E+03;  1.0000000E-01;  7.5288735E+03;0;  0.0000000E+00;  0.0000000E+00;  0.0000000E+00;0;  3.8579516E-02;  4.0000000E+04;  0.0000000E+00;  0.0000000E+00;  4.0000000E+04;  0.0000000E+00;  4.0000000E+04;  3.9870840E-02;  0.0000000E+00; -1.2913221E-03;  2.9830339E+03;
 -2.0000000E-02;  9.9999998E-03; -1.9000000E-01;1662;  0.0000000E+00;  0.0000000E+00;  0.0000000E+00;  1.0095380E+03;  1.0000000E-01;  7.9020977E+03;0;  0.0000000E+00;  0.0000000E+00;  0.0000000E+00;0;  3.8971141E-02;  4.0000000E+04;  0.0000000E+00;  0.0000000E+00;  4.0000000E+04;  0.0000000E+00;  4.0000000E+04;  4.0280711E-02;  0.0000000E+00; -1.3095710E-03;  2.8513643E+03;
 -2.0000000E-02;  9.9999998E-03; -1.8000001E-01;1663;  0.0000000E+00;  0.0000000E+00;  0.0000000E+00;  1.0099505E+03;  1.0000000E-01;  8.2438164E+03;0;  0.0000000E+00;  0.0000000E+00;  0.0000000E+00;0;  3.9189246E-02;  4.0000000E+04;  0.0000000E+00;  0.0000000E+00;  4.0000000E+04;  0.0000000E+00;  4.0000000E+04;  4.0462893E-02;  0.0000000E+00; -1.2736481E-03;  2.6809685E+03;
 -2.0000000E-02;  9.9999998E-03; -1.7000000E-01;1664;  0.0000000E+00;  0.0000000E+00;  0.0000000E+00;  1.0103162E+03;  1.0000000E-01;  8.5468203E+03;0;  0.0000000E+00;  0.0000000E+00;  0.0000000E+00;0;  3.9295938E-02;  4.0000000E+04;  0.0000000E+00;  0.0000000E+00;  4.0000000E+04;  0.0000000E+00;  4.0000000E+04;  4.0506024E-02;  0.0000000E+00; -1.2100866E-03;  2.4972205E+03;
 -2.0000000E-02;  9.9999998E-03; -1.6000000E-01;1665;  0.0000000E+00;  0.0000000E+00;  0.0000000E+00;  1.0106376E+03;  1.0000000E-01;  8.8130840E+03;0;  0.0000000E+00;  0.0000000E+00;  0.0000000E+00;0;  3.9343331E-02;  4.0000000E+04;  0.0000000E+00;  0.0000000E+00;  4.0000000E+04;  0.0000000E+00;  4.0000000E+04;  4.0486321E-02;  0.0000000E+00; -1.1429916E-03;  2.3182263E+03;
 -2.0000000E-02;  9.9999998E-03; -1.5000001E-01;1666;  0.0000000E+00;  0.0000000E+00;  0.0000000E+00;  1.0108984E+03;  1.0000000E-01;  9.0290781E+03;0;  0.0000000E+00;  0.0000000E+00;  0.0000000E+00;0;  3.9369565E-02;  4.0000000E+04;  0.0000000E+00;  0.0000000E+00;  4.0000000E+04;  0.0000000E+00;  4.0000000E+04;  4.0461078E-02;  0.0000000E+00; -1.0915144E-03;  2.1555293E+03;
 -2.0000000E-02;  9.9999998E-03; -1.4000000E-01;1667;  0.0000000E+00;  0.0000000E+00;  0.0000000E+00;  1.0110934E+03;  1.0000000E-01;  9.1907520E+03;0;  0.0000000E+00;  0.0000000E+00;  0.0000000E+00;0;  3.9397858E-02;  4.0000000E+04;  0.0000000E+00;  0.0000000E+00;  4.0000000E+04;  0.0000000E+00;  4.0000000E+04;  4.0465504E-02;  0.0000000E+00; -1.0676475E-03;  2.0150111E+03;
 -2.0000000E-02;  9.9999998E-03; -1.3000000E-01;1668;  0.0000000E+00;  0.0000000E+00;  0.0000000E+00;  1.0112262E+03;  1.0000000E-01;  9.3006748E+03;0;  0.0000000E+00;  0.0000000E+00;  0.0000000E+00;0;  3.9438620E-02;  4.0000000E+04;  0.0000000E+00;  0.0000000E+00;  4.0000000E+04;  0.0000000E+00;  4.0000000E+04;  4.0513098E-02;  0.0000000E+00; -1.0744774E-03;  1.8980652E+03;
 -2.0000000E-02;  9.9999998E-03; -1.2000000E-01;1669;  0.0000000E+00;  0.0000000E+00;  0.0000000E+00;  1.0112994E+03;  1.0000000E-01;  9.3613154E+03;0;  0.0000000E+00;  0.0000000E+00;  0.0000000E+00;0;  3.9492037E-02;  4.0000000E+04;  0.0000000E+00;  0.0000000E+00;  4.0000000E+04;  0.0000000E+00;  4.0000000E+04;  4.0598512E-02;  0.0000000E+00; -1.1064752E-03;  1.8048281E+03;
 -2.0000000E-02;  9.9999998E-03; -1.1000000E-01;1670;  0.0000000E+00;  0.0000000E+00;  0.0000000E+00;  1.0113201E+03;  1.0000000E-01;  9.3785000E+03;0;  0.0000000E+00;  0.0000000E+00;  0.0000000E+00;0;  3.9550938E-02;  4.0000000E+04;  0.0000000E+00;  0.0000000E+00;  4.0000000E+04;  0.0000000E+00;  4.0000000E+04;  4.0703956E-02;  0.0000000E+00; -1.1530182E-03;  1.7370497E+03;
 -9.9999998E-03;  9.9999998E-03; -2.7000001E-01;1745;  0.0000000E+00;  0.0000000E+00;  0.0000000E+00;  1.0065729E+03;  1.0000000E-01;  5.4454756E+03;0;  0.0000000E+00;  0.0000000E+00;  0.0000000E+00;0;  2.7851978E-02;  4.0000000E+04;  0.0000000E+00;  0.0000000E+00;  4.0000000E+04;  0.0000000E+00;  4.0000000E+04;  2.5974406E-02;  0.0000000E+00;  1.8775719E-03;  7.8154926E+02;
 -9.9999998E-03;  9.9999998E-03; -2.5999999E-01;1746;  0.0000000E+00;  0.0000000E+00;  0.0000000E+00;  1.0072440E+03;  1.0000000E-01;  6.0015093E+03;0;  0.0000000E+00;  0.0000000E+00;  0.0000000E+00;0;  3.0500203E-02;  4.0000000E+04;  0.0000000E+00;  0.0000000E+00;  4.0000000E+04;  0.0000000E+00;  4.0000000E+04;  2.9353660E-02;  0.0000000E+00;  1.1465441E-03;  1.5534832E+03;
 -9.9999998E-03;  9.9999998E-03; -2.5000000E-01;1747;  0.0000000E+00;  0.0000000E+00;  0.0000000E+00;  1.0078986E+03;  1.0000000E-01;  6.5438149E+03;0;  0.0000000E+00;  0.0000000E+00;  0.0000000E+00;0;  3.2797154E-02;  4.0000000E+04;  0.0000000E+00;  0.0000000E+00;  4.0000000E+04;  0.0000000E+00;  4.0000000E+04;  3.2357067E-02;  0.0000000E+00;  4.4008857E-04;  2.2641877E+03;
 -9.9999998E-03;  9.9999998E-03; -2.3999999E-01;1748;  0.0000000E+00;  0.0000000E+00;  0.0000000E+00;  1.0085403E+03;  1.0000000E-01;  7.0754541E+03;0;  0.0000000E+00;  0.0000000E+00;  0.0000000E+00;0;  3.4704566E-02;  4.0000000E+04;  0.0000000E+00;  0.0000000E+00;  4.0000000E+04;  0.0000000E+00;  4.0000000E+04;  3.4886189E-02;  0.0000000E+00; -1.8162173E-04;  2.8003064E+03;
 -9.9999998E-03;  9.9999998E-03; -2.3000000E-01;1749;  0.0000000E+00;  0.0000000E+00;  0.0000000E+00;  1.0091686E+03;  1.0000000E-01;  7.5960322E+03;0;  0.0000000E+00;  0.0000000E+00;  0.0000000E+00;0;  3.6209520E-02;  4.0000000E+04;  0.0000000E+00;  0.0000000E+00;  4.0000000E+04;  0.0000000E+00;  4.0000000E+04;  3.6891967E-02;  0.0000000E+00; -6.8244699E-04;  3.1358486E+03;
 -9.9999998E-03;  9.9999998E-03; -2.2000000E-01;1750;  0.0000000E+00;  0.0000000E+00;  0.0000000E+00;  1.0097824E+03;  1.0000000E-01;  8.1045610E+03;0;  0.0000000E+00;  0.0000000E+00;  0.0000000E+00;0;  3.7325751E-02;  4.0000000E+04;  0.0000000E+00;  0.0000000E+00;  4.0000000E+04;  0.0000000E+00;  4.0000000E+04;  3.8374595E-02;  0.0000000E+00; -1.0488457E-03;  3.2835291E+03;
 -9.9999998E-03;  9.9999998E-03; -2.0999999E-01;1751;  0.0000000E+00;  0.0000000E+00;  0.0000000E+00;  1.0103747E+03;  1.0000000E-01;  8.5952139E+03;0;  0.0000000E+00;  0.0000000E+00;  0.0000000E+00;0;  3.8091857E-02;  4.0000000E+04;  0.0000000E+00;  0.0000000E+00;  4.0000000E+04;  0.0000000E+00;  4.0000000E+04;  3.9377466E-02;  0.0000000E+00; -1.2856094E-03;  3.2783403E+03;
 -9.9999998E-03;  9.9999998E-03; -2.0000000E-01;1752;  0.0000000E+00;  0.0000000E+00;  0.0000000E+00;  1.0109422E+03;  1.0000000E-01;  9.0654229E+03;0;  0.0000000E+00;  0.0000000E+00;  0.0000000E+00;0;  3.8566370E-02;  4.0000000E+04;  0.0000000E+00;  0.0000000E+00;  4.0000000E+04;  0.0000000E+00;  4.0000000E+04;  3.9976843E-02;  0.0000000E+00; -1.4104721E-03;  3.1645361E+03;
 -9.9999998E-03;  9.9999998E-03; -1.9000000E-01;1753;  0.0000000E+00;  0.0000000E+00;  0.0000000E+00;  1.0114747E+03;  1.0000000E-01;  9.5065957E+03;0;  0.0000000E+00;  0.0000000E+00;  0.0000000E+00;0;  3.8819857E-02;  4.0000000E+04;  0.0000000E+00;  0.0000000E+00;  4.0000000E+04;  0.0000000E+00;  4.0000000E+04;  4.0268622E-02;  0.0000000E+00; -1.4487671E-03;  2.9856533E+03;
 -9.9999998E-03;  9.9999998E-03; -1.8000001E-01;1754;  0.0000000E+00;  0.0000000E+00;  0.0000000E+00;  1.0119635E+03;  1.0000000E-01;  9.9115225E+03;0;  0.0000000E+00;  0.0000000E+00;  0.0000000E+00;0;  3.8925845E-02;  4.0000000E+04;  0.0000000E+00;  0.0000000E+00;  4.0000000E+04;  0.0000000E+00;  4.0000000E+04;  4.0354747E-02;  0.0000000E+00; -1.4289018E-03;  2.7780686E+03;
 -9.9999998E-03;  9.9999998E-03; -1.7000000E-01;1755;  0.0000000E+00;  0.0000000E+00;  0.0000000E+00;  1.0123984E+03;  1.0000000E-01;  1.0271907E+04;0;  0.0000000E+00;  0.0000000E+00;  0.0000000E+00;0;  3.8951881E-02;  4.0000000E+04;  0.0000000E+00;  0.0000000E+00;  4.0000000E+04;  0.0000000E+00;  4.0000000E+04;  4.0330879E-02;  0.0000000E+00; -1.3789971E-03;  2.5681572E+03;
 -9.9999998E-03;  9.9999998E-03; -1.6000000E-01;1756;  0.0000000E+00;  0.0000000E+00;  0.0000000E+00;  1.0127695E+03;  1.0000000E-01;  1.0579355E+04;0;  0.0000000E+00;  0.0000000E+00;  0.0000000E+00;0;  3.8952522E-02;  4.0000000E+04;  0.0000000E+00;  0.0000000E+00;  4.0000000E+04;  0.0000000E+00;  4.0000000E+04;  4.0276736E-02;  0.0000000E+00; -1.3242154E-03;  2.3723953E+03;
 -9.9999998E-03;  9.9999998E-03; -1.5000001E-01;1757;  0.0000000E+00;  0.0000000E+00;  0.0000000E+00;  1.0130662E+03;  1.0000000E-01;  1.0825076E+04;0;  0.0000000E+00;  0.0000000E+00;  0.0000000E+00;0;  3.8964964E-02;  4.0000000E+04;  0.0000000E+00;  0.0000000E+00;  4.0000000E+04;  0.0000000E+00;  4.0000000E+04;  4.0249486E-02;  0.0000000E+00; -1.2845221E-03;  2.1990840E+03;
 -9.9999998E-03;  9.9999998E-03; -1.4000000E-01;1758;  0.0000000E+00;  0.0000000E+00;  0.0000000E+00;  1.0132831E+03;  1.0000000E-01;  1.1004824E+04;0;  0.0000000E+00;  0.0000000E+00;  0.0000000E+00;0;  3.9008372E-02;  4.0000000E+04;  0.0000000E+00;  0.0000000E+00;  4.0000000E+04;  0.0000000E+00;  4.0000000E+04;  4.0281083E-02;  0.0000000E+00; -1.2727104E-03;  2.0507341E+03;
 -9.9999998E-03;  9.9999998E-03; -1.3000000E-01;1759;  0.0000000E+00;  0.0000000E+00;  0.0000000E+00;  1.0134269E+03;  1.0000000E-01;  1.1123933E+04;0;  0.0000000E+00;  0.0000000E+00;  0.0000000E+00;0;  3.9086692E-02;  4.0000000E+04;  0.0000000E+00;  0.0000000E+00;  4.0000000E+04;  0.0000000E+00;  4.0000000E+04;  4.0379316E-02;  0.0000000E+00; -1.2926219E-03;  1.9260751E+03;
 -9.9999998E-03;  9.9999998E-03; -1.2000000E-01;1760;  0.0000000E+00;  0.0000000E+00;  0.0000000E+00;  1.0135009E+03;  1.0000000E-01;  1.1185165E+04;0;  0.0000000E+00;  0.0000000E+00;  0.0000000E+00;0;  3.9192818E-02;  4.0000000E+04;  0.0000000E+00;  0.0000000E+00;  4.0000000E+04;  0.0000000E+00;  4.0000000E+04;  4.0531676E-02;  0.0000000E+00; -1.3388591E-03;  1.8233922E+03;
 -9.9999998E-03;  9.9999998E-03; -1.1000000E-01;1761;  0.0000000E+00;  0.0000000E+00;  0.0000000E+00;  1.0135110E+03;  1.0000000E-01;  1.1193659E+04;0;  0.0000000E+00;  0.0000000E+00;  0.0000000E+00;0;  3.9312560E-02;  4.0000000E+04;  0.0000000E+00;  0.0000000E+00;  4.0000000E+04;  0.0000000E+00;  4.0000000E+04;  4.0712524E-02;  0.0000000E+00; -1.3999649E-03;  1.7442216E+03;
 -1.9000000E-01;  9.9999998E-03; -1.0000000E-01;124;  0.0000000E+00;  0.0000000E+00;  0.0000000E+00;  1.0000000E+03;  1.0000000E-01;  0.0000000E+00;0;  0.0000000E+00;  0.0000000E+00;  0.0000000E+00;0;  0.0000000E+00;  4.0000000E+04;  0.0000000E+00;  0.0000000E+00;  4.0000000E+04;  0.0000000E+00;  4.0000000E+04;  0.0000000E+00;  0.0000000E+00;  0.0000000E+00;  0.0000000E+00;
 -1.9000000E-01;  9.9999998E-03; -9.0000004E-02;125;  0.0000000E+00;  0.0000000E+00;  0.0000000E+00;  1.0000000E+03;  1.0000000E-01;  0.0000000E+00;0;  0.0000000E+00;  0.0000000E+00;  0.0000000E+00;0;  0.0000000E+00;  4.0000000E+04;  0.0000000E+00;  0.0000000E+00;  4.0000000E+04;  0.0000000E+00;  4.0000000E+04;  0.0000000E+00;  0.0000000E+00;  0.0000000E+00;  0.0000000E+00;
 -1.9000000E-01;  9.9999998E-03; -7.9999998E-02;126;  0.0000000E+00;  0.0000000E+00;  0.0000000E+00;  1.0000000E+03;  1.0000000E-01;  0.0000000E+00;0;  0.0000000E+00;  0.0000000E+00;  0.0000000E+00;0;  0.0000000E+00;  4.0000000E+04;  0.0000000E+00;  0.0000000E+00;  4.0000000E+04;  0.0000000E+00;  4.0000000E+04;  0.0000000E+00;  0.0000000E+00;  0.0000000E+00;  0.0000000E+00;
 -1.9000000E-01;  9.9999998E-03; -7.0000000E-02;127;  0.0000000E+00;  0.0000000E+00;  0.0000000E+00;  1.0000000E+03;  1.0000000E-01;  0.0000000E+00;0;  0.0000000E+00;  0.0000000E+00;  0.0000000E+00;0;  0.0000000E+00;  4.0000000E+04;  0.0000000E+00;  0.0000000E+00;  4.0000000E+04;  0.0000000E+00;  4.0000000E+04;  0.0000000E+00;  0.0000000E+00;  0.0000000E+00;  0.0000000E+00;
 -1.9000000E-01;  9.9999998E-03; -5.9999999E-02;128;  0.0000000E+00;  0.0000000E+00;  0.0000000E+00;  1.0000000E+03;  1.0000000E-01;  0.0000000E+00;0;  0.0000000E+00;  0.0000000E+00;  0.0000000E+00;0;  0.0000000E+00;  4.0000000E+04;  0.0000000E+00;  0.0000000E+00;  4.0000000E+04;  0.0000000E+00;  4.0000000E+04;  0.0000000E+00;  0.0000000E+00;  0.0000000E+00;  0.0000000E+00;
 -1.9000000E-01;  9.9999998E-03; -5.0000001E-02;129;  0.0000000E+00;  0.0000000E+00;  0.0000000E+00;  1.0000000E+03;  1.0000000E-01;  0.0000000E+00;0;  0.0000000E+00;  0.0000000E+00;  0.0000000E+00;0;  0.0000000E+00;  4.0000000E+04;  0.0000000E+00;  0.0000000E+00;  4.0000000E+04;  0.0000000E+00;  4.0000000E+04;  0.0000000E+00;  0.0000000E+00;  0.0000000E+00;  0.0000000E+00;
 -1.9000000E-01;  9.9999998E-03; -3.9999999E-02;130;  0.0000000E+00;  0.0000000E+00;  0.0000000E+00;  1.0000000E+03;  1.0000000E-01;  0.0000000E+00;0;  0.0000000E+00;  0.0000000E+00;  0.0000000E+00;0;  0.0000000E+00;  4.0000000E+04;  0.0000000E+00;  0.0000000E+00;  4.0000000E+04;  0.0000000E+00;  4.0000000E+04;  0.0000000E+00;  0.0000000E+00;  0.0000000E+00;  0.0000000E+00;
 -1.9000000E-01;  9.9999998E-03; -2.9999999E-02;131;  0.0000000E+00;  0.0000000E+00;  0.0000000E+00;  1.0000000E+03;  1.0000000E-01;  0.0000000E+00;0;  0.0000000E+00;  0.0000000E+00;  0.0000000E+00;0;  0.0000000E+00;  4.0000000E+04;  0.0000000E+00;  0.0000000E+00;  4.0000000E+04;  0.0000000E+00;  4.0000000E+04;  0.0000000E+00;  0.0000000E+00;  0.0000000E+00;  0.0000000E+00;
 -1.9000000E-01;  9.9999998E-03; -2.0000000E-02;132;  0.0000000E+00;  0.0000000E+00;  0.0000000E+00;  1.0000000E+03;  1.0000000E-01;  0.0000000E+00;0;  0.0000000E+00;  0.0000000E+00;  0.0000000E+00;0;  0.0000000E+00;  4.0000000E+04;  0.0000000E+00;  0.0000000E+00;  4.0000000E+04;  0.0000000E+00;  4.0000000E+04;  0.0000000E+00;  0.0000000E+00;  0.0000000E+00;  0.0000000E+00;
 -1.9000000E-01;  9.9999998E-03; -9.9999998E-03;133;  0.0000000E+00;  0.0000000E+00;  0.0000000E+00;  1.0000000E+03;  1.0000000E-01;  0.0000000E+00;0;  0.0000000E+00;  0.0000000E+00;  0.0000000E+00;0;  0.0000000E+00;  4.0000000E+04;  0.0000000E+00;  0.0000000E+00;  4.0000000E+04;  0.0000000E+00;  4.0000000E+04;  0.0000000E+00;  0.0000000E+00;  0.0000000E+00;  0.0000000E+00;
 -1.9000000E-01;  9.9999998E-03;  0.0000000E+00;134;  0.0000000E+00;  0.0000000E+00;  0.0000000E+00;  1.0000000E+03;  1.0000000E-01;  0.0000000E+00;0;  0.0000000E+00;  0.0000000E+00;  0.0000000E+00;0;  0.0000000E+00;  4.0000000E+04;  0.0000000E+00;  0.0000000E+00;  4.0000000E+04;  0.0000000E+00;  4.0000000E+04;  0.0000000E+00;  0.0000000E+00;  0.0000000E+00;  0.0000000E+00;
 -1.9000000E-01;  9.9999998E-03;  9.9999998E-03;135;  0.0000000E+00;  0.0000000E+00;  0.0000000E+00;  1.0000000E+03;  1.0000000E-01;  0.0000000E+00;0;  0.0000000E+00;  0.0000000E+00;  0.0000000E+00;0;  0.0000000E+00;  4.0000000E+04;  0.0000000E+00;  0.0000000E+00;  4.0000000E+04;  0.0000000E+00;  4.0000000E+04;  0.0000000E+00;  0.0000000E+00;  0.0000000E+00;  0.0000000E+00;
 -1.9000000E-01;  9.9999998E-03;  2.0000000E-02;136;  0.0000000E+00;  0.0000000E+00;  0.0000000E+00;  1.0000000E+03;  1.0000000E-01;  0.0000000E+00;0;  0.0000000E+00;  0.0000000E+00;  0.0000000E+00;0;  0.0000000E+00;  4.0000000E+04;  0.0000000E+00;  0.0000000E+00;  4.0000000E+04;  0.0000000E+00;  4.0000000E+04;  0.0000000E+00;  0.0000000E+00;  0.0000000E+00;  0.0000000E+00;
 -1.9000000E-01;  9.9999998E-03;  2.9999999E-02;137;  0.0000000E+00;  0.0000000E+00;  0.0000000E+00;  1.0000000E+03;  1.0000000E-01;  0.0000000E+00;0;  0.0000000E+00;  0.0000000E+00;  0.0000000E+00;0;  0.0000000E+00;  4.0000000E+04;  0.0000000E+00;  0.0000000E+00;  4.0000000E+04;  0.0000000E+00;  4.0000000E+04;  0.0000000E+00;  0.0000000E+00;  0.0000000E+00;  0.0000000E+00;
 -1.9000000E-01;  9.9999998E-03;  3.9999999E-02;138;  0.0000000E+00;  0.0000000E+00;  0.0000000E+00;  1.0000000E+03;  1.0000000E-01;  0.0000000E+00;0;  0.0000000E+00;  0.0000000E+00;  0.0000000E+00;0;  0.0000000E+00;  4.0000000E+04;  0.0000000E+00;  0.0000000E+00;  4.0000000E+04;  0.0000000E+00;  4.0000000E+04;  0.0000000E+00;  0.0000000E+00;  0.0000000E+00;  0.0000000E+00;
 -1.9000000E-01;  9.9999998E-03;  5.0000001E-02;139;  0.0000000E+00;  0.0000000E+00;  0.0000000E+00;  1.0000000E+03;  1.0000000E-01;  0.0000000E+00;0;  0.0000000E+00;  0.0000000E+00;  0.0000000E+00;0;  0.0000000E+00;  4.0000000E+04;  0.0000000E+00;  0.0000000E+00;  4.0000000E+04;  0.0000000E+00;  4.0000000E+04;  0.0000000E+00;  0.0000000E+00;  0.0000000E+00;  0.0000000E+00;
 -1.9000000E-01;  9.9999998E-03;  5.9999999E-02;140;  0.0000000E+00;  0.0000000E+00;  0.0000000E+00;  1.0000000E+03;  1.0000000E-01;  0.0000000E+00;0;  0.0000000E+00;  0.0000000E+00;  0.0000000E+00;0;  0.0000000E+00;  4.0000000E+04;  0.0000000E+00;  0.0000000E+00;  4.0000000E+04;  0.0000000E+00;  4.0000000E+04;  0.0000000E+00;  0.0000000E+00;  0.0000000E+00;  0.0000000E+00;
 -1.8000001E-01;  9.9999998E-03; -1.0000000E-01;215;  0.0000000E+00;  0.0000000E+00;  0.0000000E+00;  1.0000000E+03;  1.0000000E-01;  0.0000000E+00;0;  0.0000000E+00;  0.0000000E+00;  0.0000000E+00;0;  0.0000000E+00;  4.0000000E+04;  0.0000000E+00;  0.0000000E+00;  4.0000000E+04;  0.0000000E+00;  4.0000000E+04;  0.0000000E+00;  0.0000000E+00;  0.0000000E+00;  0.0000000E+00;
 -1.8000001E-01;  9.9999998E-03; -9.0000004E-02;216;  0.0000000E+00;  0.0000000E+00;  0.0000000E+00;  1.0000000E+03;  1.0000000E-01;  0.0000000E+00;0;  0.0000000E+00;  0.0000000E+00;  0.0000000E+00;0;  0.0000000E+00;  4.0000000E+04;  0.0000000E+00;  0.0000000E+00;  4.0000000E+04;  0.0000000E+00;  4.0000000E+04;  0.0000000E+00;  0.0000000E+00;  0.0000000E+00;  0.0000000E+00;
 -1.8000001E-01;  9.9999998E-03; -7.9999998E-02;217;  0.0000000E+00;  0.0000000E+00;  0.0000000E+00;  1.0000000E+03;  1.0000000E-01;  0.0000000E+00;0;  0.0000000E+00;  0.0000000E+00;  0.0000000E+00;0;  0.0000000E+00;  4.0000000E+04;  0.0000000E+00;  0.0000000E+00;  4.0000000E+04;  0.0000000E+00;  4.0000000E+04;  0.0000000E+00;  0.0000000E+00;  0.0000000E+00;  0.0000000E+00;
 -1.8000001E-01;  9.9999998E-03; -7.0000000E-02;218;  0.0000000E+00;  0.0000000E+00;  0.0000000E+00;  1.0000000E+03;  1.0000000E-01;  0.0000000E+00;0;  0.0000000E+00;  0.0000000E+00;  0.0000000E+00;0;  0.0000000E+00;  4.0000000E+04;  0.0000000E+00;  0.0000000E+00;  4.0000000E+04;  0.0000000E+00;  4.0000000E+04;  0.0000000E+00;  0.0000000E+00;  0.0000000E+00;  0.0000000E+00;
 -1.8000001E-01;  9.9999998E-03; -5.9999999E-02;219;  0.0000000E+00;  0.0000000E+00;  0.0000000E+00;  1.0000000E+03;  1.0000000E-01;  0.0000000E+00;0;  0.0000000E+00;  0.0000000E+00;  0.0000000E+00;0;  0.0000000E+00;  4.0000000E+04;  0.0000000E+00;  0.0000000E+00;  4.0000000E+04;  0.0000000E+00;  4.0000000E+04;  0.0000000E+00;  0.0000000E+00;  0.0000000E+00;  0.0000000E+00;
 -1.8000001E-01;  9.9999998E-03; -5.0000001E-02;220;  0.0000000E+00;  0.0000000E+00;  0.0000000E+00;  1.0000000E+03;  1.0000000E-01;  0.0000000E+00;0;  0.0000000E+00;  0.0000000E+00;  0.0000000E+00;0;  0.0000000E+00;  4.0000000E+04;  0.0000000E+00;  0.0000000E+00;  4.0000000E+04;  0.0000000E+00;  4.0000000E+04;  0.0000000E+00;  0.0000000E+00;  0.0000000E+00;  0.0000000E+00;
 -1.8000001E-01;  9.9999998E-03; -3.9999999E-02;221;  0.0000000E+00;  0.0000000E+00;  0.0000000E+00;  1.0000000E+03;  1.0000000E-01;  0.0000000E+00;0;  0.0000000E+00;  0.0000000E+00;  0.0000000E+00;0;  0.0000000E+00;  4.0000000E+04;  0.0000000E+00;  0.0000000E+00;  4.0000000E+04;  0.0000000E+00;  4.0000000E+04;  0.0000000E+00;  0.0000000E+00;  0.0000000E+00;  0.0000000E+00;
 -1.8000001E-01;  9.9999998E-03; -2.9999999E-02;222;  0.0000000E+00;  0.0000000E+00;  0.0000000E+00;  1.0000000E+03;  1.0000000E-01;  0.0000000E+00;0;  0.0000000E+00;  0.0000000E+00;  0.0000000E+00;0;  0.0000000E+00;  4.0000000E+04;  0.0000000E+00;  0.0000000E+00;  4.0000000E+04;  0.0000000E+00;  4.0000000E+04;  0.0000000E+00;  0.0000000E+00;  0.0000000E+00;  0.0000000E+00;
 -1.8000001E-01;  9.9999998E-03; -2.0000000E-02;223;  0.0000000E+00;  0.0000000E+00;  0.0000000E+00;  1.0000000E+03;  1.0000000E-01;  0.0000000E+00;0;  0.0000000E+00;  0.0000000E+00;  0.0000000E+00;0;  0.0000000E+00;  4.0000000E+04;  0.0000000E+00;  0.0000000E+00;  4.0000000E+04;  0.0000000E+00;  4.0000000E+04;  0.0000000E+00;  0.0000000E+00;  0.0000000E+00;  0.0000000E+00;
 -1.8000001E-01;  9.9999998E-03; -9.9999998E-03;224;  0.0000000E+00;  0.0000000E+00;  0.0000000E+00;  1.0000000E+03;  1.0000000E-01;  0.0000000E+00;0;  0.0000000E+00;  0.0000000E+00;  0.0000000E+00;0;  0.0000000E+00;  4.0000000E+04;  0.0000000E+00;  0.0000000E+00;  4.0000000E+04;  0.0000000E+00;  4.0000000E+04;  0.0000000E+00;  0.0000000E+00;  0.0000000E+00;  0.0000000E+00;
 -1.8000001E-01;  9.9999998E-03;  0.0000000E+00;225;  0.0000000E+00;  0.0000000E+00;  0.0000000E+00;  1.0000000E+03;  1.0000000E-01;  0.0000000E+00;0;  0.0000000E+00;  0.0000000E+00;  0.0000000E+00;0;  0.0000000E+00;  4.0000000E+04;  0.0000000E+00;  0.0000000E+00;  4.0000000E+04;  0.0000000E+00;  4.0000000E+04;  0.0000000E+00;  0.0000000E+00;  0.0000000E+00;  0.0000000E+00;
 -1.8000001E-01;  9.9999998E-03;  9.9999998E-03;226;  0.0000000E+00;  0.0000000E+00;  0.0000000E+00;  1.0000000E+03;  1.0000000E-01;  0.0000000E+00;0;  0.0000000E+00;  0.0000000E+00;  0.0000000E+00;0;  0.0000000E+00;  4.0000000E+04;  0.0000000E+00;  0.0000000E+00;  4.0000000E+04;  0.0000000E+00;  4.0000000E+04;  0.0000000E+00;  0.0000000E+00;  0.0000000E+00;  0.0000000E+00;
 -1.8000001E-01;  9.9999998E-03;  2.0000000E-02;227;  0.0000000E+00;  0.0000000E+00;  0.0000000E+00;  1.0000000E+03;  1.0000000E-01;  0.0000000E+00;0;  0.0000000E+00;  0.0000000E+00;  0.0000000E+00;0;  0.0000000E+00;  4.0000000E+04;  0.0000000E+00;  0.0000000E+00;  4.0000000E+04;  0.0000000E+00;  4.0000000E+04;  0.0000000E+00;  0.0000000E+00;  0.0000000E+00;  0.0000000E+00;
 -1.8000001E-01;  9.9999998E-03;  2.9999999E-02;228;  0.0000000E+00;  0.0000000E+00;  0.0000000E+00;  1.0000000E+03;  1.0000000E-01;  0.0000000E+00;0;  0.0000000E+00;  0.0000000E+00;  0.0000000E+00;0;  0.0000000E+00;  4.0000000E+04;  0.0000000E+00;  0.0000000E+00;  4.0000000E+04;  0.0000000E+00;  4.0000000E+04;  0.0000000E+00;  0.0000000E+00;  0.0000000E+00;  0.0000000E+00;
 -1.8000001E-01;  9.9999998E-03;  3.9999999E-02;229;  0.0000000E+00;  0.0000000E+00;  0.0000000E+00;  1.0000000E+03;  1.0000000E-01;  0.0000000E+00;0;  0.0000000E+00;  0.0000000E+00;  0.0000000E+00;0;  0.0000000E+00;  4.0000000E+04;  0.0000000E+00;  0.0000000E+00;  4.0000000E+04;  0.0000000E+00;  4.0000000E+04;  0.0000000E+00;  0.0000000E+00;  0.0000000E+00;  0.0000000E+00;
 -1.8000001E-01;  9.9999998E-03;  5.0000001E-02;230;  0.0000000E+00;  0.0000000E+00;  0.0000000E+00;  1.0000000E+03;  1.0000000E-01;  0.0000000E+00;0;  0.0000000E+00;  0.0000000E+00;  0.0000000E+00;0;  0.0000000E+00;  4.0000000E+04;  0.0000000E+00;  0.0000000E+00;  4.0000000E+04;  0.0000000E+00;  4.0000000E+04;  0.0000000E+00;  0.0000000E+00;  0.0000000E+00;  0.0000000E+00;
 -1.8000001E-01;  9.9999998E-03;  5.9999999E-02;231;  0.0000000E+00;  0.0000000E+00;  0.0000000E+00;  1.0000000E+03;  1.0000000E-01;  0.0000000E+00;0;  0.0000000E+00;  0.0000000E+00;  0.0000000E+00;0;  0.0000000E+00;  4.0000000E+04;  0.0000000E+00;  0.0000000E+00;  4.0000000E+04;  0.0000000E+00;  4.0000000E+04;  0.0000000E+00;  0.0000000E+00;  0.0000000E+00;  0.0000000E+00;
 -1.7000000E-01;  9.9999998E-03; -1.0000000E-01;306;  0.0000000E+00;  0.0000000E+00;  0.0000000E+00;  1.0000000E+03;  1.0000000E-01;  0.0000000E+00;0;  0.0000000E+00;  0.0000000E+00;  0.0000000E+00;0;  0.0000000E+00;  4.0000000E+04;  0.0000000E+00;  0.0000000E+00;  4.0000000E+04;  0.0000000E+00;  4.0000000E+04;  0.0000000E+00;  0.0000000E+00;  0.0000000E+00;  1.9801023E-09;
 -1.7000000E-01;  9.9999998E-03; -9.0000004E-02;307;  0.0000000E+00;  0.0000000E+00;  0.0000000E+00;  1.0000000E+03;  1.0000000E-01;  0.0000000E+00;0;  0.0000000E+00;  0.0000000E+00;  0.0000000E+00;0;  0.0000000E+00;  4.0000000E+04;  0.0000000E+00;  0.0000000E+00;  4.0000000E+04;  0.0000000E+00;  4.0000000E+04;  0.0000000E+00;  0.0000000E+00;  0.0000000E+00;  1.9974504E-09;
 -1.7000000E-01;  9.9999998E-03; -7.9999998E-02;308;  0.0000000E+00;  0.0000000E+00;  0.0000000E+00;  1.0000000E+03;  1.0000000E-01;  0.0000000E+00;0;  0.0000000E+00;  0.0000000E+00;  0.0000000E+00;0;  0.0000000E+00;  4.0000000E+04;  0.0000000E+00;  0.0000000E+00;  4.0000000E+04;  0.0000000E+00;  4.0000000E+04;  0.0000000E+00;  0.0000000E+00;  0.0000000E+00;  2.0288866E-09;
 -1.7000000E-01;  9.9999998E-03; -7.0000000E-02;309;  0.0000000E+00;  0.0000000E+00;  0.0000000E+00;  1.0000000E+03;  1.0000000E-01;  0.0000000E+00;0;  0.0000000E+00;  0.0000000E+00;  0.0000000E+00;0;  0.0000000E+00;  4.0000000E+04;  0.0000000E+00;  0.0000000E+00;  4.0000000E+04;  0.0000000E+00;  4.0000000E+04;  0.0000000E+00;  0.0000000E+00;  0.0000000E+00;  2.0664868E-09;
 -1.7000000E-01;  9.9999998E-03; -5.9999999E-02;310;  0.0000000E+00;  0.0000000E+00;  0.0000000E+00;  1.0000000E+03;  1.0000000E-01;  0.0000000E+00;0;  0.0000000E+00;  0.0000000E+00;  0.0000000E+00;0;  0.0000000E+00;  4.0000000E+04;  0.0000000E+00;  0.0000000E+00;  4.0000000E+04;  0.0000000E+00;  4.0000000E+04;  0.0000000E+00;  0.0000000E+00;  0.0000000E+00;  2.0963358E-09;
 -1.7000000E-01;  9.9999998E-03; -5.0000001E-02;311;  0.0000000E+00;  0.0000000E+00;  0.0000000E+00;  1.0000000E+03;  1.0000000E-01;  0.0000000E+00;0;  0.0000000E+00;  0.0000000E+00;  0.0000000E+00;0;  0.0000000E+00;  4.0000000E+04;  0.0000000E+00;  0.0000000E+00;  4.0000000E+04;  0.0000000E+00;  4.0000000E+04;  0.0000000E+00;  0.0000000E+00;  0.0000000E+00;  2.0985100E-09;
 -1.7000000E-01;  9.9999998E-03; -3.9999999E-02;312;  0.0000000E+00;  0.0000000E+00;  0.0000000E+00;  1.0000000E+03;  1.0000000E-01;  0.0000000E+00;0;  0.0000000E+00;  0.0000000E+00;  0.0000000E+00;0;  0.0000000E+00;  4.0000000E+04;  0.0000000E+00;  0.0000000E+00;  4.0000000E+04;  0.0000000E+00;  4.0000000E+04;  0.0000000E+00;  0.0000000E+00;  0.0000000E+00;  2.0709305E-09;
 -1.7000000E-01;  9.9999998E-03; -2.9999999E-02;313;  0.0000000E+00;  0.0000000E+00;  0.0000000E+00;  1.0000000E+03;  1.0000000E-01;  0.0000000E+00;0;  0.0000000E+00;  0.0000000E+00;  0.0000000E+00;0;  0.0000000E+00;  4.0000000E+04;  0.0000000E+00;  0.0000000E+00;  4.0000000E+04;  0.0000000E+00;  4.0000000E+04;  0.0000000E+00;  0.0000000E+00;  0.0000000E+00;  2.0022204E-09;
 -1.7000000E-01;  9.9999998E-03; -2.0000000E-02;314;  0.0000000E+00;  0.0000000E+00;  0.0000000E+00;  1.0000000E+03;  1.0000000E-01;  0.0000000E+00;0;  0.0000000E+00;  0.0000000E+00;  0.0000000E+00;0;  0.0000000E+00;  4.0000000E+04;  0.0000000E+00;  0.0000000E+00;  4.0000000E+04;  0.0000000E+00;  4.0000000E+04;  0.0000000E+00;  0.0000000E+00;  0.0000000E+00;  1.8807096E-09;
 -1.7000000E-01;  9.9999998E-03; -9.9999998E-03;315;  0.0000000E+00;  0.0000000E+00;  0.0000000E+00;  1.0000000E+03;  1.0000000E-01;  0.0000000E+00;0;  0.0000000E+00;  0.0000000E+00;  0.0000000E+00;0;  0.0000000E+00;  4.0000000E+04;  0.0000000E+00;  0.0000000E+00;  4.0000000E+04;  0.0000000E+00;  4.0000000E+04;  0.0000000E+00;  0.0000000E+00;  0.0000000E+00;  1.7538491E-09;
 -1.7000000E-01;  9.9999998E-03;  0.0000000E+00;316;  0.0000000E+00;  0.0000000E+00;  0.0000000E+00;  1.0000000E+03;  1.0000000E-01;  0.0000000E+00;0;  0.0000000E+00;  0.0000000E+00;  0.0000000E+00;0;  0.0000000E+00;  4.0000000E+04;  0.0000000E+00;  0.0000000E+00;  4.0000000E+04;  0.0000000E+00;  4.0000000E+04;  0.0000000E+00;  0.0000000E+00;  0.0000000E+00;  1.6940426E-09;
 -1.7000000E-01;  9.9999998E-03;  9.9999998E-03;317;  0.0000000E+00;  0.0000000E+00;  0.0000000E+00;  1.0000000E+03;  1.0000000E-01;  0.0000000E+00;0;  0.0000000E+00;  0.0000000E+00;  0.0000000E+00;0;  0.0000000E+00;  4.0000000E+04;  0.0000000E+00;  0.0000000E+00;  4.0000000E+04;  0.0000000E+00;  4.0000000E+04;  0.0000000E+00;  0.0000000E+00;  0.0000000E+00;  1.7541210E-09;
 -1.7000000E-01;  9.9999998E-03;  2.0000000E-02;318;  0.0000000E+00;  0.0000000E+00;  0.0000000E+00;  1.0000000E+03;  1.0000000E-01;  0.0000000E+00;0;  0.0000000E+00;  0.0000000E+00;  0.0000000E+00;0;  0.0000000E+00;  4.0000000E+04;  0.0000000E+00;  0.0000000E+00;  4.0000000E+04;  0.0000000E+00;  4.0000000E+04;  0.0000000E+00;  0.0000000E+00;  0.0000000E+00;  1.8806892E-09;
 -1.7000000E-01;  9.9999998E-03;  2.9999999E-02;319;  0.0000000E+00;  0.0000000E+00;  0.0000000E+00;  1.0000000E+03;  1.0000000E-01;  0.0000000E+00;0;  0.0000000E+00;  0.0000000E+00;  0.0000000E+00;0;  0.0000000E+00;  4.0000000E+04;  0.0000000E+00;  0.0000000E+00;  4.0000000E+04;  0.0000000E+00;  4.0000000E+04;  0.0000000E+00;  0.0000000E+00;  0.0000000E+00;  2.0024555E-09;
 -1.7000000E-01;  9.9999998E-03;  3.9999999E-02;320;  0.0000000E+00;  0.0000000E+00;  0.0000000E+00;  1.0000000E+03;  1.0000000E-01;  0.0000000E+00;0;  0.0000000E+00;  0.0000000E+00;  0.0000000E+00;0;  0.0000000E+00;  4.0000000E+04;  0.0000000E+00;  0.0000000E+00;  4.0000000E+04;  0.0000000E+00;  4.0000000E+04;  0.0000000E+00;  0.0000000E+00;  0.0000000E+00;  2.0701814E-09;
 -1.7000000E-01;  9.9999998E-03;  5.0000001E-02;321;  0.0000000E+00;  0.0000000E+00;  0.0000000E+00;  1.0000000E+03;  1.0000000E-01;  0.0000000E+00;0;  0.0000000E+00;  0.0000000E+00;  0.0000000E+00;0;  0.0000000E+00;  4.0000000E+04;  0.0000000E+00;  0.0000000E+00;  4.0000000E+04;  0.0000000E+00;  4.0000000E+04;  0.0000000E+00;  0.0000000E+00;  0.0000000E+00;  2.0988598E-09;
 -1.7000000E-01;  9.9999998E-03;  5.9999999E-02;322;  0.0000000E+00;  0.0000000E+00;  0.0000000E+00;  1.0000000E+03;  1.0000000E-01;  0.0000000E+00;0;  0.0000000E+00;  0.0000000E+00;  0.0000000E+00;0;  0.0000000E+00;  4.0000000E+04;  0.0000000E+00;  0.0000000E+00;  4.0000000E+04;  0.0000000E+00;  4.0000000E+04;  0.0000000E+00;  0.0000000E+00;  0.0000000E+00;  2.0959194E-09;
 -1.6000000E-01;  9.9999998E-03; -1.0000000E-01;397;  0.0000000E+00;  0.0000000E+00;  0.0000000E+00;  1.0000000E+03;  1.0000000E-01;  0.0000000E+00;0;  0.0000000E+00;  0.0000000E+00;  0.0000000E+00;0;  3.2564169E-06;  4.0000000E+04;  0.0000000E+00;  0.0000000E+00;  4.0000000E+04;  0.0000000E+00;  4.0000000E+04;  3.2584132E-06;  0.0000000E+00; -1.9964186E-09;  2.5296351E-01;
 -1.6000000E-01;  9.9999998E-03; -9.0000004E-02;398;  0.0000000E+00;  0.0000000E+00;  0.0000000E+00;  1.0000000E+03;  1.0000000E-01;  0.0000000E+00;0;  0.0000000E+00;  0.0000000E+00;  0.0000000E+00;0;  3.2748042E-06;  4.0000000E+04;  0.0000000E+00;  0.0000000E+00;  4.0000000E+04;  0.0000000E+00;  4.0000000E+04;  3.2771750E-06;  0.0000000E+00; -2.3707805E-09;  2.5019413E-01;
 -1.6000000E-01;  9.9999998E-03; -7.9999998E-02;399;  0.0000000E+00;  0.0000000E+00;  0.0000000E+00;  1.0000000E+03;  1.0000000E-01;  0.0000000E+00;0;  0.0000000E+00;  0.0000000E+00;  0.0000000E+00;0;  3.2885316E-06;  4.0000000E+04;  0.0000000E+00;  0.0000000E+00;  4.0000000E+04;  0.0000000E+00;  4.0000000E+04;  3.2910955E-06;  0.0000000E+00; -2.5637834E-09;  2.4882290E-01;
 -1.6000000E-01;  9.9999998E-03; -7.0000000E-02;400;  0.0000000E+00;  0.0000000E+00;  0.0000000E+00;  1.0000000E+03;  1.0000000E-01;  0.0000000E+00;0;  0.0000000E+00;  0.0000000E+00;  0.0000000E+00;0;  3.2966038E-06;  4.0000000E+04;  0.0000000E+00;  0.0000000E+00;  4.0000000E+04;  0.0000000E+00;  4.0000000E+04;  3.2991402E-06;  0.0000000E+00; -2.5363656E-09;  2.4854213E-01;
 -1.6000000E-01;  9.9999998E-03; -5.9999999E-02;401;  0.0000000E+00;  0.0000000E+00;  0.0000000E+00;  1.0000000E+03;  1.0000000E-01;  0.0000000E+00;0;  0.0000000E+00;  0.0000000E+00;  0.0000000E+00;0;  3.2993453E-06;  4.0000000E+04;  0.0000000E+00;  0.0000000E+00;  4.0000000E+04;  0.0000000E+00;  4.0000000E+04;  3.3016322E-06;  0.0000000E+00; -2.2869169E-09;  2.4892904E-01;
 -1.6000000E-01;  9.9999998E-03; -5.0000001E-02;402;  0.0000000E+00;  0.0000000E+00;  0.0000000E+00;  1.0000000E+03;  1.0000000E-01;  0.0000000E+00;0;  0.0000000E+00;  0.0000000E+00;  0.0000000E+00;0;  3.2978839E-06;  4.0000000E+04;  0.0000000E+00;  0.0000000E+00;  4.0000000E+04;  0.0000000E+00;  4.0000000E+04;  3.2997377E-06;  0.0000000E+00; -1.8538269E-09;  2.4958226E-01;
 -1.6000000E-01;  9.9999998E-03; -3.9999999E-02;403;  0.0000000E+00;  0.0000000E+00;  0.0000000E+00;  1.0000000E+03;  1.0000000E-01;  0.0000000E+00;0;  0.0000000E+00;  0.0000000E+00;  0.0000000E+00;0;  3.2938121E-06;  4.0000000E+04;  0.0000000E+00;  0.0000000E+00;  4.0000000E+04;  0.0000000E+00;  4.0000000E+04;  3.2951164E-06;  0.0000000E+00; -1.3042631E-09;  2.5021029E-01;
 -1.6000000E-01;  9.9999998E-03; -2.9999999E-02;404;  0.0000000E+00;  0.0000000E+00;  0.0000000E+00;  1.0000000E+03;  1.0000000E-01;  0.0000000E+00;0;  0.0000000E+00;  0.0000000E+00;  0.0000000E+00;0;  3.2887044E-06;  4.0000000E+04;  0.0000000E+00;  0.0000000E+00;  4.0000000E+04;  0.0000000E+00;  4.0000000E+04;  3.2894270E-06;  0.0000000E+00; -7.2259521E-10;  2.5065699E-01;
 -1.6000000E-01;  9.9999998E-03; -2.0000000E-02;405;  0.0000000E+00;  0.0000000E+00;  0.0000000E+00;  1.0000000E+03;  1.0000000E-01;  0.0000000E+00;0;  0.0000000E+00;  0.0000000E+00;  0.0000000E+00;0;  3.2839966E-06;  4.0000000E+04;  0.0000000E+00;  0.0000000E+00;  4.0000000E+04;  0.0000000E+00;  4.0000000E+04;  3.2841997E-06;  0.0000000E+00; -2.0303305E-10;  2.5089777E-01;
 -1.6000000E-01;  9.9999998E-03; -9.9999998E-03;406;  0.0000000E+00;  0.0000000E+00;  0.0000000E+00;  1.0000000E+03;  1.0000000E-01;  0.0000000E+00;0;  0.0000000E+00;  0.0000000E+00;  0.0000000E+00;0;  3.2807275E-06;  4.0000000E+04;  0.0000000E+00;  0.0000000E+00;  4.0000000E+04;  0.0000000E+00;  4.0000000E+04;  3.2805676E-06;  0.0000000E+00;  1.5980252E-10;  2.5098675E-01;
 -1.6000000E-01;  9.9999998E-03;  0.0000000E+00;407;  0.0000000E+00;  0.0000000E+00;  0.0000000E+00;  1.0000000E+03;  1.0000000E-01;  0.0000000E+00;0;  0.0000000E+00;  0.0000000E+00;  0.0000000E+00;0;  3.2795760E-06;  4.0000000E+04;  0.0000000E+00;  0.0000000E+00;  4.0000000E+04;  0.0000000E+00;  4.0000000E+04;  3.2792855E-06;  0.0000000E+00;  2.9061320E-10;  2.5100601E-01;
 -1.6000000E-01;  9.9999998E-03;  9.9999998E-03;408;  0.0000000E+00;  0.0000000E+00;  0.0000000E+00;  1.0000000E+03;  1.0000000E-01;  0.0000000E+00;0;  0.0000000E+00;  0.0000000E+00;  0.0000000E+00;0;  3.2807279E-06;  4.0000000E+04;  0.0000000E+00;  0.0000000E+00;  4.0000000E+04;  0.0000000E+00;  4.0000000E+04;  3.2805681E-06;  0.0000000E+00;  1.5976763E-10;  2.5098658E-01;
 -1.6000000E-01;  9.9999998E-03;  2.0000000E-02;409;  0.0000000E+00;  0.0000000E+00;  0.0000000E+00;  1.0000000E+03;  1.0000000E-01;  0.0000000E+00;0;  0.0000000E+00;  0.0000000E+00;  0.0000000E+00;0;  3.2839971E-06;  4.0000000E+04;  0.0000000E+00;  0.0000000E+00;  4.0000000E+04;  0.0000000E+00;  4.0000000E+04;  3.2842001E-06;  0.0000000E+00; -2.0309164E-10;  2.5089762E-01;
 -1.6000000E-01;  9.9999998E-03;  2.9999999E-02;410;  0.0000000E+00;  0.0000000E+00;  0.0000000E+00;  1.0000000E+03;  1.0000000E-01;  0.0000000E+00;0;  0.0000000E+00;  0.0000000E+00;  0.0000000E+00;0;  3.2887062E-06;  4.0000000E+04;  0.0000000E+00;  0.0000000E+00;  4.0000000E+04;  0.0000000E+00;  4.0000000E+04;  3.2894288E-06;  0.0000000E+00; -7.2265754E-10;  2.5065681E-01;
 -1.6000000E-01;  9.9999998E-03;  3.9999999E-02;411;  0.0000000E+00;  0.0000000E+00;  0.0000000E+00;  1.0000000E+03;  1.0000000E-01;  0.0000000E+00;0;  0.0000000E+00;  0.0000000E+00;  0.0000000E+00;0;  3.2938140E-06;  4.0000000E+04;  0.0000000E+00;  0.0000000E+00;  4.0000000E+04;  0.0000000E+00;  4.0000000E+04;  3.2951182E-06;  0.0000000E+00; -1.3043032E-09;  2.5021011E-01;
 -1.6000000E-01;  9.9999998E-03;  5.0000001E-02;412;  0.0000000E+00;  0.0000000E+00;  0.0000000E+00;  1.0000000E+03;  1.0000000E-01;  0.0000000E+00;0;  0.0000000E+00;  0.0000000E+00;  0.0000000E+00;0;  3.2978858E-06;  4.0000000E+04;  0.0000000E+00;  0.0000000E+00;  4.0000000E+04;  0.0000000E+00;  4.0000000E+04;  3.2997395E-06;  0.0000000E+00; -1.8538435E-09;  2.4958201E-01;
 -1.6000000E-01;  9.9999998E-03;  5.9999999E-02;413;  0.0000000E+00;  0.0000000E+00;  0.0000000E+00;  1.0000000E+03;  1.0000000E-01;  0.0000000E+00;0;  0.0000000E+00;  0.0000000E+00;  0.0000000E+00;0;  3.2993466E-06;  4.0000000E+04;  0.0000000E+00;  0.0000000E+00;  4.0000000E+04;  0.0000000E+00;  4.0000000E+04;  3.3016336E-06;  0.0000000E+00; -2.2869500E-09;  2.4892890E-01;
 -1.5000001E-01;  9.9999998E-03; -1.0000000E-01;488;  0.0000000E+00;  0.0000000E+00;  0.0000000E+00;  1.0000000E+03;  1.0000000E-01;  0.0000000E+00;0;  0.0000000E+00;  0.0000000E+00;  0.0000000E+00;0;  7.6622542E-05;  4.0000000E+04;  0.0000000E+00;  0.0000000E+00;  4.0000000E+04;  0.0000000E+00;  4.0000000E+04;  7.6734024E-05;  0.0000000E+00; -1.1148352E-07;  3.6038046E+00;
 -1.5000001E-01;  9.9999998E-03; -9.0000004E-02;489;  0.0000000E+00;  0.0000000E+00;  0.0000000E+00;  1.0000000E+03;  1.0000000E-01;  0.0000000E+00;0;  0.0000000E+00;  0.0000000E+00;  0.0000000E+00;0;  7.6811499E-05;  4.0000000E+04;  0.0000000E+00;  0.0000000E+00;  4.0000000E+04;  0.0000000E+00;  4.0000000E+04;  7.6941018E-05;  0.0000000E+00; -1.2952214E-07;  3.5651381E+00;
 -1.5000001E-01;  9.9999998E-03; -7.9999998E-02;490;  0.0000000E+00;  0.0000000E+00;  0.0000000E+00;  1.0000000E+03;  1.0000000E-01;  0.0000000E+00;0;  0.0000000E+00;  0.0000000E+00;  0.0000000E+00;0;  7.6907971E-05;  4.0000000E+04;  0.0000000E+00;  0.0000000E+00;  4.0000000E+04;  0.0000000E+00;  4.0000000E+04;  7.7045996E-05;  0.0000000E+00; -1.3802718E-07;  3.5566640E+00;
 -1.5000001E-01;  9.9999998E-03; -7.0000000E-02;491;  0.0000000E+00;  0.0000000E+00;  0.0000000E+00;  1.0000000E+03;  1.0000000E-01;  0.0000000E+00;0;  0.0000000E+00;  0.0000000E+00;  0.0000000E+00;0;  7.6900404E-05;  4.0000000E+04;  0.0000000E+00;  0.0000000E+00;  4.0000000E+04;  0.0000000E+00;  4.0000000E+04;  7.7036195E-05;  0.0000000E+00; -1.3579468E-07;  3.5730977E+00;
 -1.5000001E-01;  9.9999998E-03; -5.9999999E-02;492;  0.0000000E+00;  0.0000000E+00;  0.0000000E+00;  1.0000000E+03;  1.0000000E-01;  0.0000000E+00;0;  0.0000000E+00;  0.0000000E+00;  0.0000000E+00;0;  7.6798249E-05;  4.0000000E+04;  0.0000000E+00;  0.0000000E+00;  4.0000000E+04;  0.0000000E+00;  4.0000000E+04;  7.6921409E-05;  0.0000000E+00; -1.2315920E-07;  3.6054311E+00;
 -1.5000001E-01;  9.9999998E-03; -5.0000001E-02;493;  0.0000000E+00;  0.0000000E+00;  0.0000000E+00;  1.0000000E+03;  1.0000000E-01;  0.0000000E+00;0;  0.0000000E+00;  0.0000000E+00;  0.0000000E+00;0;  7.6626209E-05;  4.0000000E+04;  0.0000000E+00;  0.0000000E+00;  4.0000000E+04;  0.0000000E+00;  4.0000000E+04;  7.6728218E-05;  0.0000000E+00; -1.0201137E-07;  3.6439991E+00;
 -1.5000001E-01;  9.9999998E-03; -3.9999999E-02;494;  0.0000000E+00;  0.0000000E+00;  0.0000000E+00;  1.0000000E+03;  1.0000000E-01;  0.0000000E+00;0;  0.0000000E+00;  0.0000000E+00;  0.0000000E+00;0;  7.6417811E-05;  4.0000000E+04;  0.0000000E+00;  0.0000000E+00;  4.0000000E+04;  0.0000000E+00;  4.0000000E+04;  7.6493452E-05;  0.0000000E+00; -7.5644074E-08;  3.6809337E+00;
 -1.5000001E-01;  9.9999998E-03; -2.9999999E-02;495;  0.0000000E+00;  0.0000000E+00;  0.0000000E+00;  1.0000000E+03;  1.0000000E-01;  0.0000000E+00;0;  0.0000000E+00;  0.0000000E+00;  0.0000000E+00;0;  7.6209188E-05;  4.0000000E+04;  0.0000000E+00;  0.0000000E+00;  4.0000000E+04;  0.0000000E+00;  4.0000000E+04;  7.6257515E-05;  0.0000000E+00; -4.8326115E-08;  3.7113411E+00;
 -1.5000001E-01;  9.9999998E-03; -2.0000000E-02;496;  0.0000000E+00;  0.0000000E+00;  0.0000000E+00;  1.0000000E+03;  1.0000000E-01;  0.0000000E+00;0;  0.0000000E+00;  0.0000000E+00;  0.0000000E+00;0;  7.6033408E-05;  4.0000000E+04;  0.0000000E+00;  0.0000000E+00;  4.0000000E+04;  0.0000000E+00;  4.0000000E+04;  7.6058022E-05;  0.0000000E+00; -2.4612575E-08;  3.7330704E+00;
 -1.5000001E-01;  9.9999998E-03; -9.9999998E-03;497;  0.0000000E+00;  0.0000000E+00;  0.0000000E+00;  1.0000000E+03;  1.0000000E-01;  0.0000000E+00;0;  0.0000000E+00;  0.0000000E+00;  0.0000000E+00;0;  7.5916869E-05;  4.0000000E+04;  0.0000000E+00;  0.0000000E+00;  4.0000000E+04;  0.0000000E+00;  4.0000000E+04;  7.5925404E-05;  0.0000000E+00; -8.5327567E-09;  3.7458200E+00;
 -1.5000001E-01;  9.9999998E-03;  0.0000000E+00;498;  0.0000000E+00;  0.0000000E+00;  0.0000000E+00;  1.0000000E+03;  1.0000000E-01;  0.0000000E+00;0;  0.0000000E+00;  0.0000000E+00;  0.0000000E+00;0;  7.5876196E-05;  4.0000000E+04;  0.0000000E+00;  0.0000000E+00;  4.0000000E+04;  0.0000000E+00;  4.0000000E+04;  7.5879041E-05;  0.0000000E+00; -2.8464529E-09;  3.7499864E+00;
 -1.5000001E-01;  9.9999998E-03;  9.9999998E-03;499;  0.0000000E+00;  0.0000000E+00;  0.0000000E+00;  1.0000000E+03;  1.0000000E-01;  0.0000000E+00;0;  0.0000000E+00;  0.0000000E+00;  0.0000000E+00;0;  7.5916912E-05;  4.0000000E+04;  0.0000000E+00;  0.0000000E+00;  4.0000000E+04;  0.0000000E+00;  4.0000000E+04;  7.5925447E-05;  0.0000000E+00; -8.5339327E-09;  3.7458208E+00;
 -1.5000001E-01;  9.9999998E-03;  2.0000000E-02;500;  0.0000000E+00;  0.0000000E+00;  0.0000000E+00;  1.0000000E+03;  1.0000000E-01;  0.0000000E+00;0;  0.0000000E+00;  0.0000000E+00;  0.0000000E+00;0;  7.6033437E-05;  4.0000000E+04;  0.0000000E+00;  0.0000000E+00;  4.0000000E+04;  0.0000000E+00;  4.0000000E+04;  7.6058051E-05;  0.0000000E+00; -2.4614543E-08;  3.7330704E+00;
 -1.5000001E-01;  9.9999998E-03;  2.9999999E-02;501;  0.0000000E+00;  0.0000000E+00;  0.0000000E+00;  1.0000000E+03;  1.0000000E-01;  0.0000000E+00;0;  0.0000000E+00;  0.0000000E+00;  0.0000000E+00;0;  7.6209129E-05;  4.0000000E+04;  0.0000000E+00;  0.0000000E+00;  4.0000000E+04;  0.0000000E+00;  4.0000000E+04;  7.6257456E-05;  0.0000000E+00; -4.8328392E-08;  3.7113392E+00;
 -1.5000001E-01;  9.9999998E-03;  3.9999999E-02;502;  0.0000000E+00;  0.0000000E+00;  0.0000000E+00;  1.0000000E+03;  1.0000000E-01;  0.0000000E+00;0;  0.0000000E+00;  0.0000000E+00;  0.0000000E+00;0;  7.6417797E-05;  4.0000000E+04;  0.0000000E+00;  0.0000000E+00;  4.0000000E+04;  0.0000000E+00;  4.0000000E+04;  7.6493445E-05;  0.0000000E+00; -7.5646405E-08;  3.6809313E+00;
 -1.5000001E-01;  9.9999998E-03;  5.0000001E-02;503;  0.0000000E+00;  0.0000000E+00;  0.0000000E+00;  1.0000000E+03;  1.0000000E-01;  0.0000000E+00;0;  0.0000000E+00;  0.0000000E+00;  0.0000000E+00;0;  7.6626151E-05;  4.0000000E+04;  0.0000000E+00;  0.0000000E+00;  4.0000000E+04;  0.0000000E+00;  4.0000000E+04;  7.6728167E-05;  0.0000000E+00; -1.0201346E-07;  3.6439972E+00;
 -1.5000001E-01;  9.9999998E-03;  5.9999999E-02;504;  0.0000000E+00;  0.0000000E+00;  0.0000000E+00;  1.0000000E+03;  1.0000000E-01;  0.0000000E+00;0;  0.0000000E+00;  0.0000000E+00;  0.0000000E+00;0;  7.6798271E-05;  4.0000000E+04;  0.0000000E+00;  0.0000000E+00;  4.0000000E+04;  0.0000000E+00;  4.0000000E+04;  7.6921431E-05;  0.0000000E+00; -1.2316112E-07;  3.6054287E+00;
 -1.4000000E-01;  9.9999998E-03; -1.0000000E-01;579;  0.0000000E+00;  0.0000000E+00;  0.0000000E+00;  1.0000000E+03;  1.0000000E-01;  0.0000000E+00;0;  0.0000000E+00;  0.0000000E+00;  0.0000000E+00;0;  3.8623196E-04;  4.0000000E+04;  0.0000000E+00;  0.0000000E+00;  4.0000000E+04;  0.0000000E+00;  4.0000000E+04;  3.8709241E-04;  0.0000000E+00; -8.6044332E-07;  1.6029047E+01;
 -1.4000000E-01;  9.9999998E-03; -9.0000004E-02;580;  0.0000000E+00;  0.0000000E+00;  0.0000000E+00;  1.0000000E+03;  1.0000000E-01;  0.0000000E+00;0;  0.0000000E+00;  0.0000000E+00;  0.0000000E+00;0;  3.8681540E-04;  4.0000000E+04;  0.0000000E+00;  0.0000000E+00;  4.0000000E+04;  0.0000000E+00;  4.0000000E+04;  3.8779835E-04;  0.0000000E+00; -9.8295618E-07;  1.5876641E+01;
 -1.4000000E-01;  9.9999998E-03; -7.9999998E-02;581;  0.0000000E+00;  0.0000000E+00;  0.0000000E+00;  1.0000000E+03;  1.0000000E-01;  0.0000000E+00;0;  0.0000000E+00;  0.0000000E+00;  0.0000000E+00;0;  3.8701092E-04;  4.0000000E+04;  0.0000000E+00;  0.0000000E+00;  4.0000000E+04;  0.0000000E+00;  4.0000000E+04;  3.8805179E-04;  0.0000000E+00; -1.0408570E-06;  1.5880040E+01;
 -1.4000000E-01;  9.9999998E-03; -7.0000000E-02;582;  0.0000000E+00;  0.0000000E+00;  0.0000000E+00;  1.0000000E+03;  1.0000000E-01;  0.0000000E+00;0;  0.0000000E+00;  0.0000000E+00;  0.0000000E+00;0;  3.8677338E-04;  4.0000000E+04;  0.0000000E+00;  0.0000000E+00;  4.0000000E+04;  0.0000000E+00;  4.0000000E+04;  3.8779885E-04;  0.0000000E+00; -1.0254701E-06;  1.6017763E+01;
 -1.4000000E-01;  9.9999998E-03; -5.9999999E-02;583;  0.0000000E+00;  0.0000000E+00;  0.0000000E+00;  1.0000000E+03;  1.0000000E-01;  0.0000000E+00;0;  0.0000000E+00;  0.0000000E+00;  0.0000000E+00;0;  3.8614249E-04;  4.0000000E+04;  0.0000000E+00;  0.0000000E+00;  4.0000000E+04;  0.0000000E+00;  4.0000000E+04;  3.8708225E-04;  0.0000000E+00; -9.3977627E-07;  1.6249205E+01;
 -1.4000000E-01;  9.9999998E-03; -5.0000001E-02;584;  0.0000000E+00;  0.0000000E+00;  0.0000000E+00;  1.0000000E+03;  1.0000000E-01;  0.0000000E+00;0;  0.0000000E+00;  0.0000000E+00;  0.0000000E+00;0;  3.8522526E-04;  4.0000000E+04;  0.0000000E+00;  0.0000000E+00;  4.0000000E+04;  0.0000000E+00;  4.0000000E+04;  3.8602299E-04;  0.0000000E+00; -7.9772519E-07;  1.6525303E+01;
 -1.4000000E-01;  9.9999998E-03; -3.9999999E-02;585;  0.0000000E+00;  0.0000000E+00;  0.0000000E+00;  1.0000000E+03;  1.0000000E-01;  0.0000000E+00;0;  0.0000000E+00;  0.0000000E+00;  0.0000000E+00;0;  3.8416719E-04;  4.0000000E+04;  0.0000000E+00;  0.0000000E+00;  4.0000000E+04;  0.0000000E+00;  4.0000000E+04;  3.8478943E-04;  0.0000000E+00; -6.2225018E-07;  1.6799883E+01;
 -1.4000000E-01;  9.9999998E-03; -2.9999999E-02;586;  0.0000000E+00;  0.0000000E+00;  0.0000000E+00;  1.0000000E+03;  1.0000000E-01;  0.0000000E+00;0;  0.0000000E+00;  0.0000000E+00;  0.0000000E+00;0;  3.8312966E-04;  4.0000000E+04;  0.0000000E+00;  0.0000000E+00;  4.0000000E+04;  0.0000000E+00;  4.0000000E+04;  3.8357158E-04;  0.0000000E+00; -4.4189929E-07;  1.7037924E+01;
 -1.4000000E-01;  9.9999998E-03; -2.0000000E-02;587;  0.0000000E+00;  0.0000000E+00;  0.0000000E+00;  1.0000000E+03;  1.0000000E-01;  0.0000000E+00;0;  0.0000000E+00;  0.0000000E+00;  0.0000000E+00;0;  3.8226455E-04;  4.0000000E+04;  0.0000000E+00;  0.0000000E+00;  4.0000000E+04;  0.0000000E+00;  4.0000000E+04;  3.8255085E-04;  0.0000000E+00; -2.8630311E-07;  1.7217537E+01;
 -1.4000000E-01;  9.9999998E-03; -9.9999998E-03;588;  0.0000000E+00;  0.0000000E+00;  0.0000000E+00;  1.0000000E+03;  1.0000000E-01;  0.0000000E+00;0;  0.0000000E+00;  0.0000000E+00;  0.0000000E+00;0;  3.8169252E-04;  4.0000000E+04;  0.0000000E+00;  0.0000000E+00;  4.0000000E+04;  0.0000000E+00;  4.0000000E+04;  3.8187375E-04;  0.0000000E+00; -1.8122633E-07;  1.7327824E+01;
 -1.4000000E-01;  9.9999998E-03;  0.0000000E+00;589;  0.0000000E+00;  0.0000000E+00;  0.0000000E+00;  1.0000000E+03;  1.0000000E-01;  0.0000000E+00;0;  0.0000000E+00;  0.0000000E+00;  0.0000000E+00;0;  3.8149330E-04;  4.0000000E+04;  0.0000000E+00;  0.0000000E+00;  4.0000000E+04;  0.0000000E+00;  4.0000000E+04;  3.8163745E-04;  0.0000000E+00; -1.4414356E-07;  1.7364861E+01;
 -1.4000000E-01;  9.9999998E-03;  9.9999998E-03;590;  0.0000000E+00;  0.0000000E+00;  0.0000000E+00;  1.0000000E+03;  1.0000000E-01;  0.0000000E+00;0;  0.0000000E+00;  0.0000000E+00;  0.0000000E+00;0;  3.8169263E-04;  4.0000000E+04;  0.0000000E+00;  0.0000000E+00;  4.0000000E+04;  0.0000000E+00;  4.0000000E+04;  3.8187386E-04;  0.0000000E+00; -1.8123231E-07;  1.7327831E+01;
 -1.4000000E-01;  9.9999998E-03;  2.0000000E-02;591;  0.0000000E+00;  0.0000000E+00;  0.0000000E+00;  1.0000000E+03;  1.0000000E-01;  0.0000000E+00;0;  0.0000000E+00;  0.0000000E+00;  0.0000000E+00;0;  3.8226473E-04;  4.0000000E+04;  0.0000000E+00;  0.0000000E+00;  4.0000000E+04;  0.0000000E+00;  4.0000000E+04;  3.8255105E-04;  0.0000000E+00; -2.8631447E-07;  1.7217537E+01;
 -1.4000000E-01;  9.9999998E-03;  2.9999999E-02;592;  0.0000000E+00;  0.0000000E+00;  0.0000000E+00;  1.0000000E+03;  1.0000000E-01;  0.0000000E+00;0;  0.0000000E+00;  0.0000000E+00;  0.0000000E+00;0;  3.8312984E-04;  4.0000000E+04;  0.0000000E+00;  0.0000000E+00;  4.0000000E+04;  0.0000000E+00;  4.0000000E+04;  3.8357175E-04;  0.0000000E+00; -4.4191461E-07;  1.7037935E+01;
 -1.4000000E-01;  9.9999998E-03;  3.9999999E-02;593;  0.0000000E+00;  0.0000000E+00;  0.0000000E+00;  1.0000000E+03;  1.0000000E-01;  0.0000000E+00;0;  0.0000000E+00;  0.0000000E+00;  0.0000000E+00;0;  3.8416716E-04;  4.0000000E+04;  0.0000000E+00;  0.0000000E+00;  4.0000000E+04;  0.0000000E+00;  4.0000000E+04;  3.8478943E-04;  0.0000000E+00; -6.2226724E-07;  1.6799891E+01;
 -1.4000000E-01;  9.9999998E-03;  5.0000001E-02;594;  0.0000000E+00;  0.0000000E+00;  0.0000000E+00;  1.0000000E+03;  1.0000000E-01;  0.0000000E+00;0;  0.0000000E+00;  0.0000000E+00;  0.0000000E+00;0;  3.8522496E-04;  4.0000000E+04;  0.0000000E+00;  0.0000000E+00;  4.0000000E+04;  0.0000000E+00;  4.0000000E+04;  3.8602270E-04;  0.0000000E+00; -7.9774276E-07;  1.6525312E+01;
 -1.4000000E-01;  9.9999998E-03;  5.9999999E-02;595;  0.0000000E+00;  0.0000000E+00;  0.0000000E+00;  1.0000000E+03;  1.0000000E-01;  0.0000000E+00;0;  0.0000000E+00;  0.0000000E+00;  0.0000000E+00;0;  3.8614255E-04;  4.0000000E+04;  0.0000000E+00;  0.0000000E+00;  4.0000000E+04;  0.0000000E+00;  4.0000000E+04;  3.8708234E-04;  0.0000000E+00; -9.3979259E-07;  1.6249208E+01;
 -1.3000000E-01;  9.9999998E-03; -1.0000000E-01;670;  0.0000000E+00;  0.0000000E+00;  0.0000000E+00;  1.0000560E+03;  1.0000000E-01;  4.6418442E+01;0;  0.0000000E+00;  0.0000000E+00;  0.0000000E+00;0;  1.1274000E-03;  4.0000000E+04;  0.0000000E+00;  0.0000000E+00;  4.0000000E+04;  0.0000000E+00;  4.0000000E+04;  1.1308828E-03;  0.0000000E+00; -3.4827690E-06;  4.4407253E+01;
 -1.3000000E-01;  9.9999998E-03; -9.0000004E-02;671;  0.0000000E+00;  0.0000000E+00;  0.0000000E+00;  1.0000553E+03;  1.0000000E-01;  4.5825863E+01;0;  0.0000000E+00;  0.0000000E+00;  0.0000000E+00;0;  1.1284881E-03;  4.0000000E+04;  0.0000000E+00;  0.0000000E+00;  4.0000000E+04;  0.0000000E+00;  4.0000000E+04;  1.1323973E-03;  0.0000000E+00; -3.9092233E-06;  4.4052628E+01;
 -1.3000000E-01;  9.9999998E-03; -7.9999998E-02;672;  0.0000000E+00;  0.0000000E+00;  0.0000000E+00;  1.0000546E+03;  1.0000000E-01;  4.5233288E+01;0;  0.0000000E+00;  0.0000000E+00;  0.0000000E+00;0;  1.1286300E-03;  4.0000000E+04;  0.0000000E+00;  0.0000000E+00;  4.0000000E+04;  0.0000000E+00;  4.0000000E+04;  1.1327438E-03;  0.0000000E+00; -4.1137851E-06;  4.4174572E+01;
 -1.3000000E-01;  9.9999998E-03; -7.0000000E-02;673;  0.0000000E+00;  0.0000000E+00;  0.0000000E+00;  1.0000539E+03;  1.0000000E-01;  4.4640713E+01;0;  0.0000000E+00;  0.0000000E+00;  0.0000000E+00;0;  1.1277111E-03;  4.0000000E+04;  0.0000000E+00;  0.0000000E+00;  4.0000000E+04;  0.0000000E+00;  4.0000000E+04;  1.1317737E-03;  0.0000000E+00; -4.0624946E-06;  4.4717842E+01;
 -1.3000000E-01;  9.9999998E-03; -5.9999999E-02;674;  0.0000000E+00;  0.0000000E+00;  0.0000000E+00;  1.0000532E+03;  1.0000000E-01;  4.4048138E+01;0;  0.0000000E+00;  0.0000000E+00;  0.0000000E+00;0;  1.1258284E-03;  4.0000000E+04;  0.0000000E+00;  0.0000000E+00;  4.0000000E+04;  0.0000000E+00;  4.0000000E+04;  1.1295935E-03;  0.0000000E+00; -3.7650698E-06;  4.5570957E+01;
 -1.3000000E-01;  9.9999998E-03; -5.0000001E-02;675;  0.0000000E+00;  0.0000000E+00;  0.0000000E+00;  1.0000527E+03;  1.0000000E-01;  4.3653088E+01;0;  0.0000000E+00;  0.0000000E+00;  0.0000000E+00;0;  1.1232432E-03;  4.0000000E+04;  0.0000000E+00;  0.0000000E+00;  4.0000000E+04;  0.0000000E+00;  4.0000000E+04;  1.1265147E-03;  0.0000000E+00; -3.2714754E-06;  4.6590641E+01;
 -1.3000000E-01;  9.9999998E-03; -3.9999999E-02;676;  0.0000000E+00;  0.0000000E+00;  0.0000000E+00;  1.0000525E+03;  1.0000000E-01;  4.3455563E+01;0;  0.0000000E+00;  0.0000000E+00;  0.0000000E+00;0;  1.1203274E-03;  4.0000000E+04;  0.0000000E+00;  0.0000000E+00;  4.0000000E+04;  0.0000000E+00;  4.0000000E+04;  1.1229904E-03;  0.0000000E+00; -2.6630273E-06;  4.7629551E+01;
 -1.3000000E-01;  9.9999998E-03; -2.9999999E-02;677;  0.0000000E+00;  0.0000000E+00;  0.0000000E+00;  1.0000520E+03;  1.0000000E-01;  4.3060509E+01;0;  0.0000000E+00;  0.0000000E+00;  0.0000000E+00;0;  1.1174945E-03;  4.0000000E+04;  0.0000000E+00;  0.0000000E+00;  4.0000000E+04;  0.0000000E+00;  4.0000000E+04;  1.1195338E-03;  0.0000000E+00; -2.0392802E-06;  4.8558445E+01;
 -1.3000000E-01;  9.9999998E-03; -2.0000000E-02;678;  0.0000000E+00;  0.0000000E+00;  0.0000000E+00;  1.0000519E+03;  1.0000000E-01;  4.2961746E+01;0;  0.0000000E+00;  0.0000000E+00;  0.0000000E+00;0;  1.1151413E-03;  4.0000000E+04;  0.0000000E+00;  0.0000000E+00;  4.0000000E+04;  0.0000000E+00;  4.0000000E+04;  1.1166435E-03;  0.0000000E+00; -1.5022457E-06;  4.9280895E+01;
 -1.3000000E-01;  9.9999998E-03; -9.9999998E-03;679;  0.0000000E+00;  0.0000000E+00;  0.0000000E+00;  1.0000518E+03;  1.0000000E-01;  4.2862984E+01;0;  0.0000000E+00;  0.0000000E+00;  0.0000000E+00;0;  1.1135894E-03;  4.0000000E+04;  0.0000000E+00;  0.0000000E+00;  4.0000000E+04;  0.0000000E+00;  4.0000000E+04;  1.1147294E-03;  0.0000000E+00; -1.1400299E-06;  4.9735565E+01;
 -1.3000000E-01;  9.9999998E-03;  0.0000000E+00;680;  0.0000000E+00;  0.0000000E+00;  0.0000000E+00;  1.0000518E+03;  1.0000000E-01;  4.2961746E+01;0;  0.0000000E+00;  0.0000000E+00;  0.0000000E+00;0;  1.1130478E-03;  4.0000000E+04;  0.0000000E+00;  0.0000000E+00;  4.0000000E+04;  0.0000000E+00;  4.0000000E+04;  1.1140601E-03;  0.0000000E+00; -1.0122701E-06;  4.9890255E+01;
 -1.3000000E-01;  9.9999998E-03;  9.9999998E-03;681;  0.0000000E+00;  0.0000000E+00;  0.0000000E+00;  1.0000518E+03;  1.0000000E-01;  4.2862984E+01;0;  0.0000000E+00;  0.0000000E+00;  0.0000000E+00;0;  1.1135890E-03;  4.0000000E+04;  0.0000000E+00;  0.0000000E+00;  4.0000000E+04;  0.0000000E+00;  4.0000000E+04;  1.1147291E-03;  0.0000000E+00; -1.1400502E-06;  4.9735573E+01;
 -1.3000000E-01;  9.9999998E-03;  2.0000000E-02;682;  0.0000000E+00;  0.0000000E+00;  0.0000000E+00;  1.0000519E+03;  1.0000000E-01;  4.2961746E+01;0;  0.0000000E+00;  0.0000000E+00;  0.0000000E+00;0;  1.1151413E-03;  4.0000000E+04;  0.0000000E+00;  0.0000000E+00;  4.0000000E+04;  0.0000000E+00;  4.0000000E+04;  1.1166437E-03;  0.0000000E+00; -1.5022847E-06;  4.9280922E+01;
 -1.3000000E-01;  9.9999998E-03;  2.9999999E-02;683;  0.0000000E+00;  0.0000000E+00;  0.0000000E+00;  1.0000520E+03;  1.0000000E-01;  4.3060509E+01;0;  0.0000000E+00;  0.0000000E+00;  0.0000000E+00;0;  1.1174961E-03;  4.0000000E+04;  0.0000000E+00;  0.0000000E+00;  4.0000000E+04;  0.0000000E+00;  4.0000000E+04;  1.1195354E-03;  0.0000000E+00; -2.0393329E-06;  4.8558491E+01;
 -1.3000000E-01;  9.9999998E-03;  3.9999999E-02;684;  0.0000000E+00;  0.0000000E+00;  0.0000000E+00;  1.0000525E+03;  1.0000000E-01;  4.3455563E+01;0;  0.0000000E+00;  0.0000000E+00;  0.0000000E+00;0;  1.1203277E-03;  4.0000000E+04;  0.0000000E+00;  0.0000000E+00;  4.0000000E+04;  0.0000000E+00;  4.0000000E+04;  1.1229909E-03;  0.0000000E+00; -2.6630921E-06;  4.7629604E+01;
 -1.3000000E-01;  9.9999998E-03;  5.0000001E-02;685;  0.0000000E+00;  0.0000000E+00;  0.0000000E+00;  1.0000527E+03;  1.0000000E-01;  4.3653088E+01;0;  0.0000000E+00;  0.0000000E+00;  0.0000000E+00;0;  1.1232438E-03;  4.0000000E+04;  0.0000000E+00;  0.0000000E+00;  4.0000000E+04;  0.0000000E+00;  4.0000000E+04;  1.1265153E-03;  0.0000000E+00; -3.2715404E-06;  4.6590717E+01;
 -1.3000000E-01;  9.9999998E-03;  5.9999999E-02;686;  0.0000000E+00;  0.0000000E+00;  0.0000000E+00;  1.0000532E+03;  1.0000000E-01;  4.4048138E+01;0;  0.0000000E+00;  0.0000000E+00;  0.0000000E+00;0;  1.1258294E-03;  4.0000000E+04;  0.0000000E+00;  0.0000000E+00;  4.0000000E+04;  0.0000000E+00;  4.0000000E+04;  1.1295945E-03;  0.0000000E+00; -3.7651253E-06;  4.5571014E+01;
 -1.2000000E-01;  9.9999998E-03; -1.0000000E-01;761;  0.0000000E+00;  0.0000000E+00;  0.0000000E+00;  1.0001602E+03;  1.0000000E-01;  1.3273698E+02;0;  0.0000000E+00;  0.0000000E+00;  0.0000000E+00;0;  2.4661077E-03;  4.0000000E+04;  0.0000000E+00;  0.0000000E+00;  4.0000000E+04;  0.0000000E+00;  4.0000000E+04;  2.4762133E-03;  0.0000000E+00; -1.0105598E-05;  9.4912750E+01;
 -1.2000000E-01;  9.9999998E-03; -9.0000004E-02;762;  0.0000000E+00;  0.0000000E+00;  0.0000000E+00;  1.0001583E+03;  1.0000000E-01;  1.3115678E+02;0;  0.0000000E+00;  0.0000000E+00;  0.0000000E+00;0;  2.4675634E-03;  4.0000000E+04;  0.0000000E+00;  0.0000000E+00;  4.0000000E+04;  0.0000000E+00;  4.0000000E+04;  2.4787167E-03;  0.0000000E+00; -1.1153290E-05;  9.4321205E+01;
 -1.2000000E-01;  9.9999998E-03; -7.9999998E-02;763;  0.0000000E+00;  0.0000000E+00;  0.0000000E+00;  1.0001555E+03;  1.0000000E-01;  1.2888524E+02;0;  0.0000000E+00;  0.0000000E+00;  0.0000000E+00;0;  2.4672616E-03;  4.0000000E+04;  0.0000000E+00;  0.0000000E+00;  4.0000000E+04;  0.0000000E+00;  4.0000000E+04;  2.4789253E-03;  0.0000000E+00; -1.1663652E-05;  9.4832054E+01;
 -1.2000000E-01;  9.9999998E-03; -7.0000000E-02;764;  0.0000000E+00;  0.0000000E+00;  0.0000000E+00;  1.0001512E+03;  1.0000000E-01;  1.2523103E+02;0;  0.0000000E+00;  0.0000000E+00;  0.0000000E+00;0;  2.4650008E-03;  4.0000000E+04;  0.0000000E+00;  0.0000000E+00;  4.0000000E+04;  0.0000000E+00;  4.0000000E+04;  2.4765446E-03;  0.0000000E+00; -1.1543796E-05;  9.6332367E+01;
 -1.2000000E-01;  9.9999998E-03; -5.9999999E-02;765;  0.0000000E+00;  0.0000000E+00;  0.0000000E+00;  1.0001487E+03;  1.0000000E-01;  1.2315701E+02;0;  0.0000000E+00;  0.0000000E+00;  0.0000000E+00;0;  2.4609503E-03;  4.0000000E+04;  0.0000000E+00;  0.0000000E+00;  4.0000000E+04;  0.0000000E+00;  4.0000000E+04;  2.4717632E-03;  0.0000000E+00; -1.0812858E-05;  9.8584427E+01;
 -1.2000000E-01;  9.9999998E-03; -5.0000001E-02;766;  0.0000000E+00;  0.0000000E+00;  0.0000000E+00;  1.0001465E+03;  1.0000000E-01;  1.2137928E+02;0;  0.0000000E+00;  0.0000000E+00;  0.0000000E+00;0;  2.4556017E-03;  4.0000000E+04;  0.0000000E+00;  0.0000000E+00;  4.0000000E+04;  0.0000000E+00;  4.0000000E+04;  2.4651950E-03;  0.0000000E+00; -9.5933337E-06;  1.0126884E+02;
 -1.2000000E-01;  9.9999998E-03; -3.9999999E-02;767;  0.0000000E+00;  0.0000000E+00;  0.0000000E+00;  1.0001447E+03;  1.0000000E-01;  1.1989784E+02;0;  0.0000000E+00;  0.0000000E+00;  0.0000000E+00;0;  2.4496594E-03;  4.0000000E+04;  0.0000000E+00;  0.0000000E+00;  4.0000000E+04;  0.0000000E+00;  4.0000000E+04;  2.4577470E-03;  0.0000000E+00; -8.0876553E-06;  1.0403718E+02;
 -1.2000000E-01;  9.9999998E-03; -2.9999999E-02;768;  0.0000000E+00;  0.0000000E+00;  0.0000000E+00;  1.0001434E+03;  1.0000000E-01;  1.1881145E+02;0;  0.0000000E+00;  0.0000000E+00;  0.0000000E+00;0;  2.4439304E-03;  4.0000000E+04;  0.0000000E+00;  0.0000000E+00;  4.0000000E+04;  0.0000000E+00;  4.0000000E+04;  2.4504743E-03;  0.0000000E+00; -6.5438826E-06;  1.0655793E+02;
 -1.2000000E-01;  9.9999998E-03; -2.0000000E-02;769;  0.0000000E+00;  0.0000000E+00;  0.0000000E+00;  1.0001427E+03;  1.0000000E-01;  1.1821888E+02;0;  0.0000000E+00;  0.0000000E+00;  0.0000000E+00;0;  2.4391850E-03;  4.0000000E+04;  0.0000000E+00;  0.0000000E+00;  4.0000000E+04;  0.0000000E+00;  4.0000000E+04;  2.4444005E-03;  0.0000000E+00; -5.2153191E-06;  1.0855589E+02;
 -1.2000000E-01;  9.9999998E-03; -9.9999998E-03;770;  0.0000000E+00;  0.0000000E+00;  0.0000000E+00;  1.0001422E+03;  1.0000000E-01;  1.1772507E+02;0;  0.0000000E+00;  0.0000000E+00;  0.0000000E+00;0;  2.4360612E-03;  4.0000000E+04;  0.0000000E+00;  0.0000000E+00;  4.0000000E+04;  0.0000000E+00;  4.0000000E+04;  2.4403809E-03;  0.0000000E+00; -4.3196942E-06;  1.0983294E+02;
 -1.2000000E-01;  9.9999998E-03;  0.0000000E+00;771;  0.0000000E+00;  0.0000000E+00;  0.0000000E+00;  1.0001419E+03;  1.0000000E-01;  1.1752754E+02;0;  0.0000000E+00;  0.0000000E+00;  0.0000000E+00;0;  2.4349701E-03;  4.0000000E+04;  0.0000000E+00;  0.0000000E+00;  4.0000000E+04;  0.0000000E+00;  4.0000000E+04;  2.4389741E-03;  0.0000000E+00; -4.0038904E-06;  1.1027113E+02;
 -1.2000000E-01;  9.9999998E-03;  9.9999998E-03;772;  0.0000000E+00;  0.0000000E+00;  0.0000000E+00;  1.0001422E+03;  1.0000000E-01;  1.1772507E+02;0;  0.0000000E+00;  0.0000000E+00;  0.0000000E+00;0;  2.4360607E-03;  4.0000000E+04;  0.0000000E+00;  0.0000000E+00;  4.0000000E+04;  0.0000000E+00;  4.0000000E+04;  2.4403804E-03;  0.0000000E+00; -4.3197483E-06;  1.0983298E+02;
 -1.2000000E-01;  9.9999998E-03;  2.0000000E-02;773;  0.0000000E+00;  0.0000000E+00;  0.0000000E+00;  1.0001427E+03;  1.0000000E-01;  1.1821888E+02;0;  0.0000000E+00;  0.0000000E+00;  0.0000000E+00;0;  2.4391860E-03;  4.0000000E+04;  0.0000000E+00;  0.0000000E+00;  4.0000000E+04;  0.0000000E+00;  4.0000000E+04;  2.4444014E-03;  0.0000000E+00; -5.2154182E-06;  1.0855595E+02;
 -1.2000000E-01;  9.9999998E-03;  2.9999999E-02;774;  0.0000000E+00;  0.0000000E+00;  0.0000000E+00;  1.0001434E+03;  1.0000000E-01;  1.1881145E+02;0;  0.0000000E+00;  0.0000000E+00;  0.0000000E+00;0;  2.4439343E-03;  4.0000000E+04;  0.0000000E+00;  0.0000000E+00;  4.0000000E+04;  0.0000000E+00;  4.0000000E+04;  2.4504783E-03;  0.0000000E+00; -6.5440181E-06;  1.0655802E+02;
 -1.2000000E-01;  9.9999998E-03;  3.9999999E-02;775;  0.0000000E+00;  0.0000000E+00;  0.0000000E+00;  1.0001447E+03;  1.0000000E-01;  1.1989784E+02;0;  0.0000000E+00;  0.0000000E+00;  0.0000000E+00;0;  2.4496620E-03;  4.0000000E+04;  0.0000000E+00;  0.0000000E+00;  4.0000000E+04;  0.0000000E+00;  4.0000000E+04;  2.4577498E-03;  0.0000000E+00; -8.0878126E-06;  1.0403734E+02;
 -1.2000000E-01;  9.9999998E-03;  5.0000001E-02;776;  0.0000000E+00;  0.0000000E+00;  0.0000000E+00;  1.0001465E+03;  1.0000000E-01;  1.2137928E+02;0;  0.0000000E+00;  0.0000000E+00;  0.0000000E+00;0;  2.4556029E-03;  4.0000000E+04;  0.0000000E+00;  0.0000000E+00;  4.0000000E+04;  0.0000000E+00;  4.0000000E+04;  2.4651964E-03;  0.0000000E+00; -9.5934965E-06;  1.0126900E+02;
 -1.2000000E-01;  9.9999998E-03;  5.9999999E-02;777;  0.0000000E+00;  0.0000000E+00;  0.0000000E+00;  1.0001487E+03;  1.0000000E-01;  1.2315701E+02;0;  0.0000000E+00;  0.0000000E+00;  0.0000000E+00;0;  2.4609519E-03;  4.0000000E+04;  0.0000000E+00;  0.0000000E+00;  4.0000000E+04;  0.0000000E+00;  4.0000000E+04;  2.4717650E-03;  0.0000000E+00; -1.0813013E-05;  9.8584625E+01;
 -1.1000000E-01;  9.9999998E-03; -1.0000000E-01;852;  0.0000000E+00;  0.0000000E+00;  0.0000000E+00;  1.0003330E+03;  1.0000000E-01;  2.7584406E+02;0;  0.0000000E+00;  0.0000000E+00;  0.0000000E+00;0;  4.5188102E-03;  4.0000000E+04;  0.0000000E+00;  0.0000000E+00;  4.0000000E+04;  0.0000000E+00;  4.0000000E+04;  4.5426884E-03;  0.0000000E+00; -2.3878290E-05;  1.7254048E+02;
 -1.1000000E-01;  9.9999998E-03; -9.0000004E-02;853;  0.0000000E+00;  0.0000000E+00;  0.0000000E+00;  1.0003281E+03;  1.0000000E-01;  2.7189355E+02;0;  0.0000000E+00;  0.0000000E+00;  0.0000000E+00;0;  4.5202146E-03;  4.0000000E+04;  0.0000000E+00;  0.0000000E+00;  4.0000000E+04;  0.0000000E+00;  4.0000000E+04;  4.5461743E-03;  0.0000000E+00; -2.5959596E-05;  1.7179817E+02;
 -1.1000000E-01;  9.9999998E-03; -7.9999998E-02;854;  0.0000000E+00;  0.0000000E+00;  0.0000000E+00;  1.0003236E+03;  1.0000000E-01;  2.6814056E+02;0;  0.0000000E+00;  0.0000000E+00;  0.0000000E+00;0;  4.5188372E-03;  4.0000000E+04;  0.0000000E+00;  0.0000000E+00;  4.0000000E+04;  0.0000000E+00;  4.0000000E+04;  4.5458255E-03;  0.0000000E+00; -2.6988444E-05;  1.7319807E+02;
 -1.1000000E-01;  9.9999998E-03; -7.0000000E-02;855;  0.0000000E+00;  0.0000000E+00;  0.0000000E+00;  1.0003170E+03;  1.0000000E-01;  2.6260986E+02;0;  0.0000000E+00;  0.0000000E+00;  0.0000000E+00;0;  4.5143841E-03;  4.0000000E+04;  0.0000000E+00;  0.0000000E+00;  4.0000000E+04;  0.0000000E+00;  4.0000000E+04;  4.5411447E-03;  0.0000000E+00; -2.6760670E-05;  1.7654105E+02;
 -1.1000000E-01;  9.9999998E-03; -5.9999999E-02;856;  0.0000000E+00;  0.0000000E+00;  0.0000000E+00;  1.0003118E+03;  1.0000000E-01;  2.5826431E+02;0;  0.0000000E+00;  0.0000000E+00;  0.0000000E+00;0;  4.5071291E-03;  4.0000000E+04;  0.0000000E+00;  0.0000000E+00;  4.0000000E+04;  0.0000000E+00;  4.0000000E+04;  4.5324317E-03;  0.0000000E+00; -2.5302845E-05;  1.8138786E+02;
 -1.1000000E-01;  9.9999998E-03; -5.0000001E-02;857;  0.0000000E+00;  0.0000000E+00;  0.0000000E+00;  1.0003077E+03;  1.0000000E-01;  2.5500513E+02;0;  0.0000000E+00;  0.0000000E+00;  0.0000000E+00;0;  4.4978433E-03;  4.0000000E+04;  0.0000000E+00;  0.0000000E+00;  4.0000000E+04;  0.0000000E+00;  4.0000000E+04;  4.5206985E-03;  0.0000000E+00; -2.2855224E-05;  1.8713239E+02;
 -1.1000000E-01;  9.9999998E-03; -3.9999999E-02;858;  0.0000000E+00;  0.0000000E+00;  0.0000000E+00;  1.0003047E+03;  1.0000000E-01;  2.5243730E+02;0;  0.0000000E+00;  0.0000000E+00;  0.0000000E+00;0;  4.4876775E-03;  4.0000000E+04;  0.0000000E+00;  0.0000000E+00;  4.0000000E+04;  0.0000000E+00;  4.0000000E+04;  4.5075021E-03;  0.0000000E+00; -1.9824476E-05;  1.9308411E+02;
 -1.1000000E-01;  9.9999998E-03; -2.9999999E-02;859;  0.0000000E+00;  0.0000000E+00;  0.0000000E+00;  1.0003010E+03;  1.0000000E-01;  2.4937566E+02;0;  0.0000000E+00;  0.0000000E+00;  0.0000000E+00;0;  4.4779414E-03;  4.0000000E+04;  0.0000000E+00;  0.0000000E+00;  4.0000000E+04;  0.0000000E+00;  4.0000000E+04;  4.4946540E-03;  0.0000000E+00; -1.6712616E-05;  1.9855515E+02;
 -1.1000000E-01;  9.9999998E-03; -2.0000000E-02;860;  0.0000000E+00;  0.0000000E+00;  0.0000000E+00;  1.0002986E+03;  1.0000000E-01;  2.4740041E+02;0;  0.0000000E+00;  0.0000000E+00;  0.0000000E+00;0;  4.4699004E-03;  4.0000000E+04;  0.0000000E+00;  0.0000000E+00;  4.0000000E+04;  0.0000000E+00;  4.0000000E+04;  4.4839336E-03;  0.0000000E+00; -1.4033029E-05;  2.0293877E+02;
 -1.1000000E-01;  9.9999998E-03; -9.9999998E-03;861;  0.0000000E+00;  0.0000000E+00;  0.0000000E+00;  1.0002975E+03;  1.0000000E-01;  2.4641278E+02;0;  0.0000000E+00;  0.0000000E+00;  0.0000000E+00;0;  4.4646100E-03;  4.0000000E+04;  0.0000000E+00;  0.0000000E+00;  4.0000000E+04;  0.0000000E+00;  4.0000000E+04;  4.4768364E-03;  0.0000000E+00; -1.2226405E-05;  2.0576590E+02;
 -1.1000000E-01;  9.9999998E-03;  0.0000000E+00;862;  0.0000000E+00;  0.0000000E+00;  0.0000000E+00;  1.0002971E+03;  1.0000000E-01;  2.4611650E+02;0;  0.0000000E+00;  0.0000000E+00;  0.0000000E+00;0;  4.4627660E-03;  4.0000000E+04;  0.0000000E+00;  0.0000000E+00;  4.0000000E+04;  0.0000000E+00;  4.0000000E+04;  4.4743554E-03;  0.0000000E+00; -1.1589420E-05;  2.0674066E+02;
 -1.1000000E-01;  9.9999998E-03;  9.9999998E-03;863;  0.0000000E+00;  0.0000000E+00;  0.0000000E+00;  1.0002975E+03;  1.0000000E-01;  2.4641278E+02;0;  0.0000000E+00;  0.0000000E+00;  0.0000000E+00;0;  4.4646114E-03;  4.0000000E+04;  0.0000000E+00;  0.0000000E+00;  4.0000000E+04;  0.0000000E+00;  4.0000000E+04;  4.4768378E-03;  0.0000000E+00; -1.2226522E-05;  2.0576596E+02;
 -1.1000000E-01;  9.9999998E-03;  2.0000000E-02;864;  0.0000000E+00;  0.0000000E+00;  0.0000000E+00;  1.0002986E+03;  1.0000000E-01;  2.4740041E+02;0;  0.0000000E+00;  0.0000000E+00;  0.0000000E+00;0;  4.4698995E-03;  4.0000000E+04;  0.0000000E+00;  0.0000000E+00;  4.0000000E+04;  0.0000000E+00;  4.0000000E+04;  4.4839326E-03;  0.0000000E+00; -1.4033246E-05;  2.0293898E+02;
 -1.1000000E-01;  9.9999998E-03;  2.9999999E-02;865;  0.0000000E+00;  0.0000000E+00;  0.0000000E+00;  1.0003010E+03;  1.0000000E-01;  2.4937566E+02;0;  0.0000000E+00;  0.0000000E+00;  0.0000000E+00;0;  4.4779419E-03;  4.0000000E+04;  0.0000000E+00;  0.0000000E+00;  4.0000000E+04;  0.0000000E+00;  4.0000000E+04;  4.4946549E-03;  0.0000000E+00; -1.6712911E-05;  1.9855548E+02;
 -1.1000000E-01;  9.9999998E-03;  3.9999999E-02;866;  0.0000000E+00;  0.0000000E+00;  0.0000000E+00;  1.0003047E+03;  1.0000000E-01;  2.5243730E+02;0;  0.0000000E+00;  0.0000000E+00;  0.0000000E+00;0;  4.4876817E-03;  4.0000000E+04;  0.0000000E+00;  0.0000000E+00;  4.0000000E+04;  0.0000000E+00;  4.0000000E+04;  4.5075063E-03;  0.0000000E+00; -1.9824813E-05;  1.9308443E+02;
 -1.1000000E-01;  9.9999998E-03;  5.0000001E-02;867;  0.0000000E+00;  0.0000000E+00;  0.0000000E+00;  1.0003077E+03;  1.0000000E-01;  2.5500513E+02;0;  0.0000000E+00;  0.0000000E+00;  0.0000000E+00;0;  4.4978443E-03;  4.0000000E+04;  0.0000000E+00;  0.0000000E+00;  4.0000000E+04;  0.0000000E+00;  4.0000000E+04;  4.5206998E-03;  0.0000000E+00; -2.2855562E-05;  1.8713277E+02;
 -1.1000000E-01;  9.9999998E-03;  5.9999999E-02;868;  0.0000000E+00;  0.0000000E+00;  0.0000000E+00;  1.0003118E+03;  1.0000000E-01;  2.5826431E+02;0;  0.0000000E+00;  0.0000000E+00;  0.0000000E+00;0;  4.5071286E-03;  4.0000000E+04;  0.0000000E+00;  0.0000000E+00;  4.0000000E+04;  0.0000000E+00;  4.0000000E+04;  4.5324317E-03;  0.0000000E+00; -2.5303141E-05;  1.8138855E+02;
 -1.0000000E-01;  9.9999998E-03; -1.0000000E-01;943;  0.0000000E+00;  0.0000000E+00;  0.0000000E+00;  1.0006154E+03;  1.0000000E-01;  5.0981274E+02;0;  0.0000000E+00;  0.0000000E+00;  0.0000000E+00;0;  7.3503582E-03;  4.0000000E+04;  0.0000000E+00;  0.0000000E+00;  4.0000000E+04;  0.0000000E+00;  4.0000000E+04;  7.3993658E-03;  0.0000000E+00; -4.9007482E-05;  2.8102844E+02;
 -1.0000000E-01;  9.9999998E-03; -9.0000004E-02;944;  0.0000000E+00;  0.0000000E+00;  0.0000000E+00;  1.0006080E+03;  1.0000000E-01;  5.0378821E+02;0;  0.0000000E+00;  0.0000000E+00;  0.0000000E+00;0;  7.3510511E-03;  4.0000000E+04;  0.0000000E+00;  0.0000000E+00;  4.0000000E+04;  0.0000000E+00;  4.0000000E+04;  7.4036457E-03;  0.0000000E+00; -5.2594656E-05;  2.8038358E+02;
 -1.0000000E-01;  9.9999998E-03; -7.9999998E-02;945;  0.0000000E+00;  0.0000000E+00;  0.0000000E+00;  1.0005977E+03;  1.0000000E-01;  4.9519586E+02;0;  0.0000000E+00;  0.0000000E+00;  0.0000000E+00;0;  7.3477332E-03;  4.0000000E+04;  0.0000000E+00;  0.0000000E+00;  4.0000000E+04;  0.0000000E+00;  4.0000000E+04;  7.4021271E-03;  0.0000000E+00; -5.4393673E-05;  2.8343942E+02;
 -1.0000000E-01;  9.9999998E-03; -7.0000000E-02;946;  0.0000000E+00;  0.0000000E+00;  0.0000000E+00;  1.0005893E+03;  1.0000000E-01;  4.8818372E+02;0;  0.0000000E+00;  0.0000000E+00;  0.0000000E+00;0;  7.3400545E-03;  4.0000000E+04;  0.0000000E+00;  0.0000000E+00;  4.0000000E+04;  0.0000000E+00;  4.0000000E+04;  7.3940712E-03;  0.0000000E+00; -5.4016695E-05;  2.8986877E+02;
 -1.0000000E-01;  9.9999998E-03; -5.9999999E-02;947;  0.0000000E+00;  0.0000000E+00;  0.0000000E+00;  1.0005807E+03;  1.0000000E-01;  4.8107281E+02;0;  0.0000000E+00;  0.0000000E+00;  0.0000000E+00;0;  7.3284088E-03;  4.0000000E+04;  0.0000000E+00;  0.0000000E+00;  4.0000000E+04;  0.0000000E+00;  4.0000000E+04;  7.3798969E-03;  0.0000000E+00; -5.1488176E-05;  2.9893973E+02;
 -1.0000000E-01;  9.9999998E-03; -5.0000001E-02;948;  0.0000000E+00;  0.0000000E+00;  0.0000000E+00;  1.0005739E+03;  1.0000000E-01;  4.7544333E+02;0;  0.0000000E+00;  0.0000000E+00;  0.0000000E+00;0;  7.3139514E-03;  4.0000000E+04;  0.0000000E+00;  0.0000000E+00;  4.0000000E+04;  0.0000000E+00;  4.0000000E+04;  7.3611671E-03;  0.0000000E+00; -4.7215872E-05;  3.0961801E+02;
 -1.0000000E-01;  9.9999998E-03; -3.9999999E-02;949;  0.0000000E+00;  0.0000000E+00;  0.0000000E+00;  1.0005675E+03;  1.0000000E-01;  4.7020892E+02;0;  0.0000000E+00;  0.0000000E+00;  0.0000000E+00;0;  7.2983406E-03;  4.0000000E+04;  0.0000000E+00;  0.0000000E+00;  4.0000000E+04;  0.0000000E+00;  4.0000000E+04;  7.3402487E-03;  0.0000000E+00; -4.1907926E-05;  3.2068982E+02;
 -1.0000000E-01;  9.9999998E-03; -2.9999999E-02;950;  0.0000000E+00;  0.0000000E+00;  0.0000000E+00;  1.0005625E+03;  1.0000000E-01;  4.6606088E+02;0;  0.0000000E+00;  0.0000000E+00;  0.0000000E+00;0;  7.2834850E-03;  4.0000000E+04;  0.0000000E+00;  0.0000000E+00;  4.0000000E+04;  0.0000000E+00;  4.0000000E+04;  7.3199319E-03;  0.0000000E+00; -3.6446811E-05;  3.3090869E+02;
 -1.0000000E-01;  9.9999998E-03; -2.0000000E-02;951;  0.0000000E+00;  0.0000000E+00;  0.0000000E+00;  1.0005595E+03;  1.0000000E-01;  4.6359183E+02;0;  0.0000000E+00;  0.0000000E+00;  0.0000000E+00;0;  7.2712568E-03;  4.0000000E+04;  0.0000000E+00;  0.0000000E+00;  4.0000000E+04;  0.0000000E+00;  4.0000000E+04;  7.3029953E-03;  0.0000000E+00; -3.1738546E-05;  3.3913812E+02;
 -1.0000000E-01;  9.9999998E-03; -9.9999998E-03;952;  0.0000000E+00;  0.0000000E+00;  0.0000000E+00;  1.0005576E+03;  1.0000000E-01;  4.6201163E+02;0;  0.0000000E+00;  0.0000000E+00;  0.0000000E+00;0;  7.2632371E-03;  4.0000000E+04;  0.0000000E+00;  0.0000000E+00;  4.0000000E+04;  0.0000000E+00;  4.0000000E+04;  7.2917994E-03;  0.0000000E+00; -2.8562141E-05;  3.4446652E+02;
 -1.0000000E-01;  9.9999998E-03;  0.0000000E+00;953;  0.0000000E+00;  0.0000000E+00;  0.0000000E+00;  1.0005569E+03;  1.0000000E-01;  4.6132028E+02;0;  0.0000000E+00;  0.0000000E+00;  0.0000000E+00;0;  7.2604427E-03;  4.0000000E+04;  0.0000000E+00;  0.0000000E+00;  4.0000000E+04;  0.0000000E+00;  4.0000000E+04;  7.2878846E-03;  0.0000000E+00; -2.7441856E-05;  3.4631119E+02;
 -1.0000000E-01;  9.9999998E-03;  9.9999998E-03;954;  0.0000000E+00;  0.0000000E+00;  0.0000000E+00;  1.0005576E+03;  1.0000000E-01;  4.6201163E+02;0;  0.0000000E+00;  0.0000000E+00;  0.0000000E+00;0;  7.2632357E-03;  4.0000000E+04;  0.0000000E+00;  0.0000000E+00;  4.0000000E+04;  0.0000000E+00;  4.0000000E+04;  7.2917980E-03;  0.0000000E+00; -2.8562328E-05;  3.4446661E+02;
 -1.0000000E-01;  9.9999998E-03;  2.0000000E-02;955;  0.0000000E+00;  0.0000000E+00;  0.0000000E+00;  1.0005595E+03;  1.0000000E-01;  4.6359183E+02;0;  0.0000000E+00;  0.0000000E+00;  0.0000000E+00;0;  7.2712544E-03;  4.0000000E+04;  0.0000000E+00;  0.0000000E+00;  4.0000000E+04;  0.0000000E+00;  4.0000000E+04;  7.3029934E-03;  0.0000000E+00; -3.1738928E-05;  3.3913840E+02;
 -1.0000000E-01;  9.9999998E-03;  2.9999999E-02;956;  0.0000000E+00;  0.0000000E+00;  0.0000000E+00;  1.0005625E+03;  1.0000000E-01;  4.6606088E+02;0;  0.0000000E+00;  0.0000000E+00;  0.0000000E+00;0;  7.2834855E-03;  4.0000000E+04;  0.0000000E+00;  0.0000000E+00;  4.0000000E+04;  0.0000000E+00;  4.0000000E+04;  7.3199328E-03;  0.0000000E+00; -3.6447320E-05;  3.3090921E+02;
 -1.0000000E-01;  9.9999998E-03;  3.9999999E-02;957;  0.0000000E+00;  0.0000000E+00;  0.0000000E+00;  1.0005675E+03;  1.0000000E-01;  4.7020892E+02;0;  0.0000000E+00;  0.0000000E+00;  0.0000000E+00;0;  7.2983406E-03;  4.0000000E+04;  0.0000000E+00;  0.0000000E+00;  4.0000000E+04;  0.0000000E+00;  4.0000000E+04;  7.3402491E-03;  0.0000000E+00; -4.1908563E-05;  3.2069067E+02;
 -1.0000000E-01;  9.9999998E-03;  5.0000001E-02;958;  0.0000000E+00;  0.0000000E+00;  0.0000000E+00;  1.0005739E+03;  1.0000000E-01;  4.7544333E+02;0;  0.0000000E+00;  0.0000000E+00;  0.0000000E+00;0;  7.3139537E-03;  4.0000000E+04;  0.0000000E+00;  0.0000000E+00;  4.0000000E+04;  0.0000000E+00;  4.0000000E+04;  7.3611704E-03;  0.0000000E+00; -4.7216454E-05;  3.0961877E+02;
 -1.0000000E-01;  9.9999998E-03;  5.9999999E-02;959;  0.0000000E+00;  0.0000000E+00;  0.0000000E+00;  1.0005807E+03;  1.0000000E-01;  4.8107281E+02;0;  0.0000000E+00;  0.0000000E+00;  0.0000000E+00;0;  7.3284120E-03;  4.0000000E+04;  0.0000000E+00;  0.0000000E+00;  4.0000000E+04;  0.0000000E+00;  4.0000000E+04;  7.3799007E-03;  0.0000000E+00; -5.1488725E-05;  2.9894086E+02;
 -9.0000004E-02;  9.9999998E-03; -1.0000000E-01;1034;  0.0000000E+00;  0.0000000E+00;  0.0000000E+00;  1.0010620E+03;  1.0000000E-01;  8.7987634E+02;0;  0.0000000E+00;  0.0000000E+00;  0.0000000E+00;0;  1.0969496E-02;  4.0000000E+04;  0.0000000E+00;  0.0000000E+00;  4.0000000E+04;  0.0000000E+00;  4.0000000E+04;  1.1060132E-02;  0.0000000E+00; -9.0634967E-05;  4.2253528E+02;
 -9.0000004E-02;  9.9999998E-03; -9.0000004E-02;1035;  0.0000000E+00;  0.0000000E+00;  0.0000000E+00;  1.0010532E+03;  1.0000000E-01;  8.7256793E+02;0;  0.0000000E+00;  0.0000000E+00;  0.0000000E+00;0;  1.0968613E-02;  4.0000000E+04;  0.0000000E+00;  0.0000000E+00;  4.0000000E+04;  0.0000000E+00;  4.0000000E+04;  1.1064840E-02;  0.0000000E+00; -9.6227493E-05;  4.2239120E+02;
 -9.0000004E-02;  9.9999998E-03; -7.9999998E-02;1036;  0.0000000E+00;  0.0000000E+00;  0.0000000E+00;  1.0010415E+03;  1.0000000E-01;  8.6288916E+02;0;  0.0000000E+00;  0.0000000E+00;  0.0000000E+00;0;  1.0962283E-02;  4.0000000E+04;  0.0000000E+00;  0.0000000E+00;  4.0000000E+04;  0.0000000E+00;  4.0000000E+04;  1.1061357E-02;  0.0000000E+00; -9.9073848E-05;  4.2811121E+02;
 -9.0000004E-02;  9.9999998E-03; -7.0000000E-02;1037;  0.0000000E+00;  0.0000000E+00;  0.0000000E+00;  1.0010292E+03;  1.0000000E-01;  8.5261786E+02;0;  0.0000000E+00;  0.0000000E+00;  0.0000000E+00;0;  1.0950149E-02;  4.0000000E+04;  0.0000000E+00;  0.0000000E+00;  4.0000000E+04;  0.0000000E+00;  4.0000000E+04;  1.1048662E-02;  0.0000000E+00; -9.8512821E-05;  4.3918652E+02;
 -9.0000004E-02;  9.9999998E-03; -5.9999999E-02;1038;  0.0000000E+00;  0.0000000E+00;  0.0000000E+00;  1.0010182E+03;  1.0000000E-01;  8.4363043E+02;0;  0.0000000E+00;  0.0000000E+00;  0.0000000E+00;0;  1.0932799E-02;  4.0000000E+04;  0.0000000E+00;  0.0000000E+00;  4.0000000E+04;  0.0000000E+00;  4.0000000E+04;  1.1027347E-02;  0.0000000E+00; -9.4547730E-05;  4.5449258E+02;
 -9.0000004E-02;  9.9999998E-03; -5.0000001E-02;1039;  0.0000000E+00;  0.0000000E+00;  0.0000000E+00;  1.0010065E+03;  1.0000000E-01;  8.3385297E+02;0;  0.0000000E+00;  0.0000000E+00;  0.0000000E+00;0;  1.0911793E-02;  4.0000000E+04;  0.0000000E+00;  0.0000000E+00;  4.0000000E+04;  0.0000000E+00;  4.0000000E+04;  1.0999596E-02;  0.0000000E+00; -8.7803026E-05;  4.7239615E+02;
 -9.0000004E-02;  9.9999998E-03; -3.9999999E-02;1040;  0.0000000E+00;  0.0000000E+00;  0.0000000E+00;  1.0009967E+03;  1.0000000E-01;  8.2575439E+02;0;  0.0000000E+00;  0.0000000E+00;  0.0000000E+00;0;  1.0889402E-02;  4.0000000E+04;  0.0000000E+00;  0.0000000E+00;  4.0000000E+04;  0.0000000E+00;  4.0000000E+04;  1.0968795E-02;  0.0000000E+00; -7.9393343E-05;  4.9094275E+02;
 -9.0000004E-02;  9.9999998E-03; -2.9999999E-02;1041;  0.0000000E+00;  0.0000000E+00;  0.0000000E+00;  1.0009893E+03;  1.0000000E-01;  8.1963116E+02;0;  0.0000000E+00;  0.0000000E+00;  0.0000000E+00;0;  1.0868249E-02;  4.0000000E+04;  0.0000000E+00;  0.0000000E+00;  4.0000000E+04;  0.0000000E+00;  4.0000000E+04;  1.0938969E-02;  0.0000000E+00; -7.0720402E-05;  5.0808612E+02;
 -9.0000004E-02;  9.9999998E-03; -2.0000000E-02;1042;  0.0000000E+00;  0.0000000E+00;  0.0000000E+00;  1.0009846E+03;  1.0000000E-01;  8.1568066E+02;0;  0.0000000E+00;  0.0000000E+00;  0.0000000E+00;0;  1.0850928E-02;  4.0000000E+04;  0.0000000E+00;  0.0000000E+00;  4.0000000E+04;  0.0000000E+00;  4.0000000E+04;  1.0914159E-02;  0.0000000E+00; -6.3231331E-05;  5.2191443E+02;
 -9.0000004E-02;  9.9999998E-03; -9.9999998E-03;1043;  0.0000000E+00;  0.0000000E+00;  0.0000000E+00;  1.0009807E+03;  1.0000000E-01;  8.1242145E+02;0;  0.0000000E+00;  0.0000000E+00;  0.0000000E+00;0;  1.0839572E-02;  4.0000000E+04;  0.0000000E+00;  0.0000000E+00;  4.0000000E+04;  0.0000000E+00;  4.0000000E+04;  1.0897746E-02;  0.0000000E+00; -5.8173995E-05;  5.3088788E+02;
 -9.0000004E-02;  9.9999998E-03;  0.0000000E+00;1044;  0.0000000E+00;  0.0000000E+00;  0.0000000E+00;  1.0009792E+03;  1.0000000E-01;  8.1123633E+02;0;  0.0000000E+00;  0.0000000E+00;  0.0000000E+00;0;  1.0835623E-02;  4.0000000E+04;  0.0000000E+00;  0.0000000E+00;  4.0000000E+04;  0.0000000E+00;  4.0000000E+04;  1.0892013E-02;  0.0000000E+00; -5.6389486E-05;  5.3399524E+02;
 -9.0000004E-02;  9.9999998E-03;  9.9999998E-03;1045;  0.0000000E+00;  0.0000000E+00;  0.0000000E+00;  1.0009807E+03;  1.0000000E-01;  8.1242145E+02;0;  0.0000000E+00;  0.0000000E+00;  0.0000000E+00;0;  1.0839574E-02;  4.0000000E+04;  0.0000000E+00;  0.0000000E+00;  4.0000000E+04;  0.0000000E+00;  4.0000000E+04;  1.0897748E-02;  0.0000000E+00; -5.8174344E-05;  5.3088824E+02;
 -9.0000004E-02;  9.9999998E-03;  2.0000000E-02;1046;  0.0000000E+00;  0.0000000E+00;  0.0000000E+00;  1.0009846E+03;  1.0000000E-01;  8.1568066E+02;0;  0.0000000E+00;  0.0000000E+00;  0.0000000E+00;0;  1.0850930E-02;  4.0000000E+04;  0.0000000E+00;  0.0000000E+00;  4.0000000E+04;  0.0000000E+00;  4.0000000E+04;  1.0914162E-02;  0.0000000E+00; -6.3231986E-05;  5.2191461E+02;
 -9.0000004E-02;  9.9999998E-03;  2.9999999E-02;1047;  0.0000000E+00;  0.0000000E+00;  0.0000000E+00;  1.0009893E+03;  1.0000000E-01;  8.1963116E+02;0;  0.0000000E+00;  0.0000000E+00;  0.0000000E+00;0;  1.0868250E-02;  4.0000000E+04;  0.0000000E+00;  0.0000000E+00;  4.0000000E+04;  0.0000000E+00;  4.0000000E+04;  1.0938971E-02;  0.0000000E+00; -7.0721304E-05;  5.0808740E+02;
 -9.0000004E-02;  9.9999998E-03;  3.9999999E-02;1048;  0.0000000E+00;  0.0000000E+00;  0.0000000E+00;  1.0009967E+03;  1.0000000E-01;  8.2575439E+02;0;  0.0000000E+00;  0.0000000E+00;  0.0000000E+00;0;  1.0889398E-02;  4.0000000E+04;  0.0000000E+00;  0.0000000E+00;  4.0000000E+04;  0.0000000E+00;  4.0000000E+04;  1.0968792E-02;  0.0000000E+00; -7.9394369E-05;  4.9094391E+02;
 -9.0000004E-02;  9.9999998E-03;  5.0000001E-02;1049;  0.0000000E+00;  0.0000000E+00;  0.0000000E+00;  1.0010065E+03;  1.0000000E-01;  8.3385297E+02;0;  0.0000000E+00;  0.0000000E+00;  0.0000000E+00;0;  1.0911788E-02;  4.0000000E+04;  0.0000000E+00;  0.0000000E+00;  4.0000000E+04;  0.0000000E+00;  4.0000000E+04;  1.0999592E-02;  0.0000000E+00; -8.7804037E-05;  4.7239722E+02;
 -9.0000004E-02;  9.9999998E-03;  5.9999999E-02;1050;  0.0000000E+00;  0.0000000E+00;  0.0000000E+00;  1.0010182E+03;  1.0000000E-01;  8.4363043E+02;0;  0.0000000E+00;  0.0000000E+00;  0.0000000E+00;0;  1.0932793E-02;  4.0000000E+04;  0.0000000E+00;  0.0000000E+00;  4.0000000E+04;  0.0000000E+00;  4.0000000E+04;  1.1027342E-02;  0.0000000E+00; -9.4548595E-05;  4.5449316E+02;
 -7.9999998E-02;  9.9999998E-03; -1.0000000E-01;1125;  0.0000000E+00;  0.0000000E+00;  0.0000000E+00;  1.0017098E+03;  1.0000000E-01;  1.4165525E+03;0;  0.0000000E+00;  0.0000000E+00;  0.0000000E+00;0;  1.5312990E-02;  4.0000000E+04;  0.0000000E+00;  0.0000000E+00;  4.0000000E+04;  0.0000000E+00;  4.0000000E+04;  1.5467476E-02;  0.0000000E+00; -1.5448563E-04;  5.9678577E+02;
 -7.9999998E-02;  9.9999998E-03; -9.0000004E-02;1126;  0.0000000E+00;  0.0000000E+00;  0.0000000E+00;  1.0016994E+03;  1.0000000E-01;  1.4079602E+03;0;  0.0000000E+00;  0.0000000E+00;  0.0000000E+00;0;  1.5309535E-02;  4.0000000E+04;  0.0000000E+00;  0.0000000E+00;  4.0000000E+04;  0.0000000E+00;  4.0000000E+04;  1.5472130E-02;  0.0000000E+00; -1.6259492E-04;  5.9762262E+02;
 -7.9999998E-02;  9.9999998E-03; -7.9999998E-02;1127;  0.0000000E+00;  0.0000000E+00;  0.0000000E+00;  1.0016845E+03;  1.0000000E-01;  1.3956149E+03;0;  0.0000000E+00;  0.0000000E+00;  0.0000000E+00;0;  1.5299002E-02;  4.0000000E+04;  0.0000000E+00;  0.0000000E+00;  4.0000000E+04;  0.0000000E+00;  4.0000000E+04;  1.5465790E-02;  0.0000000E+00; -1.6678851E-04;  6.0714398E+02;
 -7.9999998E-02;  9.9999998E-03; -7.0000000E-02;1128;  0.0000000E+00;  0.0000000E+00;  0.0000000E+00;  1.0016680E+03;  1.0000000E-01;  1.3818868E+03;0;  0.0000000E+00;  0.0000000E+00;  0.0000000E+00;0;  1.5281028E-02;  4.0000000E+04;  0.0000000E+00;  0.0000000E+00;  4.0000000E+04;  0.0000000E+00;  4.0000000E+04;  1.5447060E-02;  0.0000000E+00; -1.6603184E-04;  6.2461896E+02;
 -7.9999998E-02;  9.9999998E-03; -5.9999999E-02;1129;  0.0000000E+00;  0.0000000E+00;  0.0000000E+00;  1.0016511E+03;  1.0000000E-01;  1.3678625E+03;0;  0.0000000E+00;  0.0000000E+00;  0.0000000E+00;0;  1.5256469E-02;  4.0000000E+04;  0.0000000E+00;  0.0000000E+00;  4.0000000E+04;  0.0000000E+00;  4.0000000E+04;  1.5416749E-02;  0.0000000E+00; -1.6027983E-04;  6.4841278E+02;
 -7.9999998E-02;  9.9999998E-03; -5.0000001E-02;1130;  0.0000000E+00;  0.0000000E+00;  0.0000000E+00;  1.0016353E+03;  1.0000000E-01;  1.3548259E+03;0;  0.0000000E+00;  0.0000000E+00;  0.0000000E+00;0;  1.5227395E-02;  4.0000000E+04;  0.0000000E+00;  0.0000000E+00;  4.0000000E+04;  0.0000000E+00;  4.0000000E+04;  1.5377813E-02;  0.0000000E+00; -1.5041776E-04;  6.7611835E+02;
 -7.9999998E-02;  9.9999998E-03; -3.9999999E-02;1131;  0.0000000E+00;  0.0000000E+00;  0.0000000E+00;  1.0016223E+03;  1.0000000E-01;  1.3440608E+03;0;  0.0000000E+00;  0.0000000E+00;  0.0000000E+00;0;  1.5196756E-02;  4.0000000E+04;  0.0000000E+00;  0.0000000E+00;  4.0000000E+04;  0.0000000E+00;  4.0000000E+04;  1.5334826E-02;  0.0000000E+00; -1.3807064E-04;  7.0478778E+02;
 -7.9999998E-02;  9.9999998E-03; -2.9999999E-02;1132;  0.0000000E+00;  0.0000000E+00;  0.0000000E+00;  1.0016118E+03;  1.0000000E-01;  1.3353696E+03;0;  0.0000000E+00;  0.0000000E+00;  0.0000000E+00;0;  1.5168036E-02;  4.0000000E+04;  0.0000000E+00;  0.0000000E+00;  4.0000000E+04;  0.0000000E+00;  4.0000000E+04;  1.5293339E-02;  0.0000000E+00; -1.2530311E-04;  7.3130005E+02;
 -7.9999998E-02;  9.9999998E-03; -2.0000000E-02;1133;  0.0000000E+00;  0.0000000E+00;  0.0000000E+00;  1.0016032E+03;  1.0000000E-01;  1.3282588E+03;0;  0.0000000E+00;  0.0000000E+00;  0.0000000E+00;0;  1.5144586E-02;  4.0000000E+04;  0.0000000E+00;  0.0000000E+00;  4.0000000E+04;  0.0000000E+00;  4.0000000E+04;  1.5258844E-02;  0.0000000E+00; -1.1425840E-04;  7.5271063E+02;
 -7.9999998E-02;  9.9999998E-03; -9.9999998E-03;1134;  0.0000000E+00;  0.0000000E+00;  0.0000000E+00;  1.0015985E+03;  1.0000000E-01;  1.3243082E+03;0;  0.0000000E+00;  0.0000000E+00;  0.0000000E+00;0;  1.5129278E-02;  4.0000000E+04;  0.0000000E+00;  0.0000000E+00;  4.0000000E+04;  0.0000000E+00;  4.0000000E+04;  1.5236069E-02;  0.0000000E+00; -1.0679127E-04;  7.6661084E+02;
 -7.9999998E-02;  9.9999998E-03;  0.0000000E+00;1135;  0.0000000E+00;  0.0000000E+00;  0.0000000E+00;  1.0015970E+03;  1.0000000E-01;  1.3231230E+03;0;  0.0000000E+00;  0.0000000E+00;  0.0000000E+00;0;  1.5123957E-02;  4.0000000E+04;  0.0000000E+00;  0.0000000E+00;  4.0000000E+04;  0.0000000E+00;  4.0000000E+04;  1.5228112E-02;  0.0000000E+00; -1.0415507E-04;  7.7142828E+02;
 -7.9999998E-02;  9.9999998E-03;  9.9999998E-03;1136;  0.0000000E+00;  0.0000000E+00;  0.0000000E+00;  1.0015985E+03;  1.0000000E-01;  1.3243082E+03;0;  0.0000000E+00;  0.0000000E+00;  0.0000000E+00;0;  1.5129278E-02;  4.0000000E+04;  0.0000000E+00;  0.0000000E+00;  4.0000000E+04;  0.0000000E+00;  4.0000000E+04;  1.5236070E-02;  0.0000000E+00; -1.0679178E-04;  7.6661133E+02;
 -7.9999998E-02;  9.9999998E-03;  2.0000000E-02;1137;  0.0000000E+00;  0.0000000E+00;  0.0000000E+00;  1.0016032E+03;  1.0000000E-01;  1.3282588E+03;0;  0.0000000E+00;  0.0000000E+00;  0.0000000E+00;0;  1.5144588E-02;  4.0000000E+04;  0.0000000E+00;  0.0000000E+00;  4.0000000E+04;  0.0000000E+00;  4.0000000E+04;  1.5258848E-02;  0.0000000E+00; -1.1425935E-04;  7.5271204E+02;
 -7.9999998E-02;  9.9999998E-03;  2.9999999E-02;1138;  0.0000000E+00;  0.0000000E+00;  0.0000000E+00;  1.0016118E+03;  1.0000000E-01;  1.3353696E+03;0;  0.0000000E+00;  0.0000000E+00;  0.0000000E+00;0;  1.5168048E-02;  4.0000000E+04;  0.0000000E+00;  0.0000000E+00;  4.0000000E+04;  0.0000000E+00;  4.0000000E+04;  1.5293352E-02;  0.0000000E+00; -1.2530437E-04;  7.3130157E+02;
 -7.9999998E-02;  9.9999998E-03;  3.9999999E-02;1139;  0.0000000E+00;  0.0000000E+00;  0.0000000E+00;  1.0016223E+03;  1.0000000E-01;  1.3440608E+03;0;  0.0000000E+00;  0.0000000E+00;  0.0000000E+00;0;  1.5196760E-02;  4.0000000E+04;  0.0000000E+00;  0.0000000E+00;  4.0000000E+04;  0.0000000E+00;  4.0000000E+04;  1.5334832E-02;  0.0000000E+00; -1.3807214E-04;  7.0478839E+02;
 -7.9999998E-02;  9.9999998E-03;  5.0000001E-02;1140;  0.0000000E+00;  0.0000000E+00;  0.0000000E+00;  1.0016353E+03;  1.0000000E-01;  1.3548259E+03;0;  0.0000000E+00;  0.0000000E+00;  0.0000000E+00;0;  1.5227390E-02;  4.0000000E+04;  0.0000000E+00;  0.0000000E+00;  4.0000000E+04;  0.0000000E+00;  4.0000000E+04;  1.5377809E-02;  0.0000000E+00; -1.5041916E-04;  6.7611963E+02;
 -7.9999998E-02;  9.9999998E-03;  5.9999999E-02;1141;  0.0000000E+00;  0.0000000E+00;  0.0000000E+00;  1.0016511E+03;  1.0000000E-01;  1.3678625E+03;0;  0.0000000E+00;  0.0000000E+00;  0.0000000E+00;0;  1.5256473E-02;  4.0000000E+04;  0.0000000E+00;  0.0000000E+00;  4.0000000E+04;  0.0000000E+00;  4.0000000E+04;  1.5416754E-02;  0.0000000E+00; -1.6028121E-04;  6.4841608E+02;
 -7.0000000E-02;  9.9999998E-03; -1.0000000E-01;1216;  0.0000000E+00;  0.0000000E+00;  0.0000000E+00;  1.0026160E+03;  1.0000000E-01;  2.1672473E+03;0;  0.0000000E+00;  0.0000000E+00;  0.0000000E+00;0;  2.0219482E-02;  4.0000000E+04;  0.0000000E+00;  0.0000000E+00;  4.0000000E+04;  0.0000000E+00;  4.0000000E+04;  2.0465735E-02;  0.0000000E+00; -2.4625249E-04;  7.9969037E+02;
 -7.0000000E-02;  9.9999998E-03; -9.0000004E-02;1217;  0.0000000E+00;  0.0000000E+00;  0.0000000E+00;  1.0025992E+03;  1.0000000E-01;  2.1534207E+03;0;  0.0000000E+00;  0.0000000E+00;  0.0000000E+00;0;  2.0212432E-02;  4.0000000E+04;  0.0000000E+00;  0.0000000E+00;  4.0000000E+04;  0.0000000E+00;  4.0000000E+04;  2.0469850E-02;  0.0000000E+00; -2.5741837E-04;  8.0189484E+02;
 -7.0000000E-02;  9.9999998E-03; -7.9999998E-02;1218;  0.0000000E+00;  0.0000000E+00;  0.0000000E+00;  1.0025786E+03;  1.0000000E-01;  2.1363347E+03;0;  0.0000000E+00;  0.0000000E+00;  0.0000000E+00;0;  2.0196497E-02;  4.0000000E+04;  0.0000000E+00;  0.0000000E+00;  4.0000000E+04;  0.0000000E+00;  4.0000000E+04;  2.0459801E-02;  0.0000000E+00; -2.6330282E-04;  8.1628320E+02;
 -7.0000000E-02;  9.9999998E-03; -7.0000000E-02;1219;  0.0000000E+00;  0.0000000E+00;  0.0000000E+00;  1.0025554E+03;  1.0000000E-01;  2.1170759E+03;0;  0.0000000E+00;  0.0000000E+00;  0.0000000E+00;0;  2.0171264E-02;  4.0000000E+04;  0.0000000E+00;  0.0000000E+00;  4.0000000E+04;  0.0000000E+00;  4.0000000E+04;  2.0433661E-02;  0.0000000E+00; -2.6239615E-04;  8.4187494E+02;
 -7.0000000E-02;  9.9999998E-03; -5.9999999E-02;1220;  0.0000000E+00;  0.0000000E+00;  0.0000000E+00;  1.0025326E+03;  1.0000000E-01;  2.0982122E+03;0;  0.0000000E+00;  0.0000000E+00;  0.0000000E+00;0;  2.0137955E-02;  4.0000000E+04;  0.0000000E+00;  0.0000000E+00;  4.0000000E+04;  0.0000000E+00;  4.0000000E+04;  2.0392528E-02;  0.0000000E+00; -2.5457295E-04;  8.7642554E+02;
 -7.0000000E-02;  9.9999998E-03; -5.0000001E-02;1221;  0.0000000E+00;  0.0000000E+00;  0.0000000E+00;  1.0025113E+03;  1.0000000E-01;  2.0805337E+03;0;  0.0000000E+00;  0.0000000E+00;  0.0000000E+00;0;  2.0099195E-02;  4.0000000E+04;  0.0000000E+00;  0.0000000E+00;  4.0000000E+04;  0.0000000E+00;  4.0000000E+04;  2.0340210E-02;  0.0000000E+00; -2.4101573E-04;  9.1656671E+02;
 -7.0000000E-02;  9.9999998E-03; -3.9999999E-02;1222;  0.0000000E+00;  0.0000000E+00;  0.0000000E+00;  1.0024916E+03;  1.0000000E-01;  2.0642378E+03;0;  0.0000000E+00;  0.0000000E+00;  0.0000000E+00;0;  2.0058759E-02;  4.0000000E+04;  0.0000000E+00;  0.0000000E+00;  4.0000000E+04;  0.0000000E+00;  4.0000000E+04;  2.0282716E-02;  0.0000000E+00; -2.2395616E-04;  9.5811157E+02;
 -7.0000000E-02;  9.9999998E-03; -2.9999999E-02;1223;  0.0000000E+00;  0.0000000E+00;  0.0000000E+00;  1.0024769E+03;  1.0000000E-01;  2.0520901E+03;0;  0.0000000E+00;  0.0000000E+00;  0.0000000E+00;0;  2.0021077E-02;  4.0000000E+04;  0.0000000E+00;  0.0000000E+00;  4.0000000E+04;  0.0000000E+00;  4.0000000E+04;  2.0227337E-02;  0.0000000E+00; -2.0626042E-04;  9.9656110E+02;
 -7.0000000E-02;  9.9999998E-03; -2.0000000E-02;1224;  0.0000000E+00;  0.0000000E+00;  0.0000000E+00;  1.0024644E+03;  1.0000000E-01;  2.0417201E+03;0;  0.0000000E+00;  0.0000000E+00;  0.0000000E+00;0;  1.9990448E-02;  4.0000000E+04;  0.0000000E+00;  0.0000000E+00;  4.0000000E+04;  0.0000000E+00;  4.0000000E+04;  2.0181367E-02;  0.0000000E+00; -1.9092018E-04;  1.0276401E+03;
 -7.0000000E-02;  9.9999998E-03; -9.9999998E-03;1225;  0.0000000E+00;  0.0000000E+00;  0.0000000E+00;  1.0024577E+03;  1.0000000E-01;  2.0361893E+03;0;  0.0000000E+00;  0.0000000E+00;  0.0000000E+00;0;  1.9970460E-02;  4.0000000E+04;  0.0000000E+00;  0.0000000E+00;  4.0000000E+04;  0.0000000E+00;  4.0000000E+04;  2.0150995E-02;  0.0000000E+00; -1.8053547E-04;  1.0478361E+03;
 -7.0000000E-02;  9.9999998E-03;  0.0000000E+00;1226;  0.0000000E+00;  0.0000000E+00;  0.0000000E+00;  1.0024551E+03;  1.0000000E-01;  2.0340166E+03;0;  0.0000000E+00;  0.0000000E+00;  0.0000000E+00;0;  1.9963535E-02;  4.0000000E+04;  0.0000000E+00;  0.0000000E+00;  4.0000000E+04;  0.0000000E+00;  4.0000000E+04;  2.0140402E-02;  0.0000000E+00; -1.7686670E-04;  1.0548335E+03;
 -7.0000000E-02;  9.9999998E-03;  9.9999998E-03;1227;  0.0000000E+00;  0.0000000E+00;  0.0000000E+00;  1.0024577E+03;  1.0000000E-01;  2.0361893E+03;0;  0.0000000E+00;  0.0000000E+00;  0.0000000E+00;0;  1.9970456E-02;  4.0000000E+04;  0.0000000E+00;  0.0000000E+00;  4.0000000E+04;  0.0000000E+00;  4.0000000E+04;  2.0150993E-02;  0.0000000E+00; -1.8053608E-04;  1.0478367E+03;
 -7.0000000E-02;  9.9999998E-03;  2.0000000E-02;1228;  0.0000000E+00;  0.0000000E+00;  0.0000000E+00;  1.0024644E+03;  1.0000000E-01;  2.0417201E+03;0;  0.0000000E+00;  0.0000000E+00;  0.0000000E+00;0;  1.9990450E-02;  4.0000000E+04;  0.0000000E+00;  0.0000000E+00;  4.0000000E+04;  0.0000000E+00;  4.0000000E+04;  2.0181371E-02;  0.0000000E+00; -1.9092161E-04;  1.0276418E+03;
 -7.0000000E-02;  9.9999998E-03;  2.9999999E-02;1229;  0.0000000E+00;  0.0000000E+00;  0.0000000E+00;  1.0024769E+03;  1.0000000E-01;  2.0520901E+03;0;  0.0000000E+00;  0.0000000E+00;  0.0000000E+00;0;  2.0021090E-02;  4.0000000E+04;  0.0000000E+00;  0.0000000E+00;  4.0000000E+04;  0.0000000E+00;  4.0000000E+04;  2.0227352E-02;  0.0000000E+00; -2.0626215E-04;  9.9656219E+02;
 -7.0000000E-02;  9.9999998E-03;  3.9999999E-02;1230;  0.0000000E+00;  0.0000000E+00;  0.0000000E+00;  1.0024916E+03;  1.0000000E-01;  2.0642378E+03;0;  0.0000000E+00;  0.0000000E+00;  0.0000000E+00;0;  2.0058764E-02;  4.0000000E+04;  0.0000000E+00;  0.0000000E+00;  4.0000000E+04;  0.0000000E+00;  4.0000000E+04;  2.0282723E-02;  0.0000000E+00; -2.2395853E-04;  9.5811212E+02;
 -7.0000000E-02;  9.9999998E-03;  5.0000001E-02;1231;  0.0000000E+00;  0.0000000E+00;  0.0000000E+00;  1.0025113E+03;  1.0000000E-01;  2.0805337E+03;0;  0.0000000E+00;  0.0000000E+00;  0.0000000E+00;0;  2.0099202E-02;  4.0000000E+04;  0.0000000E+00;  0.0000000E+00;  4.0000000E+04;  0.0000000E+00;  4.0000000E+04;  2.0340221E-02;  0.0000000E+00; -2.4101791E-04;  9.1656982E+02;
 -7.0000000E-02;  9.9999998E-03;  5.9999999E-02;1232;  0.0000000E+00;  0.0000000E+00;  0.0000000E+00;  1.0025326E+03;  1.0000000E-01;  2.0982122E+03;0;  0.0000000E+00;  0.0000000E+00;  0.0000000E+00;0;  2.0137964E-02;  4.0000000E+04;  0.0000000E+00;  0.0000000E+00;  4.0000000E+04;  0.0000000E+00;  4.0000000E+04;  2.0392539E-02;  0.0000000E+00; -2.5457461E-04;  8.7642712E+02;
 -5.9999999E-02;  9.9999998E-03; -1.0000000E-01;1307;  0.0000000E+00;  0.0000000E+00;  0.0000000E+00;  1.0038100E+03;  1.0000000E-01;  3.1565527E+03;0;  0.0000000E+00;  0.0000000E+00;  0.0000000E+00;0;  2.5401535E-02;  4.0000000E+04;  0.0000000E+00;  0.0000000E+00;  4.0000000E+04;  0.0000000E+00;  4.0000000E+04;  2.5772290E-02;  0.0000000E+00; -3.7075530E-04;  1.0217908E+03;
 -5.9999999E-02;  9.9999998E-03; -9.0000004E-02;1308;  0.0000000E+00;  0.0000000E+00;  0.0000000E+00;  1.0037914E+03;  1.0000000E-01;  3.1410469E+03;0;  0.0000000E+00;  0.0000000E+00;  0.0000000E+00;0;  2.5390111E-02;  4.0000000E+04;  0.0000000E+00;  0.0000000E+00;  4.0000000E+04;  0.0000000E+00;  4.0000000E+04;  2.5775719E-02;  0.0000000E+00; -3.8560841E-04;  1.0253958E+03;
 -5.9999999E-02;  9.9999998E-03; -7.9999998E-02;1309;  0.0000000E+00;  0.0000000E+00;  0.0000000E+00;  1.0037656E+03;  1.0000000E-01;  3.1197144E+03;0;  0.0000000E+00;  0.0000000E+00;  0.0000000E+00;0;  2.5367824E-02;  4.0000000E+04;  0.0000000E+00;  0.0000000E+00;  4.0000000E+04;  0.0000000E+00;  4.0000000E+04;  2.5761450E-02;  0.0000000E+00; -3.9362599E-04;  1.0453453E+03;
 -5.9999999E-02;  9.9999998E-03; -7.0000000E-02;1310;  0.0000000E+00;  0.0000000E+00;  0.0000000E+00;  1.0037350E+03;  1.0000000E-01;  3.0944309E+03;0;  0.0000000E+00;  0.0000000E+00;  0.0000000E+00;0;  2.5334196E-02;  4.0000000E+04;  0.0000000E+00;  0.0000000E+00;  4.0000000E+04;  0.0000000E+00;  4.0000000E+04;  2.5726927E-02;  0.0000000E+00; -3.9273186E-04;  1.0804176E+03;
 -5.9999999E-02;  9.9999998E-03; -5.9999999E-02;1311;  0.0000000E+00;  0.0000000E+00;  0.0000000E+00;  1.0037033E+03;  1.0000000E-01;  3.0681602E+03;0;  0.0000000E+00;  0.0000000E+00;  0.0000000E+00;0;  2.5290759E-02;  4.0000000E+04;  0.0000000E+00;  0.0000000E+00;  4.0000000E+04;  0.0000000E+00;  4.0000000E+04;  2.5673445E-02;  0.0000000E+00; -3.8268525E-04;  1.1276951E+03;
 -5.9999999E-02;  9.9999998E-03; -5.0000001E-02;1312;  0.0000000E+00;  0.0000000E+00;  0.0000000E+00;  1.0036753E+03;  1.0000000E-01;  3.0449509E+03;0;  0.0000000E+00;  0.0000000E+00;  0.0000000E+00;0;  2.5240829E-02;  4.0000000E+04;  0.0000000E+00;  0.0000000E+00;  4.0000000E+04;  0.0000000E+00;  4.0000000E+04;  2.5605824E-02;  0.0000000E+00; -3.6499451E-04;  1.1826809E+03;
 -5.9999999E-02;  9.9999998E-03; -3.9999999E-02;1313;  0.0000000E+00;  0.0000000E+00;  0.0000000E+00;  1.0036481E+03;  1.0000000E-01;  3.0224331E+03;0;  0.0000000E+00;  0.0000000E+00;  0.0000000E+00;0;  2.5189139E-02;  4.0000000E+04;  0.0000000E+00;  0.0000000E+00;  4.0000000E+04;  0.0000000E+00;  4.0000000E+04;  2.5531724E-02;  0.0000000E+00; -3.4258442E-04;  1.2396942E+03;
 -5.9999999E-02;  9.9999998E-03; -2.9999999E-02;1314;  0.0000000E+00;  0.0000000E+00;  0.0000000E+00;  1.0036269E+03;  1.0000000E-01;  3.0048533E+03;0;  0.0000000E+00;  0.0000000E+00;  0.0000000E+00;0;  2.5141135E-02;  4.0000000E+04;  0.0000000E+00;  0.0000000E+00;  4.0000000E+04;  0.0000000E+00;  4.0000000E+04;  2.5460379E-02;  0.0000000E+00; -3.1924428E-04;  1.2925693E+03;
 -5.9999999E-02;  9.9999998E-03; -2.0000000E-02;1315;  0.0000000E+00;  0.0000000E+00;  0.0000000E+00;  1.0036108E+03;  1.0000000E-01;  2.9914216E+03;0;  0.0000000E+00;  0.0000000E+00;  0.0000000E+00;0;  2.5102267E-02;  4.0000000E+04;  0.0000000E+00;  0.0000000E+00;  4.0000000E+04;  0.0000000E+00;  4.0000000E+04;  2.5401225E-02;  0.0000000E+00; -2.9895917E-04;  1.3353650E+03;
 -5.9999999E-02;  9.9999998E-03; -9.9999998E-03;1316;  0.0000000E+00;  0.0000000E+00;  0.0000000E+00;  1.0036014E+03;  1.0000000E-01;  2.9837180E+03;0;  0.0000000E+00;  0.0000000E+00;  0.0000000E+00;0;  2.5076961E-02;  4.0000000E+04;  0.0000000E+00;  0.0000000E+00;  4.0000000E+04;  0.0000000E+00;  4.0000000E+04;  2.5362166E-02;  0.0000000E+00; -2.8520403E-04;  1.3631991E+03;
 -5.9999999E-02;  9.9999998E-03;  0.0000000E+00;1317;  0.0000000E+00;  0.0000000E+00;  0.0000000E+00;  1.0035983E+03;  1.0000000E-01;  2.9811501E+03;0;  0.0000000E+00;  0.0000000E+00;  0.0000000E+00;0;  2.5068182E-02;  4.0000000E+04;  0.0000000E+00;  0.0000000E+00;  4.0000000E+04;  0.0000000E+00;  4.0000000E+04;  2.5348524E-02;  0.0000000E+00; -2.8034046E-04;  1.3728560E+03;
 -5.9999999E-02;  9.9999998E-03;  9.9999998E-03;1318;  0.0000000E+00;  0.0000000E+00;  0.0000000E+00;  1.0036014E+03;  1.0000000E-01;  2.9837180E+03;0;  0.0000000E+00;  0.0000000E+00;  0.0000000E+00;0;  2.5076983E-02;  4.0000000E+04;  0.0000000E+00;  0.0000000E+00;  4.0000000E+04;  0.0000000E+00;  4.0000000E+04;  2.5362188E-02;  0.0000000E+00; -2.8520499E-04;  1.3632009E+03;
 -5.9999999E-02;  9.9999998E-03;  2.0000000E-02;1319;  0.0000000E+00;  0.0000000E+00;  0.0000000E+00;  1.0036108E+03;  1.0000000E-01;  2.9914216E+03;0;  0.0000000E+00;  0.0000000E+00;  0.0000000E+00;0;  2.5102286E-02;  4.0000000E+04;  0.0000000E+00;  0.0000000E+00;  4.0000000E+04;  0.0000000E+00;  4.0000000E+04;  2.5401246E-02;  0.0000000E+00; -2.9896077E-04;  1.3353662E+03;
 -5.9999999E-02;  9.9999998E-03;  2.9999999E-02;1320;  0.0000000E+00;  0.0000000E+00;  0.0000000E+00;  1.0036269E+03;  1.0000000E-01;  3.0048533E+03;0;  0.0000000E+00;  0.0000000E+00;  0.0000000E+00;0;  2.5141155E-02;  4.0000000E+04;  0.0000000E+00;  0.0000000E+00;  4.0000000E+04;  0.0000000E+00;  4.0000000E+04;  2.5460402E-02;  0.0000000E+00; -3.1924661E-04;  1.2925725E+03;
 -5.9999999E-02;  9.9999998E-03;  3.9999999E-02;1321;  0.0000000E+00;  0.0000000E+00;  0.0000000E+00;  1.0036481E+03;  1.0000000E-01;  3.0224331E+03;0;  0.0000000E+00;  0.0000000E+00;  0.0000000E+00;0;  2.5189135E-02;  4.0000000E+04;  0.0000000E+00;  0.0000000E+00;  4.0000000E+04;  0.0000000E+00;  4.0000000E+04;  2.5531722E-02;  0.0000000E+00; -3.4258721E-04;  1.2396978E+03;
 -5.9999999E-02;  9.9999998E-03;  5.0000001E-02;1322;  0.0000000E+00;  0.0000000E+00;  0.0000000E+00;  1.0036753E+03;  1.0000000E-01;  3.0449509E+03;0;  0.0000000E+00;  0.0000000E+00;  0.0000000E+00;0;  2.5240825E-02;  4.0000000E+04;  0.0000000E+00;  0.0000000E+00;  4.0000000E+04;  0.0000000E+00;  4.0000000E+04;  2.5605824E-02;  0.0000000E+00; -3.6499763E-04;  1.1826852E+03;
 -5.9999999E-02;  9.9999998E-03;  5.9999999E-02;1323;  0.0000000E+00;  0.0000000E+00;  0.0000000E+00;  1.0037033E+03;  1.0000000E-01;  3.0681602E+03;0;  0.0000000E+00;  0.0000000E+00;  0.0000000E+00;0;  2.5290780E-02;  4.0000000E+04;  0.0000000E+00;  0.0000000E+00;  4.0000000E+04;  0.0000000E+00;  4.0000000E+04;  2.5673468E-02;  0.0000000E+00; -3.8268793E-04;  1.1276995E+03;
 -5.0000001E-02;  9.9999998E-03; -1.0000000E-01;1398;  0.0000000E+00;  0.0000000E+00;  0.0000000E+00;  1.0053122E+03;  1.0000000E-01;  4.4010605E+03;0;  0.0000000E+00;  0.0000000E+00;  0.0000000E+00;0;  3.0434996E-02;  4.0000000E+04;  0.0000000E+00;  0.0000000E+00;  4.0000000E+04;  0.0000000E+00;  4.0000000E+04;  3.0965859E-02;  0.0000000E+00; -5.3086336E-04;  1.2469540E+03;
 -5.0000001E-02;  9.9999998E-03; -9.0000004E-02;1399;  0.0000000E+00;  0.0000000E+00;  0.0000000E+00;  1.0052907E+03;  1.0000000E-01;  4.3832832E+03;0;  0.0000000E+00;  0.0000000E+00;  0.0000000E+00;0;  3.0419622E-02;  4.0000000E+04;  0.0000000E+00;  0.0000000E+00;  4.0000000E+04;  0.0000000E+00;  4.0000000E+04;  3.0969867E-02;  0.0000000E+00; -5.5024639E-04;  1.2513567E+03;
 -5.0000001E-02;  9.9999998E-03; -7.9999998E-02;1400;  0.0000000E+00;  0.0000000E+00;  0.0000000E+00;  1.0052555E+03;  1.0000000E-01;  4.3540498E+03;0;  0.0000000E+00;  0.0000000E+00;  0.0000000E+00;0;  3.0391200E-02;  4.0000000E+04;  0.0000000E+00;  0.0000000E+00;  4.0000000E+04;  0.0000000E+00;  4.0000000E+04;  3.0952251E-02;  0.0000000E+00; -5.6105142E-04;  1.2768494E+03;
 -5.0000001E-02;  9.9999998E-03; -7.0000000E-02;1401;  0.0000000E+00;  0.0000000E+00;  0.0000000E+00;  1.0052164E+03;  1.0000000E-01;  4.3216558E+03;0;  0.0000000E+00;  0.0000000E+00;  0.0000000E+00;0;  3.0348994E-02;  4.0000000E+04;  0.0000000E+00;  0.0000000E+00;  4.0000000E+04;  0.0000000E+00;  4.0000000E+04;  3.0909553E-02;  0.0000000E+00; -5.6055980E-04;  1.3220558E+03;
 -5.0000001E-02;  9.9999998E-03; -5.9999999E-02;1402;  0.0000000E+00;  0.0000000E+00;  0.0000000E+00;  1.0051760E+03;  1.0000000E-01;  4.2882739E+03;0;  0.0000000E+00;  0.0000000E+00;  0.0000000E+00;0;  3.0294761E-02;  4.0000000E+04;  0.0000000E+00;  0.0000000E+00;  4.0000000E+04;  0.0000000E+00;  4.0000000E+04;  3.0843141E-02;  0.0000000E+00; -5.4837903E-04;  1.3833911E+03;
 -5.0000001E-02;  9.9999998E-03; -5.0000001E-02;1403;  0.0000000E+00;  0.0000000E+00;  0.0000000E+00;  1.0051367E+03;  1.0000000E-01;  4.2555835E+03;0;  0.0000000E+00;  0.0000000E+00;  0.0000000E+00;0;  3.0232670E-02;  4.0000000E+04;  0.0000000E+00;  0.0000000E+00;  4.0000000E+04;  0.0000000E+00;  4.0000000E+04;  3.0759031E-02;  0.0000000E+00; -5.2636082E-04;  1.4550857E+03;
 -5.0000001E-02;  9.9999998E-03; -3.9999999E-02;1404;  0.0000000E+00;  0.0000000E+00;  0.0000000E+00;  1.0051017E+03;  1.0000000E-01;  4.2266460E+03;0;  0.0000000E+00;  0.0000000E+00;  0.0000000E+00;0;  3.0168539E-02;  4.0000000E+04;  0.0000000E+00;  0.0000000E+00;  4.0000000E+04;  0.0000000E+00;  4.0000000E+04;  3.0666722E-02;  0.0000000E+00; -4.9818371E-04;  1.5297441E+03;
 -5.0000001E-02;  9.9999998E-03; -2.9999999E-02;1405;  0.0000000E+00;  0.0000000E+00;  0.0000000E+00;  1.0050727E+03;  1.0000000E-01;  4.2026465E+03;0;  0.0000000E+00;  0.0000000E+00;  0.0000000E+00;0;  3.0109184E-02;  4.0000000E+04;  0.0000000E+00;  0.0000000E+00;  4.0000000E+04;  0.0000000E+00;  4.0000000E+04;  3.0577855E-02;  0.0000000E+00; -4.6867112E-04;  1.5991937E+03;
 -5.0000001E-02;  9.9999998E-03; -2.0000000E-02;1406;  0.0000000E+00;  0.0000000E+00;  0.0000000E+00;  1.0050531E+03;  1.0000000E-01;  4.1863506E+03;0;  0.0000000E+00;  0.0000000E+00;  0.0000000E+00;0;  3.0061148E-02;  4.0000000E+04;  0.0000000E+00;  0.0000000E+00;  4.0000000E+04;  0.0000000E+00;  4.0000000E+04;  3.0504078E-02;  0.0000000E+00; -4.4292942E-04;  1.6555588E+03;
 -5.0000001E-02;  9.9999998E-03; -9.9999998E-03;1407;  0.0000000E+00;  0.0000000E+00;  0.0000000E+00;  1.0050405E+03;  1.0000000E-01;  4.1758818E+03;0;  0.0000000E+00;  0.0000000E+00;  0.0000000E+00;0;  3.0029908E-02;  4.0000000E+04;  0.0000000E+00;  0.0000000E+00;  4.0000000E+04;  0.0000000E+00;  4.0000000E+04;  3.0455343E-02;  0.0000000E+00; -4.2543592E-04;  1.6922692E+03;
 -5.0000001E-02;  9.9999998E-03;  0.0000000E+00;1408;  0.0000000E+00;  0.0000000E+00;  0.0000000E+00;  1.0050365E+03;  1.0000000E-01;  4.1726226E+03;0;  0.0000000E+00;  0.0000000E+00;  0.0000000E+00;0;  3.0019036E-02;  4.0000000E+04;  0.0000000E+00;  0.0000000E+00;  4.0000000E+04;  0.0000000E+00;  4.0000000E+04;  3.0438280E-02;  0.0000000E+00; -4.1924464E-04;  1.7050098E+03;
 -5.0000001E-02;  9.9999998E-03;  9.9999998E-03;1409;  0.0000000E+00;  0.0000000E+00;  0.0000000E+00;  1.0050405E+03;  1.0000000E-01;  4.1758818E+03;0;  0.0000000E+00;  0.0000000E+00;  0.0000000E+00;0;  3.0029891E-02;  4.0000000E+04;  0.0000000E+00;  0.0000000E+00;  4.0000000E+04;  0.0000000E+00;  4.0000000E+04;  3.0455329E-02;  0.0000000E+00; -4.2543749E-04;  1.6922688E+03;
 -5.0000001E-02;  9.9999998E-03;  2.0000000E-02;1410;  0.0000000E+00;  0.0000000E+00;  0.0000000E+00;  1.0050531E+03;  1.0000000E-01;  4.1863506E+03;0;  0.0000000E+00;  0.0000000E+00;  0.0000000E+00;0;  3.0061148E-02;  4.0000000E+04;  0.0000000E+00;  0.0000000E+00;  4.0000000E+04;  0.0000000E+00;  4.0000000E+04;  3.0504080E-02;  0.0000000E+00; -4.4293189E-04;  1.6555593E+03;
 -5.0000001E-02;  9.9999998E-03;  2.9999999E-02;1411;  0.0000000E+00;  0.0000000E+00;  0.0000000E+00;  1.0050727E+03;  1.0000000E-01;  4.2026465E+03;0;  0.0000000E+00;  0.0000000E+00;  0.0000000E+00;0;  3.0109178E-02;  4.0000000E+04;  0.0000000E+00;  0.0000000E+00;  4.0000000E+04;  0.0000000E+00;  4.0000000E+04;  3.0577853E-02;  0.0000000E+00; -4.6867429E-04;  1.5991986E+03;
 -5.0000001E-02;  9.9999998E-03;  3.9999999E-02;1412;  0.0000000E+00;  0.0000000E+00;  0.0000000E+00;  1.0051017E+03;  1.0000000E-01;  4.2266460E+03;0;  0.0000000E+00;  0.0000000E+00;  0.0000000E+00;0;  3.0168552E-02;  4.0000000E+04;  0.0000000E+00;  0.0000000E+00;  4.0000000E+04;  0.0000000E+00;  4.0000000E+04;  3.0666739E-02;  0.0000000E+00; -4.9818732E-04;  1.5297473E+03;
 -5.0000001E-02;  9.9999998E-03;  5.0000001E-02;1413;  0.0000000E+00;  0.0000000E+00;  0.0000000E+00;  1.0051367E+03;  1.0000000E-01;  4.2555835E+03;0;  0.0000000E+00;  0.0000000E+00;  0.0000000E+00;0;  3.0232649E-02;  4.0000000E+04;  0.0000000E+00;  0.0000000E+00;  4.0000000E+04;  0.0000000E+00;  4.0000000E+04;  3.0759014E-02;  0.0000000E+00; -5.2636466E-04;  1.4550907E+03;
 -5.0000001E-02;  9.9999998E-03;  5.9999999E-02;1414;  0.0000000E+00;  0.0000000E+00;  0.0000000E+00;  1.0051760E+03;  1.0000000E-01;  4.2882739E+03;0;  0.0000000E+00;  0.0000000E+00;  0.0000000E+00;0;  3.0294755E-02;  4.0000000E+04;  0.0000000E+00;  0.0000000E+00;  4.0000000E+04;  0.0000000E+00;  4.0000000E+04;  3.0843139E-02;  0.0000000E+00; -5.4838252E-04;  1.3833954E+03;
 -3.9999999E-02;  9.9999998E-03; -1.0000000E-01;1489;  0.0000000E+00;  0.0000000E+00;  0.0000000E+00;  1.0071084E+03;  1.0000000E-01;  5.8892163E+03;0;  0.0000000E+00;  0.0000000E+00;  0.0000000E+00;0;  3.4801401E-02;  4.0000000E+04;  0.0000000E+00;  0.0000000E+00;  4.0000000E+04;  0.0000000E+00;  4.0000000E+04;  3.5527721E-02;  0.0000000E+00; -7.2632037E-04;  1.4524266E+03;
 -3.9999999E-02;  9.9999998E-03; -9.0000004E-02;1490;  0.0000000E+00;  0.0000000E+00;  0.0000000E+00;  1.0070771E+03;  1.0000000E-01;  5.8632417E+03;0;  0.0000000E+00;  0.0000000E+00;  0.0000000E+00;0;  3.4788013E-02;  4.0000000E+04;  0.0000000E+00;  0.0000000E+00;  4.0000000E+04;  0.0000000E+00;  4.0000000E+04;  3.5539500E-02;  0.0000000E+00; -7.5148803E-04;  1.4562037E+03;
 -3.9999999E-02;  9.9999998E-03; -7.9999998E-02;1491;  0.0000000E+00;  0.0000000E+00;  0.0000000E+00;  1.0070329E+03;  1.0000000E-01;  5.8266006E+03;0;  0.0000000E+00;  0.0000000E+00;  0.0000000E+00;0;  3.4758434E-02;  4.0000000E+04;  0.0000000E+00;  0.0000000E+00;  4.0000000E+04;  0.0000000E+00;  4.0000000E+04;  3.5524569E-02;  0.0000000E+00; -7.6613581E-04;  1.4862666E+03;
 -3.9999999E-02;  9.9999998E-03; -7.0000000E-02;1492;  0.0000000E+00;  0.0000000E+00;  0.0000000E+00;  1.0069842E+03;  1.0000000E-01;  5.7863057E+03;0;  0.0000000E+00;  0.0000000E+00;  0.0000000E+00;0;  3.4711391E-02;  4.0000000E+04;  0.0000000E+00;  0.0000000E+00;  4.0000000E+04;  0.0000000E+00;  4.0000000E+04;  3.5478238E-02;  0.0000000E+00; -7.6684542E-04;  1.5412760E+03;
 -3.9999999E-02;  9.9999998E-03; -5.9999999E-02;1493;  0.0000000E+00;  0.0000000E+00;  0.0000000E+00;  1.0069315E+03;  1.0000000E-01;  5.7426523E+03;0;  0.0000000E+00;  0.0000000E+00;  0.0000000E+00;0;  3.4648757E-02;  4.0000000E+04;  0.0000000E+00;  0.0000000E+00;  4.0000000E+04;  0.0000000E+00;  4.0000000E+04;  3.5401795E-02;  0.0000000E+00; -7.5303746E-04;  1.6170245E+03;
 -3.9999999E-02;  9.9999998E-03; -5.0000001E-02;1494;  0.0000000E+00;  0.0000000E+00;  0.0000000E+00;  1.0068811E+03;  1.0000000E-01;  5.7008760E+03;0;  0.0000000E+00;  0.0000000E+00;  0.0000000E+00;0;  3.4575481E-02;  4.0000000E+04;  0.0000000E+00;  0.0000000E+00;  4.0000000E+04;  0.0000000E+00;  4.0000000E+04;  3.5302375E-02;  0.0000000E+00; -7.2689535E-04;  1.7064368E+03;
 -3.9999999E-02;  9.9999998E-03; -3.9999999E-02;1495;  0.0000000E+00;  0.0000000E+00;  0.0000000E+00;  1.0068386E+03;  1.0000000E-01;  5.6656177E+03;0;  0.0000000E+00;  0.0000000E+00;  0.0000000E+00;0;  3.4498956E-02;  4.0000000E+04;  0.0000000E+00;  0.0000000E+00;  4.0000000E+04;  0.0000000E+00;  4.0000000E+04;  3.5191856E-02;  0.0000000E+00; -6.9290044E-04;  1.8001693E+03;
 -3.9999999E-02;  9.9999998E-03; -2.9999999E-02;1496;  0.0000000E+00;  0.0000000E+00;  0.0000000E+00;  1.0068022E+03;  1.0000000E-01;  5.6354951E+03;0;  0.0000000E+00;  0.0000000E+00;  0.0000000E+00;0;  3.4427613E-02;  4.0000000E+04;  0.0000000E+00;  0.0000000E+00;  4.0000000E+04;  0.0000000E+00;  4.0000000E+04;  3.5084609E-02;  0.0000000E+00; -6.5699493E-04;  1.8878062E+03;
 -3.9999999E-02;  9.9999998E-03; -2.0000000E-02;1497;  0.0000000E+00;  0.0000000E+00;  0.0000000E+00;  1.0067769E+03;  1.0000000E-01;  5.6145571E+03;0;  0.0000000E+00;  0.0000000E+00;  0.0000000E+00;0;  3.4369718E-02;  4.0000000E+04;  0.0000000E+00;  0.0000000E+00;  4.0000000E+04;  0.0000000E+00;  4.0000000E+04;  3.4995236E-02;  0.0000000E+00; -6.2551710E-04;  1.9591716E+03;
 -3.9999999E-02;  9.9999998E-03; -9.9999998E-03;1498;  0.0000000E+00;  0.0000000E+00;  0.0000000E+00;  1.0067609E+03;  1.0000000E-01;  5.6013232E+03;0;  0.0000000E+00;  0.0000000E+00;  0.0000000E+00;0;  3.4332000E-02;  4.0000000E+04;  0.0000000E+00;  0.0000000E+00;  4.0000000E+04;  0.0000000E+00;  4.0000000E+04;  3.4936059E-02;  0.0000000E+00; -6.0405995E-04;  2.0057732E+03;
 -3.9999999E-02;  9.9999998E-03;  0.0000000E+00;1499;  0.0000000E+00;  0.0000000E+00;  0.0000000E+00;  1.0067562E+03;  1.0000000E-01;  5.5973726E+03;0;  0.0000000E+00;  0.0000000E+00;  0.0000000E+00;0;  3.4318939E-02;  4.0000000E+04;  0.0000000E+00;  0.0000000E+00;  4.0000000E+04;  0.0000000E+00;  4.0000000E+04;  3.4915391E-02;  0.0000000E+00; -5.9645373E-04;  2.0219514E+03;
 -3.9999999E-02;  9.9999998E-03;  9.9999998E-03;1500;  0.0000000E+00;  0.0000000E+00;  0.0000000E+00;  1.0067609E+03;  1.0000000E-01;  5.6013232E+03;0;  0.0000000E+00;  0.0000000E+00;  0.0000000E+00;0;  3.4332018E-02;  4.0000000E+04;  0.0000000E+00;  0.0000000E+00;  4.0000000E+04;  0.0000000E+00;  4.0000000E+04;  3.4936078E-02;  0.0000000E+00; -6.0406106E-04;  2.0057734E+03;
 -3.9999999E-02;  9.9999998E-03;  2.0000000E-02;1501;  0.0000000E+00;  0.0000000E+00;  0.0000000E+00;  1.0067769E+03;  1.0000000E-01;  5.6145571E+03;0;  0.0000000E+00;  0.0000000E+00;  0.0000000E+00;0;  3.4369722E-02;  4.0000000E+04;  0.0000000E+00;  0.0000000E+00;  4.0000000E+04;  0.0000000E+00;  4.0000000E+04;  3.4995243E-02;  0.0000000E+00; -6.2551972E-04;  1.9591750E+03;
 -3.9999999E-02;  9.9999998E-03;  2.9999999E-02;1502;  0.0000000E+00;  0.0000000E+00;  0.0000000E+00;  1.0068022E+03;  1.0000000E-01;  5.6354951E+03;0;  0.0000000E+00;  0.0000000E+00;  0.0000000E+00;0;  3.4427639E-02;  4.0000000E+04;  0.0000000E+00;  0.0000000E+00;  4.0000000E+04;  0.0000000E+00;  4.0000000E+04;  3.5084639E-02;  0.0000000E+00; -6.5699907E-04;  1.8878121E+03;
 -3.9999999E-02;  9.9999998E-03;  3.9999999E-02;1503;  0.0000000E+00;  0.0000000E+00;  0.0000000E+00;  1.0068386E+03;  1.0000000E-01;  5.6656177E+03;0;  0.0000000E+00;  0.0000000E+00;  0.0000000E+00;0;  3.4498964E-02;  4.0000000E+04;  0.0000000E+00;  0.0000000E+00;  4.0000000E+04;  0.0000000E+00;  4.0000000E+04;  3.5191868E-02;  0.0000000E+00; -6.9290469E-04;  1.8001781E+03;
 -3.9999999E-02;  9.9999998E-03;  5.0000001E-02;1504;  0.0000000E+00;  0.0000000E+00;  0.0000000E+00;  1.0068811E+03;  1.0000000E-01;  5.7008760E+03;0;  0.0000000E+00;  0.0000000E+00;  0.0000000E+00;0;  3.4575474E-02;  4.0000000E+04;  0.0000000E+00;  0.0000000E+00;  4.0000000E+04;  0.0000000E+00;  4.0000000E+04;  3.5302375E-02;  0.0000000E+00; -7.2690047E-04;  1.7064413E+03;
 -3.9999999E-02;  9.9999998E-03;  5.9999999E-02;1505;  0.0000000E+00;  0.0000000E+00;  0.0000000E+00;  1.0069315E+03;  1.0000000E-01;  5.7426523E+03;0;  0.0000000E+00;  0.0000000E+00;  0.0000000E+00;0;  3.4648772E-02;  4.0000000E+04;  0.0000000E+00;  0.0000000E+00;  4.0000000E+04;  0.0000000E+00;  4.0000000E+04;  3.5401814E-02;  0.0000000E+00; -7.5304124E-04;  1.6170315E+03;
 -2.9999999E-02;  9.9999998E-03; -1.0000000E-01;1580;  0.0000000E+00;  0.0000000E+00;  0.0000000E+00;  1.0091340E+03;  1.0000000E-01;  7.5672920E+03;0;  0.0000000E+00;  0.0000000E+00;  0.0000000E+00;0;  3.7990056E-02;  4.0000000E+04;  0.0000000E+00;  0.0000000E+00;  4.0000000E+04;  0.0000000E+00;  4.0000000E+04;  3.8943022E-02;  0.0000000E+00; -9.5296674E-04;  1.6114772E+03;
 -2.9999999E-02;  9.9999998E-03; -9.0000004E-02;1581;  0.0000000E+00;  0.0000000E+00;  0.0000000E+00;  1.0090964E+03;  1.0000000E-01;  7.5361821E+03;0;  0.0000000E+00;  0.0000000E+00;  0.0000000E+00;0;  3.7991222E-02;  4.0000000E+04;  0.0000000E+00;  0.0000000E+00;  4.0000000E+04;  0.0000000E+00;  4.0000000E+04;  3.8976911E-02;  0.0000000E+00; -9.8568900E-04;  1.6123387E+03;
 -2.9999999E-02;  9.9999998E-03; -7.9999998E-02;1582;  0.0000000E+00;  0.0000000E+00;  0.0000000E+00;  1.0090414E+03;  1.0000000E-01;  7.4906523E+03;0;  0.0000000E+00;  0.0000000E+00;  0.0000000E+00;0;  3.7971858E-02;  4.0000000E+04;  0.0000000E+00;  0.0000000E+00;  4.0000000E+04;  0.0000000E+00;  4.0000000E+04;  3.8977612E-02;  0.0000000E+00; -1.0057543E-03;  1.6448073E+03;
 -2.9999999E-02;  9.9999998E-03; -7.0000000E-02;1583;  0.0000000E+00;  0.0000000E+00;  0.0000000E+00;  1.0089755E+03;  1.0000000E-01;  7.4360366E+03;0;  0.0000000E+00;  0.0000000E+00;  0.0000000E+00;0;  3.7929520E-02;  4.0000000E+04;  0.0000000E+00;  0.0000000E+00;  4.0000000E+04;  0.0000000E+00;  4.0000000E+04;  3.8938567E-02;  0.0000000E+00; -1.0090458E-03;  1.7079427E+03;
 -2.9999999E-02;  9.9999998E-03; -5.9999999E-02;1584;  0.0000000E+00;  0.0000000E+00;  0.0000000E+00;  1.0089091E+03;  1.0000000E-01;  7.3810259E+03;0;  0.0000000E+00;  0.0000000E+00;  0.0000000E+00;0;  3.7865989E-02;  4.0000000E+04;  0.0000000E+00;  0.0000000E+00;  4.0000000E+04;  0.0000000E+00;  4.0000000E+04;  3.8860738E-02;  0.0000000E+00; -9.9475041E-04;  1.7971260E+03;
 -2.9999999E-02;  9.9999998E-03; -5.0000001E-02;1585;  0.0000000E+00;  0.0000000E+00;  0.0000000E+00;  1.0088478E+03;  1.0000000E-01;  7.3302617E+03;0;  0.0000000E+00;  0.0000000E+00;  0.0000000E+00;0;  3.7787218E-02;  4.0000000E+04;  0.0000000E+00;  0.0000000E+00;  4.0000000E+04;  0.0000000E+00;  4.0000000E+04;  3.8752567E-02;  0.0000000E+00; -9.6534955E-04;  1.9040074E+03;
 -2.9999999E-02;  9.9999998E-03; -3.9999999E-02;1586;  0.0000000E+00;  0.0000000E+00;  0.0000000E+00;  1.0087939E+03;  1.0000000E-01;  7.2856211E+03;0;  0.0000000E+00;  0.0000000E+00;  0.0000000E+00;0;  3.7702046E-02;  4.0000000E+04;  0.0000000E+00;  0.0000000E+00;  4.0000000E+04;  0.0000000E+00;  4.0000000E+04;  3.8628157E-02;  0.0000000E+00; -9.2611200E-04;  2.0171935E+03;
 -2.9999999E-02;  9.9999998E-03; -2.9999999E-02;1587;  0.0000000E+00;  0.0000000E+00;  0.0000000E+00;  1.0087505E+03;  1.0000000E-01;  7.2495728E+03;0;  0.0000000E+00;  0.0000000E+00;  0.0000000E+00;0;  3.7621081E-02;  4.0000000E+04;  0.0000000E+00;  0.0000000E+00;  4.0000000E+04;  0.0000000E+00;  4.0000000E+04;  3.8505219E-02;  0.0000000E+00; -8.8413910E-04;  2.1237488E+03;
 -2.9999999E-02;  9.9999998E-03; -2.0000000E-02;1588;  0.0000000E+00;  0.0000000E+00;  0.0000000E+00;  1.0087186E+03;  1.0000000E-01;  7.2232031E+03;0;  0.0000000E+00;  0.0000000E+00;  0.0000000E+00;0;  3.7554488E-02;  4.0000000E+04;  0.0000000E+00;  0.0000000E+00;  4.0000000E+04;  0.0000000E+00;  4.0000000E+04;  3.8401563E-02;  0.0000000E+00; -8.4707380E-04;  2.2109172E+03;
 -2.9999999E-02;  9.9999998E-03; -9.9999998E-03;1589;  0.0000000E+00;  0.0000000E+00;  0.0000000E+00;  1.0086998E+03;  1.0000000E-01;  7.2075986E+03;0;  0.0000000E+00;  0.0000000E+00;  0.0000000E+00;0;  3.7510768E-02;  4.0000000E+04;  0.0000000E+00;  0.0000000E+00;  4.0000000E+04;  0.0000000E+00;  4.0000000E+04;  3.8332473E-02;  0.0000000E+00; -8.2170434E-04;  2.2680078E+03;
 -2.9999999E-02;  9.9999998E-03;  0.0000000E+00;1590;  0.0000000E+00;  0.0000000E+00;  0.0000000E+00;  1.0086934E+03;  1.0000000E-01;  7.2022656E+03;0;  0.0000000E+00;  0.0000000E+00;  0.0000000E+00;0;  3.7495587E-02;  4.0000000E+04;  0.0000000E+00;  0.0000000E+00;  4.0000000E+04;  0.0000000E+00;  4.0000000E+04;  3.8308281E-02;  0.0000000E+00; -8.1269472E-04;  2.2878608E+03;
 -2.9999999E-02;  9.9999998E-03;  9.9999998E-03;1591;  0.0000000E+00;  0.0000000E+00;  0.0000000E+00;  1.0086998E+03;  1.0000000E-01;  7.2075986E+03;0;  0.0000000E+00;  0.0000000E+00;  0.0000000E+00;0;  3.7510782E-02;  4.0000000E+04;  0.0000000E+00;  0.0000000E+00;  4.0000000E+04;  0.0000000E+00;  4.0000000E+04;  3.8332488E-02;  0.0000000E+00; -8.2170637E-04;  2.2680090E+03;
 -2.9999999E-02;  9.9999998E-03;  2.0000000E-02;1592;  0.0000000E+00;  0.0000000E+00;  0.0000000E+00;  1.0087186E+03;  1.0000000E-01;  7.2232031E+03;0;  0.0000000E+00;  0.0000000E+00;  0.0000000E+00;0;  3.7554499E-02;  4.0000000E+04;  0.0000000E+00;  0.0000000E+00;  4.0000000E+04;  0.0000000E+00;  4.0000000E+04;  3.8401578E-02;  0.0000000E+00; -8.4707752E-04;  2.2109216E+03;
 -2.9999999E-02;  9.9999998E-03;  2.9999999E-02;1593;  0.0000000E+00;  0.0000000E+00;  0.0000000E+00;  1.0087505E+03;  1.0000000E-01;  7.2495728E+03;0;  0.0000000E+00;  0.0000000E+00;  0.0000000E+00;0;  3.7621081E-02;  4.0000000E+04;  0.0000000E+00;  0.0000000E+00;  4.0000000E+04;  0.0000000E+00;  4.0000000E+04;  3.8505226E-02;  0.0000000E+00; -8.8414364E-04;  2.1237549E+03;
 -2.9999999E-02;  9.9999998E-03;  3.9999999E-02;1594;  0.0000000E+00;  0.0000000E+00;  0.0000000E+00;  1.0087939E+03;  1.0000000E-01;  7.2856211E+03;0;  0.0000000E+00;  0.0000000E+00;  0.0000000E+00;0;  3.7702039E-02;  4.0000000E+04;  0.0000000E+00;  0.0000000E+00;  4.0000000E+04;  0.0000000E+00;  4.0000000E+04;  3.8628157E-02;  0.0000000E+00; -9.2611759E-04;  2.0172001E+03;
 -2.9999999E-02;  9.9999998E-03;  5.0000001E-02;1595;  0.0000000E+00;  0.0000000E+00;  0.0000000E+00;  1.0088478E+03;  1.0000000E-01;  7.3302617E+03;0;  0.0000000E+00;  0.0000000E+00;  0.0000000E+00;0;  3.7787206E-02;  4.0000000E+04;  0.0000000E+00;  0.0000000E+00;  4.0000000E+04;  0.0000000E+00;  4.0000000E+04;  3.8752563E-02;  0.0000000E+00; -9.6535601E-04;  1.9040194E+03;
 -2.9999999E-02;  9.9999998E-03;  5.9999999E-02;1596;  0.0000000E+00;  0.0000000E+00;  0.0000000E+00;  1.0089091E+03;  1.0000000E-01;  7.3810259E+03;0;  0.0000000E+00;  0.0000000E+00;  0.0000000E+00;0;  3.7865970E-02;  4.0000000E+04;  0.0000000E+00;  0.0000000E+00;  4.0000000E+04;  0.0000000E+00;  4.0000000E+04;  3.8860727E-02;  0.0000000E+00; -9.9475530E-04;  1.7971287E+03;
 -2.0000000E-02;  9.9999998E-03; -1.0000000E-01;1671;  0.0000000E+00;  0.0000000E+00;  0.0000000E+00;  1.0112991E+03;  1.0000000E-01;  9.3610195E+03;0;  0.0000000E+00;  0.0000000E+00;  0.0000000E+00;0;  3.9603990E-02;  4.0000000E+04;  0.0000000E+00;  0.0000000E+00;  4.0000000E+04;  0.0000000E+00;  4.0000000E+04;  4.0806629E-02;  0.0000000E+00; -1.2026406E-03;  1.6983142E+03;
 -2.0000000E-02;  9.9999998E-03; -9.0000004E-02;1672;  0.0000000E+00;  0.0000000E+00;  0.0000000E+00;  1.0112470E+03;  1.0000000E-01;  9.3179590E+03;0;  0.0000000E+00;  0.0000000E+00;  0.0000000E+00;0;  3.9639007E-02;  4.0000000E+04;  0.0000000E+00;  0.0000000E+00;  4.0000000E+04;  0.0000000E+00;  4.0000000E+04;  4.0884133E-02;  0.0000000E+00; -1.2451268E-03;  1.6930007E+03;
 -2.0000000E-02;  9.9999998E-03; -7.9999998E-02;1673;  0.0000000E+00;  0.0000000E+00;  0.0000000E+00;  1.0111748E+03;  1.0000000E-01;  9.2581084E+03;0;  0.0000000E+00;  0.0000000E+00;  0.0000000E+00;0;  3.9647169E-02;  4.0000000E+04;  0.0000000E+00;  0.0000000E+00;  4.0000000E+04;  0.0000000E+00;  4.0000000E+04;  4.0919784E-02;  0.0000000E+00; -1.2726162E-03;  1.7243071E+03;
 -2.0000000E-02;  9.9999998E-03; -7.0000000E-02;1674;  0.0000000E+00;  0.0000000E+00;  0.0000000E+00;  1.0110942E+03;  1.0000000E-01;  9.1913447E+03;0;  0.0000000E+00;  0.0000000E+00;  0.0000000E+00;0;  3.9624400E-02;  4.0000000E+04;  0.0000000E+00;  0.0000000E+00;  4.0000000E+04;  0.0000000E+00;  4.0000000E+04;  4.0904805E-02;  0.0000000E+00; -1.2804037E-03;  1.7921816E+03;
 -2.0000000E-02;  9.9999998E-03; -5.9999999E-02;1675;  0.0000000E+00;  0.0000000E+00;  0.0000000E+00;  1.0110131E+03;  1.0000000E-01;  9.1240879E+03;0;  0.0000000E+00;  0.0000000E+00;  0.0000000E+00;0;  3.9572697E-02;  4.0000000E+04;  0.0000000E+00;  0.0000000E+00;  4.0000000E+04;  0.0000000E+00;  4.0000000E+04;  4.0840164E-02;  0.0000000E+00; -1.2674670E-03;  1.8920254E+03;
 -2.0000000E-02;  9.9999998E-03; -5.0000001E-02;1676;  0.0000000E+00;  0.0000000E+00;  0.0000000E+00;  1.0109390E+03;  1.0000000E-01;  9.0627559E+03;0;  0.0000000E+00;  0.0000000E+00;  0.0000000E+00;0;  3.9498985E-02;  4.0000000E+04;  0.0000000E+00;  0.0000000E+00;  4.0000000E+04;  0.0000000E+00;  4.0000000E+04;  4.0735517E-02;  0.0000000E+00; -1.2365320E-03;  2.0143976E+03;
 -2.0000000E-02;  9.9999998E-03; -3.9999999E-02;1677;  0.0000000E+00;  0.0000000E+00;  0.0000000E+00;  1.0108732E+03;  1.0000000E-01;  9.0082393E+03;0;  0.0000000E+00;  0.0000000E+00;  0.0000000E+00;0;  3.9413840E-02;  4.0000000E+04;  0.0000000E+00;  0.0000000E+00;  4.0000000E+04;  0.0000000E+00;  4.0000000E+04;  4.0607419E-02;  0.0000000E+00; -1.1935802E-03;  2.1458657E+03;
 -2.0000000E-02;  9.9999998E-03; -2.9999999E-02;1678;  0.0000000E+00;  0.0000000E+00;  0.0000000E+00;  1.0108224E+03;  1.0000000E-01;  8.9661660E+03;0;  0.0000000E+00;  0.0000000E+00;  0.0000000E+00;0;  3.9329764E-02;  4.0000000E+04;  0.0000000E+00;  0.0000000E+00;  4.0000000E+04;  0.0000000E+00;  4.0000000E+04;  4.0476542E-02;  0.0000000E+00; -1.1467772E-03;  2.2708306E+03;
 -2.0000000E-02;  9.9999998E-03; -2.0000000E-02;1679;  0.0000000E+00;  0.0000000E+00;  0.0000000E+00;  1.0107839E+03;  1.0000000E-01;  8.9342656E+03;0;  0.0000000E+00;  0.0000000E+00;  0.0000000E+00;0;  3.9259121E-02;  4.0000000E+04;  0.0000000E+00;  0.0000000E+00;  4.0000000E+04;  0.0000000E+00;  4.0000000E+04;  4.0364135E-02;  0.0000000E+00; -1.1050159E-03;  2.3737026E+03;
 -2.0000000E-02;  9.9999998E-03; -9.9999998E-03;1680;  0.0000000E+00;  0.0000000E+00;  0.0000000E+00;  1.0107619E+03;  1.0000000E-01;  8.9159951E+03;0;  0.0000000E+00;  0.0000000E+00;  0.0000000E+00;0;  3.9212108E-02;  4.0000000E+04;  0.0000000E+00;  0.0000000E+00;  4.0000000E+04;  0.0000000E+00;  4.0000000E+04;  4.0288370E-02;  0.0000000E+00; -1.0762621E-03;  2.4413315E+03;
 -2.0000000E-02;  9.9999998E-03;  0.0000000E+00;1681;  0.0000000E+00;  0.0000000E+00;  0.0000000E+00;  1.0107542E+03;  1.0000000E-01;  8.9096738E+03;0;  0.0000000E+00;  0.0000000E+00;  0.0000000E+00;0;  3.9195675E-02;  4.0000000E+04;  0.0000000E+00;  0.0000000E+00;  4.0000000E+04;  0.0000000E+00;  4.0000000E+04;  4.0261701E-02;  0.0000000E+00; -1.0660236E-03;  2.4648958E+03;
 -2.0000000E-02;  9.9999998E-03;  9.9999998E-03;1682;  0.0000000E+00;  0.0000000E+00;  0.0000000E+00;  1.0107619E+03;  1.0000000E-01;  8.9159951E+03;0;  0.0000000E+00;  0.0000000E+00;  0.0000000E+00;0;  3.9212123E-02;  4.0000000E+04;  0.0000000E+00;  0.0000000E+00;  4.0000000E+04;  0.0000000E+00;  4.0000000E+04;  4.0288385E-02;  0.0000000E+00; -1.0762633E-03;  2.4413340E+03;
 -2.0000000E-02;  9.9999998E-03;  2.0000000E-02;1683;  0.0000000E+00;  0.0000000E+00;  0.0000000E+00;  1.0107839E+03;  1.0000000E-01;  8.9342656E+03;0;  0.0000000E+00;  0.0000000E+00;  0.0000000E+00;0;  3.9259110E-02;  4.0000000E+04;  0.0000000E+00;  0.0000000E+00;  4.0000000E+04;  0.0000000E+00;  4.0000000E+04;  4.0364131E-02;  0.0000000E+00; -1.1050202E-03;  2.3737078E+03;
 -2.0000000E-02;  9.9999998E-03;  2.9999999E-02;1684;  0.0000000E+00;  0.0000000E+00;  0.0000000E+00;  1.0108223E+03;  1.0000000E-01;  8.9660674E+03;0;  0.0000000E+00;  0.0000000E+00;  0.0000000E+00;0;  3.9329793E-02;  4.0000000E+04;  0.0000000E+00;  0.0000000E+00;  4.0000000E+04;  0.0000000E+00;  4.0000000E+04;  4.0476575E-02;  0.0000000E+00; -1.1467827E-03;  2.2708408E+03;
 -2.0000000E-02;  9.9999998E-03;  3.9999999E-02;1685;  0.0000000E+00;  0.0000000E+00;  0.0000000E+00;  1.0108731E+03;  1.0000000E-01;  9.0081406E+03;0;  0.0000000E+00;  0.0000000E+00;  0.0000000E+00;0;  3.9413858E-02;  4.0000000E+04;  0.0000000E+00;  0.0000000E+00;  4.0000000E+04;  0.0000000E+00;  4.0000000E+04;  4.0607445E-02;  0.0000000E+00; -1.1935873E-03;  2.1458713E+03;
 -2.0000000E-02;  9.9999998E-03;  5.0000001E-02;1686;  0.0000000E+00;  0.0000000E+00;  0.0000000E+00;  1.0109390E+03;  1.0000000E-01;  9.0627559E+03;0;  0.0000000E+00;  0.0000000E+00;  0.0000000E+00;0;  3.9498966E-02;  4.0000000E+04;  0.0000000E+00;  0.0000000E+00;  4.0000000E+04;  0.0000000E+00;  4.0000000E+04;  4.0735506E-02;  0.0000000E+00; -1.2365404E-03;  2.0144038E+03;
 -2.0000000E-02;  9.9999998E-03;  5.9999999E-02;1687;  0.0000000E+00;  0.0000000E+00;  0.0000000E+00;  1.0110131E+03;  1.0000000E-01;  9.1240879E+03;0;  0.0000000E+00;  0.0000000E+00;  0.0000000E+00;0;  3.9572719E-02;  4.0000000E+04;  0.0000000E+00;  0.0000000E+00;  4.0000000E+04;  0.0000000E+00;  4.0000000E+04;  4.0840194E-02;  0.0000000E+00; -1.2674727E-03;  1.8920327E+03;
 -9.9999998E-03;  9.9999998E-03; -1.0000000E-01;1762;  0.0000000E+00;  0.0000000E+00;  0.0000000E+00;  1.0134760E+03;  1.0000000E-01;  1.1164622E+04;0;  0.0000000E+00;  0.0000000E+00;  0.0000000E+00;0;  3.9427787E-02;  4.0000000E+04;  0.0000000E+00;  0.0000000E+00;  4.0000000E+04;  0.0000000E+00;  4.0000000E+04;  4.0891111E-02;  0.0000000E+00; -1.4633244E-03;  1.6935316E+03;
 -9.9999998E-03;  9.9999998E-03; -9.0000004E-02;1763;  0.0000000E+00;  0.0000000E+00;  0.0000000E+00;  1.0134057E+03;  1.0000000E-01;  1.1106353E+04;0;  0.0000000E+00;  0.0000000E+00;  0.0000000E+00;0;  3.9520837E-02;  4.0000000E+04;  0.0000000E+00;  0.0000000E+00;  4.0000000E+04;  0.0000000E+00;  4.0000000E+04;  4.1038636E-02;  0.0000000E+00; -1.5177991E-03;  1.6778507E+03;
 -9.9999998E-03;  9.9999998E-03; -7.9999998E-02;1764;  0.0000000E+00;  0.0000000E+00;  0.0000000E+00;  1.0133168E+03;  1.0000000E-01;  1.1032774E+04;0;  0.0000000E+00;  0.0000000E+00;  0.0000000E+00;0;  3.9578725E-02;  4.0000000E+04;  0.0000000E+00;  0.0000000E+00;  4.0000000E+04;  0.0000000E+00;  4.0000000E+04;  4.1133635E-02;  0.0000000E+00; -1.5549111E-03;  1.7026586E+03;
 -9.9999998E-03;  9.9999998E-03; -7.0000000E-02;1765;  0.0000000E+00;  0.0000000E+00;  0.0000000E+00;  1.0132163E+03;  1.0000000E-01;  1.0949419E+04;0;  0.0000000E+00;  0.0000000E+00;  0.0000000E+00;0;  3.9595682E-02;  4.0000000E+04;  0.0000000E+00;  0.0000000E+00;  4.0000000E+04;  0.0000000E+00;  4.0000000E+04;  4.1165248E-02;  0.0000000E+00; -1.5695656E-03;  1.7697247E+03;
 -9.9999998E-03;  9.9999998E-03; -5.9999999E-02;1766;  0.0000000E+00;  0.0000000E+00;  0.0000000E+00;  1.0131182E+03;  1.0000000E-01;  1.0868235E+04;0;  0.0000000E+00;  0.0000000E+00;  0.0000000E+00;0;  3.9573312E-02;  4.0000000E+04;  0.0000000E+00;  0.0000000E+00;  4.0000000E+04;  0.0000000E+00;  4.0000000E+04;  4.1133903E-02;  0.0000000E+00; -1.5605928E-03;  1.8751187E+03;
 -9.9999998E-03;  9.9999998E-03; -5.0000001E-02;1767;  0.0000000E+00;  0.0000000E+00;  0.0000000E+00;  1.0130271E+03;  1.0000000E-01;  1.0792683E+04;0;  0.0000000E+00;  0.0000000E+00;  0.0000000E+00;0;  3.9519638E-02;  4.0000000E+04;  0.0000000E+00;  0.0000000E+00;  4.0000000E+04;  0.0000000E+00;  4.0000000E+04;  4.1050527E-02;  0.0000000E+00; -1.5308890E-03;  2.0087449E+03;
 -9.9999998E-03;  9.9999998E-03; -3.9999999E-02;1768;  0.0000000E+00;  0.0000000E+00;  0.0000000E+00;  1.0129524E+03;  1.0000000E-01;  1.0730857E+04;0;  0.0000000E+00;  0.0000000E+00;  0.0000000E+00;0;  3.9447259E-02;  4.0000000E+04;  0.0000000E+00;  0.0000000E+00;  4.0000000E+04;  0.0000000E+00;  4.0000000E+04;  4.0934220E-02;  0.0000000E+00; -1.4869610E-03;  2.1553352E+03;
 -9.9999998E-03;  9.9999998E-03; -2.9999999E-02;1769;  0.0000000E+00;  0.0000000E+00;  0.0000000E+00;  1.0128940E+03;  1.0000000E-01;  1.0682463E+04;0;  0.0000000E+00;  0.0000000E+00;  0.0000000E+00;0;  3.9370451E-02;  4.0000000E+04;  0.0000000E+00;  0.0000000E+00;  4.0000000E+04;  0.0000000E+00;  4.0000000E+04;  4.0808264E-02;  0.0000000E+00; -1.4378135E-03;  2.2965679E+03;
 -9.9999998E-03;  9.9999998E-03; -2.0000000E-02;1770;  0.0000000E+00;  0.0000000E+00;  0.0000000E+00;  1.0128499E+03;  1.0000000E-01;  1.0645822E+04;0;  0.0000000E+00;  0.0000000E+00;  0.0000000E+00;0;  3.9303478E-02;  4.0000000E+04;  0.0000000E+00;  0.0000000E+00;  4.0000000E+04;  0.0000000E+00;  4.0000000E+04;  4.0696818E-02;  0.0000000E+00; -1.3933404E-03;  2.4138606E+03;
 -9.9999998E-03;  9.9999998E-03; -9.9999998E-03;1771;  0.0000000E+00;  0.0000000E+00;  0.0000000E+00;  1.0128235E+03;  1.0000000E-01;  1.0623996E+04;0;  0.0000000E+00;  0.0000000E+00;  0.0000000E+00;0;  3.9258070E-02;  4.0000000E+04;  0.0000000E+00;  0.0000000E+00;  4.0000000E+04;  0.0000000E+00;  4.0000000E+04;  4.0620543E-02;  0.0000000E+00; -1.3624732E-03;  2.4913799E+03;
 -9.9999998E-03;  9.9999998E-03;  0.0000000E+00;1772;  0.0000000E+00;  0.0000000E+00;  0.0000000E+00;  1.0128156E+03;  1.0000000E-01;  1.0617478E+04;0;  0.0000000E+00;  0.0000000E+00;  0.0000000E+00;0;  3.9241962E-02;  4.0000000E+04;  0.0000000E+00;  0.0000000E+00;  4.0000000E+04;  0.0000000E+00;  4.0000000E+04;  4.0593404E-02;  0.0000000E+00; -1.3514407E-03;  2.5184639E+03;
 -9.9999998E-03;  9.9999998E-03;  9.9999998E-03;1773;  0.0000000E+00;  0.0000000E+00;  0.0000000E+00;  1.0128234E+03;  1.0000000E-01;  1.0623996E+04;0;  0.0000000E+00;  0.0000000E+00;  0.0000000E+00;0;  3.9258081E-02;  4.0000000E+04;  0.0000000E+00;  0.0000000E+00;  4.0000000E+04;  0.0000000E+00;  4.0000000E+04;  4.0620558E-02;  0.0000000E+00; -1.3624767E-03;  2.4913853E+03;
 -9.9999998E-03;  9.9999998E-03;  2.0000000E-02;1774;  0.0000000E+00;  0.0000000E+00;  0.0000000E+00;  1.0128499E+03;  1.0000000E-01;  1.0645822E+04;0;  0.0000000E+00;  0.0000000E+00;  0.0000000E+00;0;  3.9303444E-02;  4.0000000E+04;  0.0000000E+00;  0.0000000E+00;  4.0000000E+04;  0.0000000E+00;  4.0000000E+04;  4.0696789E-02;  0.0000000E+00; -1.3933452E-03;  2.4138696E+03;
 -9.9999998E-03;  9.9999998E-03;  2.9999999E-02;1775;  0.0000000E+00;  0.0000000E+00;  0.0000000E+00;  1.0128940E+03;  1.0000000E-01;  1.0682463E+04;0;  0.0000000E+00;  0.0000000E+00;  0.0000000E+00;0;  3.9370462E-02;  4.0000000E+04;  0.0000000E+00;  0.0000000E+00;  4.0000000E+04;  0.0000000E+00;  4.0000000E+04;  4.0808283E-02;  0.0000000E+00; -1.4378204E-03;  2.2965781E+03;
 -9.9999998E-03;  9.9999998E-03;  3.9999999E-02;1776;  0.0000000E+00;  0.0000000E+00;  0.0000000E+00;  1.0129524E+03;  1.0000000E-01;  1.0730857E+04;0;  0.0000000E+00;  0.0000000E+00;  0.0000000E+00;0;  3.9447229E-02;  4.0000000E+04;  0.0000000E+00;  0.0000000E+00;  4.0000000E+04;  0.0000000E+00;  4.0000000E+04;  4.0934198E-02;  0.0000000E+00; -1.4869680E-03;  2.1553459E+03;
 -9.9999998E-03;  9.9999998E-03;  5.0000001E-02;1777;  0.0000000E+00;  0.0000000E+00;  0.0000000E+00;  1.0130271E+03;  1.0000000E-01;  1.0792683E+04;0;  0.0000000E+00;  0.0000000E+00;  0.0000000E+00;0;  3.9519634E-02;  4.0000000E+04;  0.0000000E+00;  0.0000000E+00;  4.0000000E+04;  0.0000000E+00;  4.0000000E+04;  4.1050531E-02;  0.0000000E+00; -1.5308972E-03;  2.0087542E+03;
 -9.9999998E-03;  9.9999998E-03;  5.9999999E-02;1778;  0.0000000E+00;  0.0000000E+00;  0.0000000E+00;  1.0131182E+03;  1.0000000E-01;  1.0868235E+04;0;  0.0000000E+00;  0.0000000E+00;  0.0000000E+00;0;  3.9573260E-02;  4.0000000E+04;  0.0000000E+00;  0.0000000E+00;  4.0000000E+04;  0.0000000E+00;  4.0000000E+04;  4.1133858E-02;  0.0000000E+00; -1.5605998E-03;  1.8751298E+03;
 -1.9000000E-01;  9.9999998E-03;  7.0000000E-02;141;  0.0000000E+00;  0.0000000E+00;  0.0000000E+00;  1.0000000E+03;  1.0000000E-01;  0.0000000E+00;0;  0.0000000E+00;  0.0000000E+00;  0.0000000E+00;0;  0.0000000E+00;  4.0000000E+04;  0.0000000E+00;  0.0000000E+00;  4.0000000E+04;  0.0000000E+00;  4.0000000E+04;  0.0000000E+00;  0.0000000E+00;  0.0000000E+00;  0.0000000E+00;
 -1.9000000E-01;  9.9999998E-03;  7.9999998E-02;142;  0.0000000E+00;  0.0000000E+00;  0.0000000E+00;  1.0000000E+03;  1.0000000E-01;  0.0000000E+00;0;  0.0000000E+00;  0.0000000E+00;  0.0000000E+00;0;  0.0000000E+00;  4.0000000E+04;  0.0000000E+00;  0.0000000E+00;  4.0000000E+04;  0.0000000E+00;  4.0000000E+04;  0.0000000E+00;  0.0000000E+00;  0.0000000E+00;  0.0000000E+00;
 -1.9000000E-01;  9.9999998E-03;  9.0000004E-02;143;  0.0000000E+00;  0.0000000E+00;  0.0000000E+00;  1.0000000E+03;  1.0000000E-01;  0.0000000E+00;0;  0.0000000E+00;  0.0000000E+00;  0.0000000E+00;0;  0.0000000E+00;  4.0000000E+04;  0.0000000E+00;  0.0000000E+00;  4.0000000E+04;  0.0000000E+00;  4.0000000E+04;  0.0000000E+00;  0.0000000E+00;  0.0000000E+00;  0.0000000E+00;
 -1.9000000E-01;  9.9999998E-03;  1.0000000E-01;144;  0.0000000E+00;  0.0000000E+00;  0.0000000E+00;  1.0000000E+03;  1.0000000E-01;  0.0000000E+00;0;  0.0000000E+00;  0.0000000E+00;  0.0000000E+00;0;  0.0000000E+00;  4.0000000E+04;  0.0000000E+00;  0.0000000E+00;  4.0000000E+04;  0.0000000E+00;  4.0000000E+04;  0.0000000E+00;  0.0000000E+00;  0.0000000E+00;  0.0000000E+00;
 -1.9000000E-01;  9.9999998E-03;  1.1000000E-01;145;  0.0000000E+00;  0.0000000E+00;  0.0000000E+00;  1.0000000E+03;  1.0000000E-01;  0.0000000E+00;0;  0.0000000E+00;  0.0000000E+00;  0.0000000E+00;0;  0.0000000E+00;  4.0000000E+04;  0.0000000E+00;  0.0000000E+00;  4.0000000E+04;  0.0000000E+00;  4.0000000E+04;  0.0000000E+00;  0.0000000E+00;  0.0000000E+00;  0.0000000E+00;
 -1.9000000E-01;  9.9999998E-03;  1.2000000E-01;146;  0.0000000E+00;  0.0000000E+00;  0.0000000E+00;  1.0000000E+03;  1.0000000E-01;  0.0000000E+00;0;  0.0000000E+00;  0.0000000E+00;  0.0000000E+00;0;  0.0000000E+00;  4.0000000E+04;  0.0000000E+00;  0.0000000E+00;  4.0000000E+04;  0.0000000E+00;  4.0000000E+04;  0.0000000E+00;  0.0000000E+00;  0.0000000E+00;  0.0000000E+00;
 -1.9000000E-01;  9.9999998E-03;  1.3000000E-01;147;  0.0000000E+00;  0.0000000E+00;  0.0000000E+00;  1.0000000E+03;  1.0000000E-01;  0.0000000E+00;0;  0.0000000E+00;  0.0000000E+00;  0.0000000E+00;0;  0.0000000E+00;  4.0000000E+04;  0.0000000E+00;  0.0000000E+00;  4.0000000E+04;  0.0000000E+00;  4.0000000E+04;  0.0000000E+00;  0.0000000E+00;  0.0000000E+00;  0.0000000E+00;
 -1.9000000E-01;  9.9999998E-03;  1.4000000E-01;148;  0.0000000E+00;  0.0000000E+00;  0.0000000E+00;  1.0000000E+03;  1.0000000E-01;  0.0000000E+00;0;  0.0000000E+00;  0.0000000E+00;  0.0000000E+00;0;  0.0000000E+00;  4.0000000E+04;  0.0000000E+00;  0.0000000E+00;  4.0000000E+04;  0.0000000E+00;  4.0000000E+04;  0.0000000E+00;  0.0000000E+00;  0.0000000E+00;  0.0000000E+00;
 -1.9000000E-01;  9.9999998E-03;  1.5000001E-01;149;  0.0000000E+00;  0.0000000E+00;  0.0000000E+00;  1.0000000E+03;  1.0000000E-01;  0.0000000E+00;0;  0.0000000E+00;  0.0000000E+00;  0.0000000E+00;0;  0.0000000E+00;  4.0000000E+04;  0.0000000E+00;  0.0000000E+00;  4.0000000E+04;  0.0000000E+00;  4.0000000E+04;  0.0000000E+00;  0.0000000E+00;  0.0000000E+00;  0.0000000E+00;
 -1.9000000E-01;  9.9999998E-03;  1.6000000E-01;150;  0.0000000E+00;  0.0000000E+00;  0.0000000E+00;  1.0000000E+03;  1.0000000E-01;  0.0000000E+00;0;  0.0000000E+00;  0.0000000E+00;  0.0000000E+00;0;  0.0000000E+00;  4.0000000E+04;  0.0000000E+00;  0.0000000E+00;  4.0000000E+04;  0.0000000E+00;  4.0000000E+04;  0.0000000E+00;  0.0000000E+00;  0.0000000E+00;  0.0000000E+00;
 -1.9000000E-01;  9.9999998E-03;  1.7000000E-01;151;  0.0000000E+00;  0.0000000E+00;  0.0000000E+00;  1.0000000E+03;  1.0000000E-01;  0.0000000E+00;0;  0.0000000E+00;  0.0000000E+00;  0.0000000E+00;0;  0.0000000E+00;  4.0000000E+04;  0.0000000E+00;  0.0000000E+00;  4.0000000E+04;  0.0000000E+00;  4.0000000E+04;  0.0000000E+00;  0.0000000E+00;  0.0000000E+00;  0.0000000E+00;
 -1.9000000E-01;  9.9999998E-03;  1.8000001E-01;152;  0.0000000E+00;  0.0000000E+00;  0.0000000E+00;  1.0000000E+03;  1.0000000E-01;  0.0000000E+00;0;  0.0000000E+00;  0.0000000E+00;  0.0000000E+00;0;  0.0000000E+00;  4.0000000E+04;  0.0000000E+00;  0.0000000E+00;  4.0000000E+04;  0.0000000E+00;  4.0000000E+04;  0.0000000E+00;  0.0000000E+00;  0.0000000E+00;  0.0000000E+00;
 -1.9000000E-01;  9.9999998E-03;  1.9000000E-01;153;  0.0000000E+00;  0.0000000E+00;  0.0000000E+00;  1.0000000E+03;  1.0000000E-01;  0.0000000E+00;0;  0.0000000E+00;  0.0000000E+00;  0.0000000E+00;0;  0.0000000E+00;  4.0000000E+04;  0.0000000E+00;  0.0000000E+00;  4.0000000E+04;  0.0000000E+00;  4.0000000E+04;  0.0000000E+00;  0.0000000E+00;  0.0000000E+00;  0.0000000E+00;
 -1.9000000E-01;  9.9999998E-03;  2.0000000E-01;154;  0.0000000E+00;  0.0000000E+00;  0.0000000E+00;  1.0000000E+03;  1.0000000E-01;  0.0000000E+00;0;  0.0000000E+00;  0.0000000E+00;  0.0000000E+00;0;  0.0000000E+00;  4.0000000E+04;  0.0000000E+00;  0.0000000E+00;  4.0000000E+04;  0.0000000E+00;  4.0000000E+04;  0.0000000E+00;  0.0000000E+00;  0.0000000E+00;  0.0000000E+00;
 -1.9000000E-01;  9.9999998E-03;  2.0999999E-01;155;  0.0000000E+00;  0.0000000E+00;  0.0000000E+00;  1.0000000E+03;  1.0000000E-01;  0.0000000E+00;0;  0.0000000E+00;  0.0000000E+00;  0.0000000E+00;0;  0.0000000E+00;  4.0000000E+04;  0.0000000E+00;  0.0000000E+00;  4.0000000E+04;  0.0000000E+00;  4.0000000E+04;  0.0000000E+00;  0.0000000E+00;  0.0000000E+00;  0.0000000E+00;
 -1.9000000E-01;  9.9999998E-03;  2.2000000E-01;156;  0.0000000E+00;  0.0000000E+00;  0.0000000E+00;  1.0000000E+03;  1.0000000E-01;  0.0000000E+00;0;  0.0000000E+00;  0.0000000E+00;  0.0000000E+00;0;  0.0000000E+00;  4.0000000E+04;  0.0000000E+00;  0.0000000E+00;  4.0000000E+04;  0.0000000E+00;  4.0000000E+04;  0.0000000E+00;  0.0000000E+00;  0.0000000E+00;  0.0000000E+00;
 -1.9000000E-01;  9.9999998E-03;  2.3000000E-01;157;  0.0000000E+00;  0.0000000E+00;  0.0000000E+00;  1.0000000E+03;  1.0000000E-01;  0.0000000E+00;0;  0.0000000E+00;  0.0000000E+00;  0.0000000E+00;0;  0.0000000E+00;  4.0000000E+04;  0.0000000E+00;  0.0000000E+00;  4.0000000E+04;  0.0000000E+00;  4.0000000E+04;  0.0000000E+00;  0.0000000E+00;  0.0000000E+00;  0.0000000E+00;
 -1.8000001E-01;  9.9999998E-03;  7.0000000E-02;232;  0.0000000E+00;  0.0000000E+00;  0.0000000E+00;  1.0000000E+03;  1.0000000E-01;  0.0000000E+00;0;  0.0000000E+00;  0.0000000E+00;  0.0000000E+00;0;  0.0000000E+00;  4.0000000E+04;  0.0000000E+00;  0.0000000E+00;  4.0000000E+04;  0.0000000E+00;  4.0000000E+04;  0.0000000E+00;  0.0000000E+00;  0.0000000E+00;  0.0000000E+00;
 -1.8000001E-01;  9.9999998E-03;  7.9999998E-02;233;  0.0000000E+00;  0.0000000E+00;  0.0000000E+00;  1.0000000E+03;  1.0000000E-01;  0.0000000E+00;0;  0.0000000E+00;  0.0000000E+00;  0.0000000E+00;0;  0.0000000E+00;  4.0000000E+04;  0.0000000E+00;  0.0000000E+00;  4.0000000E+04;  0.0000000E+00;  4.0000000E+04;  0.0000000E+00;  0.0000000E+00;  0.0000000E+00;  0.0000000E+00;
 -1.8000001E-01;  9.9999998E-03;  9.0000004E-02;234;  0.0000000E+00;  0.0000000E+00;  0.0000000E+00;  1.0000000E+03;  1.0000000E-01;  0.0000000E+00;0;  0.0000000E+00;  0.0000000E+00;  0.0000000E+00;0;  0.0000000E+00;  4.0000000E+04;  0.0000000E+00;  0.0000000E+00;  4.0000000E+04;  0.0000000E+00;  4.0000000E+04;  0.0000000E+00;  0.0000000E+00;  0.0000000E+00;  0.0000000E+00;
 -1.8000001E-01;  9.9999998E-03;  1.0000000E-01;235;  0.0000000E+00;  0.0000000E+00;  0.0000000E+00;  1.0000000E+03;  1.0000000E-01;  0.0000000E+00;0;  0.0000000E+00;  0.0000000E+00;  0.0000000E+00;0;  0.0000000E+00;  4.0000000E+04;  0.0000000E+00;  0.0000000E+00;  4.0000000E+04;  0.0000000E+00;  4.0000000E+04;  0.0000000E+00;  0.0000000E+00;  0.0000000E+00;  0.0000000E+00;
 -1.8000001E-01;  9.9999998E-03;  1.1000000E-01;236;  0.0000000E+00;  0.0000000E+00;  0.0000000E+00;  1.0000000E+03;  1.0000000E-01;  0.0000000E+00;0;  0.0000000E+00;  0.0000000E+00;  0.0000000E+00;0;  0.0000000E+00;  4.0000000E+04;  0.0000000E+00;  0.0000000E+00;  4.0000000E+04;  0.0000000E+00;  4.0000000E+04;  0.0000000E+00;  0.0000000E+00;  0.0000000E+00;  0.0000000E+00;
 -1.8000001E-01;  9.9999998E-03;  1.2000000E-01;237;  0.0000000E+00;  0.0000000E+00;  0.0000000E+00;  1.0000000E+03;  1.0000000E-01;  0.0000000E+00;0;  0.0000000E+00;  0.0000000E+00;  0.0000000E+00;0;  0.0000000E+00;  4.0000000E+04;  0.0000000E+00;  0.0000000E+00;  4.0000000E+04;  0.0000000E+00;  4.0000000E+04;  0.0000000E+00;  0.0000000E+00;  0.0000000E+00;  0.0000000E+00;
 -1.8000001E-01;  9.9999998E-03;  1.3000000E-01;238;  0.0000000E+00;  0.0000000E+00;  0.0000000E+00;  1.0000000E+03;  1.0000000E-01;  0.0000000E+00;0;  0.0000000E+00;  0.0000000E+00;  0.0000000E+00;0;  0.0000000E+00;  4.0000000E+04;  0.0000000E+00;  0.0000000E+00;  4.0000000E+04;  0.0000000E+00;  4.0000000E+04;  0.0000000E+00;  0.0000000E+00;  0.0000000E+00;  0.0000000E+00;
 -1.8000001E-01;  9.9999998E-03;  1.4000000E-01;239;  0.0000000E+00;  0.0000000E+00;  0.0000000E+00;  1.0000000E+03;  1.0000000E-01;  0.0000000E+00;0;  0.0000000E+00;  0.0000000E+00;  0.0000000E+00;0;  0.0000000E+00;  4.0000000E+04;  0.0000000E+00;  0.0000000E+00;  4.0000000E+04;  0.0000000E+00;  4.0000000E+04;  0.0000000E+00;  0.0000000E+00;  0.0000000E+00;  0.0000000E+00;
 -1.8000001E-01;  9.9999998E-03;  1.5000001E-01;240;  0.0000000E+00;  0.0000000E+00;  0.0000000E+00;  1.0000000E+03;  1.0000000E-01;  0.0000000E+00;0;  0.0000000E+00;  0.0000000E+00;  0.0000000E+00;0;  0.0000000E+00;  4.0000000E+04;  0.0000000E+00;  0.0000000E+00;  4.0000000E+04;  0.0000000E+00;  4.0000000E+04;  0.0000000E+00;  0.0000000E+00;  0.0000000E+00;  0.0000000E+00;
 -1.8000001E-01;  9.9999998E-03;  1.6000000E-01;241;  0.0000000E+00;  0.0000000E+00;  0.0000000E+00;  1.0000000E+03;  1.0000000E-01;  0.0000000E+00;0;  0.0000000E+00;  0.0000000E+00;  0.0000000E+00;0;  0.0000000E+00;  4.0000000E+04;  0.0000000E+00;  0.0000000E+00;  4.0000000E+04;  0.0000000E+00;  4.0000000E+04;  0.0000000E+00;  0.0000000E+00;  0.0000000E+00;  0.0000000E+00;
 -1.8000001E-01;  9.9999998E-03;  1.7000000E-01;242;  0.0000000E+00;  0.0000000E+00;  0.0000000E+00;  1.0000000E+03;  1.0000000E-01;  0.0000000E+00;0;  0.0000000E+00;  0.0000000E+00;  0.0000000E+00;0;  0.0000000E+00;  4.0000000E+04;  0.0000000E+00;  0.0000000E+00;  4.0000000E+04;  0.0000000E+00;  4.0000000E+04;  0.0000000E+00;  0.0000000E+00;  0.0000000E+00;  0.0000000E+00;
 -1.8000001E-01;  9.9999998E-03;  1.8000001E-01;243;  0.0000000E+00;  0.0000000E+00;  0.0000000E+00;  1.0000000E+03;  1.0000000E-01;  0.0000000E+00;0;  0.0000000E+00;  0.0000000E+00;  0.0000000E+00;0;  0.0000000E+00;  4.0000000E+04;  0.0000000E+00;  0.0000000E+00;  4.0000000E+04;  0.0000000E+00;  4.0000000E+04;  0.0000000E+00;  0.0000000E+00;  0.0000000E+00;  0.0000000E+00;
 -1.8000001E-01;  9.9999998E-03;  1.9000000E-01;244;  0.0000000E+00;  0.0000000E+00;  0.0000000E+00;  1.0000000E+03;  1.0000000E-01;  0.0000000E+00;0;  0.0000000E+00;  0.0000000E+00;  0.0000000E+00;0;  0.0000000E+00;  4.0000000E+04;  0.0000000E+00;  0.0000000E+00;  4.0000000E+04;  0.0000000E+00;  4.0000000E+04;  0.0000000E+00;  0.0000000E+00;  0.0000000E+00;  0.0000000E+00;
 -1.8000001E-01;  9.9999998E-03;  2.0000000E-01;245;  0.0000000E+00;  0.0000000E+00;  0.0000000E+00;  1.0000000E+03;  1.0000000E-01;  0.0000000E+00;0;  0.0000000E+00;  0.0000000E+00;  0.0000000E+00;0;  0.0000000E+00;  4.0000000E+04;  0.0000000E+00;  0.0000000E+00;  4.0000000E+04;  0.0000000E+00;  4.0000000E+04;  0.0000000E+00;  0.0000000E+00;  0.0000000E+00;  0.0000000E+00;
 -1.8000001E-01;  9.9999998E-03;  2.0999999E-01;246;  0.0000000E+00;  0.0000000E+00;  0.0000000E+00;  1.0000000E+03;  1.0000000E-01;  0.0000000E+00;0;  0.0000000E+00;  0.0000000E+00;  0.0000000E+00;0;  0.0000000E+00;  4.0000000E+04;  0.0000000E+00;  0.0000000E+00;  4.0000000E+04;  0.0000000E+00;  4.0000000E+04;  0.0000000E+00;  0.0000000E+00;  0.0000000E+00;  0.0000000E+00;
 -1.8000001E-01;  9.9999998E-03;  2.2000000E-01;247;  0.0000000E+00;  0.0000000E+00;  0.0000000E+00;  1.0000000E+03;  1.0000000E-01;  0.0000000E+00;0;  0.0000000E+00;  0.0000000E+00;  0.0000000E+00;0;  0.0000000E+00;  4.0000000E+04;  0.0000000E+00;  0.0000000E+00;  4.0000000E+04;  0.0000000E+00;  4.0000000E+04;  0.0000000E+00;  0.0000000E+00;  0.0000000E+00;  0.0000000E+00;
 -1.8000001E-01;  9.9999998E-03;  2.3000000E-01;248;  0.0000000E+00;  0.0000000E+00;  0.0000000E+00;  1.0000000E+03;  1.0000000E-01;  0.0000000E+00;0;  0.0000000E+00;  0.0000000E+00;  0.0000000E+00;0;  0.0000000E+00;  4.0000000E+04;  0.0000000E+00;  0.0000000E+00;  4.0000000E+04;  0.0000000E+00;  4.0000000E+04;  0.0000000E+00;  0.0000000E+00;  0.0000000E+00;  0.0000000E+00;
 -1.7000000E-01;  9.9999998E-03;  7.0000000E-02;323;  0.0000000E+00;  0.0000000E+00;  0.0000000E+00;  1.0000000E+03;  1.0000000E-01;  0.0000000E+00;0;  0.0000000E+00;  0.0000000E+00;  0.0000000E+00;0;  0.0000000E+00;  4.0000000E+04;  0.0000000E+00;  0.0000000E+00;  4.0000000E+04;  0.0000000E+00;  4.0000000E+04;  0.0000000E+00;  0.0000000E+00;  0.0000000E+00;  2.0677076E-09;
 -1.7000000E-01;  9.9999998E-03;  7.9999998E-02;324;  0.0000000E+00;  0.0000000E+00;  0.0000000E+00;  1.0000000E+03;  1.0000000E-01;  0.0000000E+00;0;  0.0000000E+00;  0.0000000E+00;  0.0000000E+00;0;  0.0000000E+00;  4.0000000E+04;  0.0000000E+00;  0.0000000E+00;  4.0000000E+04;  0.0000000E+00;  4.0000000E+04;  0.0000000E+00;  0.0000000E+00;  0.0000000E+00;  2.0276110E-09;
 -1.7000000E-01;  9.9999998E-03;  9.0000004E-02;325;  0.0000000E+00;  0.0000000E+00;  0.0000000E+00;  1.0000000E+03;  1.0000000E-01;  0.0000000E+00;0;  0.0000000E+00;  0.0000000E+00;  0.0000000E+00;0;  0.0000000E+00;  4.0000000E+04;  0.0000000E+00;  0.0000000E+00;  4.0000000E+04;  0.0000000E+00;  4.0000000E+04;  0.0000000E+00;  0.0000000E+00;  0.0000000E+00;  1.9964661E-09;
 -1.7000000E-01;  9.9999998E-03;  1.0000000E-01;326;  0.0000000E+00;  0.0000000E+00;  0.0000000E+00;  1.0000000E+03;  1.0000000E-01;  0.0000000E+00;0;  0.0000000E+00;  0.0000000E+00;  0.0000000E+00;0;  0.0000000E+00;  4.0000000E+04;  0.0000000E+00;  0.0000000E+00;  4.0000000E+04;  0.0000000E+00;  4.0000000E+04;  0.0000000E+00;  0.0000000E+00;  0.0000000E+00;  1.9806543E-09;
 -1.7000000E-01;  9.9999998E-03;  1.1000000E-01;327;  0.0000000E+00;  0.0000000E+00;  0.0000000E+00;  1.0000000E+03;  1.0000000E-01;  0.0000000E+00;0;  0.0000000E+00;  0.0000000E+00;  0.0000000E+00;0;  0.0000000E+00;  4.0000000E+04;  0.0000000E+00;  0.0000000E+00;  4.0000000E+04;  0.0000000E+00;  4.0000000E+04;  0.0000000E+00;  0.0000000E+00;  0.0000000E+00;  1.9613826E-09;
 -1.7000000E-01;  9.9999998E-03;  1.2000000E-01;328;  0.0000000E+00;  0.0000000E+00;  0.0000000E+00;  1.0000000E+03;  1.0000000E-01;  0.0000000E+00;0;  0.0000000E+00;  0.0000000E+00;  0.0000000E+00;0;  0.0000000E+00;  4.0000000E+04;  0.0000000E+00;  0.0000000E+00;  4.0000000E+04;  0.0000000E+00;  4.0000000E+04;  0.0000000E+00;  0.0000000E+00;  0.0000000E+00;  1.9547131E-09;
 -1.7000000E-01;  9.9999998E-03;  1.3000000E-01;329;  0.0000000E+00;  0.0000000E+00;  0.0000000E+00;  1.0000000E+03;  1.0000000E-01;  0.0000000E+00;0;  0.0000000E+00;  0.0000000E+00;  0.0000000E+00;0;  0.0000000E+00;  4.0000000E+04;  0.0000000E+00;  0.0000000E+00;  4.0000000E+04;  0.0000000E+00;  4.0000000E+04;  0.0000000E+00;  0.0000000E+00;  0.0000000E+00;  1.9304123E-09;
 -1.7000000E-01;  9.9999998E-03;  1.4000000E-01;330;  0.0000000E+00;  0.0000000E+00;  0.0000000E+00;  1.0000000E+03;  1.0000000E-01;  0.0000000E+00;0;  0.0000000E+00;  0.0000000E+00;  0.0000000E+00;0;  0.0000000E+00;  4.0000000E+04;  0.0000000E+00;  0.0000000E+00;  4.0000000E+04;  0.0000000E+00;  4.0000000E+04;  0.0000000E+00;  0.0000000E+00;  0.0000000E+00;  1.9071280E-09;
 -1.7000000E-01;  9.9999998E-03;  1.5000001E-01;331;  0.0000000E+00;  0.0000000E+00;  0.0000000E+00;  1.0000000E+03;  1.0000000E-01;  0.0000000E+00;0;  0.0000000E+00;  0.0000000E+00;  0.0000000E+00;0;  0.0000000E+00;  4.0000000E+04;  0.0000000E+00;  0.0000000E+00;  4.0000000E+04;  0.0000000E+00;  4.0000000E+04;  0.0000000E+00;  0.0000000E+00;  0.0000000E+00;  1.8279691E-09;
 -1.7000000E-01;  9.9999998E-03;  1.6000000E-01;332;  0.0000000E+00;  0.0000000E+00;  0.0000000E+00;  1.0000000E+03;  1.0000000E-01;  0.0000000E+00;0;  0.0000000E+00;  0.0000000E+00;  0.0000000E+00;0;  0.0000000E+00;  4.0000000E+04;  0.0000000E+00;  0.0000000E+00;  4.0000000E+04;  0.0000000E+00;  4.0000000E+04;  0.0000000E+00;  0.0000000E+00;  0.0000000E+00;  1.7068014E-09;
 -1.7000000E-01;  9.9999998E-03;  1.7000000E-01;333;  0.0000000E+00;  0.0000000E+00;  0.0000000E+00;  1.0000000E+03;  1.0000000E-01;  0.0000000E+00;0;  0.0000000E+00;  0.0000000E+00;  0.0000000E+00;0;  0.0000000E+00;  4.0000000E+04;  0.0000000E+00;  0.0000000E+00;  4.0000000E+04;  0.0000000E+00;  4.0000000E+04;  0.0000000E+00;  0.0000000E+00;  0.0000000E+00;  1.5737418E-09;
 -1.7000000E-01;  9.9999998E-03;  1.8000001E-01;334;  0.0000000E+00;  0.0000000E+00;  0.0000000E+00;  1.0000000E+03;  1.0000000E-01;  0.0000000E+00;0;  0.0000000E+00;  0.0000000E+00;  0.0000000E+00;0;  0.0000000E+00;  4.0000000E+04;  0.0000000E+00;  0.0000000E+00;  4.0000000E+04;  0.0000000E+00;  4.0000000E+04;  0.0000000E+00;  0.0000000E+00;  0.0000000E+00;  1.4536757E-09;
 -1.7000000E-01;  9.9999998E-03;  1.9000000E-01;335;  0.0000000E+00;  0.0000000E+00;  0.0000000E+00;  1.0000000E+03;  1.0000000E-01;  0.0000000E+00;0;  0.0000000E+00;  0.0000000E+00;  0.0000000E+00;0;  0.0000000E+00;  4.0000000E+04;  0.0000000E+00;  0.0000000E+00;  4.0000000E+04;  0.0000000E+00;  4.0000000E+04;  0.0000000E+00;  0.0000000E+00;  0.0000000E+00;  1.3804979E-09;
 -1.7000000E-01;  9.9999998E-03;  2.0000000E-01;336;  0.0000000E+00;  0.0000000E+00;  0.0000000E+00;  1.0000000E+03;  1.0000000E-01;  0.0000000E+00;0;  0.0000000E+00;  0.0000000E+00;  0.0000000E+00;0;  0.0000000E+00;  4.0000000E+04;  0.0000000E+00;  0.0000000E+00;  4.0000000E+04;  0.0000000E+00;  4.0000000E+04;  0.0000000E+00;  0.0000000E+00;  0.0000000E+00;  1.3572699E-09;
 -1.7000000E-01;  9.9999998E-03;  2.0999999E-01;337;  0.0000000E+00;  0.0000000E+00;  0.0000000E+00;  1.0000000E+03;  1.0000000E-01;  0.0000000E+00;0;  0.0000000E+00;  0.0000000E+00;  0.0000000E+00;0;  0.0000000E+00;  4.0000000E+04;  0.0000000E+00;  0.0000000E+00;  4.0000000E+04;  0.0000000E+00;  4.0000000E+04;  0.0000000E+00;  0.0000000E+00;  0.0000000E+00;  1.3090043E-09;
 -1.7000000E-01;  9.9999998E-03;  2.2000000E-01;338;  0.0000000E+00;  0.0000000E+00;  0.0000000E+00;  1.0000000E+03;  1.0000000E-01;  0.0000000E+00;0;  0.0000000E+00;  0.0000000E+00;  0.0000000E+00;0;  0.0000000E+00;  4.0000000E+04;  0.0000000E+00;  0.0000000E+00;  4.0000000E+04;  0.0000000E+00;  4.0000000E+04;  0.0000000E+00;  0.0000000E+00;  0.0000000E+00;  1.1702984E-09;
 -1.7000000E-01;  9.9999998E-03;  2.3000000E-01;339;  0.0000000E+00;  0.0000000E+00;  0.0000000E+00;  1.0000000E+03;  1.0000000E-01;  0.0000000E+00;0;  0.0000000E+00;  0.0000000E+00;  0.0000000E+00;0;  0.0000000E+00;  4.0000000E+04;  0.0000000E+00;  0.0000000E+00;  4.0000000E+04;  0.0000000E+00;  4.0000000E+04;  0.0000000E+00;  0.0000000E+00;  0.0000000E+00;  9.6134622E-10;
 -1.6000000E-01;  9.9999998E-03;  7.0000000E-02;414;  0.0000000E+00;  0.0000000E+00;  0.0000000E+00;  1.0000000E+03;  1.0000000E-01;  0.0000000E+00;0;  0.0000000E+00;  0.0000000E+00;  0.0000000E+00;0;  3.2966066E-06;  4.0000000E+04;  0.0000000E+00;  0.0000000E+00;  4.0000000E+04;  0.0000000E+00;  4.0000000E+04;  3.2991429E-06;  0.0000000E+00; -2.5364140E-09;  2.4854191E-01;
 -1.6000000E-01;  9.9999998E-03;  7.9999998E-02;415;  0.0000000E+00;  0.0000000E+00;  0.0000000E+00;  1.0000000E+03;  1.0000000E-01;  0.0000000E+00;0;  0.0000000E+00;  0.0000000E+00;  0.0000000E+00;0;  3.2885330E-06;  4.0000000E+04;  0.0000000E+00;  0.0000000E+00;  4.0000000E+04;  0.0000000E+00;  4.0000000E+04;  3.2910968E-06;  0.0000000E+00; -2.5638360E-09;  2.4882279E-01;
 -1.6000000E-01;  9.9999998E-03;  9.0000004E-02;416;  0.0000000E+00;  0.0000000E+00;  0.0000000E+00;  1.0000000E+03;  1.0000000E-01;  0.0000000E+00;0;  0.0000000E+00;  0.0000000E+00;  0.0000000E+00;0;  3.2748112E-06;  4.0000000E+04;  0.0000000E+00;  0.0000000E+00;  4.0000000E+04;  0.0000000E+00;  4.0000000E+04;  3.2771820E-06;  0.0000000E+00; -2.3708413E-09;  2.5019419E-01;
 -1.6000000E-01;  9.9999998E-03;  1.0000000E-01;417;  0.0000000E+00;  0.0000000E+00;  0.0000000E+00;  1.0000000E+03;  1.0000000E-01;  0.0000000E+00;0;  0.0000000E+00;  0.0000000E+00;  0.0000000E+00;0;  3.2564244E-06;  4.0000000E+04;  0.0000000E+00;  0.0000000E+00;  4.0000000E+04;  0.0000000E+00;  4.0000000E+04;  3.2584207E-06;  0.0000000E+00; -1.9964399E-09;  2.5296366E-01;
 -1.6000000E-01;  9.9999998E-03;  1.1000000E-01;418;  0.0000000E+00;  0.0000000E+00;  0.0000000E+00;  1.0000000E+03;  1.0000000E-01;  0.0000000E+00;0;  0.0000000E+00;  0.0000000E+00;  0.0000000E+00;0;  3.2358905E-06;  4.0000000E+04;  0.0000000E+00;  0.0000000E+00;  4.0000000E+04;  0.0000000E+00;  4.0000000E+04;  3.2373916E-06;  0.0000000E+00; -1.5011938E-09;  2.5716841E-01;
 -1.6000000E-01;  9.9999998E-03;  1.2000000E-01;419;  0.0000000E+00;  0.0000000E+00;  0.0000000E+00;  1.0000000E+03;  1.0000000E-01;  0.0000000E+00;0;  0.0000000E+00;  0.0000000E+00;  0.0000000E+00;0;  3.2174312E-06;  4.0000000E+04;  0.0000000E+00;  0.0000000E+00;  4.0000000E+04;  0.0000000E+00;  4.0000000E+04;  3.2183850E-06;  0.0000000E+00; -9.5391151E-10;  2.6245031E-01;
 -1.6000000E-01;  9.9999998E-03;  1.3000000E-01;420;  0.0000000E+00;  0.0000000E+00;  0.0000000E+00;  1.0000000E+03;  1.0000000E-01;  0.0000000E+00;0;  0.0000000E+00;  0.0000000E+00;  0.0000000E+00;0;  3.2069574E-06;  4.0000000E+04;  0.0000000E+00;  0.0000000E+00;  4.0000000E+04;  0.0000000E+00;  4.0000000E+04;  3.2073908E-06;  0.0000000E+00; -4.3328685E-10;  2.6809278E-01;
 -1.6000000E-01;  9.9999998E-03;  1.4000000E-01;421;  0.0000000E+00;  0.0000000E+00;  0.0000000E+00;  1.0000000E+03;  1.0000000E-01;  0.0000000E+00;0;  0.0000000E+00;  0.0000000E+00;  0.0000000E+00;0;  3.2119501E-06;  4.0000000E+04;  0.0000000E+00;  0.0000000E+00;  4.0000000E+04;  0.0000000E+00;  4.0000000E+04;  3.2119924E-06;  0.0000000E+00; -4.2343365E-11;  2.7317452E-01;
 -1.6000000E-01;  9.9999998E-03;  1.5000001E-01;422;  0.0000000E+00;  0.0000000E+00;  0.0000000E+00;  1.0000000E+03;  1.0000000E-01;  0.0000000E+00;0;  0.0000000E+00;  0.0000000E+00;  0.0000000E+00;0;  3.2413000E-06;  4.0000000E+04;  0.0000000E+00;  0.0000000E+00;  4.0000000E+04;  0.0000000E+00;  4.0000000E+04;  3.2412149E-06;  0.0000000E+00;  8.4986435E-11;  2.7674785E-01;
 -1.6000000E-01;  9.9999998E-03;  1.6000000E-01;423;  0.0000000E+00;  0.0000000E+00;  0.0000000E+00;  1.0000000E+03;  1.0000000E-01;  0.0000000E+00;0;  0.0000000E+00;  0.0000000E+00;  0.0000000E+00;0;  3.3049648E-06;  4.0000000E+04;  0.0000000E+00;  0.0000000E+00;  4.0000000E+04;  0.0000000E+00;  4.0000000E+04;  3.3051658E-06;  0.0000000E+00; -2.0090021E-10;  2.7791840E-01;
 -1.6000000E-01;  9.9999998E-03;  1.7000000E-01;424;  0.0000000E+00;  0.0000000E+00;  0.0000000E+00;  1.0000000E+03;  1.0000000E-01;  0.0000000E+00;0;  0.0000000E+00;  0.0000000E+00;  0.0000000E+00;0;  3.4134234E-06;  4.0000000E+04;  0.0000000E+00;  0.0000000E+00;  4.0000000E+04;  0.0000000E+00;  4.0000000E+04;  3.4144678E-06;  0.0000000E+00; -1.0442210E-09;  2.7588582E-01;
 -1.6000000E-01;  9.9999998E-03;  1.8000001E-01;425;  0.0000000E+00;  0.0000000E+00;  0.0000000E+00;  1.0000000E+03;  1.0000000E-01;  0.0000000E+00;0;  0.0000000E+00;  0.0000000E+00;  0.0000000E+00;0;  3.5764285E-06;  4.0000000E+04;  0.0000000E+00;  0.0000000E+00;  4.0000000E+04;  0.0000000E+00;  4.0000000E+04;  3.5790258E-06;  0.0000000E+00; -2.5972748E-09;  2.7005640E-01;
 -1.6000000E-01;  9.9999998E-03;  1.9000000E-01;426;  0.0000000E+00;  0.0000000E+00;  0.0000000E+00;  1.0000000E+03;  1.0000000E-01;  0.0000000E+00;0;  0.0000000E+00;  0.0000000E+00;  0.0000000E+00;0;  3.8012181E-06;  4.0000000E+04;  0.0000000E+00;  0.0000000E+00;  4.0000000E+04;  0.0000000E+00;  4.0000000E+04;  3.8062853E-06;  0.0000000E+00; -5.0673288E-09;  2.6021433E-01;
 -1.6000000E-01;  9.9999998E-03;  2.0000000E-01;427;  0.0000000E+00;  0.0000000E+00;  0.0000000E+00;  1.0000000E+03;  1.0000000E-01;  0.0000000E+00;0;  0.0000000E+00;  0.0000000E+00;  0.0000000E+00;0;  4.0890891E-06;  4.0000000E+04;  0.0000000E+00;  0.0000000E+00;  4.0000000E+04;  0.0000000E+00;  4.0000000E+04;  4.0978393E-06;  0.0000000E+00; -8.7500425E-09;  2.4664989E-01;
 -1.6000000E-01;  9.9999998E-03;  2.0999999E-01;428;  0.0000000E+00;  0.0000000E+00;  0.0000000E+00;  1.0000000E+03;  1.0000000E-01;  0.0000000E+00;0;  0.0000000E+00;  0.0000000E+00;  0.0000000E+00;0;  4.4304334E-06;  4.0000000E+04;  0.0000000E+00;  0.0000000E+00;  4.0000000E+04;  0.0000000E+00;  4.0000000E+04;  4.4444146E-06;  0.0000000E+00; -1.3981413E-08;  2.3013814E-01;
 -1.6000000E-01;  9.9999998E-03;  2.2000000E-01;429;  0.0000000E+00;  0.0000000E+00;  0.0000000E+00;  1.0000000E+03;  1.0000000E-01;  0.0000000E+00;0;  0.0000000E+00;  0.0000000E+00;  0.0000000E+00;0;  4.8004094E-06;  4.0000000E+04;  0.0000000E+00;  0.0000000E+00;  4.0000000E+04;  0.0000000E+00;  4.0000000E+04;  4.8214265E-06;  0.0000000E+00; -2.1017021E-08;  2.1149215E-01;
 -1.6000000E-01;  9.9999998E-03;  2.3000000E-01;430;  0.0000000E+00;  0.0000000E+00;  0.0000000E+00;  1.0000000E+03;  1.0000000E-01;  0.0000000E+00;0;  0.0000000E+00;  0.0000000E+00;  0.0000000E+00;0;  5.1558832E-06;  4.0000000E+04;  0.0000000E+00;  0.0000000E+00;  4.0000000E+04;  0.0000000E+00;  4.0000000E+04;  5.1856032E-06;  0.0000000E+00; -2.9719928E-08;  1.9055256E-01;
 -1.5000001E-01;  9.9999998E-03;  7.0000000E-02;505;  0.0000000E+00;  0.0000000E+00;  0.0000000E+00;  1.0000000E+03;  1.0000000E-01;  0.0000000E+00;0;  0.0000000E+00;  0.0000000E+00;  0.0000000E+00;0;  7.6900433E-05;  4.0000000E+04;  0.0000000E+00;  0.0000000E+00;  4.0000000E+04;  0.0000000E+00;  4.0000000E+04;  7.7036231E-05;  0.0000000E+00; -1.3579643E-07;  3.5730987E+00;
 -1.5000001E-01;  9.9999998E-03;  7.9999998E-02;506;  0.0000000E+00;  0.0000000E+00;  0.0000000E+00;  1.0000000E+03;  1.0000000E-01;  0.0000000E+00;0;  0.0000000E+00;  0.0000000E+00;  0.0000000E+00;0;  7.6907934E-05;  4.0000000E+04;  0.0000000E+00;  0.0000000E+00;  4.0000000E+04;  0.0000000E+00;  4.0000000E+04;  7.7045966E-05;  0.0000000E+00; -1.3802857E-07;  3.5566657E+00;
 -1.5000001E-01;  9.9999998E-03;  9.0000004E-02;507;  0.0000000E+00;  0.0000000E+00;  0.0000000E+00;  1.0000000E+03;  1.0000000E-01;  0.0000000E+00;0;  0.0000000E+00;  0.0000000E+00;  0.0000000E+00;0;  7.6811513E-05;  4.0000000E+04;  0.0000000E+00;  0.0000000E+00;  4.0000000E+04;  0.0000000E+00;  4.0000000E+04;  7.6941033E-05;  0.0000000E+00; -1.2952296E-07;  3.5651393E+00;
 -1.5000001E-01;  9.9999998E-03;  1.0000000E-01;508;  0.0000000E+00;  0.0000000E+00;  0.0000000E+00;  1.0000000E+03;  1.0000000E-01;  0.0000000E+00;0;  0.0000000E+00;  0.0000000E+00;  0.0000000E+00;0;  7.6622542E-05;  4.0000000E+04;  0.0000000E+00;  0.0000000E+00;  4.0000000E+04;  0.0000000E+00;  4.0000000E+04;  7.6734024E-05;  0.0000000E+00; -1.1148337E-07;  3.6038034E+00;
 -1.5000001E-01;  9.9999998E-03;  1.1000000E-01;509;  0.0000000E+00;  0.0000000E+00;  0.0000000E+00;  1.0000000E+03;  1.0000000E-01;  0.0000000E+00;0;  0.0000000E+00;  0.0000000E+00;  0.0000000E+00;0;  7.6376338E-05;  4.0000000E+04;  0.0000000E+00;  0.0000000E+00;  4.0000000E+04;  0.0000000E+00;  4.0000000E+04;  7.6462900E-05;  0.0000000E+00; -8.6564711E-08;  3.6717861E+00;
 -1.5000001E-01;  9.9999998E-03;  1.2000000E-01;510;  0.0000000E+00;  0.0000000E+00;  0.0000000E+00;  1.0000000E+03;  1.0000000E-01;  0.0000000E+00;0;  0.0000000E+00;  0.0000000E+00;  0.0000000E+00;0;  7.6132979E-05;  4.0000000E+04;  0.0000000E+00;  0.0000000E+00;  4.0000000E+04;  0.0000000E+00;  4.0000000E+04;  7.6191711E-05;  0.0000000E+00; -5.8734461E-08;  3.7613726E+00;
 -1.5000001E-01;  9.9999998E-03;  1.3000000E-01;511;  0.0000000E+00;  0.0000000E+00;  0.0000000E+00;  1.0000000E+03;  1.0000000E-01;  0.0000000E+00;0;  0.0000000E+00;  0.0000000E+00;  0.0000000E+00;0;  7.5972974E-05;  4.0000000E+04;  0.0000000E+00;  0.0000000E+00;  4.0000000E+04;  0.0000000E+00;  4.0000000E+04;  7.6005999E-05;  0.0000000E+00; -3.3025145E-08;  3.8591251E+00;
 -1.5000001E-01;  9.9999998E-03;  1.4000000E-01;512;  0.0000000E+00;  0.0000000E+00;  0.0000000E+00;  1.0000000E+03;  1.0000000E-01;  0.0000000E+00;0;  0.0000000E+00;  0.0000000E+00;  0.0000000E+00;0;  7.5988610E-05;  4.0000000E+04;  0.0000000E+00;  0.0000000E+00;  4.0000000E+04;  0.0000000E+00;  4.0000000E+04;  7.6003729E-05;  0.0000000E+00; -1.5116409E-08;  3.9482081E+00;
 -1.5000001E-01;  9.9999998E-03;  1.5000001E-01;513;  0.0000000E+00;  0.0000000E+00;  0.0000000E+00;  1.0000000E+03;  1.0000000E-01;  0.0000000E+00;0;  0.0000000E+00;  0.0000000E+00;  0.0000000E+00;0;  7.6271142E-05;  4.0000000E+04;  0.0000000E+00;  0.0000000E+00;  4.0000000E+04;  0.0000000E+00;  4.0000000E+04;  7.6281925E-05;  0.0000000E+00; -1.0779797E-08;  4.0114164E+00;
 -1.5000001E-01;  9.9999998E-03;  1.6000000E-01;514;  0.0000000E+00;  0.0000000E+00;  0.0000000E+00;  1.0000000E+03;  1.0000000E-01;  0.0000000E+00;0;  0.0000000E+00;  0.0000000E+00;  0.0000000E+00;0;  7.6893361E-05;  4.0000000E+04;  0.0000000E+00;  0.0000000E+00;  4.0000000E+04;  0.0000000E+00;  4.0000000E+04;  7.6918666E-05;  0.0000000E+00; -2.5304752E-08;  4.0340357E+00;
 -1.5000001E-01;  9.9999998E-03;  1.7000000E-01;515;  0.0000000E+00;  0.0000000E+00;  0.0000000E+00;  1.0000000E+03;  1.0000000E-01;  0.0000000E+00;0;  0.0000000E+00;  0.0000000E+00;  0.0000000E+00;0;  7.7887707E-05;  4.0000000E+04;  0.0000000E+00;  0.0000000E+00;  4.0000000E+04;  0.0000000E+00;  4.0000000E+04;  7.7950681E-05;  0.0000000E+00; -6.2970159E-08;  4.0059185E+00;
 -1.5000001E-01;  9.9999998E-03;  1.8000001E-01;516;  0.0000000E+00;  0.0000000E+00;  0.0000000E+00;  1.0000000E+03;  1.0000000E-01;  0.0000000E+00;0;  0.0000000E+00;  0.0000000E+00;  0.0000000E+00;0;  7.9223733E-05;  4.0000000E+04;  0.0000000E+00;  0.0000000E+00;  4.0000000E+04;  0.0000000E+00;  4.0000000E+04;  7.9350255E-05;  0.0000000E+00; -1.2652086E-07;  3.9228003E+00;
 -1.5000001E-01;  9.9999998E-03;  1.9000000E-01;517;  0.0000000E+00;  0.0000000E+00;  0.0000000E+00;  1.0000000E+03;  1.0000000E-01;  0.0000000E+00;0;  0.0000000E+00;  0.0000000E+00;  0.0000000E+00;0;  8.0786740E-05;  4.0000000E+04;  0.0000000E+00;  0.0000000E+00;  4.0000000E+04;  0.0000000E+00;  4.0000000E+04;  8.1003396E-05;  0.0000000E+00; -2.1665333E-07;  3.7862022E+00;
 -1.5000001E-01;  9.9999998E-03;  2.0000000E-01;518;  0.0000000E+00;  0.0000000E+00;  0.0000000E+00;  1.0000000E+03;  1.0000000E-01;  0.0000000E+00;0;  0.0000000E+00;  0.0000000E+00;  0.0000000E+00;0;  8.2364939E-05;  4.0000000E+04;  0.0000000E+00;  0.0000000E+00;  4.0000000E+04;  0.0000000E+00;  4.0000000E+04;  8.2696322E-05;  0.0000000E+00; -3.3138477E-07;  3.6011853E+00;
 -1.5000001E-01;  9.9999998E-03;  2.0999999E-01;519;  0.0000000E+00;  0.0000000E+00;  0.0000000E+00;  1.0000000E+03;  1.0000000E-01;  0.0000000E+00;0;  0.0000000E+00;  0.0000000E+00;  0.0000000E+00;0;  8.3646031E-05;  4.0000000E+04;  0.0000000E+00;  0.0000000E+00;  4.0000000E+04;  0.0000000E+00;  4.0000000E+04;  8.4110456E-05;  0.0000000E+00; -4.6442759E-07;  3.3703213E+00;
 -1.5000001E-01;  9.9999998E-03;  2.2000000E-01;520;  0.0000000E+00;  0.0000000E+00;  0.0000000E+00;  1.0000000E+03;  1.0000000E-01;  0.0000000E+00;0;  0.0000000E+00;  0.0000000E+00;  0.0000000E+00;0;  8.4227548E-05;  4.0000000E+04;  0.0000000E+00;  0.0000000E+00;  4.0000000E+04;  0.0000000E+00;  4.0000000E+04;  8.4828192E-05;  0.0000000E+00; -6.0064150E-07;  3.0866461E+00;
 -1.5000001E-01;  9.9999998E-03;  2.3000000E-01;521;  0.0000000E+00;  0.0000000E+00;  0.0000000E+00;  1.0000000E+03;  1.0000000E-01;  0.0000000E+00;0;  0.0000000E+00;  0.0000000E+00;  0.0000000E+00;0;  8.3618193E-05;  4.0000000E+04;  0.0000000E+00;  0.0000000E+00;  4.0000000E+04;  0.0000000E+00;  4.0000000E+04;  8.4319923E-05;  0.0000000E+00; -7.0172786E-07;  2.7238245E+00;
 -1.4000000E-01;  9.9999998E-03;  7.0000000E-02;596;  0.0000000E+00;  0.0000000E+00;  0.0000000E+00;  1.0000000E+03;  1.0000000E-01;  0.0000000E+00;0;  0.0000000E+00;  0.0000000E+00;  0.0000000E+00;0;  3.8677343E-04;  4.0000000E+04;  0.0000000E+00;  0.0000000E+00;  4.0000000E+04;  0.0000000E+00;  4.0000000E+04;  3.8779891E-04;  0.0000000E+00; -1.0254821E-06;  1.6017767E+01;
 -1.4000000E-01;  9.9999998E-03;  7.9999998E-02;597;  0.0000000E+00;  0.0000000E+00;  0.0000000E+00;  1.0000000E+03;  1.0000000E-01;  0.0000000E+00;0;  0.0000000E+00;  0.0000000E+00;  0.0000000E+00;0;  3.8701107E-04;  4.0000000E+04;  0.0000000E+00;  0.0000000E+00;  4.0000000E+04;  0.0000000E+00;  4.0000000E+04;  3.8805194E-04;  0.0000000E+00; -1.0408650E-06;  1.5880042E+01;
 -1.4000000E-01;  9.9999998E-03;  9.0000004E-02;598;  0.0000000E+00;  0.0000000E+00;  0.0000000E+00;  1.0000000E+03;  1.0000000E-01;  0.0000000E+00;0;  0.0000000E+00;  0.0000000E+00;  0.0000000E+00;0;  3.8681534E-04;  4.0000000E+04;  0.0000000E+00;  0.0000000E+00;  4.0000000E+04;  0.0000000E+00;  4.0000000E+04;  3.8779830E-04;  0.0000000E+00; -9.8295925E-07;  1.5876654E+01;
 -1.4000000E-01;  9.9999998E-03;  1.0000000E-01;599;  0.0000000E+00;  0.0000000E+00;  0.0000000E+00;  1.0000000E+03;  1.0000000E-01;  0.0000000E+00;0;  0.0000000E+00;  0.0000000E+00;  0.0000000E+00;0;  3.8623175E-04;  4.0000000E+04;  0.0000000E+00;  0.0000000E+00;  4.0000000E+04;  0.0000000E+00;  4.0000000E+04;  3.8709218E-04;  0.0000000E+00; -8.6043980E-07;  1.6029039E+01;
 -1.4000000E-01;  9.9999998E-03;  1.1000000E-01;600;  0.0000000E+00;  0.0000000E+00;  0.0000000E+00;  1.0000000E+03;  1.0000000E-01;  0.0000000E+00;0;  0.0000000E+00;  0.0000000E+00;  0.0000000E+00;0;  3.8539982E-04;  4.0000000E+04;  0.0000000E+00;  0.0000000E+00;  4.0000000E+04;  0.0000000E+00;  4.0000000E+04;  3.8609302E-04;  0.0000000E+00; -6.9318713E-07;  1.6331385E+01;
 -1.4000000E-01;  9.9999998E-03;  1.2000000E-01;601;  0.0000000E+00;  0.0000000E+00;  0.0000000E+00;  1.0000000E+03;  1.0000000E-01;  0.0000000E+00;0;  0.0000000E+00;  0.0000000E+00;  0.0000000E+00;0;  3.8454516E-04;  4.0000000E+04;  0.0000000E+00;  0.0000000E+00;  4.0000000E+04;  0.0000000E+00;  4.0000000E+04;  3.8505576E-04;  0.0000000E+00; -5.1060181E-07;  1.6748377E+01;
 -1.4000000E-01;  9.9999998E-03;  1.3000000E-01;602;  0.0000000E+00;  0.0000000E+00;  0.0000000E+00;  1.0000000E+03;  1.0000000E-01;  0.0000000E+00;0;  0.0000000E+00;  0.0000000E+00;  0.0000000E+00;0;  3.8395112E-04;  4.0000000E+04;  0.0000000E+00;  0.0000000E+00;  4.0000000E+04;  0.0000000E+00;  4.0000000E+04;  3.8429984E-04;  0.0000000E+00; -3.4870808E-07;  1.7219482E+01;
 -1.4000000E-01;  9.9999998E-03;  1.4000000E-01;603;  0.0000000E+00;  0.0000000E+00;  0.0000000E+00;  1.0000000E+03;  1.0000000E-01;  0.0000000E+00;0;  0.0000000E+00;  0.0000000E+00;  0.0000000E+00;0;  3.8391576E-04;  4.0000000E+04;  0.0000000E+00;  0.0000000E+00;  4.0000000E+04;  0.0000000E+00;  4.0000000E+04;  3.8416212E-04;  0.0000000E+00; -2.4637006E-07;  1.7669411E+01;
 -1.4000000E-01;  9.9999998E-03;  1.5000001E-01;604;  0.0000000E+00;  0.0000000E+00;  0.0000000E+00;  1.0000000E+03;  1.0000000E-01;  0.0000000E+00;0;  0.0000000E+00;  0.0000000E+00;  0.0000000E+00;0;  3.8467976E-04;  4.0000000E+04;  0.0000000E+00;  0.0000000E+00;  4.0000000E+04;  0.0000000E+00;  4.0000000E+04;  3.8492086E-04;  0.0000000E+00; -2.4108419E-07;  1.8021231E+01;
 -1.4000000E-01;  9.9999998E-03;  1.6000000E-01;605;  0.0000000E+00;  0.0000000E+00;  0.0000000E+00;  1.0000000E+03;  1.0000000E-01;  0.0000000E+00;0;  0.0000000E+00;  0.0000000E+00;  0.0000000E+00;0;  3.8635221E-04;  4.0000000E+04;  0.0000000E+00;  0.0000000E+00;  4.0000000E+04;  0.0000000E+00;  4.0000000E+04;  3.8671683E-04;  0.0000000E+00; -3.6462538E-07;  1.8210577E+01;
 -1.4000000E-01;  9.9999998E-03;  1.7000000E-01;606;  0.0000000E+00;  0.0000000E+00;  0.0000000E+00;  1.0000000E+03;  1.0000000E-01;  0.0000000E+00;0;  0.0000000E+00;  0.0000000E+00;  0.0000000E+00;0;  3.8882630E-04;  4.0000000E+04;  0.0000000E+00;  0.0000000E+00;  4.0000000E+04;  0.0000000E+00;  4.0000000E+04;  3.8946501E-04;  0.0000000E+00; -6.3872318E-07;  1.8196463E+01;
 -1.4000000E-01;  9.9999998E-03;  1.8000001E-01;607;  0.0000000E+00;  0.0000000E+00;  0.0000000E+00;  1.0000000E+03;  1.0000000E-01;  0.0000000E+00;0;  0.0000000E+00;  0.0000000E+00;  0.0000000E+00;0;  3.9171375E-04;  4.0000000E+04;  0.0000000E+00;  0.0000000E+00;  4.0000000E+04;  0.0000000E+00;  4.0000000E+04;  3.9278480E-04;  0.0000000E+00; -1.0710402E-06;  1.7963633E+01;
 -1.4000000E-01;  9.9999998E-03;  1.9000000E-01;608;  0.0000000E+00;  0.0000000E+00;  0.0000000E+00;  1.0000000E+03;  1.0000000E-01;  0.0000000E+00;0;  0.0000000E+00;  0.0000000E+00;  0.0000000E+00;0;  3.9430338E-04;  4.0000000E+04;  0.0000000E+00;  0.0000000E+00;  4.0000000E+04;  0.0000000E+00;  4.0000000E+04;  3.9595389E-04;  0.0000000E+00; -1.6504943E-06;  1.7512468E+01;
 -1.4000000E-01;  9.9999998E-03;  2.0000000E-01;609;  0.0000000E+00;  0.0000000E+00;  0.0000000E+00;  1.0000000E+03;  1.0000000E-01;  0.0000000E+00;0;  0.0000000E+00;  0.0000000E+00;  0.0000000E+00;0;  3.9556317E-04;  4.0000000E+04;  0.0000000E+00;  0.0000000E+00;  4.0000000E+04;  0.0000000E+00;  4.0000000E+04;  3.9790221E-04;  0.0000000E+00; -2.3390521E-06;  1.6835764E+01;
 -1.4000000E-01;  9.9999998E-03;  2.0999999E-01;610;  0.0000000E+00;  0.0000000E+00;  0.0000000E+00;  1.0000000E+03;  1.0000000E-01;  0.0000000E+00;0;  0.0000000E+00;  0.0000000E+00;  0.0000000E+00;0;  3.9417631E-04;  4.0000000E+04;  0.0000000E+00;  0.0000000E+00;  4.0000000E+04;  0.0000000E+00;  4.0000000E+04;  3.9722543E-04;  0.0000000E+00; -3.0491080E-06;  1.5890073E+01;
 -1.4000000E-01;  9.9999998E-03;  2.2000000E-01;611;  0.0000000E+00;  0.0000000E+00;  0.0000000E+00;  1.0000000E+03;  1.0000000E-01;  0.0000000E+00;0;  0.0000000E+00;  0.0000000E+00;  0.0000000E+00;0;  3.8854574E-04;  4.0000000E+04;  0.0000000E+00;  0.0000000E+00;  4.0000000E+04;  0.0000000E+00;  4.0000000E+04;  3.9213718E-04;  0.0000000E+00; -3.5914502E-06;  1.4550795E+01;
 -1.4000000E-01;  9.9999998E-03;  2.3000000E-01;612;  0.0000000E+00;  0.0000000E+00;  0.0000000E+00;  1.0000000E+03;  1.0000000E-01;  0.0000000E+00;0;  0.0000000E+00;  0.0000000E+00;  0.0000000E+00;0;  3.7703160E-04;  4.0000000E+04;  0.0000000E+00;  0.0000000E+00;  4.0000000E+04;  0.0000000E+00;  4.0000000E+04;  3.8075887E-04;  0.0000000E+00; -3.7272816E-06;  1.2678319E+01;
 -1.3000000E-01;  9.9999998E-03;  7.0000000E-02;687;  0.0000000E+00;  0.0000000E+00;  0.0000000E+00;  1.0000539E+03;  1.0000000E-01;  4.4640713E+01;0;  0.0000000E+00;  0.0000000E+00;  0.0000000E+00;0;  1.1277117E-03;  4.0000000E+04;  0.0000000E+00;  0.0000000E+00;  4.0000000E+04;  0.0000000E+00;  4.0000000E+04;  1.1317743E-03;  0.0000000E+00; -4.0625368E-06;  4.4717888E+01;
 -1.3000000E-01;  9.9999998E-03;  7.9999998E-02;688;  0.0000000E+00;  0.0000000E+00;  0.0000000E+00;  1.0000546E+03;  1.0000000E-01;  4.5233288E+01;0;  0.0000000E+00;  0.0000000E+00;  0.0000000E+00;0;  1.1286301E-03;  4.0000000E+04;  0.0000000E+00;  0.0000000E+00;  4.0000000E+04;  0.0000000E+00;  4.0000000E+04;  1.1327439E-03;  0.0000000E+00; -4.1138132E-06;  4.4174595E+01;
 -1.3000000E-01;  9.9999998E-03;  9.0000004E-02;689;  0.0000000E+00;  0.0000000E+00;  0.0000000E+00;  1.0000553E+03;  1.0000000E-01;  4.5825863E+01;0;  0.0000000E+00;  0.0000000E+00;  0.0000000E+00;0;  1.1284876E-03;  4.0000000E+04;  0.0000000E+00;  0.0000000E+00;  4.0000000E+04;  0.0000000E+00;  4.0000000E+04;  1.1323969E-03;  0.0000000E+00; -3.9092283E-06;  4.4052677E+01;
 -1.3000000E-01;  9.9999998E-03;  1.0000000E-01;690;  0.0000000E+00;  0.0000000E+00;  0.0000000E+00;  1.0000560E+03;  1.0000000E-01;  4.6418442E+01;0;  0.0000000E+00;  0.0000000E+00;  0.0000000E+00;0;  1.1273995E-03;  4.0000000E+04;  0.0000000E+00;  0.0000000E+00;  4.0000000E+04;  0.0000000E+00;  4.0000000E+04;  1.1308823E-03;  0.0000000E+00; -3.4827540E-06;  4.4407272E+01;
 -1.3000000E-01;  9.9999998E-03;  1.1000000E-01;691;  0.0000000E+00;  0.0000000E+00;  0.0000000E+00;  1.0000567E+03;  1.0000000E-01;  4.7011017E+01;0;  0.0000000E+00;  0.0000000E+00;  0.0000000E+00;0;  1.1256904E-03;  4.0000000E+04;  0.0000000E+00;  0.0000000E+00;  4.0000000E+04;  0.0000000E+00;  4.0000000E+04;  1.1286000E-03;  0.0000000E+00; -2.9095688E-06;  4.5219631E+01;
 -1.3000000E-01;  9.9999998E-03;  1.2000000E-01;692;  0.0000000E+00;  0.0000000E+00;  0.0000000E+00;  1.0000571E+03;  1.0000000E-01;  4.7307304E+01;0;  0.0000000E+00;  0.0000000E+00;  0.0000000E+00;0;  1.1238628E-03;  4.0000000E+04;  0.0000000E+00;  0.0000000E+00;  4.0000000E+04;  0.0000000E+00;  4.0000000E+04;  1.1261611E-03;  0.0000000E+00; -2.2983093E-06;  4.6394550E+01;
 -1.3000000E-01;  9.9999998E-03;  1.3000000E-01;693;  0.0000000E+00;  0.0000000E+00;  0.0000000E+00;  1.0000574E+03;  1.0000000E-01;  4.7504829E+01;0;  0.0000000E+00;  0.0000000E+00;  0.0000000E+00;0;  1.1225095E-03;  4.0000000E+04;  0.0000000E+00;  0.0000000E+00;  4.0000000E+04;  0.0000000E+00;  4.0000000E+04;  1.1242889E-03;  0.0000000E+00; -1.7793961E-06;  4.7772602E+01;
 -1.3000000E-01;  9.9999998E-03;  1.4000000E-01;694;  0.0000000E+00;  0.0000000E+00;  0.0000000E+00;  1.0000571E+03;  1.0000000E-01;  4.7307304E+01;0;  0.0000000E+00;  0.0000000E+00;  0.0000000E+00;0;  1.1221756E-03;  4.0000000E+04;  0.0000000E+00;  0.0000000E+00;  4.0000000E+04;  0.0000000E+00;  4.0000000E+04;  1.1236661E-03;  0.0000000E+00; -1.4904947E-06;  4.9157150E+01;
 -1.3000000E-01;  9.9999998E-03;  1.5000001E-01;695;  0.0000000E+00;  0.0000000E+00;  0.0000000E+00;  1.0000561E+03;  1.0000000E-01;  4.6517204E+01;0;  0.0000000E+00;  0.0000000E+00;  0.0000000E+00;0;  1.1231891E-03;  4.0000000E+04;  0.0000000E+00;  0.0000000E+00;  4.0000000E+04;  0.0000000E+00;  4.0000000E+04;  1.1247493E-03;  0.0000000E+00; -1.5601826E-06;  5.0351238E+01;
 -1.3000000E-01;  9.9999998E-03;  1.6000000E-01;696;  0.0000000E+00;  0.0000000E+00;  0.0000000E+00;  1.0000557E+03;  1.0000000E-01;  4.6122154E+01;0;  0.0000000E+00;  0.0000000E+00;  0.0000000E+00;0;  1.1254706E-03;  4.0000000E+04;  0.0000000E+00;  0.0000000E+00;  4.0000000E+04;  0.0000000E+00;  4.0000000E+04;  1.1275618E-03;  0.0000000E+00; -2.0911598E-06;  5.1191219E+01;
 -1.3000000E-01;  9.9999998E-03;  1.7000000E-01;697;  0.0000000E+00;  0.0000000E+00;  0.0000000E+00;  1.0000549E+03;  1.0000000E-01;  4.5430813E+01;0;  0.0000000E+00;  0.0000000E+00;  0.0000000E+00;0;  1.1283701E-03;  4.0000000E+04;  0.0000000E+00;  0.0000000E+00;  4.0000000E+04;  0.0000000E+00;  4.0000000E+04;  1.1315142E-03;  0.0000000E+00; -3.1441036E-06;  5.1569023E+01;
 -1.3000000E-01;  9.9999998E-03;  1.8000001E-01;698;  0.0000000E+00;  0.0000000E+00;  0.0000000E+00;  1.0000537E+03;  1.0000000E-01;  4.4541950E+01;0;  0.0000000E+00;  0.0000000E+00;  0.0000000E+00;0;  1.1305341E-03;  4.0000000E+04;  0.0000000E+00;  0.0000000E+00;  4.0000000E+04;  0.0000000E+00;  4.0000000E+04;  1.1352544E-03;  0.0000000E+00; -4.7202625E-06;  5.1421364E+01;
 -1.3000000E-01;  9.9999998E-03;  1.9000000E-01;699;  0.0000000E+00;  0.0000000E+00;  0.0000000E+00;  1.0000519E+03;  1.0000000E-01;  4.2961746E+01;0;  0.0000000E+00;  0.0000000E+00;  0.0000000E+00;0;  1.1298952E-03;  4.0000000E+04;  0.0000000E+00;  0.0000000E+00;  4.0000000E+04;  0.0000000E+00;  4.0000000E+04;  1.1366307E-03;  0.0000000E+00; -6.7354226E-06;  5.0685738E+01;
 -1.3000000E-01;  9.9999998E-03;  2.0000000E-01;700;  0.0000000E+00;  0.0000000E+00;  0.0000000E+00;  1.0000490E+03;  1.0000000E-01;  4.0591446E+01;0;  0.0000000E+00;  0.0000000E+00;  0.0000000E+00;0;  1.1236984E-03;  4.0000000E+04;  0.0000000E+00;  0.0000000E+00;  4.0000000E+04;  0.0000000E+00;  4.0000000E+04;  1.1326536E-03;  0.0000000E+00; -8.9551886E-06;  4.9222359E+01;
 -1.3000000E-01;  9.9999998E-03;  2.0999999E-01;701;  0.0000000E+00;  0.0000000E+00;  0.0000000E+00;  1.0000466E+03;  1.0000000E-01;  3.8616192E+01;0;  0.0000000E+00;  0.0000000E+00;  0.0000000E+00;0;  1.1085945E-03;  4.0000000E+04;  0.0000000E+00;  0.0000000E+00;  4.0000000E+04;  0.0000000E+00;  4.0000000E+04;  1.1195014E-03;  0.0000000E+00; -1.0906917E-05;  4.6729031E+01;
 -1.3000000E-01;  9.9999998E-03;  2.2000000E-01;702;  0.0000000E+00;  0.0000000E+00;  0.0000000E+00;  1.0000442E+03;  1.0000000E-01;  3.6640938E+01;0;  0.0000000E+00;  0.0000000E+00;  0.0000000E+00;0;  1.0811106E-03;  4.0000000E+04;  0.0000000E+00;  0.0000000E+00;  4.0000000E+04;  0.0000000E+00;  4.0000000E+04;  1.0930968E-03;  0.0000000E+00; -1.1986253E-05;  4.2862522E+01;
 -1.3000000E-01;  9.9999998E-03;  2.3000000E-01;703;  0.0000000E+00;  0.0000000E+00;  0.0000000E+00;  1.0000365E+03;  1.0000000E-01;  3.0221367E+01;0;  0.0000000E+00;  0.0000000E+00;  0.0000000E+00;0;  1.0382928E-03;  4.0000000E+04;  0.0000000E+00;  0.0000000E+00;  4.0000000E+04;  0.0000000E+00;  4.0000000E+04;  1.0499154E-03;  0.0000000E+00; -1.1622720E-05;  3.7320118E+01;
 -1.2000000E-01;  9.9999998E-03;  7.0000000E-02;778;  0.0000000E+00;  0.0000000E+00;  0.0000000E+00;  1.0001512E+03;  1.0000000E-01;  1.2523103E+02;0;  0.0000000E+00;  0.0000000E+00;  0.0000000E+00;0;  2.4650025E-03;  4.0000000E+04;  0.0000000E+00;  0.0000000E+00;  4.0000000E+04;  0.0000000E+00;  4.0000000E+04;  2.4765464E-03;  0.0000000E+00; -1.1543906E-05;  9.6332481E+01;
 -1.2000000E-01;  9.9999998E-03;  7.9999998E-02;779;  0.0000000E+00;  0.0000000E+00;  0.0000000E+00;  1.0001555E+03;  1.0000000E-01;  1.2888524E+02;0;  0.0000000E+00;  0.0000000E+00;  0.0000000E+00;0;  2.4672616E-03;  4.0000000E+04;  0.0000000E+00;  0.0000000E+00;  4.0000000E+04;  0.0000000E+00;  4.0000000E+04;  2.4789253E-03;  0.0000000E+00; -1.1663717E-05;  9.4832069E+01;
 -1.2000000E-01;  9.9999998E-03;  9.0000004E-02;780;  0.0000000E+00;  0.0000000E+00;  0.0000000E+00;  1.0001583E+03;  1.0000000E-01;  1.3115678E+02;0;  0.0000000E+00;  0.0000000E+00;  0.0000000E+00;0;  2.4675634E-03;  4.0000000E+04;  0.0000000E+00;  0.0000000E+00;  4.0000000E+04;  0.0000000E+00;  4.0000000E+04;  2.4787167E-03;  0.0000000E+00; -1.1153311E-05;  9.4321259E+01;
 -1.2000000E-01;  9.9999998E-03;  1.0000000E-01;781;  0.0000000E+00;  0.0000000E+00;  0.0000000E+00;  1.0001602E+03;  1.0000000E-01;  1.3273698E+02;0;  0.0000000E+00;  0.0000000E+00;  0.0000000E+00;0;  2.4661070E-03;  4.0000000E+04;  0.0000000E+00;  0.0000000E+00;  4.0000000E+04;  0.0000000E+00;  4.0000000E+04;  2.4762126E-03;  0.0000000E+00; -1.0105554E-05;  9.4912674E+01;
 -1.2000000E-01;  9.9999998E-03;  1.1000000E-01;782;  0.0000000E+00;  0.0000000E+00;  0.0000000E+00;  1.0001619E+03;  1.0000000E-01;  1.3411966E+02;0;  0.0000000E+00;  0.0000000E+00;  0.0000000E+00;0;  2.4634628E-03;  4.0000000E+04;  0.0000000E+00;  0.0000000E+00;  4.0000000E+04;  0.0000000E+00;  4.0000000E+04;  2.4721811E-03;  0.0000000E+00; -8.7184562E-06;  9.6565811E+01;
 -1.2000000E-01;  9.9999998E-03;  1.2000000E-01;783;  0.0000000E+00;  0.0000000E+00;  0.0000000E+00;  1.0001634E+03;  1.0000000E-01;  1.3540358E+02;0;  0.0000000E+00;  0.0000000E+00;  0.0000000E+00;0;  2.4604599E-03;  4.0000000E+04;  0.0000000E+00;  0.0000000E+00;  4.0000000E+04;  0.0000000E+00;  4.0000000E+04;  2.4677340E-03;  0.0000000E+00; -7.2741341E-06;  9.9088371E+01;
 -1.2000000E-01;  9.9999998E-03;  1.3000000E-01;784;  0.0000000E+00;  0.0000000E+00;  0.0000000E+00;  1.0001644E+03;  1.0000000E-01;  1.3619368E+02;0;  0.0000000E+00;  0.0000000E+00;  0.0000000E+00;0;  2.4580033E-03;  4.0000000E+04;  0.0000000E+00;  0.0000000E+00;  4.0000000E+04;  0.0000000E+00;  4.0000000E+04;  2.4641103E-03;  0.0000000E+00; -6.1069118E-06;  1.0216611E+02;
 -1.2000000E-01;  9.9999998E-03;  1.4000000E-01;785;  0.0000000E+00;  0.0000000E+00;  0.0000000E+00;  1.0001650E+03;  1.0000000E-01;  1.3668748E+02;0;  0.0000000E+00;  0.0000000E+00;  0.0000000E+00;0;  2.4567950E-03;  4.0000000E+04;  0.0000000E+00;  0.0000000E+00;  4.0000000E+04;  0.0000000E+00;  4.0000000E+04;  2.4623587E-03;  0.0000000E+00; -5.5637202E-06;  1.0542136E+02;
 -1.2000000E-01;  9.9999998E-03;  1.5000001E-01;786;  0.0000000E+00;  0.0000000E+00;  0.0000000E+00;  1.0001613E+03;  1.0000000E-01;  1.3362585E+02;0;  0.0000000E+00;  0.0000000E+00;  0.0000000E+00;0;  2.4570080E-03;  4.0000000E+04;  0.0000000E+00;  0.0000000E+00;  4.0000000E+04;  0.0000000E+00;  4.0000000E+04;  2.4629687E-03;  0.0000000E+00; -5.9606937E-06;  1.0848036E+02;
 -1.2000000E-01;  9.9999998E-03;  1.6000000E-01;787;  0.0000000E+00;  0.0000000E+00;  0.0000000E+00;  1.0001506E+03;  1.0000000E-01;  1.2473721E+02;0;  0.0000000E+00;  0.0000000E+00;  0.0000000E+00;0;  2.4579575E-03;  4.0000000E+04;  0.0000000E+00;  0.0000000E+00;  4.0000000E+04;  0.0000000E+00;  4.0000000E+04;  2.4654963E-03;  0.0000000E+00; -7.5387243E-06;  1.1103012E+02;
 -1.2000000E-01;  9.9999998E-03;  1.7000000E-01;788;  0.0000000E+00;  0.0000000E+00;  0.0000000E+00;  1.0001422E+03;  1.0000000E-01;  1.1782383E+02;0;  0.0000000E+00;  0.0000000E+00;  0.0000000E+00;0;  2.4578269E-03;  4.0000000E+04;  0.0000000E+00;  0.0000000E+00;  4.0000000E+04;  0.0000000E+00;  4.0000000E+04;  2.4682432E-03;  0.0000000E+00; -1.0416353E-05;  1.1283066E+02;
 -1.2000000E-01;  9.9999998E-03;  1.8000001E-01;789;  0.0000000E+00;  0.0000000E+00;  0.0000000E+00;  1.0001324E+03;  1.0000000E-01;  1.0972529E+02;0;  0.0000000E+00;  0.0000000E+00;  0.0000000E+00;0;  2.4535386E-03;  4.0000000E+04;  0.0000000E+00;  0.0000000E+00;  4.0000000E+04;  0.0000000E+00;  4.0000000E+04;  2.4680672E-03;  0.0000000E+00; -1.4528595E-05;  1.1366296E+02;
 -1.2000000E-01;  9.9999998E-03;  1.9000000E-01;790;  0.0000000E+00;  0.0000000E+00;  0.0000000E+00;  1.0001251E+03;  1.0000000E-01;  1.0360201E+02;0;  0.0000000E+00;  0.0000000E+00;  0.0000000E+00;0;  2.4407255E-03;  4.0000000E+04;  0.0000000E+00;  0.0000000E+00;  4.0000000E+04;  0.0000000E+00;  4.0000000E+04;  2.4602243E-03;  0.0000000E+00; -1.9498919E-05;  1.1319769E+02;
 -1.2000000E-01;  9.9999998E-03;  2.0000000E-01;791;  0.0000000E+00;  0.0000000E+00;  0.0000000E+00;  1.0001177E+03;  1.0000000E-01;  9.7577484E+01;0;  0.0000000E+00;  0.0000000E+00;  0.0000000E+00;0;  2.4138906E-03;  4.0000000E+04;  0.0000000E+00;  0.0000000E+00;  4.0000000E+04;  0.0000000E+00;  4.0000000E+04;  2.4383718E-03;  0.0000000E+00; -2.4481318E-05;  1.1085072E+02;
 -1.2000000E-01;  9.9999998E-03;  2.0999999E-01;792;  0.0000000E+00;  0.0000000E+00;  0.0000000E+00;  1.0001130E+03;  1.0000000E-01;  9.3626984E+01;0;  0.0000000E+00;  0.0000000E+00;  0.0000000E+00;0;  2.3670404E-03;  4.0000000E+04;  0.0000000E+00;  0.0000000E+00;  4.0000000E+04;  0.0000000E+00;  4.0000000E+04;  2.3953218E-03;  0.0000000E+00; -2.8281558E-05;  1.0589420E+02;
 -1.2000000E-01;  9.9999998E-03;  2.2000000E-01;793;  0.0000000E+00;  0.0000000E+00;  0.0000000E+00;  1.0001079E+03;  1.0000000E-01;  8.9380188E+01;0;  0.0000000E+00;  0.0000000E+00;  0.0000000E+00;0;  2.2945551E-03;  4.0000000E+04;  0.0000000E+00;  0.0000000E+00;  4.0000000E+04;  0.0000000E+00;  4.0000000E+04;  2.3241562E-03;  0.0000000E+00; -2.9601251E-05;  9.7526566E+01;
 -1.2000000E-01;  9.9999998E-03;  2.3000000E-01;794;  0.0000000E+00;  0.0000000E+00;  0.0000000E+00;  1.0000953E+03;  1.0000000E-01;  7.9010109E+01;0;  0.0000000E+00;  0.0000000E+00;  0.0000000E+00;0;  2.1921839E-03;  4.0000000E+04;  0.0000000E+00;  0.0000000E+00;  4.0000000E+04;  0.0000000E+00;  4.0000000E+04;  2.2195608E-03;  0.0000000E+00; -2.7376838E-05;  8.5110687E+01;
 -1.1000000E-01;  9.9999998E-03;  7.0000000E-02;869;  0.0000000E+00;  0.0000000E+00;  0.0000000E+00;  1.0003170E+03;  1.0000000E-01;  2.6260986E+02;0;  0.0000000E+00;  0.0000000E+00;  0.0000000E+00;0;  4.5143845E-03;  4.0000000E+04;  0.0000000E+00;  0.0000000E+00;  4.0000000E+04;  0.0000000E+00;  4.0000000E+04;  4.5411456E-03;  0.0000000E+00; -2.6760898E-05;  1.7654129E+02;
 -1.1000000E-01;  9.9999998E-03;  7.9999998E-02;870;  0.0000000E+00;  0.0000000E+00;  0.0000000E+00;  1.0003236E+03;  1.0000000E-01;  2.6814056E+02;0;  0.0000000E+00;  0.0000000E+00;  0.0000000E+00;0;  4.5188395E-03;  4.0000000E+04;  0.0000000E+00;  0.0000000E+00;  4.0000000E+04;  0.0000000E+00;  4.0000000E+04;  4.5458283E-03;  0.0000000E+00; -2.6988570E-05;  1.7319839E+02;
 -1.1000000E-01;  9.9999998E-03;  9.0000004E-02;871;  0.0000000E+00;  0.0000000E+00;  0.0000000E+00;  1.0003281E+03;  1.0000000E-01;  2.7189355E+02;0;  0.0000000E+00;  0.0000000E+00;  0.0000000E+00;0;  4.5202128E-03;  4.0000000E+04;  0.0000000E+00;  0.0000000E+00;  4.0000000E+04;  0.0000000E+00;  4.0000000E+04;  4.5461725E-03;  0.0000000E+00; -2.5959607E-05;  1.7179810E+02;
 -1.1000000E-01;  9.9999998E-03;  1.0000000E-01;872;  0.0000000E+00;  0.0000000E+00;  0.0000000E+00;  1.0003330E+03;  1.0000000E-01;  2.7584406E+02;0;  0.0000000E+00;  0.0000000E+00;  0.0000000E+00;0;  4.5188046E-03;  4.0000000E+04;  0.0000000E+00;  0.0000000E+00;  4.0000000E+04;  0.0000000E+00;  4.0000000E+04;  4.5426828E-03;  0.0000000E+00; -2.3878199E-05;  1.7254028E+02;
 -1.1000000E-01;  9.9999998E-03;  1.1000000E-01;873;  0.0000000E+00;  0.0000000E+00;  0.0000000E+00;  1.0003386E+03;  1.0000000E-01;  2.8058466E+02;0;  0.0000000E+00;  0.0000000E+00;  0.0000000E+00;0;  4.5154304E-03;  4.0000000E+04;  0.0000000E+00;  0.0000000E+00;  4.0000000E+04;  0.0000000E+00;  4.0000000E+04;  4.5365947E-03;  0.0000000E+00; -2.1164447E-05;  1.7535768E+02;
 -1.1000000E-01;  9.9999998E-03;  1.2000000E-01;874;  0.0000000E+00;  0.0000000E+00;  0.0000000E+00;  1.0003402E+03;  1.0000000E-01;  2.8186856E+02;0;  0.0000000E+00;  0.0000000E+00;  0.0000000E+00;0;  4.5112153E-03;  4.0000000E+04;  0.0000000E+00;  0.0000000E+00;  4.0000000E+04;  0.0000000E+00;  4.0000000E+04;  4.5296247E-03;  0.0000000E+00; -1.8409679E-05;  1.7993031E+02;
 -1.1000000E-01;  9.9999998E-03;  1.3000000E-01;875;  0.0000000E+00;  0.0000000E+00;  0.0000000E+00;  1.0003375E+03;  1.0000000E-01;  2.7959702E+02;0;  0.0000000E+00;  0.0000000E+00;  0.0000000E+00;0;  4.5072776E-03;  4.0000000E+04;  0.0000000E+00;  0.0000000E+00;  4.0000000E+04;  0.0000000E+00;  4.0000000E+04;  4.5235846E-03;  0.0000000E+00; -1.6307218E-05;  1.8574454E+02;
 -1.1000000E-01;  9.9999998E-03;  1.4000000E-01;876;  0.0000000E+00;  0.0000000E+00;  0.0000000E+00;  1.0003242E+03;  1.0000000E-01;  2.6863437E+02;0;  0.0000000E+00;  0.0000000E+00;  0.0000000E+00;0;  4.5042401E-03;  4.0000000E+04;  0.0000000E+00;  0.0000000E+00;  4.0000000E+04;  0.0000000E+00;  4.0000000E+04;  4.5198072E-03;  0.0000000E+00; -1.5567286E-05;  1.9220328E+02;
 -1.1000000E-01;  9.9999998E-03;  1.5000001E-01;877;  0.0000000E+00;  0.0000000E+00;  0.0000000E+00;  1.0003166E+03;  1.0000000E-01;  2.6231357E+02;0;  0.0000000E+00;  0.0000000E+00;  0.0000000E+00;0;  4.5017488E-03;  4.0000000E+04;  0.0000000E+00;  0.0000000E+00;  4.0000000E+04;  0.0000000E+00;  4.0000000E+04;  4.5185727E-03;  0.0000000E+00; -1.6824055E-05;  1.9872081E+02;
 -1.1000000E-01;  9.9999998E-03;  1.6000000E-01;878;  0.0000000E+00;  0.0000000E+00;  0.0000000E+00;  1.0003104E+03;  1.0000000E-01;  2.5717792E+02;0;  0.0000000E+00;  0.0000000E+00;  0.0000000E+00;0;  4.4979481E-03;  4.0000000E+04;  0.0000000E+00;  0.0000000E+00;  4.0000000E+04;  0.0000000E+00;  4.0000000E+04;  4.5184842E-03;  0.0000000E+00; -2.0535952E-05;  2.0478310E+02;
 -1.1000000E-01;  9.9999998E-03;  1.7000000E-01;879;  0.0000000E+00;  0.0000000E+00;  0.0000000E+00;  1.0003031E+03;  1.0000000E-01;  2.5115340E+02;0;  0.0000000E+00;  0.0000000E+00;  0.0000000E+00;0;  4.4891564E-03;  4.0000000E+04;  0.0000000E+00;  0.0000000E+00;  4.0000000E+04;  0.0000000E+00;  4.0000000E+04;  4.5160227E-03;  0.0000000E+00; -2.6866561E-05;  2.0990883E+02;
 -1.1000000E-01;  9.9999998E-03;  1.8000001E-01;880;  0.0000000E+00;  0.0000000E+00;  0.0000000E+00;  1.0002859E+03;  1.0000000E-01;  2.3683281E+02;0;  0.0000000E+00;  0.0000000E+00;  0.0000000E+00;0;  4.4696843E-03;  4.0000000E+04;  0.0000000E+00;  0.0000000E+00;  4.0000000E+04;  0.0000000E+00;  4.0000000E+04;  4.5051635E-03;  0.0000000E+00; -3.5479050E-05;  2.1349043E+02;
 -1.1000000E-01;  9.9999998E-03;  1.9000000E-01;881;  0.0000000E+00;  0.0000000E+00;  0.0000000E+00;  1.0002760E+03;  1.0000000E-01;  2.2863551E+02;0;  0.0000000E+00;  0.0000000E+00;  0.0000000E+00;0;  4.4319741E-03;  4.0000000E+04;  0.0000000E+00;  0.0000000E+00;  4.0000000E+04;  0.0000000E+00;  4.0000000E+04;  4.4772094E-03;  0.0000000E+00; -4.5235171E-05;  2.1454408E+02;
 -1.1000000E-01;  9.9999998E-03;  2.0000000E-01;882;  0.0000000E+00;  0.0000000E+00;  0.0000000E+00;  1.0002546E+03;  1.0000000E-01;  2.1095700E+02;0;  0.0000000E+00;  0.0000000E+00;  0.0000000E+00;0;  4.3671764E-03;  4.0000000E+04;  0.0000000E+00;  0.0000000E+00;  4.0000000E+04;  0.0000000E+00;  4.0000000E+04;  4.4214223E-03;  0.0000000E+00; -5.4246033E-05;  2.1176617E+02;
 -1.1000000E-01;  9.9999998E-03;  2.0999999E-01;883;  0.0000000E+00;  0.0000000E+00;  0.0000000E+00;  1.0002408E+03;  1.0000000E-01;  1.9950053E+02;0;  0.0000000E+00;  0.0000000E+00;  0.0000000E+00;0;  4.2662839E-03;  4.0000000E+04;  0.0000000E+00;  0.0000000E+00;  4.0000000E+04;  0.0000000E+00;  4.0000000E+04;  4.3264404E-03;  0.0000000E+00; -6.0156348E-05;  2.0354167E+02;
 -1.1000000E-01;  9.9999998E-03;  2.2000000E-01;884;  0.0000000E+00;  0.0000000E+00;  0.0000000E+00;  1.0002178E+03;  1.0000000E-01;  1.8043935E+02;0;  0.0000000E+00;  0.0000000E+00;  0.0000000E+00;0;  4.1214027E-03;  4.0000000E+04;  0.0000000E+00;  0.0000000E+00;  4.0000000E+04;  0.0000000E+00;  4.0000000E+04;  4.1820453E-03;  0.0000000E+00; -6.0642466E-05;  1.8824925E+02;
 -1.1000000E-01;  9.9999998E-03;  2.3000000E-01;885;  0.0000000E+00;  0.0000000E+00;  0.0000000E+00;  1.0002043E+03;  1.0000000E-01;  1.6927916E+02;0;  0.0000000E+00;  0.0000000E+00;  0.0000000E+00;0;  3.9270623E-03;  4.0000000E+04;  0.0000000E+00;  0.0000000E+00;  4.0000000E+04;  0.0000000E+00;  4.0000000E+04;  3.9810697E-03;  0.0000000E+00; -5.4007618E-05;  1.6477155E+02;
 -1.0000000E-01;  9.9999998E-03;  7.0000000E-02;960;  0.0000000E+00;  0.0000000E+00;  0.0000000E+00;  1.0005893E+03;  1.0000000E-01;  4.8818372E+02;0;  0.0000000E+00;  0.0000000E+00;  0.0000000E+00;0;  7.3400540E-03;  4.0000000E+04;  0.0000000E+00;  0.0000000E+00;  4.0000000E+04;  0.0000000E+00;  4.0000000E+04;  7.3940712E-03;  0.0000000E+00; -5.4017139E-05;  2.8986932E+02;
 -1.0000000E-01;  9.9999998E-03;  7.9999998E-02;961;  0.0000000E+00;  0.0000000E+00;  0.0000000E+00;  1.0005977E+03;  1.0000000E-01;  4.9519586E+02;0;  0.0000000E+00;  0.0000000E+00;  0.0000000E+00;0;  7.3477379E-03;  4.0000000E+04;  0.0000000E+00;  0.0000000E+00;  4.0000000E+04;  0.0000000E+00;  4.0000000E+04;  7.4021318E-03;  0.0000000E+00; -5.4393920E-05;  2.8344055E+02;
 -1.0000000E-01;  9.9999998E-03;  9.0000004E-02;962;  0.0000000E+00;  0.0000000E+00;  0.0000000E+00;  1.0006080E+03;  1.0000000E-01;  5.0378821E+02;0;  0.0000000E+00;  0.0000000E+00;  0.0000000E+00;0;  7.3510534E-03;  4.0000000E+04;  0.0000000E+00;  0.0000000E+00;  4.0000000E+04;  0.0000000E+00;  4.0000000E+04;  7.4036480E-03;  0.0000000E+00; -5.2594656E-05;  2.8038385E+02;
 -1.0000000E-01;  9.9999998E-03;  1.0000000E-01;963;  0.0000000E+00;  0.0000000E+00;  0.0000000E+00;  1.0006154E+03;  1.0000000E-01;  5.0981274E+02;0;  0.0000000E+00;  0.0000000E+00;  0.0000000E+00;0;  7.3503559E-03;  4.0000000E+04;  0.0000000E+00;  0.0000000E+00;  4.0000000E+04;  0.0000000E+00;  4.0000000E+04;  7.3993630E-03;  0.0000000E+00; -4.9007285E-05;  2.8102856E+02;
 -1.0000000E-01;  9.9999998E-03;  1.1000000E-01;964;  0.0000000E+00;  0.0000000E+00;  0.0000000E+00;  1.0006193E+03;  1.0000000E-01;  5.1307190E+02;0;  0.0000000E+00;  0.0000000E+00;  0.0000000E+00;0;  7.3466776E-03;  4.0000000E+04;  0.0000000E+00;  0.0000000E+00;  4.0000000E+04;  0.0000000E+00;  4.0000000E+04;  7.3910812E-03;  0.0000000E+00; -4.4403383E-05;  2.8528244E+02;
 -1.0000000E-01;  9.9999998E-03;  1.2000000E-01;965;  0.0000000E+00;  0.0000000E+00;  0.0000000E+00;  1.0006191E+03;  1.0000000E-01;  5.1297314E+02;0;  0.0000000E+00;  0.0000000E+00;  0.0000000E+00;0;  7.3413556E-03;  4.0000000E+04;  0.0000000E+00;  0.0000000E+00;  4.0000000E+04;  0.0000000E+00;  4.0000000E+04;  7.3812101E-03;  0.0000000E+00; -3.9854713E-05;  2.9267422E+02;
 -1.0000000E-01;  9.9999998E-03;  1.3000000E-01;966;  0.0000000E+00;  0.0000000E+00;  0.0000000E+00;  1.0006179E+03;  1.0000000E-01;  5.1188675E+02;0;  0.0000000E+00;  0.0000000E+00;  0.0000000E+00;0;  7.3355320E-03;  4.0000000E+04;  0.0000000E+00;  0.0000000E+00;  4.0000000E+04;  0.0000000E+00;  4.0000000E+04;  7.3721390E-03;  0.0000000E+00; -3.6606820E-05;  3.0248010E+02;
 -1.0000000E-01;  9.9999998E-03;  1.4000000E-01;967;  0.0000000E+00;  0.0000000E+00;  0.0000000E+00;  1.0006119E+03;  1.0000000E-01;  5.0694864E+02;0;  0.0000000E+00;  0.0000000E+00;  0.0000000E+00;0;  7.3294570E-03;  4.0000000E+04;  0.0000000E+00;  0.0000000E+00;  4.0000000E+04;  0.0000000E+00;  4.0000000E+04;  7.3653809E-03;  0.0000000E+00; -3.5923698E-05;  3.1387073E+02;
 -1.0000000E-01;  9.9999998E-03;  1.5000001E-01;968;  0.0000000E+00;  0.0000000E+00;  0.0000000E+00;  1.0006028E+03;  1.0000000E-01;  4.9944266E+02;0;  0.0000000E+00;  0.0000000E+00;  0.0000000E+00;0;  7.3218071E-03;  4.0000000E+04;  0.0000000E+00;  0.0000000E+00;  4.0000000E+04;  0.0000000E+00;  4.0000000E+04;  7.3607182E-03;  0.0000000E+00; -3.8911225E-05;  3.2604541E+02;
 -1.0000000E-01;  9.9999998E-03;  1.6000000E-01;969;  0.0000000E+00;  0.0000000E+00;  0.0000000E+00;  1.0005807E+03;  1.0000000E-01;  4.8117157E+02;0;  0.0000000E+00;  0.0000000E+00;  0.0000000E+00;0;  7.3089316E-03;  4.0000000E+04;  0.0000000E+00;  0.0000000E+00;  4.0000000E+04;  0.0000000E+00;  4.0000000E+04;  7.3552462E-03;  0.0000000E+00; -4.6314763E-05;  3.3822397E+02;
 -1.0000000E-01;  9.9999998E-03;  1.7000000E-01;970;  0.0000000E+00;  0.0000000E+00;  0.0000000E+00;  1.0005655E+03;  1.0000000E-01;  4.6852997E+02;0;  0.0000000E+00;  0.0000000E+00;  0.0000000E+00;0;  7.2845630E-03;  4.0000000E+04;  0.0000000E+00;  0.0000000E+00;  4.0000000E+04;  0.0000000E+00;  4.0000000E+04;  7.3427903E-03;  0.0000000E+00; -5.8227419E-05;  3.4950784E+02;
 -1.0000000E-01;  9.9999998E-03;  1.8000001E-01;971;  0.0000000E+00;  0.0000000E+00;  0.0000000E+00;  1.0005416E+03;  1.0000000E-01;  4.4867868E+02;0;  0.0000000E+00;  0.0000000E+00;  0.0000000E+00;0;  7.2396011E-03;  4.0000000E+04;  0.0000000E+00;  0.0000000E+00;  4.0000000E+04;  0.0000000E+00;  4.0000000E+04;  7.3131952E-03;  0.0000000E+00; -7.3593925E-05;  3.5850867E+02;
 -1.0000000E-01;  9.9999998E-03;  1.9000000E-01;972;  0.0000000E+00;  0.0000000E+00;  0.0000000E+00;  1.0005085E+03;  1.0000000E-01;  4.2122266E+02;0;  0.0000000E+00;  0.0000000E+00;  0.0000000E+00;0;  7.1626827E-03;  4.0000000E+04;  0.0000000E+00;  0.0000000E+00;  4.0000000E+04;  0.0000000E+00;  4.0000000E+04;  7.2527160E-03;  0.0000000E+00; -9.0033143E-05;  3.6325516E+02;
 -1.0000000E-01;  9.9999998E-03;  2.0000000E-01;973;  0.0000000E+00;  0.0000000E+00;  0.0000000E+00;  1.0004788E+03;  1.0000000E-01;  3.9672952E+02;0;  0.0000000E+00;  0.0000000E+00;  0.0000000E+00;0;  7.0412103E-03;  4.0000000E+04;  0.0000000E+00;  0.0000000E+00;  4.0000000E+04;  0.0000000E+00;  4.0000000E+04;  7.1452605E-03;  0.0000000E+00; -1.0404992E-04;  3.6110263E+02;
 -1.0000000E-01;  9.9999998E-03;  2.0999999E-01;974;  0.0000000E+00;  0.0000000E+00;  0.0000000E+00;  1.0004524E+03;  1.0000000E-01;  3.7480423E+02;0;  0.0000000E+00;  0.0000000E+00;  0.0000000E+00;0;  6.8628904E-03;  4.0000000E+04;  0.0000000E+00;  0.0000000E+00;  4.0000000E+04;  0.0000000E+00;  4.0000000E+04;  6.9745122E-03;  0.0000000E+00; -1.1162181E-04;  3.4897177E+02;
 -1.0000000E-01;  9.9999998E-03;  2.2000000E-01;975;  0.0000000E+00;  0.0000000E+00;  0.0000000E+00;  1.0004185E+03;  1.0000000E-01;  3.4665686E+02;0;  0.0000000E+00;  0.0000000E+00;  0.0000000E+00;0;  6.6173878E-03;  4.0000000E+04;  0.0000000E+00;  0.0000000E+00;  4.0000000E+04;  0.0000000E+00;  4.0000000E+04;  6.7264684E-03;  0.0000000E+00; -1.0908068E-04;  3.2405524E+02;
 -1.0000000E-01;  9.9999998E-03;  2.3000000E-01;976;  0.0000000E+00;  0.0000000E+00;  0.0000000E+00;  1.0003920E+03;  1.0000000E-01;  3.2483032E+02;0;  0.0000000E+00;  0.0000000E+00;  0.0000000E+00;0;  6.2979641E-03;  4.0000000E+04;  0.0000000E+00;  0.0000000E+00;  4.0000000E+04;  0.0000000E+00;  4.0000000E+04;  6.3919737E-03;  0.0000000E+00; -9.4009665E-05;  2.8461990E+02;
 -9.0000004E-02;  9.9999998E-03;  7.0000000E-02;1051;  0.0000000E+00;  0.0000000E+00;  0.0000000E+00;  1.0010292E+03;  1.0000000E-01;  8.5261786E+02;0;  0.0000000E+00;  0.0000000E+00;  0.0000000E+00;0;  1.0950153E-02;  4.0000000E+04;  0.0000000E+00;  0.0000000E+00;  4.0000000E+04;  0.0000000E+00;  4.0000000E+04;  1.1048666E-02;  0.0000000E+00; -9.8513607E-05;  4.3918750E+02;
 -9.0000004E-02;  9.9999998E-03;  7.9999998E-02;1052;  0.0000000E+00;  0.0000000E+00;  0.0000000E+00;  1.0010415E+03;  1.0000000E-01;  8.6288916E+02;0;  0.0000000E+00;  0.0000000E+00;  0.0000000E+00;0;  1.0962285E-02;  4.0000000E+04;  0.0000000E+00;  0.0000000E+00;  4.0000000E+04;  0.0000000E+00;  4.0000000E+04;  1.1061359E-02;  0.0000000E+00; -9.9074248E-05;  4.2811203E+02;
 -9.0000004E-02;  9.9999998E-03;  9.0000004E-02;1053;  0.0000000E+00;  0.0000000E+00;  0.0000000E+00;  1.0010532E+03;  1.0000000E-01;  8.7256793E+02;0;  0.0000000E+00;  0.0000000E+00;  0.0000000E+00;0;  1.0968605E-02;  4.0000000E+04;  0.0000000E+00;  0.0000000E+00;  4.0000000E+04;  0.0000000E+00;  4.0000000E+04;  1.1064833E-02;  0.0000000E+00; -9.6227508E-05;  4.2239203E+02;
 -9.0000004E-02;  9.9999998E-03;  1.0000000E-01;1054;  0.0000000E+00;  0.0000000E+00;  0.0000000E+00;  1.0010620E+03;  1.0000000E-01;  8.7987634E+02;0;  0.0000000E+00;  0.0000000E+00;  0.0000000E+00;0;  1.0969487E-02;  4.0000000E+04;  0.0000000E+00;  0.0000000E+00;  4.0000000E+04;  0.0000000E+00;  4.0000000E+04;  1.1060121E-02;  0.0000000E+00; -9.0634654E-05;  4.2253595E+02;
 -9.0000004E-02;  9.9999998E-03;  1.1000000E-01;1055;  0.0000000E+00;  0.0000000E+00;  0.0000000E+00;  1.0010677E+03;  1.0000000E-01;  8.8451819E+02;0;  0.0000000E+00;  0.0000000E+00;  0.0000000E+00;0;  1.0966109E-02;  4.0000000E+04;  0.0000000E+00;  0.0000000E+00;  4.0000000E+04;  0.0000000E+00;  4.0000000E+04;  1.1049679E-02;  0.0000000E+00; -8.3570158E-05;  4.2843048E+02;
 -9.0000004E-02;  9.9999998E-03;  1.2000000E-01;1056;  0.0000000E+00;  0.0000000E+00;  0.0000000E+00;  1.0010698E+03;  1.0000000E-01;  8.8629590E+02;0;  0.0000000E+00;  0.0000000E+00;  0.0000000E+00;0;  1.0959926E-02;  4.0000000E+04;  0.0000000E+00;  0.0000000E+00;  4.0000000E+04;  0.0000000E+00;  4.0000000E+04;  1.1036710E-02;  0.0000000E+00; -7.6784127E-05;  4.3945950E+02;
 -9.0000004E-02;  9.9999998E-03;  1.3000000E-01;1057;  0.0000000E+00;  0.0000000E+00;  0.0000000E+00;  1.0010654E+03;  1.0000000E-01;  8.8264172E+02;0;  0.0000000E+00;  0.0000000E+00;  0.0000000E+00;0;  1.0951919E-02;  4.0000000E+04;  0.0000000E+00;  0.0000000E+00;  4.0000000E+04;  0.0000000E+00;  4.0000000E+04;  1.1024214E-02;  0.0000000E+00; -7.2296236E-05;  4.5469403E+02;
 -9.0000004E-02;  9.9999998E-03;  1.4000000E-01;1058;  0.0000000E+00;  0.0000000E+00;  0.0000000E+00;  1.0010497E+03;  1.0000000E-01;  8.6960504E+02;0;  0.0000000E+00;  0.0000000E+00;  0.0000000E+00;0;  1.0941693E-02;  4.0000000E+04;  0.0000000E+00;  0.0000000E+00;  4.0000000E+04;  0.0000000E+00;  4.0000000E+04;  1.1013828E-02;  0.0000000E+00; -7.2135750E-05;  4.7311035E+02;
 -9.0000004E-02;  9.9999998E-03;  1.5000001E-01;1059;  0.0000000E+00;  0.0000000E+00;  0.0000000E+00;  1.0010308E+03;  1.0000000E-01;  8.5400055E+02;0;  0.0000000E+00;  0.0000000E+00;  0.0000000E+00;0;  1.0926461E-02;  4.0000000E+04;  0.0000000E+00;  0.0000000E+00;  4.0000000E+04;  0.0000000E+00;  4.0000000E+04;  1.1004498E-02;  0.0000000E+00; -7.8037279E-05;  4.9369092E+02;
 -9.0000004E-02;  9.9999998E-03;  1.6000000E-01;1060;  0.0000000E+00;  0.0000000E+00;  0.0000000E+00;  1.0010015E+03;  1.0000000E-01;  8.2970496E+02;0;  0.0000000E+00;  0.0000000E+00;  0.0000000E+00;0;  1.0900287E-02;  4.0000000E+04;  0.0000000E+00;  0.0000000E+00;  4.0000000E+04;  0.0000000E+00;  4.0000000E+04;  1.0991337E-02;  0.0000000E+00; -9.1049784E-05;  5.1532300E+02;
 -9.0000004E-02;  9.9999998E-03;  1.7000000E-01;1061;  0.0000000E+00;  0.0000000E+00;  0.0000000E+00;  1.0009678E+03;  1.0000000E-01;  8.0185388E+02;0;  0.0000000E+00;  0.0000000E+00;  0.0000000E+00;0;  1.0853619E-02;  4.0000000E+04;  0.0000000E+00;  0.0000000E+00;  4.0000000E+04;  0.0000000E+00;  4.0000000E+04;  1.0964493E-02;  0.0000000E+00; -1.1087436E-04;  5.3638776E+02;
 -9.0000004E-02;  9.9999998E-03;  1.8000001E-01;1062;  0.0000000E+00;  0.0000000E+00;  0.0000000E+00;  1.0009289E+03;  1.0000000E-01;  7.6955847E+02;0;  0.0000000E+00;  0.0000000E+00;  0.0000000E+00;0;  1.0773416E-02;  4.0000000E+04;  0.0000000E+00;  0.0000000E+00;  4.0000000E+04;  0.0000000E+00;  4.0000000E+04;  1.0908681E-02;  0.0000000E+00; -1.3526487E-04;  5.5441687E+02;
 -9.0000004E-02;  9.9999998E-03;  1.9000000E-01;1063;  0.0000000E+00;  0.0000000E+00;  0.0000000E+00;  1.0008832E+03;  1.0000000E-01;  7.3173242E+02;0;  0.0000000E+00;  0.0000000E+00;  0.0000000E+00;0;  1.0644091E-02;  4.0000000E+04;  0.0000000E+00;  0.0000000E+00;  4.0000000E+04;  0.0000000E+00;  4.0000000E+04;  1.0804076E-02;  0.0000000E+00; -1.5998477E-04;  5.6582410E+02;
 -9.0000004E-02;  9.9999998E-03;  2.0000000E-01;1064;  0.0000000E+00;  0.0000000E+00;  0.0000000E+00;  1.0008291E+03;  1.0000000E-01;  6.8689417E+02;0;  0.0000000E+00;  0.0000000E+00;  0.0000000E+00;0;  1.0448912E-02;  4.0000000E+04;  0.0000000E+00;  0.0000000E+00;  4.0000000E+04;  0.0000000E+00;  4.0000000E+04;  1.0628203E-02;  0.0000000E+00; -1.7929035E-04;  5.6590277E+02;
 -9.0000004E-02;  9.9999998E-03;  2.0999999E-01;1065;  0.0000000E+00;  0.0000000E+00;  0.0000000E+00;  1.0007768E+03;  1.0000000E-01;  6.4353735E+02;0;  0.0000000E+00;  0.0000000E+00;  0.0000000E+00;0;  1.0171948E-02;  4.0000000E+04;  0.0000000E+00;  0.0000000E+00;  4.0000000E+04;  0.0000000E+00;  4.0000000E+04;  1.0358959E-02;  0.0000000E+00; -1.8701184E-04;  5.4955249E+02;
 -9.0000004E-02;  9.9999998E-03;  2.2000000E-01;1066;  0.0000000E+00;  0.0000000E+00;  0.0000000E+00;  1.0007324E+03;  1.0000000E-01;  6.0669891E+02;0;  0.0000000E+00;  0.0000000E+00;  0.0000000E+00;0;  9.8000774E-03;  4.0000000E+04;  0.0000000E+00;  0.0000000E+00;  4.0000000E+04;  0.0000000E+00;  4.0000000E+04;  9.9779628E-03;  0.0000000E+00; -1.7788526E-04;  5.1239813E+02;
 -9.0000004E-02;  9.9999998E-03;  2.3000000E-01;1067;  0.0000000E+00;  0.0000000E+00;  0.0000000E+00;  1.0006755E+03;  1.0000000E-01;  5.5958911E+02;0;  0.0000000E+00;  0.0000000E+00;  0.0000000E+00;0;  9.3250191E-03;  4.0000000E+04;  0.0000000E+00;  0.0000000E+00;  4.0000000E+04;  0.0000000E+00;  4.0000000E+04;  9.4737737E-03;  0.0000000E+00; -1.4875419E-04;  4.5189386E+02;
 -7.9999998E-02;  9.9999998E-03;  7.0000000E-02;1142;  0.0000000E+00;  0.0000000E+00;  0.0000000E+00;  1.0016680E+03;  1.0000000E-01;  1.3818868E+03;0;  0.0000000E+00;  0.0000000E+00;  0.0000000E+00;0;  1.5281026E-02;  4.0000000E+04;  0.0000000E+00;  0.0000000E+00;  4.0000000E+04;  0.0000000E+00;  4.0000000E+04;  1.5447059E-02;  0.0000000E+00; -1.6603290E-04;  6.2462048E+02;
 -7.9999998E-02;  9.9999998E-03;  7.9999998E-02;1143;  0.0000000E+00;  0.0000000E+00;  0.0000000E+00;  1.0016845E+03;  1.0000000E-01;  1.3956149E+03;0;  0.0000000E+00;  0.0000000E+00;  0.0000000E+00;0;  1.5299011E-02;  4.0000000E+04;  0.0000000E+00;  0.0000000E+00;  4.0000000E+04;  0.0000000E+00;  4.0000000E+04;  1.5465800E-02;  0.0000000E+00; -1.6678897E-04;  6.0714496E+02;
 -7.9999998E-02;  9.9999998E-03;  9.0000004E-02;1144;  0.0000000E+00;  0.0000000E+00;  0.0000000E+00;  1.0016994E+03;  1.0000000E-01;  1.4079602E+03;0;  0.0000000E+00;  0.0000000E+00;  0.0000000E+00;0;  1.5309527E-02;  4.0000000E+04;  0.0000000E+00;  0.0000000E+00;  4.0000000E+04;  0.0000000E+00;  4.0000000E+04;  1.5472122E-02;  0.0000000E+00; -1.6259505E-04;  5.9762299E+02;
 -7.9999998E-02;  9.9999998E-03;  1.0000000E-01;1145;  0.0000000E+00;  0.0000000E+00;  0.0000000E+00;  1.0017098E+03;  1.0000000E-01;  1.4165525E+03;0;  0.0000000E+00;  0.0000000E+00;  0.0000000E+00;0;  1.5312981E-02;  4.0000000E+04;  0.0000000E+00;  0.0000000E+00;  4.0000000E+04;  0.0000000E+00;  4.0000000E+04;  1.5467466E-02;  0.0000000E+00; -1.5448505E-04;  5.9678534E+02;
 -7.9999998E-02;  9.9999998E-03;  1.1000000E-01;1146;  0.0000000E+00;  0.0000000E+00;  0.0000000E+00;  1.0017185E+03;  1.0000000E-01;  1.4237622E+03;0;  0.0000000E+00;  0.0000000E+00;  0.0000000E+00;0;  1.5310661E-02;  4.0000000E+04;  0.0000000E+00;  0.0000000E+00;  4.0000000E+04;  0.0000000E+00;  4.0000000E+04;  1.5455062E-02;  0.0000000E+00; -1.4440066E-04;  6.0451709E+02;
 -7.9999998E-02;  9.9999998E-03;  1.2000000E-01;1147;  0.0000000E+00;  0.0000000E+00;  0.0000000E+00;  1.0017195E+03;  1.0000000E-01;  1.4246511E+03;0;  0.0000000E+00;  0.0000000E+00;  0.0000000E+00;0;  1.5304084E-02;  4.0000000E+04;  0.0000000E+00;  0.0000000E+00;  4.0000000E+04;  0.0000000E+00;  4.0000000E+04;  1.5439065E-02;  0.0000000E+00; -1.3498112E-04;  6.2005322E+02;
 -7.9999998E-02;  9.9999998E-03;  1.3000000E-01;1148;  0.0000000E+00;  0.0000000E+00;  0.0000000E+00;  1.0017112E+03;  1.0000000E-01;  1.4176389E+03;0;  0.0000000E+00;  0.0000000E+00;  0.0000000E+00;0;  1.5293975E-02;  4.0000000E+04;  0.0000000E+00;  0.0000000E+00;  4.0000000E+04;  0.0000000E+00;  4.0000000E+04;  1.5423226E-02;  0.0000000E+00; -1.2925049E-04;  6.4230524E+02;
 -7.9999998E-02;  9.9999998E-03;  1.4000000E-01;1149;  0.0000000E+00;  0.0000000E+00;  0.0000000E+00;  1.0016862E+03;  1.0000000E-01;  1.3969976E+03;0;  0.0000000E+00;  0.0000000E+00;  0.0000000E+00;0;  1.5279047E-02;  4.0000000E+04;  0.0000000E+00;  0.0000000E+00;  4.0000000E+04;  0.0000000E+00;  4.0000000E+04;  1.5409265E-02;  0.0000000E+00; -1.3021792E-04;  6.7010004E+02;
 -7.9999998E-02;  9.9999998E-03;  1.5000001E-01;1150;  0.0000000E+00;  0.0000000E+00;  0.0000000E+00;  1.0016577E+03;  1.0000000E-01;  1.3732944E+03;0;  0.0000000E+00;  0.0000000E+00;  0.0000000E+00;0;  1.5254774E-02;  4.0000000E+04;  0.0000000E+00;  0.0000000E+00;  4.0000000E+04;  0.0000000E+00;  4.0000000E+04;  1.5395153E-02;  0.0000000E+00; -1.4037886E-04;  7.0223682E+02;
 -7.9999998E-02;  9.9999998E-03;  1.6000000E-01;1151;  0.0000000E+00;  0.0000000E+00;  0.0000000E+00;  1.0016116E+03;  1.0000000E-01;  1.3351721E+03;0;  0.0000000E+00;  0.0000000E+00;  0.0000000E+00;0;  1.5212467E-02;  4.0000000E+04;  0.0000000E+00;  0.0000000E+00;  4.0000000E+04;  0.0000000E+00;  4.0000000E+04;  1.5373443E-02;  0.0000000E+00; -1.6097666E-04;  7.3713892E+02;
 -7.9999998E-02;  9.9999998E-03;  1.7000000E-01;1152;  0.0000000E+00;  0.0000000E+00;  0.0000000E+00;  1.0015573E+03;  1.0000000E-01;  1.2902351E+03;0;  0.0000000E+00;  0.0000000E+00;  0.0000000E+00;0;  1.5138928E-02;  4.0000000E+04;  0.0000000E+00;  0.0000000E+00;  4.0000000E+04;  0.0000000E+00;  4.0000000E+04;  1.5329841E-02;  0.0000000E+00; -1.9091315E-04;  7.7224622E+02;
 -7.9999998E-02;  9.9999998E-03;  1.8000001E-01;1153;  0.0000000E+00;  0.0000000E+00;  0.0000000E+00;  1.0014953E+03;  1.0000000E-01;  1.2387798E+03;0;  0.0000000E+00;  0.0000000E+00;  0.0000000E+00;0;  1.5016823E-02;  4.0000000E+04;  0.0000000E+00;  0.0000000E+00;  4.0000000E+04;  0.0000000E+00;  4.0000000E+04;  1.5243017E-02;  0.0000000E+00; -2.2619359E-04;  8.0357764E+02;
 -7.9999998E-02;  9.9999998E-03;  1.9000000E-01;1154;  0.0000000E+00;  0.0000000E+00;  0.0000000E+00;  1.0014222E+03;  1.0000000E-01;  1.1783370E+03;0;  0.0000000E+00;  0.0000000E+00;  0.0000000E+00;0;  1.4825943E-02;  4.0000000E+04;  0.0000000E+00;  0.0000000E+00;  4.0000000E+04;  0.0000000E+00;  4.0000000E+04;  1.5085959E-02;  0.0000000E+00; -2.6001612E-04;  8.2518933E+02;
 -7.9999998E-02;  9.9999998E-03;  2.0000000E-01;1155;  0.0000000E+00;  0.0000000E+00;  0.0000000E+00;  1.0013427E+03;  1.0000000E-01;  1.1123636E+03;0;  0.0000000E+00;  0.0000000E+00;  0.0000000E+00;0;  1.4545010E-02;  4.0000000E+04;  0.0000000E+00;  0.0000000E+00;  4.0000000E+04;  0.0000000E+00;  4.0000000E+04;  1.4828818E-02;  0.0000000E+00; -2.8380711E-04;  8.2967682E+02;
 -7.9999998E-02;  9.9999998E-03;  2.0999999E-01;1156;  0.0000000E+00;  0.0000000E+00;  0.0000000E+00;  1.0012632E+03;  1.0000000E-01;  1.0464889E+03;0;  0.0000000E+00;  0.0000000E+00;  0.0000000E+00;0;  1.4153832E-02;  4.0000000E+04;  0.0000000E+00;  0.0000000E+00;  4.0000000E+04;  0.0000000E+00;  4.0000000E+04;  1.4442726E-02;  0.0000000E+00; -2.8889446E-04;  8.0942401E+02;
 -7.9999998E-02;  9.9999998E-03;  2.2000000E-01;1157;  0.0000000E+00;  0.0000000E+00;  0.0000000E+00;  1.0011782E+03;  1.0000000E-01;  9.7607117E+02;0;  0.0000000E+00;  0.0000000E+00;  0.0000000E+00;0;  1.3635905E-02;  4.0000000E+04;  0.0000000E+00;  0.0000000E+00;  4.0000000E+04;  0.0000000E+00;  4.0000000E+04;  1.3904152E-02;  0.0000000E+00; -2.6824771E-04;  7.5804425E+02;
 -7.9999998E-02;  9.9999998E-03;  2.3000000E-01;1158;  0.0000000E+00;  0.0000000E+00;  0.0000000E+00;  1.0010980E+03;  1.0000000E-01;  9.0960388E+02;0;  0.0000000E+00;  0.0000000E+00;  0.0000000E+00;0;  1.2980872E-02;  4.0000000E+04;  0.0000000E+00;  0.0000000E+00;  4.0000000E+04;  0.0000000E+00;  4.0000000E+04;  1.3198838E-02;  0.0000000E+00; -2.1796591E-04;  6.7183099E+02;
 -7.0000000E-02;  9.9999998E-03;  7.0000000E-02;1233;  0.0000000E+00;  0.0000000E+00;  0.0000000E+00;  1.0025554E+03;  1.0000000E-01;  2.1170759E+03;0;  0.0000000E+00;  0.0000000E+00;  0.0000000E+00;0;  2.0171272E-02;  4.0000000E+04;  0.0000000E+00;  0.0000000E+00;  4.0000000E+04;  0.0000000E+00;  4.0000000E+04;  2.0433670E-02;  0.0000000E+00; -2.6239755E-04;  8.4187714E+02;
 -7.0000000E-02;  9.9999998E-03;  7.9999998E-02;1234;  0.0000000E+00;  0.0000000E+00;  0.0000000E+00;  1.0025786E+03;  1.0000000E-01;  2.1363347E+03;0;  0.0000000E+00;  0.0000000E+00;  0.0000000E+00;0;  2.0196499E-02;  4.0000000E+04;  0.0000000E+00;  0.0000000E+00;  4.0000000E+04;  0.0000000E+00;  4.0000000E+04;  2.0459803E-02;  0.0000000E+00; -2.6330329E-04;  8.1628485E+02;
 -7.0000000E-02;  9.9999998E-03;  9.0000004E-02;1235;  0.0000000E+00;  0.0000000E+00;  0.0000000E+00;  1.0025992E+03;  1.0000000E-01;  2.1534207E+03;0;  0.0000000E+00;  0.0000000E+00;  0.0000000E+00;0;  2.0212421E-02;  4.0000000E+04;  0.0000000E+00;  0.0000000E+00;  4.0000000E+04;  0.0000000E+00;  4.0000000E+04;  2.0469841E-02;  0.0000000E+00; -2.5741852E-04;  8.0189575E+02;
 -7.0000000E-02;  9.9999998E-03;  1.0000000E-01;1236;  0.0000000E+00;  0.0000000E+00;  0.0000000E+00;  1.0026160E+03;  1.0000000E-01;  2.1672473E+03;0;  0.0000000E+00;  0.0000000E+00;  0.0000000E+00;0;  2.0219466E-02;  4.0000000E+04;  0.0000000E+00;  0.0000000E+00;  4.0000000E+04;  0.0000000E+00;  4.0000000E+04;  2.0465717E-02;  0.0000000E+00; -2.4625150E-04;  7.9969080E+02;
 -7.0000000E-02;  9.9999998E-03;  1.1000000E-01;1237;  0.0000000E+00;  0.0000000E+00;  0.0000000E+00;  1.0026234E+03;  1.0000000E-01;  2.1734695E+03;0;  0.0000000E+00;  0.0000000E+00;  0.0000000E+00;0;  2.0219080E-02;  4.0000000E+04;  0.0000000E+00;  0.0000000E+00;  4.0000000E+04;  0.0000000E+00;  4.0000000E+04;  2.0451652E-02;  0.0000000E+00; -2.3257149E-04;  8.0954535E+02;
 -7.0000000E-02;  9.9999998E-03;  1.2000000E-01;1238;  0.0000000E+00;  0.0000000E+00;  0.0000000E+00;  1.0026168E+03;  1.0000000E-01;  2.1679387E+03;0;  0.0000000E+00;  0.0000000E+00;  0.0000000E+00;0;  2.0212902E-02;  4.0000000E+04;  0.0000000E+00;  0.0000000E+00;  4.0000000E+04;  0.0000000E+00;  4.0000000E+04;  2.0433012E-02;  0.0000000E+00; -2.2011049E-04;  8.3055969E+02;
 -7.0000000E-02;  9.9999998E-03;  1.3000000E-01;1239;  0.0000000E+00;  0.0000000E+00;  0.0000000E+00;  1.0026042E+03;  1.0000000E-01;  2.1575686E+03;0;  0.0000000E+00;  0.0000000E+00;  0.0000000E+00;0;  2.0201413E-02;  4.0000000E+04;  0.0000000E+00;  0.0000000E+00;  4.0000000E+04;  0.0000000E+00;  4.0000000E+04;  2.0414531E-02;  0.0000000E+00; -2.1311812E-04;  8.6151630E+02;
 -7.0000000E-02;  9.9999998E-03;  1.4000000E-01;1240;  0.0000000E+00;  0.0000000E+00;  0.0000000E+00;  1.0025701E+03;  1.0000000E-01;  2.1292236E+03;0;  0.0000000E+00;  0.0000000E+00;  0.0000000E+00;0;  2.0182420E-02;  4.0000000E+04;  0.0000000E+00;  0.0000000E+00;  4.0000000E+04;  0.0000000E+00;  4.0000000E+04;  2.0398196E-02;  0.0000000E+00; -2.1577714E-04;  9.0116583E+02;
 -7.0000000E-02;  9.9999998E-03;  1.5000001E-01;1241;  0.0000000E+00;  0.0000000E+00;  0.0000000E+00;  1.0025219E+03;  1.0000000E-01;  2.0893237E+03;0;  0.0000000E+00;  0.0000000E+00;  0.0000000E+00;0;  2.0149531E-02;  4.0000000E+04;  0.0000000E+00;  0.0000000E+00;  4.0000000E+04;  0.0000000E+00;  4.0000000E+04;  2.0380950E-02;  0.0000000E+00; -2.3141943E-04;  9.4813654E+02;
 -7.0000000E-02;  9.9999998E-03;  1.6000000E-01;1242;  0.0000000E+00;  0.0000000E+00;  0.0000000E+00;  1.0024604E+03;  1.0000000E-01;  2.0384608E+03;0;  0.0000000E+00;  0.0000000E+00;  0.0000000E+00;0;  2.0091210E-02;  4.0000000E+04;  0.0000000E+00;  0.0000000E+00;  4.0000000E+04;  0.0000000E+00;  4.0000000E+04;  2.0352433E-02;  0.0000000E+00; -2.6122225E-04;  1.0002653E+03;
 -7.0000000E-02;  9.9999998E-03;  1.7000000E-01;1243;  0.0000000E+00;  0.0000000E+00;  0.0000000E+00;  1.0023754E+03;  1.0000000E-01;  1.9680431E+03;0;  0.0000000E+00;  0.0000000E+00;  0.0000000E+00;0;  1.9990448E-02;  4.0000000E+04;  0.0000000E+00;  0.0000000E+00;  4.0000000E+04;  0.0000000E+00;  4.0000000E+04;  2.0293312E-02;  0.0000000E+00; -3.0286348E-04;  1.0539415E+03;
 -7.0000000E-02;  9.9999998E-03;  1.8000001E-01;1244;  0.0000000E+00;  0.0000000E+00;  0.0000000E+00;  1.0022807E+03;  1.0000000E-01;  1.8895269E+03;0;  0.0000000E+00;  0.0000000E+00;  0.0000000E+00;0;  1.9825479E-02;  4.0000000E+04;  0.0000000E+00;  0.0000000E+00;  4.0000000E+04;  0.0000000E+00;  4.0000000E+04;  2.0175394E-02;  0.0000000E+00; -3.4991512E-04;  1.1030720E+03;
 -7.0000000E-02;  9.9999998E-03;  1.9000000E-01;1245;  0.0000000E+00;  0.0000000E+00;  0.0000000E+00;  1.0021740E+03;  1.0000000E-01;  1.8010355E+03;0;  0.0000000E+00;  0.0000000E+00;  0.0000000E+00;0;  1.9571152E-02;  4.0000000E+04;  0.0000000E+00;  0.0000000E+00;  4.0000000E+04;  0.0000000E+00;  4.0000000E+04;  1.9963559E-02;  0.0000000E+00; -3.9240700E-04;  1.1388107E+03;
 -7.0000000E-02;  9.9999998E-03;  2.0000000E-01;1246;  0.0000000E+00;  0.0000000E+00;  0.0000000E+00;  1.0020576E+03;  1.0000000E-01;  1.7046432E+03;0;  0.0000000E+00;  0.0000000E+00;  0.0000000E+00;0;  1.9200899E-02;  4.0000000E+04;  0.0000000E+00;  0.0000000E+00;  4.0000000E+04;  0.0000000E+00;  4.0000000E+04;  1.9619484E-02;  0.0000000E+00; -4.1858404E-04;  1.1506298E+03;
 -7.0000000E-02;  9.9999998E-03;  2.0999999E-01;1247;  0.0000000E+00;  0.0000000E+00;  0.0000000E+00;  1.0019374E+03;  1.0000000E-01;  1.6050905E+03;0;  0.0000000E+00;  0.0000000E+00;  0.0000000E+00;0;  1.8689496E-02;  4.0000000E+04;  0.0000000E+00;  0.0000000E+00;  4.0000000E+04;  0.0000000E+00;  4.0000000E+04;  1.9106548E-02;  0.0000000E+00; -4.1705105E-04;  1.1278684E+03;
 -7.0000000E-02;  9.9999998E-03;  2.2000000E-01;1248;  0.0000000E+00;  0.0000000E+00;  0.0000000E+00;  1.0018112E+03;  1.0000000E-01;  1.5005995E+03;0;  0.0000000E+00;  0.0000000E+00;  0.0000000E+00;0;  1.8016135E-02;  4.0000000E+04;  0.0000000E+00;  0.0000000E+00;  4.0000000E+04;  0.0000000E+00;  4.0000000E+04;  1.8394999E-02;  0.0000000E+00; -3.7886438E-04;  1.0616011E+03;
 -7.0000000E-02;  9.9999998E-03;  2.3000000E-01;1249;  0.0000000E+00;  0.0000000E+00;  0.0000000E+00;  1.0016871E+03;  1.0000000E-01;  1.3976888E+03;0;  0.0000000E+00;  0.0000000E+00;  0.0000000E+00;0;  1.7167533E-02;  4.0000000E+04;  0.0000000E+00;  0.0000000E+00;  4.0000000E+04;  0.0000000E+00;  4.0000000E+04;  1.7466862E-02;  0.0000000E+00; -2.9932841E-04;  9.4643359E+02;
 -5.9999999E-02;  9.9999998E-03;  7.0000000E-02;1324;  0.0000000E+00;  0.0000000E+00;  0.0000000E+00;  1.0037350E+03;  1.0000000E-01;  3.0944309E+03;0;  0.0000000E+00;  0.0000000E+00;  0.0000000E+00;0;  2.5334187E-02;  4.0000000E+04;  0.0000000E+00;  0.0000000E+00;  4.0000000E+04;  0.0000000E+00;  4.0000000E+04;  2.5726920E-02;  0.0000000E+00; -3.9273387E-04;  1.0804208E+03;
 -5.9999999E-02;  9.9999998E-03;  7.9999998E-02;1325;  0.0000000E+00;  0.0000000E+00;  0.0000000E+00;  1.0037656E+03;  1.0000000E-01;  3.1197144E+03;0;  0.0000000E+00;  0.0000000E+00;  0.0000000E+00;0;  2.5367819E-02;  4.0000000E+04;  0.0000000E+00;  0.0000000E+00;  4.0000000E+04;  0.0000000E+00;  4.0000000E+04;  2.5761446E-02;  0.0000000E+00; -3.9362686E-04;  1.0453480E+03;
 -5.9999999E-02;  9.9999998E-03;  9.0000004E-02;1326;  0.0000000E+00;  0.0000000E+00;  0.0000000E+00;  1.0037913E+03;  1.0000000E-01;  3.1410469E+03;0;  0.0000000E+00;  0.0000000E+00;  0.0000000E+00;0;  2.5390092E-02;  4.0000000E+04;  0.0000000E+00;  0.0000000E+00;  4.0000000E+04;  0.0000000E+00;  4.0000000E+04;  2.5775701E-02;  0.0000000E+00; -3.8560858E-04;  1.0253977E+03;
 -5.9999999E-02;  9.9999998E-03;  1.0000000E-01;1327;  0.0000000E+00;  0.0000000E+00;  0.0000000E+00;  1.0038100E+03;  1.0000000E-01;  3.1565527E+03;0;  0.0000000E+00;  0.0000000E+00;  0.0000000E+00;0;  2.5401521E-02;  4.0000000E+04;  0.0000000E+00;  0.0000000E+00;  4.0000000E+04;  0.0000000E+00;  4.0000000E+04;  2.5772275E-02;  0.0000000E+00; -3.7075416E-04;  1.0217919E+03;
 -5.9999999E-02;  9.9999998E-03;  1.1000000E-01;1328;  0.0000000E+00;  0.0000000E+00;  0.0000000E+00;  1.0038151E+03;  1.0000000E-01;  3.1607996E+03;0;  0.0000000E+00;  0.0000000E+00;  0.0000000E+00;0;  2.5403889E-02;  4.0000000E+04;  0.0000000E+00;  0.0000000E+00;  4.0000000E+04;  0.0000000E+00;  4.0000000E+04;  2.5756691E-02;  0.0000000E+00; -3.5280208E-04;  1.0343364E+03;
 -5.9999999E-02;  9.9999998E-03;  1.2000000E-01;1329;  0.0000000E+00;  0.0000000E+00;  0.0000000E+00;  1.0038051E+03;  1.0000000E-01;  3.1524048E+03;0;  0.0000000E+00;  0.0000000E+00;  0.0000000E+00;0;  2.5399076E-02;  4.0000000E+04;  0.0000000E+00;  0.0000000E+00;  4.0000000E+04;  0.0000000E+00;  4.0000000E+04;  2.5735827E-02;  0.0000000E+00; -3.3675149E-04;  1.0619606E+03;
 -5.9999999E-02;  9.9999998E-03;  1.3000000E-01;1330;  0.0000000E+00;  0.0000000E+00;  0.0000000E+00;  1.0037796E+03;  1.0000000E-01;  3.1313682E+03;0;  0.0000000E+00;  0.0000000E+00;  0.0000000E+00;0;  2.5387721E-02;  4.0000000E+04;  0.0000000E+00;  0.0000000E+00;  4.0000000E+04;  0.0000000E+00;  4.0000000E+04;  2.5715979E-02;  0.0000000E+00; -3.2825841E-04;  1.1033395E+03;
 -5.9999999E-02;  9.9999998E-03;  1.4000000E-01;1331;  0.0000000E+00;  0.0000000E+00;  0.0000000E+00;  1.0037349E+03;  1.0000000E-01;  3.0943323E+03;0;  0.0000000E+00;  0.0000000E+00;  0.0000000E+00;0;  2.5366850E-02;  4.0000000E+04;  0.0000000E+00;  0.0000000E+00;  4.0000000E+04;  0.0000000E+00;  4.0000000E+04;  2.5699671E-02;  0.0000000E+00; -3.3282096E-04;  1.1571686E+03;
 -5.9999999E-02;  9.9999998E-03;  1.5000001E-01;1332;  0.0000000E+00;  0.0000000E+00;  0.0000000E+00;  1.0036658E+03;  1.0000000E-01;  3.0370498E+03;0;  0.0000000E+00;  0.0000000E+00;  0.0000000E+00;0;  2.5328537E-02;  4.0000000E+04;  0.0000000E+00;  0.0000000E+00;  4.0000000E+04;  0.0000000E+00;  4.0000000E+04;  2.5683107E-02;  0.0000000E+00; -3.5456885E-04;  1.2219265E+03;
 -5.9999999E-02;  9.9999998E-03;  1.6000000E-01;1333;  0.0000000E+00;  0.0000000E+00;  0.0000000E+00;  1.0035711E+03;  1.0000000E-01;  2.9586323E+03;0;  0.0000000E+00;  0.0000000E+00;  0.0000000E+00;0;  2.5258556E-02;  4.0000000E+04;  0.0000000E+00;  0.0000000E+00;  4.0000000E+04;  0.0000000E+00;  4.0000000E+04;  2.5652865E-02;  0.0000000E+00; -3.9430818E-04;  1.2949672E+03;
 -5.9999999E-02;  9.9999998E-03;  1.7000000E-01;1334;  0.0000000E+00;  0.0000000E+00;  0.0000000E+00;  1.0034562E+03;  1.0000000E-01;  2.8634253E+03;0;  0.0000000E+00;  0.0000000E+00;  0.0000000E+00;0;  2.5136383E-02;  4.0000000E+04;  0.0000000E+00;  0.0000000E+00;  4.0000000E+04;  0.0000000E+00;  4.0000000E+04;  2.5584335E-02;  0.0000000E+00; -4.4795050E-04;  1.3713617E+03;
 -5.9999999E-02;  9.9999998E-03;  1.8000001E-01;1335;  0.0000000E+00;  0.0000000E+00;  0.0000000E+00;  1.0033204E+03;  1.0000000E-01;  2.7509346E+03;0;  0.0000000E+00;  0.0000000E+00;  0.0000000E+00;0;  2.4935748E-02;  4.0000000E+04;  0.0000000E+00;  0.0000000E+00;  4.0000000E+04;  0.0000000E+00;  4.0000000E+04;  2.5441822E-02;  0.0000000E+00; -5.0607265E-04;  1.4425798E+03;
 -5.9999999E-02;  9.9999998E-03;  1.9000000E-01;1336;  0.0000000E+00;  0.0000000E+00;  0.0000000E+00;  1.0031671E+03;  1.0000000E-01;  2.6238271E+03;0;  0.0000000E+00;  0.0000000E+00;  0.0000000E+00;0;  2.4626182E-02;  4.0000000E+04;  0.0000000E+00;  0.0000000E+00;  4.0000000E+04;  0.0000000E+00;  4.0000000E+04;  2.5181480E-02;  0.0000000E+00; -5.5529748E-04;  1.4966727E+03;
 -5.9999999E-02;  9.9999998E-03;  2.0000000E-01;1337;  0.0000000E+00;  0.0000000E+00;  0.0000000E+00;  1.0030060E+03;  1.0000000E-01;  2.4903987E+03;0;  0.0000000E+00;  0.0000000E+00;  0.0000000E+00;0;  2.4175061E-02;  4.0000000E+04;  0.0000000E+00;  0.0000000E+00;  4.0000000E+04;  0.0000000E+00;  4.0000000E+04;  2.4755625E-02;  0.0000000E+00; -5.8056467E-04;  1.5196842E+03;
 -5.9999999E-02;  9.9999998E-03;  2.0999999E-01;1338;  0.0000000E+00;  0.0000000E+00;  0.0000000E+00;  1.0028329E+03;  1.0000000E-01;  2.3469954E+03;0;  0.0000000E+00;  0.0000000E+00;  0.0000000E+00;0;  2.3551065E-02;  4.0000000E+04;  0.0000000E+00;  0.0000000E+00;  4.0000000E+04;  0.0000000E+00;  4.0000000E+04;  2.4118682E-02;  0.0000000E+00; -5.6761724E-04;  1.4974806E+03;
 -5.9999999E-02;  9.9999998E-03;  2.2000000E-01;1339;  0.0000000E+00;  0.0000000E+00;  0.0000000E+00;  1.0026552E+03;  1.0000000E-01;  2.1997402E+03;0;  0.0000000E+00;  0.0000000E+00;  0.0000000E+00;0;  2.2728039E-02;  4.0000000E+04;  0.0000000E+00;  0.0000000E+00;  4.0000000E+04;  0.0000000E+00;  4.0000000E+04;  2.3233460E-02;  0.0000000E+00; -5.0542061E-04;  1.4178728E+03;
 -5.9999999E-02;  9.9999998E-03;  2.3000000E-01;1340;  0.0000000E+00;  0.0000000E+00;  0.0000000E+00;  1.0024739E+03;  1.0000000E-01;  2.0495222E+03;0;  0.0000000E+00;  0.0000000E+00;  0.0000000E+00;0;  2.1688618E-02;  4.0000000E+04;  0.0000000E+00;  0.0000000E+00;  4.0000000E+04;  0.0000000E+00;  4.0000000E+04;  2.2076940E-02;  0.0000000E+00; -3.8832260E-04;  1.2729498E+03;
 -5.0000001E-02;  9.9999998E-03;  7.0000000E-02;1415;  0.0000000E+00;  0.0000000E+00;  0.0000000E+00;  1.0052164E+03;  1.0000000E-01;  4.3216558E+03;0;  0.0000000E+00;  0.0000000E+00;  0.0000000E+00;0;  3.0348970E-02;  4.0000000E+04;  0.0000000E+00;  0.0000000E+00;  4.0000000E+04;  0.0000000E+00;  4.0000000E+04;  3.0909531E-02;  0.0000000E+00; -5.6056207E-04;  1.3220604E+03;
 -5.0000001E-02;  9.9999998E-03;  7.9999998E-02;1416;  0.0000000E+00;  0.0000000E+00;  0.0000000E+00;  1.0052555E+03;  1.0000000E-01;  4.3540498E+03;0;  0.0000000E+00;  0.0000000E+00;  0.0000000E+00;0;  3.0391194E-02;  4.0000000E+04;  0.0000000E+00;  0.0000000E+00;  4.0000000E+04;  0.0000000E+00;  4.0000000E+04;  3.0952247E-02;  0.0000000E+00; -5.6105293E-04;  1.2768505E+03;
 -5.0000001E-02;  9.9999998E-03;  9.0000004E-02;1417;  0.0000000E+00;  0.0000000E+00;  0.0000000E+00;  1.0052907E+03;  1.0000000E-01;  4.3832832E+03;0;  0.0000000E+00;  0.0000000E+00;  0.0000000E+00;0;  3.0419609E-02;  4.0000000E+04;  0.0000000E+00;  0.0000000E+00;  4.0000000E+04;  0.0000000E+00;  4.0000000E+04;  3.0969854E-02;  0.0000000E+00; -5.5024651E-04;  1.2513610E+03;
 -5.0000001E-02;  9.9999998E-03;  1.0000000E-01;1418;  0.0000000E+00;  0.0000000E+00;  0.0000000E+00;  1.0053122E+03;  1.0000000E-01;  4.4010605E+03;0;  0.0000000E+00;  0.0000000E+00;  0.0000000E+00;0;  3.0434970E-02;  4.0000000E+04;  0.0000000E+00;  0.0000000E+00;  4.0000000E+04;  0.0000000E+00;  4.0000000E+04;  3.0965831E-02;  0.0000000E+00; -5.3086138E-04;  1.2469548E+03;
 -5.0000001E-02;  9.9999998E-03;  1.1000000E-01;1419;  0.0000000E+00;  0.0000000E+00;  0.0000000E+00;  1.0053193E+03;  1.0000000E-01;  4.4069863E+03;0;  0.0000000E+00;  0.0000000E+00;  0.0000000E+00;0;  3.0439643E-02;  4.0000000E+04;  0.0000000E+00;  0.0000000E+00;  4.0000000E+04;  0.0000000E+00;  4.0000000E+04;  3.0947354E-02;  0.0000000E+00; -5.0771015E-04;  1.2632358E+03;
 -5.0000001E-02;  9.9999998E-03;  1.2000000E-01;1420;  0.0000000E+00;  0.0000000E+00;  0.0000000E+00;  1.0052998E+03;  1.0000000E-01;  4.3907896E+03;0;  0.0000000E+00;  0.0000000E+00;  0.0000000E+00;0;  3.0436503E-02;  4.0000000E+04;  0.0000000E+00;  0.0000000E+00;  4.0000000E+04;  0.0000000E+00;  4.0000000E+04;  3.0923679E-02;  0.0000000E+00; -4.8717667E-04;  1.2988401E+03;
 -5.0000001E-02;  9.9999998E-03;  1.3000000E-01;1421;  0.0000000E+00;  0.0000000E+00;  0.0000000E+00;  1.0052596E+03;  1.0000000E-01;  4.3575063E+03;0;  0.0000000E+00;  0.0000000E+00;  0.0000000E+00;0;  3.0426703E-02;  4.0000000E+04;  0.0000000E+00;  0.0000000E+00;  4.0000000E+04;  0.0000000E+00;  4.0000000E+04;  3.0903133E-02;  0.0000000E+00; -4.7642956E-04;  1.3522501E+03;
 -5.0000001E-02;  9.9999998E-03;  1.4000000E-01;1422;  0.0000000E+00;  0.0000000E+00;  0.0000000E+00;  1.0051937E+03;  1.0000000E-01;  4.3028906E+03;0;  0.0000000E+00;  0.0000000E+00;  0.0000000E+00;0;  3.0407296E-02;  4.0000000E+04;  0.0000000E+00;  0.0000000E+00;  4.0000000E+04;  0.0000000E+00;  4.0000000E+04;  3.0889627E-02;  0.0000000E+00; -4.8232992E-04;  1.4221162E+03;
 -5.0000001E-02;  9.9999998E-03;  1.5000001E-01;1423;  0.0000000E+00;  0.0000000E+00;  0.0000000E+00;  1.0050977E+03;  1.0000000E-01;  4.2233867E+03;0;  0.0000000E+00;  0.0000000E+00;  0.0000000E+00;0;  3.0369451E-02;  4.0000000E+04;  0.0000000E+00;  0.0000000E+00;  4.0000000E+04;  0.0000000E+00;  4.0000000E+04;  3.0879090E-02;  0.0000000E+00; -5.0963805E-04;  1.5068389E+03;
 -5.0000001E-02;  9.9999998E-03;  1.6000000E-01;1424;  0.0000000E+00;  0.0000000E+00;  0.0000000E+00;  1.0049721E+03;  1.0000000E-01;  4.1192910E+03;0;  0.0000000E+00;  0.0000000E+00;  0.0000000E+00;0;  3.0296927E-02;  4.0000000E+04;  0.0000000E+00;  0.0000000E+00;  4.0000000E+04;  0.0000000E+00;  4.0000000E+04;  3.0855380E-02;  0.0000000E+00; -5.5845303E-04;  1.6034464E+03;
 -5.0000001E-02;  9.9999998E-03;  1.7000000E-01;1425;  0.0000000E+00;  0.0000000E+00;  0.0000000E+00;  1.0048161E+03;  1.0000000E-01;  3.9900105E+03;0;  0.0000000E+00;  0.0000000E+00;  0.0000000E+00;0;  3.0166244E-02;  4.0000000E+04;  0.0000000E+00;  0.0000000E+00;  4.0000000E+04;  0.0000000E+00;  4.0000000E+04;  3.0788686E-02;  0.0000000E+00; -6.2244234E-04;  1.7056633E+03;
 -5.0000001E-02;  9.9999998E-03;  1.8000001E-01;1426;  0.0000000E+00;  0.0000000E+00;  0.0000000E+00;  1.0046333E+03;  1.0000000E-01;  3.8386074E+03;0;  0.0000000E+00;  0.0000000E+00;  0.0000000E+00;0;  2.9946873E-02;  4.0000000E+04;  0.0000000E+00;  0.0000000E+00;  4.0000000E+04;  0.0000000E+00;  4.0000000E+04;  3.0635966E-02;  0.0000000E+00; -6.8909297E-04;  1.8026245E+03;
 -5.0000001E-02;  9.9999998E-03;  1.9000000E-01;1427;  0.0000000E+00;  0.0000000E+00;  0.0000000E+00;  1.0044277E+03;  1.0000000E-01;  3.6682419E+03;0;  0.0000000E+00;  0.0000000E+00;  0.0000000E+00;0;  2.9602623E-02;  4.0000000E+04;  0.0000000E+00;  0.0000000E+00;  4.0000000E+04;  0.0000000E+00;  4.0000000E+04;  3.0344341E-02;  0.0000000E+00; -7.4171851E-04;  1.8794832E+03;
 -5.0000001E-02;  9.9999998E-03;  2.0000000E-01;1428;  0.0000000E+00;  0.0000000E+00;  0.0000000E+00;  1.0042039E+03;  1.0000000E-01;  3.4828645E+03;0;  0.0000000E+00;  0.0000000E+00;  0.0000000E+00;0;  2.9094189E-02;  4.0000000E+04;  0.0000000E+00;  0.0000000E+00;  4.0000000E+04;  0.0000000E+00;  4.0000000E+04;  2.9856194E-02;  0.0000000E+00; -7.6200411E-04;  1.9188014E+03;
 -5.0000001E-02;  9.9999998E-03;  2.0999999E-01;1429;  0.0000000E+00;  0.0000000E+00;  0.0000000E+00;  1.0039663E+03;  1.0000000E-01;  3.2860305E+03;0;  0.0000000E+00;  0.0000000E+00;  0.0000000E+00;0;  2.8383186E-02;  4.0000000E+04;  0.0000000E+00;  0.0000000E+00;  4.0000000E+04;  0.0000000E+00;  4.0000000E+04;  2.9115919E-02;  0.0000000E+00; -7.3273375E-04;  1.9024819E+03;
 -5.0000001E-02;  9.9999998E-03;  2.2000000E-01;1430;  0.0000000E+00;  0.0000000E+00;  0.0000000E+00;  1.0037232E+03;  1.0000000E-01;  3.0846536E+03;0;  0.0000000E+00;  0.0000000E+00;  0.0000000E+00;0;  2.7436746E-02;  4.0000000E+04;  0.0000000E+00;  0.0000000E+00;  4.0000000E+04;  0.0000000E+00;  4.0000000E+04;  2.8077278E-02;  0.0000000E+00; -6.4053287E-04;  1.8142264E+03;
 -5.0000001E-02;  9.9999998E-03;  2.3000000E-01;1431;  0.0000000E+00;  0.0000000E+00;  0.0000000E+00;  1.0034720E+03;  1.0000000E-01;  2.8764619E+03;0;  0.0000000E+00;  0.0000000E+00;  0.0000000E+00;0;  2.6232010E-02;  4.0000000E+04;  0.0000000E+00;  0.0000000E+00;  4.0000000E+04;  0.0000000E+00;  4.0000000E+04;  2.6710462E-02;  0.0000000E+00; -4.7845196E-04;  1.6423987E+03;
 -3.9999999E-02;  9.9999998E-03;  7.0000000E-02;1506;  0.0000000E+00;  0.0000000E+00;  0.0000000E+00;  1.0069842E+03;  1.0000000E-01;  5.7863057E+03;0;  0.0000000E+00;  0.0000000E+00;  0.0000000E+00;0;  3.4711402E-02;  4.0000000E+04;  0.0000000E+00;  0.0000000E+00;  4.0000000E+04;  0.0000000E+00;  4.0000000E+04;  3.5478249E-02;  0.0000000E+00; -7.6684903E-04;  1.5412844E+03;
 -3.9999999E-02;  9.9999998E-03;  7.9999998E-02;1507;  0.0000000E+00;  0.0000000E+00;  0.0000000E+00;  1.0070329E+03;  1.0000000E-01;  5.8266006E+03;0;  0.0000000E+00;  0.0000000E+00;  0.0000000E+00;0;  3.4758430E-02;  4.0000000E+04;  0.0000000E+00;  0.0000000E+00;  4.0000000E+04;  0.0000000E+00;  4.0000000E+04;  3.5524566E-02;  0.0000000E+00; -7.6613709E-04;  1.4862731E+03;
 -3.9999999E-02;  9.9999998E-03;  9.0000004E-02;1508;  0.0000000E+00;  0.0000000E+00;  0.0000000E+00;  1.0070771E+03;  1.0000000E-01;  5.8632417E+03;0;  0.0000000E+00;  0.0000000E+00;  0.0000000E+00;0;  3.4787972E-02;  4.0000000E+04;  0.0000000E+00;  0.0000000E+00;  4.0000000E+04;  0.0000000E+00;  4.0000000E+04;  3.5539459E-02;  0.0000000E+00; -7.5148791E-04;  1.4562067E+03;
 -3.9999999E-02;  9.9999998E-03;  1.0000000E-01;1509;  0.0000000E+00;  0.0000000E+00;  0.0000000E+00;  1.0071084E+03;  1.0000000E-01;  5.8892163E+03;0;  0.0000000E+00;  0.0000000E+00;  0.0000000E+00;0;  3.4801397E-02;  4.0000000E+04;  0.0000000E+00;  0.0000000E+00;  4.0000000E+04;  0.0000000E+00;  4.0000000E+04;  3.5527717E-02;  0.0000000E+00; -7.2631857E-04;  1.4524275E+03;
 -3.9999999E-02;  9.9999998E-03;  1.1000000E-01;1510;  0.0000000E+00;  0.0000000E+00;  0.0000000E+00;  1.0071164E+03;  1.0000000E-01;  5.8958335E+03;0;  0.0000000E+00;  0.0000000E+00;  0.0000000E+00;0;  3.4802586E-02;  4.0000000E+04;  0.0000000E+00;  0.0000000E+00;  4.0000000E+04;  0.0000000E+00;  4.0000000E+04;  3.5499156E-02;  0.0000000E+00; -6.9656968E-04;  1.4740719E+03;
 -3.9999999E-02;  9.9999998E-03;  1.2000000E-01;1511;  0.0000000E+00;  0.0000000E+00;  0.0000000E+00;  1.0070919E+03;  1.0000000E-01;  5.8754883E+03;0;  0.0000000E+00;  0.0000000E+00;  0.0000000E+00;0;  3.4796234E-02;  4.0000000E+04;  0.0000000E+00;  0.0000000E+00;  4.0000000E+04;  0.0000000E+00;  4.0000000E+04;  3.5466265E-02;  0.0000000E+00; -6.7003141E-04;  1.5192109E+03;
 -3.9999999E-02;  9.9999998E-03;  1.3000000E-01;1512;  0.0000000E+00;  0.0000000E+00;  0.0000000E+00;  1.0070370E+03;  1.0000000E-01;  5.8300571E+03;0;  0.0000000E+00;  0.0000000E+00;  0.0000000E+00;0;  3.4785263E-02;  4.0000000E+04;  0.0000000E+00;  0.0000000E+00;  4.0000000E+04;  0.0000000E+00;  4.0000000E+04;  3.5440639E-02;  0.0000000E+00; -6.5537711E-04;  1.5859441E+03;
 -3.9999999E-02;  9.9999998E-03;  1.4000000E-01;1513;  0.0000000E+00;  0.0000000E+00;  0.0000000E+00;  1.0069443E+03;  1.0000000E-01;  5.7532202E+03;0;  0.0000000E+00;  0.0000000E+00;  0.0000000E+00;0;  3.4768004E-02;  4.0000000E+04;  0.0000000E+00;  0.0000000E+00;  4.0000000E+04;  0.0000000E+00;  4.0000000E+04;  3.5428796E-02;  0.0000000E+00; -6.6079071E-04;  1.6728185E+03;
 -3.9999999E-02;  9.9999998E-03;  1.5000001E-01;1514;  0.0000000E+00;  0.0000000E+00;  0.0000000E+00;  1.0068145E+03;  1.0000000E-01;  5.6456675E+03;0;  0.0000000E+00;  0.0000000E+00;  0.0000000E+00;0;  3.4735885E-02;  4.0000000E+04;  0.0000000E+00;  0.0000000E+00;  4.0000000E+04;  0.0000000E+00;  4.0000000E+04;  3.5427339E-02;  0.0000000E+00; -6.9145527E-04;  1.7783077E+03;
 -3.9999999E-02;  9.9999998E-03;  1.6000000E-01;1515;  0.0000000E+00;  0.0000000E+00;  0.0000000E+00;  1.0066488E+03;  1.0000000E-01;  5.5083872E+03;0;  0.0000000E+00;  0.0000000E+00;  0.0000000E+00;0;  3.4672290E-02;  4.0000000E+04;  0.0000000E+00;  0.0000000E+00;  4.0000000E+04;  0.0000000E+00;  4.0000000E+04;  3.5418719E-02;  0.0000000E+00; -7.4642763E-04;  1.8994144E+03;
 -3.9999999E-02;  9.9999998E-03;  1.7000000E-01;1516;  0.0000000E+00;  0.0000000E+00;  0.0000000E+00;  1.0064460E+03;  1.0000000E-01;  5.3403921E+03;0;  0.0000000E+00;  0.0000000E+00;  0.0000000E+00;0;  3.4551777E-02;  4.0000000E+04;  0.0000000E+00;  0.0000000E+00;  4.0000000E+04;  0.0000000E+00;  4.0000000E+04;  3.5368845E-02;  0.0000000E+00; -8.1706821E-04;  2.0288489E+03;
 -3.9999999E-02;  9.9999998E-03;  1.8000001E-01;1517;  0.0000000E+00;  0.0000000E+00;  0.0000000E+00;  1.0062084E+03;  1.0000000E-01;  5.1435581E+03;0;  0.0000000E+00;  0.0000000E+00;  0.0000000E+00;0;  3.4340203E-02;  4.0000000E+04;  0.0000000E+00;  0.0000000E+00;  4.0000000E+04;  0.0000000E+00;  4.0000000E+04;  3.5228305E-02;  0.0000000E+00; -8.8809989E-04;  2.1541602E+03;
 -3.9999999E-02;  9.9999998E-03;  1.9000000E-01;1518;  0.0000000E+00;  0.0000000E+00;  0.0000000E+00;  1.0059375E+03;  1.0000000E-01;  4.9190708E+03;0;  0.0000000E+00;  0.0000000E+00;  0.0000000E+00;0;  3.3995565E-02;  4.0000000E+04;  0.0000000E+00;  0.0000000E+00;  4.0000000E+04;  0.0000000E+00;  4.0000000E+04;  3.4935430E-02;  0.0000000E+00; -9.3986338E-04;  2.2582139E+03;
 -3.9999999E-02;  9.9999998E-03;  2.0000000E-01;1519;  0.0000000E+00;  0.0000000E+00;  0.0000000E+00;  1.0056455E+03;  1.0000000E-01;  4.6772012E+03;0;  0.0000000E+00;  0.0000000E+00;  0.0000000E+00;0;  3.3471115E-02;  4.0000000E+04;  0.0000000E+00;  0.0000000E+00;  4.0000000E+04;  0.0000000E+00;  4.0000000E+04;  3.4422081E-02;  0.0000000E+00; -9.5096743E-04;  2.3203037E+03;
 -3.9999999E-02;  9.9999998E-03;  2.0999999E-01;1520;  0.0000000E+00;  0.0000000E+00;  0.0000000E+00;  1.0053337E+03;  1.0000000E-01;  4.4189365E+03;0;  0.0000000E+00;  0.0000000E+00;  0.0000000E+00;0;  3.2720171E-02;  4.0000000E+04;  0.0000000E+00;  0.0000000E+00;  4.0000000E+04;  0.0000000E+00;  4.0000000E+04;  3.3621337E-02;  0.0000000E+00; -9.0116484E-04;  2.3180051E+03;
 -3.9999999E-02;  9.9999998E-03;  2.2000000E-01;1521;  0.0000000E+00;  0.0000000E+00;  0.0000000E+00;  1.0050114E+03;  1.0000000E-01;  4.1517837E+03;0;  0.0000000E+00;  0.0000000E+00;  0.0000000E+00;0;  3.1701621E-02;  4.0000000E+04;  0.0000000E+00;  0.0000000E+00;  4.0000000E+04;  0.0000000E+00;  4.0000000E+04;  3.2476034E-02;  0.0000000E+00; -7.7441317E-04;  2.2298003E+03;
 -3.9999999E-02;  9.9999998E-03;  2.3000000E-01;1522;  0.0000000E+00;  0.0000000E+00;  0.0000000E+00;  1.0046794E+03;  1.0000000E-01;  3.8768286E+03;0;  0.0000000E+00;  0.0000000E+00;  0.0000000E+00;0;  3.0385366E-02;  4.0000000E+04;  0.0000000E+00;  0.0000000E+00;  4.0000000E+04;  0.0000000E+00;  4.0000000E+04;  3.0947316E-02;  0.0000000E+00; -5.6195096E-04;  2.0387467E+03;
 -2.9999999E-02;  9.9999998E-03;  7.0000000E-02;1597;  0.0000000E+00;  0.0000000E+00;  0.0000000E+00;  1.0089755E+03;  1.0000000E-01;  7.4360366E+03;0;  0.0000000E+00;  0.0000000E+00;  0.0000000E+00;0;  3.7929486E-02;  4.0000000E+04;  0.0000000E+00;  0.0000000E+00;  4.0000000E+04;  0.0000000E+00;  4.0000000E+04;  3.8938537E-02;  0.0000000E+00; -1.0090492E-03;  1.7079504E+03;
 -2.9999999E-02;  9.9999998E-03;  7.9999998E-02;1598;  0.0000000E+00;  0.0000000E+00;  0.0000000E+00;  1.0090414E+03;  1.0000000E-01;  7.4906523E+03;0;  0.0000000E+00;  0.0000000E+00;  0.0000000E+00;0;  3.7971839E-02;  4.0000000E+04;  0.0000000E+00;  0.0000000E+00;  4.0000000E+04;  0.0000000E+00;  4.0000000E+04;  3.8977597E-02;  0.0000000E+00; -1.0057576E-03;  1.6448104E+03;
 -2.9999999E-02;  9.9999998E-03;  9.0000004E-02;1599;  0.0000000E+00;  0.0000000E+00;  0.0000000E+00;  1.0090964E+03;  1.0000000E-01;  7.5361821E+03;0;  0.0000000E+00;  0.0000000E+00;  0.0000000E+00;0;  3.7991174E-02;  4.0000000E+04;  0.0000000E+00;  0.0000000E+00;  4.0000000E+04;  0.0000000E+00;  4.0000000E+04;  3.8976863E-02;  0.0000000E+00; -9.8568958E-04;  1.6123440E+03;
 -2.9999999E-02;  9.9999998E-03;  1.0000000E-01;1600;  0.0000000E+00;  0.0000000E+00;  0.0000000E+00;  1.0091340E+03;  1.0000000E-01;  7.5673911E+03;0;  0.0000000E+00;  0.0000000E+00;  0.0000000E+00;0;  3.7989981E-02;  4.0000000E+04;  0.0000000E+00;  0.0000000E+00;  4.0000000E+04;  0.0000000E+00;  4.0000000E+04;  3.8942948E-02;  0.0000000E+00; -9.5296488E-04;  1.6114786E+03;
 -2.9999999E-02;  9.9999998E-03;  1.1000000E-01;1601;  0.0000000E+00;  0.0000000E+00;  0.0000000E+00;  1.0091464E+03;  1.0000000E-01;  7.5776621E+03;0;  0.0000000E+00;  0.0000000E+00;  0.0000000E+00;0;  3.7974358E-02;  4.0000000E+04;  0.0000000E+00;  0.0000000E+00;  4.0000000E+04;  0.0000000E+00;  4.0000000E+04;  3.8888939E-02;  0.0000000E+00; -9.1458013E-04;  1.6405336E+03;
 -2.9999999E-02;  9.9999998E-03;  1.2000000E-01;1602;  0.0000000E+00;  0.0000000E+00;  0.0000000E+00;  1.0091226E+03;  1.0000000E-01;  7.5579097E+03;0;  0.0000000E+00;  0.0000000E+00;  0.0000000E+00;0;  3.7951875E-02;  4.0000000E+04;  0.0000000E+00;  0.0000000E+00;  4.0000000E+04;  0.0000000E+00;  4.0000000E+04;  3.8831495E-02;  0.0000000E+00; -8.7962084E-04;  1.6966058E+03;
 -2.9999999E-02;  9.9999998E-03;  1.3000000E-01;1603;  0.0000000E+00;  0.0000000E+00;  0.0000000E+00;  1.0090558E+03;  1.0000000E-01;  7.5026025E+03;0;  0.0000000E+00;  0.0000000E+00;  0.0000000E+00;0;  3.7928827E-02;  4.0000000E+04;  0.0000000E+00;  0.0000000E+00;  4.0000000E+04;  0.0000000E+00;  4.0000000E+04;  3.8787022E-02;  0.0000000E+00; -8.5819600E-04;  1.7771251E+03;
 -2.9999999E-02;  9.9999998E-03;  1.4000000E-01;1604;  0.0000000E+00;  0.0000000E+00;  0.0000000E+00;  1.0089431E+03;  1.0000000E-01;  7.4091733E+03;0;  0.0000000E+00;  0.0000000E+00;  0.0000000E+00;0;  3.7906677E-02;  4.0000000E+04;  0.0000000E+00;  0.0000000E+00;  4.0000000E+04;  0.0000000E+00;  4.0000000E+04;  3.8766436E-02;  0.0000000E+00; -8.5975981E-04;  1.8804722E+03;
 -2.9999999E-02;  9.9999998E-03;  1.5000001E-01;1605;  0.0000000E+00;  0.0000000E+00;  0.0000000E+00;  1.0087759E+03;  1.0000000E-01;  7.2707080E+03;0;  0.0000000E+00;  0.0000000E+00;  0.0000000E+00;0;  3.7879772E-02;  4.0000000E+04;  0.0000000E+00;  0.0000000E+00;  4.0000000E+04;  0.0000000E+00;  4.0000000E+04;  3.8769517E-02;  0.0000000E+00; -8.8974583E-04;  2.0055254E+03;
 -2.9999999E-02;  9.9999998E-03;  1.6000000E-01;1606;  0.0000000E+00;  0.0000000E+00;  0.0000000E+00;  1.0085605E+03;  1.0000000E-01;  7.0922437E+03;0;  0.0000000E+00;  0.0000000E+00;  0.0000000E+00;0;  3.7833620E-02;  4.0000000E+04;  0.0000000E+00;  0.0000000E+00;  4.0000000E+04;  0.0000000E+00;  4.0000000E+04;  3.8779683E-02;  0.0000000E+00; -9.4606198E-04;  2.1496685E+03;
 -2.9999999E-02;  9.9999998E-03;  1.7000000E-01;1607;  0.0000000E+00;  0.0000000E+00;  0.0000000E+00;  1.0083045E+03;  1.0000000E-01;  6.8801016E+03;0;  0.0000000E+00;  0.0000000E+00;  0.0000000E+00;0;  3.7742689E-02;  4.0000000E+04;  0.0000000E+00;  0.0000000E+00;  4.0000000E+04;  0.0000000E+00;  4.0000000E+04;  3.8760807E-02;  0.0000000E+00; -1.0181175E-03;  2.3055449E+03;
 -2.9999999E-02;  9.9999998E-03;  1.8000001E-01;1608;  0.0000000E+00;  0.0000000E+00;  0.0000000E+00;  1.0080031E+03;  1.0000000E-01;  6.6303311E+03;0;  0.0000000E+00;  0.0000000E+00;  0.0000000E+00;0;  3.7570104E-02;  4.0000000E+04;  0.0000000E+00;  0.0000000E+00;  4.0000000E+04;  0.0000000E+00;  4.0000000E+04;  3.8658481E-02;  0.0000000E+00; -1.0883784E-03;  2.4603721E+03;
 -2.9999999E-02;  9.9999998E-03;  1.9000000E-01;1609;  0.0000000E+00;  0.0000000E+00;  0.0000000E+00;  1.0076646E+03;  1.0000000E-01;  6.3499438E+03;0;  0.0000000E+00;  0.0000000E+00;  0.0000000E+00;0;  3.7268322E-02;  4.0000000E+04;  0.0000000E+00;  0.0000000E+00;  4.0000000E+04;  0.0000000E+00;  4.0000000E+04;  3.8402986E-02;  0.0000000E+00; -1.1346623E-03;  2.5958159E+03;
 -2.9999999E-02;  9.9999998E-03;  2.0000000E-01;1610;  0.0000000E+00;  0.0000000E+00;  0.0000000E+00;  1.0072943E+03;  1.0000000E-01;  6.0431870E+03;0;  0.0000000E+00;  0.0000000E+00;  0.0000000E+00;0;  3.6782604E-02;  4.0000000E+04;  0.0000000E+00;  0.0000000E+00;  4.0000000E+04;  0.0000000E+00;  4.0000000E+04;  3.7915386E-02;  0.0000000E+00; -1.1327813E-03;  2.6884202E+03;
 -2.9999999E-02;  9.9999998E-03;  2.0999999E-01;1611;  0.0000000E+00;  0.0000000E+00;  0.0000000E+00;  1.0069004E+03;  1.0000000E-01;  5.7168755E+03;0;  0.0000000E+00;  0.0000000E+00;  0.0000000E+00;0;  3.6056791E-02;  4.0000000E+04;  0.0000000E+00;  0.0000000E+00;  4.0000000E+04;  0.0000000E+00;  4.0000000E+04;  3.7116274E-02;  0.0000000E+00; -1.0594840E-03;  2.7111782E+03;
 -2.9999999E-02;  9.9999998E-03;  2.2000000E-01;1612;  0.0000000E+00;  0.0000000E+00;  0.0000000E+00;  1.0064888E+03;  1.0000000E-01;  5.3758481E+03;0;  0.0000000E+00;  0.0000000E+00;  0.0000000E+00;0;  3.5039764E-02;  4.0000000E+04;  0.0000000E+00;  0.0000000E+00;  4.0000000E+04;  0.0000000E+00;  4.0000000E+04;  3.5935525E-02;  0.0000000E+00; -8.9576223E-04;  2.6361792E+03;
 -2.9999999E-02;  9.9999998E-03;  2.3000000E-01;1613;  0.0000000E+00;  0.0000000E+00;  0.0000000E+00;  1.0060690E+03;  1.0000000E-01;  5.0280059E+03;0;  0.0000000E+00;  0.0000000E+00;  0.0000000E+00;0;  3.3692602E-02;  4.0000000E+04;  0.0000000E+00;  0.0000000E+00;  4.0000000E+04;  0.0000000E+00;  4.0000000E+04;  3.4322999E-02;  0.0000000E+00; -6.3039915E-04;  2.4391975E+03;
 -2.0000000E-02;  9.9999998E-03;  7.0000000E-02;1688;  0.0000000E+00;  0.0000000E+00;  0.0000000E+00;  1.0110942E+03;  1.0000000E-01;  9.1913447E+03;0;  0.0000000E+00;  0.0000000E+00;  0.0000000E+00;0;  3.9624400E-02;  4.0000000E+04;  0.0000000E+00;  0.0000000E+00;  4.0000000E+04;  0.0000000E+00;  4.0000000E+04;  4.0904809E-02;  0.0000000E+00; -1.2804092E-03;  1.7921853E+03;
 -2.0000000E-02;  9.9999998E-03;  7.9999998E-02;1689;  0.0000000E+00;  0.0000000E+00;  0.0000000E+00;  1.0111748E+03;  1.0000000E-01;  9.2581084E+03;0;  0.0000000E+00;  0.0000000E+00;  0.0000000E+00;0;  3.9647188E-02;  4.0000000E+04;  0.0000000E+00;  0.0000000E+00;  4.0000000E+04;  0.0000000E+00;  4.0000000E+04;  4.0919807E-02;  0.0000000E+00; -1.2726189E-03;  1.7243175E+03;
 -2.0000000E-02;  9.9999998E-03;  9.0000004E-02;1690;  0.0000000E+00;  0.0000000E+00;  0.0000000E+00;  1.0112470E+03;  1.0000000E-01;  9.3179590E+03;0;  0.0000000E+00;  0.0000000E+00;  0.0000000E+00;0;  3.9639015E-02;  4.0000000E+04;  0.0000000E+00;  0.0000000E+00;  4.0000000E+04;  0.0000000E+00;  4.0000000E+04;  4.0884141E-02;  0.0000000E+00; -1.2451271E-03;  1.6930076E+03;
 -2.0000000E-02;  9.9999998E-03;  1.0000000E-01;1691;  0.0000000E+00;  0.0000000E+00;  0.0000000E+00;  1.0112991E+03;  1.0000000E-01;  9.3610195E+03;0;  0.0000000E+00;  0.0000000E+00;  0.0000000E+00;0;  3.9603908E-02;  4.0000000E+04;  0.0000000E+00;  0.0000000E+00;  4.0000000E+04;  0.0000000E+00;  4.0000000E+04;  4.0806547E-02;  0.0000000E+00; -1.2026376E-03;  1.6983188E+03;
 -2.0000000E-02;  9.9999998E-03;  1.1000000E-01;1692;  0.0000000E+00;  0.0000000E+00;  0.0000000E+00;  1.0113201E+03;  1.0000000E-01;  9.3785000E+03;0;  0.0000000E+00;  0.0000000E+00;  0.0000000E+00;0;  3.9550882E-02;  4.0000000E+04;  0.0000000E+00;  0.0000000E+00;  4.0000000E+04;  0.0000000E+00;  4.0000000E+04;  4.0703896E-02;  0.0000000E+00; -1.1530132E-03;  1.7370479E+03;
 -2.0000000E-02;  9.9999998E-03;  1.2000000E-01;1693;  0.0000000E+00;  0.0000000E+00;  0.0000000E+00;  1.0112993E+03;  1.0000000E-01;  9.3613154E+03;0;  0.0000000E+00;  0.0000000E+00;  0.0000000E+00;0;  3.9491918E-02;  4.0000000E+04;  0.0000000E+00;  0.0000000E+00;  4.0000000E+04;  0.0000000E+00;  4.0000000E+04;  4.0598385E-02;  0.0000000E+00; -1.1064672E-03;  1.8048281E+03;
 -2.0000000E-02;  9.9999998E-03;  1.3000000E-01;1694;  0.0000000E+00;  0.0000000E+00;  0.0000000E+00;  1.0112262E+03;  1.0000000E-01;  9.3006748E+03;0;  0.0000000E+00;  0.0000000E+00;  0.0000000E+00;0;  3.9438576E-02;  4.0000000E+04;  0.0000000E+00;  0.0000000E+00;  4.0000000E+04;  0.0000000E+00;  4.0000000E+04;  4.0513046E-02;  0.0000000E+00; -1.0744694E-03;  1.8980624E+03;
 -2.0000000E-02;  9.9999998E-03;  1.4000000E-01;1695;  0.0000000E+00;  0.0000000E+00;  0.0000000E+00;  1.0110934E+03;  1.0000000E-01;  9.1907520E+03;0;  0.0000000E+00;  0.0000000E+00;  0.0000000E+00;0;  3.9397802E-02;  4.0000000E+04;  0.0000000E+00;  0.0000000E+00;  4.0000000E+04;  0.0000000E+00;  4.0000000E+04;  4.0465441E-02;  0.0000000E+00; -1.0676386E-03;  2.0150077E+03;
 -2.0000000E-02;  9.9999998E-03;  1.5000001E-01;1696;  0.0000000E+00;  0.0000000E+00;  0.0000000E+00;  1.0108984E+03;  1.0000000E-01;  9.0290781E+03;0;  0.0000000E+00;  0.0000000E+00;  0.0000000E+00;0;  3.9369468E-02;  4.0000000E+04;  0.0000000E+00;  0.0000000E+00;  4.0000000E+04;  0.0000000E+00;  4.0000000E+04;  4.0460974E-02;  0.0000000E+00; -1.0915058E-03;  2.1555229E+03;
 -2.0000000E-02;  9.9999998E-03;  1.6000000E-01;1697;  0.0000000E+00;  0.0000000E+00;  0.0000000E+00;  1.0106376E+03;  1.0000000E-01;  8.8130840E+03;0;  0.0000000E+00;  0.0000000E+00;  0.0000000E+00;0;  3.9343234E-02;  4.0000000E+04;  0.0000000E+00;  0.0000000E+00;  4.0000000E+04;  0.0000000E+00;  4.0000000E+04;  4.0486217E-02;  0.0000000E+00; -1.1429836E-03;  2.3182212E+03;
 -2.0000000E-02;  9.9999998E-03;  1.7000000E-01;1698;  0.0000000E+00;  0.0000000E+00;  0.0000000E+00;  1.0103162E+03;  1.0000000E-01;  8.5468203E+03;0;  0.0000000E+00;  0.0000000E+00;  0.0000000E+00;0;  3.9295863E-02;  4.0000000E+04;  0.0000000E+00;  0.0000000E+00;  4.0000000E+04;  0.0000000E+00;  4.0000000E+04;  4.0505942E-02;  0.0000000E+00; -1.2100798E-03;  2.4972217E+03;
 -2.0000000E-02;  9.9999998E-03;  1.8000001E-01;1699;  0.0000000E+00;  0.0000000E+00;  0.0000000E+00;  1.0099505E+03;  1.0000000E-01;  8.2438164E+03;0;  0.0000000E+00;  0.0000000E+00;  0.0000000E+00;0;  3.9189141E-02;  4.0000000E+04;  0.0000000E+00;  0.0000000E+00;  4.0000000E+04;  0.0000000E+00;  4.0000000E+04;  4.0462784E-02;  0.0000000E+00; -1.2736425E-03;  2.6809746E+03;
 -2.0000000E-02;  9.9999998E-03;  1.9000000E-01;1700;  0.0000000E+00;  0.0000000E+00;  0.0000000E+00;  1.0095380E+03;  1.0000000E-01;  7.9020977E+03;0;  0.0000000E+00;  0.0000000E+00;  0.0000000E+00;0;  3.8971052E-02;  4.0000000E+04;  0.0000000E+00;  0.0000000E+00;  4.0000000E+04;  0.0000000E+00;  4.0000000E+04;  4.0280621E-02;  0.0000000E+00; -1.3095684E-03;  2.8513721E+03;
 -2.0000000E-02;  9.9999998E-03;  2.0000000E-01;1701;  0.0000000E+00;  0.0000000E+00;  0.0000000E+00;  1.0090876E+03;  1.0000000E-01;  7.5288735E+03;0;  0.0000000E+00;  0.0000000E+00;  0.0000000E+00;0;  3.8579389E-02;  4.0000000E+04;  0.0000000E+00;  0.0000000E+00;  4.0000000E+04;  0.0000000E+00;  4.0000000E+04;  3.9870713E-02;  0.0000000E+00; -1.2913228E-03;  2.9830437E+03;
 -2.0000000E-02;  9.9999998E-03;  2.0999999E-01;1702;  0.0000000E+00;  0.0000000E+00;  0.0000000E+00;  1.0086069E+03;  1.0000000E-01;  7.1306626E+03;0;  0.0000000E+00;  0.0000000E+00;  0.0000000E+00;0;  3.7948526E-02;  4.0000000E+04;  0.0000000E+00;  0.0000000E+00;  4.0000000E+04;  0.0000000E+00;  4.0000000E+04;  3.9141368E-02;  0.0000000E+00; -1.1928400E-03;  3.0442085E+03;
 -2.0000000E-02;  9.9999998E-03;  2.2000000E-01;1703;  0.0000000E+00;  0.0000000E+00;  0.0000000E+00;  1.0081038E+03;  1.0000000E-01;  6.7137856E+03;0;  0.0000000E+00;  0.0000000E+00;  0.0000000E+00;0;  3.7016988E-02;  4.0000000E+04;  0.0000000E+00;  0.0000000E+00;  4.0000000E+04;  0.0000000E+00;  4.0000000E+04;  3.8008958E-02;  0.0000000E+00; -9.9197077E-04;  2.9995642E+03;
 -2.0000000E-02;  9.9999998E-03;  2.3000000E-01;1704;  0.0000000E+00;  0.0000000E+00;  0.0000000E+00;  1.0075872E+03;  1.0000000E-01;  6.2858467E+03;0;  0.0000000E+00;  0.0000000E+00;  0.0000000E+00;0;  3.5735916E-02;  4.0000000E+04;  0.0000000E+00;  0.0000000E+00;  4.0000000E+04;  0.0000000E+00;  4.0000000E+04;  3.6410350E-02;  0.0000000E+00; -6.7443296E-04;  2.8156233E+03;
 -9.9999998E-03;  9.9999998E-03;  7.0000000E-02;1779;  0.0000000E+00;  0.0000000E+00;  0.0000000E+00;  1.0132163E+03;  1.0000000E-01;  1.0949419E+04;0;  0.0000000E+00;  0.0000000E+00;  0.0000000E+00;0;  3.9595656E-02;  4.0000000E+04;  0.0000000E+00;  0.0000000E+00;  4.0000000E+04;  0.0000000E+00;  4.0000000E+04;  4.1165229E-02;  0.0000000E+00; -1.5695730E-03;  1.7697302E+03;
 -9.9999998E-03;  9.9999998E-03;  7.9999998E-02;1780;  0.0000000E+00;  0.0000000E+00;  0.0000000E+00;  1.0133168E+03;  1.0000000E-01;  1.1032774E+04;0;  0.0000000E+00;  0.0000000E+00;  0.0000000E+00;0;  3.9578732E-02;  4.0000000E+04;  0.0000000E+00;  0.0000000E+00;  4.0000000E+04;  0.0000000E+00;  4.0000000E+04;  4.1133646E-02;  0.0000000E+00; -1.5549139E-03;  1.7026687E+03;
 -9.9999998E-03;  9.9999998E-03;  9.0000004E-02;1781;  0.0000000E+00;  0.0000000E+00;  0.0000000E+00;  1.0134058E+03;  1.0000000E-01;  1.1106451E+04;0;  0.0000000E+00;  0.0000000E+00;  0.0000000E+00;0;  3.9520804E-02;  4.0000000E+04;  0.0000000E+00;  0.0000000E+00;  4.0000000E+04;  0.0000000E+00;  4.0000000E+04;  4.1038606E-02;  0.0000000E+00; -1.5178007E-03;  1.6778625E+03;
 -9.9999998E-03;  9.9999998E-03;  1.0000000E-01;1782;  0.0000000E+00;  0.0000000E+00;  0.0000000E+00;  1.0134760E+03;  1.0000000E-01;  1.1164622E+04;0;  0.0000000E+00;  0.0000000E+00;  0.0000000E+00;0;  3.9427768E-02;  4.0000000E+04;  0.0000000E+00;  0.0000000E+00;  4.0000000E+04;  0.0000000E+00;  4.0000000E+04;  4.0891089E-02;  0.0000000E+00; -1.4633215E-03;  1.6935310E+03;
 -9.9999998E-03;  9.9999998E-03;  1.1000000E-01;1783;  0.0000000E+00;  0.0000000E+00;  0.0000000E+00;  1.0135110E+03;  1.0000000E-01;  1.1193659E+04;0;  0.0000000E+00;  0.0000000E+00;  0.0000000E+00;0;  3.9312541E-02;  4.0000000E+04;  0.0000000E+00;  0.0000000E+00;  4.0000000E+04;  0.0000000E+00;  4.0000000E+04;  4.0712502E-02;  0.0000000E+00; -1.3999593E-03;  1.7442236E+03;
 -9.9999998E-03;  9.9999998E-03;  1.2000000E-01;1784;  0.0000000E+00;  0.0000000E+00;  0.0000000E+00;  1.0135009E+03;  1.0000000E-01;  1.1185165E+04;0;  0.0000000E+00;  0.0000000E+00;  0.0000000E+00;0;  3.9192777E-02;  4.0000000E+04;  0.0000000E+00;  0.0000000E+00;  4.0000000E+04;  0.0000000E+00;  4.0000000E+04;  4.0531632E-02;  0.0000000E+00; -1.3388527E-03;  1.8233916E+03;
 -9.9999998E-03;  9.9999998E-03;  1.3000000E-01;1785;  0.0000000E+00;  0.0000000E+00;  0.0000000E+00;  1.0134269E+03;  1.0000000E-01;  1.1123933E+04;0;  0.0000000E+00;  0.0000000E+00;  0.0000000E+00;0;  3.9086569E-02;  4.0000000E+04;  0.0000000E+00;  0.0000000E+00;  4.0000000E+04;  0.0000000E+00;  4.0000000E+04;  4.0379182E-02;  0.0000000E+00; -1.2926121E-03;  1.9260697E+03;
 -9.9999998E-03;  9.9999998E-03;  1.4000000E-01;1786;  0.0000000E+00;  0.0000000E+00;  0.0000000E+00;  1.0132831E+03;  1.0000000E-01;  1.1004824E+04;0;  0.0000000E+00;  0.0000000E+00;  0.0000000E+00;0;  3.9008327E-02;  4.0000000E+04;  0.0000000E+00;  0.0000000E+00;  4.0000000E+04;  0.0000000E+00;  4.0000000E+04;  4.0281028E-02;  0.0000000E+00; -1.2727005E-03;  2.0507256E+03;
 -9.9999998E-03;  9.9999998E-03;  1.5000001E-01;1787;  0.0000000E+00;  0.0000000E+00;  0.0000000E+00;  1.0130662E+03;  1.0000000E-01;  1.0825076E+04;0;  0.0000000E+00;  0.0000000E+00;  0.0000000E+00;0;  3.8964882E-02;  4.0000000E+04;  0.0000000E+00;  0.0000000E+00;  4.0000000E+04;  0.0000000E+00;  4.0000000E+04;  4.0249396E-02;  0.0000000E+00; -1.2845135E-03;  2.1990862E+03;
 -9.9999998E-03;  9.9999998E-03;  1.6000000E-01;1788;  0.0000000E+00;  0.0000000E+00;  0.0000000E+00;  1.0127695E+03;  1.0000000E-01;  1.0579355E+04;0;  0.0000000E+00;  0.0000000E+00;  0.0000000E+00;0;  3.8952474E-02;  4.0000000E+04;  0.0000000E+00;  0.0000000E+00;  4.0000000E+04;  0.0000000E+00;  4.0000000E+04;  4.0276680E-02;  0.0000000E+00; -1.3242065E-03;  2.3723931E+03;
 -9.9999998E-03;  9.9999998E-03;  1.7000000E-01;1789;  0.0000000E+00;  0.0000000E+00;  0.0000000E+00;  1.0123984E+03;  1.0000000E-01;  1.0271907E+04;0;  0.0000000E+00;  0.0000000E+00;  0.0000000E+00;0;  3.8951825E-02;  4.0000000E+04;  0.0000000E+00;  0.0000000E+00;  4.0000000E+04;  0.0000000E+00;  4.0000000E+04;  4.0330816E-02;  0.0000000E+00; -1.3789900E-03;  2.5681545E+03;
 -9.9999998E-03;  9.9999998E-03;  1.8000001E-01;1790;  0.0000000E+00;  0.0000000E+00;  0.0000000E+00;  1.0119635E+03;  1.0000000E-01;  9.9115225E+03;0;  0.0000000E+00;  0.0000000E+00;  0.0000000E+00;0;  3.8925733E-02;  4.0000000E+04;  0.0000000E+00;  0.0000000E+00;  4.0000000E+04;  0.0000000E+00;  4.0000000E+04;  4.0354632E-02;  0.0000000E+00; -1.4288990E-03;  2.7780764E+03;
 -9.9999998E-03;  9.9999998E-03;  1.9000000E-01;1791;  0.0000000E+00;  0.0000000E+00;  0.0000000E+00;  1.0114747E+03;  1.0000000E-01;  9.5065957E+03;0;  0.0000000E+00;  0.0000000E+00;  0.0000000E+00;0;  3.8819749E-02;  4.0000000E+04;  0.0000000E+00;  0.0000000E+00;  4.0000000E+04;  0.0000000E+00;  4.0000000E+04;  4.0268514E-02;  0.0000000E+00; -1.4487660E-03;  2.9856660E+03;
 -9.9999998E-03;  9.9999998E-03;  2.0000000E-01;1792;  0.0000000E+00;  0.0000000E+00;  0.0000000E+00;  1.0109422E+03;  1.0000000E-01;  9.0654229E+03;0;  0.0000000E+00;  0.0000000E+00;  0.0000000E+00;0;  3.8566273E-02;  4.0000000E+04;  0.0000000E+00;  0.0000000E+00;  4.0000000E+04;  0.0000000E+00;  4.0000000E+04;  3.9976750E-02;  0.0000000E+00; -1.4104758E-03;  3.1645432E+03;
 -9.9999998E-03;  9.9999998E-03;  2.0999999E-01;1793;  0.0000000E+00;  0.0000000E+00;  0.0000000E+00;  1.0103747E+03;  1.0000000E-01;  8.5952139E+03;0;  0.0000000E+00;  0.0000000E+00;  0.0000000E+00;0;  3.8091764E-02;  4.0000000E+04;  0.0000000E+00;  0.0000000E+00;  4.0000000E+04;  0.0000000E+00;  4.0000000E+04;  3.9377380E-02;  0.0000000E+00; -1.2856156E-03;  3.2783542E+03;
 -9.9999998E-03;  9.9999998E-03;  2.2000000E-01;1794;  0.0000000E+00;  0.0000000E+00;  0.0000000E+00;  1.0097824E+03;  1.0000000E-01;  8.1045610E+03;0;  0.0000000E+00;  0.0000000E+00;  0.0000000E+00;0;  3.7325613E-02;  4.0000000E+04;  0.0000000E+00;  0.0000000E+00;  4.0000000E+04;  0.0000000E+00;  4.0000000E+04;  3.8374469E-02;  0.0000000E+00; -1.0488556E-03;  3.2835371E+03;
 -9.9999998E-03;  9.9999998E-03;  2.3000000E-01;1795;  0.0000000E+00;  0.0000000E+00;  0.0000000E+00;  1.0091686E+03;  1.0000000E-01;  7.5960322E+03;0;  0.0000000E+00;  0.0000000E+00;  0.0000000E+00;0;  3.6209390E-02;  4.0000000E+04;  0.0000000E+00;  0.0000000E+00;  4.0000000E+04;  0.0000000E+00;  4.0000000E+04;  3.6891852E-02;  0.0000000E+00; -6.8246084E-04;  3.1358562E+03;
 -1.9000000E-01;  9.9999998E-03;  2.3999999E-01;158;  0.0000000E+00;  0.0000000E+00;  0.0000000E+00;  1.0000000E+03;  1.0000000E-01;  0.0000000E+00;0;  0.0000000E+00;  0.0000000E+00;  0.0000000E+00;0;  0.0000000E+00;  4.0000000E+04;  0.0000000E+00;  0.0000000E+00;  4.0000000E+04;  0.0000000E+00;  4.0000000E+04;  0.0000000E+00;  0.0000000E+00;  0.0000000E+00;  0.0000000E+00;
 -1.9000000E-01;  9.9999998E-03;  2.5000000E-01;159;  0.0000000E+00;  0.0000000E+00;  0.0000000E+00;  1.0000000E+03;  1.0000000E-01;  0.0000000E+00;0;  0.0000000E+00;  0.0000000E+00;  0.0000000E+00;0;  0.0000000E+00;  4.0000000E+04;  0.0000000E+00;  0.0000000E+00;  4.0000000E+04;  0.0000000E+00;  4.0000000E+04;  0.0000000E+00;  0.0000000E+00;  0.0000000E+00;  0.0000000E+00;
 -1.9000000E-01;  9.9999998E-03;  2.5999999E-01;160;  0.0000000E+00;  0.0000000E+00;  0.0000000E+00;  1.0000000E+03;  1.0000000E-01;  0.0000000E+00;0;  0.0000000E+00;  0.0000000E+00;  0.0000000E+00;0;  0.0000000E+00;  4.0000000E+04;  0.0000000E+00;  0.0000000E+00;  4.0000000E+04;  0.0000000E+00;  4.0000000E+04;  0.0000000E+00;  0.0000000E+00;  0.0000000E+00;  0.0000000E+00;
 -1.9000000E-01;  9.9999998E-03;  2.7000001E-01;161;  0.0000000E+00;  0.0000000E+00;  0.0000000E+00;  1.0000000E+03;  1.0000000E-01;  0.0000000E+00;0;  0.0000000E+00;  0.0000000E+00;  0.0000000E+00;0;  0.0000000E+00;  4.0000000E+04;  0.0000000E+00;  0.0000000E+00;  4.0000000E+04;  0.0000000E+00;  4.0000000E+04;  0.0000000E+00;  0.0000000E+00;  0.0000000E+00;  0.0000000E+00;
 -1.9000000E-01;  9.9999998E-03;  2.8000000E-01;162;  0.0000000E+00;  0.0000000E+00;  0.0000000E+00;  1.0000000E+03;  1.0000000E-01;  0.0000000E+00;0;  0.0000000E+00;  0.0000000E+00;  0.0000000E+00;0;  0.0000000E+00;  4.0000000E+04;  0.0000000E+00;  0.0000000E+00;  4.0000000E+04;  0.0000000E+00;  4.0000000E+04;  0.0000000E+00;  0.0000000E+00;  0.0000000E+00;  0.0000000E+00;
 -1.9000000E-01;  9.9999998E-03;  2.8999999E-01;163;  0.0000000E+00;  0.0000000E+00;  0.0000000E+00;  1.0000000E+03;  1.0000000E-01;  0.0000000E+00;0;  0.0000000E+00;  0.0000000E+00;  0.0000000E+00;0;  0.0000000E+00;  4.0000000E+04;  0.0000000E+00;  0.0000000E+00;  4.0000000E+04;  0.0000000E+00;  4.0000000E+04;  0.0000000E+00;  0.0000000E+00;  0.0000000E+00;  0.0000000E+00;
 -1.9000000E-01;  9.9999998E-03;  3.0000001E-01;164;  0.0000000E+00;  0.0000000E+00;  0.0000000E+00;  1.0000000E+03;  1.0000000E-01;  0.0000000E+00;0;  0.0000000E+00;  0.0000000E+00;  0.0000000E+00;0;  0.0000000E+00;  4.0000000E+04;  0.0000000E+00;  0.0000000E+00;  4.0000000E+04;  0.0000000E+00;  4.0000000E+04;  0.0000000E+00;  0.0000000E+00;  0.0000000E+00;  0.0000000E+00;
 -1.9000000E-01;  9.9999998E-03;  3.1000000E-01;165;  0.0000000E+00;  0.0000000E+00;  0.0000000E+00;  1.0000000E+03;  1.0000000E-01;  0.0000000E+00;0;  0.0000000E+00;  0.0000000E+00;  0.0000000E+00;0;  0.0000000E+00;  4.0000000E+04;  0.0000000E+00;  0.0000000E+00;  4.0000000E+04;  0.0000000E+00;  4.0000000E+04;  0.0000000E+00;  0.0000000E+00;  0.0000000E+00;  0.0000000E+00;
 -1.9000000E-01;  9.9999998E-03;  3.1999999E-01;166;  0.0000000E+00;  0.0000000E+00;  0.0000000E+00;  1.0000000E+03;  1.0000000E-01;  0.0000000E+00;0;  0.0000000E+00;  0.0000000E+00;  0.0000000E+00;0;  0.0000000E+00;  4.0000000E+04;  0.0000000E+00;  0.0000000E+00;  4.0000000E+04;  0.0000000E+00;  4.0000000E+04;  0.0000000E+00;  0.0000000E+00;  0.0000000E+00;  0.0000000E+00;
 -1.9000000E-01;  9.9999998E-03;  3.3000001E-01;167;  0.0000000E+00;  0.0000000E+00;  0.0000000E+00;  1.0000000E+03;  1.0000000E-01;  0.0000000E+00;0;  0.0000000E+00;  0.0000000E+00;  0.0000000E+00;0;  0.0000000E+00;  4.0000000E+04;  0.0000000E+00;  0.0000000E+00;  4.0000000E+04;  0.0000000E+00;  4.0000000E+04;  0.0000000E+00;  0.0000000E+00;  0.0000000E+00;  0.0000000E+00;
 -1.9000000E-01;  9.9999998E-03;  3.4000000E-01;168;  0.0000000E+00;  0.0000000E+00;  0.0000000E+00;  1.0000000E+03;  1.0000000E-01;  0.0000000E+00;0;  0.0000000E+00;  0.0000000E+00;  0.0000000E+00;0;  0.0000000E+00;  4.0000000E+04;  0.0000000E+00;  0.0000000E+00;  4.0000000E+04;  0.0000000E+00;  4.0000000E+04;  0.0000000E+00;  0.0000000E+00;  0.0000000E+00;  0.0000000E+00;
 -1.9000000E-01;  9.9999998E-03;  3.4999999E-01;169;  0.0000000E+00;  0.0000000E+00;  0.0000000E+00;  1.0000000E+03;  1.0000000E-01;  0.0000000E+00;0;  0.0000000E+00;  0.0000000E+00;  0.0000000E+00;0;  0.0000000E+00;  4.0000000E+04;  0.0000000E+00;  0.0000000E+00;  4.0000000E+04;  0.0000000E+00;  4.0000000E+04;  0.0000000E+00;  0.0000000E+00;  0.0000000E+00;  0.0000000E+00;
 -1.9000000E-01;  9.9999998E-03;  3.6000001E-01;170;  0.0000000E+00;  0.0000000E+00;  0.0000000E+00;  1.0000000E+03;  1.0000000E-01;  0.0000000E+00;0;  0.0000000E+00;  0.0000000E+00;  0.0000000E+00;0;  0.0000000E+00;  4.0000000E+04;  0.0000000E+00;  0.0000000E+00;  4.0000000E+04;  0.0000000E+00;  4.0000000E+04;  0.0000000E+00;  0.0000000E+00;  0.0000000E+00;  0.0000000E+00;
 -1.9000000E-01;  9.9999998E-03;  3.7000000E-01;171;  0.0000000E+00;  0.0000000E+00;  0.0000000E+00;  1.0000000E+03;  1.0000000E-01;  0.0000000E+00;0;  0.0000000E+00;  0.0000000E+00;  0.0000000E+00;0;  0.0000000E+00;  4.0000000E+04;  0.0000000E+00;  0.0000000E+00;  4.0000000E+04;  0.0000000E+00;  4.0000000E+04;  0.0000000E+00;  0.0000000E+00;  0.0000000E+00;  0.0000000E+00;
 -1.9000000E-01;  9.9999998E-03;  3.8000000E-01;172;  0.0000000E+00;  0.0000000E+00;  0.0000000E+00;  1.0000000E+03;  1.0000000E-01;  0.0000000E+00;0;  0.0000000E+00;  0.0000000E+00;  0.0000000E+00;0;  0.0000000E+00;  4.0000000E+04;  0.0000000E+00;  0.0000000E+00;  4.0000000E+04;  0.0000000E+00;  4.0000000E+04;  0.0000000E+00;  0.0000000E+00;  0.0000000E+00;  0.0000000E+00;
 -1.9000000E-01;  9.9999998E-03;  3.8999999E-01;173;  0.0000000E+00;  0.0000000E+00;  0.0000000E+00;  1.0000000E+03;  1.0000000E-01;  0.0000000E+00;0;  0.0000000E+00;  0.0000000E+00;  0.0000000E+00;0;  0.0000000E+00;  4.0000000E+04;  0.0000000E+00;  0.0000000E+00;  4.0000000E+04;  0.0000000E+00;  4.0000000E+04;  0.0000000E+00;  0.0000000E+00;  0.0000000E+00;  0.0000000E+00;
 -1.9000000E-01;  9.9999998E-03;  4.0000001E-01;174;  0.0000000E+00;  0.0000000E+00;  0.0000000E+00;  1.0000000E+03;  1.0000000E-01;  0.0000000E+00;0;  0.0000000E+00;  0.0000000E+00;  0.0000000E+00;0;  0.0000000E+00;  4.0000000E+04;  0.0000000E+00;  0.0000000E+00;  4.0000000E+04;  0.0000000E+00;  4.0000000E+04;  0.0000000E+00;  0.0000000E+00;  0.0000000E+00;  0.0000000E+00;
 -1.8000001E-01;  9.9999998E-03;  2.3999999E-01;249;  0.0000000E+00;  0.0000000E+00;  0.0000000E+00;  1.0000000E+03;  1.0000000E-01;  0.0000000E+00;0;  0.0000000E+00;  0.0000000E+00;  0.0000000E+00;0;  0.0000000E+00;  4.0000000E+04;  0.0000000E+00;  0.0000000E+00;  4.0000000E+04;  0.0000000E+00;  4.0000000E+04;  0.0000000E+00;  0.0000000E+00;  0.0000000E+00;  0.0000000E+00;
 -1.8000001E-01;  9.9999998E-03;  2.5000000E-01;250;  0.0000000E+00;  0.0000000E+00;  0.0000000E+00;  1.0000000E+03;  1.0000000E-01;  0.0000000E+00;0;  0.0000000E+00;  0.0000000E+00;  0.0000000E+00;0;  0.0000000E+00;  4.0000000E+04;  0.0000000E+00;  0.0000000E+00;  4.0000000E+04;  0.0000000E+00;  4.0000000E+04;  0.0000000E+00;  0.0000000E+00;  0.0000000E+00;  0.0000000E+00;
 -1.8000001E-01;  9.9999998E-03;  2.5999999E-01;251;  0.0000000E+00;  0.0000000E+00;  0.0000000E+00;  1.0000000E+03;  1.0000000E-01;  0.0000000E+00;0;  0.0000000E+00;  0.0000000E+00;  0.0000000E+00;0;  0.0000000E+00;  4.0000000E+04;  0.0000000E+00;  0.0000000E+00;  4.0000000E+04;  0.0000000E+00;  4.0000000E+04;  0.0000000E+00;  0.0000000E+00;  0.0000000E+00;  0.0000000E+00;
 -1.8000001E-01;  9.9999998E-03;  2.7000001E-01;252;  0.0000000E+00;  0.0000000E+00;  0.0000000E+00;  1.0000000E+03;  1.0000000E-01;  0.0000000E+00;0;  0.0000000E+00;  0.0000000E+00;  0.0000000E+00;0;  0.0000000E+00;  4.0000000E+04;  0.0000000E+00;  0.0000000E+00;  4.0000000E+04;  0.0000000E+00;  4.0000000E+04;  0.0000000E+00;  0.0000000E+00;  0.0000000E+00;  0.0000000E+00;
 -1.8000001E-01;  9.9999998E-03;  2.8000000E-01;253;  0.0000000E+00;  0.0000000E+00;  0.0000000E+00;  1.0000000E+03;  1.0000000E-01;  0.0000000E+00;0;  0.0000000E+00;  0.0000000E+00;  0.0000000E+00;0;  0.0000000E+00;  4.0000000E+04;  0.0000000E+00;  0.0000000E+00;  4.0000000E+04;  0.0000000E+00;  4.0000000E+04;  0.0000000E+00;  0.0000000E+00;  0.0000000E+00;  0.0000000E+00;
 -1.8000001E-01;  9.9999998E-03;  2.8999999E-01;254;  0.0000000E+00;  0.0000000E+00;  0.0000000E+00;  1.0000000E+03;  1.0000000E-01;  0.0000000E+00;0;  0.0000000E+00;  0.0000000E+00;  0.0000000E+00;0;  0.0000000E+00;  4.0000000E+04;  0.0000000E+00;  0.0000000E+00;  4.0000000E+04;  0.0000000E+00;  4.0000000E+04;  0.0000000E+00;  0.0000000E+00;  0.0000000E+00;  0.0000000E+00;
 -1.8000001E-01;  9.9999998E-03;  3.0000001E-01;255;  0.0000000E+00;  0.0000000E+00;  0.0000000E+00;  1.0000000E+03;  1.0000000E-01;  0.0000000E+00;0;  0.0000000E+00;  0.0000000E+00;  0.0000000E+00;0;  0.0000000E+00;  4.0000000E+04;  0.0000000E+00;  0.0000000E+00;  4.0000000E+04;  0.0000000E+00;  4.0000000E+04;  0.0000000E+00;  0.0000000E+00;  0.0000000E+00;  0.0000000E+00;
 -1.8000001E-01;  9.9999998E-03;  3.1000000E-01;256;  0.0000000E+00;  0.0000000E+00;  0.0000000E+00;  1.0000000E+03;  1.0000000E-01;  0.0000000E+00;0;  0.0000000E+00;  0.0000000E+00;  0.0000000E+00;0;  0.0000000E+00;  4.0000000E+04;  0.0000000E+00;  0.0000000E+00;  4.0000000E+04;  0.0000000E+00;  4.0000000E+04;  0.0000000E+00;  0.0000000E+00;  0.0000000E+00;  0.0000000E+00;
 -1.8000001E-01;  9.9999998E-03;  3.1999999E-01;257;  0.0000000E+00;  0.0000000E+00;  0.0000000E+00;  1.0000000E+03;  1.0000000E-01;  0.0000000E+00;0;  0.0000000E+00;  0.0000000E+00;  0.0000000E+00;0;  0.0000000E+00;  4.0000000E+04;  0.0000000E+00;  0.0000000E+00;  4.0000000E+04;  0.0000000E+00;  4.0000000E+04;  0.0000000E+00;  0.0000000E+00;  0.0000000E+00;  0.0000000E+00;
 -1.8000001E-01;  9.9999998E-03;  3.3000001E-01;258;  0.0000000E+00;  0.0000000E+00;  0.0000000E+00;  1.0000000E+03;  1.0000000E-01;  0.0000000E+00;0;  0.0000000E+00;  0.0000000E+00;  0.0000000E+00;0;  0.0000000E+00;  4.0000000E+04;  0.0000000E+00;  0.0000000E+00;  4.0000000E+04;  0.0000000E+00;  4.0000000E+04;  0.0000000E+00;  0.0000000E+00;  0.0000000E+00;  0.0000000E+00;
 -1.8000001E-01;  9.9999998E-03;  3.4000000E-01;259;  0.0000000E+00;  0.0000000E+00;  0.0000000E+00;  1.0000000E+03;  1.0000000E-01;  0.0000000E+00;0;  0.0000000E+00;  0.0000000E+00;  0.0000000E+00;0;  0.0000000E+00;  4.0000000E+04;  0.0000000E+00;  0.0000000E+00;  4.0000000E+04;  0.0000000E+00;  4.0000000E+04;  0.0000000E+00;  0.0000000E+00;  0.0000000E+00;  0.0000000E+00;
 -1.8000001E-01;  9.9999998E-03;  3.4999999E-01;260;  0.0000000E+00;  0.0000000E+00;  0.0000000E+00;  1.0000000E+03;  1.0000000E-01;  0.0000000E+00;0;  0.0000000E+00;  0.0000000E+00;  0.0000000E+00;0;  0.0000000E+00;  4.0000000E+04;  0.0000000E+00;  0.0000000E+00;  4.0000000E+04;  0.0000000E+00;  4.0000000E+04;  0.0000000E+00;  0.0000000E+00;  0.0000000E+00;  0.0000000E+00;
 -1.8000001E-01;  9.9999998E-03;  3.6000001E-01;261;  0.0000000E+00;  0.0000000E+00;  0.0000000E+00;  1.0000000E+03;  1.0000000E-01;  0.0000000E+00;0;  0.0000000E+00;  0.0000000E+00;  0.0000000E+00;0;  0.0000000E+00;  4.0000000E+04;  0.0000000E+00;  0.0000000E+00;  4.0000000E+04;  0.0000000E+00;  4.0000000E+04;  0.0000000E+00;  0.0000000E+00;  0.0000000E+00;  0.0000000E+00;
 -1.8000001E-01;  9.9999998E-03;  3.7000000E-01;262;  0.0000000E+00;  0.0000000E+00;  0.0000000E+00;  1.0000000E+03;  1.0000000E-01;  0.0000000E+00;0;  0.0000000E+00;  0.0000000E+00;  0.0000000E+00;0;  0.0000000E+00;  4.0000000E+04;  0.0000000E+00;  0.0000000E+00;  4.0000000E+04;  0.0000000E+00;  4.0000000E+04;  0.0000000E+00;  0.0000000E+00;  0.0000000E+00;  0.0000000E+00;
 -1.8000001E-01;  9.9999998E-03;  3.8000000E-01;263;  0.0000000E+00;  0.0000000E+00;  0.0000000E+00;  1.0000000E+03;  1.0000000E-01;  0.0000000E+00;0;  0.0000000E+00;  0.0000000E+00;  0.0000000E+00;0;  0.0000000E+00;  4.0000000E+04;  0.0000000E+00;  0.0000000E+00;  4.0000000E+04;  0.0000000E+00;  4.0000000E+04;  0.0000000E+00;  0.0000000E+00;  0.0000000E+00;  0.0000000E+00;
 -1.8000001E-01;  9.9999998E-03;  3.8999999E-01;264;  0.0000000E+00;  0.0000000E+00;  0.0000000E+00;  1.0000000E+03;  1.0000000E-01;  0.0000000E+00;0;  0.0000000E+00;  0.0000000E+00;  0.0000000E+00;0;  0.0000000E+00;  4.0000000E+04;  0.0000000E+00;  0.0000000E+00;  4.0000000E+04;  0.0000000E+00;  4.0000000E+04;  0.0000000E+00;  0.0000000E+00;  0.0000000E+00;  0.0000000E+00;
 -1.8000001E-01;  9.9999998E-03;  4.0000001E-01;265;  0.0000000E+00;  0.0000000E+00;  0.0000000E+00;  1.0000000E+03;  1.0000000E-01;  0.0000000E+00;0;  0.0000000E+00;  0.0000000E+00;  0.0000000E+00;0;  0.0000000E+00;  4.0000000E+04;  0.0000000E+00;  0.0000000E+00;  4.0000000E+04;  0.0000000E+00;  4.0000000E+04;  0.0000000E+00;  0.0000000E+00;  0.0000000E+00;  0.0000000E+00;
 -1.7000000E-01;  9.9999998E-03;  2.3999999E-01;340;  0.0000000E+00;  0.0000000E+00;  0.0000000E+00;  1.0000000E+03;  1.0000000E-01;  0.0000000E+00;0;  0.0000000E+00;  0.0000000E+00;  0.0000000E+00;0;  0.0000000E+00;  4.0000000E+04;  0.0000000E+00;  0.0000000E+00;  4.0000000E+04;  0.0000000E+00;  4.0000000E+04;  0.0000000E+00;  0.0000000E+00;  0.0000000E+00;  7.1569556E-10;
 -1.7000000E-01;  9.9999998E-03;  2.5000000E-01;341;  0.0000000E+00;  0.0000000E+00;  0.0000000E+00;  1.0000000E+03;  1.0000000E-01;  0.0000000E+00;0;  0.0000000E+00;  0.0000000E+00;  0.0000000E+00;0;  0.0000000E+00;  4.0000000E+04;  0.0000000E+00;  0.0000000E+00;  4.0000000E+04;  0.0000000E+00;  4.0000000E+04;  0.0000000E+00;  0.0000000E+00;  0.0000000E+00;  4.6691867E-10;
 -1.7000000E-01;  9.9999998E-03;  2.5999999E-01;342;  0.0000000E+00;  0.0000000E+00;  0.0000000E+00;  1.0000000E+03;  1.0000000E-01;  0.0000000E+00;0;  0.0000000E+00;  0.0000000E+00;  0.0000000E+00;0;  0.0000000E+00;  4.0000000E+04;  0.0000000E+00;  0.0000000E+00;  4.0000000E+04;  0.0000000E+00;  4.0000000E+04;  0.0000000E+00;  0.0000000E+00;  0.0000000E+00;  2.4656574E-10;
 -1.7000000E-01;  9.9999998E-03;  2.7000001E-01;343;  0.0000000E+00;  0.0000000E+00;  0.0000000E+00;  1.0000000E+03;  1.0000000E-01;  0.0000000E+00;0;  0.0000000E+00;  0.0000000E+00;  0.0000000E+00;0;  0.0000000E+00;  4.0000000E+04;  0.0000000E+00;  0.0000000E+00;  4.0000000E+04;  0.0000000E+00;  4.0000000E+04;  0.0000000E+00;  0.0000000E+00;  0.0000000E+00;  9.0626097E-11;
 -1.7000000E-01;  9.9999998E-03;  2.8000000E-01;344;  0.0000000E+00;  0.0000000E+00;  0.0000000E+00;  1.0000000E+03;  1.0000000E-01;  0.0000000E+00;0;  0.0000000E+00;  0.0000000E+00;  0.0000000E+00;0;  0.0000000E+00;  4.0000000E+04;  0.0000000E+00;  0.0000000E+00;  4.0000000E+04;  0.0000000E+00;  4.0000000E+04;  0.0000000E+00;  0.0000000E+00;  0.0000000E+00;  1.4966250E-11;
 -1.7000000E-01;  9.9999998E-03;  2.8999999E-01;345;  0.0000000E+00;  0.0000000E+00;  0.0000000E+00;  1.0000000E+03;  1.0000000E-01;  0.0000000E+00;0;  0.0000000E+00;  0.0000000E+00;  0.0000000E+00;0;  0.0000000E+00;  4.0000000E+04;  0.0000000E+00;  0.0000000E+00;  4.0000000E+04;  0.0000000E+00;  4.0000000E+04;  0.0000000E+00;  0.0000000E+00;  0.0000000E+00;  6.8908875E-14;
 -1.7000000E-01;  9.9999998E-03;  3.0000001E-01;346;  0.0000000E+00;  0.0000000E+00;  0.0000000E+00;  1.0000000E+03;  1.0000000E-01;  0.0000000E+00;0;  0.0000000E+00;  0.0000000E+00;  0.0000000E+00;0;  0.0000000E+00;  4.0000000E+04;  0.0000000E+00;  0.0000000E+00;  4.0000000E+04;  0.0000000E+00;  4.0000000E+04;  0.0000000E+00;  0.0000000E+00;  0.0000000E+00;  0.0000000E+00;
 -1.7000000E-01;  9.9999998E-03;  3.1000000E-01;347;  0.0000000E+00;  0.0000000E+00;  0.0000000E+00;  1.0000000E+03;  1.0000000E-01;  0.0000000E+00;0;  0.0000000E+00;  0.0000000E+00;  0.0000000E+00;0;  0.0000000E+00;  4.0000000E+04;  0.0000000E+00;  0.0000000E+00;  4.0000000E+04;  0.0000000E+00;  4.0000000E+04;  0.0000000E+00;  0.0000000E+00;  0.0000000E+00;  0.0000000E+00;
 -1.7000000E-01;  9.9999998E-03;  3.1999999E-01;348;  0.0000000E+00;  0.0000000E+00;  0.0000000E+00;  1.0000000E+03;  1.0000000E-01;  0.0000000E+00;0;  0.0000000E+00;  0.0000000E+00;  0.0000000E+00;0;  0.0000000E+00;  4.0000000E+04;  0.0000000E+00;  0.0000000E+00;  4.0000000E+04;  0.0000000E+00;  4.0000000E+04;  0.0000000E+00;  0.0000000E+00;  0.0000000E+00;  0.0000000E+00;
 -1.7000000E-01;  9.9999998E-03;  3.3000001E-01;349;  0.0000000E+00;  0.0000000E+00;  0.0000000E+00;  1.0000000E+03;  1.0000000E-01;  0.0000000E+00;0;  0.0000000E+00;  0.0000000E+00;  0.0000000E+00;0;  0.0000000E+00;  4.0000000E+04;  0.0000000E+00;  0.0000000E+00;  4.0000000E+04;  0.0000000E+00;  4.0000000E+04;  0.0000000E+00;  0.0000000E+00;  0.0000000E+00;  0.0000000E+00;
 -1.7000000E-01;  9.9999998E-03;  3.4000000E-01;350;  0.0000000E+00;  0.0000000E+00;  0.0000000E+00;  1.0000000E+03;  1.0000000E-01;  0.0000000E+00;0;  0.0000000E+00;  0.0000000E+00;  0.0000000E+00;0;  0.0000000E+00;  4.0000000E+04;  0.0000000E+00;  0.0000000E+00;  4.0000000E+04;  0.0000000E+00;  4.0000000E+04;  0.0000000E+00;  0.0000000E+00;  0.0000000E+00;  0.0000000E+00;
 -1.7000000E-01;  9.9999998E-03;  3.4999999E-01;351;  0.0000000E+00;  0.0000000E+00;  0.0000000E+00;  1.0000000E+03;  1.0000000E-01;  0.0000000E+00;0;  0.0000000E+00;  0.0000000E+00;  0.0000000E+00;0;  0.0000000E+00;  4.0000000E+04;  0.0000000E+00;  0.0000000E+00;  4.0000000E+04;  0.0000000E+00;  4.0000000E+04;  0.0000000E+00;  0.0000000E+00;  0.0000000E+00;  0.0000000E+00;
 -1.7000000E-01;  9.9999998E-03;  3.6000001E-01;352;  0.0000000E+00;  0.0000000E+00;  0.0000000E+00;  1.0000000E+03;  1.0000000E-01;  0.0000000E+00;0;  0.0000000E+00;  0.0000000E+00;  0.0000000E+00;0;  0.0000000E+00;  4.0000000E+04;  0.0000000E+00;  0.0000000E+00;  4.0000000E+04;  0.0000000E+00;  4.0000000E+04;  0.0000000E+00;  0.0000000E+00;  0.0000000E+00;  0.0000000E+00;
 -1.7000000E-01;  9.9999998E-03;  3.7000000E-01;353;  0.0000000E+00;  0.0000000E+00;  0.0000000E+00;  1.0000000E+03;  1.0000000E-01;  0.0000000E+00;0;  0.0000000E+00;  0.0000000E+00;  0.0000000E+00;0;  0.0000000E+00;  4.0000000E+04;  0.0000000E+00;  0.0000000E+00;  4.0000000E+04;  0.0000000E+00;  4.0000000E+04;  0.0000000E+00;  0.0000000E+00;  0.0000000E+00;  0.0000000E+00;
 -1.7000000E-01;  9.9999998E-03;  3.8000000E-01;354;  0.0000000E+00;  0.0000000E+00;  0.0000000E+00;  1.0000000E+03;  1.0000000E-01;  0.0000000E+00;0;  0.0000000E+00;  0.0000000E+00;  0.0000000E+00;0;  0.0000000E+00;  4.0000000E+04;  0.0000000E+00;  0.0000000E+00;  4.0000000E+04;  0.0000000E+00;  4.0000000E+04;  0.0000000E+00;  0.0000000E+00;  0.0000000E+00;  0.0000000E+00;
 -1.7000000E-01;  9.9999998E-03;  3.8999999E-01;355;  0.0000000E+00;  0.0000000E+00;  0.0000000E+00;  1.0000000E+03;  1.0000000E-01;  0.0000000E+00;0;  0.0000000E+00;  0.0000000E+00;  0.0000000E+00;0;  0.0000000E+00;  4.0000000E+04;  0.0000000E+00;  0.0000000E+00;  4.0000000E+04;  0.0000000E+00;  4.0000000E+04;  0.0000000E+00;  0.0000000E+00;  0.0000000E+00;  0.0000000E+00;
 -1.7000000E-01;  9.9999998E-03;  4.0000001E-01;356;  0.0000000E+00;  0.0000000E+00;  0.0000000E+00;  1.0000000E+03;  1.0000000E-01;  0.0000000E+00;0;  0.0000000E+00;  0.0000000E+00;  0.0000000E+00;0;  0.0000000E+00;  4.0000000E+04;  0.0000000E+00;  0.0000000E+00;  4.0000000E+04;  0.0000000E+00;  4.0000000E+04;  0.0000000E+00;  0.0000000E+00;  0.0000000E+00;  0.0000000E+00;
 -1.6000000E-01;  9.9999998E-03;  2.3999999E-01;431;  0.0000000E+00;  0.0000000E+00;  0.0000000E+00;  1.0000000E+03;  1.0000000E-01;  0.0000000E+00;0;  0.0000000E+00;  0.0000000E+00;  0.0000000E+00;0;  5.4340217E-06;  4.0000000E+04;  0.0000000E+00;  0.0000000E+00;  4.0000000E+04;  0.0000000E+00;  4.0000000E+04;  5.4727961E-06;  0.0000000E+00; -3.8774562E-08;  1.6533419E-01;
 -1.6000000E-01;  9.9999998E-03;  2.5000000E-01;432;  0.0000000E+00;  0.0000000E+00;  0.0000000E+00;  1.0000000E+03;  1.0000000E-01;  0.0000000E+00;0;  0.0000000E+00;  0.0000000E+00;  0.0000000E+00;0;  5.5504838E-06;  4.0000000E+04;  0.0000000E+00;  0.0000000E+00;  4.0000000E+04;  0.0000000E+00;  4.0000000E+04;  5.5940773E-06;  0.0000000E+00; -4.3593268E-08;  1.3178152E-01;
 -1.6000000E-01;  9.9999998E-03;  2.5999999E-01;433;  0.0000000E+00;  0.0000000E+00;  0.0000000E+00;  1.0000000E+03;  1.0000000E-01;  0.0000000E+00;0;  0.0000000E+00;  0.0000000E+00;  0.0000000E+00;0;  5.3867975E-06;  4.0000000E+04;  0.0000000E+00;  0.0000000E+00;  4.0000000E+04;  0.0000000E+00;  4.0000000E+04;  5.4208681E-06;  0.0000000E+00; -3.4070545E-08;  8.3427317E-02;
 -1.6000000E-01;  9.9999998E-03;  2.7000001E-01;434;  0.0000000E+00;  0.0000000E+00;  0.0000000E+00;  1.0000000E+03;  1.0000000E-01;  0.0000000E+00;0;  0.0000000E+00;  0.0000000E+00;  0.0000000E+00;0;  4.8624538E-06;  4.0000000E+04;  0.0000000E+00;  0.0000000E+00;  4.0000000E+04;  0.0000000E+00;  4.0000000E+04;  4.8695706E-06;  0.0000000E+00; -7.1168316E-09;  2.3434144E-02;
 -1.6000000E-01;  9.9999998E-03;  2.8000000E-01;435;  0.0000000E+00;  0.0000000E+00;  0.0000000E+00;  1.0000000E+03;  1.0000000E-01;  0.0000000E+00;0;  0.0000000E+00;  0.0000000E+00;  0.0000000E+00;0;  4.0044829E-06;  4.0000000E+04;  0.0000000E+00;  0.0000000E+00;  4.0000000E+04;  0.0000000E+00;  4.0000000E+04;  3.9770721E-06;  0.0000000E+00;  2.7410822E-08;  3.3491846E-02;
 -1.6000000E-01;  9.9999998E-03;  2.8999999E-01;436;  0.0000000E+00;  0.0000000E+00;  0.0000000E+00;  1.0000000E+03;  1.0000000E-01;  0.0000000E+00;0;  0.0000000E+00;  0.0000000E+00;  0.0000000E+00;0;  2.9468977E-06;  4.0000000E+04;  0.0000000E+00;  0.0000000E+00;  4.0000000E+04;  0.0000000E+00;  4.0000000E+04;  2.8932050E-06;  0.0000000E+00;  5.3692734E-08;  7.0038430E-02;
 -1.6000000E-01;  9.9999998E-03;  3.0000001E-01;437;  0.0000000E+00;  0.0000000E+00;  0.0000000E+00;  1.0000000E+03;  1.0000000E-01;  0.0000000E+00;0;  0.0000000E+00;  0.0000000E+00;  0.0000000E+00;0;  1.8827905E-06;  4.0000000E+04;  0.0000000E+00;  0.0000000E+00;  4.0000000E+04;  0.0000000E+00;  4.0000000E+04;  1.8222859E-06;  0.0000000E+00;  6.0504561E-08;  7.7540420E-02;
 -1.6000000E-01;  9.9999998E-03;  3.1000000E-01;438;  0.0000000E+00;  0.0000000E+00;  0.0000000E+00;  1.0000000E+03;  1.0000000E-01;  0.0000000E+00;0;  0.0000000E+00;  0.0000000E+00;  0.0000000E+00;0;  9.9594479E-07;  4.0000000E+04;  0.0000000E+00;  0.0000000E+00;  4.0000000E+04;  0.0000000E+00;  4.0000000E+04;  9.4803352E-07;  0.0000000E+00;  4.7911264E-08;  6.0546830E-02;
 -1.6000000E-01;  9.9999998E-03;  3.1999999E-01;439;  0.0000000E+00;  0.0000000E+00;  0.0000000E+00;  1.0000000E+03;  1.0000000E-01;  0.0000000E+00;0;  0.0000000E+00;  0.0000000E+00;  0.0000000E+00;0;  3.9858557E-07;  4.0000000E+04;  0.0000000E+00;  0.0000000E+00;  4.0000000E+04;  0.0000000E+00;  4.0000000E+04;  3.7236379E-07;  0.0000000E+00;  2.6221789E-08;  3.3422280E-02;
 -1.6000000E-01;  9.9999998E-03;  3.3000001E-01;440;  0.0000000E+00;  0.0000000E+00;  0.0000000E+00;  1.0000000E+03;  1.0000000E-01;  0.0000000E+00;0;  0.0000000E+00;  0.0000000E+00;  0.0000000E+00;0;  9.7881980E-08;  4.0000000E+04;  0.0000000E+00;  0.0000000E+00;  4.0000000E+04;  0.0000000E+00;  4.0000000E+04;  8.9561105E-08;  0.0000000E+00;  8.3208773E-09;  1.1263848E-02;
 -1.6000000E-01;  9.9999998E-03;  3.4000000E-01;441;  0.0000000E+00;  0.0000000E+00;  0.0000000E+00;  1.0000000E+03;  1.0000000E-01;  0.0000000E+00;0;  0.0000000E+00;  0.0000000E+00;  0.0000000E+00;0;  6.5729888E-09;  4.0000000E+04;  0.0000000E+00;  0.0000000E+00;  4.0000000E+04;  0.0000000E+00;  4.0000000E+04;  5.8778364E-09;  0.0000000E+00;  6.9515238E-10;  1.2802216E-03;
 -1.6000000E-01;  9.9999998E-03;  3.4999999E-01;442;  0.0000000E+00;  0.0000000E+00;  0.0000000E+00;  1.0000000E+03;  1.0000000E-01;  0.0000000E+00;0;  0.0000000E+00;  0.0000000E+00;  0.0000000E+00;0;  0.0000000E+00;  4.0000000E+04;  0.0000000E+00;  0.0000000E+00;  4.0000000E+04;  0.0000000E+00;  4.0000000E+04;  0.0000000E+00;  0.0000000E+00;  0.0000000E+00;  0.0000000E+00;
 -1.6000000E-01;  9.9999998E-03;  3.6000001E-01;443;  0.0000000E+00;  0.0000000E+00;  0.0000000E+00;  1.0000000E+03;  1.0000000E-01;  0.0000000E+00;0;  0.0000000E+00;  0.0000000E+00;  0.0000000E+00;0;  0.0000000E+00;  4.0000000E+04;  0.0000000E+00;  0.0000000E+00;  4.0000000E+04;  0.0000000E+00;  4.0000000E+04;  0.0000000E+00;  0.0000000E+00;  0.0000000E+00;  0.0000000E+00;
 -1.6000000E-01;  9.9999998E-03;  3.7000000E-01;444;  0.0000000E+00;  0.0000000E+00;  0.0000000E+00;  1.0000000E+03;  1.0000000E-01;  0.0000000E+00;0;  0.0000000E+00;  0.0000000E+00;  0.0000000E+00;0;  0.0000000E+00;  4.0000000E+04;  0.0000000E+00;  0.0000000E+00;  4.0000000E+04;  0.0000000E+00;  4.0000000E+04;  0.0000000E+00;  0.0000000E+00;  0.0000000E+00;  0.0000000E+00;
 -1.6000000E-01;  9.9999998E-03;  3.8000000E-01;445;  0.0000000E+00;  0.0000000E+00;  0.0000000E+00;  1.0000000E+03;  1.0000000E-01;  0.0000000E+00;0;  0.0000000E+00;  0.0000000E+00;  0.0000000E+00;0;  0.0000000E+00;  4.0000000E+04;  0.0000000E+00;  0.0000000E+00;  4.0000000E+04;  0.0000000E+00;  4.0000000E+04;  0.0000000E+00;  0.0000000E+00;  0.0000000E+00;  0.0000000E+00;
 -1.6000000E-01;  9.9999998E-03;  3.8999999E-01;446;  0.0000000E+00;  0.0000000E+00;  0.0000000E+00;  1.0000000E+03;  1.0000000E-01;  0.0000000E+00;0;  0.0000000E+00;  0.0000000E+00;  0.0000000E+00;0;  0.0000000E+00;  4.0000000E+04;  0.0000000E+00;  0.0000000E+00;  4.0000000E+04;  0.0000000E+00;  4.0000000E+04;  0.0000000E+00;  0.0000000E+00;  0.0000000E+00;  0.0000000E+00;
 -1.6000000E-01;  9.9999998E-03;  4.0000001E-01;447;  0.0000000E+00;  0.0000000E+00;  0.0000000E+00;  1.0000000E+03;  1.0000000E-01;  0.0000000E+00;0;  0.0000000E+00;  0.0000000E+00;  0.0000000E+00;0;  0.0000000E+00;  4.0000000E+04;  0.0000000E+00;  0.0000000E+00;  4.0000000E+04;  0.0000000E+00;  4.0000000E+04;  0.0000000E+00;  0.0000000E+00;  0.0000000E+00;  0.0000000E+00;
 -1.5000001E-01;  9.9999998E-03;  2.3999999E-01;522;  0.0000000E+00;  0.0000000E+00;  0.0000000E+00;  1.0000000E+03;  1.0000000E-01;  0.0000000E+00;0;  0.0000000E+00;  0.0000000E+00;  0.0000000E+00;0;  8.1232771E-05;  4.0000000E+04;  0.0000000E+00;  0.0000000E+00;  4.0000000E+04;  0.0000000E+00;  4.0000000E+04;  8.1929997E-05;  0.0000000E+00; -6.9722620E-07;  2.2341728E+00;
 -1.5000001E-01;  9.9999998E-03;  2.5000000E-01;523;  0.0000000E+00;  0.0000000E+00;  0.0000000E+00;  1.0000000E+03;  1.0000000E-01;  0.0000000E+00;0;  0.0000000E+00;  0.0000000E+00;  0.0000000E+00;0;  7.6601471E-05;  4.0000000E+04;  0.0000000E+00;  0.0000000E+00;  4.0000000E+04;  0.0000000E+00;  4.0000000E+04;  7.7137767E-05;  0.0000000E+00; -5.3629458E-07;  1.6009860E+00;
 -1.5000001E-01;  9.9999998E-03;  2.5999999E-01;524;  0.0000000E+00;  0.0000000E+00;  0.0000000E+00;  1.0000000E+03;  1.0000000E-01;  0.0000000E+00;0;  0.0000000E+00;  0.0000000E+00;  0.0000000E+00;0;  6.9552749E-05;  4.0000000E+04;  0.0000000E+00;  0.0000000E+00;  4.0000000E+04;  0.0000000E+00;  4.0000000E+04;  6.9772897E-05;  0.0000000E+00; -2.2014700E-07;  8.6529505E-01;
 -1.5000001E-01;  9.9999998E-03;  2.7000001E-01;525;  0.0000000E+00;  0.0000000E+00;  0.0000000E+00;  1.0000000E+03;  1.0000000E-01;  0.0000000E+00;0;  0.0000000E+00;  0.0000000E+00;  0.0000000E+00;0;  6.0314822E-05;  4.0000000E+04;  0.0000000E+00;  0.0000000E+00;  4.0000000E+04;  0.0000000E+00;  4.0000000E+04;  6.0121776E-05;  0.0000000E+00;  1.9304494E-07;  1.1411137E-01;
 -1.5000001E-01;  9.9999998E-03;  2.8000000E-01;526;  0.0000000E+00;  0.0000000E+00;  0.0000000E+00;  1.0000000E+03;  1.0000000E-01;  0.0000000E+00;0;  0.0000000E+00;  0.0000000E+00;  0.0000000E+00;0;  4.9525108E-05;  4.0000000E+04;  0.0000000E+00;  0.0000000E+00;  4.0000000E+04;  0.0000000E+00;  4.0000000E+04;  4.8922404E-05;  0.0000000E+00;  6.0270389E-07;  5.4305506E-01;
 -1.5000001E-01;  9.9999998E-03;  2.8999999E-01;527;  0.0000000E+00;  0.0000000E+00;  0.0000000E+00;  1.0000000E+03;  1.0000000E-01;  0.0000000E+00;0;  0.0000000E+00;  0.0000000E+00;  0.0000000E+00;0;  3.8124868E-05;  4.0000000E+04;  0.0000000E+00;  0.0000000E+00;  4.0000000E+04;  0.0000000E+00;  4.0000000E+04;  3.7223315E-05;  0.0000000E+00;  9.0155339E-07;  9.9328393E-01;
 -1.5000001E-01;  9.9999998E-03;  3.0000001E-01;528;  0.0000000E+00;  0.0000000E+00;  0.0000000E+00;  1.0000000E+03;  1.0000000E-01;  0.0000000E+00;0;  0.0000000E+00;  0.0000000E+00;  0.0000000E+00;0;  2.7171356E-05;  4.0000000E+04;  0.0000000E+00;  0.0000000E+00;  4.0000000E+04;  0.0000000E+00;  4.0000000E+04;  2.6154461E-05;  0.0000000E+00;  1.0168957E-06;  1.1762073E+00;
 -1.5000001E-01;  9.9999998E-03;  3.1000000E-01;529;  0.0000000E+00;  0.0000000E+00;  0.0000000E+00;  1.0000000E+03;  1.0000000E-01;  0.0000000E+00;0;  0.0000000E+00;  0.0000000E+00;  0.0000000E+00;0;  1.7621311E-05;  4.0000000E+04;  0.0000000E+00;  0.0000000E+00;  4.0000000E+04;  0.0000000E+00;  4.0000000E+04;  1.6682729E-05;  0.0000000E+00;  9.3858284E-07;  1.1017705E+00;
 -1.5000001E-01;  9.9999998E-03;  3.1999999E-01;530;  0.0000000E+00;  0.0000000E+00;  0.0000000E+00;  1.0000000E+03;  1.0000000E-01;  0.0000000E+00;0;  0.0000000E+00;  0.0000000E+00;  0.0000000E+00;0;  1.0138125E-05;  4.0000000E+04;  0.0000000E+00;  0.0000000E+00;  4.0000000E+04;  0.0000000E+00;  4.0000000E+04;  9.4185498E-06;  0.0000000E+00;  7.1957521E-07;  8.4840220E-01;
 -1.5000001E-01;  9.9999998E-03;  3.3000001E-01;531;  0.0000000E+00;  0.0000000E+00;  0.0000000E+00;  1.0000000E+03;  1.0000000E-01;  0.0000000E+00;0;  0.0000000E+00;  0.0000000E+00;  0.0000000E+00;0;  4.9687242E-06;  4.0000000E+04;  0.0000000E+00;  0.0000000E+00;  4.0000000E+04;  0.0000000E+00;  4.0000000E+04;  4.5192874E-06;  0.0000000E+00;  4.4943681E-07;  5.3070635E-01;
 -1.5000001E-01;  9.9999998E-03;  3.4000000E-01;532;  0.0000000E+00;  0.0000000E+00;  0.0000000E+00;  1.0000000E+03;  1.0000000E-01;  0.0000000E+00;0;  0.0000000E+00;  0.0000000E+00;  0.0000000E+00;0;  1.9296206E-06;  4.0000000E+04;  0.0000000E+00;  0.0000000E+00;  4.0000000E+04;  0.0000000E+00;  4.0000000E+04;  1.7142157E-06;  0.0000000E+00;  2.1540491E-07;  2.5527328E-01;
 -1.5000001E-01;  9.9999998E-03;  3.4999999E-01;533;  0.0000000E+00;  0.0000000E+00;  0.0000000E+00;  1.0000000E+03;  1.0000000E-01;  0.0000000E+00;0;  0.0000000E+00;  0.0000000E+00;  0.0000000E+00;0;  5.0883034E-07;  4.0000000E+04;  0.0000000E+00;  0.0000000E+00;  4.0000000E+04;  0.0000000E+00;  4.0000000E+04;  4.4039217E-07;  0.0000000E+00;  6.8438197E-08;  8.2721271E-02;
 -1.5000001E-01;  9.9999998E-03;  3.6000001E-01;534;  0.0000000E+00;  0.0000000E+00;  0.0000000E+00;  1.0000000E+03;  1.0000000E-01;  0.0000000E+00;0;  0.0000000E+00;  0.0000000E+00;  0.0000000E+00;0;  5.7204016E-08;  4.0000000E+04;  0.0000000E+00;  0.0000000E+00;  4.0000000E+04;  0.0000000E+00;  4.0000000E+04;  4.8091326E-08;  0.0000000E+00;  9.1126884E-09;  1.2398979E-02;
 -1.5000001E-01;  9.9999998E-03;  3.7000000E-01;535;  0.0000000E+00;  0.0000000E+00;  0.0000000E+00;  1.0000000E+03;  1.0000000E-01;  0.0000000E+00;0;  0.0000000E+00;  0.0000000E+00;  0.0000000E+00;0;  0.0000000E+00;  4.0000000E+04;  0.0000000E+00;  0.0000000E+00;  4.0000000E+04;  0.0000000E+00;  4.0000000E+04;  0.0000000E+00;  0.0000000E+00;  0.0000000E+00;  3.0836869E-09;
 -1.5000001E-01;  9.9999998E-03;  3.8000000E-01;536;  0.0000000E+00;  0.0000000E+00;  0.0000000E+00;  1.0000000E+03;  1.0000000E-01;  0.0000000E+00;0;  0.0000000E+00;  0.0000000E+00;  0.0000000E+00;0;  0.0000000E+00;  4.0000000E+04;  0.0000000E+00;  0.0000000E+00;  4.0000000E+04;  0.0000000E+00;  4.0000000E+04;  0.0000000E+00;  0.0000000E+00;  0.0000000E+00;  0.0000000E+00;
 -1.5000001E-01;  9.9999998E-03;  3.8999999E-01;537;  0.0000000E+00;  0.0000000E+00;  0.0000000E+00;  1.0000000E+03;  1.0000000E-01;  0.0000000E+00;0;  0.0000000E+00;  0.0000000E+00;  0.0000000E+00;0;  0.0000000E+00;  4.0000000E+04;  0.0000000E+00;  0.0000000E+00;  4.0000000E+04;  0.0000000E+00;  4.0000000E+04;  0.0000000E+00;  0.0000000E+00;  0.0000000E+00;  0.0000000E+00;
 -1.5000001E-01;  9.9999998E-03;  4.0000001E-01;538;  0.0000000E+00;  0.0000000E+00;  0.0000000E+00;  1.0000000E+03;  1.0000000E-01;  0.0000000E+00;0;  0.0000000E+00;  0.0000000E+00;  0.0000000E+00;0;  0.0000000E+00;  4.0000000E+04;  0.0000000E+00;  0.0000000E+00;  4.0000000E+04;  0.0000000E+00;  4.0000000E+04;  0.0000000E+00;  0.0000000E+00;  0.0000000E+00;  0.0000000E+00;
 -1.4000000E-01;  9.9999998E-03;  2.3999999E-01;613;  0.0000000E+00;  0.0000000E+00;  0.0000000E+00;  1.0000000E+03;  1.0000000E-01;  0.0000000E+00;0;  0.0000000E+00;  0.0000000E+00;  0.0000000E+00;0;  3.5834557E-04;  4.0000000E+04;  0.0000000E+00;  0.0000000E+00;  4.0000000E+04;  0.0000000E+00;  4.0000000E+04;  3.6161079E-04;  0.0000000E+00; -3.2652106E-06;  1.0208843E+01;
 -1.4000000E-01;  9.9999998E-03;  2.5000000E-01;614;  0.0000000E+00;  0.0000000E+00;  0.0000000E+00;  1.0000000E+03;  1.0000000E-01;  0.0000000E+00;0;  0.0000000E+00;  0.0000000E+00;  0.0000000E+00;0;  3.3190809E-04;  4.0000000E+04;  0.0000000E+00;  0.0000000E+00;  4.0000000E+04;  0.0000000E+00;  4.0000000E+04;  3.3404885E-04;  0.0000000E+00; -2.1407554E-06;  7.1828098E+00;
 -1.4000000E-01;  9.9999998E-03;  2.5999999E-01;615;  0.0000000E+00;  0.0000000E+00;  0.0000000E+00;  1.0000000E+03;  1.0000000E-01;  0.0000000E+00;0;  0.0000000E+00;  0.0000000E+00;  0.0000000E+00;0;  2.9808251E-04;  4.0000000E+04;  0.0000000E+00;  0.0000000E+00;  4.0000000E+04;  0.0000000E+00;  4.0000000E+04;  2.9854928E-04;  0.0000000E+00; -4.6676439E-07;  3.7985654E+00;
 -1.4000000E-01;  9.9999998E-03;  2.7000001E-01;616;  0.0000000E+00;  0.0000000E+00;  0.0000000E+00;  1.0000000E+03;  1.0000000E-01;  0.0000000E+00;0;  0.0000000E+00;  0.0000000E+00;  0.0000000E+00;0;  2.5823730E-04;  4.0000000E+04;  0.0000000E+00;  0.0000000E+00;  4.0000000E+04;  0.0000000E+00;  4.0000000E+04;  2.5675618E-04;  0.0000000E+00;  1.4811121E-06;  4.0124330E-01;
 -1.4000000E-01;  9.9999998E-03;  2.8000000E-01;617;  0.0000000E+00;  0.0000000E+00;  0.0000000E+00;  1.0000000E+03;  1.0000000E-01;  0.0000000E+00;0;  0.0000000E+00;  0.0000000E+00;  0.0000000E+00;0;  2.1461735E-04;  4.0000000E+04;  0.0000000E+00;  0.0000000E+00;  4.0000000E+04;  0.0000000E+00;  4.0000000E+04;  2.1128627E-04;  0.0000000E+00;  3.3310762E-06;  2.6118281E+00;
 -1.4000000E-01;  9.9999998E-03;  2.8999999E-01;618;  0.0000000E+00;  0.0000000E+00;  0.0000000E+00;  1.0000000E+03;  1.0000000E-01;  0.0000000E+00;0;  0.0000000E+00;  0.0000000E+00;  0.0000000E+00;0;  1.7002862E-04;  4.0000000E+04;  0.0000000E+00;  0.0000000E+00;  4.0000000E+04;  0.0000000E+00;  4.0000000E+04;  1.6531078E-04;  0.0000000E+00;  4.7178469E-06;  4.8289237E+00;
 -1.4000000E-01;  9.9999998E-03;  3.0000001E-01;619;  0.0000000E+00;  0.0000000E+00;  0.0000000E+00;  1.0000000E+03;  1.0000000E-01;  0.0000000E+00;0;  0.0000000E+00;  0.0000000E+00;  0.0000000E+00;0;  1.2741833E-04;  4.0000000E+04;  0.0000000E+00;  0.0000000E+00;  4.0000000E+04;  0.0000000E+00;  4.0000000E+04;  1.2203003E-04;  0.0000000E+00;  5.3883018E-06;  6.0066371E+00;
 -1.4000000E-01;  9.9999998E-03;  3.1000000E-01;620;  0.0000000E+00;  0.0000000E+00;  0.0000000E+00;  1.0000000E+03;  1.0000000E-01;  0.0000000E+00;0;  0.0000000E+00;  0.0000000E+00;  0.0000000E+00;0;  8.9429719E-05;  4.0000000E+04;  0.0000000E+00;  0.0000000E+00;  4.0000000E+04;  0.0000000E+00;  4.0000000E+04;  8.4152780E-05;  0.0000000E+00;  5.2769406E-06;  6.1131458E+00;
 -1.4000000E-01;  9.9999998E-03;  3.1999999E-01;621;  0.0000000E+00;  0.0000000E+00;  0.0000000E+00;  1.0000000E+03;  1.0000000E-01;  0.0000000E+00;0;  0.0000000E+00;  0.0000000E+00;  0.0000000E+00;0;  5.8006746E-05;  4.0000000E+04;  0.0000000E+00;  0.0000000E+00;  4.0000000E+04;  0.0000000E+00;  4.0000000E+04;  5.3491465E-05;  0.0000000E+00;  4.5152815E-06;  5.3433867E+00;
 -1.4000000E-01;  9.9999998E-03;  3.3000001E-01;622;  0.0000000E+00;  0.0000000E+00;  0.0000000E+00;  1.0000000E+03;  1.0000000E-01;  0.0000000E+00;0;  0.0000000E+00;  0.0000000E+00;  0.0000000E+00;0;  3.4115521E-05;  4.0000000E+04;  0.0000000E+00;  0.0000000E+00;  4.0000000E+04;  0.0000000E+00;  4.0000000E+04;  3.0743926E-05;  0.0000000E+00;  3.3715946E-06;  4.0475841E+00;
 -1.4000000E-01;  9.9999998E-03;  3.4000000E-01;623;  0.0000000E+00;  0.0000000E+00;  0.0000000E+00;  1.0000000E+03;  1.0000000E-01;  0.0000000E+00;0;  0.0000000E+00;  0.0000000E+00;  0.0000000E+00;0;  1.7666958E-05;  4.0000000E+04;  0.0000000E+00;  0.0000000E+00;  4.0000000E+04;  0.0000000E+00;  4.0000000E+04;  1.5510534E-05;  0.0000000E+00;  2.1564244E-06;  2.6213791E+00;
 -1.4000000E-01;  9.9999998E-03;  3.4999999E-01;624;  0.0000000E+00;  0.0000000E+00;  0.0000000E+00;  1.0000000E+03;  1.0000000E-01;  0.0000000E+00;0;  0.0000000E+00;  0.0000000E+00;  0.0000000E+00;0;  7.6654196E-06;  4.0000000E+04;  0.0000000E+00;  0.0000000E+00;  4.0000000E+04;  0.0000000E+00;  4.0000000E+04;  6.5343738E-06;  0.0000000E+00;  1.1310456E-06;  1.3958154E+00;
 -1.4000000E-01;  9.9999998E-03;  3.6000001E-01;625;  0.0000000E+00;  0.0000000E+00;  0.0000000E+00;  1.0000000E+03;  1.0000000E-01;  0.0000000E+00;0;  0.0000000E+00;  0.0000000E+00;  0.0000000E+00;0;  2.5342836E-06;  4.0000000E+04;  0.0000000E+00;  0.0000000E+00;  4.0000000E+04;  0.0000000E+00;  4.0000000E+04;  2.0907426E-06;  0.0000000E+00;  4.4354098E-07;  5.5889612E-01;
 -1.4000000E-01;  9.9999998E-03;  3.7000000E-01;626;  0.0000000E+00;  0.0000000E+00;  0.0000000E+00;  1.0000000E+03;  1.0000000E-01;  0.0000000E+00;0;  0.0000000E+00;  0.0000000E+00;  0.0000000E+00;0;  5.1208212E-07;  4.0000000E+04;  0.0000000E+00;  0.0000000E+00;  4.0000000E+04;  0.0000000E+00;  4.0000000E+04;  4.0793032E-07;  0.0000000E+00;  1.0415178E-07;  1.3402592E-01;
 -1.4000000E-01;  9.9999998E-03;  3.8000000E-01;627;  0.0000000E+00;  0.0000000E+00;  0.0000000E+00;  1.0000000E+03;  1.0000000E-01;  0.0000000E+00;0;  0.0000000E+00;  0.0000000E+00;  0.0000000E+00;0;  2.5386905E-08;  4.0000000E+04;  0.0000000E+00;  0.0000000E+00;  4.0000000E+04;  0.0000000E+00;  4.0000000E+04;  1.9548978E-08;  0.0000000E+00;  5.8379270E-09;  8.8917529E-03;
 -1.4000000E-01;  9.9999998E-03;  3.8999999E-01;628;  0.0000000E+00;  0.0000000E+00;  0.0000000E+00;  1.0000000E+03;  1.0000000E-01;  0.0000000E+00;0;  0.0000000E+00;  0.0000000E+00;  0.0000000E+00;0;  0.0000000E+00;  4.0000000E+04;  0.0000000E+00;  0.0000000E+00;  4.0000000E+04;  0.0000000E+00;  4.0000000E+04;  0.0000000E+00;  0.0000000E+00;  0.0000000E+00;  0.0000000E+00;
 -1.4000000E-01;  9.9999998E-03;  4.0000001E-01;629;  0.0000000E+00;  0.0000000E+00;  0.0000000E+00;  1.0000000E+03;  1.0000000E-01;  0.0000000E+00;0;  0.0000000E+00;  0.0000000E+00;  0.0000000E+00;0;  0.0000000E+00;  4.0000000E+04;  0.0000000E+00;  0.0000000E+00;  4.0000000E+04;  0.0000000E+00;  4.0000000E+04;  0.0000000E+00;  0.0000000E+00;  0.0000000E+00;  0.0000000E+00;
 -1.3000000E-01;  9.9999998E-03;  2.3999999E-01;704;  0.0000000E+00;  0.0000000E+00;  0.0000000E+00;  1.0000341E+03;  1.0000000E-01;  2.8246115E+01;0;  0.0000000E+00;  0.0000000E+00;  0.0000000E+00;0;  9.7832456E-04;  4.0000000E+04;  0.0000000E+00;  0.0000000E+00;  4.0000000E+04;  0.0000000E+00;  4.0000000E+04;  9.8779099E-04;  0.0000000E+00; -9.4664101E-06;  2.9986109E+01;
 -1.3000000E-01;  9.9999998E-03;  2.5000000E-01;705;  0.0000000E+00;  0.0000000E+00;  0.0000000E+00;  1.0000321E+03;  1.0000000E-01;  2.6567150E+01;0;  0.0000000E+00;  0.0000000E+00;  0.0000000E+00;0;  9.0102613E-04;  4.0000000E+04;  0.0000000E+00;  0.0000000E+00;  4.0000000E+04;  0.0000000E+00;  4.0000000E+04;  9.0655708E-04;  0.0000000E+00; -5.5309547E-06;  2.1061560E+01;
 -1.3000000E-01;  9.9999998E-03;  2.5999999E-01;706;  0.0000000E+00;  0.0000000E+00;  0.0000000E+00;  1.0000237E+03;  1.0000000E-01;  1.9653765E+01;0;  0.0000000E+00;  0.0000000E+00;  0.0000000E+00;0;  8.0809754E-04;  4.0000000E+04;  0.0000000E+00;  0.0000000E+00;  4.0000000E+04;  0.0000000E+00;  4.0000000E+04;  8.0834201E-04;  0.0000000E+00; -2.4446831E-07;  1.1140616E+01;
 -1.3000000E-01;  9.9999998E-03;  2.7000001E-01;707;  0.0000000E+00;  0.0000000E+00;  0.0000000E+00;  1.0000203E+03;  1.0000000E-01;  1.6789648E+01;0;  0.0000000E+00;  0.0000000E+00;  0.0000000E+00;0;  7.0306734E-04;  4.0000000E+04;  0.0000000E+00;  0.0000000E+00;  4.0000000E+04;  0.0000000E+00;  4.0000000E+04;  6.9744623E-04;  0.0000000E+00;  5.6211261E-06;  1.1512883E+00;
 -1.3000000E-01;  9.9999998E-03;  2.8000000E-01;708;  0.0000000E+00;  0.0000000E+00;  0.0000000E+00;  1.0000062E+03;  1.0000000E-01;  5.1356573E+00;0;  0.0000000E+00;  0.0000000E+00;  0.0000000E+00;0;  5.9095392E-04;  4.0000000E+04;  0.0000000E+00;  0.0000000E+00;  4.0000000E+04;  0.0000000E+00;  4.0000000E+04;  5.7983556E-04;  0.0000000E+00;  1.1118345E-05;  7.8345189E+00;
 -1.3000000E-01;  9.9999998E-03;  2.8999999E-01;709;  0.0000000E+00;  0.0000000E+00;  0.0000000E+00;  1.0000047E+03;  1.0000000E-01;  3.8517430E+00;0;  0.0000000E+00;  0.0000000E+00;  0.0000000E+00;0;  4.7765681E-04;  4.0000000E+04;  0.0000000E+00;  0.0000000E+00;  4.0000000E+04;  0.0000000E+00;  4.0000000E+04;  4.6231103E-04;  0.0000000E+00;  1.5345769E-05;  1.4789130E+01;
 -1.3000000E-01;  9.9999998E-03;  3.0000001E-01;710;  0.0000000E+00;  0.0000000E+00;  0.0000000E+00;  1.0000000E+03;  1.0000000E-01;  0.0000000E+00;0;  0.0000000E+00;  0.0000000E+00;  0.0000000E+00;0;  3.6922097E-04;  4.0000000E+04;  0.0000000E+00;  0.0000000E+00;  4.0000000E+04;  0.0000000E+00;  4.0000000E+04;  3.5155722E-04;  0.0000000E+00;  1.7663768E-05;  1.9016485E+01;
 -1.3000000E-01;  9.9999998E-03;  3.1000000E-01;711;  0.0000000E+00;  0.0000000E+00;  0.0000000E+00;  1.0000000E+03;  1.0000000E-01;  0.0000000E+00;0;  0.0000000E+00;  0.0000000E+00;  0.0000000E+00;0;  2.7109499E-04;  4.0000000E+04;  0.0000000E+00;  0.0000000E+00;  4.0000000E+04;  0.0000000E+00;  4.0000000E+04;  2.5323857E-04;  0.0000000E+00;  1.7856419E-05;  2.0313013E+01;
 -1.3000000E-01;  9.9999998E-03;  3.1999999E-01;712;  0.0000000E+00;  0.0000000E+00;  0.0000000E+00;  1.0000000E+03;  1.0000000E-01;  0.0000000E+00;0;  0.0000000E+00;  0.0000000E+00;  0.0000000E+00;0;  1.8745534E-04;  4.0000000E+04;  0.0000000E+00;  0.0000000E+00;  4.0000000E+04;  0.0000000E+00;  4.0000000E+04;  1.7129256E-04;  0.0000000E+00;  1.6162780E-05;  1.9013308E+01;
 -1.3000000E-01;  9.9999998E-03;  3.3000001E-01;713;  0.0000000E+00;  0.0000000E+00;  0.0000000E+00;  1.0000000E+03;  1.0000000E-01;  0.0000000E+00;0;  0.0000000E+00;  0.0000000E+00;  0.0000000E+00;0;  1.2068653E-04;  4.0000000E+04;  0.0000000E+00;  0.0000000E+00;  4.0000000E+04;  0.0000000E+00;  4.0000000E+04;  1.0752589E-04;  0.0000000E+00;  1.3160635E-05;  1.5857584E+01;
 -1.3000000E-01;  9.9999998E-03;  3.4000000E-01;714;  0.0000000E+00;  0.0000000E+00;  0.0000000E+00;  1.0000000E+03;  1.0000000E-01;  0.0000000E+00;0;  0.0000000E+00;  0.0000000E+00;  0.0000000E+00;0;  7.1178023E-05;  4.0000000E+04;  0.0000000E+00;  0.0000000E+00;  4.0000000E+04;  0.0000000E+00;  4.0000000E+04;  6.1599523E-05;  0.0000000E+00;  9.5784990E-06;  1.1775999E+01;
 -1.3000000E-01;  9.9999998E-03;  3.4999999E-01;715;  0.0000000E+00;  0.0000000E+00;  0.0000000E+00;  1.0000000E+03;  1.0000000E-01;  0.0000000E+00;0;  0.0000000E+00;  0.0000000E+00;  0.0000000E+00;0;  3.7508507E-05;  4.0000000E+04;  0.0000000E+00;  0.0000000E+00;  4.0000000E+04;  0.0000000E+00;  4.0000000E+04;  3.1395903E-05;  0.0000000E+00;  6.1126052E-06;  7.6685386E+00;
 -1.3000000E-01;  9.9999998E-03;  3.6000001E-01;716;  0.0000000E+00;  0.0000000E+00;  0.0000000E+00;  1.0000000E+03;  1.0000000E-01;  0.0000000E+00;0;  0.0000000E+00;  0.0000000E+00;  0.0000000E+00;0;  1.6945245E-05;  4.0000000E+04;  0.0000000E+00;  0.0000000E+00;  4.0000000E+04;  0.0000000E+00;  4.0000000E+04;  1.3655442E-05;  0.0000000E+00;  3.2898035E-06;  4.2274342E+00;
 -1.3000000E-01;  9.9999998E-03;  3.7000000E-01;717;  0.0000000E+00;  0.0000000E+00;  0.0000000E+00;  1.0000000E+03;  1.0000000E-01;  0.0000000E+00;0;  0.0000000E+00;  0.0000000E+00;  0.0000000E+00;0;  6.0844945E-06;  4.0000000E+04;  0.0000000E+00;  0.0000000E+00;  4.0000000E+04;  0.0000000E+00;  4.0000000E+04;  4.7004696E-06;  0.0000000E+00;  1.3840250E-06;  1.8340230E+00;
 -1.3000000E-01;  9.9999998E-03;  3.8000000E-01;718;  0.0000000E+00;  0.0000000E+00;  0.0000000E+00;  1.0000000E+03;  1.0000000E-01;  0.0000000E+00;0;  0.0000000E+00;  0.0000000E+00;  0.0000000E+00;0;  1.4730210E-06;  4.0000000E+04;  0.0000000E+00;  0.0000000E+00;  4.0000000E+04;  0.0000000E+00;  4.0000000E+04;  1.0877188E-06;  0.0000000E+00;  3.8530223E-07;  5.3163671E-01;
 -1.3000000E-01;  9.9999998E-03;  3.8999999E-01;719;  0.0000000E+00;  0.0000000E+00;  0.0000000E+00;  1.0000000E+03;  1.0000000E-01;  0.0000000E+00;0;  0.0000000E+00;  0.0000000E+00;  0.0000000E+00;0;  1.4601522E-07;  4.0000000E+04;  0.0000000E+00;  0.0000000E+00;  4.0000000E+04;  0.0000000E+00;  4.0000000E+04;  1.0347448E-07;  0.0000000E+00;  4.2540748E-08;  6.0358267E-02;
 -1.3000000E-01;  9.9999998E-03;  4.0000001E-01;720;  0.0000000E+00;  0.0000000E+00;  0.0000000E+00;  1.0000000E+03;  1.0000000E-01;  0.0000000E+00;0;  0.0000000E+00;  0.0000000E+00;  0.0000000E+00;0;  0.0000000E+00;  4.0000000E+04;  0.0000000E+00;  0.0000000E+00;  4.0000000E+04;  0.0000000E+00;  4.0000000E+04;  0.0000000E+00;  0.0000000E+00;  0.0000000E+00;  0.0000000E+00;
 -1.2000000E-01;  9.9999998E-03;  2.3999999E-01;795;  0.0000000E+00;  0.0000000E+00;  0.0000000E+00;  1.0000900E+03;  1.0000000E-01;  7.4565796E+01;0;  0.0000000E+00;  0.0000000E+00;  0.0000000E+00;0;  2.0578906E-03;  4.0000000E+04;  0.0000000E+00;  0.0000000E+00;  4.0000000E+04;  0.0000000E+00;  4.0000000E+04;  2.0789986E-03;  0.0000000E+00; -2.1107990E-05;  6.8494675E+01;
 -1.2000000E-01;  9.9999998E-03;  2.5000000E-01;796;  0.0000000E+00;  0.0000000E+00;  0.0000000E+00;  1.0000845E+03;  1.0000000E-01;  7.0022713E+01;0;  0.0000000E+00;  0.0000000E+00;  0.0000000E+00;0;  1.8924684E-03;  4.0000000E+04;  0.0000000E+00;  0.0000000E+00;  4.0000000E+04;  0.0000000E+00;  4.0000000E+04;  1.9035360E-03;  0.0000000E+00; -1.1067593E-05;  4.8246792E+01;
 -1.2000000E-01;  9.9999998E-03;  2.5999999E-01;797;  0.0000000E+00;  0.0000000E+00;  0.0000000E+00;  1.0000664E+03;  1.0000000E-01;  5.5010788E+01;0;  0.0000000E+00;  0.0000000E+00;  0.0000000E+00;0;  1.6997496E-03;  4.0000000E+04;  0.0000000E+00;  0.0000000E+00;  4.0000000E+04;  0.0000000E+00;  4.0000000E+04;  1.6980710E-03;  0.0000000E+00;  1.6785718E-06;  2.5720312E+01;
 -1.2000000E-01;  9.9999998E-03;  2.7000001E-01;798;  0.0000000E+00;  0.0000000E+00;  0.0000000E+00;  1.0000623E+03;  1.0000000E-01;  5.1652859E+01;0;  0.0000000E+00;  0.0000000E+00;  0.0000000E+00;0;  1.4864209E-03;  4.0000000E+04;  0.0000000E+00;  0.0000000E+00;  4.0000000E+04;  0.0000000E+00;  4.0000000E+04;  1.4709713E-03;  0.0000000E+00;  1.5449636E-05;  2.9097130E+00;
 -1.2000000E-01;  9.9999998E-03;  2.8000000E-01;799;  0.0000000E+00;  0.0000000E+00;  0.0000000E+00;  1.0000594E+03;  1.0000000E-01;  4.9282558E+01;0;  0.0000000E+00;  0.0000000E+00;  0.0000000E+00;0;  1.2614186E-03;  4.0000000E+04;  0.0000000E+00;  0.0000000E+00;  4.0000000E+04;  0.0000000E+00;  4.0000000E+04;  1.2331358E-03;  0.0000000E+00;  2.8282708E-05;  1.7942791E+01;
 -1.2000000E-01;  9.9999998E-03;  2.8999999E-01;800;  0.0000000E+00;  0.0000000E+00;  0.0000000E+00;  1.0000510E+03;  1.0000000E-01;  4.2270409E+01;0;  0.0000000E+00;  0.0000000E+00;  0.0000000E+00;0;  1.0349789E-03;  4.0000000E+04;  0.0000000E+00;  0.0000000E+00;  4.0000000E+04;  0.0000000E+00;  4.0000000E+04;  9.9663972E-04;  0.0000000E+00;  3.8339196E-05;  3.4656734E+01;
 -1.2000000E-01;  9.9999998E-03;  3.0000001E-01;801;  0.0000000E+00;  0.0000000E+00;  0.0000000E+00;  1.0000403E+03;  1.0000000E-01;  3.3381771E+01;0;  0.0000000E+00;  0.0000000E+00;  0.0000000E+00;0;  8.1751100E-04;  4.0000000E+04;  0.0000000E+00;  0.0000000E+00;  4.0000000E+04;  0.0000000E+00;  4.0000000E+04;  7.7322044E-04;  0.0000000E+00;  4.4290584E-05;  4.5689091E+01;
 -1.2000000E-01;  9.9999998E-03;  3.1000000E-01;802;  0.0000000E+00;  0.0000000E+00;  0.0000000E+00;  1.0000349E+03;  1.0000000E-01;  2.8937452E+01;0;  0.0000000E+00;  0.0000000E+00;  0.0000000E+00;0;  6.1849307E-04;  4.0000000E+04;  0.0000000E+00;  0.0000000E+00;  4.0000000E+04;  0.0000000E+00;  4.0000000E+04;  5.7287241E-04;  0.0000000E+00;  4.5620636E-05;  5.0424065E+01;
 -1.2000000E-01;  9.9999998E-03;  3.1999999E-01;803;  0.0000000E+00;  0.0000000E+00;  0.0000000E+00;  1.0000133E+03;  1.0000000E-01;  1.1061416E+01;0;  0.0000000E+00;  0.0000000E+00;  0.0000000E+00;0;  4.4544501E-04;  4.0000000E+04;  0.0000000E+00;  0.0000000E+00;  4.0000000E+04;  0.0000000E+00;  4.0000000E+04;  4.0274687E-04;  0.0000000E+00;  4.2698131E-05;  4.9300144E+01;
 -1.2000000E-01;  9.9999998E-03;  3.3000001E-01;804;  0.0000000E+00;  0.0000000E+00;  0.0000000E+00;  1.0000000E+03;  1.0000000E-01;  0.0000000E+00;0;  0.0000000E+00;  0.0000000E+00;  0.0000000E+00;0;  3.0305688E-04;  4.0000000E+04;  0.0000000E+00;  0.0000000E+00;  4.0000000E+04;  0.0000000E+00;  4.0000000E+04;  2.6648439E-04;  0.0000000E+00;  3.6572477E-05;  4.3595955E+01;
 -1.2000000E-01;  9.9999998E-03;  3.4000000E-01;805;  0.0000000E+00;  0.0000000E+00;  0.0000000E+00;  1.0000000E+03;  1.0000000E-01;  0.0000000E+00;0;  0.0000000E+00;  0.0000000E+00;  0.0000000E+00;0;  1.9275806E-04;  4.0000000E+04;  0.0000000E+00;  0.0000000E+00;  4.0000000E+04;  0.0000000E+00;  4.0000000E+04;  1.6412193E-04;  0.0000000E+00;  2.8636132E-05;  3.5047276E+01;
 -1.2000000E-01;  9.9999998E-03;  3.4999999E-01;806;  0.0000000E+00;  0.0000000E+00;  0.0000000E+00;  1.0000000E+03;  1.0000000E-01;  0.0000000E+00;0;  0.0000000E+00;  0.0000000E+00;  0.0000000E+00;0;  1.1290830E-04;  4.0000000E+04;  0.0000000E+00;  0.0000000E+00;  4.0000000E+04;  0.0000000E+00;  4.0000000E+04;  9.2607122E-05;  0.0000000E+00;  2.0301180E-05;  2.5465170E+01;
 -1.2000000E-01;  9.9999998E-03;  3.6000001E-01;807;  0.0000000E+00;  0.0000000E+00;  0.0000000E+00;  1.0000000E+03;  1.0000000E-01;  0.0000000E+00;0;  0.0000000E+00;  0.0000000E+00;  0.0000000E+00;0;  5.9500930E-05;  4.0000000E+04;  0.0000000E+00;  0.0000000E+00;  4.0000000E+04;  0.0000000E+00;  4.0000000E+04;  4.6739398E-05;  0.0000000E+00;  1.2761531E-05;  1.6428764E+01;
 -1.2000000E-01;  9.9999998E-03;  3.7000000E-01;808;  0.0000000E+00;  0.0000000E+00;  0.0000000E+00;  1.0000000E+03;  1.0000000E-01;  0.0000000E+00;0;  0.0000000E+00;  0.0000000E+00;  0.0000000E+00;0;  2.7130571E-05;  4.0000000E+04;  0.0000000E+00;  0.0000000E+00;  4.0000000E+04;  0.0000000E+00;  4.0000000E+04;  2.0290096E-05;  0.0000000E+00;  6.8404747E-06;  9.0795107E+00;
 -1.2000000E-01;  9.9999998E-03;  3.8000000E-01;809;  0.0000000E+00;  0.0000000E+00;  0.0000000E+00;  1.0000000E+03;  1.0000000E-01;  0.0000000E+00;0;  0.0000000E+00;  0.0000000E+00;  0.0000000E+00;0;  9.9621930E-06;  4.0000000E+04;  0.0000000E+00;  0.0000000E+00;  4.0000000E+04;  0.0000000E+00;  4.0000000E+04;  7.0583856E-06;  0.0000000E+00;  2.9038074E-06;  4.0077176E+00;
 -1.2000000E-01;  9.9999998E-03;  3.8999999E-01;810;  0.0000000E+00;  0.0000000E+00;  0.0000000E+00;  1.0000000E+03;  1.0000000E-01;  0.0000000E+00;0;  0.0000000E+00;  0.0000000E+00;  0.0000000E+00;0;  2.5346490E-06;  4.0000000E+04;  0.0000000E+00;  0.0000000E+00;  4.0000000E+04;  0.0000000E+00;  4.0000000E+04;  1.6981577E-06;  0.0000000E+00;  8.3649138E-07;  1.2141085E+00;
 -1.2000000E-01;  9.9999998E-03;  4.0000001E-01;811;  0.0000000E+00;  0.0000000E+00;  0.0000000E+00;  1.0000000E+03;  1.0000000E-01;  0.0000000E+00;0;  0.0000000E+00;  0.0000000E+00;  0.0000000E+00;0;  2.9350377E-07;  4.0000000E+04;  0.0000000E+00;  0.0000000E+00;  4.0000000E+04;  0.0000000E+00;  4.0000000E+04;  1.8631982E-07;  0.0000000E+00;  1.0718396E-07;  1.6538529E-01;
 -1.1000000E-01;  9.9999998E-03;  2.3999999E-01;886;  0.0000000E+00;  0.0000000E+00;  0.0000000E+00;  1.0001823E+03;  1.0000000E-01;  1.5100807E+02;0;  0.0000000E+00;  0.0000000E+00;  0.0000000E+00;0;  3.6812788E-03;  4.0000000E+04;  0.0000000E+00;  0.0000000E+00;  4.0000000E+04;  0.0000000E+00;  4.0000000E+04;  3.7209573E-03;  0.0000000E+00; -3.9678554E-05;  1.3300519E+02;
 -1.1000000E-01;  9.9999998E-03;  2.5000000E-01;887;  0.0000000E+00;  0.0000000E+00;  0.0000000E+00;  1.0001734E+03;  1.0000000E-01;  1.4369965E+02;0;  0.0000000E+00;  0.0000000E+00;  0.0000000E+00;0;  3.3862831E-03;  4.0000000E+04;  0.0000000E+00;  0.0000000E+00;  4.0000000E+04;  0.0000000E+00;  4.0000000E+04;  3.4047503E-03;  0.0000000E+00; -1.8467281E-05;  9.4167397E+01;
 -1.1000000E-01;  9.9999998E-03;  2.5999999E-01;888;  0.0000000E+00;  0.0000000E+00;  0.0000000E+00;  1.0001606E+03;  1.0000000E-01;  1.3303328E+02;0;  0.0000000E+00;  0.0000000E+00;  0.0000000E+00;0;  3.0487345E-03;  4.0000000E+04;  0.0000000E+00;  0.0000000E+00;  4.0000000E+04;  0.0000000E+00;  4.0000000E+04;  3.0412574E-03;  0.0000000E+00;  7.4770792E-06;  5.0838310E+01;
 -1.1000000E-01;  9.9999998E-03;  2.7000001E-01;889;  0.0000000E+00;  0.0000000E+00;  0.0000000E+00;  1.0001402E+03;  1.0000000E-01;  1.1614487E+02;0;  0.0000000E+00;  0.0000000E+00;  0.0000000E+00;0;  2.6793645E-03;  4.0000000E+04;  0.0000000E+00;  0.0000000E+00;  4.0000000E+04;  0.0000000E+00;  4.0000000E+04;  2.6443498E-03;  0.0000000E+00;  3.5014629E-05;  6.8938565E+00;
 -1.1000000E-01;  9.9999998E-03;  2.8000000E-01;890;  0.0000000E+00;  0.0000000E+00;  0.0000000E+00;  1.0001235E+03;  1.0000000E-01;  1.0231809E+02;0;  0.0000000E+00;  0.0000000E+00;  0.0000000E+00;0;  2.2920975E-03;  4.0000000E+04;  0.0000000E+00;  0.0000000E+00;  4.0000000E+04;  0.0000000E+00;  4.0000000E+04;  2.2315101E-03;  0.0000000E+00;  6.0587361E-05;  3.4433685E+01;
 -1.1000000E-01;  9.9999998E-03;  2.8999999E-01;891;  0.0000000E+00;  0.0000000E+00;  0.0000000E+00;  1.0001147E+03;  1.0000000E-01;  9.5108421E+01;0;  0.0000000E+00;  0.0000000E+00;  0.0000000E+00;0;  1.9027169E-03;  4.0000000E+04;  0.0000000E+00;  0.0000000E+00;  4.0000000E+04;  0.0000000E+00;  4.0000000E+04;  1.8218270E-03;  0.0000000E+00;  8.0889906E-05;  6.8152084E+01;
 -1.1000000E-01;  9.9999998E-03;  3.0000001E-01;892;  0.0000000E+00;  0.0000000E+00;  0.0000000E+00;  1.0000942E+03;  1.0000000E-01;  7.8121246E+01;0;  0.0000000E+00;  0.0000000E+00;  0.0000000E+00;0;  1.5272833E-03;  4.0000000E+04;  0.0000000E+00;  0.0000000E+00;  4.0000000E+04;  0.0000000E+00;  4.0000000E+04;  1.4337813E-03;  0.0000000E+00;  9.3501978E-05;  9.1707573E+01;
 -1.1000000E-01;  9.9999998E-03;  3.1000000E-01;893;  0.0000000E+00;  0.0000000E+00;  0.0000000E+00;  1.0000733E+03;  1.0000000E-01;  6.0739021E+01;0;  0.0000000E+00;  0.0000000E+00;  0.0000000E+00;0;  1.1806044E-03;  4.0000000E+04;  0.0000000E+00;  0.0000000E+00;  4.0000000E+04;  0.0000000E+00;  4.0000000E+04;  1.0831994E-03;  0.0000000E+00;  9.7405034E-05;  1.0368581E+02;
 -1.1000000E-01;  9.9999998E-03;  3.1999999E-01;894;  0.0000000E+00;  0.0000000E+00;  0.0000000E+00;  1.0000563E+03;  1.0000000E-01;  4.6714729E+01;0;  0.0000000E+00;  0.0000000E+00;  0.0000000E+00;0;  8.7477750E-04;  4.0000000E+04;  0.0000000E+00;  0.0000000E+00;  4.0000000E+04;  0.0000000E+00;  4.0000000E+04;  7.8165624E-04;  0.0000000E+00;  9.3121278E-05;  1.0451664E+02;
 -1.1000000E-01;  9.9999998E-03;  3.3000001E-01;895;  0.0000000E+00;  0.0000000E+00;  0.0000000E+00;  1.0000405E+03;  1.0000000E-01;  3.3480534E+01;0;  0.0000000E+00;  0.0000000E+00;  0.0000000E+00;0;  6.1783585E-04;  4.0000000E+04;  0.0000000E+00;  0.0000000E+00;  4.0000000E+04;  0.0000000E+00;  4.0000000E+04;  5.3545710E-04;  0.0000000E+00;  8.2378727E-05;  9.6142021E+01;
 -1.1000000E-01;  9.9999998E-03;  3.4000000E-01;896;  0.0000000E+00;  0.0000000E+00;  0.0000000E+00;  1.0000266E+03;  1.0000000E-01;  2.2024069E+01;0;  0.0000000E+00;  0.0000000E+00;  0.0000000E+00;0;  4.1297029E-04;  4.0000000E+04;  0.0000000E+00;  0.0000000E+00;  4.0000000E+04;  0.0000000E+00;  4.0000000E+04;  3.4542641E-04;  0.0000000E+00;  6.7543879E-05;  8.1394958E+01;
 -1.1000000E-01;  9.9999998E-03;  3.4999999E-01;897;  0.0000000E+00;  0.0000000E+00;  0.0000000E+00;  1.0000000E+03;  1.0000000E-01;  0.0000000E+00;0;  0.0000000E+00;  0.0000000E+00;  0.0000000E+00;0;  2.5864341E-04;  4.0000000E+04;  0.0000000E+00;  0.0000000E+00;  4.0000000E+04;  0.0000000E+00;  4.0000000E+04;  2.0755758E-04;  0.0000000E+00;  5.1085826E-05;  6.3366634E+01;
 -1.1000000E-01;  9.9999998E-03;  3.6000001E-01;898;  0.0000000E+00;  0.0000000E+00;  0.0000000E+00;  1.0000000E+03;  1.0000000E-01;  0.0000000E+00;0;  0.0000000E+00;  0.0000000E+00;  0.0000000E+00;0;  1.4953087E-04;  4.0000000E+04;  0.0000000E+00;  0.0000000E+00;  4.0000000E+04;  0.0000000E+00;  4.0000000E+04;  1.1433374E-04;  0.0000000E+00;  3.5197125E-05;  4.4924862E+01;
 -1.1000000E-01;  9.9999998E-03;  3.7000000E-01;899;  0.0000000E+00;  0.0000000E+00;  0.0000000E+00;  1.0000000E+03;  1.0000000E-01;  0.0000000E+00;0;  0.0000000E+00;  0.0000000E+00;  0.0000000E+00;0;  7.7912511E-05;  4.0000000E+04;  0.0000000E+00;  0.0000000E+00;  4.0000000E+04;  0.0000000E+00;  4.0000000E+04;  5.6344856E-05;  0.0000000E+00;  2.1567657E-05;  2.8399597E+01;
 -1.1000000E-01;  9.9999998E-03;  3.8000000E-01;900;  0.0000000E+00;  0.0000000E+00;  0.0000000E+00;  1.0000000E+03;  1.0000000E-01;  0.0000000E+00;0;  0.0000000E+00;  0.0000000E+00;  0.0000000E+00;0;  3.5118635E-05;  4.0000000E+04;  0.0000000E+00;  0.0000000E+00;  4.0000000E+04;  0.0000000E+00;  4.0000000E+04;  2.3858533E-05;  0.0000000E+00;  1.1260102E-05;  1.5386871E+01;
 -1.1000000E-01;  9.9999998E-03;  3.8999999E-01;901;  0.0000000E+00;  0.0000000E+00;  0.0000000E+00;  1.0000000E+03;  1.0000000E-01;  0.0000000E+00;0;  0.0000000E+00;  0.0000000E+00;  0.0000000E+00;0;  1.2696248E-05;  4.0000000E+04;  0.0000000E+00;  0.0000000E+00;  4.0000000E+04;  0.0000000E+00;  4.0000000E+04;  8.0688524E-06;  0.0000000E+00;  4.6273958E-06;  6.6292605E+00;
 -1.1000000E-01;  9.9999998E-03;  4.0000001E-01;902;  0.0000000E+00;  0.0000000E+00;  0.0000000E+00;  1.0000000E+03;  1.0000000E-01;  0.0000000E+00;0;  0.0000000E+00;  0.0000000E+00;  0.0000000E+00;0;  3.1357024E-06;  4.0000000E+04;  0.0000000E+00;  0.0000000E+00;  4.0000000E+04;  0.0000000E+00;  4.0000000E+04;  1.8659225E-06;  0.0000000E+00;  1.2697799E-06;  1.9413851E+00;
 -1.0000000E-01;  9.9999998E-03;  2.3999999E-01;977;  0.0000000E+00;  0.0000000E+00;  0.0000000E+00;  1.0003516E+03;  1.0000000E-01;  2.9134979E+02;0;  0.0000000E+00;  0.0000000E+00;  0.0000000E+00;0;  5.9027961E-03;  4.0000000E+04;  0.0000000E+00;  0.0000000E+00;  4.0000000E+04;  0.0000000E+00;  4.0000000E+04;  5.9687109E-03;  0.0000000E+00; -6.5914792E-05;  2.3069818E+02;
 -1.0000000E-01;  9.9999998E-03;  2.5000000E-01;978;  0.0000000E+00;  0.0000000E+00;  0.0000000E+00;  1.0003354E+03;  1.0000000E-01;  2.7791806E+02;0;  0.0000000E+00;  0.0000000E+00;  0.0000000E+00;0;  5.4358668E-03;  4.0000000E+04;  0.0000000E+00;  0.0000000E+00;  4.0000000E+04;  0.0000000E+00;  4.0000000E+04;  5.4623829E-03;  0.0000000E+00; -2.6516038E-05;  1.6446962E+02;
 -1.0000000E-01;  9.9999998E-03;  2.5999999E-01;979;  0.0000000E+00;  0.0000000E+00;  0.0000000E+00;  1.0002969E+03;  1.0000000E-01;  2.4601773E+02;0;  0.0000000E+00;  0.0000000E+00;  0.0000000E+00;0;  4.9071824E-03;  4.0000000E+04;  0.0000000E+00;  0.0000000E+00;  4.0000000E+04;  0.0000000E+00;  4.0000000E+04;  4.8867781E-03;  0.0000000E+00;  2.0404135E-05;  9.0294785E+01;
 -1.0000000E-01;  9.9999998E-03;  2.7000001E-01;980;  0.0000000E+00;  0.0000000E+00;  0.0000000E+00;  1.0002713E+03;  1.0000000E-01;  2.2478377E+02;0;  0.0000000E+00;  0.0000000E+00;  0.0000000E+00;0;  4.3322998E-03;  4.0000000E+04;  0.0000000E+00;  0.0000000E+00;  4.0000000E+04;  0.0000000E+00;  4.0000000E+04;  4.2627295E-03;  0.0000000E+00;  6.9570167E-05;  1.5413751E+01;
 -1.0000000E-01;  9.9999998E-03;  2.8000000E-01;981;  0.0000000E+00;  0.0000000E+00;  0.0000000E+00;  1.0002394E+03;  1.0000000E-01;  1.9841414E+02;0;  0.0000000E+00;  0.0000000E+00;  0.0000000E+00;0;  3.7311325E-03;  4.0000000E+04;  0.0000000E+00;  0.0000000E+00;  4.0000000E+04;  0.0000000E+00;  4.0000000E+04;  3.6160268E-03;  0.0000000E+00;  1.1510569E-04;  5.8389591E+01;
 -1.0000000E-01;  9.9999998E-03;  2.8999999E-01;982;  0.0000000E+00;  0.0000000E+00;  0.0000000E+00;  1.0002002E+03;  1.0000000E-01;  1.6582246E+02;0;  0.0000000E+00;  0.0000000E+00;  0.0000000E+00;0;  3.1262296E-03;  4.0000000E+04;  0.0000000E+00;  0.0000000E+00;  4.0000000E+04;  0.0000000E+00;  4.0000000E+04;  2.9746597E-03;  0.0000000E+00;  1.5157000E-04;  1.1846486E+02;
 -1.0000000E-01;  9.9999998E-03;  3.0000001E-01;983;  0.0000000E+00;  0.0000000E+00;  0.0000000E+00;  1.0001813E+03;  1.0000000E-01;  1.5021797E+02;0;  0.0000000E+00;  0.0000000E+00;  0.0000000E+00;0;  2.5406331E-03;  4.0000000E+04;  0.0000000E+00;  0.0000000E+00;  4.0000000E+04;  0.0000000E+00;  4.0000000E+04;  2.3656911E-03;  0.0000000E+00;  1.7494202E-04;  1.6225298E+02;
 -1.0000000E-01;  9.9999998E-03;  3.1000000E-01;984;  0.0000000E+00;  0.0000000E+00;  0.0000000E+00;  1.0001387E+03;  1.0000000E-01;  1.1495971E+02;0;  0.0000000E+00;  0.0000000E+00;  0.0000000E+00;0;  1.9958857E-03;  4.0000000E+04;  0.0000000E+00;  0.0000000E+00;  4.0000000E+04;  0.0000000E+00;  4.0000000E+04;  1.8124341E-03;  0.0000000E+00;  1.8345179E-04;  1.8694513E+02;
 -1.0000000E-01;  9.9999998E-03;  3.1999999E-01;985;  0.0000000E+00;  0.0000000E+00;  0.0000000E+00;  1.0001183E+03;  1.0000000E-01;  9.8071297E+01;0;  0.0000000E+00;  0.0000000E+00;  0.0000000E+00;0;  1.5100215E-03;  4.0000000E+04;  0.0000000E+00;  0.0000000E+00;  4.0000000E+04;  0.0000000E+00;  4.0000000E+04;  1.3322040E-03;  0.0000000E+00;  1.7781755E-04;  1.9275487E+02;
 -1.0000000E-01;  9.9999998E-03;  3.3000001E-01;986;  0.0000000E+00;  0.0000000E+00;  0.0000000E+00;  1.0000868E+03;  1.0000000E-01;  7.1899200E+01;0;  0.0000000E+00;  0.0000000E+00;  0.0000000E+00;0;  1.0955927E-03;  4.0000000E+04;  0.0000000E+00;  0.0000000E+00;  4.0000000E+04;  0.0000000E+00;  4.0000000E+04;  9.3487382E-04;  0.0000000E+00;  1.6071890E-04;  1.8239117E+02;
 -1.0000000E-01;  9.9999998E-03;  3.4000000E-01;987;  0.0000000E+00;  0.0000000E+00;  0.0000000E+00;  1.0000590E+03;  1.0000000E-01;  4.8887505E+01;0;  0.0000000E+00;  0.0000000E+00;  0.0000000E+00;0;  7.5838552E-04;  4.0000000E+04;  0.0000000E+00;  0.0000000E+00;  4.0000000E+04;  0.0000000E+00;  4.0000000E+04;  6.2249426E-04;  0.0000000E+00;  1.3589129E-04;  1.6008751E+02;
 -1.0000000E-01;  9.9999998E-03;  3.4999999E-01;988;  0.0000000E+00;  0.0000000E+00;  0.0000000E+00;  1.0000421E+03;  1.0000000E-01;  3.4863213E+01;0;  0.0000000E+00;  0.0000000E+00;  0.0000000E+00;0;  4.9736514E-04;  4.0000000E+04;  0.0000000E+00;  0.0000000E+00;  4.0000000E+04;  0.0000000E+00;  4.0000000E+04;  3.9009075E-04;  0.0000000E+00;  1.0727441E-04;  1.3062384E+02;
 -1.0000000E-01;  9.9999998E-03;  3.6000001E-01;989;  0.0000000E+00;  0.0000000E+00;  0.0000000E+00;  1.0000137E+03;  1.0000000E-01;  1.1357703E+01;0;  0.0000000E+00;  0.0000000E+00;  0.0000000E+00;0;  3.0587736E-04;  4.0000000E+04;  0.0000000E+00;  0.0000000E+00;  4.0000000E+04;  0.0000000E+00;  4.0000000E+04;  2.2744067E-04;  0.0000000E+00;  7.8436678E-05;  9.8577789E+01;
 -1.0000000E-01;  9.9999998E-03;  3.7000000E-01;990;  0.0000000E+00;  0.0000000E+00;  0.0000000E+00;  1.0000000E+03;  1.0000000E-01;  0.0000000E+00;0;  0.0000000E+00;  0.0000000E+00;  0.0000000E+00;0;  1.7357789E-04;  4.0000000E+04;  0.0000000E+00;  0.0000000E+00;  4.0000000E+04;  0.0000000E+00;  4.0000000E+04;  1.2130725E-04;  0.0000000E+00;  5.2270643E-05;  6.7880371E+01;
 -1.0000000E-01;  9.9999998E-03;  3.8000000E-01;991;  0.0000000E+00;  0.0000000E+00;  0.0000000E+00;  1.0000000E+03;  1.0000000E-01;  0.0000000E+00;0;  0.0000000E+00;  0.0000000E+00;  0.0000000E+00;0;  8.8490735E-05;  4.0000000E+04;  0.0000000E+00;  0.0000000E+00;  4.0000000E+04;  0.0000000E+00;  4.0000000E+04;  5.7637611E-05;  0.0000000E+00;  3.0853123E-05;  4.1567554E+01;
 -1.0000000E-01;  9.9999998E-03;  3.8999999E-01;992;  0.0000000E+00;  0.0000000E+00;  0.0000000E+00;  1.0000000E+03;  1.0000000E-01;  0.0000000E+00;0;  0.0000000E+00;  0.0000000E+00;  0.0000000E+00;0;  3.8674749E-05;  4.0000000E+04;  0.0000000E+00;  0.0000000E+00;  4.0000000E+04;  0.0000000E+00;  4.0000000E+04;  2.3332497E-05;  0.0000000E+00;  1.5342253E-05;  2.1614389E+01;
 -1.0000000E-01;  9.9999998E-03;  4.0000001E-01;993;  0.0000000E+00;  0.0000000E+00;  0.0000000E+00;  1.0000000E+03;  1.0000000E-01;  0.0000000E+00;0;  0.0000000E+00;  0.0000000E+00;  0.0000000E+00;0;  1.3264202E-05;  4.0000000E+04;  0.0000000E+00;  0.0000000E+00;  4.0000000E+04;  0.0000000E+00;  4.0000000E+04;  7.4044115E-06;  0.0000000E+00;  5.8597902E-06;  8.7552919E+00;
 -9.0000004E-02;  9.9999998E-03;  2.3999999E-01;1068;  0.0000000E+00;  0.0000000E+00;  0.0000000E+00;  1.0006241E+03;  1.0000000E-01;  5.1702240E+02;0;  0.0000000E+00;  0.0000000E+00;  0.0000000E+00;0;  8.7449895E-03;  4.0000000E+04;  0.0000000E+00;  0.0000000E+00;  4.0000000E+04;  0.0000000E+00;  4.0000000E+04;  8.8443914E-03;  0.0000000E+00; -9.9401950E-05;  3.6821613E+02;
 -9.0000004E-02;  9.9999998E-03;  2.5000000E-01;1069;  0.0000000E+00;  0.0000000E+00;  0.0000000E+00;  1.0005674E+03;  1.0000000E-01;  4.7011017E+02;0;  0.0000000E+00;  0.0000000E+00;  0.0000000E+00;0;  8.0658477E-03;  4.0000000E+04;  0.0000000E+00;  0.0000000E+00;  4.0000000E+04;  0.0000000E+00;  4.0000000E+04;  8.0987224E-03;  0.0000000E+00; -3.2874475E-05;  2.6479184E+02;
 -9.0000004E-02;  9.9999998E-03;  2.5999999E-01;1070;  0.0000000E+00;  0.0000000E+00;  0.0000000E+00;  1.0005191E+03;  1.0000000E-01;  4.3011130E+02;0;  0.0000000E+00;  0.0000000E+00;  0.0000000E+00;0;  7.3012663E-03;  4.0000000E+04;  0.0000000E+00;  0.0000000E+00;  4.0000000E+04;  0.0000000E+00;  4.0000000E+04;  7.2564804E-03;  0.0000000E+00;  4.4785807E-05;  1.4839772E+02;
 -9.0000004E-02;  9.9999998E-03;  2.7000001E-01;1071;  0.0000000E+00;  0.0000000E+00;  0.0000000E+00;  1.0004713E+03;  1.0000000E-01;  3.9040872E+02;0;  0.0000000E+00;  0.0000000E+00;  0.0000000E+00;0;  6.4722905E-03;  4.0000000E+04;  0.0000000E+00;  0.0000000E+00;  4.0000000E+04;  0.0000000E+00;  4.0000000E+04;  6.3469107E-03;  0.0000000E+00;  1.2537987E-04;  3.1932922E+01;
 -9.0000004E-02;  9.9999998E-03;  2.8000000E-01;1072;  0.0000000E+00;  0.0000000E+00;  0.0000000E+00;  1.0004174E+03;  1.0000000E-01;  3.4576801E+02;0;  0.0000000E+00;  0.0000000E+00;  0.0000000E+00;0;  5.6058103E-03;  4.0000000E+04;  0.0000000E+00;  0.0000000E+00;  4.0000000E+04;  0.0000000E+00;  4.0000000E+04;  5.4059597E-03;  0.0000000E+00;  1.9985066E-04;  9.0536423E+01;
 -9.0000004E-02;  9.9999998E-03;  2.8999999E-01;1073;  0.0000000E+00;  0.0000000E+00;  0.0000000E+00;  1.0003621E+03;  1.0000000E-01;  2.9994214E+02;0;  0.0000000E+00;  0.0000000E+00;  0.0000000E+00;0;  4.7323396E-03;  4.0000000E+04;  0.0000000E+00;  0.0000000E+00;  4.0000000E+04;  0.0000000E+00;  4.0000000E+04;  4.4725309E-03;  0.0000000E+00;  2.5980879E-04;  1.8798393E+02;
 -9.0000004E-02;  9.9999998E-03;  3.0000001E-01;1074;  0.0000000E+00;  0.0000000E+00;  0.0000000E+00;  1.0003123E+03;  1.0000000E-01;  2.5875812E+02;0;  0.0000000E+00;  0.0000000E+00;  0.0000000E+00;0;  3.8833641E-03;  4.0000000E+04;  0.0000000E+00;  0.0000000E+00;  4.0000000E+04;  0.0000000E+00;  4.0000000E+04;  3.5843586E-03;  0.0000000E+00;  2.9900551E-04;  2.6150571E+02;
 -9.0000004E-02;  9.9999998E-03;  3.1000000E-01;1075;  0.0000000E+00;  0.0000000E+00;  0.0000000E+00;  1.0002561E+03;  1.0000000E-01;  2.1214215E+02;0;  0.0000000E+00;  0.0000000E+00;  0.0000000E+00;0;  3.0887011E-03;  4.0000000E+04;  0.0000000E+00;  0.0000000E+00;  4.0000000E+04;  0.0000000E+00;  4.0000000E+04;  2.7740758E-03;  0.0000000E+00;  3.1462518E-04;  3.0592612E+02;
 -9.0000004E-02;  9.9999998E-03;  3.1999999E-01;1076;  0.0000000E+00;  0.0000000E+00;  0.0000000E+00;  1.0001996E+03;  1.0000000E-01;  1.6542741E+02;0;  0.0000000E+00;  0.0000000E+00;  0.0000000E+00;0;  2.3738444E-03;  4.0000000E+04;  0.0000000E+00;  0.0000000E+00;  4.0000000E+04;  0.0000000E+00;  4.0000000E+04;  2.0661780E-03;  0.0000000E+00;  3.0766631E-04;  3.2093558E+02;
 -9.0000004E-02;  9.9999998E-03;  3.3000001E-01;1077;  0.0000000E+00;  0.0000000E+00;  0.0000000E+00;  1.0001506E+03;  1.0000000E-01;  1.2473721E+02;0;  0.0000000E+00;  0.0000000E+00;  0.0000000E+00;0;  1.7571703E-03;  4.0000000E+04;  0.0000000E+00;  0.0000000E+00;  4.0000000E+04;  0.0000000E+00;  4.0000000E+04;  1.4750424E-03;  0.0000000E+00;  2.8212785E-04;  3.1009497E+02;
 -9.0000004E-02;  9.9999998E-03;  3.4000000E-01;1078;  0.0000000E+00;  0.0000000E+00;  0.0000000E+00;  1.0001224E+03;  1.0000000E-01;  1.0142923E+02;0;  0.0000000E+00;  0.0000000E+00;  0.0000000E+00;0;  1.2479682E-03;  4.0000000E+04;  0.0000000E+00;  0.0000000E+00;  4.0000000E+04;  0.0000000E+00;  4.0000000E+04;  1.0043489E-03;  0.0000000E+00;  2.4361927E-04;  2.7938312E+02;
 -9.0000004E-02;  9.9999998E-03;  3.4999999E-01;1079;  0.0000000E+00;  0.0000000E+00;  0.0000000E+00;  1.0000778E+03;  1.0000000E-01;  6.4393242E+01;0;  0.0000000E+00;  0.0000000E+00;  0.0000000E+00;0;  8.4614725E-04;  4.0000000E+04;  0.0000000E+00;  0.0000000E+00;  4.0000000E+04;  0.0000000E+00;  4.0000000E+04;  6.4808910E-04;  0.0000000E+00;  1.9805814E-04;  2.3571404E+02;
 -9.0000004E-02;  9.9999998E-03;  3.6000001E-01;1080;  0.0000000E+00;  0.0000000E+00;  0.0000000E+00;  1.0000530E+03;  1.0000000E-01;  4.3949375E+01;0;  0.0000000E+00;  0.0000000E+00;  0.0000000E+00;0;  5.4369873E-04;  4.0000000E+04;  0.0000000E+00;  0.0000000E+00;  4.0000000E+04;  0.0000000E+00;  4.0000000E+04;  3.9287886E-04;  0.0000000E+00;  1.5081985E-04;  1.8582361E+02;
 -9.0000004E-02;  9.9999998E-03;  3.7000000E-01;1081;  0.0000000E+00;  0.0000000E+00;  0.0000000E+00;  1.0000407E+03;  1.0000000E-01;  3.3776821E+01;0;  0.0000000E+00;  0.0000000E+00;  0.0000000E+00;0;  3.2728829E-04;  4.0000000E+04;  0.0000000E+00;  0.0000000E+00;  4.0000000E+04;  0.0000000E+00;  4.0000000E+04;  2.2094687E-04;  0.0000000E+00;  1.0634142E-04;  1.3565236E+02;
 -9.0000004E-02;  9.9999998E-03;  3.8000000E-01;1082;  0.0000000E+00;  0.0000000E+00;  0.0000000E+00;  1.0000000E+03;  1.0000000E-01;  0.0000000E+00;0;  0.0000000E+00;  0.0000000E+00;  0.0000000E+00;0;  1.8109434E-04;  4.0000000E+04;  0.0000000E+00;  0.0000000E+00;  4.0000000E+04;  0.0000000E+00;  4.0000000E+04;  1.1309552E-04;  0.0000000E+00;  6.7998808E-05;  9.0054909E+01;
 -9.0000004E-02;  9.9999998E-03;  3.8999999E-01;1083;  0.0000000E+00;  0.0000000E+00;  0.0000000E+00;  1.0000000E+03;  1.0000000E-01;  0.0000000E+00;0;  0.0000000E+00;  0.0000000E+00;  0.0000000E+00;0;  8.9163688E-05;  4.0000000E+04;  0.0000000E+00;  0.0000000E+00;  4.0000000E+04;  0.0000000E+00;  4.0000000E+04;  5.1105886E-05;  0.0000000E+00;  3.8057802E-05;  5.2650013E+01;
 -9.0000004E-02;  9.9999998E-03;  4.0000001E-01;1084;  0.0000000E+00;  0.0000000E+00;  0.0000000E+00;  1.0000000E+03;  1.0000000E-01;  0.0000000E+00;0;  0.0000000E+00;  0.0000000E+00;  0.0000000E+00;0;  3.6868398E-05;  4.0000000E+04;  0.0000000E+00;  0.0000000E+00;  4.0000000E+04;  0.0000000E+00;  4.0000000E+04;  1.9337975E-05;  0.0000000E+00;  1.7530423E-05;  2.5616478E+01;
 -7.9999998E-02;  9.9999998E-03;  2.3999999E-01;1159;  0.0000000E+00;  0.0000000E+00;  0.0000000E+00;  1.0010129E+03;  1.0000000E-01;  8.3918616E+02;0;  0.0000000E+00;  0.0000000E+00;  0.0000000E+00;0;  1.2186596E-02;  4.0000000E+04;  0.0000000E+00;  0.0000000E+00;  4.0000000E+04;  0.0000000E+00;  4.0000000E+04;  1.2324897E-02;  0.0000000E+00; -1.3830059E-04;  5.5097839E+02;
 -7.9999998E-02;  9.9999998E-03;  2.5000000E-01;1160;  0.0000000E+00;  0.0000000E+00;  0.0000000E+00;  1.0009295E+03;  1.0000000E-01;  7.7005231E+02;0;  0.0000000E+00;  0.0000000E+00;  0.0000000E+00;0;  1.1260617E-02;  4.0000000E+04;  0.0000000E+00;  0.0000000E+00;  4.0000000E+04;  0.0000000E+00;  4.0000000E+04;  1.1294663E-02;  0.0000000E+00; -3.4045919E-05;  4.0031476E+02;
 -7.9999998E-02;  9.9999998E-03;  2.5999999E-01;1161;  0.0000000E+00;  0.0000000E+00;  0.0000000E+00;  1.0008438E+03;  1.0000000E-01;  6.9904193E+02;0;  0.0000000E+00;  0.0000000E+00;  0.0000000E+00;0;  1.0220489E-02;  4.0000000E+04;  0.0000000E+00;  0.0000000E+00;  4.0000000E+04;  0.0000000E+00;  4.0000000E+04;  1.0134663E-02;  0.0000000E+00;  8.5825486E-05;  2.2973759E+02;
 -7.9999998E-02;  9.9999998E-03;  2.7000001E-01;1162;  0.0000000E+00;  0.0000000E+00;  0.0000000E+00;  1.0007643E+03;  1.0000000E-01;  6.3326605E+02;0;  0.0000000E+00;  0.0000000E+00;  0.0000000E+00;0;  9.0932213E-03;  4.0000000E+04;  0.0000000E+00;  0.0000000E+00;  4.0000000E+04;  0.0000000E+00;  4.0000000E+04;  8.8839168E-03;  0.0000000E+00;  2.0930431E-04;  6.0663471E+01;
 -7.9999998E-02;  9.9999998E-03;  2.8000000E-01;1163;  0.0000000E+00;  0.0000000E+00;  0.0000000E+00;  1.0006759E+03;  1.0000000E-01;  5.5998419E+02;0;  0.0000000E+00;  0.0000000E+00;  0.0000000E+00;0;  7.9135559E-03;  4.0000000E+04;  0.0000000E+00;  0.0000000E+00;  4.0000000E+04;  0.0000000E+00;  4.0000000E+04;  7.5904056E-03;  0.0000000E+00;  3.2315010E-04;  1.3143468E+02;
 -7.9999998E-02;  9.9999998E-03;  2.8999999E-01;1164;  0.0000000E+00;  0.0000000E+00;  0.0000000E+00;  1.0005896E+03;  1.0000000E-01;  4.8848001E+02;0;  0.0000000E+00;  0.0000000E+00;  0.0000000E+00;0;  6.7212707E-03;  4.0000000E+04;  0.0000000E+00;  0.0000000E+00;  4.0000000E+04;  0.0000000E+00;  4.0000000E+04;  6.3062082E-03;  0.0000000E+00;  4.1506242E-04;  2.7814429E+02;
 -7.9999998E-02;  9.9999998E-03;  3.0000001E-01;1165;  0.0000000E+00;  0.0000000E+00;  0.0000000E+00;  1.0005010E+03;  1.0000000E-01;  4.1509937E+02;0;  0.0000000E+00;  0.0000000E+00;  0.0000000E+00;0;  5.5577862E-03;  4.0000000E+04;  0.0000000E+00;  0.0000000E+00;  4.0000000E+04;  0.0000000E+00;  4.0000000E+04;  5.0819577E-03;  0.0000000E+00;  4.7582868E-04;  3.9226068E+02;
 -7.9999998E-02;  9.9999998E-03;  3.1000000E-01;1166;  0.0000000E+00;  0.0000000E+00;  0.0000000E+00;  1.0004128E+03;  1.0000000E-01;  3.4201501E+02;0;  0.0000000E+00;  0.0000000E+00;  0.0000000E+00;0;  4.4629360E-03;  4.0000000E+04;  0.0000000E+00;  0.0000000E+00;  4.0000000E+04;  0.0000000E+00;  4.0000000E+04;  3.9616763E-03;  0.0000000E+00;  5.0125958E-04;  4.6462558E+02;
 -7.9999998E-02;  9.9999998E-03;  3.1999999E-01;1167;  0.0000000E+00;  0.0000000E+00;  0.0000000E+00;  1.0003385E+03;  1.0000000E-01;  2.8048590E+02;0;  0.0000000E+00;  0.0000000E+00;  0.0000000E+00;0;  3.4713857E-03;  4.0000000E+04;  0.0000000E+00;  0.0000000E+00;  4.0000000E+04;  0.0000000E+00;  4.0000000E+04;  2.9786078E-03;  0.0000000E+00;  4.9277791E-04;  4.9397531E+02;
 -7.9999998E-02;  9.9999998E-03;  3.3000001E-01;1168;  0.0000000E+00;  0.0000000E+00;  0.0000000E+00;  1.0002650E+03;  1.0000000E-01;  2.1954935E+02;0;  0.0000000E+00;  0.0000000E+00;  0.0000000E+00;0;  2.6087498E-03;  4.0000000E+04;  0.0000000E+00;  0.0000000E+00;  4.0000000E+04;  0.0000000E+00;  4.0000000E+04;  2.1525510E-03;  0.0000000E+00;  4.5619876E-04;  4.8482413E+02;
 -7.9999998E-02;  9.9999998E-03;  3.4000000E-01;1169;  0.0000000E+00;  0.0000000E+00;  0.0000000E+00;  1.0002023E+03;  1.0000000E-01;  1.6760020E+02;0;  0.0000000E+00;  0.0000000E+00;  0.0000000E+00;0;  1.8887633E-03;  4.0000000E+04;  0.0000000E+00;  0.0000000E+00;  4.0000000E+04;  0.0000000E+00;  4.0000000E+04;  1.4891139E-03;  0.0000000E+00;  3.9964935E-04;  4.4529480E+02;
 -7.9999998E-02;  9.9999998E-03;  3.4999999E-01;1170;  0.0000000E+00;  0.0000000E+00;  0.0000000E+00;  1.0001410E+03;  1.0000000E-01;  1.1683620E+02;0;  0.0000000E+00;  0.0000000E+00;  0.0000000E+00;0;  1.3127018E-03;  4.0000000E+04;  0.0000000E+00;  0.0000000E+00;  4.0000000E+04;  0.0000000E+00;  4.0000000E+04;  9.8105939E-04;  0.0000000E+00;  3.3164243E-04;  3.8494809E+02;
 -7.9999998E-02;  9.9999998E-03;  3.6000001E-01;1171;  0.0000000E+00;  0.0000000E+00;  0.0000000E+00;  1.0000958E+03;  1.0000000E-01;  7.9405159E+01;0;  0.0000000E+00;  0.0000000E+00;  0.0000000E+00;0;  8.7112340E-04;  4.0000000E+04;  0.0000000E+00;  0.0000000E+00;  4.0000000E+04;  0.0000000E+00;  4.0000000E+04;  6.1127456E-04;  0.0000000E+00;  2.5984884E-04;  3.1316730E+02;
 -7.9999998E-02;  9.9999998E-03;  3.7000000E-01;1172;  0.0000000E+00;  0.0000000E+00;  0.0000000E+00;  1.0000587E+03;  1.0000000E-01;  4.8689980E+01;0;  0.0000000E+00;  0.0000000E+00;  0.0000000E+00;0;  5.4727338E-04;  4.0000000E+04;  0.0000000E+00;  0.0000000E+00;  4.0000000E+04;  0.0000000E+00;  4.0000000E+04;  3.5668246E-04;  0.0000000E+00;  1.9059092E-04;  2.3830374E+02;
 -7.9999998E-02;  9.9999998E-03;  3.8000000E-01;1173;  0.0000000E+00;  0.0000000E+00;  0.0000000E+00;  1.0000444E+03;  1.0000000E-01;  3.6739700E+01;0;  0.0000000E+00;  0.0000000E+00;  0.0000000E+00;0;  3.2087500E-04;  4.0000000E+04;  0.0000000E+00;  0.0000000E+00;  4.0000000E+04;  0.0000000E+00;  4.0000000E+04;  1.9208994E-04;  0.0000000E+00;  1.2878506E-04;  1.6735034E+02;
 -7.9999998E-02;  9.9999998E-03;  3.8999999E-01;1174;  0.0000000E+00;  0.0000000E+00;  0.0000000E+00;  1.0000000E+03;  1.0000000E-01;  0.0000000E+00;0;  0.0000000E+00;  0.0000000E+00;  0.0000000E+00;0;  1.7136561E-04;  4.0000000E+04;  0.0000000E+00;  0.0000000E+00;  4.0000000E+04;  0.0000000E+00;  4.0000000E+04;  9.3343770E-05;  0.0000000E+00;  7.8021840E-05;  1.0588400E+02;
 -7.9999998E-02;  9.9999998E-03;  4.0000001E-01;1175;  0.0000000E+00;  0.0000000E+00;  0.0000000E+00;  1.0000000E+03;  1.0000000E-01;  0.0000000E+00;0;  0.0000000E+00;  0.0000000E+00;  0.0000000E+00;0;  7.9922538E-05;  4.0000000E+04;  0.0000000E+00;  0.0000000E+00;  4.0000000E+04;  0.0000000E+00;  4.0000000E+04;  3.9429902E-05;  0.0000000E+00;  4.0492632E-05;  5.7922363E+01;
 -7.0000000E-02;  9.9999998E-03;  2.3999999E-01;1250;  0.0000000E+00;  0.0000000E+00;  0.0000000E+00;  1.0015612E+03;  1.0000000E-01;  1.2933955E+03;0;  0.0000000E+00;  0.0000000E+00;  0.0000000E+00;0;  1.6140509E-02;  4.0000000E+04;  0.0000000E+00;  0.0000000E+00;  4.0000000E+04;  0.0000000E+00;  4.0000000E+04;  1.6319785E-02;  0.0000000E+00; -1.7927558E-04;  7.8215179E+02;
 -7.0000000E-02;  9.9999998E-03;  2.5000000E-01;1251;  0.0000000E+00;  0.0000000E+00;  0.0000000E+00;  1.0014313E+03;  1.0000000E-01;  1.1858430E+03;0;  0.0000000E+00;  0.0000000E+00;  0.0000000E+00;0;  1.4943845E-02;  4.0000000E+04;  0.0000000E+00;  0.0000000E+00;  4.0000000E+04;  0.0000000E+00;  4.0000000E+04;  1.4969453E-02;  0.0000000E+00; -2.5608753E-05;  5.7496405E+02;
 -7.0000000E-02;  9.9999998E-03;  2.5999999E-01;1252;  0.0000000E+00;  0.0000000E+00;  0.0000000E+00;  1.0013046E+03;  1.0000000E-01;  1.0807595E+03;0;  0.0000000E+00;  0.0000000E+00;  0.0000000E+00;0;  1.3598854E-02;  4.0000000E+04;  0.0000000E+00;  0.0000000E+00;  4.0000000E+04;  0.0000000E+00;  4.0000000E+04;  1.3449750E-02;  0.0000000E+00;  1.4910381E-04;  3.3855457E+02;
 -7.0000000E-02;  9.9999998E-03;  2.7000001E-01;1253;  0.0000000E+00;  0.0000000E+00;  0.0000000E+00;  1.0011771E+03;  1.0000000E-01;  9.7518231E+02;0;  0.0000000E+00;  0.0000000E+00;  0.0000000E+00;0;  1.2138762E-02;  4.0000000E+04;  0.0000000E+00;  0.0000000E+00;  4.0000000E+04;  0.0000000E+00;  4.0000000E+04;  1.1810685E-02;  0.0000000E+00;  3.2807665E-04;  1.0573182E+02;
 -7.0000000E-02;  9.9999998E-03;  2.8000000E-01;1254;  0.0000000E+00;  0.0000000E+00;  0.0000000E+00;  1.0010414E+03;  1.0000000E-01;  8.6279041E+02;0;  0.0000000E+00;  0.0000000E+00;  0.0000000E+00;0;  1.0606889E-02;  4.0000000E+04;  0.0000000E+00;  0.0000000E+00;  4.0000000E+04;  0.0000000E+00;  4.0000000E+04;  1.0114161E-02;  0.0000000E+00;  4.9272721E-04;  1.8158070E+02;
 -7.0000000E-02;  9.9999998E-03;  2.8999999E-01;1255;  0.0000000E+00;  0.0000000E+00;  0.0000000E+00;  1.0009062E+03;  1.0000000E-01;  7.5079358E+02;0;  0.0000000E+00;  0.0000000E+00;  0.0000000E+00;0;  9.0534240E-03;  4.0000000E+04;  0.0000000E+00;  0.0000000E+00;  4.0000000E+04;  0.0000000E+00;  4.0000000E+04;  8.4277177E-03;  0.0000000E+00;  6.2570604E-04;  3.8926556E+02;
 -7.0000000E-02;  9.9999998E-03;  3.0000001E-01;1256;  0.0000000E+00;  0.0000000E+00;  0.0000000E+00;  1.0007743E+03;  1.0000000E-01;  6.4146332E+02;0;  0.0000000E+00;  0.0000000E+00;  0.0000000E+00;0;  7.5313668E-03;  4.0000000E+04;  0.0000000E+00;  0.0000000E+00;  4.0000000E+04;  0.0000000E+00;  4.0000000E+04;  6.8173879E-03;  0.0000000E+00;  7.1397884E-04;  5.5557904E+02;
 -7.0000000E-02;  9.9999998E-03;  3.1000000E-01;1257;  0.0000000E+00;  0.0000000E+00;  0.0000000E+00;  1.0006481E+03;  1.0000000E-01;  5.3697247E+02;0;  0.0000000E+00;  0.0000000E+00;  0.0000000E+00;0;  6.0924068E-03;  4.0000000E+04;  0.0000000E+00;  0.0000000E+00;  4.0000000E+04;  0.0000000E+00;  4.0000000E+04;  5.3407443E-03;  0.0000000E+00;  7.5166242E-04;  6.6476337E+02;
 -7.0000000E-02;  9.9999998E-03;  3.1999999E-01;1258;  0.0000000E+00;  0.0000000E+00;  0.0000000E+00;  1.0005294E+03;  1.0000000E-01;  4.3860489E+02;0;  0.0000000E+00;  0.0000000E+00;  0.0000000E+00;0;  4.7822455E-03;  4.0000000E+04;  0.0000000E+00;  0.0000000E+00;  4.0000000E+04;  0.0000000E+00;  4.0000000E+04;  4.0413789E-03;  0.0000000E+00;  7.4086688E-04;  7.1402698E+02;
 -7.0000000E-02;  9.9999998E-03;  3.3000001E-01;1259;  0.0000000E+00;  0.0000000E+00;  0.0000000E+00;  1.0004119E+03;  1.0000000E-01;  3.4122491E+02;0;  0.0000000E+00;  0.0000000E+00;  0.0000000E+00;0;  3.6352498E-03;  4.0000000E+04;  0.0000000E+00;  0.0000000E+00;  4.0000000E+04;  0.0000000E+00;  4.0000000E+04;  2.9453568E-03;  0.0000000E+00;  6.8989309E-04;  7.0899408E+02;
 -7.0000000E-02;  9.9999998E-03;  3.4000000E-01;1260;  0.0000000E+00;  0.0000000E+00;  0.0000000E+00;  1.0003171E+03;  1.0000000E-01;  2.6270862E+02;0;  0.0000000E+00;  0.0000000E+00;  0.0000000E+00;0;  2.6705312E-03;  4.0000000E+04;  0.0000000E+00;  0.0000000E+00;  4.0000000E+04;  0.0000000E+00;  4.0000000E+04;  2.0603363E-03;  0.0000000E+00;  6.1019498E-04;  6.6045117E+02;
 -7.0000000E-02;  9.9999998E-03;  3.4999999E-01;1261;  0.0000000E+00;  0.0000000E+00;  0.0000000E+00;  1.0002218E+03;  1.0000000E-01;  1.8379727E+02;0;  0.0000000E+00;  0.0000000E+00;  0.0000000E+00;0;  1.8910153E-03;  4.0000000E+04;  0.0000000E+00;  0.0000000E+00;  4.0000000E+04;  0.0000000E+00;  4.0000000E+04;  1.3774122E-03;  0.0000000E+00;  5.1360315E-04;  5.8120337E+02;
 -7.0000000E-02;  9.9999998E-03;  3.6000001E-01;1262;  0.0000000E+00;  0.0000000E+00;  0.0000000E+00;  1.0001527E+03;  1.0000000E-01;  1.2651494E+02;0;  0.0000000E+00;  0.0000000E+00;  0.0000000E+00;0;  1.2856706E-03;  4.0000000E+04;  0.0000000E+00;  0.0000000E+00;  4.0000000E+04;  0.0000000E+00;  4.0000000E+04;  8.7505113E-04;  0.0000000E+00;  4.1061948E-04;  4.8380386E+02;
 -7.0000000E-02;  9.9999998E-03;  3.7000000E-01;1263;  0.0000000E+00;  0.0000000E+00;  0.0000000E+00;  1.0001172E+03;  1.0000000E-01;  9.7182434E+01;0;  0.0000000E+00;  0.0000000E+00;  0.0000000E+00;0;  8.3383353E-04;  4.0000000E+04;  0.0000000E+00;  0.0000000E+00;  4.0000000E+04;  0.0000000E+00;  4.0000000E+04;  5.2405690E-04;  0.0000000E+00;  3.0977663E-04;  3.7940955E+02;
 -7.0000000E-02;  9.9999998E-03;  3.8000000E-01;1264;  0.0000000E+00;  0.0000000E+00;  0.0000000E+00;  1.0000620E+03;  1.0000000E-01;  5.1356571E+01;0;  0.0000000E+00;  0.0000000E+00;  0.0000000E+00;0;  5.1014323E-04;  4.0000000E+04;  0.0000000E+00;  0.0000000E+00;  4.0000000E+04;  0.0000000E+00;  4.0000000E+04;  2.9243904E-04;  0.0000000E+00;  2.1770422E-04;  2.7742010E+02;
 -7.0000000E-02;  9.9999998E-03;  3.8999999E-01;1265;  0.0000000E+00;  0.0000000E+00;  0.0000000E+00;  1.0000443E+03;  1.0000000E-01;  3.6739700E+01;0;  0.0000000E+00;  0.0000000E+00;  0.0000000E+00;0;  2.8881399E-04;  4.0000000E+04;  0.0000000E+00;  0.0000000E+00;  4.0000000E+04;  0.0000000E+00;  4.0000000E+04;  1.4938349E-04;  0.0000000E+00;  1.3943050E-04;  1.8557033E+02;
 -7.0000000E-02;  9.9999998E-03;  4.0000001E-01;1266;  0.0000000E+00;  0.0000000E+00;  0.0000000E+00;  1.0000000E+03;  1.0000000E-01;  0.0000000E+00;0;  0.0000000E+00;  0.0000000E+00;  0.0000000E+00;0;  1.4639436E-04;  4.0000000E+04;  0.0000000E+00;  0.0000000E+00;  4.0000000E+04;  0.0000000E+00;  4.0000000E+04;  6.7900968E-05;  0.0000000E+00;  7.8493402E-05;  1.0996552E+02;
 -5.9999999E-02;  9.9999998E-03;  2.3999999E-01;1341;  0.0000000E+00;  0.0000000E+00;  0.0000000E+00;  1.0022902E+03;  1.0000000E-01;  1.8973291E+03;0;  0.0000000E+00;  0.0000000E+00;  0.0000000E+00;0;  2.0427566E-02;  4.0000000E+04;  0.0000000E+00;  0.0000000E+00;  4.0000000E+04;  0.0000000E+00;  4.0000000E+04;  2.0645257E-02;  0.0000000E+00; -2.1769035E-04;  1.0613428E+03;
 -5.9999999E-02;  9.9999998E-03;  2.5000000E-01;1342;  0.0000000E+00;  0.0000000E+00;  0.0000000E+00;  1.0021033E+03;  1.0000000E-01;  1.7425680E+03;0;  0.0000000E+00;  0.0000000E+00;  0.0000000E+00;0;  1.8954078E-02;  4.0000000E+04;  0.0000000E+00;  0.0000000E+00;  4.0000000E+04;  0.0000000E+00;  4.0000000E+04;  1.8956820E-02;  0.0000000E+00; -2.7425649E-06;  7.9027496E+02;
 -5.9999999E-02;  9.9999998E-03;  2.5999999E-01;1343;  0.0000000E+00;  0.0000000E+00;  0.0000000E+00;  1.0019174E+03;  1.0000000E-01;  1.5884983E+03;0;  0.0000000E+00;  0.0000000E+00;  0.0000000E+00;0;  1.7292643E-02;  4.0000000E+04;  0.0000000E+00;  0.0000000E+00;  4.0000000E+04;  0.0000000E+00;  4.0000000E+04;  1.7052874E-02;  0.0000000E+00;  2.3976853E-04;  4.7767972E+02;
 -5.9999999E-02;  9.9999998E-03;  2.7000001E-01;1344;  0.0000000E+00;  0.0000000E+00;  0.0000000E+00;  1.0017271E+03;  1.0000000E-01;  1.4308732E+03;0;  0.0000000E+00;  0.0000000E+00;  0.0000000E+00;0;  1.5482519E-02;  4.0000000E+04;  0.0000000E+00;  0.0000000E+00;  4.0000000E+04;  0.0000000E+00;  4.0000000E+04;  1.4995250E-02;  0.0000000E+00;  4.8726899E-04;  1.7008418E+02;
 -5.9999999E-02;  9.9999998E-03;  2.8000000E-01;1345;  0.0000000E+00;  0.0000000E+00;  0.0000000E+00;  1.0015349E+03;  1.0000000E-01;  1.2715690E+03;0;  0.0000000E+00;  0.0000000E+00;  0.0000000E+00;0;  1.3575917E-02;  4.0000000E+04;  0.0000000E+00;  0.0000000E+00;  4.0000000E+04;  0.0000000E+00;  4.0000000E+04;  1.2861419E-02;  0.0000000E+00;  7.1449764E-04;  2.4114413E+02;
 -5.9999999E-02;  9.9999998E-03;  2.8999999E-01;1346;  0.0000000E+00;  0.0000000E+00;  0.0000000E+00;  1.0013397E+03;  1.0000000E-01;  1.1098945E+03;0;  0.0000000E+00;  0.0000000E+00;  0.0000000E+00;0;  1.1634410E-02;  4.0000000E+04;  0.0000000E+00;  0.0000000E+00;  4.0000000E+04;  0.0000000E+00;  4.0000000E+04;  1.0736727E-02;  0.0000000E+00;  8.9768303E-04;  5.2035278E+02;
 -5.9999999E-02;  9.9999998E-03;  3.0000001E-01;1347;  0.0000000E+00;  0.0000000E+00;  0.0000000E+00;  1.0011489E+03;  1.0000000E-01;  9.5187433E+02;0;  0.0000000E+00;  0.0000000E+00;  0.0000000E+00;0;  9.7240284E-03;  4.0000000E+04;  0.0000000E+00;  0.0000000E+00;  4.0000000E+04;  0.0000000E+00;  4.0000000E+04;  8.7050721E-03;  0.0000000E+00;  1.0189563E-03;  7.5046039E+02;
 -5.9999999E-02;  9.9999998E-03;  3.1000000E-01;1348;  0.0000000E+00;  0.0000000E+00;  0.0000000E+00;  1.0009645E+03;  1.0000000E-01;  7.9908850E+02;0;  0.0000000E+00;  0.0000000E+00;  0.0000000E+00;0;  7.9103094E-03;  4.0000000E+04;  0.0000000E+00;  0.0000000E+00;  4.0000000E+04;  0.0000000E+00;  4.0000000E+04;  6.8398579E-03;  0.0000000E+00;  1.0704511E-03;  9.0529340E+02;
 -5.9999999E-02;  9.9999998E-03;  3.1999999E-01;1349;  0.0000000E+00;  0.0000000E+00;  0.0000000E+00;  1.0007783E+03;  1.0000000E-01;  6.4482129E+02;0;  0.0000000E+00;  0.0000000E+00;  0.0000000E+00;0;  6.2519088E-03;  4.0000000E+04;  0.0000000E+00;  0.0000000E+00;  4.0000000E+04;  0.0000000E+00;  4.0000000E+04;  5.1964652E-03;  0.0000000E+00;  1.0554435E-03;  9.7982587E+02;
 -5.9999999E-02;  9.9999998E-03;  3.3000001E-01;1350;  0.0000000E+00;  0.0000000E+00;  0.0000000E+00;  1.0006230E+03;  1.0000000E-01;  5.1613354E+02;0;  0.0000000E+00;  0.0000000E+00;  0.0000000E+00;0;  4.7934633E-03;  4.0000000E+04;  0.0000000E+00;  0.0000000E+00;  4.0000000E+04;  0.0000000E+00;  4.0000000E+04;  3.8078015E-03;  0.0000000E+00;  9.8566187E-04;  9.8107178E+02;
 -5.9999999E-02;  9.9999998E-03;  3.4000000E-01;1351;  0.0000000E+00;  0.0000000E+00;  0.0000000E+00;  1.0004778E+03;  1.0000000E-01;  3.9584067E+02;0;  0.0000000E+00;  0.0000000E+00;  0.0000000E+00;0;  3.5602674E-03;  4.0000000E+04;  0.0000000E+00;  0.0000000E+00;  4.0000000E+04;  0.0000000E+00;  4.0000000E+04;  2.6833743E-03;  0.0000000E+00;  8.7689317E-04;  9.2317371E+02;
 -5.9999999E-02;  9.9999998E-03;  3.4999999E-01;1352;  0.0000000E+00;  0.0000000E+00;  0.0000000E+00;  1.0003530E+03;  1.0000000E-01;  2.9243619E+02;0;  0.0000000E+00;  0.0000000E+00;  0.0000000E+00;0;  2.5570442E-03;  4.0000000E+04;  0.0000000E+00;  0.0000000E+00;  4.0000000E+04;  0.0000000E+00;  4.0000000E+04;  1.8119354E-03;  0.0000000E+00;  7.4510876E-04;  8.2289331E+02;
 -5.9999999E-02;  9.9999998E-03;  3.6000001E-01;1353;  0.0000000E+00;  0.0000000E+00;  0.0000000E+00;  1.0002477E+03;  1.0000000E-01;  2.0522876E+02;0;  0.0000000E+00;  0.0000000E+00;  0.0000000E+00;0;  1.7708587E-03;  4.0000000E+04;  0.0000000E+00;  0.0000000E+00;  4.0000000E+04;  0.0000000E+00;  4.0000000E+04;  1.1666906E-03;  0.0000000E+00;  6.0416805E-04;  6.9653693E+02;
 -5.9999999E-02;  9.9999998E-03;  3.7000000E-01;1354;  0.0000000E+00;  0.0000000E+00;  0.0000000E+00;  1.0001651E+03;  1.0000000E-01;  1.3678625E+02;0;  0.0000000E+00;  0.0000000E+00;  0.0000000E+00;0;  1.1766219E-03;  4.0000000E+04;  0.0000000E+00;  0.0000000E+00;  4.0000000E+04;  0.0000000E+00;  4.0000000E+04;  7.1154104E-04;  0.0000000E+00;  4.6508084E-04;  5.5841205E+02;
 -5.9999999E-02;  9.9999998E-03;  3.8000000E-01;1355;  0.0000000E+00;  0.0000000E+00;  0.0000000E+00;  1.0001144E+03;  1.0000000E-01;  9.4713371E+01;0;  0.0000000E+00;  0.0000000E+00;  0.0000000E+00;0;  7.4332941E-04;  4.0000000E+04;  0.0000000E+00;  0.0000000E+00;  4.0000000E+04;  0.0000000E+00;  4.0000000E+04;  4.0706430E-04;  0.0000000E+00;  3.3626510E-04;  4.2051917E+02;
 -5.9999999E-02;  9.9999998E-03;  3.8999999E-01;1356;  0.0000000E+00;  0.0000000E+00;  0.0000000E+00;  1.0000620E+03;  1.0000000E-01;  5.1356571E+01;0;  0.0000000E+00;  0.0000000E+00;  0.0000000E+00;0;  4.3946673E-04;  4.0000000E+04;  0.0000000E+00;  0.0000000E+00;  4.0000000E+04;  0.0000000E+00;  4.0000000E+04;  2.1529487E-04;  0.0000000E+00;  2.2417188E-04;  2.9284338E+02;
 -5.9999999E-02;  9.9999998E-03;  4.0000001E-01;1357;  0.0000000E+00;  0.0000000E+00;  0.0000000E+00;  1.0000315E+03;  1.0000000E-01;  2.6073338E+01;0;  0.0000000E+00;  0.0000000E+00;  0.0000000E+00;0;  2.3661010E-04;  4.0000000E+04;  0.0000000E+00;  0.0000000E+00;  4.0000000E+04;  0.0000000E+00;  4.0000000E+04;  1.0290951E-04;  0.0000000E+00;  1.3370058E-04;  1.8367107E+02;
 -5.0000001E-02;  9.9999998E-03;  2.3999999E-01;1432;  0.0000000E+00;  0.0000000E+00;  0.0000000E+00;  1.0032173E+03;  1.0000000E-01;  2.6655049E+03;0;  0.0000000E+00;  0.0000000E+00;  0.0000000E+00;0;  2.4760304E-02;  4.0000000E+04;  0.0000000E+00;  0.0000000E+00;  4.0000000E+04;  0.0000000E+00;  4.0000000E+04;  2.5008414E-02;  0.0000000E+00; -2.4810925E-04;  1.3832677E+03;
 -5.0000001E-02;  9.9999998E-03;  2.5000000E-01;1433;  0.0000000E+00;  0.0000000E+00;  0.0000000E+00;  1.0029622E+03;  1.0000000E-01;  2.4541528E+03;0;  0.0000000E+00;  0.0000000E+00;  0.0000000E+00;0;  2.3029806E-02;  4.0000000E+04;  0.0000000E+00;  0.0000000E+00;  4.0000000E+04;  0.0000000E+00;  4.0000000E+04;  2.2990802E-02;  0.0000000E+00;  3.9003779E-05;  1.0441991E+03;
 -5.0000001E-02;  9.9999998E-03;  2.5999999E-01;1434;  0.0000000E+00;  0.0000000E+00;  0.0000000E+00;  1.0026980E+03;  1.0000000E-01;  2.2351960E+03;0;  0.0000000E+00;  0.0000000E+00;  0.0000000E+00;0;  2.1067085E-02;  4.0000000E+04;  0.0000000E+00;  0.0000000E+00;  4.0000000E+04;  0.0000000E+00;  4.0000000E+04;  2.0705542E-02;  0.0000000E+00;  3.6154289E-04;  6.4743970E+02;
 -5.0000001E-02;  9.9999998E-03;  2.7000001E-01;1435;  0.0000000E+00;  0.0000000E+00;  0.0000000E+00;  1.0024364E+03;  1.0000000E-01;  2.0185109E+03;0;  0.0000000E+00;  0.0000000E+00;  0.0000000E+00;0;  1.8916592E-02;  4.0000000E+04;  0.0000000E+00;  0.0000000E+00;  4.0000000E+04;  0.0000000E+00;  4.0000000E+04;  1.8226448E-02;  0.0000000E+00;  6.9014443E-04;  2.5460027E+02;
 -5.0000001E-02;  9.9999998E-03;  2.8000000E-01;1436;  0.0000000E+00;  0.0000000E+00;  0.0000000E+00;  1.0021668E+03;  1.0000000E-01;  1.7952085E+03;0;  0.0000000E+00;  0.0000000E+00;  0.0000000E+00;0;  1.6638944E-02;  4.0000000E+04;  0.0000000E+00;  0.0000000E+00;  4.0000000E+04;  0.0000000E+00;  4.0000000E+04;  1.5647607E-02;  0.0000000E+00;  9.9133642E-04;  3.0932996E+02;
 -5.0000001E-02;  9.9999998E-03;  2.8999999E-01;1437;  0.0000000E+00;  0.0000000E+00;  0.0000000E+00;  1.0018944E+03;  1.0000000E-01;  1.5694371E+03;0;  0.0000000E+00;  0.0000000E+00;  0.0000000E+00;0;  1.4307303E-02;  4.0000000E+04;  0.0000000E+00;  0.0000000E+00;  4.0000000E+04;  0.0000000E+00;  4.0000000E+04;  1.3074092E-02;  0.0000000E+00;  1.2332121E-03;  6.6884955E+02;
 -5.0000001E-02;  9.9999998E-03;  3.0000001E-01;1438;  0.0000000E+00;  0.0000000E+00;  0.0000000E+00;  1.0016271E+03;  1.0000000E-01;  1.3480112E+03;0;  0.0000000E+00;  0.0000000E+00;  0.0000000E+00;0;  1.2001971E-02;  4.0000000E+04;  0.0000000E+00;  0.0000000E+00;  4.0000000E+04;  0.0000000E+00;  4.0000000E+04;  1.0610158E-02;  0.0000000E+00;  1.3918132E-03;  9.7354102E+02;
 -5.0000001E-02;  9.9999998E-03;  3.1000000E-01;1439;  0.0000000E+00;  0.0000000E+00;  0.0000000E+00;  1.0013633E+03;  1.0000000E-01;  1.1294496E+03;0;  0.0000000E+00;  0.0000000E+00;  0.0000000E+00;0;  9.8042078E-03;  4.0000000E+04;  0.0000000E+00;  0.0000000E+00;  4.0000000E+04;  0.0000000E+00;  4.0000000E+04;  8.3471546E-03;  0.0000000E+00;  1.4570529E-03;  1.1819210E+03;
 -5.0000001E-02;  9.9999998E-03;  3.1999999E-01;1440;  0.0000000E+00;  0.0000000E+00;  0.0000000E+00;  1.0011086E+03;  1.0000000E-01;  9.1839380E+02;0;  0.0000000E+00;  0.0000000E+00;  0.0000000E+00;0;  7.7877338E-03;  4.0000000E+04;  0.0000000E+00;  0.0000000E+00;  4.0000000E+04;  0.0000000E+00;  4.0000000E+04;  6.3535371E-03;  0.0000000E+00;  1.4341967E-03;  1.2860530E+03;
 -5.0000001E-02;  9.9999998E-03;  3.3000001E-01;1441;  0.0000000E+00;  0.0000000E+00;  0.0000000E+00;  1.0008824E+03;  1.0000000E-01;  7.3104108E+02;0;  0.0000000E+00;  0.0000000E+00;  0.0000000E+00;0;  6.0088774E-03;  4.0000000E+04;  0.0000000E+00;  0.0000000E+00;  4.0000000E+04;  0.0000000E+00;  4.0000000E+04;  4.6691210E-03;  0.0000000E+00;  1.3397562E-03;  1.2948607E+03;
 -5.0000001E-02;  9.9999998E-03;  3.4000000E-01;1442;  0.0000000E+00;  0.0000000E+00;  0.0000000E+00;  1.0006805E+03;  1.0000000E-01;  5.6373712E+02;0;  0.0000000E+00;  0.0000000E+00;  0.0000000E+00;0;  4.4997022E-03;  4.0000000E+04;  0.0000000E+00;  0.0000000E+00;  4.0000000E+04;  0.0000000E+00;  4.0000000E+04;  3.3045644E-03;  0.0000000E+00;  1.1951377E-03;  1.2267228E+03;
 -5.0000001E-02;  9.9999998E-03;  3.4999999E-01;1443;  0.0000000E+00;  0.0000000E+00;  0.0000000E+00;  1.0005048E+03;  1.0000000E-01;  4.1816101E+02;0;  0.0000000E+00;  0.0000000E+00;  0.0000000E+00;0;  3.2666596E-03;  4.0000000E+04;  0.0000000E+00;  0.0000000E+00;  4.0000000E+04;  0.0000000E+00;  4.0000000E+04;  2.2453233E-03;  0.0000000E+00;  1.0213363E-03;  1.1032548E+03;
 -5.0000001E-02;  9.9999998E-03;  3.6000001E-01;1444;  0.0000000E+00;  0.0000000E+00;  0.0000000E+00;  1.0003639E+03;  1.0000000E-01;  3.0152234E+02;0;  0.0000000E+00;  0.0000000E+00;  0.0000000E+00;0;  2.2944724E-03;  4.0000000E+04;  0.0000000E+00;  0.0000000E+00;  4.0000000E+04;  0.0000000E+00;  4.0000000E+04;  1.4584525E-03;  0.0000000E+00;  8.3601993E-04;  9.4506238E+02;
 -5.0000001E-02;  9.9999998E-03;  3.7000000E-01;1445;  0.0000000E+00;  0.0000000E+00;  0.0000000E+00;  1.0002488E+03;  1.0000000E-01;  2.0611763E+02;0;  0.0000000E+00;  0.0000000E+00;  0.0000000E+00;0;  1.5531514E-03;  4.0000000E+04;  0.0000000E+00;  0.0000000E+00;  4.0000000E+04;  0.0000000E+00;  4.0000000E+04;  9.0035080E-04;  0.0000000E+00;  6.5280061E-04;  7.6990118E+02;
 -5.0000001E-02;  9.9999998E-03;  3.8000000E-01;1446;  0.0000000E+00;  0.0000000E+00;  0.0000000E+00;  1.0001589E+03;  1.0000000E-01;  1.3165060E+02;0;  0.0000000E+00;  0.0000000E+00;  0.0000000E+00;0;  1.0056470E-03;  4.0000000E+04;  0.0000000E+00;  0.0000000E+00;  4.0000000E+04;  0.0000000E+00;  4.0000000E+04;  5.2384083E-04;  0.0000000E+00;  4.8180617E-04;  5.9244775E+02;
 -5.0000001E-02;  9.9999998E-03;  3.8999999E-01;1447;  0.0000000E+00;  0.0000000E+00;  0.0000000E+00;  1.0001024E+03;  1.0000000E-01;  8.4837105E+01;0;  0.0000000E+00;  0.0000000E+00;  0.0000000E+00;0;  6.1444985E-04;  4.0000000E+04;  0.0000000E+00;  0.0000000E+00;  4.0000000E+04;  0.0000000E+00;  4.0000000E+04;  2.8371040E-04;  0.0000000E+00;  3.3073948E-04;  4.2490878E+02;
 -5.0000001E-02;  9.9999998E-03;  4.0000001E-01;1448;  0.0000000E+00;  0.0000000E+00;  0.0000000E+00;  1.0000590E+03;  1.0000000E-01;  4.8887505E+01;0;  0.0000000E+00;  0.0000000E+00;  0.0000000E+00;0;  3.4605782E-04;  4.0000000E+04;  0.0000000E+00;  0.0000000E+00;  4.0000000E+04;  0.0000000E+00;  4.0000000E+04;  1.4034401E-04;  0.0000000E+00;  2.0571379E-04;  2.7770291E+02;
 -3.9999999E-02;  9.9999998E-03;  2.3999999E-01;1523;  0.0000000E+00;  0.0000000E+00;  0.0000000E+00;  1.0043406E+03;  1.0000000E-01;  3.5961453E+03;0;  0.0000000E+00;  0.0000000E+00;  0.0000000E+00;0;  2.8757432E-02;  4.0000000E+04;  0.0000000E+00;  0.0000000E+00;  4.0000000E+04;  0.0000000E+00;  4.0000000E+04;  2.9022507E-02;  0.0000000E+00; -2.6507425E-04;  1.7369520E+03;
 -3.9999999E-02;  9.9999998E-03;  2.5000000E-01;1524;  0.0000000E+00;  0.0000000E+00;  0.0000000E+00;  1.0039976E+03;  1.0000000E-01;  3.3119062E+03;0;  0.0000000E+00;  0.0000000E+00;  0.0000000E+00;0;  2.6823422E-02;  4.0000000E+04;  0.0000000E+00;  0.0000000E+00;  4.0000000E+04;  0.0000000E+00;  4.0000000E+04;  2.6720578E-02;  0.0000000E+00;  1.0284495E-04;  1.3304526E+03;
 -3.9999999E-02;  9.9999998E-03;  2.5999999E-01;1525;  0.0000000E+00;  0.0000000E+00;  0.0000000E+00;  1.0036506E+03;  1.0000000E-01;  3.0244082E+03;0;  0.0000000E+00;  0.0000000E+00;  0.0000000E+00;0;  2.4609903E-02;  4.0000000E+04;  0.0000000E+00;  0.0000000E+00;  4.0000000E+04;  0.0000000E+00;  4.0000000E+04;  2.4094131E-02;  0.0000000E+00;  5.1577244E-04;  8.4524298E+02;
 -3.9999999E-02;  9.9999998E-03;  2.7000001E-01;1526;  0.0000000E+00;  0.0000000E+00;  0.0000000E+00;  1.0032985E+03;  1.0000000E-01;  2.7327622E+03;0;  0.0000000E+00;  0.0000000E+00;  0.0000000E+00;0;  2.2164769E-02;  4.0000000E+04;  0.0000000E+00;  0.0000000E+00;  4.0000000E+04;  0.0000000E+00;  4.0000000E+04;  2.1228084E-02;  0.0000000E+00;  9.3668606E-04;  3.5825168E+02;
 -3.9999999E-02;  9.9999998E-03;  2.8000000E-01;1527;  0.0000000E+00;  0.0000000E+00;  0.0000000E+00;  1.0029398E+03;  1.0000000E-01;  2.4354866E+03;0;  0.0000000E+00;  0.0000000E+00;  0.0000000E+00;0;  1.9555280E-02;  4.0000000E+04;  0.0000000E+00;  0.0000000E+00;  4.0000000E+04;  0.0000000E+00;  4.0000000E+04;  1.8233106E-02;  0.0000000E+00;  1.3221742E-03;  3.8386627E+02;
 -3.9999999E-02;  9.9999998E-03;  2.8999999E-01;1528;  0.0000000E+00;  0.0000000E+00;  0.0000000E+00;  1.0025745E+03;  1.0000000E-01;  2.1329768E+03;0;  0.0000000E+00;  0.0000000E+00;  0.0000000E+00;0;  1.6865214E-02;  4.0000000E+04;  0.0000000E+00;  0.0000000E+00;  4.0000000E+04;  0.0000000E+00;  4.0000000E+04;  1.5235214E-02;  0.0000000E+00;  1.6300008E-03;  8.3034497E+02;
 -3.9999999E-02;  9.9999998E-03;  3.0000001E-01;1529;  0.0000000E+00;  0.0000000E+00;  0.0000000E+00;  1.0022113E+03;  1.0000000E-01;  1.8320470E+03;0;  0.0000000E+00;  0.0000000E+00;  0.0000000E+00;0;  1.4189569E-02;  4.0000000E+04;  0.0000000E+00;  0.0000000E+00;  4.0000000E+04;  0.0000000E+00;  4.0000000E+04;  1.2361141E-02;  0.0000000E+00;  1.8284281E-03;  1.2187883E+03;
 -3.9999999E-02;  9.9999998E-03;  3.1000000E-01;1530;  0.0000000E+00;  0.0000000E+00;  0.0000000E+00;  1.0018545E+03;  1.0000000E-01;  1.5364503E+03;0;  0.0000000E+00;  0.0000000E+00;  0.0000000E+00;0;  1.1627062E-02;  4.0000000E+04;  0.0000000E+00;  0.0000000E+00;  4.0000000E+04;  0.0000000E+00;  4.0000000E+04;  9.7220847E-03;  0.0000000E+00;  1.9049771E-03;  1.4867812E+03;
 -3.9999999E-02;  9.9999998E-03;  3.1999999E-01;1531;  0.0000000E+00;  0.0000000E+00;  0.0000000E+00;  1.0015135E+03;  1.0000000E-01;  1.2538905E+03;0;  0.0000000E+00;  0.0000000E+00;  0.0000000E+00;0;  9.2685232E-03;  4.0000000E+04;  0.0000000E+00;  0.0000000E+00;  4.0000000E+04;  0.0000000E+00;  4.0000000E+04;  7.4002650E-03;  0.0000000E+00;  1.8682583E-03;  1.6229546E+03;
 -3.9999999E-02;  9.9999998E-03;  3.3000001E-01;1532;  0.0000000E+00;  0.0000000E+00;  0.0000000E+00;  1.0012084E+03;  1.0000000E-01;  1.0011569E+03;0;  0.0000000E+00;  0.0000000E+00;  0.0000000E+00;0;  7.1834135E-03;  4.0000000E+04;  0.0000000E+00;  0.0000000E+00;  4.0000000E+04;  0.0000000E+00;  4.0000000E+04;  5.4419143E-03;  0.0000000E+00;  1.7414991E-03;  1.6390579E+03;
 -3.9999999E-02;  9.9999998E-03;  3.4000000E-01;1533;  0.0000000E+00;  0.0000000E+00;  0.0000000E+00;  1.0009296E+03;  1.0000000E-01;  7.7015106E+02;0;  0.0000000E+00;  0.0000000E+00;  0.0000000E+00;0;  5.4110968E-03;  4.0000000E+04;  0.0000000E+00;  0.0000000E+00;  4.0000000E+04;  0.0000000E+00;  4.0000000E+04;  3.8577544E-03;  0.0000000E+00;  1.5533423E-03;  1.5590026E+03;
 -3.9999999E-02;  9.9999998E-03;  3.4999999E-01;1534;  0.0000000E+00;  0.0000000E+00;  0.0000000E+00;  1.0006989E+03;  1.0000000E-01;  5.7904535E+02;0;  0.0000000E+00;  0.0000000E+00;  0.0000000E+00;0;  3.9596469E-03;  4.0000000E+04;  0.0000000E+00;  0.0000000E+00;  4.0000000E+04;  0.0000000E+00;  4.0000000E+04;  2.6289166E-03;  0.0000000E+00;  1.3307304E-03;  1.4101409E+03;
 -3.9999999E-02;  9.9999998E-03;  3.6000001E-01;1535;  0.0000000E+00;  0.0000000E+00;  0.0000000E+00;  1.0005070E+03;  1.0000000E-01;  4.2003751E+02;0;  0.0000000E+00;  0.0000000E+00;  0.0000000E+00;0;  2.8111059E-03;  4.0000000E+04;  0.0000000E+00;  0.0000000E+00;  4.0000000E+04;  0.0000000E+00;  4.0000000E+04;  1.7156528E-03;  0.0000000E+00;  1.0954533E-03;  1.2178719E+03;
 -3.9999999E-02;  9.9999998E-03;  3.7000000E-01;1536;  0.0000000E+00;  0.0000000E+00;  0.0000000E+00;  1.0003555E+03;  1.0000000E-01;  2.9451019E+02;0;  0.0000000E+00;  0.0000000E+00;  0.0000000E+00;0;  1.9302370E-03;  4.0000000E+04;  0.0000000E+00;  0.0000000E+00;  4.0000000E+04;  0.0000000E+00;  4.0000000E+04;  1.0666027E-03;  0.0000000E+00;  8.6363446E-04;  1.0035626E+03;
 -3.9999999E-02;  9.9999998E-03;  3.8000000E-01;1537;  0.0000000E+00;  0.0000000E+00;  0.0000000E+00;  1.0002319E+03;  1.0000000E-01;  1.9219209E+02;0;  0.0000000E+00;  0.0000000E+00;  0.0000000E+00;0;  1.2737862E-03;  4.0000000E+04;  0.0000000E+00;  0.0000000E+00;  4.0000000E+04;  0.0000000E+00;  4.0000000E+04;  6.2696793E-04;  0.0000000E+00;  6.4681825E-04;  7.8448828E+02;
 -3.9999999E-02;  9.9999998E-03;  3.8999999E-01;1538;  0.0000000E+00;  0.0000000E+00;  0.0000000E+00;  1.0001484E+03;  1.0000000E-01;  1.2295949E+02;0;  0.0000000E+00;  0.0000000E+00;  0.0000000E+00;0;  7.9825055E-04;  4.0000000E+04;  0.0000000E+00;  0.0000000E+00;  4.0000000E+04;  0.0000000E+00;  4.0000000E+04;  3.4466048E-04;  0.0000000E+00;  4.5359004E-04;  5.7491302E+02;
 -3.9999999E-02;  9.9999998E-03;  4.0000001E-01;1539;  0.0000000E+00;  0.0000000E+00;  0.0000000E+00;  1.0000781E+03;  1.0000000E-01;  6.4689529E+01;0;  0.0000000E+00;  0.0000000E+00;  0.0000000E+00;0;  4.6522706E-04;  4.0000000E+04;  0.0000000E+00;  0.0000000E+00;  4.0000000E+04;  0.0000000E+00;  4.0000000E+04;  1.7428708E-04;  0.0000000E+00;  2.9093999E-04;  3.8720615E+02;
 -2.9999999E-02;  9.9999998E-03;  2.3999999E-01;1614;  0.0000000E+00;  0.0000000E+00;  0.0000000E+00;  1.0056365E+03;  1.0000000E-01;  4.6696953E+03;0;  0.0000000E+00;  0.0000000E+00;  0.0000000E+00;0;  3.1994157E-02;  4.0000000E+04;  0.0000000E+00;  0.0000000E+00;  4.0000000E+04;  0.0000000E+00;  4.0000000E+04;  3.2257706E-02;  0.0000000E+00; -2.6355067E-04;  2.1058933E+03;
 -2.9999999E-02;  9.9999998E-03;  2.5000000E-01;1615;  0.0000000E+00;  0.0000000E+00;  0.0000000E+00;  1.0051974E+03;  1.0000000E-01;  4.3059521E+03;0;  0.0000000E+00;  0.0000000E+00;  0.0000000E+00;0;  2.9945310E-02;  4.0000000E+04;  0.0000000E+00;  0.0000000E+00;  4.0000000E+04;  0.0000000E+00;  4.0000000E+04;  2.9754989E-02;  0.0000000E+00;  1.9032060E-04;  1.6387976E+03;
 -2.9999999E-02;  9.9999998E-03;  2.5999999E-01;1616;  0.0000000E+00;  0.0000000E+00;  0.0000000E+00;  1.0047545E+03;  1.0000000E-01;  3.9390491E+03;0;  0.0000000E+00;  0.0000000E+00;  0.0000000E+00;0;  2.7570687E-02;  4.0000000E+04;  0.0000000E+00;  0.0000000E+00;  4.0000000E+04;  0.0000000E+00;  4.0000000E+04;  2.6869819E-02;  0.0000000E+00;  7.0086773E-04;  1.0662596E+03;
 -2.9999999E-02;  9.9999998E-03;  2.7000001E-01;1617;  0.0000000E+00;  0.0000000E+00;  0.0000000E+00;  1.0043000E+03;  1.0000000E-01;  3.5624670E+03;0;  0.0000000E+00;  0.0000000E+00;  0.0000000E+00;0;  2.4918519E-02;  4.0000000E+04;  0.0000000E+00;  0.0000000E+00;  4.0000000E+04;  0.0000000E+00;  4.0000000E+04;  2.3695616E-02;  0.0000000E+00;  1.2229036E-03;  4.7973096E+02;
 -2.9999999E-02;  9.9999998E-03;  2.8000000E-01;1618;  0.0000000E+00;  0.0000000E+00;  0.0000000E+00;  1.0038383E+03;  1.0000000E-01;  3.1799595E+03;0;  0.0000000E+00;  0.0000000E+00;  0.0000000E+00;0;  2.2059303E-02;  4.0000000E+04;  0.0000000E+00;  0.0000000E+00;  4.0000000E+04;  0.0000000E+00;  4.0000000E+04;  2.0357993E-02;  0.0000000E+00;  1.7013112E-03;  4.6149408E+02;
 -2.9999999E-02;  9.9999998E-03;  2.8999999E-01;1619;  0.0000000E+00;  0.0000000E+00;  0.0000000E+00;  1.0033678E+03;  1.0000000E-01;  2.7901433E+03;0;  0.0000000E+00;  0.0000000E+00;  0.0000000E+00;0;  1.9084021E-02;  4.0000000E+04;  0.0000000E+00;  0.0000000E+00;  4.0000000E+04;  0.0000000E+00;  4.0000000E+04;  1.7003296E-02;  0.0000000E+00;  2.0807250E-03;  9.9825989E+02;
 -2.9999999E-02;  9.9999998E-03;  3.0000001E-01;1620;  0.0000000E+00;  0.0000000E+00;  0.0000000E+00;  1.0028961E+03;  1.0000000E-01;  2.3993396E+03;0;  0.0000000E+00;  0.0000000E+00;  0.0000000E+00;0;  1.6100593E-02;  4.0000000E+04;  0.0000000E+00;  0.0000000E+00;  4.0000000E+04;  0.0000000E+00;  4.0000000E+04;  1.3781391E-02;  0.0000000E+00;  2.3192009E-03;  1.4771027E+03;
 -2.9999999E-02;  9.9999998E-03;  3.1000000E-01;1621;  0.0000000E+00;  0.0000000E+00;  0.0000000E+00;  1.0024312E+03;  1.0000000E-01;  2.0141653E+03;0;  0.0000000E+00;  0.0000000E+00;  0.0000000E+00;0;  1.3226265E-02;  4.0000000E+04;  0.0000000E+00;  0.0000000E+00;  4.0000000E+04;  0.0000000E+00;  4.0000000E+04;  1.0824513E-02;  0.0000000E+00;  2.4017529E-03;  1.8080063E+03;
 -2.9999999E-02;  9.9999998E-03;  3.1999999E-01;1622;  0.0000000E+00;  0.0000000E+00;  0.0000000E+00;  1.0019917E+03;  1.0000000E-01;  1.6501262E+03;0;  0.0000000E+00;  0.0000000E+00;  0.0000000E+00;0;  1.0570951E-02;  4.0000000E+04;  0.0000000E+00;  0.0000000E+00;  4.0000000E+04;  0.0000000E+00;  4.0000000E+04;  8.2284398E-03;  0.0000000E+00;  2.3425110E-03;  1.9760253E+03;
 -2.9999999E-02;  9.9999998E-03;  3.3000001E-01;1623;  0.0000000E+00;  0.0000000E+00;  0.0000000E+00;  1.0015914E+03;  1.0000000E-01;  1.3183824E+03;0;  0.0000000E+00;  0.0000000E+00;  0.0000000E+00;0;  8.2184654E-03;  4.0000000E+04;  0.0000000E+00;  0.0000000E+00;  4.0000000E+04;  0.0000000E+00;  4.0000000E+04;  6.0444186E-03;  0.0000000E+00;  2.1740464E-03;  1.9973262E+03;
 -2.9999999E-02;  9.9999998E-03;  3.4000000E-01;1624;  0.0000000E+00;  0.0000000E+00;  0.0000000E+00;  1.0012330E+03;  1.0000000E-01;  1.0215020E+03;0;  0.0000000E+00;  0.0000000E+00;  0.0000000E+00;0;  6.2160818E-03;  4.0000000E+04;  0.0000000E+00;  0.0000000E+00;  4.0000000E+04;  0.0000000E+00;  4.0000000E+04;  4.2820647E-03;  0.0000000E+00;  1.9340172E-03;  1.9028523E+03;
 -2.9999999E-02;  9.9999998E-03;  3.4999999E-01;1625;  0.0000000E+00;  0.0000000E+00;  0.0000000E+00;  1.0009326E+03;  1.0000000E-01;  7.7262012E+02;0;  0.0000000E+00;  0.0000000E+00;  0.0000000E+00;0;  4.5739999E-03;  4.0000000E+04;  0.0000000E+00;  0.0000000E+00;  4.0000000E+04;  0.0000000E+00;  4.0000000E+04;  2.9178762E-03;  0.0000000E+00;  1.6561234E-03;  1.7265686E+03;
 -2.9999999E-02;  9.9999998E-03;  3.6000001E-01;1626;  0.0000000E+00;  0.0000000E+00;  0.0000000E+00;  1.0006844E+03;  1.0000000E-01;  5.6709509E+02;0;  0.0000000E+00;  0.0000000E+00;  0.0000000E+00;0;  3.2721367E-03;  4.0000000E+04;  0.0000000E+00;  0.0000000E+00;  4.0000000E+04;  0.0000000E+00;  4.0000000E+04;  1.9057264E-03;  0.0000000E+00;  1.3664103E-03;  1.4989723E+03;
 -2.9999999E-02;  9.9999998E-03;  3.7000000E-01;1627;  0.0000000E+00;  0.0000000E+00;  0.0000000E+00;  1.0004795E+03;  1.0000000E-01;  3.9722333E+02;0;  0.0000000E+00;  0.0000000E+00;  0.0000000E+00;0;  2.2704797E-03;  4.0000000E+04;  0.0000000E+00;  0.0000000E+00;  4.0000000E+04;  0.0000000E+00;  4.0000000E+04;  1.1872069E-03;  0.0000000E+00;  1.0832729E-03;  1.2449297E+03;
 -2.9999999E-02;  9.9999998E-03;  3.8000000E-01;1628;  0.0000000E+00;  0.0000000E+00;  0.0000000E+00;  1.0003321E+03;  1.0000000E-01;  2.7515271E+02;0;  0.0000000E+00;  0.0000000E+00;  0.0000000E+00;0;  1.5198577E-03;  4.0000000E+04;  0.0000000E+00;  0.0000000E+00;  4.0000000E+04;  0.0000000E+00;  4.0000000E+04;  7.0062402E-04;  0.0000000E+00;  8.1923371E-04;  9.8409985E+02;
 -2.9999999E-02;  9.9999998E-03;  3.8999999E-01;1629;  0.0000000E+00;  0.0000000E+00;  0.0000000E+00;  1.0002177E+03;  1.0000000E-01;  1.8034058E+02;0;  0.0000000E+00;  0.0000000E+00;  0.0000000E+00;0;  9.7098888E-04;  4.0000000E+04;  0.0000000E+00;  0.0000000E+00;  4.0000000E+04;  0.0000000E+00;  4.0000000E+04;  3.8777280E-04;  0.0000000E+00;  5.8321608E-04;  7.3251379E+02;
 -2.9999999E-02;  9.9999998E-03;  4.0000001E-01;1630;  0.0000000E+00;  0.0000000E+00;  0.0000000E+00;  1.0001307E+03;  1.0000000E-01;  1.0824385E+02;0;  0.0000000E+00;  0.0000000E+00;  0.0000000E+00;0;  5.8083353E-04;  4.0000000E+04;  0.0000000E+00;  0.0000000E+00;  4.0000000E+04;  0.0000000E+00;  4.0000000E+04;  1.9830430E-04;  0.0000000E+00;  3.8252922E-04;  5.0421756E+02;
 -2.0000000E-02;  9.9999998E-03;  2.3999999E-01;1705;  0.0000000E+00;  0.0000000E+00;  0.0000000E+00;  1.0070564E+03;  1.0000000E-01;  5.8460566E+03;0;  0.0000000E+00;  0.0000000E+00;  0.0000000E+00;0;  3.4075543E-02;  4.0000000E+04;  0.0000000E+00;  0.0000000E+00;  4.0000000E+04;  0.0000000E+00;  4.0000000E+04;  3.4313802E-02;  0.0000000E+00; -2.3825915E-04;  2.4689148E+03;
 -2.0000000E-02;  9.9999998E-03;  2.5000000E-01;1706;  0.0000000E+00;  0.0000000E+00;  0.0000000E+00;  1.0065178E+03;  1.0000000E-01;  5.3998472E+03;0;  0.0000000E+00;  0.0000000E+00;  0.0000000E+00;0;  3.2030012E-02;  4.0000000E+04;  0.0000000E+00;  0.0000000E+00;  4.0000000E+04;  0.0000000E+00;  4.0000000E+04;  3.1727944E-02;  0.0000000E+00;  3.0206938E-04;  1.9557588E+03;
 -2.0000000E-02;  9.9999998E-03;  2.5999999E-01;1707;  0.0000000E+00;  0.0000000E+00;  0.0000000E+00;  1.0059678E+03;  1.0000000E-01;  4.9441562E+03;0;  0.0000000E+00;  0.0000000E+00;  0.0000000E+00;0;  2.9619250E-02;  4.0000000E+04;  0.0000000E+00;  0.0000000E+00;  4.0000000E+04;  0.0000000E+00;  4.0000000E+04;  2.8706506E-02;  0.0000000E+00;  9.1274519E-04;  1.3047343E+03;
 -2.0000000E-02;  9.9999998E-03;  2.7000001E-01;1708;  0.0000000E+00;  0.0000000E+00;  0.0000000E+00;  1.0054058E+03;  1.0000000E-01;  4.4785894E+03;0;  0.0000000E+00;  0.0000000E+00;  0.0000000E+00;0;  2.6888413E-02;  4.0000000E+04;  0.0000000E+00;  0.0000000E+00;  4.0000000E+04;  0.0000000E+00;  4.0000000E+04;  2.5347838E-02;  0.0000000E+00;  1.5405758E-03;  6.1979913E+02;
 -2.0000000E-02;  9.9999998E-03;  2.8000000E-01;1709;  0.0000000E+00;  0.0000000E+00;  0.0000000E+00;  1.0048337E+03;  1.0000000E-01;  4.0046274E+03;0;  0.0000000E+00;  0.0000000E+00;  0.0000000E+00;0;  2.3906067E-02;  4.0000000E+04;  0.0000000E+00;  0.0000000E+00;  4.0000000E+04;  0.0000000E+00;  4.0000000E+04;  2.1788569E-02;  0.0000000E+00;  2.1174971E-03;  5.3919263E+02;
 -2.0000000E-02;  9.9999998E-03;  2.8999999E-01;1710;  0.0000000E+00;  0.0000000E+00;  0.0000000E+00;  1.0042484E+03;  1.0000000E-01;  3.5197029E+03;0;  0.0000000E+00;  0.0000000E+00;  0.0000000E+00;0;  2.0763509E-02;  4.0000000E+04;  0.0000000E+00;  0.0000000E+00;  4.0000000E+04;  0.0000000E+00;  4.0000000E+04;  1.8191645E-02;  0.0000000E+00;  2.5718648E-03;  1.1632458E+03;
 -2.0000000E-02;  9.9999998E-03;  3.0000001E-01;1711;  0.0000000E+00;  0.0000000E+00;  0.0000000E+00;  1.0036594E+03;  1.0000000E-01;  3.0317168E+03;0;  0.0000000E+00;  0.0000000E+00;  0.0000000E+00;0;  1.7576037E-02;  4.0000000E+04;  0.0000000E+00;  0.0000000E+00;  4.0000000E+04;  0.0000000E+00;  4.0000000E+04;  1.4728084E-02;  0.0000000E+00;  2.8479528E-03;  1.7354515E+03;
 -2.0000000E-02;  9.9999998E-03;  3.1000000E-01;1712;  0.0000000E+00;  0.0000000E+00;  0.0000000E+00;  1.0030816E+03;  1.0000000E-01;  2.5530142E+03;0;  0.0000000E+00;  0.0000000E+00;  0.0000000E+00;0;  1.4478600E-02;  4.0000000E+04;  0.0000000E+00;  0.0000000E+00;  4.0000000E+04;  0.0000000E+00;  4.0000000E+04;  1.1550365E-02;  0.0000000E+00;  2.9282349E-03;  2.1290649E+03;
 -2.0000000E-02;  9.9999998E-03;  3.1999999E-01;1713;  0.0000000E+00;  0.0000000E+00;  0.0000000E+00;  1.0025301E+03;  1.0000000E-01;  2.0961382E+03;0;  0.0000000E+00;  0.0000000E+00;  0.0000000E+00;0;  1.1601314E-02;  4.0000000E+04;  0.0000000E+00;  0.0000000E+00;  4.0000000E+04;  0.0000000E+00;  4.0000000E+04;  8.7655224E-03;  0.0000000E+00;  2.8357916E-03;  2.3259377E+03;
 -2.0000000E-02;  9.9999998E-03;  3.3000001E-01;1714;  0.0000000E+00;  0.0000000E+00;  0.0000000E+00;  1.0020239E+03;  1.0000000E-01;  1.6767921E+03;0;  0.0000000E+00;  0.0000000E+00;  0.0000000E+00;0;  9.0431804E-03;  4.0000000E+04;  0.0000000E+00;  0.0000000E+00;  4.0000000E+04;  0.0000000E+00;  4.0000000E+04;  6.4275260E-03;  0.0000000E+00;  2.6156544E-03;  2.3488003E+03;
 -2.0000000E-02;  9.9999998E-03;  3.4000000E-01;1715;  0.0000000E+00;  0.0000000E+00;  0.0000000E+00;  1.0015741E+03;  1.0000000E-01;  1.3040619E+03;0;  0.0000000E+00;  0.0000000E+00;  0.0000000E+00;0;  6.8604224E-03;  4.0000000E+04;  0.0000000E+00;  0.0000000E+00;  4.0000000E+04;  0.0000000E+00;  4.0000000E+04;  4.5444025E-03;  0.0000000E+00;  2.3160200E-03;  2.2372288E+03;
 -2.0000000E-02;  9.9999998E-03;  3.4999999E-01;1716;  0.0000000E+00;  0.0000000E+00;  0.0000000E+00;  1.0011904E+03;  1.0000000E-01;  9.8624371E+02;0;  0.0000000E+00;  0.0000000E+00;  0.0000000E+00;0;  5.0669601E-03;  4.0000000E+04;  0.0000000E+00;  0.0000000E+00;  4.0000000E+04;  0.0000000E+00;  4.0000000E+04;  3.0893194E-03;  0.0000000E+00;  1.9776407E-03;  2.0323960E+03;
 -2.0000000E-02;  9.9999998E-03;  3.6000001E-01;1717;  0.0000000E+00;  0.0000000E+00;  0.0000000E+00;  1.0008726E+03;  1.0000000E-01;  7.2294250E+02;0;  0.0000000E+00;  0.0000000E+00;  0.0000000E+00;0;  3.6425511E-03;  4.0000000E+04;  0.0000000E+00;  0.0000000E+00;  4.0000000E+04;  0.0000000E+00;  4.0000000E+04;  2.0119953E-03;  0.0000000E+00;  1.6305557E-03;  1.7697303E+03;
 -2.0000000E-02;  9.9999998E-03;  3.7000000E-01;1718;  0.0000000E+00;  0.0000000E+00;  0.0000000E+00;  1.0006244E+03;  1.0000000E-01;  5.1731873E+02;0;  0.0000000E+00;  0.0000000E+00;  0.0000000E+00;0;  2.5444911E-03;  4.0000000E+04;  0.0000000E+00;  0.0000000E+00;  4.0000000E+04;  0.0000000E+00;  4.0000000E+04;  1.2494142E-03;  0.0000000E+00;  1.2950769E-03;  1.4772272E+03;
 -2.0000000E-02;  9.9999998E-03;  3.8000000E-01;1719;  0.0000000E+00;  0.0000000E+00;  0.0000000E+00;  1.0004194E+03;  1.0000000E-01;  3.4744696E+02;0;  0.0000000E+00;  0.0000000E+00;  0.0000000E+00;0;  1.7193947E-03;  4.0000000E+04;  0.0000000E+00;  0.0000000E+00;  4.0000000E+04;  0.0000000E+00;  4.0000000E+04;  7.3501212E-04;  0.0000000E+00;  9.8438258E-04;  1.1765784E+03;
 -2.0000000E-02;  9.9999998E-03;  3.8999999E-01;1720;  0.0000000E+00;  0.0000000E+00;  0.0000000E+00;  1.0002701E+03;  1.0000000E-01;  2.2379614E+02;0;  0.0000000E+00;  0.0000000E+00;  0.0000000E+00;0;  1.1132096E-03;  4.0000000E+04;  0.0000000E+00;  0.0000000E+00;  4.0000000E+04;  0.0000000E+00;  4.0000000E+04;  4.0584998E-04;  0.0000000E+00;  7.0735969E-04;  8.8525500E+02;
 -2.0000000E-02;  9.9999998E-03;  4.0000001E-01;1721;  0.0000000E+00;  0.0000000E+00;  0.0000000E+00;  1.0001629E+03;  1.0000000E-01;  1.3500853E+02;0;  0.0000000E+00;  0.0000000E+00;  0.0000000E+00;0;  6.7851099E-04;  4.0000000E+04;  0.0000000E+00;  0.0000000E+00;  4.0000000E+04;  0.0000000E+00;  4.0000000E+04;  2.0747210E-04;  0.0000000E+00;  4.7103886E-04;  6.1871594E+02;
 -9.9999998E-03;  9.9999998E-03;  2.3999999E-01;1796;  0.0000000E+00;  0.0000000E+00;  0.0000000E+00;  1.0085403E+03;  1.0000000E-01;  7.0754541E+03;0;  0.0000000E+00;  0.0000000E+00;  0.0000000E+00;0;  3.4704454E-02;  4.0000000E+04;  0.0000000E+00;  0.0000000E+00;  4.0000000E+04;  0.0000000E+00;  4.0000000E+04;  3.4886096E-02;  0.0000000E+00; -1.8164120E-04;  2.8003105E+03;
 -9.9999998E-03;  9.9999998E-03;  2.5000000E-01;1797;  0.0000000E+00;  0.0000000E+00;  0.0000000E+00;  1.0078986E+03;  1.0000000E-01;  6.5438149E+03;0;  0.0000000E+00;  0.0000000E+00;  0.0000000E+00;0;  3.2797031E-02;  4.0000000E+04;  0.0000000E+00;  0.0000000E+00;  4.0000000E+04;  0.0000000E+00;  4.0000000E+04;  3.2356966E-02;  0.0000000E+00;  4.4006552E-04;  2.2641975E+03;
 -9.9999998E-03;  9.9999998E-03;  2.5999999E-01;1798;  0.0000000E+00;  0.0000000E+00;  0.0000000E+00;  1.0072440E+03;  1.0000000E-01;  6.0015093E+03;0;  0.0000000E+00;  0.0000000E+00;  0.0000000E+00;0;  3.0500103E-02;  4.0000000E+04;  0.0000000E+00;  0.0000000E+00;  4.0000000E+04;  0.0000000E+00;  4.0000000E+04;  2.9353587E-02;  0.0000000E+00;  1.1465163E-03;  1.5535092E+03;
 -9.9999998E-03;  9.9999998E-03;  2.7000001E-01;1799;  0.0000000E+00;  0.0000000E+00;  0.0000000E+00;  1.0065729E+03;  1.0000000E-01;  5.4454756E+03;0;  0.0000000E+00;  0.0000000E+00;  0.0000000E+00;0;  2.7851894E-02;  4.0000000E+04;  0.0000000E+00;  0.0000000E+00;  4.0000000E+04;  0.0000000E+00;  4.0000000E+04;  2.5974354E-02;  0.0000000E+00;  1.8775410E-03;  7.8156366E+02;
 -9.9999998E-03;  9.9999998E-03;  2.8000000E-01;1800;  0.0000000E+00;  0.0000000E+00;  0.0000000E+00;  1.0058873E+03;  1.0000000E-01;  4.8774917E+03;0;  0.0000000E+00;  0.0000000E+00;  0.0000000E+00;0;  2.4913179E-02;  4.0000000E+04;  0.0000000E+00;  0.0000000E+00;  4.0000000E+04;  0.0000000E+00;  4.0000000E+04;  2.2360796E-02;  0.0000000E+00;  2.5523829E-03;  6.1570715E+02;
 -9.9999998E-03;  9.9999998E-03;  2.8999999E-01;1801;  0.0000000E+00;  0.0000000E+00;  0.0000000E+00;  1.0051879E+03;  1.0000000E-01;  4.2980513E+03;0;  0.0000000E+00;  0.0000000E+00;  0.0000000E+00;0;  2.1765487E-02;  4.0000000E+04;  0.0000000E+00;  0.0000000E+00;  4.0000000E+04;  0.0000000E+00;  4.0000000E+04;  1.8684393E-02;  0.0000000E+00;  3.0810938E-03;  1.3116462E+03;
 -9.9999998E-03;  9.9999998E-03;  3.0000001E-01;1802;  0.0000000E+00;  0.0000000E+00;  0.0000000E+00;  1.0044829E+03;  1.0000000E-01;  3.7139690E+03;0;  0.0000000E+00;  0.0000000E+00;  0.0000000E+00;0;  1.8518578E-02;  4.0000000E+04;  0.0000000E+00;  0.0000000E+00;  4.0000000E+04;  0.0000000E+00;  4.0000000E+04;  1.5129259E-02;  0.0000000E+00;  3.3893199E-03;  1.9751693E+03;
 -9.9999998E-03;  9.9999998E-03;  3.1000000E-01;1803;  0.0000000E+00;  0.0000000E+00;  0.0000000E+00;  1.0037830E+03;  1.0000000E-01;  3.1341335E+03;0;  0.0000000E+00;  0.0000000E+00;  0.0000000E+00;0;  1.5320522E-02;  4.0000000E+04;  0.0000000E+00;  0.0000000E+00;  4.0000000E+04;  0.0000000E+00;  4.0000000E+04;  1.1863544E-02;  0.0000000E+00;  3.4569779E-03;  2.4280359E+03;
 -9.9999998E-03;  9.9999998E-03;  3.1999999E-01;1804;  0.0000000E+00;  0.0000000E+00;  0.0000000E+00;  1.0031089E+03;  1.0000000E-01;  2.5757297E+03;0;  0.0000000E+00;  0.0000000E+00;  0.0000000E+00;0;  1.2321034E-02;  4.0000000E+04;  0.0000000E+00;  0.0000000E+00;  4.0000000E+04;  0.0000000E+00;  4.0000000E+04;  9.0001049E-03;  0.0000000E+00;  3.3209294E-03;  2.6489890E+03;
 -9.9999998E-03;  9.9999998E-03;  3.3000001E-01;1805;  0.0000000E+00;  0.0000000E+00;  0.0000000E+00;  1.0024881E+03;  1.0000000E-01;  2.0613738E+03;0;  0.0000000E+00;  0.0000000E+00;  0.0000000E+00;0;  9.6352715E-03;  4.0000000E+04;  0.0000000E+00;  0.0000000E+00;  4.0000000E+04;  0.0000000E+00;  4.0000000E+04;  6.5940120E-03;  0.0000000E+00;  3.0412597E-03;  2.6697263E+03;
 -9.9999998E-03;  9.9999998E-03;  3.4000000E-01;1806;  0.0000000E+00;  0.0000000E+00;  0.0000000E+00;  1.0019410E+03;  1.0000000E-01;  1.6080533E+03;0;  0.0000000E+00;  0.0000000E+00;  0.0000000E+00;0;  7.3311236E-03;  4.0000000E+04;  0.0000000E+00;  0.0000000E+00;  4.0000000E+04;  0.0000000E+00;  4.0000000E+04;  4.6539325E-03;  0.0000000E+00;  2.6771908E-03;  2.5397747E+03;
 -9.9999998E-03;  9.9999998E-03;  3.4999999E-01;1807;  0.0000000E+00;  0.0000000E+00;  0.0000000E+00;  1.0014689E+03;  1.0000000E-01;  1.2169532E+03;0;  0.0000000E+00;  0.0000000E+00;  0.0000000E+00;0;  5.4297075E-03;  4.0000000E+04;  0.0000000E+00;  0.0000000E+00;  4.0000000E+04;  0.0000000E+00;  4.0000000E+04;  3.1536971E-03;  0.0000000E+00;  2.2760103E-03;  2.3072571E+03;
 -9.9999998E-03;  9.9999998E-03;  3.6000001E-01;1808;  0.0000000E+00;  0.0000000E+00;  0.0000000E+00;  1.0010823E+03;  1.0000000E-01;  8.9666602E+02;0;  0.0000000E+00;  0.0000000E+00;  0.0000000E+00;0;  3.9143236E-03;  4.0000000E+04;  0.0000000E+00;  0.0000000E+00;  4.0000000E+04;  0.0000000E+00;  4.0000000E+04;  2.0432440E-03;  0.0000000E+00;  1.8710799E-03;  2.0119003E+03;
 -9.9999998E-03;  9.9999998E-03;  3.7000000E-01;1809;  0.0000000E+00;  0.0000000E+00;  0.0000000E+00;  1.0007711E+03;  1.0000000E-01;  6.3889551E+02;0;  0.0000000E+00;  0.0000000E+00;  0.0000000E+00;0;  2.7430714E-03;  4.0000000E+04;  0.0000000E+00;  0.0000000E+00;  4.0000000E+04;  0.0000000E+00;  4.0000000E+04;  1.2589529E-03;  0.0000000E+00;  1.4841184E-03;  1.6842712E+03;
 -9.9999998E-03;  9.9999998E-03;  3.8000000E-01;1810;  0.0000000E+00;  0.0000000E+00;  0.0000000E+00;  1.0005274E+03;  1.0000000E-01;  4.3692590E+02;0;  0.0000000E+00;  0.0000000E+00;  0.0000000E+00;0;  1.8614521E-03;  4.0000000E+04;  0.0000000E+00;  0.0000000E+00;  4.0000000E+04;  0.0000000E+00;  4.0000000E+04;  7.3267182E-04;  0.0000000E+00;  1.1287803E-03;  1.3476353E+03;
 -9.9999998E-03;  9.9999998E-03;  3.8999999E-01;1811;  0.0000000E+00;  0.0000000E+00;  0.0000000E+00;  1.0003542E+03;  1.0000000E-01;  2.9342380E+02;0;  0.0000000E+00;  0.0000000E+00;  0.0000000E+00;0;  1.2129684E-03;  4.0000000E+04;  0.0000000E+00;  0.0000000E+00;  4.0000000E+04;  0.0000000E+00;  4.0000000E+04;  3.9903537E-04;  0.0000000E+00;  8.1393303E-04;  1.0207601E+03;
 -9.9999998E-03;  9.9999998E-03;  4.0000001E-01;1812;  0.0000000E+00;  0.0000000E+00;  0.0000000E+00;  1.0002181E+03;  1.0000000E-01;  1.8073563E+02;0;  0.0000000E+00;  0.0000000E+00;  0.0000000E+00;0;  7.4701104E-04;  4.0000000E+04;  0.0000000E+00;  0.0000000E+00;  4.0000000E+04;  0.0000000E+00;  4.0000000E+04;  2.0076011E-04;  0.0000000E+00;  5.4625090E-04;  7.2034906E+02;
  0.0000000E+00;  9.9999998E-03;  3.0000001E-01;1834;  0.0000000E+00;  0.0000000E+00;  0.0000000E+00;  1.0053224E+03;  1.0000000E-01;  4.4094556E+03;0;  0.0000000E+00;  0.0000000E+00;  0.0000000E+00;0;  1.8927639E-02;  4.0000000E+04;  0.0000000E+00;  0.0000000E+00;  4.0000000E+04;  0.0000000E+00;  4.0000000E+04;  1.5022840E-02;  0.0000000E+00;  3.9047995E-03;  2.1687717E+03;
  0.0000000E+00;  9.9999998E-03;  3.1000000E-01;1835;  0.0000000E+00;  0.0000000E+00;  0.0000000E+00;  1.0044948E+03;  1.0000000E-01;  3.7238452E+03;0;  0.0000000E+00;  0.0000000E+00;  0.0000000E+00;0;  1.5774731E-02;  4.0000000E+04;  0.0000000E+00;  0.0000000E+00;  4.0000000E+04;  0.0000000E+00;  4.0000000E+04;  1.1822886E-02;  0.0000000E+00;  3.9518438E-03;  2.6775312E+03;
  0.0000000E+00;  9.9999998E-03;  3.1999999E-01;1836;  0.0000000E+00;  0.0000000E+00;  0.0000000E+00;  1.0036971E+03;  1.0000000E-01;  3.0629258E+03;0;  0.0000000E+00;  0.0000000E+00;  0.0000000E+00;0;  1.2763610E-02;  4.0000000E+04;  0.0000000E+00;  0.0000000E+00;  4.0000000E+04;  0.0000000E+00;  4.0000000E+04;  8.9968396E-03;  0.0000000E+00;  3.7667700E-03;  2.9190291E+03;
  0.0000000E+00;  9.9999998E-03;  3.3000001E-01;1837;  0.0000000E+00;  0.0000000E+00;  0.0000000E+00;  1.0029622E+03;  1.0000000E-01;  2.4541528E+03;0;  0.0000000E+00;  0.0000000E+00;  0.0000000E+00;0;  1.0031382E-02;  4.0000000E+04;  0.0000000E+00;  0.0000000E+00;  4.0000000E+04;  0.0000000E+00;  4.0000000E+04;  6.6056391E-03;  0.0000000E+00;  3.4257427E-03;  2.9371145E+03;
  0.0000000E+00;  9.9999998E-03;  3.4000000E-01;1838;  0.0000000E+00;  0.0000000E+00;  0.0000000E+00;  1.0023111E+03;  1.0000000E-01;  1.9147113E+03;0;  0.0000000E+00;  0.0000000E+00;  0.0000000E+00;0;  7.6629715E-03;  4.0000000E+04;  0.0000000E+00;  0.0000000E+00;  4.0000000E+04;  0.0000000E+00;  4.0000000E+04;  4.6648565E-03;  0.0000000E+00;  2.9981150E-03;  2.7912046E+03;
  0.0000000E+00;  9.9999998E-03;  3.4999999E-01;1839;  0.0000000E+00;  0.0000000E+00;  0.0000000E+00;  1.0017573E+03;  1.0000000E-01;  1.4558601E+03;0;  0.0000000E+00;  0.0000000E+00;  0.0000000E+00;0;  5.6920471E-03;  4.0000000E+04;  0.0000000E+00;  0.0000000E+00;  4.0000000E+04;  0.0000000E+00;  4.0000000E+04;  3.1556336E-03;  0.0000000E+00;  2.5364137E-03;  2.5352119E+03;
  0.0000000E+00;  9.9999998E-03;  3.6000001E-01;1840;  0.0000000E+00;  0.0000000E+00;  0.0000000E+00;  1.0013019E+03;  1.0000000E-01;  1.0785868E+03;0;  0.0000000E+00;  0.0000000E+00;  0.0000000E+00;0;  4.1105952E-03;  4.0000000E+04;  0.0000000E+00;  0.0000000E+00;  4.0000000E+04;  0.0000000E+00;  4.0000000E+04;  2.0341745E-03;  0.0000000E+00;  2.0764205E-03;  2.2120457E+03;
  0.0000000E+00;  9.9999998E-03;  3.7000000E-01;1841;  0.0000000E+00;  0.0000000E+00;  0.0000000E+00;  1.0009313E+03;  1.0000000E-01;  7.7153375E+02;0;  0.0000000E+00;  0.0000000E+00;  0.0000000E+00;0;  2.8820534E-03;  4.0000000E+04;  0.0000000E+00;  0.0000000E+00;  4.0000000E+04;  0.0000000E+00;  4.0000000E+04;  1.2411561E-03;  0.0000000E+00;  1.6408972E-03;  1.8543361E+03;
  0.0000000E+00;  9.9999998E-03;  3.8000000E-01;1842;  0.0000000E+00;  0.0000000E+00;  0.0000000E+00;  1.0006463E+03;  1.0000000E-01;  5.3549103E+02;0;  0.0000000E+00;  0.0000000E+00;  0.0000000E+00;0;  1.9545841E-03;  4.0000000E+04;  0.0000000E+00;  0.0000000E+00;  4.0000000E+04;  0.0000000E+00;  4.0000000E+04;  7.1059400E-04;  0.0000000E+00;  1.2439901E-03;  1.4868147E+03;
  0.0000000E+00;  9.9999998E-03;  3.8999999E-01;1843;  0.0000000E+00;  0.0000000E+00;  0.0000000E+00;  1.0004247E+03;  1.0000000E-01;  3.5189130E+02;0;  0.0000000E+00;  0.0000000E+00;  0.0000000E+00;0;  1.2722958E-03;  4.0000000E+04;  0.0000000E+00;  0.0000000E+00;  4.0000000E+04;  0.0000000E+00;  4.0000000E+04;  3.7740314E-04;  0.0000000E+00;  8.9489267E-04;  1.1295829E+03;
  0.0000000E+00;  9.9999998E-03;  4.0000001E-01;1844;  0.0000000E+00;  0.0000000E+00;  0.0000000E+00;  1.0002663E+03;  1.0000000E-01;  2.2063574E+02;0;  0.0000000E+00;  0.0000000E+00;  0.0000000E+00;0;  7.8353327E-04;  4.0000000E+04;  0.0000000E+00;  0.0000000E+00;  4.0000000E+04;  0.0000000E+00;  4.0000000E+04;  1.8314739E-04;  0.0000000E+00;  6.0038589E-04;  8.0071497E+02;
  9.9999998E-03;  9.9999998E-03;  3.1000000E-01;1865;  0.0000000E+00;  0.0000000E+00;  0.0000000E+00;  1.0051807E+03;  1.0000000E-01;  4.2921255E+03;0;  0.0000000E+00;  0.0000000E+00;  0.0000000E+00;0;  1.5982337E-02;  4.0000000E+04;  0.0000000E+00;  0.0000000E+00;  4.0000000E+04;  0.0000000E+00;  4.0000000E+04;  1.1607405E-02;  0.0000000E+00;  4.3749316E-03;  2.8491646E+03;
  9.9999998E-03;  9.9999998E-03;  3.1999999E-01;1866;  0.0000000E+00;  0.0000000E+00;  0.0000000E+00;  1.0042627E+03;  1.0000000E-01;  3.5315544E+03;0;  0.0000000E+00;  0.0000000E+00;  0.0000000E+00;0;  1.3048546E-02;  4.0000000E+04;  0.0000000E+00;  0.0000000E+00;  4.0000000E+04;  0.0000000E+00;  4.0000000E+04;  8.9035258E-03;  0.0000000E+00;  4.1450202E-03;  3.1135166E+03;
  9.9999998E-03;  9.9999998E-03;  3.3000001E-01;1867;  0.0000000E+00;  0.0000000E+00;  0.0000000E+00;  1.0034206E+03;  1.0000000E-01;  2.8338953E+03;0;  0.0000000E+00;  0.0000000E+00;  0.0000000E+00;0;  1.0331819E-02;  4.0000000E+04;  0.0000000E+00;  0.0000000E+00;  4.0000000E+04;  0.0000000E+00;  4.0000000E+04;  6.5816445E-03;  0.0000000E+00;  3.7501738E-03;  3.1356140E+03;
  9.9999998E-03;  9.9999998E-03;  3.4000000E-01;1868;  0.0000000E+00;  0.0000000E+00;  0.0000000E+00;  1.0026736E+03;  1.0000000E-01;  2.2150486E+03;0;  0.0000000E+00;  0.0000000E+00;  0.0000000E+00;0;  7.9388442E-03;  4.0000000E+04;  0.0000000E+00;  0.0000000E+00;  4.0000000E+04;  0.0000000E+00;  4.0000000E+04;  4.6714670E-03;  0.0000000E+00;  3.2673774E-03;  2.9819800E+03;
  9.9999998E-03;  9.9999998E-03;  3.4999999E-01;1869;  0.0000000E+00;  0.0000000E+00;  0.0000000E+00;  1.0020350E+03;  1.0000000E-01;  1.6859771E+03;0;  0.0000000E+00;  0.0000000E+00;  0.0000000E+00;0;  5.9210313E-03;  4.0000000E+04;  0.0000000E+00;  0.0000000E+00;  4.0000000E+04;  0.0000000E+00;  4.0000000E+04;  3.1682779E-03;  0.0000000E+00;  2.7527534E-03;  2.7104124E+03;
  9.9999998E-03;  9.9999998E-03;  3.6000001E-01;1870;  0.0000000E+00;  0.0000000E+00;  0.0000000E+00;  1.0015104E+03;  1.0000000E-01;  1.2513226E+03;0;  0.0000000E+00;  0.0000000E+00;  0.0000000E+00;0;  4.2840815E-03;  4.0000000E+04;  0.0000000E+00;  0.0000000E+00;  4.0000000E+04;  0.0000000E+00;  4.0000000E+04;  2.0402586E-03;  0.0000000E+00;  2.2438229E-03;  2.3663992E+03;
  9.9999998E-03;  9.9999998E-03;  3.7000000E-01;1871;  0.0000000E+00;  0.0000000E+00;  0.0000000E+00;  1.0010854E+03;  1.0000000E-01;  8.9923383E+02;0;  0.0000000E+00;  0.0000000E+00;  0.0000000E+00;0;  3.0012655E-03;  4.0000000E+04;  0.0000000E+00;  0.0000000E+00;  4.0000000E+04;  0.0000000E+00;  4.0000000E+04;  1.2368938E-03;  0.0000000E+00;  1.7643716E-03;  1.9844562E+03;
  9.9999998E-03;  9.9999998E-03;  3.8000000E-01;1872;  0.0000000E+00;  0.0000000E+00;  0.0000000E+00;  1.0007545E+03;  1.0000000E-01;  6.2506873E+02;0;  0.0000000E+00;  0.0000000E+00;  0.0000000E+00;0;  2.0270955E-03;  4.0000000E+04;  0.0000000E+00;  0.0000000E+00;  4.0000000E+04;  0.0000000E+00;  4.0000000E+04;  6.9767964E-04;  0.0000000E+00;  1.3294159E-03;  1.5911084E+03;
  9.9999998E-03;  9.9999998E-03;  3.8999999E-01;1873;  0.0000000E+00;  0.0000000E+00;  0.0000000E+00;  1.0004986E+03;  1.0000000E-01;  4.1312411E+02;0;  0.0000000E+00;  0.0000000E+00;  0.0000000E+00;0;  1.3092508E-03;  4.0000000E+04;  0.0000000E+00;  0.0000000E+00;  4.0000000E+04;  0.0000000E+00;  4.0000000E+04;  3.6011761E-04;  0.0000000E+00;  9.4913325E-04;  1.2082600E+03;
  9.9999998E-03;  9.9999998E-03;  4.0000001E-01;1874;  0.0000000E+00;  0.0000000E+00;  0.0000000E+00;  1.0003118E+03;  1.0000000E-01;  2.5826431E+02;0;  0.0000000E+00;  0.0000000E+00;  0.0000000E+00;0;  7.9734134E-04;  4.0000000E+04;  0.0000000E+00;  0.0000000E+00;  4.0000000E+04;  0.0000000E+00;  4.0000000E+04;  1.6610492E-04;  0.0000000E+00;  6.3123641E-04;  8.5589081E+02;
  2.0000000E-02;  9.9999998E-03;  3.1000000E-01;1895;  0.0000000E+00;  0.0000000E+00;  0.0000000E+00;  1.0057978E+03;  1.0000000E-01;  4.8033208E+03;0;  0.0000000E+00;  0.0000000E+00;  0.0000000E+00;0;  1.6201252E-02;  4.0000000E+04;  0.0000000E+00;  0.0000000E+00;  4.0000000E+04;  0.0000000E+00;  4.0000000E+04;  1.1497632E-02;  0.0000000E+00;  4.7036204E-03;  2.9294685E+03;
  2.0000000E-02;  9.9999998E-03;  3.1999999E-01;1896;  0.0000000E+00;  0.0000000E+00;  0.0000000E+00;  1.0047800E+03;  1.0000000E-01;  3.9601843E+03;0;  0.0000000E+00;  0.0000000E+00;  0.0000000E+00;0;  1.3373449E-02;  4.0000000E+04;  0.0000000E+00;  0.0000000E+00;  4.0000000E+04;  0.0000000E+00;  4.0000000E+04;  8.9308387E-03;  0.0000000E+00;  4.4426108E-03;  3.2271238E+03;
  2.0000000E-02;  9.9999998E-03;  3.3000001E-01;1897;  0.0000000E+00;  0.0000000E+00;  0.0000000E+00;  1.0038369E+03;  1.0000000E-01;  3.1787744E+03;0;  0.0000000E+00;  0.0000000E+00;  0.0000000E+00;0;  1.0690358E-02;  4.0000000E+04;  0.0000000E+00;  0.0000000E+00;  4.0000000E+04;  0.0000000E+00;  4.0000000E+04;  6.6800457E-03;  0.0000000E+00;  4.0103113E-03;  3.2673049E+03;
  2.0000000E-02;  9.9999998E-03;  3.4000000E-01;1898;  0.0000000E+00;  0.0000000E+00;  0.0000000E+00;  1.0030015E+03;  1.0000000E-01;  2.4867444E+03;0;  0.0000000E+00;  0.0000000E+00;  0.0000000E+00;0;  8.2791857E-03;  4.0000000E+04;  0.0000000E+00;  0.0000000E+00;  4.0000000E+04;  0.0000000E+00;  4.0000000E+04;  4.7920304E-03;  0.0000000E+00;  3.4871551E-03;  3.1189297E+03;
  2.0000000E-02;  9.9999998E-03;  3.4999999E-01;1899;  0.0000000E+00;  0.0000000E+00;  0.0000000E+00;  1.0022900E+03;  1.0000000E-01;  1.8972303E+03;0;  0.0000000E+00;  0.0000000E+00;  0.0000000E+00;0;  6.2111821E-03;  4.0000000E+04;  0.0000000E+00;  0.0000000E+00;  4.0000000E+04;  0.0000000E+00;  4.0000000E+04;  3.2798797E-03;  0.0000000E+00;  2.9313022E-03;  2.8421384E+03;
  2.0000000E-02;  9.9999998E-03;  3.6000001E-01;1900;  0.0000000E+00;  0.0000000E+00;  0.0000000E+00;  1.0017017E+03;  1.0000000E-01;  1.4098367E+03;0;  0.0000000E+00;  0.0000000E+00;  0.0000000E+00;0;  4.5087514E-03;  4.0000000E+04;  0.0000000E+00;  0.0000000E+00;  4.0000000E+04;  0.0000000E+00;  4.0000000E+04;  2.1270013E-03;  0.0000000E+00;  2.3817504E-03;  2.4847490E+03;
  2.0000000E-02;  9.9999998E-03;  3.7000000E-01;1901;  0.0000000E+00;  0.0000000E+00;  0.0000000E+00;  1.0012259E+03;  1.0000000E-01;  1.0156750E+03;0;  0.0000000E+00;  0.0000000E+00;  0.0000000E+00;0;  3.1579761E-03;  4.0000000E+04;  0.0000000E+00;  0.0000000E+00;  4.0000000E+04;  0.0000000E+00;  4.0000000E+04;  1.2942869E-03;  0.0000000E+00;  1.8636893E-03;  2.0835818E+03;
  2.0000000E-02;  9.9999998E-03;  3.8000000E-01;1902;  0.0000000E+00;  0.0000000E+00;  0.0000000E+00;  1.0008604E+03;  1.0000000E-01;  7.1286871E+02;0;  0.0000000E+00;  0.0000000E+00;  0.0000000E+00;0;  2.1223023E-03;  4.0000000E+04;  0.0000000E+00;  0.0000000E+00;  4.0000000E+04;  0.0000000E+00;  4.0000000E+04;  7.2859484E-04;  0.0000000E+00;  1.3937075E-03;  1.6677269E+03;
  2.0000000E-02;  9.9999998E-03;  3.8999999E-01;1903;  0.0000000E+00;  0.0000000E+00;  0.0000000E+00;  1.0005716E+03;  1.0000000E-01;  4.7356686E+02;0;  0.0000000E+00;  0.0000000E+00;  0.0000000E+00;0;  1.3551160E-03;  4.0000000E+04;  0.0000000E+00;  0.0000000E+00;  4.0000000E+04;  0.0000000E+00;  4.0000000E+04;  3.7127826E-04;  0.0000000E+00;  9.8383776E-04;  1.2618052E+03;
  2.0000000E-02;  9.9999998E-03;  4.0000001E-01;1904;  0.0000000E+00;  0.0000000E+00;  0.0000000E+00;  1.0003650E+03;  1.0000000E-01;  3.0241119E+02;0;  0.0000000E+00;  0.0000000E+00;  0.0000000E+00;0;  8.0912746E-04;  4.0000000E+04;  0.0000000E+00;  0.0000000E+00;  4.0000000E+04;  0.0000000E+00;  4.0000000E+04;  1.6536302E-04;  0.0000000E+00;  6.4376445E-04;  8.8855542E+02;
  2.9999999E-02;  9.9999998E-03;  3.1000000E-01;1925;  0.0000000E+00;  0.0000000E+00;  0.0000000E+00;  1.0063195E+03;  1.0000000E-01;  5.2356050E+03;0;  0.0000000E+00;  0.0000000E+00;  0.0000000E+00;0;  1.6740602E-02;  4.0000000E+04;  0.0000000E+00;  0.0000000E+00;  4.0000000E+04;  0.0000000E+00;  4.0000000E+04;  1.1792722E-02;  0.0000000E+00;  4.9478784E-03;  2.9462288E+03;
  2.9999999E-02;  9.9999998E-03;  3.1999999E-01;1926;  0.0000000E+00;  0.0000000E+00;  0.0000000E+00;  1.0052192E+03;  1.0000000E-01;  4.3240259E+03;0;  0.0000000E+00;  0.0000000E+00;  0.0000000E+00;0;  1.3971515E-02;  4.0000000E+04;  0.0000000E+00;  0.0000000E+00;  4.0000000E+04;  0.0000000E+00;  4.0000000E+04;  9.2983367E-03;  0.0000000E+00;  4.6731783E-03;  3.2864814E+03;
  2.9999999E-02;  9.9999998E-03;  3.3000001E-01;1927;  0.0000000E+00;  0.0000000E+00;  0.0000000E+00;  1.0041968E+03;  1.0000000E-01;  3.4769387E+03;0;  0.0000000E+00;  0.0000000E+00;  0.0000000E+00;0;  1.1283820E-02;  4.0000000E+04;  0.0000000E+00;  0.0000000E+00;  4.0000000E+04;  0.0000000E+00;  4.0000000E+04;  7.0604878E-03;  0.0000000E+00;  4.2233323E-03;  3.3593953E+03;
  2.9999999E-02;  9.9999998E-03;  3.4000000E-01;1928;  0.0000000E+00;  0.0000000E+00;  0.0000000E+00;  1.0032880E+03;  1.0000000E-01;  2.7239724E+03;0;  0.0000000E+00;  0.0000000E+00;  0.0000000E+00;0;  8.8191805E-03;  4.0000000E+04;  0.0000000E+00;  0.0000000E+00;  4.0000000E+04;  0.0000000E+00;  4.0000000E+04;  5.1423400E-03;  0.0000000E+00;  3.6768403E-03;  3.2293223E+03;
  2.9999999E-02;  9.9999998E-03;  3.4999999E-01;1929;  0.0000000E+00;  0.0000000E+00;  0.0000000E+00;  1.0025109E+03;  1.0000000E-01;  2.0802375E+03;0;  0.0000000E+00;  0.0000000E+00;  0.0000000E+00;0;  6.6667916E-03;  4.0000000E+04;  0.0000000E+00;  0.0000000E+00;  4.0000000E+04;  0.0000000E+00;  4.0000000E+04;  3.5744966E-03;  0.0000000E+00;  3.0922953E-03;  2.9566555E+03;
  2.9999999E-02;  9.9999998E-03;  3.6000001E-01;1930;  0.0000000E+00;  0.0000000E+00;  0.0000000E+00;  1.0018646E+03;  1.0000000E-01;  1.5447465E+03;0;  0.0000000E+00;  0.0000000E+00;  0.0000000E+00;0;  4.8658261E-03;  4.0000000E+04;  0.0000000E+00;  0.0000000E+00;  4.0000000E+04;  0.0000000E+00;  4.0000000E+04;  2.3555900E-03;  0.0000000E+00;  2.5102361E-03;  2.5913130E+03;
  2.9999999E-02;  9.9999998E-03;  3.7000000E-01;1931;  0.0000000E+00;  0.0000000E+00;  0.0000000E+00;  1.0013502E+03;  1.0000000E-01;  1.1185857E+03;0;  0.0000000E+00;  0.0000000E+00;  0.0000000E+00;0;  3.4158118E-03;  4.0000000E+04;  0.0000000E+00;  0.0000000E+00;  4.0000000E+04;  0.0000000E+00;  4.0000000E+04;  1.4579125E-03;  0.0000000E+00;  1.9578992E-03;  2.1731682E+03;
  2.9999999E-02;  9.9999998E-03;  3.8000000E-01;1932;  0.0000000E+00;  0.0000000E+00;  0.0000000E+00;  1.0009457E+03;  1.0000000E-01;  7.8348401E+02;0;  0.0000000E+00;  0.0000000E+00;  0.0000000E+00;0;  2.2899059E-03;  4.0000000E+04;  0.0000000E+00;  0.0000000E+00;  4.0000000E+04;  0.0000000E+00;  4.0000000E+04;  8.3565834E-04;  0.0000000E+00;  1.4542475E-03;  1.7348035E+03;
  2.9999999E-02;  9.9999998E-03;  3.8999999E-01;1933;  0.0000000E+00;  0.0000000E+00;  0.0000000E+00;  1.0006354E+03;  1.0000000E-01;  5.2640485E+02;0;  0.0000000E+00;  0.0000000E+00;  0.0000000E+00;0;  1.4480277E-03;  4.0000000E+04;  0.0000000E+00;  0.0000000E+00;  4.0000000E+04;  0.0000000E+00;  4.0000000E+04;  4.3398261E-04;  0.0000000E+00;  1.0140451E-03;  1.3045519E+03;
  2.9999999E-02;  9.9999998E-03;  4.0000001E-01;1934;  0.0000000E+00;  0.0000000E+00;  0.0000000E+00;  1.0004026E+03;  1.0000000E-01;  3.3362021E+02;0;  0.0000000E+00;  0.0000000E+00;  0.0000000E+00;0;  8.4681640E-04;  4.0000000E+04;  0.0000000E+00;  0.0000000E+00;  4.0000000E+04;  0.0000000E+00;  4.0000000E+04;  1.9684272E-04;  0.0000000E+00;  6.4997369E-04;  9.0908203E+02;
  3.9999999E-02;  9.9999998E-03;  3.1000000E-01;1955;  0.0000000E+00;  0.0000000E+00;  0.0000000E+00;  1.0067355E+03;  1.0000000E-01;  5.5801880E+03;0;  0.0000000E+00;  0.0000000E+00;  0.0000000E+00;0;  1.7862424E-02;  4.0000000E+04;  0.0000000E+00;  0.0000000E+00;  4.0000000E+04;  0.0000000E+00;  4.0000000E+04;  1.2713428E-02;  0.0000000E+00;  5.1489971E-03;  2.9575020E+03;
  3.9999999E-02;  9.9999998E-03;  3.1999999E-01;1956;  0.0000000E+00;  0.0000000E+00;  0.0000000E+00;  1.0055707E+03;  1.0000000E-01;  4.6151782E+03;0;  0.0000000E+00;  0.0000000E+00;  0.0000000E+00;0;  1.5044920E-02;  4.0000000E+04;  0.0000000E+00;  0.0000000E+00;  4.0000000E+04;  0.0000000E+00;  4.0000000E+04;  1.0167439E-02;  0.0000000E+00;  4.8774807E-03;  3.3463191E+03;
  3.9999999E-02;  9.9999998E-03;  3.3000001E-01;1957;  0.0000000E+00;  0.0000000E+00;  0.0000000E+00;  1.0044871E+03;  1.0000000E-01;  3.7175244E+03;0;  0.0000000E+00;  0.0000000E+00;  0.0000000E+00;0;  1.2265729E-02;  4.0000000E+04;  0.0000000E+00;  0.0000000E+00;  4.0000000E+04;  0.0000000E+00;  4.0000000E+04;  7.8381328E-03;  0.0000000E+00;  4.4275965E-03;  3.4614507E+03;
  3.9999999E-02;  9.9999998E-03;  3.4000000E-01;1958;  0.0000000E+00;  0.0000000E+00;  0.0000000E+00;  1.0035212E+03;  1.0000000E-01;  2.9172507E+03;0;  0.0000000E+00;  0.0000000E+00;  0.0000000E+00;0;  9.6756890E-03;  4.0000000E+04;  0.0000000E+00;  0.0000000E+00;  4.0000000E+04;  0.0000000E+00;  4.0000000E+04;  5.8038002E-03;  0.0000000E+00;  3.8718889E-03;  3.3578174E+03;
  3.9999999E-02;  9.9999998E-03;  3.4999999E-01;1959;  0.0000000E+00;  0.0000000E+00;  0.0000000E+00;  1.0026913E+03;  1.0000000E-01;  2.2296653E+03;0;  0.0000000E+00;  0.0000000E+00;  0.0000000E+00;0;  7.3780678E-03;  4.0000000E+04;  0.0000000E+00;  0.0000000E+00;  4.0000000E+04;  0.0000000E+00;  4.0000000E+04;  4.1099186E-03;  0.0000000E+00;  3.2681494E-03;  3.0939390E+03;
  3.9999999E-02;  9.9999998E-03;  3.6000001E-01;1960;  0.0000000E+00;  0.0000000E+00;  0.0000000E+00;  1.0020053E+03;  1.0000000E-01;  1.6613851E+03;0;  0.0000000E+00;  0.0000000E+00;  0.0000000E+00;0;  5.4261670E-03;  4.0000000E+04;  0.0000000E+00;  0.0000000E+00;  4.0000000E+04;  0.0000000E+00;  4.0000000E+04;  2.7674811E-03;  0.0000000E+00;  2.6586859E-03;  2.7216289E+03;
  3.9999999E-02;  9.9999998E-03;  3.7000000E-01;1961;  0.0000000E+00;  0.0000000E+00;  0.0000000E+00;  1.0014479E+03;  1.0000000E-01;  1.1995710E+03;0;  0.0000000E+00;  0.0000000E+00;  0.0000000E+00;0;  3.8312704E-03;  4.0000000E+04;  0.0000000E+00;  0.0000000E+00;  4.0000000E+04;  0.0000000E+00;  4.0000000E+04;  1.7577934E-03;  0.0000000E+00;  2.0734770E-03;  2.2843494E+03;
  3.9999999E-02;  9.9999998E-03;  3.8000000E-01;1962;  0.0000000E+00;  0.0000000E+00;  0.0000000E+00;  1.0010139E+03;  1.0000000E-01;  8.3997626E+02;0;  0.0000000E+00;  0.0000000E+00;  0.0000000E+00;0;  2.5754299E-03;  4.0000000E+04;  0.0000000E+00;  0.0000000E+00;  4.0000000E+04;  0.0000000E+00;  4.0000000E+04;  1.0408032E-03;  0.0000000E+00;  1.5346267E-03;  1.8189880E+03;
  3.9999999E-02;  9.9999998E-03;  3.8999999E-01;1963;  0.0000000E+00;  0.0000000E+00;  0.0000000E+00;  1.0006859E+03;  1.0000000E-01;  5.6828021E+02;0;  0.0000000E+00;  0.0000000E+00;  0.0000000E+00;0;  1.6246741E-03;  4.0000000E+04;  0.0000000E+00;  0.0000000E+00;  4.0000000E+04;  0.0000000E+00;  4.0000000E+04;  5.6431693E-04;  0.0000000E+00;  1.0603571E-03;  1.3586050E+03;
  3.9999999E-02;  9.9999998E-03;  4.0000001E-01;1964;  0.0000000E+00;  0.0000000E+00;  0.0000000E+00;  1.0004395E+03;  1.0000000E-01;  3.6413785E+02;0;  0.0000000E+00;  0.0000000E+00;  0.0000000E+00;0;  9.3926932E-04;  4.0000000E+04;  0.0000000E+00;  0.0000000E+00;  4.0000000E+04;  0.0000000E+00;  4.0000000E+04;  2.7219881E-04;  0.0000000E+00;  6.6707050E-04;  9.3473096E+02;
  5.0000001E-02;  9.9999998E-03;  3.1000000E-01;1985;  0.0000000E+00;  0.0000000E+00;  0.0000000E+00;  1.0070440E+03;  1.0000000E-01;  5.8357856E+03;0;  0.0000000E+00;  0.0000000E+00;  0.0000000E+00;0;  1.9708354E-02;  4.0000000E+04;  0.0000000E+00;  0.0000000E+00;  4.0000000E+04;  0.0000000E+00;  4.0000000E+04;  1.4341967E-02;  0.0000000E+00;  5.3663878E-03;  3.0256040E+03;
  5.0000001E-02;  9.9999998E-03;  3.1999999E-01;1986;  0.0000000E+00;  0.0000000E+00;  0.0000000E+00;  1.0058374E+03;  1.0000000E-01;  4.8362090E+03;0;  0.0000000E+00;  0.0000000E+00;  0.0000000E+00;0;  1.6705168E-02;  4.0000000E+04;  0.0000000E+00;  0.0000000E+00;  4.0000000E+04;  0.0000000E+00;  4.0000000E+04;  1.1592563E-02;  0.0000000E+00;  5.1126047E-03;  3.4700122E+03;
  5.0000001E-02;  9.9999998E-03;  3.3000001E-01;1987;  0.0000000E+00;  0.0000000E+00;  0.0000000E+00;  1.0047079E+03;  1.0000000E-01;  3.9004329E+03;0;  0.0000000E+00;  0.0000000E+00;  0.0000000E+00;0;  1.3720585E-02;  4.0000000E+04;  0.0000000E+00;  0.0000000E+00;  4.0000000E+04;  0.0000000E+00;  4.0000000E+04;  9.0463031E-03;  0.0000000E+00;  4.6742815E-03;  3.6318098E+03;
  5.0000001E-02;  9.9999998E-03;  3.4000000E-01;1988;  0.0000000E+00;  0.0000000E+00;  0.0000000E+00;  1.0036973E+03;  1.0000000E-01;  3.0631233E+03;0;  0.0000000E+00;  0.0000000E+00;  0.0000000E+00;0;  1.0912508E-02;  4.0000000E+04;  0.0000000E+00;  0.0000000E+00;  4.0000000E+04;  0.0000000E+00;  4.0000000E+04;  6.7955428E-03;  0.0000000E+00;  4.1169645E-03;  3.5562061E+03;
  5.0000001E-02;  9.9999998E-03;  3.4999999E-01;1989;  0.0000000E+00;  0.0000000E+00;  0.0000000E+00;  1.0028296E+03;  1.0000000E-01;  2.3442300E+03;0;  0.0000000E+00;  0.0000000E+00;  0.0000000E+00;0;  8.3945561E-03;  4.0000000E+04;  0.0000000E+00;  0.0000000E+00;  4.0000000E+04;  0.0000000E+00;  4.0000000E+04;  4.8969598E-03;  0.0000000E+00;  3.4975959E-03;  3.2995190E+03;
  5.0000001E-02;  9.9999998E-03;  3.6000001E-01;1990;  0.0000000E+00;  0.0000000E+00;  0.0000000E+00;  1.0021074E+03;  1.0000000E-01;  1.7459259E+03;0;  0.0000000E+00;  0.0000000E+00;  0.0000000E+00;0;  6.2302789E-03;  4.0000000E+04;  0.0000000E+00;  0.0000000E+00;  4.0000000E+04;  0.0000000E+00;  4.0000000E+04;  3.3695011E-03;  0.0000000E+00;  2.8607775E-03;  2.9156101E+03;
  5.0000001E-02;  9.9999998E-03;  3.7000000E-01;1991;  0.0000000E+00;  0.0000000E+00;  0.0000000E+00;  1.0015242E+03;  1.0000000E-01;  1.2627791E+03;0;  0.0000000E+00;  0.0000000E+00;  0.0000000E+00;0;  4.4392380E-03;  4.0000000E+04;  0.0000000E+00;  0.0000000E+00;  4.0000000E+04;  0.0000000E+00;  4.0000000E+04;  2.1993662E-03;  0.0000000E+00;  2.2398718E-03;  2.4520012E+03;
  5.0000001E-02;  9.9999998E-03;  3.8000000E-01;1992;  0.0000000E+00;  0.0000000E+00;  0.0000000E+00;  1.0010684E+03;  1.0000000E-01;  8.8511078E+02;0;  0.0000000E+00;  0.0000000E+00;  0.0000000E+00;0;  3.0097072E-03;  4.0000000E+04;  0.0000000E+00;  0.0000000E+00;  4.0000000E+04;  0.0000000E+00;  4.0000000E+04;  1.3490288E-03;  0.0000000E+00;  1.6606784E-03;  1.9505315E+03;
  5.0000001E-02;  9.9999998E-03;  3.8999999E-01;1993;  0.0000000E+00;  0.0000000E+00;  0.0000000E+00;  1.0007198E+03;  1.0000000E-01;  5.9642755E+02;0;  0.0000000E+00;  0.0000000E+00;  0.0000000E+00;0;  1.9120828E-03;  4.0000000E+04;  0.0000000E+00;  0.0000000E+00;  4.0000000E+04;  0.0000000E+00;  4.0000000E+04;  7.6679955E-04;  0.0000000E+00;  1.1452832E-03;  1.4496943E+03;
  5.0000001E-02;  9.9999998E-03;  4.0000001E-01;1994;  0.0000000E+00;  0.0000000E+00;  0.0000000E+00;  1.0004586E+03;  1.0000000E-01;  3.7993988E+02;0;  0.0000000E+00;  0.0000000E+00;  0.0000000E+00;0;  1.1096922E-03;  4.0000000E+04;  0.0000000E+00;  0.0000000E+00;  4.0000000E+04;  0.0000000E+00;  4.0000000E+04;  3.9544373E-04;  0.0000000E+00;  7.1424840E-04;  9.8662201E+02;
  5.9999999E-02;  9.9999998E-03;  3.1000000E-01;2015;  0.0000000E+00;  0.0000000E+00;  0.0000000E+00;  1.0072592E+03;  1.0000000E-01;  6.0140522E+03;0;  0.0000000E+00;  0.0000000E+00;  0.0000000E+00;0;  2.2273295E-02;  4.0000000E+04;  0.0000000E+00;  0.0000000E+00;  4.0000000E+04;  0.0000000E+00;  4.0000000E+04;  1.6611662E-02;  0.0000000E+00;  5.6616324E-03;  3.1870027E+03;
  5.9999999E-02;  9.9999998E-03;  3.1999999E-01;2016;  0.0000000E+00;  0.0000000E+00;  0.0000000E+00;  1.0060275E+03;  1.0000000E-01;  4.9937354E+03;0;  0.0000000E+00;  0.0000000E+00;  0.0000000E+00;0;  1.8948670E-02;  4.0000000E+04;  0.0000000E+00;  0.0000000E+00;  4.0000000E+04;  0.0000000E+00;  4.0000000E+04;  1.3511671E-02;  0.0000000E+00;  5.4370007E-03;  3.7045918E+03;
  5.9999999E-02;  9.9999998E-03;  3.3000001E-01;2017;  0.0000000E+00;  0.0000000E+00;  0.0000000E+00;  1.0048688E+03;  1.0000000E-01;  4.0336638E+03;0;  0.0000000E+00;  0.0000000E+00;  0.0000000E+00;0;  1.5643008E-02;  4.0000000E+04;  0.0000000E+00;  0.0000000E+00;  4.0000000E+04;  0.0000000E+00;  4.0000000E+04;  1.0628499E-02;  0.0000000E+00;  5.0145094E-03;  3.9186855E+03;
  5.9999999E-02;  9.9999998E-03;  3.4000000E-01;2018;  0.0000000E+00;  0.0000000E+00;  0.0000000E+00;  1.0038284E+03;  1.0000000E-01;  3.1717622E+03;0;  0.0000000E+00;  0.0000000E+00;  0.0000000E+00;0;  1.2522719E-02;  4.0000000E+04;  0.0000000E+00;  0.0000000E+00;  4.0000000E+04;  0.0000000E+00;  4.0000000E+04;  8.0677047E-03;  0.0000000E+00;  4.4550141E-03;  3.8693079E+03;
  5.9999999E-02;  9.9999998E-03;  3.4999999E-01;2019;  0.0000000E+00;  0.0000000E+00;  0.0000000E+00;  1.0029256E+03;  1.0000000E-01;  2.4238328E+03;0;  0.0000000E+00;  0.0000000E+00;  0.0000000E+00;0;  9.7100465E-03;  4.0000000E+04;  0.0000000E+00;  0.0000000E+00;  4.0000000E+04;  0.0000000E+00;  4.0000000E+04;  5.8936705E-03;  0.0000000E+00;  3.8163762E-03;  3.6133728E+03;
  5.9999999E-02;  9.9999998E-03;  3.6000001E-01;2020;  0.0000000E+00;  0.0000000E+00;  0.0000000E+00;  1.0021813E+03;  1.0000000E-01;  1.8071588E+03;0;  0.0000000E+00;  0.0000000E+00;  0.0000000E+00;0;  7.2751148E-03;  4.0000000E+04;  0.0000000E+00;  0.0000000E+00;  4.0000000E+04;  0.0000000E+00;  4.0000000E+04;  4.1284990E-03;  0.0000000E+00;  3.1466158E-03;  3.2084058E+03;
  5.9999999E-02;  9.9999998E-03;  3.7000000E-01;2021;  0.0000000E+00;  0.0000000E+00;  0.0000000E+00;  1.0015787E+03;  1.0000000E-01;  1.3079136E+03;0;  0.0000000E+00;  0.0000000E+00;  0.0000000E+00;0;  5.2415673E-03;  4.0000000E+04;  0.0000000E+00;  0.0000000E+00;  4.0000000E+04;  0.0000000E+00;  4.0000000E+04;  2.7585088E-03;  0.0000000E+00;  2.4830587E-03;  2.7071055E+03;
  5.9999999E-02;  9.9999998E-03;  3.8000000E-01;2022;  0.0000000E+00;  0.0000000E+00;  0.0000000E+00;  1.0011132E+03;  1.0000000E-01;  9.2224554E+02;0;  0.0000000E+00;  0.0000000E+00;  0.0000000E+00;0;  3.5996889E-03;  4.0000000E+04;  0.0000000E+00;  0.0000000E+00;  4.0000000E+04;  0.0000000E+00;  4.0000000E+04;  1.7444561E-03;  0.0000000E+00;  1.8552328E-03;  2.1568364E+03;
  5.9999999E-02;  9.9999998E-03;  3.8999999E-01;2023;  0.0000000E+00;  0.0000000E+00;  0.0000000E+00;  1.0007469E+03;  1.0000000E-01;  6.1874792E+02;0;  0.0000000E+00;  0.0000000E+00;  0.0000000E+00;0;  2.3210933E-03;  4.0000000E+04;  0.0000000E+00;  0.0000000E+00;  4.0000000E+04;  0.0000000E+00;  4.0000000E+04;  1.0321586E-03;  0.0000000E+00;  1.2889348E-03;  1.6018171E+03;
  5.9999999E-02;  9.9999998E-03;  4.0000001E-01;2024;  0.0000000E+00;  0.0000000E+00;  0.0000000E+00;  1.0004775E+03;  1.0000000E-01;  3.9564313E+02;0;  0.0000000E+00;  0.0000000E+00;  0.0000000E+00;0;  1.3706530E-03;  4.0000000E+04;  0.0000000E+00;  0.0000000E+00;  4.0000000E+04;  0.0000000E+00;  4.0000000E+04;  5.6170160E-04;  0.0000000E+00;  8.0895150E-04;  1.0852474E+03;
  7.0000000E-02;  9.9999998E-03;  3.1000000E-01;2045;  0.0000000E+00;  0.0000000E+00;  0.0000000E+00;  1.0074120E+03;  1.0000000E-01;  6.1406660E+03;0;  0.0000000E+00;  0.0000000E+00;  0.0000000E+00;0;  2.5419375E-02;  4.0000000E+04;  0.0000000E+00;  0.0000000E+00;  4.0000000E+04;  0.0000000E+00;  4.0000000E+04;  1.9333746E-02;  0.0000000E+00;  6.0856282E-03;  3.4312236E+03;
  7.0000000E-02;  9.9999998E-03;  3.1999999E-01;2046;  0.0000000E+00;  0.0000000E+00;  0.0000000E+00;  1.0061694E+03;  1.0000000E-01;  5.1111641E+03;0;  0.0000000E+00;  0.0000000E+00;  0.0000000E+00;0;  2.1666778E-02;  4.0000000E+04;  0.0000000E+00;  0.0000000E+00;  4.0000000E+04;  0.0000000E+00;  4.0000000E+04;  1.5769331E-02;  0.0000000E+00;  5.8974475E-03;  4.0596841E+03;
  7.0000000E-02;  9.9999998E-03;  3.3000001E-01;2047;  0.0000000E+00;  0.0000000E+00;  0.0000000E+00;  1.0049896E+03;  1.0000000E-01;  4.1337104E+03;0;  0.0000000E+00;  0.0000000E+00;  0.0000000E+00;0;  1.7945156E-02;  4.0000000E+04;  0.0000000E+00;  0.0000000E+00;  4.0000000E+04;  0.0000000E+00;  4.0000000E+04;  1.2457743E-02;  0.0000000E+00;  5.4874127E-03;  4.3421504E+03;
  7.0000000E-02;  9.9999998E-03;  3.4000000E-01;2048;  0.0000000E+00;  0.0000000E+00;  0.0000000E+00;  1.0039231E+03;  1.0000000E-01;  3.2501797E+03;0;  0.0000000E+00;  0.0000000E+00;  0.0000000E+00;0;  1.4434021E-02;  4.0000000E+04;  0.0000000E+00;  0.0000000E+00;  4.0000000E+04;  0.0000000E+00;  4.0000000E+04;  9.5172012E-03;  0.0000000E+00;  4.9168197E-03;  4.3206445E+03;
  7.0000000E-02;  9.9999998E-03;  3.4999999E-01;2049;  0.0000000E+00;  0.0000000E+00;  0.0000000E+00;  1.0030020E+03;  1.0000000E-01;  2.4871396E+03;0;  0.0000000E+00;  0.0000000E+00;  0.0000000E+00;0;  1.1265256E-02;  4.0000000E+04;  0.0000000E+00;  0.0000000E+00;  4.0000000E+04;  0.0000000E+00;  4.0000000E+04;  7.0171994E-03;  0.0000000E+00;  4.2480566E-03;  4.0584526E+03;
  7.0000000E-02;  9.9999998E-03;  3.6000001E-01;2050;  0.0000000E+00;  0.0000000E+00;  0.0000000E+00;  1.0022358E+03;  1.0000000E-01;  1.8522933E+03;0;  0.0000000E+00;  0.0000000E+00;  0.0000000E+00;0;  8.5139498E-03;  4.0000000E+04;  0.0000000E+00;  0.0000000E+00;  4.0000000E+04;  0.0000000E+00;  4.0000000E+04;  4.9793785E-03;  0.0000000E+00;  3.5345715E-03;  3.6211807E+03;
  7.0000000E-02;  9.9999998E-03;  3.7000000E-01;2051;  0.0000000E+00;  0.0000000E+00;  0.0000000E+00;  1.0016136E+03;  1.0000000E-01;  1.3368511E+03;0;  0.0000000E+00;  0.0000000E+00;  0.0000000E+00;0;  6.2042028E-03;  4.0000000E+04;  0.0000000E+00;  0.0000000E+00;  4.0000000E+04;  0.0000000E+00;  4.0000000E+04;  3.3859881E-03;  0.0000000E+00;  2.8182147E-03;  3.0690466E+03;
  7.0000000E-02;  9.9999998E-03;  3.8000000E-01;2052;  0.0000000E+00;  0.0000000E+00;  0.0000000E+00;  1.0011313E+03;  1.0000000E-01;  9.3725745E+02;0;  0.0000000E+00;  0.0000000E+00;  0.0000000E+00;0;  4.3238206E-03;  4.0000000E+04;  0.0000000E+00;  0.0000000E+00;  4.0000000E+04;  0.0000000E+00;  4.0000000E+04;  2.1919641E-03;  0.0000000E+00;  2.1318567E-03;  2.4558142E+03;
  7.0000000E-02;  9.9999998E-03;  3.8999999E-01;2053;  0.0000000E+00;  0.0000000E+00;  0.0000000E+00;  1.0007610E+03;  1.0000000E-01;  6.3050067E+02;0;  0.0000000E+00;  0.0000000E+00;  0.0000000E+00;0;  2.8414056E-03;  4.0000000E+04;  0.0000000E+00;  0.0000000E+00;  4.0000000E+04;  0.0000000E+00;  4.0000000E+04;  1.3373035E-03;  0.0000000E+00;  1.5041020E-03;  1.8315616E+03;
  7.0000000E-02;  9.9999998E-03;  4.0000001E-01;2054;  0.0000000E+00;  0.0000000E+00;  0.0000000E+00;  1.0004819E+03;  1.0000000E-01;  3.9919858E+02;0;  0.0000000E+00;  0.0000000E+00;  0.0000000E+00;0;  1.7202923E-03;  4.0000000E+04;  0.0000000E+00;  0.0000000E+00;  4.0000000E+04;  0.0000000E+00;  4.0000000E+04;  7.5719529E-04;  0.0000000E+00;  9.6309703E-04;  1.2456427E+03;
  7.9999998E-02;  9.9999998E-03;  3.1000000E-01;2075;  0.0000000E+00;  0.0000000E+00;  0.0000000E+00;  1.0075363E+03;  1.0000000E-01;  6.2436753E+03;0;  0.0000000E+00;  0.0000000E+00;  0.0000000E+00;0;  2.8910372E-02;  4.0000000E+04;  0.0000000E+00;  0.0000000E+00;  4.0000000E+04;  0.0000000E+00;  4.0000000E+04;  2.2242436E-02;  0.0000000E+00;  6.6679362E-03;  3.7477029E+03;
  7.9999998E-02;  9.9999998E-03;  3.1999999E-01;2076;  0.0000000E+00;  0.0000000E+00;  0.0000000E+00;  1.0062892E+03;  1.0000000E-01;  5.2105195E+03;0;  0.0000000E+00;  0.0000000E+00;  0.0000000E+00;0;  2.4675384E-02;  4.0000000E+04;  0.0000000E+00;  0.0000000E+00;  4.0000000E+04;  0.0000000E+00;  4.0000000E+04;  1.8156545E-02;  0.0000000E+00;  6.5188380E-03;  4.5235918E+03;
  7.9999998E-02;  9.9999998E-03;  3.3000001E-01;2077;  0.0000000E+00;  0.0000000E+00;  0.0000000E+00;  1.0050941E+03;  1.0000000E-01;  4.2204238E+03;0;  0.0000000E+00;  0.0000000E+00;  0.0000000E+00;0;  2.0482127E-02;  4.0000000E+04;  0.0000000E+00;  0.0000000E+00;  4.0000000E+04;  0.0000000E+00;  4.0000000E+04;  1.4371132E-02;  0.0000000E+00;  6.1109941E-03;  4.8939873E+03;
  7.9999998E-02;  9.9999998E-03;  3.4000000E-01;2078;  0.0000000E+00;  0.0000000E+00;  0.0000000E+00;  1.0040089E+03;  1.0000000E-01;  3.3212888E+03;0;  0.0000000E+00;  0.0000000E+00;  0.0000000E+00;0;  1.6530620E-02;  4.0000000E+04;  0.0000000E+00;  0.0000000E+00;  4.0000000E+04;  0.0000000E+00;  4.0000000E+04;  1.1017051E-02;  0.0000000E+00;  5.5135698E-03;  4.9058833E+03;
  7.9999998E-02;  9.9999998E-03;  3.4999999E-01;2079;  0.0000000E+00;  0.0000000E+00;  0.0000000E+00;  1.0030640E+03;  1.0000000E-01;  2.5383975E+03;0;  0.0000000E+00;  0.0000000E+00;  0.0000000E+00;0;  1.2966336E-02;  4.0000000E+04;  0.0000000E+00;  0.0000000E+00;  4.0000000E+04;  0.0000000E+00;  4.0000000E+04;  8.1679970E-03;  0.0000000E+00;  4.7983387E-03;  4.6334634E+03;
  7.9999998E-02;  9.9999998E-03;  3.6000001E-01;2080;  0.0000000E+00;  0.0000000E+00;  0.0000000E+00;  1.0022781E+03;  1.0000000E-01;  1.8873540E+03;0;  0.0000000E+00;  0.0000000E+00;  0.0000000E+00;0;  9.8701362E-03;  4.0000000E+04;  0.0000000E+00;  0.0000000E+00;  4.0000000E+04;  0.0000000E+00;  4.0000000E+04;  5.8436492E-03;  0.0000000E+00;  4.0264875E-03;  4.1546689E+03;
  7.9999998E-02;  9.9999998E-03;  3.7000000E-01;2081;  0.0000000E+00;  0.0000000E+00;  0.0000000E+00;  1.0016458E+03;  1.0000000E-01;  1.3635170E+03;0;  0.0000000E+00;  0.0000000E+00;  0.0000000E+00;0;  7.2654453E-03;  4.0000000E+04;  0.0000000E+00;  0.0000000E+00;  4.0000000E+04;  0.0000000E+00;  4.0000000E+04;  4.0203459E-03;  0.0000000E+00;  3.2450994E-03;  3.5400300E+03;
  7.9999998E-02;  9.9999998E-03;  3.8000000E-01;2082;  0.0000000E+00;  0.0000000E+00;  0.0000000E+00;  1.0011444E+03;  1.0000000E-01;  9.4812134E+02;0;  0.0000000E+00;  0.0000000E+00;  0.0000000E+00;0;  5.1349448E-03;  4.0000000E+04;  0.0000000E+00;  0.0000000E+00;  4.0000000E+04;  0.0000000E+00;  4.0000000E+04;  2.6449505E-03;  0.0000000E+00;  2.4899940E-03;  2.8509231E+03;
  7.9999998E-02;  9.9999998E-03;  3.8999999E-01;2083;  0.0000000E+00;  0.0000000E+00;  0.0000000E+00;  1.0007662E+03;  1.0000000E-01;  6.3474750E+02;0;  0.0000000E+00;  0.0000000E+00;  0.0000000E+00;0;  3.4404662E-03;  4.0000000E+04;  0.0000000E+00;  0.0000000E+00;  4.0000000E+04;  0.0000000E+00;  4.0000000E+04;  1.6490498E-03;  0.0000000E+00;  1.7914164E-03;  2.1435425E+03;
  7.9999998E-02;  9.9999998E-03;  4.0000001E-01;2084;  0.0000000E+00;  0.0000000E+00;  0.0000000E+00;  1.0004875E+03;  1.0000000E-01;  4.0393918E+02;0;  0.0000000E+00;  0.0000000E+00;  0.0000000E+00;0;  2.1396740E-03;  4.0000000E+04;  0.0000000E+00;  0.0000000E+00;  4.0000000E+04;  0.0000000E+00;  4.0000000E+04;  9.6049177E-04;  0.0000000E+00;  1.1791823E-03;  1.4734301E+03;
  9.0000004E-02;  9.9999998E-03;  3.1000000E-01;2105;  0.0000000E+00;  0.0000000E+00;  0.0000000E+00;  1.0076741E+03;  1.0000000E-01;  6.3578447E+03;0;  0.0000000E+00;  0.0000000E+00;  0.0000000E+00;0;  3.2447428E-02;  4.0000000E+04;  0.0000000E+00;  0.0000000E+00;  4.0000000E+04;  0.0000000E+00;  4.0000000E+04;  2.5039611E-02;  0.0000000E+00;  7.4078161E-03;  4.3347793E+03;
  9.0000004E-02;  9.9999998E-03;  3.1999999E-01;2106;  0.0000000E+00;  0.0000000E+00;  0.0000000E+00;  1.0064247E+03;  1.0000000E-01;  5.3227139E+03;0;  0.0000000E+00;  0.0000000E+00;  0.0000000E+00;0;  2.7744085E-02;  4.0000000E+04;  0.0000000E+00;  0.0000000E+00;  4.0000000E+04;  0.0000000E+00;  4.0000000E+04;  2.0448009E-02;  0.0000000E+00;  7.2960765E-03;  5.1705098E+03;
  9.0000004E-02;  9.9999998E-03;  3.3000001E-01;2107;  0.0000000E+00;  0.0000000E+00;  0.0000000E+00;  1.0052133E+03;  1.0000000E-01;  4.3190879E+03;0;  0.0000000E+00;  0.0000000E+00;  0.0000000E+00;0;  2.3077611E-02;  4.0000000E+04;  0.0000000E+00;  0.0000000E+00;  4.0000000E+04;  0.0000000E+00;  4.0000000E+04;  1.6201932E-02;  0.0000000E+00;  6.8756794E-03;  5.5871240E+03;
  9.0000004E-02;  9.9999998E-03;  3.4000000E-01;2108;  0.0000000E+00;  0.0000000E+00;  0.0000000E+00;  1.0041046E+03;  1.0000000E-01;  3.4005952E+03;0;  0.0000000E+00;  0.0000000E+00;  0.0000000E+00;0;  1.8677298E-02;  4.0000000E+04;  0.0000000E+00;  0.0000000E+00;  4.0000000E+04;  0.0000000E+00;  4.0000000E+04;  1.2444710E-02;  0.0000000E+00;  6.2325867E-03;  5.6119092E+03;
  9.0000004E-02;  9.9999998E-03;  3.4999999E-01;2109;  0.0000000E+00;  0.0000000E+00;  0.0000000E+00;  1.0031350E+03;  1.0000000E-01;  2.5972598E+03;0;  0.0000000E+00;  0.0000000E+00;  0.0000000E+00;0;  1.4707334E-02;  4.0000000E+04;  0.0000000E+00;  0.0000000E+00;  4.0000000E+04;  0.0000000E+00;  4.0000000E+04;  9.2545524E-03;  0.0000000E+00;  5.4527819E-03;  5.3178242E+03;
  9.0000004E-02;  9.9999998E-03;  3.6000001E-01;2110;  0.0000000E+00;  0.0000000E+00;  0.0000000E+00;  1.0023241E+03;  1.0000000E-01;  1.9254764E+03;0;  0.0000000E+00;  0.0000000E+00;  0.0000000E+00;0;  1.1257567E-02;  4.0000000E+04;  0.0000000E+00;  0.0000000E+00;  4.0000000E+04;  0.0000000E+00;  4.0000000E+04;  6.6504874E-03;  0.0000000E+00;  4.6070796E-03;  4.7887720E+03;
  9.0000004E-02;  9.9999998E-03;  3.7000000E-01;2111;  0.0000000E+00;  0.0000000E+00;  0.0000000E+00;  1.0016699E+03;  1.0000000E-01;  1.3834670E+03;0;  0.0000000E+00;  0.0000000E+00;  0.0000000E+00;0;  8.3529511E-03;  4.0000000E+04;  0.0000000E+00;  0.0000000E+00;  4.0000000E+04;  0.0000000E+00;  4.0000000E+04;  4.6047359E-03;  0.0000000E+00;  3.7482155E-03;  4.1029019E+03;
  9.0000004E-02;  9.9999998E-03;  3.8000000E-01;2112;  0.0000000E+00;  0.0000000E+00;  0.0000000E+00;  1.0011599E+03;  1.0000000E-01;  9.6096045E+02;0;  0.0000000E+00;  0.0000000E+00;  0.0000000E+00;0;  5.9722336E-03;  4.0000000E+04;  0.0000000E+00;  0.0000000E+00;  4.0000000E+04;  0.0000000E+00;  4.0000000E+04;  3.0574589E-03;  0.0000000E+00;  2.9147749E-03;  3.3286006E+03;
  9.0000004E-02;  9.9999998E-03;  3.8999999E-01;2113;  0.0000000E+00;  0.0000000E+00;  0.0000000E+00;  1.0007690E+03;  1.0000000E-01;  6.3711780E+02;0;  0.0000000E+00;  0.0000000E+00;  0.0000000E+00;0;  4.0696035E-03;  4.0000000E+04;  0.0000000E+00;  0.0000000E+00;  4.0000000E+04;  0.0000000E+00;  4.0000000E+04;  1.9316872E-03;  0.0000000E+00;  2.1379162E-03;  2.5281074E+03;
  9.0000004E-02;  9.9999998E-03;  4.0000001E-01;2114;  0.0000000E+00;  0.0000000E+00;  0.0000000E+00;  1.0004874E+03;  1.0000000E-01;  4.0374167E+02;0;  0.0000000E+00;  0.0000000E+00;  0.0000000E+00;0;  2.5938926E-03;  4.0000000E+04;  0.0000000E+00;  0.0000000E+00;  4.0000000E+04;  0.0000000E+00;  4.0000000E+04;  1.1462318E-03;  0.0000000E+00;  1.4476607E-03;  1.7626509E+03;
  1.0000000E-01;  9.9999998E-03;  3.1000000E-01;2135;  0.0000000E+00;  0.0000000E+00;  0.0000000E+00;  1.0078623E+03;  1.0000000E-01;  6.5137910E+03;0;  0.0000000E+00;  0.0000000E+00;  0.0000000E+00;0;  3.5707802E-02;  4.0000000E+04;  0.0000000E+00;  0.0000000E+00;  4.0000000E+04;  0.0000000E+00;  4.0000000E+04;  2.7439525E-02;  0.0000000E+00;  8.2682772E-03;  5.9179854E+03;
  1.0000000E-01;  9.9999998E-03;  3.1999999E-01;2136;  0.0000000E+00;  0.0000000E+00;  0.0000000E+00;  1.0066050E+03;  1.0000000E-01;  5.4721416E+03;0;  0.0000000E+00;  0.0000000E+00;  0.0000000E+00;0;  3.0625453E-02;  4.0000000E+04;  0.0000000E+00;  0.0000000E+00;  4.0000000E+04;  0.0000000E+00;  4.0000000E+04;  2.2435972E-02;  0.0000000E+00;  8.1894808E-03;  6.3935156E+03;
  1.0000000E-01;  9.9999998E-03;  3.3000001E-01;2137;  0.0000000E+00;  0.0000000E+00;  0.0000000E+00;  1.0053735E+03;  1.0000000E-01;  4.4518247E+03;0;  0.0000000E+00;  0.0000000E+00;  0.0000000E+00;0;  2.5546253E-02;  4.0000000E+04;  0.0000000E+00;  0.0000000E+00;  4.0000000E+04;  0.0000000E+00;  4.0000000E+04;  1.7804369E-02;  0.0000000E+00;  7.7418834E-03;  6.5961499E+03;
  1.0000000E-01;  9.9999998E-03;  3.4000000E-01;2138;  0.0000000E+00;  0.0000000E+00;  0.0000000E+00;  1.0042339E+03;  1.0000000E-01;  3.5077527E+03;0;  0.0000000E+00;  0.0000000E+00;  0.0000000E+00;0;  2.0736378E-02;  4.0000000E+04;  0.0000000E+00;  0.0000000E+00;  4.0000000E+04;  0.0000000E+00;  4.0000000E+04;  1.3699608E-02;  0.0000000E+00;  7.0367707E-03;  6.4907300E+03;
  1.0000000E-01;  9.9999998E-03;  3.4999999E-01;2139;  0.0000000E+00;  0.0000000E+00;  0.0000000E+00;  1.0032346E+03;  1.0000000E-01;  2.6797266E+03;0;  0.0000000E+00;  0.0000000E+00;  0.0000000E+00;0;  1.6384613E-02;  4.0000000E+04;  0.0000000E+00;  0.0000000E+00;  4.0000000E+04;  0.0000000E+00;  4.0000000E+04;  1.0206904E-02;  0.0000000E+00;  6.1777080E-03;  6.1045542E+03;
  1.0000000E-01;  9.9999998E-03;  3.6000001E-01;2140;  0.0000000E+00;  0.0000000E+00;  0.0000000E+00;  1.0023899E+03;  1.0000000E-01;  1.9799934E+03;0;  0.0000000E+00;  0.0000000E+00;  0.0000000E+00;0;  1.2595325E-02;  4.0000000E+04;  0.0000000E+00;  0.0000000E+00;  4.0000000E+04;  0.0000000E+00;  4.0000000E+04;  7.3492764E-03;  0.0000000E+00;  5.2460483E-03;  5.4938726E+03;
  1.0000000E-01;  9.9999998E-03;  3.7000000E-01;2141;  0.0000000E+00;  0.0000000E+00;  0.0000000E+00;  1.0017114E+03;  1.0000000E-01;  1.4178364E+03;0;  0.0000000E+00;  0.0000000E+00;  0.0000000E+00;0;  9.3999710E-03;  4.0000000E+04;  0.0000000E+00;  0.0000000E+00;  4.0000000E+04;  0.0000000E+00;  4.0000000E+04;  5.0998311E-03;  0.0000000E+00;  4.3001403E-03;  4.7237847E+03;
  1.0000000E-01;  9.9999998E-03;  3.8000000E-01;2142;  0.0000000E+00;  0.0000000E+00;  0.0000000E+00;  1.0011803E+03;  1.0000000E-01;  9.7784888E+02;0;  0.0000000E+00;  0.0000000E+00;  0.0000000E+00;0;  6.7774490E-03;  4.0000000E+04;  0.0000000E+00;  0.0000000E+00;  4.0000000E+04;  0.0000000E+00;  4.0000000E+04;  3.3963793E-03;  0.0000000E+00;  3.3810697E-03;  3.8589158E+03;
  1.0000000E-01;  9.9999998E-03;  3.8999999E-01;2143;  0.0000000E+00;  0.0000000E+00;  0.0000000E+00;  1.0007766E+03;  1.0000000E-01;  6.4343860E+02;0;  0.0000000E+00;  0.0000000E+00;  0.0000000E+00;0;  4.6771141E-03;  4.0000000E+04;  0.0000000E+00;  0.0000000E+00;  4.0000000E+04;  0.0000000E+00;  4.0000000E+04;  2.1564791E-03;  0.0000000E+00;  2.5206353E-03;  2.9619980E+03;
  1.0000000E-01;  9.9999998E-03;  4.0000001E-01;2144;  0.0000000E+00;  0.0000000E+00;  0.0000000E+00;  1.0004850E+03;  1.0000000E-01;  4.0186517E+02;0;  0.0000000E+00;  0.0000000E+00;  0.0000000E+00;0;  3.0395440E-03;  4.0000000E+04;  0.0000000E+00;  0.0000000E+00;  4.0000000E+04;  0.0000000E+00;  4.0000000E+04;  1.2909019E-03;  0.0000000E+00;  1.7486421E-03;  2.0970452E+03;
  1.1000000E-01;  9.9999998E-03;  3.1000000E-01;2165;  0.0000000E+00;  0.0000000E+00;  0.0000000E+00;  1.0081286E+03;  1.0000000E-01;  6.7344268E+03;0;  0.0000000E+00;  0.0000000E+00;  0.0000000E+00;0;  3.8400762E-02;  4.0000000E+04;  0.0000000E+00;  0.0000000E+00;  4.0000000E+04;  0.0000000E+00;  4.0000000E+04;  2.9224657E-02;  0.0000000E+00;  9.1761034E-03;  9.5228721E+03;
  1.1000000E-01;  9.9999998E-03;  3.1999999E-01;2166;  0.0000000E+00;  0.0000000E+00;  0.0000000E+00;  1.0068608E+03;  1.0000000E-01;  5.6840859E+03;0;  0.0000000E+00;  0.0000000E+00;  0.0000000E+00;0;  3.3097588E-02;  4.0000000E+04;  0.0000000E+00;  0.0000000E+00;  4.0000000E+04;  0.0000000E+00;  4.0000000E+04;  2.3970282E-02;  0.0000000E+00;  9.1273058E-03;  9.0480938E+03;
  1.1000000E-01;  9.9999998E-03;  3.3000001E-01;2167;  0.0000000E+00;  0.0000000E+00;  0.0000000E+00;  1.0055999E+03;  1.0000000E-01;  4.6393750E+03;0;  0.0000000E+00;  0.0000000E+00;  0.0000000E+00;0;  2.7724069E-02;  4.0000000E+04;  0.0000000E+00;  0.0000000E+00;  4.0000000E+04;  0.0000000E+00;  4.0000000E+04;  1.9079268E-02;  0.0000000E+00;  8.6447997E-03;  8.4628828E+03;
  1.1000000E-01;  9.9999998E-03;  3.4000000E-01;2168;  0.0000000E+00;  0.0000000E+00;  0.0000000E+00;  1.0044213E+03;  1.0000000E-01;  3.6629087E+03;0;  0.0000000E+00;  0.0000000E+00;  0.0000000E+00;0;  2.2588581E-02;  4.0000000E+04;  0.0000000E+00;  0.0000000E+00;  4.0000000E+04;  0.0000000E+00;  4.0000000E+04;  1.4718306E-02;  0.0000000E+00;  7.8702746E-03;  7.8071382E+03;
  1.1000000E-01;  9.9999998E-03;  3.4999999E-01;2169;  0.0000000E+00;  0.0000000E+00;  0.0000000E+00;  1.0033781E+03;  1.0000000E-01;  2.7986370E+03;0;  0.0000000E+00;  0.0000000E+00;  0.0000000E+00;0;  1.7911101E-02;  4.0000000E+04;  0.0000000E+00;  0.0000000E+00;  4.0000000E+04;  0.0000000E+00;  4.0000000E+04;  1.0985172E-02;  0.0000000E+00;  6.9259284E-03;  7.0778599E+03;
  1.1000000E-01;  9.9999998E-03;  3.6000001E-01;2170;  0.0000000E+00;  0.0000000E+00;  0.0000000E+00;  1.0024929E+03;  1.0000000E-01;  2.0653242E+03;0;  0.0000000E+00;  0.0000000E+00;  0.0000000E+00;0;  1.3818027E-02;  4.0000000E+04;  0.0000000E+00;  0.0000000E+00;  4.0000000E+04;  0.0000000E+00;  4.0000000E+04;  7.9145366E-03;  0.0000000E+00;  5.9034904E-03;  6.2621074E+03;
  1.1000000E-01;  9.9999998E-03;  3.7000000E-01;2171;  0.0000000E+00;  0.0000000E+00;  0.0000000E+00;  1.0017764E+03;  1.0000000E-01;  1.4717609E+03;0;  0.0000000E+00;  0.0000000E+00;  0.0000000E+00;0;  1.0354622E-02;  4.0000000E+04;  0.0000000E+00;  0.0000000E+00;  4.0000000E+04;  0.0000000E+00;  4.0000000E+04;  5.4880013E-03;  0.0000000E+00;  4.8666210E-03;  5.3617896E+03;
  1.1000000E-01;  9.9999998E-03;  3.8000000E-01;2172;  0.0000000E+00;  0.0000000E+00;  0.0000000E+00;  1.0012150E+03;  1.0000000E-01;  1.0065888E+03;0;  0.0000000E+00;  0.0000000E+00;  0.0000000E+00;0;  7.5061326E-03;  4.0000000E+04;  0.0000000E+00;  0.0000000E+00;  4.0000000E+04;  0.0000000E+00;  4.0000000E+04;  3.6473791E-03;  0.0000000E+00;  3.8587535E-03;  4.3990708E+03;
  1.1000000E-01;  9.9999998E-03;  3.8999999E-01;2173;  0.0000000E+00;  0.0000000E+00;  0.0000000E+00;  1.0007962E+03;  1.0000000E-01;  6.5963568E+02;0;  0.0000000E+00;  0.0000000E+00;  0.0000000E+00;0;  5.2219192E-03;  4.0000000E+04;  0.0000000E+00;  0.0000000E+00;  4.0000000E+04;  0.0000000E+00;  4.0000000E+04;  2.3094788E-03;  0.0000000E+00;  2.9124401E-03;  3.4130103E+03;
  1.1000000E-01;  9.9999998E-03;  4.0000001E-01;2174;  0.0000000E+00;  0.0000000E+00;  0.0000000E+00;  1.0004890E+03;  1.0000000E-01;  4.0512436E+02;0;  0.0000000E+00;  0.0000000E+00;  0.0000000E+00;0;  3.4376816E-03;  4.0000000E+04;  0.0000000E+00;  0.0000000E+00;  4.0000000E+04;  0.0000000E+00;  4.0000000E+04;  1.3801263E-03;  0.0000000E+00;  2.0575554E-03;  2.4569026E+03;
  1.2000000E-01;  9.9999998E-03;  3.1000000E-01;2195;  0.0000000E+00;  0.0000000E+00;  0.0000000E+00;  1.0084979E+03;  1.0000000E-01;  7.0402949E+03;0;  0.0000000E+00;  0.0000000E+00;  0.0000000E+00;0;  4.0351707E-02;  4.0000000E+04;  0.0000000E+00;  0.0000000E+00;  4.0000000E+04;  0.0000000E+00;  4.0000000E+04;  3.0317206E-02;  0.0000000E+00;  1.0034502E-02;  1.5896374E+04;
  1.2000000E-01;  9.9999998E-03;  3.1999999E-01;2196;  0.0000000E+00;  0.0000000E+00;  0.0000000E+00;  1.0072114E+03;  1.0000000E-01;  5.9745469E+03;0;  0.0000000E+00;  0.0000000E+00;  0.0000000E+00;0;  3.5024986E-02;  4.0000000E+04;  0.0000000E+00;  0.0000000E+00;  4.0000000E+04;  0.0000000E+00;  4.0000000E+04;  2.5003903E-02;  0.0000000E+00;  1.0021085E-02;  1.4115863E+04;
  1.2000000E-01;  9.9999998E-03;  3.3000001E-01;2197;  0.0000000E+00;  0.0000000E+00;  0.0000000E+00;  1.0059136E+03;  1.0000000E-01;  4.8993184E+03;0;  0.0000000E+00;  0.0000000E+00;  0.0000000E+00;0;  2.9510640E-02;  4.0000000E+04;  0.0000000E+00;  0.0000000E+00;  4.0000000E+04;  0.0000000E+00;  4.0000000E+04;  2.0001097E-02;  0.0000000E+00;  9.5095439E-03;  1.2098519E+04;
  1.2000000E-01;  9.9999998E-03;  3.4000000E-01;2198;  0.0000000E+00;  0.0000000E+00;  0.0000000E+00;  1.0046843E+03;  1.0000000E-01;  3.8808779E+03;0;  0.0000000E+00;  0.0000000E+00;  0.0000000E+00;0;  2.4161499E-02;  4.0000000E+04;  0.0000000E+00;  0.0000000E+00;  4.0000000E+04;  0.0000000E+00;  4.0000000E+04;  1.5489739E-02;  0.0000000E+00;  8.6717587E-03;  1.0184507E+04;
  1.2000000E-01;  9.9999998E-03;  3.4999999E-01;2199;  0.0000000E+00;  0.0000000E+00;  0.0000000E+00;  1.0035838E+03;  1.0000000E-01;  2.9691013E+03;0;  0.0000000E+00;  0.0000000E+00;  0.0000000E+00;0;  1.9235216E-02;  4.0000000E+04;  0.0000000E+00;  0.0000000E+00;  4.0000000E+04;  0.0000000E+00;  4.0000000E+04;  1.1587547E-02;  0.0000000E+00;  7.6476685E-03;  8.5414873E+03;
  1.2000000E-01;  9.9999998E-03;  3.6000001E-01;2200;  0.0000000E+00;  0.0000000E+00;  0.0000000E+00;  1.0026437E+03;  1.0000000E-01;  2.1902590E+03;0;  0.0000000E+00;  0.0000000E+00;  0.0000000E+00;0;  1.4888402E-02;  4.0000000E+04;  0.0000000E+00;  0.0000000E+00;  4.0000000E+04;  0.0000000E+00;  4.0000000E+04;  8.3496701E-03;  0.0000000E+00;  6.5387320E-03;  7.1717749E+03;
  1.2000000E-01;  9.9999998E-03;  3.7000000E-01;2201;  0.0000000E+00;  0.0000000E+00;  0.0000000E+00;  1.0018773E+03;  1.0000000E-01;  1.5553141E+03;0;  0.0000000E+00;  0.0000000E+00;  0.0000000E+00;0;  1.1188446E-02;  4.0000000E+04;  0.0000000E+00;  0.0000000E+00;  4.0000000E+04;  0.0000000E+00;  4.0000000E+04;  5.7747103E-03;  0.0000000E+00;  5.4137353E-03;  5.9886455E+03;
  1.2000000E-01;  9.9999998E-03;  3.8000000E-01;2202;  0.0000000E+00;  0.0000000E+00;  0.0000000E+00;  1.0012737E+03;  1.0000000E-01;  1.0551801E+03;0;  0.0000000E+00;  0.0000000E+00;  0.0000000E+00;0;  8.1342924E-03;  4.0000000E+04;  0.0000000E+00;  0.0000000E+00;  4.0000000E+04;  0.0000000E+00;  4.0000000E+04;  3.8155671E-03;  0.0000000E+00;  4.3187258E-03;  4.8991792E+03;
  1.2000000E-01;  9.9999998E-03;  3.8999999E-01;2203;  0.0000000E+00;  0.0000000E+00;  0.0000000E+00;  1.0008260E+03;  1.0000000E-01;  6.8432635E+02;0;  0.0000000E+00;  0.0000000E+00;  0.0000000E+00;0;  5.6811729E-03;  4.0000000E+04;  0.0000000E+00;  0.0000000E+00;  4.0000000E+04;  0.0000000E+00;  4.0000000E+04;  2.3935782E-03;  0.0000000E+00;  3.2875950E-03;  3.8498845E+03;
  1.2000000E-01;  9.9999998E-03;  4.0000001E-01;2204;  0.0000000E+00;  0.0000000E+00;  0.0000000E+00;  1.0005012E+03;  1.0000000E-01;  4.1529691E+02;0;  0.0000000E+00;  0.0000000E+00;  0.0000000E+00;0;  3.7643665E-03;  4.0000000E+04;  0.0000000E+00;  0.0000000E+00;  4.0000000E+04;  0.0000000E+00;  4.0000000E+04;  1.4132410E-03;  0.0000000E+00;  2.3511255E-03;  2.8374351E+03;
  1.3000000E-01;  9.9999998E-03;  3.1000000E-01;2225;  0.0000000E+00;  0.0000000E+00;  0.0000000E+00;  1.0089764E+03;  1.0000000E-01;  7.4368267E+03;0;  0.0000000E+00;  0.0000000E+00;  0.0000000E+00;0;  4.1595109E-02;  4.0000000E+04;  0.0000000E+00;  0.0000000E+00;  4.0000000E+04;  0.0000000E+00;  4.0000000E+04;  3.0835183E-02;  0.0000000E+00;  1.0759925E-02;  2.5592359E+04;
  1.3000000E-01;  9.9999998E-03;  3.1999999E-01;2226;  0.0000000E+00;  0.0000000E+00;  0.0000000E+00;  1.0076687E+03;  1.0000000E-01;  6.3534004E+03;0;  0.0000000E+00;  0.0000000E+00;  0.0000000E+00;0;  3.6421120E-02;  4.0000000E+04;  0.0000000E+00;  0.0000000E+00;  4.0000000E+04;  0.0000000E+00;  4.0000000E+04;  2.5624013E-02;  0.0000000E+00;  1.0797109E-02;  2.2379055E+04;
  1.3000000E-01;  9.9999998E-03;  3.3000001E-01;2227;  0.0000000E+00;  0.0000000E+00;  0.0000000E+00;  1.0063262E+03;  1.0000000E-01;  5.2411357E+03;0;  0.0000000E+00;  0.0000000E+00;  0.0000000E+00;0;  3.0912038E-02;  4.0000000E+04;  0.0000000E+00;  0.0000000E+00;  4.0000000E+04;  0.0000000E+00;  4.0000000E+04;  2.0636087E-02;  0.0000000E+00;  1.0275952E-02;  1.8449736E+04;
  1.3000000E-01;  9.9999998E-03;  3.4000000E-01;2228;  0.0000000E+00;  0.0000000E+00;  0.0000000E+00;  1.0050360E+03;  1.0000000E-01;  4.1722275E+03;0;  0.0000000E+00;  0.0000000E+00;  0.0000000E+00;0;  2.5459288E-02;  4.0000000E+04;  0.0000000E+00;  0.0000000E+00;  4.0000000E+04;  0.0000000E+00;  4.0000000E+04;  1.6066052E-02;  0.0000000E+00;  9.3932357E-03;  1.4519254E+04;
  1.3000000E-01;  9.9999998E-03;  3.4999999E-01;2229;  0.0000000E+00;  0.0000000E+00;  0.0000000E+00;  1.0038636E+03;  1.0000000E-01;  3.2008972E+03;0;  0.0000000E+00;  0.0000000E+00;  0.0000000E+00;0;  2.0361386E-02;  4.0000000E+04;  0.0000000E+00;  0.0000000E+00;  4.0000000E+04;  0.0000000E+00;  4.0000000E+04;  1.2056677E-02;  0.0000000E+00;  8.3047096E-03;  1.1112064E+04;
  1.3000000E-01;  9.9999998E-03;  3.6000001E-01;2230;  0.0000000E+00;  0.0000000E+00;  0.0000000E+00;  1.0028534E+03;  1.0000000E-01;  2.3639824E+03;0;  0.0000000E+00;  0.0000000E+00;  0.0000000E+00;0;  1.5811414E-02;  4.0000000E+04;  0.0000000E+00;  0.0000000E+00;  4.0000000E+04;  0.0000000E+00;  4.0000000E+04;  8.6904066E-03;  0.0000000E+00;  7.1210065E-03;  8.4849912E+03;
  1.3000000E-01;  9.9999998E-03;  3.7000000E-01;2231;  0.0000000E+00;  0.0000000E+00;  0.0000000E+00;  1.0020213E+03;  1.0000000E-01;  1.6746193E+03;0;  0.0000000E+00;  0.0000000E+00;  0.0000000E+00;0;  1.1906179E-02;  4.0000000E+04;  0.0000000E+00;  0.0000000E+00;  4.0000000E+04;  0.0000000E+00;  4.0000000E+04;  5.9900312E-03;  0.0000000E+00;  5.9161475E-03;  6.6237095E+03;
  1.3000000E-01;  9.9999998E-03;  3.8000000E-01;2232;  0.0000000E+00;  0.0000000E+00;  0.0000000E+00;  1.0013730E+03;  1.0000000E-01;  1.1375481E+03;0;  0.0000000E+00;  0.0000000E+00;  0.0000000E+00;0;  8.6652078E-03;  4.0000000E+04;  0.0000000E+00;  0.0000000E+00;  4.0000000E+04;  0.0000000E+00;  4.0000000E+04;  3.9257519E-03;  0.0000000E+00;  4.7394554E-03;  5.3090649E+03;
  1.3000000E-01;  9.9999998E-03;  3.8999999E-01;2233;  0.0000000E+00;  0.0000000E+00;  0.0000000E+00;  1.0008796E+03;  1.0000000E-01;  7.2867078E+02;0;  0.0000000E+00;  0.0000000E+00;  0.0000000E+00;0;  6.0553355E-03;  4.0000000E+04;  0.0000000E+00;  0.0000000E+00;  4.0000000E+04;  0.0000000E+00;  4.0000000E+04;  2.4281773E-03;  0.0000000E+00;  3.6271580E-03;  4.2627783E+03;
  1.3000000E-01;  9.9999998E-03;  4.0000001E-01;2234;  0.0000000E+00;  0.0000000E+00;  0.0000000E+00;  1.0005317E+03;  1.0000000E-01;  4.4058014E+02;0;  0.0000000E+00;  0.0000000E+00;  0.0000000E+00;0;  4.0158862E-03;  4.0000000E+04;  0.0000000E+00;  0.0000000E+00;  4.0000000E+04;  0.0000000E+00;  4.0000000E+04;  1.4036450E-03;  0.0000000E+00;  2.6122413E-03;  3.2910291E+03;
  1.4000000E-01;  9.9999998E-03;  3.1000000E-01;2255;  0.0000000E+00;  0.0000000E+00;  0.0000000E+00;  1.0095519E+03;  1.0000000E-01;  7.9135542E+03;0;  0.0000000E+00;  0.0000000E+00;  0.0000000E+00;0;  4.2391006E-02;  4.0000000E+04;  0.0000000E+00;  0.0000000E+00;  4.0000000E+04;  0.0000000E+00;  4.0000000E+04;  3.1063000E-02;  0.0000000E+00;  1.1328006E-02;  3.9122141E+04;
  1.4000000E-01;  9.9999998E-03;  3.1999999E-01;2256;  0.0000000E+00;  0.0000000E+00;  0.0000000E+00;  1.0082264E+03;  1.0000000E-01;  6.8154121E+03;0;  0.0000000E+00;  0.0000000E+00;  0.0000000E+00;0;  3.7469149E-02;  4.0000000E+04;  0.0000000E+00;  0.0000000E+00;  4.0000000E+04;  0.0000000E+00;  4.0000000E+04;  2.6038777E-02;  0.0000000E+00;  1.1430370E-02;  3.4503102E+04;
  1.4000000E-01;  9.9999998E-03;  3.3000001E-01;2257;  0.0000000E+00;  0.0000000E+00;  0.0000000E+00;  1.0068354E+03;  1.0000000E-01;  5.6630498E+03;0;  0.0000000E+00;  0.0000000E+00;  0.0000000E+00;0;  3.2060143E-02;  4.0000000E+04;  0.0000000E+00;  0.0000000E+00;  4.0000000E+04;  0.0000000E+00;  4.0000000E+04;  2.1137021E-02;  0.0000000E+00;  1.0923121E-02;  2.8310879E+04;
  1.4000000E-01;  9.9999998E-03;  3.4000000E-01;2258;  0.0000000E+00;  0.0000000E+00;  0.0000000E+00;  1.0054742E+03;  1.0000000E-01;  4.5352793E+03;0;  0.0000000E+00;  0.0000000E+00;  0.0000000E+00;0;  2.6579445E-02;  4.0000000E+04;  0.0000000E+00;  0.0000000E+00;  4.0000000E+04;  0.0000000E+00;  4.0000000E+04;  1.6561409E-02;  0.0000000E+00;  1.0018036E-02;  2.1684289E+04;
  1.4000000E-01;  9.9999998E-03;  3.4999999E-01;2259;  0.0000000E+00;  0.0000000E+00;  0.0000000E+00;  1.0042185E+03;  1.0000000E-01;  3.4949136E+03;0;  0.0000000E+00;  0.0000000E+00;  0.0000000E+00;0;  2.1363463E-02;  4.0000000E+04;  0.0000000E+00;  0.0000000E+00;  4.0000000E+04;  0.0000000E+00;  4.0000000E+04;  1.2479740E-02;  0.0000000E+00;  8.8837221E-03;  1.5590188E+04;
  1.4000000E-01;  9.9999998E-03;  3.6000001E-01;2260;  0.0000000E+00;  0.0000000E+00;  0.0000000E+00;  1.0031235E+03;  1.0000000E-01;  2.5877786E+03;0;  0.0000000E+00;  0.0000000E+00;  0.0000000E+00;0;  1.6644526E-02;  4.0000000E+04;  0.0000000E+00;  0.0000000E+00;  4.0000000E+04;  0.0000000E+00;  4.0000000E+04;  9.0051051E-03;  0.0000000E+00;  7.6394212E-03;  1.0702414E+04;
  1.4000000E-01;  9.9999998E-03;  3.7000000E-01;2261;  0.0000000E+00;  0.0000000E+00;  0.0000000E+00;  1.0022157E+03;  1.0000000E-01;  1.8357012E+03;0;  0.0000000E+00;  0.0000000E+00;  0.0000000E+00;0;  1.2553364E-02;  4.0000000E+04;  0.0000000E+00;  0.0000000E+00;  4.0000000E+04;  0.0000000E+00;  4.0000000E+04;  6.1886339E-03;  0.0000000E+00;  6.3647307E-03;  7.3840674E+03;
  1.4000000E-01;  9.9999998E-03;  3.8000000E-01;2262;  0.0000000E+00;  0.0000000E+00;  0.0000000E+00;  1.0014988E+03;  1.0000000E-01;  1.2417427E+03;0;  0.0000000E+00;  0.0000000E+00;  0.0000000E+00;0;  9.1349119E-03;  4.0000000E+04;  0.0000000E+00;  0.0000000E+00;  4.0000000E+04;  0.0000000E+00;  4.0000000E+04;  4.0219417E-03;  0.0000000E+00;  5.1129702E-03;  5.5851230E+03;
  1.4000000E-01;  9.9999998E-03;  3.8999999E-01;2263;  0.0000000E+00;  0.0000000E+00;  0.0000000E+00;  1.0009633E+03;  1.0000000E-01;  7.9810089E+02;0;  0.0000000E+00;  0.0000000E+00;  0.0000000E+00;0;  6.3719591E-03;  4.0000000E+04;  0.0000000E+00;  0.0000000E+00;  4.0000000E+04;  0.0000000E+00;  4.0000000E+04;  2.4480901E-03;  0.0000000E+00;  3.9238692E-03;  4.7039458E+03;
  1.4000000E-01;  9.9999998E-03;  4.0000001E-01;2264;  0.0000000E+00;  0.0000000E+00;  0.0000000E+00;  1.0005713E+03;  1.0000000E-01;  4.7327057E+02;0;  0.0000000E+00;  0.0000000E+00;  0.0000000E+00;0;  4.2114845E-03;  4.0000000E+04;  0.0000000E+00;  0.0000000E+00;  4.0000000E+04;  0.0000000E+00;  4.0000000E+04;  1.3774085E-03;  0.0000000E+00;  2.8340761E-03;  4.0009285E+03;
  1.5000001E-01;  9.9999998E-03;  3.1000000E-01;2285;  0.0000000E+00;  0.0000000E+00;  0.0000000E+00;  1.0101923E+03;  1.0000000E-01;  8.4441064E+03;0;  0.0000000E+00;  0.0000000E+00;  0.0000000E+00;0;  4.3138452E-02;  4.0000000E+04;  0.0000000E+00;  0.0000000E+00;  4.0000000E+04;  0.0000000E+00;  4.0000000E+04;  3.1354390E-02;  0.0000000E+00;  1.1784062E-02;  5.6908910E+04;
  1.5000001E-01;  9.9999998E-03;  3.1999999E-01;2286;  0.0000000E+00;  0.0000000E+00;  0.0000000E+00;  1.0088557E+03;  1.0000000E-01;  7.3367803E+03;0;  0.0000000E+00;  0.0000000E+00;  0.0000000E+00;0;  3.8479846E-02;  4.0000000E+04;  0.0000000E+00;  0.0000000E+00;  4.0000000E+04;  0.0000000E+00;  4.0000000E+04;  2.6521126E-02;  0.0000000E+00;  1.1958721E-02;  5.1071633E+04;
  1.5000001E-01;  9.9999998E-03;  3.3000001E-01;2287;  0.0000000E+00;  0.0000000E+00;  0.0000000E+00;  1.0074195E+03;  1.0000000E-01;  6.1468877E+03;0;  0.0000000E+00;  0.0000000E+00;  0.0000000E+00;0;  3.3192821E-02;  4.0000000E+04;  0.0000000E+00;  0.0000000E+00;  4.0000000E+04;  0.0000000E+00;  4.0000000E+04;  2.1710986E-02;  0.0000000E+00;  1.1481836E-02;  4.2338906E+04;
  1.5000001E-01;  9.9999998E-03;  3.4000000E-01;2288;  0.0000000E+00;  0.0000000E+00;  0.0000000E+00;  1.0059852E+03;  1.0000000E-01;  4.9586748E+03;0;  0.0000000E+00;  0.0000000E+00;  0.0000000E+00;0;  2.7703773E-02;  4.0000000E+04;  0.0000000E+00;  0.0000000E+00;  4.0000000E+04;  0.0000000E+00;  4.0000000E+04;  1.7132659E-02;  0.0000000E+00;  1.0571115E-02;  3.2362439E+04;
  1.5000001E-01;  9.9999998E-03;  3.4999999E-01;2289;  0.0000000E+00;  0.0000000E+00;  0.0000000E+00;  1.0046417E+03;  1.0000000E-01;  3.8455208E+03;0;  0.0000000E+00;  0.0000000E+00;  0.0000000E+00;0;  2.2381056E-02;  4.0000000E+04;  0.0000000E+00;  0.0000000E+00;  4.0000000E+04;  0.0000000E+00;  4.0000000E+04;  1.2976428E-02;  0.0000000E+00;  9.4046276E-03;  2.2665893E+04;
  1.5000001E-01;  9.9999998E-03;  3.6000001E-01;2290;  0.0000000E+00;  0.0000000E+00;  0.0000000E+00;  1.0034494E+03;  1.0000000E-01;  2.8577957E+03;0;  0.0000000E+00;  0.0000000E+00;  0.0000000E+00;0;  1.7496157E-02;  4.0000000E+04;  0.0000000E+00;  0.0000000E+00;  4.0000000E+04;  0.0000000E+00;  4.0000000E+04;  9.3863849E-03;  0.0000000E+00;  8.1097735E-03;  1.4420798E+04;
  1.5000001E-01;  9.9999998E-03;  3.7000000E-01;2291;  0.0000000E+00;  0.0000000E+00;  0.0000000E+00;  1.0024536E+03;  1.0000000E-01;  2.0327327E+03;0;  0.0000000E+00;  0.0000000E+00;  0.0000000E+00;0;  1.3215614E-02;  4.0000000E+04;  0.0000000E+00;  0.0000000E+00;  4.0000000E+04;  0.0000000E+00;  4.0000000E+04;  6.4435401E-03;  0.0000000E+00;  6.7720744E-03;  8.5162852E+03;
  1.5000001E-01;  9.9999998E-03;  3.8000000E-01;2292;  0.0000000E+00;  0.0000000E+00;  0.0000000E+00;  1.0016602E+03;  1.0000000E-01;  1.3754673E+03;0;  0.0000000E+00;  0.0000000E+00;  0.0000000E+00;0;  9.6118422E-03;  4.0000000E+04;  0.0000000E+00;  0.0000000E+00;  4.0000000E+04;  0.0000000E+00;  4.0000000E+04;  4.1624014E-03;  0.0000000E+00;  5.4494408E-03;  5.6959717E+03;
  1.5000001E-01;  9.9999998E-03;  3.8999999E-01;2293;  0.0000000E+00;  0.0000000E+00;  0.0000000E+00;  1.0010599E+03;  1.0000000E-01;  8.7809863E+02;0;  0.0000000E+00;  0.0000000E+00;  0.0000000E+00;0;  6.6855447E-03;  4.0000000E+04;  0.0000000E+00;  0.0000000E+00;  4.0000000E+04;  0.0000000E+00;  4.0000000E+04;  2.4995720E-03;  0.0000000E+00;  4.1859727E-03;  5.3523828E+03;
  1.5000001E-01;  9.9999998E-03;  4.0000001E-01;2294;  0.0000000E+00;  0.0000000E+00;  0.0000000E+00;  1.0006391E+03;  1.0000000E-01;  5.2946649E+02;0;  0.0000000E+00;  0.0000000E+00;  0.0000000E+00;0;  4.3934216E-03;  4.0000000E+04;  0.0000000E+00;  0.0000000E+00;  4.0000000E+04;  0.0000000E+00;  4.0000000E+04;  1.3703763E-03;  0.0000000E+00;  3.0230454E-03;  5.3250620E+03;
  1.6000000E-01;  9.9999998E-03;  3.1000000E-01;2315;  0.0000000E+00;  0.0000000E+00;  0.0000000E+00;  1.0108387E+03;  1.0000000E-01;  8.9796963E+03;0;  0.0000000E+00;  0.0000000E+00;  0.0000000E+00;0;  4.4273183E-02;  4.0000000E+04;  0.0000000E+00;  0.0000000E+00;  4.0000000E+04;  0.0000000E+00;  4.0000000E+04;  3.2038692E-02;  0.0000000E+00;  1.2234489E-02;  7.9145281E+04;
  1.6000000E-01;  9.9999998E-03;  3.1999999E-01;2316;  0.0000000E+00;  0.0000000E+00;  0.0000000E+00;  1.0095045E+03;  1.0000000E-01;  7.8743452E+03;0;  0.0000000E+00;  0.0000000E+00;  0.0000000E+00;0;  3.9813749E-02;  4.0000000E+04;  0.0000000E+00;  0.0000000E+00;  4.0000000E+04;  0.0000000E+00;  4.0000000E+04;  2.7336277E-02;  0.0000000E+00;  1.2477472E-02;  7.2412391E+04;
  1.6000000E-01;  9.9999998E-03;  3.3000001E-01;2317;  0.0000000E+00;  0.0000000E+00;  0.0000000E+00;  1.0080311E+03;  1.0000000E-01;  6.6535400E+03;0;  0.0000000E+00;  0.0000000E+00;  0.0000000E+00;0;  3.4598205E-02;  4.0000000E+04;  0.0000000E+00;  0.0000000E+00;  4.0000000E+04;  0.0000000E+00;  4.0000000E+04;  2.2565637E-02;  0.0000000E+00;  1.2032568E-02;  6.0911027E+04;
  1.6000000E-01;  9.9999998E-03;  3.4000000E-01;2318;  0.0000000E+00;  0.0000000E+00;  0.0000000E+00;  1.0065250E+03;  1.0000000E-01;  5.4057729E+03;0;  0.0000000E+00;  0.0000000E+00;  0.0000000E+00;0;  2.9057788E-02;  4.0000000E+04;  0.0000000E+00;  0.0000000E+00;  4.0000000E+04;  0.0000000E+00;  4.0000000E+04;  1.7938858E-02;  0.0000000E+00;  1.1118930E-02;  4.6924965E+04;
  1.6000000E-01;  9.9999998E-03;  3.4999999E-01;2319;  0.0000000E+00;  0.0000000E+00;  0.0000000E+00;  1.0050894E+03;  1.0000000E-01;  4.2164731E+03;0;  0.0000000E+00;  0.0000000E+00;  0.0000000E+00;0;  2.3589622E-02;  4.0000000E+04;  0.0000000E+00;  0.0000000E+00;  4.0000000E+04;  0.0000000E+00;  4.0000000E+04;  1.3667631E-02;  0.0000000E+00;  9.9219913E-03;  3.2699396E+04;
  1.6000000E-01;  9.9999998E-03;  3.6000001E-01;2320;  0.0000000E+00;  0.0000000E+00;  0.0000000E+00;  1.0038042E+03;  1.0000000E-01;  3.1517134E+03;0;  0.0000000E+00;  0.0000000E+00;  0.0000000E+00;0;  1.8503599E-02;  4.0000000E+04;  0.0000000E+00;  0.0000000E+00;  4.0000000E+04;  0.0000000E+00;  4.0000000E+04;  9.9267634E-03;  0.0000000E+00;  8.5768364E-03;  2.0026896E+04;
  1.6000000E-01;  9.9999998E-03;  3.7000000E-01;2321;  0.0000000E+00;  0.0000000E+00;  0.0000000E+00;  1.0027111E+03;  1.0000000E-01;  2.2460598E+03;0;  0.0000000E+00;  0.0000000E+00;  0.0000000E+00;0;  1.4002228E-02;  4.0000000E+04;  0.0000000E+00;  0.0000000E+00;  4.0000000E+04;  0.0000000E+00;  4.0000000E+04;  6.8270764E-03;  0.0000000E+00;  7.1751513E-03;  1.0316539E+04;
  1.6000000E-01;  9.9999998E-03;  3.8000000E-01;2322;  0.0000000E+00;  0.0000000E+00;  0.0000000E+00;  1.0018440E+03;  1.0000000E-01;  1.5277593E+03;0;  0.0000000E+00;  0.0000000E+00;  0.0000000E+00;0;  1.0185043E-02;  4.0000000E+04;  0.0000000E+00;  0.0000000E+00;  4.0000000E+04;  0.0000000E+00;  4.0000000E+04;  4.4053048E-03;  0.0000000E+00;  5.7797385E-03;  5.6271577E+03;
  1.6000000E-01;  9.9999998E-03;  3.8999999E-01;2323;  0.0000000E+00;  0.0000000E+00;  0.0000000E+00;  1.0011819E+03;  1.0000000E-01;  9.7913281E+02;0;  0.0000000E+00;  0.0000000E+00;  0.0000000E+00;0;  7.0697390E-03;  4.0000000E+04;  0.0000000E+00;  0.0000000E+00;  4.0000000E+04;  0.0000000E+00;  4.0000000E+04;  2.6305034E-03;  0.0000000E+00;  4.4392357E-03;  6.5378345E+03;
  1.6000000E-01;  9.9999998E-03;  4.0000001E-01;2324;  0.0000000E+00;  0.0000000E+00;  0.0000000E+00;  1.0007123E+03;  1.0000000E-01;  5.9020551E+02;0;  0.0000000E+00;  0.0000000E+00;  0.0000000E+00;0;  4.6220282E-03;  4.0000000E+04;  0.0000000E+00;  0.0000000E+00;  4.0000000E+04;  0.0000000E+00;  4.0000000E+04;  1.4218241E-03;  0.0000000E+00;  3.2002039E-03;  7.6768438E+03;
  1.7000000E-01;  9.9999998E-03;  3.1000000E-01;2345;  0.0000000E+00;  0.0000000E+00;  0.0000000E+00;  1.0114141E+03;  1.0000000E-01;  9.4563252E+03;0;  0.0000000E+00;  0.0000000E+00;  0.0000000E+00;0;  4.6162892E-02;  4.0000000E+04;  0.0000000E+00;  0.0000000E+00;  4.0000000E+04;  0.0000000E+00;  4.0000000E+04;  3.3331327E-02;  0.0000000E+00;  1.2831565E-02;  1.0549085E+05;
  1.7000000E-01;  9.9999998E-03;  3.1999999E-01;2346;  0.0000000E+00;  0.0000000E+00;  0.0000000E+00;  1.0100947E+03;  1.0000000E-01;  8.3632207E+03;0;  0.0000000E+00;  0.0000000E+00;  0.0000000E+00;0;  4.1785456E-02;  4.0000000E+04;  0.0000000E+00;  0.0000000E+00;  4.0000000E+04;  0.0000000E+00;  4.0000000E+04;  2.8661964E-02;  0.0000000E+00;  1.3123491E-02;  9.8211320E+04;
  1.7000000E-01;  9.9999998E-03;  3.3000001E-01;2347;  0.0000000E+00;  0.0000000E+00;  0.0000000E+00;  1.0085916E+03;  1.0000000E-01;  7.1179224E+03;0;  0.0000000E+00;  0.0000000E+00;  0.0000000E+00;0;  3.6531135E-02;  4.0000000E+04;  0.0000000E+00;  0.0000000E+00;  4.0000000E+04;  0.0000000E+00;  4.0000000E+04;  2.3837849E-02;  0.0000000E+00;  1.2693287E-02;  8.3736898E+04;
  1.7000000E-01;  9.9999998E-03;  3.4000000E-01;2348;  0.0000000E+00;  0.0000000E+00;  0.0000000E+00;  1.0070282E+03;  1.0000000E-01;  5.8227490E+03;0;  0.0000000E+00;  0.0000000E+00;  0.0000000E+00;0;  3.0840313E-02;  4.0000000E+04;  0.0000000E+00;  0.0000000E+00;  4.0000000E+04;  0.0000000E+00;  4.0000000E+04;  1.9078625E-02;  0.0000000E+00;  1.1761688E-02;  6.5124469E+04;
  1.7000000E-01;  9.9999998E-03;  3.4999999E-01;2349;  0.0000000E+00;  0.0000000E+00;  0.0000000E+00;  1.0055112E+03;  1.0000000E-01;  4.5659941E+03;0;  0.0000000E+00;  0.0000000E+00;  0.0000000E+00;0;  2.5142659E-02;  4.0000000E+04;  0.0000000E+00;  0.0000000E+00;  4.0000000E+04;  0.0000000E+00;  4.0000000E+04;  1.4622131E-02;  0.0000000E+00;  1.0520526E-02;  4.5513070E+04;
  1.7000000E-01;  9.9999998E-03;  3.6000001E-01;2350;  0.0000000E+00;  0.0000000E+00;  0.0000000E+00;  1.0041365E+03;  1.0000000E-01;  3.4270635E+03;0;  0.0000000E+00;  0.0000000E+00;  0.0000000E+00;0;  1.9787697E-02;  4.0000000E+04;  0.0000000E+00;  0.0000000E+00;  4.0000000E+04;  0.0000000E+00;  4.0000000E+04;  1.0675468E-02;  0.0000000E+00;  9.1122296E-03;  2.7462131E+04;
  1.7000000E-01;  9.9999998E-03;  3.7000000E-01;2351;  0.0000000E+00;  0.0000000E+00;  0.0000000E+00;  1.0029653E+03;  1.0000000E-01;  2.4567207E+03;0;  0.0000000E+00;  0.0000000E+00;  0.0000000E+00;0;  1.5012383E-02;  4.0000000E+04;  0.0000000E+00;  0.0000000E+00;  4.0000000E+04;  0.0000000E+00;  4.0000000E+04;  7.3776864E-03;  0.0000000E+00;  7.6346966E-03;  1.2912414E+04;
  1.7000000E-01;  9.9999998E-03;  3.8000000E-01;2352;  0.0000000E+00;  0.0000000E+00;  0.0000000E+00;  1.0020190E+03;  1.0000000E-01;  1.6726440E+03;0;  0.0000000E+00;  0.0000000E+00;  0.0000000E+00;0;  1.0939579E-02;  4.0000000E+04;  0.0000000E+00;  0.0000000E+00;  4.0000000E+04;  0.0000000E+00;  4.0000000E+04;  4.7841109E-03;  0.0000000E+00;  6.1554685E-03;  5.3889307E+03;
  1.7000000E-01;  9.9999998E-03;  3.8999999E-01;2353;  0.0000000E+00;  0.0000000E+00;  0.0000000E+00;  1.0012995E+03;  1.0000000E-01;  1.0766116E+03;0;  0.0000000E+00;  0.0000000E+00;  0.0000000E+00;0;  7.5993789E-03;  4.0000000E+04;  0.0000000E+00;  0.0000000E+00;  4.0000000E+04;  0.0000000E+00;  4.0000000E+04;  2.8720733E-03;  0.0000000E+00;  4.7273054E-03;  8.5881621E+03;
  1.7000000E-01;  9.9999998E-03;  4.0000001E-01;2354;  0.0000000E+00;  0.0000000E+00;  0.0000000E+00;  1.0007780E+03;  1.0000000E-01;  6.4452496E+02;0;  0.0000000E+00;  0.0000000E+00;  0.0000000E+00;0;  4.9626492E-03;  4.0000000E+04;  0.0000000E+00;  0.0000000E+00;  4.0000000E+04;  0.0000000E+00;  4.0000000E+04;  1.5609860E-03;  0.0000000E+00;  3.4016632E-03;  1.1309587E+04;
  1.8000001E-01;  9.9999998E-03;  3.1000000E-01;2375;  0.0000000E+00;  0.0000000E+00;  0.0000000E+00;  1.0118410E+03;  1.0000000E-01;  9.8100928E+03;0;  0.0000000E+00;  0.0000000E+00;  0.0000000E+00;0;  4.9012892E-02;  4.0000000E+04;  0.0000000E+00;  0.0000000E+00;  4.0000000E+04;  0.0000000E+00;  4.0000000E+04;  3.5265777E-02;  0.0000000E+00;  1.3747113E-02;  1.3461389E+05;
  1.8000001E-01;  9.9999998E-03;  3.1999999E-01;2376;  0.0000000E+00;  0.0000000E+00;  0.0000000E+00;  1.0105386E+03;  1.0000000E-01;  8.7310127E+03;0;  0.0000000E+00;  0.0000000E+00;  0.0000000E+00;0;  4.4564836E-02;  4.0000000E+04;  0.0000000E+00;  0.0000000E+00;  4.0000000E+04;  0.0000000E+00;  4.0000000E+04;  3.0512452E-02;  0.0000000E+00;  1.4052384E-02;  1.2700522E+05;
  1.8000001E-01;  9.9999998E-03;  3.3000001E-01;2377;  0.0000000E+00;  0.0000000E+00;  0.0000000E+00;  1.0090233E+03;  1.0000000E-01;  7.4756406E+03;0;  0.0000000E+00;  0.0000000E+00;  0.0000000E+00;0;  3.9118387E-02;  4.0000000E+04;  0.0000000E+00;  0.0000000E+00;  4.0000000E+04;  0.0000000E+00;  4.0000000E+04;  2.5516009E-02;  0.0000000E+00;  1.3602377E-02;  1.0938376E+05;
  1.8000001E-01;  9.9999998E-03;  3.4000000E-01;2378;  0.0000000E+00;  0.0000000E+00;  0.0000000E+00;  1.0074165E+03;  1.0000000E-01;  6.1444189E+03;0;  0.0000000E+00;  0.0000000E+00;  0.0000000E+00;0;  3.3141270E-02;  4.0000000E+04;  0.0000000E+00;  0.0000000E+00;  4.0000000E+04;  0.0000000E+00;  4.0000000E+04;  2.0520533E-02;  0.0000000E+00;  1.2620738E-02;  8.5718211E+04;
  1.8000001E-01;  9.9999998E-03;  3.4999999E-01;2379;  0.0000000E+00;  0.0000000E+00;  0.0000000E+00;  1.0058417E+03;  1.0000000E-01;  4.8397642E+03;0;  0.0000000E+00;  0.0000000E+00;  0.0000000E+00;0;  2.7105996E-02;  4.0000000E+04;  0.0000000E+00;  0.0000000E+00;  4.0000000E+04;  0.0000000E+00;  4.0000000E+04;  1.5799981E-02;  0.0000000E+00;  1.1306016E-02;  6.0158832E+04;
  1.8000001E-01;  9.9999998E-03;  3.6000001E-01;2380;  0.0000000E+00;  0.0000000E+00;  0.0000000E+00;  1.0044033E+03;  1.0000000E-01;  3.6479956E+03;0;  0.0000000E+00;  0.0000000E+00;  0.0000000E+00;0;  2.1402489E-02;  4.0000000E+04;  0.0000000E+00;  0.0000000E+00;  4.0000000E+04;  0.0000000E+00;  4.0000000E+04;  1.1594241E-02;  0.0000000E+00;  9.8082470E-03;  3.6117387E+04;
  1.8000001E-01;  9.9999998E-03;  3.7000000E-01;2381;  0.0000000E+00;  0.0000000E+00;  0.0000000E+00;  1.0031674E+03;  1.0000000E-01;  2.6241233E+03;0;  0.0000000E+00;  0.0000000E+00;  0.0000000E+00;0;  1.6296659E-02;  4.0000000E+04;  0.0000000E+00;  0.0000000E+00;  4.0000000E+04;  0.0000000E+00;  4.0000000E+04;  8.0652693E-03;  0.0000000E+00;  8.2313884E-03;  1.6094190E+04;
  1.8000001E-01;  9.9999998E-03;  3.8000000E-01;2382;  0.0000000E+00;  0.0000000E+00;  0.0000000E+00;  1.0021671E+03;  1.0000000E-01;  1.7954060E+03;0;  0.0000000E+00;  0.0000000E+00;  0.0000000E+00;0;  1.1926617E-02;  4.0000000E+04;  0.0000000E+00;  0.0000000E+00;  4.0000000E+04;  0.0000000E+00;  4.0000000E+04;  5.2796523E-03;  0.0000000E+00;  6.6469647E-03;  5.0353613E+03;
  1.8000001E-01;  9.9999998E-03;  3.8999999E-01;2383;  0.0000000E+00;  0.0000000E+00;  0.0000000E+00;  1.0014031E+03;  1.0000000E-01;  1.1624363E+03;0;  0.0000000E+00;  0.0000000E+00;  0.0000000E+00;0;  8.3268685E-03;  4.0000000E+04;  0.0000000E+00;  0.0000000E+00;  4.0000000E+04;  0.0000000E+00;  4.0000000E+04;  3.2160801E-03;  0.0000000E+00;  5.1107882E-03;  1.1578405E+04;
  1.8000001E-01;  9.9999998E-03;  4.0000001E-01;2384;  0.0000000E+00;  0.0000000E+00;  0.0000000E+00;  1.0008452E+03;  1.0000000E-01;  7.0022711E+02;0;  0.0000000E+00;  0.0000000E+00;  0.0000000E+00;0;  5.4671210E-03;  4.0000000E+04;  0.0000000E+00;  0.0000000E+00;  4.0000000E+04;  0.0000000E+00;  4.0000000E+04;  1.7890198E-03;  0.0000000E+00;  3.6781013E-03;  1.6190818E+04;
  1.9000000E-01;  9.9999998E-03;  3.1000000E-01;2405;  0.0000000E+00;  0.0000000E+00;  0.0000000E+00;  1.0120460E+03;  1.0000000E-01;  9.9798662E+03;0;  0.0000000E+00;  0.0000000E+00;  0.0000000E+00;0;  5.2804131E-02;  4.0000000E+04;  0.0000000E+00;  0.0000000E+00;  4.0000000E+04;  0.0000000E+00;  4.0000000E+04;  3.7662741E-02;  0.0000000E+00;  1.5141389E-02;  1.6385480E+05;
  1.9000000E-01;  9.9999998E-03;  3.1999999E-01;2406;  0.0000000E+00;  0.0000000E+00;  0.0000000E+00;  1.0107732E+03;  1.0000000E-01;  8.9253770E+03;0;  0.0000000E+00;  0.0000000E+00;  0.0000000E+00;0;  4.8105933E-02;  4.0000000E+04;  0.0000000E+00;  0.0000000E+00;  4.0000000E+04;  0.0000000E+00;  4.0000000E+04;  3.2688953E-02;  0.0000000E+00;  1.5416978E-02;  1.5591808E+05;
  1.9000000E-01;  9.9999998E-03;  3.3000001E-01;2407;  0.0000000E+00;  0.0000000E+00;  0.0000000E+00;  1.0092572E+03;  1.0000000E-01;  7.6694126E+03;0;  0.0000000E+00;  0.0000000E+00;  0.0000000E+00;0;  4.2295825E-02;  4.0000000E+04;  0.0000000E+00;  0.0000000E+00;  4.0000000E+04;  0.0000000E+00;  4.0000000E+04;  2.7395034E-02;  0.0000000E+00;  1.4900791E-02;  1.3511375E+05;
  1.9000000E-01;  9.9999998E-03;  3.4000000E-01;2408;  0.0000000E+00;  0.0000000E+00;  0.0000000E+00;  1.0076368E+03;  1.0000000E-01;  6.3269321E+03;0;  0.0000000E+00;  0.0000000E+00;  0.0000000E+00;0;  3.5894997E-02;  4.0000000E+04;  0.0000000E+00;  0.0000000E+00;  4.0000000E+04;  0.0000000E+00;  4.0000000E+04;  2.2071924E-02;  0.0000000E+00;  1.3823071E-02;  1.0639881E+05;
  1.9000000E-01;  9.9999998E-03;  3.4999999E-01;2409;  0.0000000E+00;  0.0000000E+00;  0.0000000E+00;  1.0060339E+03;  1.0000000E-01;  4.9989697E+03;0;  0.0000000E+00;  0.0000000E+00;  0.0000000E+00;0;  2.9426131E-02;  4.0000000E+04;  0.0000000E+00;  0.0000000E+00;  4.0000000E+04;  0.0000000E+00;  4.0000000E+04;  1.7033596E-02;  0.0000000E+00;  1.2392535E-02;  7.4925953E+04;
  1.9000000E-01;  9.9999998E-03;  3.6000001E-01;2410;  0.0000000E+00;  0.0000000E+00;  0.0000000E+00;  1.0045631E+03;  1.0000000E-01;  3.7804363E+03;0;  0.0000000E+00;  0.0000000E+00;  0.0000000E+00;0;  2.3314055E-02;  4.0000000E+04;  0.0000000E+00;  0.0000000E+00;  4.0000000E+04;  0.0000000E+00;  4.0000000E+04;  1.2546026E-02;  0.0000000E+00;  1.0768028E-02;  4.4910566E+04;
  1.9000000E-01;  9.9999998E-03;  3.7000000E-01;2411;  0.0000000E+00;  0.0000000E+00;  0.0000000E+00;  1.0032974E+03;  1.0000000E-01;  2.7318733E+03;0;  0.0000000E+00;  0.0000000E+00;  0.0000000E+00;0;  1.7842017E-02;  4.0000000E+04;  0.0000000E+00;  0.0000000E+00;  4.0000000E+04;  0.0000000E+00;  4.0000000E+04;  8.7831626E-03;  0.0000000E+00;  9.0588536E-03;  1.9374996E+04;
  1.9000000E-01;  9.9999998E-03;  3.8000000E-01;2412;  0.0000000E+00;  0.0000000E+00;  0.0000000E+00;  1.0022699E+03;  1.0000000E-01;  1.8805394E+03;0;  0.0000000E+00;  0.0000000E+00;  0.0000000E+00;0;  1.3151361E-02;  4.0000000E+04;  0.0000000E+00;  0.0000000E+00;  4.0000000E+04;  0.0000000E+00;  4.0000000E+04;  5.8124945E-03;  0.0000000E+00;  7.3388666E-03;  4.6941016E+03;
  1.9000000E-01;  9.9999998E-03;  3.8999999E-01;2413;  0.0000000E+00;  0.0000000E+00;  0.0000000E+00;  1.0014746E+03;  1.0000000E-01;  1.2216938E+03;0;  0.0000000E+00;  0.0000000E+00;  0.0000000E+00;0;  9.2710704E-03;  4.0000000E+04;  0.0000000E+00;  0.0000000E+00;  4.0000000E+04;  0.0000000E+00;  4.0000000E+04;  3.6062542E-03;  0.0000000E+00;  5.6648161E-03;  1.5271556E+04;
  1.9000000E-01;  9.9999998E-03;  4.0000001E-01;2414;  0.0000000E+00;  0.0000000E+00;  0.0000000E+00;  1.0009033E+03;  1.0000000E-01;  7.4842328E+02;0;  0.0000000E+00;  0.0000000E+00;  0.0000000E+00;0;  6.1629433E-03;  4.0000000E+04;  0.0000000E+00;  0.0000000E+00;  4.0000000E+04;  0.0000000E+00;  4.0000000E+04;  2.0691585E-03;  0.0000000E+00;  4.0937848E-03;  2.1982316E+04;
  2.0000000E-01;  9.9999998E-03;  3.1000000E-01;2434;  0.0000000E+00;  0.0000000E+00;  0.0000000E+00;  1.0120170E+03;  1.0000000E-01;  9.9558662E+03;0;  0.0000000E+00;  0.0000000E+00;  0.0000000E+00;0;  5.7228625E-02;  4.0000000E+04;  0.0000000E+00;  0.0000000E+00;  4.0000000E+04;  0.0000000E+00;  4.0000000E+04;  4.0076666E-02;  0.0000000E+00;  1.7151957E-02;  1.8949209E+05;
  2.0000000E-01;  9.9999998E-03;  3.1999999E-01;2435;  0.0000000E+00;  0.0000000E+00;  0.0000000E+00;  1.0107845E+03;  1.0000000E-01;  8.9347598E+03;0;  0.0000000E+00;  0.0000000E+00;  0.0000000E+00;0;  5.2120924E-02;  4.0000000E+04;  0.0000000E+00;  0.0000000E+00;  4.0000000E+04;  0.0000000E+00;  4.0000000E+04;  3.4768708E-02;  0.0000000E+00;  1.7352216E-02;  1.8111062E+05;
  2.0000000E-01;  9.9999998E-03;  3.3000001E-01;2436;  0.0000000E+00;  0.0000000E+00;  0.0000000E+00;  1.0092962E+03;  1.0000000E-01;  7.7017080E+03;0;  0.0000000E+00;  0.0000000E+00;  0.0000000E+00;0;  4.5816295E-02;  4.0000000E+04;  0.0000000E+00;  0.0000000E+00;  4.0000000E+04;  0.0000000E+00;  4.0000000E+04;  2.9104130E-02;  0.0000000E+00;  1.6712163E-02;  1.5747850E+05;
  2.0000000E-01;  9.9999998E-03;  3.4000000E-01;2437;  0.0000000E+00;  0.0000000E+00;  0.0000000E+00;  1.0076882E+03;  1.0000000E-01;  6.3694990E+03;0;  0.0000000E+00;  0.0000000E+00;  0.0000000E+00;0;  3.8908817E-02;  4.0000000E+04;  0.0000000E+00;  0.0000000E+00;  4.0000000E+04;  0.0000000E+00;  4.0000000E+04;  2.3428034E-02;  0.0000000E+00;  1.5480782E-02;  1.2441188E+05;
  2.0000000E-01;  9.9999998E-03;  3.4999999E-01;2438;  0.0000000E+00;  0.0000000E+00;  0.0000000E+00;  1.0060963E+03;  1.0000000E-01;  5.0506226E+03;0;  0.0000000E+00;  0.0000000E+00;  0.0000000E+00;0;  3.1967379E-02;  4.0000000E+04;  0.0000000E+00;  0.0000000E+00;  4.0000000E+04;  0.0000000E+00;  4.0000000E+04;  1.8083533E-02;  0.0000000E+00;  1.3883846E-02;  8.7860617E+04;
  2.0000000E-01;  9.9999998E-03;  3.6000001E-01;2439;  0.0000000E+00;  0.0000000E+00;  0.0000000E+00;  1.0046259E+03;  1.0000000E-01;  3.8324841E+03;0;  0.0000000E+00;  0.0000000E+00;  0.0000000E+00;0;  2.5437135E-02;  4.0000000E+04;  0.0000000E+00;  0.0000000E+00;  4.0000000E+04;  0.0000000E+00;  4.0000000E+04;  1.3347193E-02;  0.0000000E+00;  1.2089942E-02;  5.2660090E+04;
  2.0000000E-01;  9.9999998E-03;  3.7000000E-01;2440;  0.0000000E+00;  0.0000000E+00;  0.0000000E+00;  1.0033584E+03;  1.0000000E-01;  2.7823411E+03;0;  0.0000000E+00;  0.0000000E+00;  0.0000000E+00;0;  1.9603107E-02;  4.0000000E+04;  0.0000000E+00;  0.0000000E+00;  4.0000000E+04;  0.0000000E+00;  4.0000000E+04;  9.3916571E-03;  0.0000000E+00;  1.0211451E-02;  2.2230980E+04;
  2.0000000E-01;  9.9999998E-03;  3.8000000E-01;2441;  0.0000000E+00;  0.0000000E+00;  0.0000000E+00;  1.0023248E+03;  1.0000000E-01;  1.9260690E+03;0;  0.0000000E+00;  0.0000000E+00;  0.0000000E+00;0;  1.4597293E-02;  4.0000000E+04;  0.0000000E+00;  0.0000000E+00;  4.0000000E+04;  0.0000000E+00;  4.0000000E+04;  6.2760431E-03;  0.0000000E+00;  8.3212499E-03;  4.5662632E+03;
  2.0000000E-01;  9.9999998E-03;  3.8999999E-01;2442;  0.0000000E+00;  0.0000000E+00;  0.0000000E+00;  1.0015335E+03;  1.0000000E-01;  1.2704825E+03;0;  0.0000000E+00;  0.0000000E+00;  0.0000000E+00;0;  1.0434896E-02;  4.0000000E+04;  0.0000000E+00;  0.0000000E+00;  4.0000000E+04;  0.0000000E+00;  4.0000000E+04;  3.9612739E-03;  0.0000000E+00;  6.4736214E-03;  1.9271283E+04;
  2.0000000E-01;  9.9999998E-03;  4.0000001E-01;2443;  0.0000000E+00;  0.0000000E+00;  0.0000000E+00;  1.0009548E+03;  1.0000000E-01;  7.9108875E+02;0;  0.0000000E+00;  0.0000000E+00;  0.0000000E+00;0;  7.0648803E-03;  4.0000000E+04;  0.0000000E+00;  0.0000000E+00;  4.0000000E+04;  0.0000000E+00;  4.0000000E+04;  2.3405454E-03;  0.0000000E+00;  4.7243349E-03;  2.8170141E+04;
 -1.9000000E-01;  9.9999998E-03;  4.1000000E-01;175;  0.0000000E+00;  0.0000000E+00;  0.0000000E+00;  1.0000000E+03;  1.0000000E-01;  0.0000000E+00;0;  0.0000000E+00;  0.0000000E+00;  0.0000000E+00;0;  0.0000000E+00;  4.0000000E+04;  0.0000000E+00;  0.0000000E+00;  4.0000000E+04;  0.0000000E+00;  4.0000000E+04;  0.0000000E+00;  0.0000000E+00;  0.0000000E+00;  0.0000000E+00;
 -1.9000000E-01;  9.9999998E-03;  4.1999999E-01;176;  0.0000000E+00;  0.0000000E+00;  0.0000000E+00;  1.0000000E+03;  1.0000000E-01;  0.0000000E+00;0;  0.0000000E+00;  0.0000000E+00;  0.0000000E+00;0;  0.0000000E+00;  4.0000000E+04;  0.0000000E+00;  0.0000000E+00;  4.0000000E+04;  0.0000000E+00;  4.0000000E+04;  0.0000000E+00;  0.0000000E+00;  0.0000000E+00;  0.0000000E+00;
 -1.9000000E-01;  9.9999998E-03;  4.3000001E-01;177;  0.0000000E+00;  0.0000000E+00;  0.0000000E+00;  1.0000000E+03;  1.0000000E-01;  0.0000000E+00;0;  0.0000000E+00;  0.0000000E+00;  0.0000000E+00;0;  0.0000000E+00;  4.0000000E+04;  0.0000000E+00;  0.0000000E+00;  4.0000000E+04;  0.0000000E+00;  4.0000000E+04;  0.0000000E+00;  0.0000000E+00;  0.0000000E+00;  0.0000000E+00;
 -1.9000000E-01;  9.9999998E-03;  4.4000000E-01;178;  0.0000000E+00;  0.0000000E+00;  0.0000000E+00;  1.0000000E+03;  1.0000000E-01;  0.0000000E+00;0;  0.0000000E+00;  0.0000000E+00;  0.0000000E+00;0;  0.0000000E+00;  4.0000000E+04;  0.0000000E+00;  0.0000000E+00;  4.0000000E+04;  0.0000000E+00;  4.0000000E+04;  0.0000000E+00;  0.0000000E+00;  0.0000000E+00;  0.0000000E+00;
 -1.9000000E-01;  9.9999998E-03;  4.4999999E-01;179;  0.0000000E+00;  0.0000000E+00;  0.0000000E+00;  1.0000000E+03;  1.0000000E-01;  0.0000000E+00;0;  0.0000000E+00;  0.0000000E+00;  0.0000000E+00;0;  0.0000000E+00;  4.0000000E+04;  0.0000000E+00;  0.0000000E+00;  4.0000000E+04;  0.0000000E+00;  4.0000000E+04;  0.0000000E+00;  0.0000000E+00;  0.0000000E+00;  0.0000000E+00;
 -1.8000001E-01;  9.9999998E-03;  4.1000000E-01;266;  0.0000000E+00;  0.0000000E+00;  0.0000000E+00;  1.0000000E+03;  1.0000000E-01;  0.0000000E+00;0;  0.0000000E+00;  0.0000000E+00;  0.0000000E+00;0;  0.0000000E+00;  4.0000000E+04;  0.0000000E+00;  0.0000000E+00;  4.0000000E+04;  0.0000000E+00;  4.0000000E+04;  0.0000000E+00;  0.0000000E+00;  0.0000000E+00;  0.0000000E+00;
 -1.8000001E-01;  9.9999998E-03;  4.1999999E-01;267;  0.0000000E+00;  0.0000000E+00;  0.0000000E+00;  1.0000000E+03;  1.0000000E-01;  0.0000000E+00;0;  0.0000000E+00;  0.0000000E+00;  0.0000000E+00;0;  0.0000000E+00;  4.0000000E+04;  0.0000000E+00;  0.0000000E+00;  4.0000000E+04;  0.0000000E+00;  4.0000000E+04;  0.0000000E+00;  0.0000000E+00;  0.0000000E+00;  0.0000000E+00;
 -1.8000001E-01;  9.9999998E-03;  4.3000001E-01;268;  0.0000000E+00;  0.0000000E+00;  0.0000000E+00;  1.0000000E+03;  1.0000000E-01;  0.0000000E+00;0;  0.0000000E+00;  0.0000000E+00;  0.0000000E+00;0;  0.0000000E+00;  4.0000000E+04;  0.0000000E+00;  0.0000000E+00;  4.0000000E+04;  0.0000000E+00;  4.0000000E+04;  0.0000000E+00;  0.0000000E+00;  0.0000000E+00;  0.0000000E+00;
 -1.8000001E-01;  9.9999998E-03;  4.4000000E-01;269;  0.0000000E+00;  0.0000000E+00;  0.0000000E+00;  1.0000000E+03;  1.0000000E-01;  0.0000000E+00;0;  0.0000000E+00;  0.0000000E+00;  0.0000000E+00;0;  0.0000000E+00;  4.0000000E+04;  0.0000000E+00;  0.0000000E+00;  4.0000000E+04;  0.0000000E+00;  4.0000000E+04;  0.0000000E+00;  0.0000000E+00;  0.0000000E+00;  0.0000000E+00;
 -1.8000001E-01;  9.9999998E-03;  4.4999999E-01;270;  0.0000000E+00;  0.0000000E+00;  0.0000000E+00;  1.0000000E+03;  1.0000000E-01;  0.0000000E+00;0;  0.0000000E+00;  0.0000000E+00;  0.0000000E+00;0;  0.0000000E+00;  4.0000000E+04;  0.0000000E+00;  0.0000000E+00;  4.0000000E+04;  0.0000000E+00;  4.0000000E+04;  0.0000000E+00;  0.0000000E+00;  0.0000000E+00;  0.0000000E+00;
 -1.7000000E-01;  9.9999998E-03;  4.1000000E-01;357;  0.0000000E+00;  0.0000000E+00;  0.0000000E+00;  1.0000000E+03;  1.0000000E-01;  0.0000000E+00;0;  0.0000000E+00;  0.0000000E+00;  0.0000000E+00;0;  0.0000000E+00;  4.0000000E+04;  0.0000000E+00;  0.0000000E+00;  4.0000000E+04;  0.0000000E+00;  4.0000000E+04;  0.0000000E+00;  0.0000000E+00;  0.0000000E+00;  0.0000000E+00;
 -1.7000000E-01;  9.9999998E-03;  4.1999999E-01;358;  0.0000000E+00;  0.0000000E+00;  0.0000000E+00;  1.0000000E+03;  1.0000000E-01;  0.0000000E+00;0;  0.0000000E+00;  0.0000000E+00;  0.0000000E+00;0;  0.0000000E+00;  4.0000000E+04;  0.0000000E+00;  0.0000000E+00;  4.0000000E+04;  0.0000000E+00;  4.0000000E+04;  0.0000000E+00;  0.0000000E+00;  0.0000000E+00;  0.0000000E+00;
 -1.7000000E-01;  9.9999998E-03;  4.3000001E-01;359;  0.0000000E+00;  0.0000000E+00;  0.0000000E+00;  1.0000000E+03;  1.0000000E-01;  0.0000000E+00;0;  0.0000000E+00;  0.0000000E+00;  0.0000000E+00;0;  0.0000000E+00;  4.0000000E+04;  0.0000000E+00;  0.0000000E+00;  4.0000000E+04;  0.0000000E+00;  4.0000000E+04;  0.0000000E+00;  0.0000000E+00;  0.0000000E+00;  0.0000000E+00;
 -1.7000000E-01;  9.9999998E-03;  4.4000000E-01;360;  0.0000000E+00;  0.0000000E+00;  0.0000000E+00;  1.0000000E+03;  1.0000000E-01;  0.0000000E+00;0;  0.0000000E+00;  0.0000000E+00;  0.0000000E+00;0;  0.0000000E+00;  4.0000000E+04;  0.0000000E+00;  0.0000000E+00;  4.0000000E+04;  0.0000000E+00;  4.0000000E+04;  0.0000000E+00;  0.0000000E+00;  0.0000000E+00;  0.0000000E+00;
 -1.7000000E-01;  9.9999998E-03;  4.4999999E-01;361;  0.0000000E+00;  0.0000000E+00;  0.0000000E+00;  1.0000000E+03;  1.0000000E-01;  0.0000000E+00;0;  0.0000000E+00;  0.0000000E+00;  0.0000000E+00;0;  0.0000000E+00;  4.0000000E+04;  0.0000000E+00;  0.0000000E+00;  4.0000000E+04;  0.0000000E+00;  4.0000000E+04;  0.0000000E+00;  0.0000000E+00;  0.0000000E+00;  0.0000000E+00;
 -1.6000000E-01;  9.9999998E-03;  4.1000000E-01;448;  0.0000000E+00;  0.0000000E+00;  0.0000000E+00;  1.0000000E+03;  1.0000000E-01;  0.0000000E+00;0;  0.0000000E+00;  0.0000000E+00;  0.0000000E+00;0;  0.0000000E+00;  4.0000000E+04;  0.0000000E+00;  0.0000000E+00;  4.0000000E+04;  0.0000000E+00;  4.0000000E+04;  0.0000000E+00;  0.0000000E+00;  0.0000000E+00;  0.0000000E+00;
 -1.6000000E-01;  9.9999998E-03;  4.1999999E-01;449;  0.0000000E+00;  0.0000000E+00;  0.0000000E+00;  1.0000000E+03;  1.0000000E-01;  0.0000000E+00;0;  0.0000000E+00;  0.0000000E+00;  0.0000000E+00;0;  0.0000000E+00;  4.0000000E+04;  0.0000000E+00;  0.0000000E+00;  4.0000000E+04;  0.0000000E+00;  4.0000000E+04;  0.0000000E+00;  0.0000000E+00;  0.0000000E+00;  0.0000000E+00;
 -1.6000000E-01;  9.9999998E-03;  4.3000001E-01;450;  0.0000000E+00;  0.0000000E+00;  0.0000000E+00;  1.0000000E+03;  1.0000000E-01;  0.0000000E+00;0;  0.0000000E+00;  0.0000000E+00;  0.0000000E+00;0;  0.0000000E+00;  4.0000000E+04;  0.0000000E+00;  0.0000000E+00;  4.0000000E+04;  0.0000000E+00;  4.0000000E+04;  0.0000000E+00;  0.0000000E+00;  0.0000000E+00;  0.0000000E+00;
 -1.6000000E-01;  9.9999998E-03;  4.4000000E-01;451;  0.0000000E+00;  0.0000000E+00;  0.0000000E+00;  1.0000000E+03;  1.0000000E-01;  0.0000000E+00;0;  0.0000000E+00;  0.0000000E+00;  0.0000000E+00;0;  0.0000000E+00;  4.0000000E+04;  0.0000000E+00;  0.0000000E+00;  4.0000000E+04;  0.0000000E+00;  4.0000000E+04;  0.0000000E+00;  0.0000000E+00;  0.0000000E+00;  0.0000000E+00;
 -1.6000000E-01;  9.9999998E-03;  4.4999999E-01;452;  0.0000000E+00;  0.0000000E+00;  0.0000000E+00;  1.0000000E+03;  1.0000000E-01;  0.0000000E+00;0;  0.0000000E+00;  0.0000000E+00;  0.0000000E+00;0;  0.0000000E+00;  4.0000000E+04;  0.0000000E+00;  0.0000000E+00;  4.0000000E+04;  0.0000000E+00;  4.0000000E+04;  0.0000000E+00;  0.0000000E+00;  0.0000000E+00;  0.0000000E+00;
 -1.5000001E-01;  9.9999998E-03;  4.1000000E-01;539;  0.0000000E+00;  0.0000000E+00;  0.0000000E+00;  1.0000000E+03;  1.0000000E-01;  0.0000000E+00;0;  0.0000000E+00;  0.0000000E+00;  0.0000000E+00;0;  0.0000000E+00;  4.0000000E+04;  0.0000000E+00;  0.0000000E+00;  4.0000000E+04;  0.0000000E+00;  4.0000000E+04;  0.0000000E+00;  0.0000000E+00;  0.0000000E+00;  0.0000000E+00;
 -1.5000001E-01;  9.9999998E-03;  4.1999999E-01;540;  0.0000000E+00;  0.0000000E+00;  0.0000000E+00;  1.0000000E+03;  1.0000000E-01;  0.0000000E+00;0;  0.0000000E+00;  0.0000000E+00;  0.0000000E+00;0;  0.0000000E+00;  4.0000000E+04;  0.0000000E+00;  0.0000000E+00;  4.0000000E+04;  0.0000000E+00;  4.0000000E+04;  0.0000000E+00;  0.0000000E+00;  0.0000000E+00;  0.0000000E+00;
 -1.5000001E-01;  9.9999998E-03;  4.3000001E-01;541;  0.0000000E+00;  0.0000000E+00;  0.0000000E+00;  1.0000000E+03;  1.0000000E-01;  0.0000000E+00;0;  0.0000000E+00;  0.0000000E+00;  0.0000000E+00;0;  0.0000000E+00;  4.0000000E+04;  0.0000000E+00;  0.0000000E+00;  4.0000000E+04;  0.0000000E+00;  4.0000000E+04;  0.0000000E+00;  0.0000000E+00;  0.0000000E+00;  0.0000000E+00;
 -1.5000001E-01;  9.9999998E-03;  4.4000000E-01;542;  0.0000000E+00;  0.0000000E+00;  0.0000000E+00;  1.0000000E+03;  1.0000000E-01;  0.0000000E+00;0;  0.0000000E+00;  0.0000000E+00;  0.0000000E+00;0;  0.0000000E+00;  4.0000000E+04;  0.0000000E+00;  0.0000000E+00;  4.0000000E+04;  0.0000000E+00;  4.0000000E+04;  0.0000000E+00;  0.0000000E+00;  0.0000000E+00;  0.0000000E+00;
 -1.5000001E-01;  9.9999998E-03;  4.4999999E-01;543;  0.0000000E+00;  0.0000000E+00;  0.0000000E+00;  1.0000000E+03;  1.0000000E-01;  0.0000000E+00;0;  0.0000000E+00;  0.0000000E+00;  0.0000000E+00;0;  0.0000000E+00;  4.0000000E+04;  0.0000000E+00;  0.0000000E+00;  4.0000000E+04;  0.0000000E+00;  4.0000000E+04;  0.0000000E+00;  0.0000000E+00;  0.0000000E+00;  0.0000000E+00;
 -1.4000000E-01;  9.9999998E-03;  4.1000000E-01;630;  0.0000000E+00;  0.0000000E+00;  0.0000000E+00;  1.0000000E+03;  1.0000000E-01;  0.0000000E+00;0;  0.0000000E+00;  0.0000000E+00;  0.0000000E+00;0;  0.0000000E+00;  4.0000000E+04;  0.0000000E+00;  0.0000000E+00;  4.0000000E+04;  0.0000000E+00;  4.0000000E+04;  0.0000000E+00;  0.0000000E+00;  0.0000000E+00;  0.0000000E+00;
 -1.4000000E-01;  9.9999998E-03;  4.1999999E-01;631;  0.0000000E+00;  0.0000000E+00;  0.0000000E+00;  1.0000000E+03;  1.0000000E-01;  0.0000000E+00;0;  0.0000000E+00;  0.0000000E+00;  0.0000000E+00;0;  0.0000000E+00;  4.0000000E+04;  0.0000000E+00;  0.0000000E+00;  4.0000000E+04;  0.0000000E+00;  4.0000000E+04;  0.0000000E+00;  0.0000000E+00;  0.0000000E+00;  0.0000000E+00;
 -1.4000000E-01;  9.9999998E-03;  4.3000001E-01;632;  0.0000000E+00;  0.0000000E+00;  0.0000000E+00;  1.0000000E+03;  1.0000000E-01;  0.0000000E+00;0;  0.0000000E+00;  0.0000000E+00;  0.0000000E+00;0;  0.0000000E+00;  4.0000000E+04;  0.0000000E+00;  0.0000000E+00;  4.0000000E+04;  0.0000000E+00;  4.0000000E+04;  0.0000000E+00;  0.0000000E+00;  0.0000000E+00;  0.0000000E+00;
 -1.4000000E-01;  9.9999998E-03;  4.4000000E-01;633;  0.0000000E+00;  0.0000000E+00;  0.0000000E+00;  1.0000000E+03;  1.0000000E-01;  0.0000000E+00;0;  0.0000000E+00;  0.0000000E+00;  0.0000000E+00;0;  0.0000000E+00;  4.0000000E+04;  0.0000000E+00;  0.0000000E+00;  4.0000000E+04;  0.0000000E+00;  4.0000000E+04;  0.0000000E+00;  0.0000000E+00;  0.0000000E+00;  0.0000000E+00;
 -1.4000000E-01;  9.9999998E-03;  4.4999999E-01;634;  0.0000000E+00;  0.0000000E+00;  0.0000000E+00;  1.0000000E+03;  1.0000000E-01;  0.0000000E+00;0;  0.0000000E+00;  0.0000000E+00;  0.0000000E+00;0;  0.0000000E+00;  4.0000000E+04;  0.0000000E+00;  0.0000000E+00;  4.0000000E+04;  0.0000000E+00;  4.0000000E+04;  0.0000000E+00;  0.0000000E+00;  0.0000000E+00;  0.0000000E+00;
 -1.3000000E-01;  9.9999998E-03;  4.1000000E-01;721;  0.0000000E+00;  0.0000000E+00;  0.0000000E+00;  1.0000000E+03;  1.0000000E-01;  0.0000000E+00;0;  0.0000000E+00;  0.0000000E+00;  0.0000000E+00;0;  0.0000000E+00;  4.0000000E+04;  0.0000000E+00;  0.0000000E+00;  4.0000000E+04;  0.0000000E+00;  4.0000000E+04;  0.0000000E+00;  0.0000000E+00;  0.0000000E+00;  0.0000000E+00;
 -1.3000000E-01;  9.9999998E-03;  4.1999999E-01;722;  0.0000000E+00;  0.0000000E+00;  0.0000000E+00;  1.0000000E+03;  1.0000000E-01;  0.0000000E+00;0;  0.0000000E+00;  0.0000000E+00;  0.0000000E+00;0;  0.0000000E+00;  4.0000000E+04;  0.0000000E+00;  0.0000000E+00;  4.0000000E+04;  0.0000000E+00;  4.0000000E+04;  0.0000000E+00;  0.0000000E+00;  0.0000000E+00;  0.0000000E+00;
 -1.3000000E-01;  9.9999998E-03;  4.3000001E-01;723;  0.0000000E+00;  0.0000000E+00;  0.0000000E+00;  1.0000000E+03;  1.0000000E-01;  0.0000000E+00;0;  0.0000000E+00;  0.0000000E+00;  0.0000000E+00;0;  0.0000000E+00;  4.0000000E+04;  0.0000000E+00;  0.0000000E+00;  4.0000000E+04;  0.0000000E+00;  4.0000000E+04;  0.0000000E+00;  0.0000000E+00;  0.0000000E+00;  0.0000000E+00;
 -1.3000000E-01;  9.9999998E-03;  4.4000000E-01;724;  0.0000000E+00;  0.0000000E+00;  0.0000000E+00;  1.0000000E+03;  1.0000000E-01;  0.0000000E+00;0;  0.0000000E+00;  0.0000000E+00;  0.0000000E+00;0;  0.0000000E+00;  4.0000000E+04;  0.0000000E+00;  0.0000000E+00;  4.0000000E+04;  0.0000000E+00;  4.0000000E+04;  0.0000000E+00;  0.0000000E+00;  0.0000000E+00;  0.0000000E+00;
 -1.3000000E-01;  9.9999998E-03;  4.4999999E-01;725;  0.0000000E+00;  0.0000000E+00;  0.0000000E+00;  1.0000000E+03;  1.0000000E-01;  0.0000000E+00;0;  0.0000000E+00;  0.0000000E+00;  0.0000000E+00;0;  0.0000000E+00;  4.0000000E+04;  0.0000000E+00;  0.0000000E+00;  4.0000000E+04;  0.0000000E+00;  4.0000000E+04;  0.0000000E+00;  0.0000000E+00;  0.0000000E+00;  0.0000000E+00;
 -1.2000000E-01;  9.9999998E-03;  4.1000000E-01;812;  0.0000000E+00;  0.0000000E+00;  0.0000000E+00;  1.0000000E+03;  1.0000000E-01;  0.0000000E+00;0;  0.0000000E+00;  0.0000000E+00;  0.0000000E+00;0;  0.0000000E+00;  4.0000000E+04;  0.0000000E+00;  0.0000000E+00;  4.0000000E+04;  0.0000000E+00;  4.0000000E+04;  0.0000000E+00;  0.0000000E+00;  0.0000000E+00;  3.0553776E-06;
 -1.2000000E-01;  9.9999998E-03;  4.1999999E-01;813;  0.0000000E+00;  0.0000000E+00;  0.0000000E+00;  1.0000000E+03;  1.0000000E-01;  0.0000000E+00;0;  0.0000000E+00;  0.0000000E+00;  0.0000000E+00;0;  0.0000000E+00;  4.0000000E+04;  0.0000000E+00;  0.0000000E+00;  4.0000000E+04;  0.0000000E+00;  4.0000000E+04;  0.0000000E+00;  0.0000000E+00;  0.0000000E+00;  0.0000000E+00;
 -1.2000000E-01;  9.9999998E-03;  4.3000001E-01;814;  0.0000000E+00;  0.0000000E+00;  0.0000000E+00;  1.0000000E+03;  1.0000000E-01;  0.0000000E+00;0;  0.0000000E+00;  0.0000000E+00;  0.0000000E+00;0;  0.0000000E+00;  4.0000000E+04;  0.0000000E+00;  0.0000000E+00;  4.0000000E+04;  0.0000000E+00;  4.0000000E+04;  0.0000000E+00;  0.0000000E+00;  0.0000000E+00;  0.0000000E+00;
 -1.2000000E-01;  9.9999998E-03;  4.4000000E-01;815;  0.0000000E+00;  0.0000000E+00;  0.0000000E+00;  1.0000000E+03;  1.0000000E-01;  0.0000000E+00;0;  0.0000000E+00;  0.0000000E+00;  0.0000000E+00;0;  0.0000000E+00;  4.0000000E+04;  0.0000000E+00;  0.0000000E+00;  4.0000000E+04;  0.0000000E+00;  4.0000000E+04;  0.0000000E+00;  0.0000000E+00;  0.0000000E+00;  0.0000000E+00;
 -1.2000000E-01;  9.9999998E-03;  4.4999999E-01;816;  0.0000000E+00;  0.0000000E+00;  0.0000000E+00;  1.0000000E+03;  1.0000000E-01;  0.0000000E+00;0;  0.0000000E+00;  0.0000000E+00;  0.0000000E+00;0;  0.0000000E+00;  4.0000000E+04;  0.0000000E+00;  0.0000000E+00;  4.0000000E+04;  0.0000000E+00;  4.0000000E+04;  0.0000000E+00;  0.0000000E+00;  0.0000000E+00;  0.0000000E+00;
 -1.1000000E-01;  9.9999998E-03;  4.1000000E-01;903;  0.0000000E+00;  0.0000000E+00;  0.0000000E+00;  1.0000000E+03;  1.0000000E-01;  0.0000000E+00;0;  0.0000000E+00;  0.0000000E+00;  0.0000000E+00;0;  3.3729361E-07;  4.0000000E+04;  0.0000000E+00;  0.0000000E+00;  4.0000000E+04;  0.0000000E+00;  4.0000000E+04;  1.8885071E-07;  0.0000000E+00;  1.4844289E-07;  2.5128639E-01;
 -1.1000000E-01;  9.9999998E-03;  4.1999999E-01;904;  0.0000000E+00;  0.0000000E+00;  0.0000000E+00;  1.0000000E+03;  1.0000000E-01;  0.0000000E+00;0;  0.0000000E+00;  0.0000000E+00;  0.0000000E+00;0;  0.0000000E+00;  4.0000000E+04;  0.0000000E+00;  0.0000000E+00;  4.0000000E+04;  0.0000000E+00;  4.0000000E+04;  0.0000000E+00;  0.0000000E+00;  0.0000000E+00;  2.4097315E-06;
 -1.1000000E-01;  9.9999998E-03;  4.3000001E-01;905;  0.0000000E+00;  0.0000000E+00;  0.0000000E+00;  1.0000000E+03;  1.0000000E-01;  0.0000000E+00;0;  0.0000000E+00;  0.0000000E+00;  0.0000000E+00;0;  0.0000000E+00;  4.0000000E+04;  0.0000000E+00;  0.0000000E+00;  4.0000000E+04;  0.0000000E+00;  4.0000000E+04;  0.0000000E+00;  0.0000000E+00;  0.0000000E+00;  0.0000000E+00;
 -1.1000000E-01;  9.9999998E-03;  4.4000000E-01;906;  0.0000000E+00;  0.0000000E+00;  0.0000000E+00;  1.0000000E+03;  1.0000000E-01;  0.0000000E+00;0;  0.0000000E+00;  0.0000000E+00;  0.0000000E+00;0;  0.0000000E+00;  4.0000000E+04;  0.0000000E+00;  0.0000000E+00;  4.0000000E+04;  0.0000000E+00;  4.0000000E+04;  0.0000000E+00;  0.0000000E+00;  0.0000000E+00;  0.0000000E+00;
 -1.1000000E-01;  9.9999998E-03;  4.4999999E-01;907;  0.0000000E+00;  0.0000000E+00;  0.0000000E+00;  1.0000000E+03;  1.0000000E-01;  0.0000000E+00;0;  0.0000000E+00;  0.0000000E+00;  0.0000000E+00;0;  0.0000000E+00;  4.0000000E+04;  0.0000000E+00;  0.0000000E+00;  4.0000000E+04;  0.0000000E+00;  4.0000000E+04;  0.0000000E+00;  0.0000000E+00;  0.0000000E+00;  0.0000000E+00;
 -1.0000000E-01;  9.9999998E-03;  4.1000000E-01;994;  0.0000000E+00;  0.0000000E+00;  0.0000000E+00;  1.0000000E+03;  1.0000000E-01;  0.0000000E+00;0;  0.0000000E+00;  0.0000000E+00;  0.0000000E+00;0;  2.9467399E-06;  4.0000000E+04;  0.0000000E+00;  0.0000000E+00;  4.0000000E+04;  0.0000000E+00;  4.0000000E+04;  1.5325162E-06;  0.0000000E+00;  1.4142237E-06;  2.3032937E+00;
 -1.0000000E-01;  9.9999998E-03;  4.1999999E-01;995;  0.0000000E+00;  0.0000000E+00;  0.0000000E+00;  1.0000000E+03;  1.0000000E-01;  0.0000000E+00;0;  0.0000000E+00;  0.0000000E+00;  0.0000000E+00;0;  2.3603076E-07;  4.0000000E+04;  0.0000000E+00;  0.0000000E+00;  4.0000000E+04;  0.0000000E+00;  4.0000000E+04;  1.1502244E-07;  0.0000000E+00;  1.2100831E-07;  2.3246928E-01;
 -1.0000000E-01;  9.9999998E-03;  4.3000001E-01;996;  0.0000000E+00;  0.0000000E+00;  0.0000000E+00;  1.0000000E+03;  1.0000000E-01;  0.0000000E+00;0;  0.0000000E+00;  0.0000000E+00;  0.0000000E+00;0;  0.0000000E+00;  4.0000000E+04;  0.0000000E+00;  0.0000000E+00;  4.0000000E+04;  0.0000000E+00;  4.0000000E+04;  0.0000000E+00;  0.0000000E+00;  0.0000000E+00;  0.0000000E+00;
 -1.0000000E-01;  9.9999998E-03;  4.4000000E-01;997;  0.0000000E+00;  0.0000000E+00;  0.0000000E+00;  1.0000000E+03;  1.0000000E-01;  0.0000000E+00;0;  0.0000000E+00;  0.0000000E+00;  0.0000000E+00;0;  0.0000000E+00;  4.0000000E+04;  0.0000000E+00;  0.0000000E+00;  4.0000000E+04;  0.0000000E+00;  4.0000000E+04;  0.0000000E+00;  0.0000000E+00;  0.0000000E+00;  0.0000000E+00;
 -1.0000000E-01;  9.9999998E-03;  4.4999999E-01;998;  0.0000000E+00;  0.0000000E+00;  0.0000000E+00;  1.0000000E+03;  1.0000000E-01;  0.0000000E+00;0;  0.0000000E+00;  0.0000000E+00;  0.0000000E+00;0;  0.0000000E+00;  4.0000000E+04;  0.0000000E+00;  0.0000000E+00;  4.0000000E+04;  0.0000000E+00;  4.0000000E+04;  0.0000000E+00;  0.0000000E+00;  0.0000000E+00;  0.0000000E+00;
 -9.0000004E-02;  9.9999998E-03;  4.1000000E-01;1085;  0.0000000E+00;  0.0000000E+00;  0.0000000E+00;  1.0000000E+03;  1.0000000E-01;  0.0000000E+00;0;  0.0000000E+00;  0.0000000E+00;  0.0000000E+00;0;  1.1452429E-05;  4.0000000E+04;  0.0000000E+00;  0.0000000E+00;  4.0000000E+04;  0.0000000E+00;  4.0000000E+04;  5.5288947E-06;  0.0000000E+00;  5.9235344E-06;  9.3278866E+00;
 -9.0000004E-02;  9.9999998E-03;  4.1999999E-01;1086;  0.0000000E+00;  0.0000000E+00;  0.0000000E+00;  1.0000000E+03;  1.0000000E-01;  0.0000000E+00;0;  0.0000000E+00;  0.0000000E+00;  0.0000000E+00;0;  2.0732382E-06;  4.0000000E+04;  0.0000000E+00;  0.0000000E+00;  4.0000000E+04;  0.0000000E+00;  4.0000000E+04;  9.3537659E-07;  0.0000000E+00;  1.1378617E-06;  2.0136621E+00;
 -9.0000004E-02;  9.9999998E-03;  4.3000001E-01;1087;  0.0000000E+00;  0.0000000E+00;  0.0000000E+00;  1.0000000E+03;  1.0000000E-01;  0.0000000E+00;0;  0.0000000E+00;  0.0000000E+00;  0.0000000E+00;0;  8.4191925E-08;  4.0000000E+04;  0.0000000E+00;  0.0000000E+00;  4.0000000E+04;  0.0000000E+00;  4.0000000E+04;  3.4684895E-08;  0.0000000E+00;  4.9507026E-08;  1.1757634E-01;
 -9.0000004E-02;  9.9999998E-03;  4.4000000E-01;1088;  0.0000000E+00;  0.0000000E+00;  0.0000000E+00;  1.0000000E+03;  1.0000000E-01;  0.0000000E+00;0;  0.0000000E+00;  0.0000000E+00;  0.0000000E+00;0;  0.0000000E+00;  4.0000000E+04;  0.0000000E+00;  0.0000000E+00;  4.0000000E+04;  0.0000000E+00;  4.0000000E+04;  0.0000000E+00;  0.0000000E+00;  0.0000000E+00;  0.0000000E+00;
 -9.0000004E-02;  9.9999998E-03;  4.4999999E-01;1089;  0.0000000E+00;  0.0000000E+00;  0.0000000E+00;  1.0000000E+03;  1.0000000E-01;  0.0000000E+00;0;  0.0000000E+00;  0.0000000E+00;  0.0000000E+00;0;  0.0000000E+00;  4.0000000E+04;  0.0000000E+00;  0.0000000E+00;  4.0000000E+04;  0.0000000E+00;  4.0000000E+04;  0.0000000E+00;  0.0000000E+00;  0.0000000E+00;  0.0000000E+00;
 -7.9999998E-02;  9.9999998E-03;  4.1000000E-01;1176;  0.0000000E+00;  0.0000000E+00;  0.0000000E+00;  1.0000000E+03;  1.0000000E-01;  0.0000000E+00;0;  0.0000000E+00;  0.0000000E+00;  0.0000000E+00;0;  3.0178173E-05;  4.0000000E+04;  0.0000000E+00;  0.0000000E+00;  4.0000000E+04;  0.0000000E+00;  4.0000000E+04;  1.3542158E-05;  0.0000000E+00;  1.6636015E-05;  2.5484306E+01;
 -7.9999998E-02;  9.9999998E-03;  4.1999999E-01;1177;  0.0000000E+00;  0.0000000E+00;  0.0000000E+00;  1.0000000E+03;  1.0000000E-01;  0.0000000E+00;0;  0.0000000E+00;  0.0000000E+00;  0.0000000E+00;0;  7.9426063E-06;  4.0000000E+04;  0.0000000E+00;  0.0000000E+00;  4.0000000E+04;  0.0000000E+00;  4.0000000E+04;  3.2951618E-06;  0.0000000E+00;  4.6474443E-06;  7.8482494E+00;
 -7.9999998E-02;  9.9999998E-03;  4.3000001E-01;1178;  0.0000000E+00;  0.0000000E+00;  0.0000000E+00;  1.0000000E+03;  1.0000000E-01;  0.0000000E+00;0;  0.0000000E+00;  0.0000000E+00;  0.0000000E+00;0;  1.0059972E-06;  4.0000000E+04;  0.0000000E+00;  0.0000000E+00;  4.0000000E+04;  0.0000000E+00;  4.0000000E+04;  3.9474276E-07;  0.0000000E+00;  6.1125445E-07;  1.2152137E+00;
 -7.9999998E-02;  9.9999998E-03;  4.4000000E-01;1179;  0.0000000E+00;  0.0000000E+00;  0.0000000E+00;  1.0000000E+03;  1.0000000E-01;  0.0000000E+00;0;  0.0000000E+00;  0.0000000E+00;  0.0000000E+00;0;  1.1411063E-08;  4.0000000E+04;  0.0000000E+00;  0.0000000E+00;  4.0000000E+04;  0.0000000E+00;  4.0000000E+04;  4.0093093E-09;  0.0000000E+00;  7.4017539E-09;  2.1352533E-02;
 -7.9999998E-02;  9.9999998E-03;  4.4999999E-01;1180;  0.0000000E+00;  0.0000000E+00;  0.0000000E+00;  1.0000000E+03;  1.0000000E-01;  0.0000000E+00;0;  0.0000000E+00;  0.0000000E+00;  0.0000000E+00;0;  0.0000000E+00;  4.0000000E+04;  0.0000000E+00;  0.0000000E+00;  4.0000000E+04;  0.0000000E+00;  4.0000000E+04;  0.0000000E+00;  0.0000000E+00;  0.0000000E+00;  0.0000000E+00;
 -7.0000000E-02;  9.9999998E-03;  4.1000000E-01;1267;  0.0000000E+00;  0.0000000E+00;  0.0000000E+00;  1.0000000E+03;  1.0000000E-01;  0.0000000E+00;0;  0.0000000E+00;  0.0000000E+00;  0.0000000E+00;0;  6.2744904E-05;  4.0000000E+04;  0.0000000E+00;  0.0000000E+00;  4.0000000E+04;  0.0000000E+00;  4.0000000E+04;  2.6166284E-05;  0.0000000E+00;  3.6578618E-05;  5.4680069E+01;
 -7.0000000E-02;  9.9999998E-03;  4.1999999E-01;1268;  0.0000000E+00;  0.0000000E+00;  0.0000000E+00;  1.0000000E+03;  1.0000000E-01;  0.0000000E+00;0;  0.0000000E+00;  0.0000000E+00;  0.0000000E+00;0;  2.0495758E-05;  4.0000000E+04;  0.0000000E+00;  0.0000000E+00;  4.0000000E+04;  0.0000000E+00;  4.0000000E+04;  7.8023786E-06;  0.0000000E+00;  1.2693379E-05;  2.0718166E+01;
 -7.0000000E-02;  9.9999998E-03;  4.3000001E-01;1269;  0.0000000E+00;  0.0000000E+00;  0.0000000E+00;  1.0000000E+03;  1.0000000E-01;  0.0000000E+00;0;  0.0000000E+00;  0.0000000E+00;  0.0000000E+00;0;  4.1027024E-06;  4.0000000E+04;  0.0000000E+00;  0.0000000E+00;  4.0000000E+04;  0.0000000E+00;  4.0000000E+04;  1.4648537E-06;  0.0000000E+00;  2.6378486E-06;  4.9117169E+00;
 -7.0000000E-02;  9.9999998E-03;  4.4000000E-01;1270;  0.0000000E+00;  0.0000000E+00;  0.0000000E+00;  1.0000000E+03;  1.0000000E-01;  0.0000000E+00;0;  0.0000000E+00;  0.0000000E+00;  0.0000000E+00;0;  2.6275021E-07;  4.0000000E+04;  0.0000000E+00;  0.0000000E+00;  4.0000000E+04;  0.0000000E+00;  4.0000000E+04;  8.8757297E-08;  0.0000000E+00;  1.7399290E-07;  4.1750941E-01;
 -7.0000000E-02;  9.9999998E-03;  4.4999999E-01;1271;  0.0000000E+00;  0.0000000E+00;  0.0000000E+00;  1.0000000E+03;  1.0000000E-01;  0.0000000E+00;0;  0.0000000E+00;  0.0000000E+00;  0.0000000E+00;0;  0.0000000E+00;  4.0000000E+04;  0.0000000E+00;  0.0000000E+00;  4.0000000E+04;  0.0000000E+00;  4.0000000E+04;  0.0000000E+00;  0.0000000E+00;  0.0000000E+00;  8.6631813E-12;
 -5.9999999E-02;  9.9999998E-03;  4.1000000E-01;1358;  0.0000000E+00;  0.0000000E+00;  0.0000000E+00;  1.0000000E+03;  1.0000000E-01;  0.0000000E+00;0;  0.0000000E+00;  0.0000000E+00;  0.0000000E+00;0;  1.1077484E-04;  4.0000000E+04;  0.0000000E+00;  0.0000000E+00;  4.0000000E+04;  0.0000000E+00;  4.0000000E+04;  4.2820819E-05;  0.0000000E+00;  6.7954017E-05;  9.9350113E+01;
 -5.9999999E-02;  9.9999998E-03;  4.1999999E-01;1359;  0.0000000E+00;  0.0000000E+00;  0.0000000E+00;  1.0000000E+03;  1.0000000E-01;  0.0000000E+00;0;  0.0000000E+00;  0.0000000E+00;  0.0000000E+00;0;  4.1641957E-05;  4.0000000E+04;  0.0000000E+00;  0.0000000E+00;  4.0000000E+04;  0.0000000E+00;  4.0000000E+04;  1.4505594E-05;  0.0000000E+00;  2.7136364E-05;  4.3076851E+01;
 -5.9999999E-02;  9.9999998E-03;  4.3000001E-01;1360;  0.0000000E+00;  0.0000000E+00;  0.0000000E+00;  1.0000000E+03;  1.0000000E-01;  0.0000000E+00;0;  0.0000000E+00;  0.0000000E+00;  0.0000000E+00;0;  1.0821998E-05;  4.0000000E+04;  0.0000000E+00;  0.0000000E+00;  4.0000000E+04;  0.0000000E+00;  4.0000000E+04;  3.4925254E-06;  0.0000000E+00;  7.3294732E-06;  1.3065785E+01;
 -5.9999999E-02;  9.9999998E-03;  4.4000000E-01;1361;  0.0000000E+00;  0.0000000E+00;  0.0000000E+00;  1.0000000E+03;  1.0000000E-01;  0.0000000E+00;0;  0.0000000E+00;  0.0000000E+00;  0.0000000E+00;0;  1.3655623E-06;  4.0000000E+04;  0.0000000E+00;  0.0000000E+00;  4.0000000E+04;  0.0000000E+00;  4.0000000E+04;  4.2207236E-07;  0.0000000E+00;  9.4348997E-07;  2.0214825E+00;
 -5.9999999E-02;  9.9999998E-03;  4.4999999E-01;1362;  0.0000000E+00;  0.0000000E+00;  0.0000000E+00;  1.0000000E+03;  1.0000000E-01;  0.0000000E+00;0;  0.0000000E+00;  0.0000000E+00;  0.0000000E+00;0;  2.4065027E-08;  4.0000000E+04;  0.0000000E+00;  0.0000000E+00;  4.0000000E+04;  0.0000000E+00;  4.0000000E+04;  7.3241901E-09;  0.0000000E+00;  1.6740838E-08;  4.6691362E-02;
 -5.0000001E-02;  9.9999998E-03;  4.1000000E-01;1449;  0.0000000E+00;  0.0000000E+00;  0.0000000E+00;  1.0000088E+03;  1.0000000E-01;  7.3084354E+00;0;  0.0000000E+00;  0.0000000E+00;  0.0000000E+00;0;  1.7273363E-04;  4.0000000E+04;  0.0000000E+00;  0.0000000E+00;  4.0000000E+04;  0.0000000E+00;  4.0000000E+04;  6.1499406E-05;  0.0000000E+00;  1.1123423E-04;  1.5948293E+02;
 -5.0000001E-02;  9.9999998E-03;  4.1999999E-01;1450;  0.0000000E+00;  0.0000000E+00;  0.0000000E+00;  1.0000000E+03;  1.0000000E-01;  0.0000000E+00;0;  0.0000000E+00;  0.0000000E+00;  0.0000000E+00;0;  7.1577619E-05;  4.0000000E+04;  0.0000000E+00;  0.0000000E+00;  4.0000000E+04;  0.0000000E+00;  4.0000000E+04;  2.2648166E-05;  0.0000000E+00;  4.8929454E-05;  7.5863625E+01;
 -5.0000001E-02;  9.9999998E-03;  4.3000001E-01;1451;  0.0000000E+00;  0.0000000E+00;  0.0000000E+00;  1.0000000E+03;  1.0000000E-01;  0.0000000E+00;0;  0.0000000E+00;  0.0000000E+00;  0.0000000E+00;0;  2.1955730E-05;  4.0000000E+04;  0.0000000E+00;  0.0000000E+00;  4.0000000E+04;  0.0000000E+00;  4.0000000E+04;  6.3411544E-06;  0.0000000E+00;  1.5614576E-05;  2.6962229E+01;
 -5.0000001E-02;  9.9999998E-03;  4.4000000E-01;1452;  0.0000000E+00;  0.0000000E+00;  0.0000000E+00;  1.0000000E+03;  1.0000000E-01;  0.0000000E+00;0;  0.0000000E+00;  0.0000000E+00;  0.0000000E+00;0;  3.9395809E-06;  4.0000000E+04;  0.0000000E+00;  0.0000000E+00;  4.0000000E+04;  0.0000000E+00;  4.0000000E+04;  1.0782745E-06;  0.0000000E+00;  2.8613065E-06;  5.7807288E+00;
 -5.0000001E-02;  9.9999998E-03;  4.4999999E-01;1453;  0.0000000E+00;  0.0000000E+00;  0.0000000E+00;  1.0000000E+03;  1.0000000E-01;  0.0000000E+00;0;  0.0000000E+00;  0.0000000E+00;  0.0000000E+00;0;  2.0849174E-07;  4.0000000E+04;  0.0000000E+00;  0.0000000E+00;  4.0000000E+04;  0.0000000E+00;  4.0000000E+04;  5.5789656E-08;  0.0000000E+00;  1.5270209E-07;  3.9658877E-01;
 -3.9999999E-02;  9.9999998E-03;  4.1000000E-01;1540;  0.0000000E+00;  0.0000000E+00;  0.0000000E+00;  1.0000480E+03;  1.0000000E-01;  3.9801342E+01;0;  0.0000000E+00;  0.0000000E+00;  0.0000000E+00;0;  2.4355091E-04;  4.0000000E+04;  0.0000000E+00;  0.0000000E+00;  4.0000000E+04;  0.0000000E+00;  4.0000000E+04;  7.8983634E-05;  0.0000000E+00;  1.6456727E-04;  2.3221043E+02;
 -3.9999999E-02;  9.9999998E-03;  4.1999999E-01;1541;  0.0000000E+00;  0.0000000E+00;  0.0000000E+00;  1.0000000E+03;  1.0000000E-01;  0.0000000E+00;0;  0.0000000E+00;  0.0000000E+00;  0.0000000E+00;0;  1.0825355E-04;  4.0000000E+04;  0.0000000E+00;  0.0000000E+00;  4.0000000E+04;  0.0000000E+00;  4.0000000E+04;  3.0708037E-05;  0.0000000E+00;  7.7545512E-05;  1.1796040E+02;
 -3.9999999E-02;  9.9999998E-03;  4.3000001E-01;1542;  0.0000000E+00;  0.0000000E+00;  0.0000000E+00;  1.0000000E+03;  1.0000000E-01;  0.0000000E+00;0;  0.0000000E+00;  0.0000000E+00;  0.0000000E+00;0;  3.7180991E-05;  4.0000000E+04;  0.0000000E+00;  0.0000000E+00;  4.0000000E+04;  0.0000000E+00;  4.0000000E+04;  9.4588604E-06;  0.0000000E+00;  2.7722132E-05;  4.6708542E+01;
 -3.9999999E-02;  9.9999998E-03;  4.4000000E-01;1543;  0.0000000E+00;  0.0000000E+00;  0.0000000E+00;  1.0000000E+03;  1.0000000E-01;  0.0000000E+00;0;  0.0000000E+00;  0.0000000E+00;  0.0000000E+00;0;  8.2640854E-06;  4.0000000E+04;  0.0000000E+00;  0.0000000E+00;  4.0000000E+04;  0.0000000E+00;  4.0000000E+04;  1.9580680E-06;  0.0000000E+00;  6.3060179E-06;  1.2284545E+01;
 -3.9999999E-02;  9.9999998E-03;  4.4999999E-01;1544;  0.0000000E+00;  0.0000000E+00;  0.0000000E+00;  1.0000000E+03;  1.0000000E-01;  0.0000000E+00;0;  0.0000000E+00;  0.0000000E+00;  0.0000000E+00;0;  7.6542915E-07;  4.0000000E+04;  0.0000000E+00;  0.0000000E+00;  4.0000000E+04;  0.0000000E+00;  4.0000000E+04;  1.7673163E-07;  0.0000000E+00;  5.8869750E-07;  1.4206066E+00;
 -2.9999999E-02;  9.9999998E-03;  4.1000000E-01;1631;  0.0000000E+00;  0.0000000E+00;  0.0000000E+00;  1.0000668E+03;  1.0000000E-01;  5.5307079E+01;0;  0.0000000E+00;  0.0000000E+00;  0.0000000E+00;0;  3.1516002E-04;  4.0000000E+04;  0.0000000E+00;  0.0000000E+00;  4.0000000E+04;  0.0000000E+00;  4.0000000E+04;  9.1554117E-05;  0.0000000E+00;  2.2360592E-04;  3.1199597E+02;
 -2.9999999E-02;  9.9999998E-03;  4.1999999E-01;1632;  0.0000000E+00;  0.0000000E+00;  0.0000000E+00;  1.0000106E+03;  1.0000000E-01;  8.7898750E+00;0;  0.0000000E+00;  0.0000000E+00;  0.0000000E+00;0;  1.4748132E-04;  4.0000000E+04;  0.0000000E+00;  0.0000000E+00;  4.0000000E+04;  0.0000000E+00;  4.0000000E+04;  3.6744928E-05;  0.0000000E+00;  1.1073639E-04;  1.6613246E+02;
 -2.9999999E-02;  9.9999998E-03;  4.3000001E-01;1633;  0.0000000E+00;  0.0000000E+00;  0.0000000E+00;  1.0000000E+03;  1.0000000E-01;  0.0000000E+00;0;  0.0000000E+00;  0.0000000E+00;  0.0000000E+00;0;  5.4880322E-05;  4.0000000E+04;  0.0000000E+00;  0.0000000E+00;  4.0000000E+04;  0.0000000E+00;  4.0000000E+04;  1.1994513E-05;  0.0000000E+00;  4.2885811E-05;  7.0971092E+01;
 -2.9999999E-02;  9.9999998E-03;  4.4000000E-01;1634;  0.0000000E+00;  0.0000000E+00;  0.0000000E+00;  1.0000000E+03;  1.0000000E-01;  0.0000000E+00;0;  0.0000000E+00;  0.0000000E+00;  0.0000000E+00;0;  1.4058340E-05;  4.0000000E+04;  0.0000000E+00;  0.0000000E+00;  4.0000000E+04;  0.0000000E+00;  4.0000000E+04;  2.7948627E-06;  0.0000000E+00;  1.1263477E-05;  2.1401943E+01;
 -2.9999999E-02;  9.9999998E-03;  4.4999999E-01;1635;  0.0000000E+00;  0.0000000E+00;  0.0000000E+00;  1.0000000E+03;  1.0000000E-01;  0.0000000E+00;0;  0.0000000E+00;  0.0000000E+00;  0.0000000E+00;0;  1.8083879E-06;  4.0000000E+04;  0.0000000E+00;  0.0000000E+00;  4.0000000E+04;  0.0000000E+00;  4.0000000E+04;  3.4527395E-07;  0.0000000E+00;  1.4631139E-06;  3.3693557E+00;
 -2.0000000E-02;  9.9999998E-03;  4.1000000E-01;1722;  0.0000000E+00;  0.0000000E+00;  0.0000000E+00;  1.0000828E+03;  1.0000000E-01;  6.8541275E+01;0;  0.0000000E+00;  0.0000000E+00;  0.0000000E+00;0;  3.7795195E-04;  4.0000000E+04;  0.0000000E+00;  0.0000000E+00;  4.0000000E+04;  0.0000000E+00;  4.0000000E+04;  9.6116666E-05;  0.0000000E+00;  2.8183530E-04;  3.9137723E+02;
 -2.0000000E-02;  9.9999998E-03;  4.1999999E-01;1723;  0.0000000E+00;  0.0000000E+00;  0.0000000E+00;  1.0000462E+03;  1.0000000E-01;  3.8319904E+01;0;  0.0000000E+00;  0.0000000E+00;  0.0000000E+00;0;  1.8363309E-04;  4.0000000E+04;  0.0000000E+00;  0.0000000E+00;  4.0000000E+04;  0.0000000E+00;  4.0000000E+04;  3.8995157E-05;  0.0000000E+00;  1.4463793E-04;  2.1545160E+02;
 -2.0000000E-02;  9.9999998E-03;  4.3000001E-01;1724;  0.0000000E+00;  0.0000000E+00;  0.0000000E+00;  1.0000000E+03;  1.0000000E-01;  0.0000000E+00;0;  0.0000000E+00;  0.0000000E+00;  0.0000000E+00;0;  7.2355928E-05;  4.0000000E+04;  0.0000000E+00;  0.0000000E+00;  4.0000000E+04;  0.0000000E+00;  4.0000000E+04;  1.3069427E-05;  0.0000000E+00;  5.9286504E-05;  9.7094429E+01;
 -2.0000000E-02;  9.9999998E-03;  4.4000000E-01;1725;  0.0000000E+00;  0.0000000E+00;  0.0000000E+00;  1.0000000E+03;  1.0000000E-01;  0.0000000E+00;0;  0.0000000E+00;  0.0000000E+00;  0.0000000E+00;0;  2.0441070E-05;  4.0000000E+04;  0.0000000E+00;  0.0000000E+00;  4.0000000E+04;  0.0000000E+00;  4.0000000E+04;  3.2456339E-06;  0.0000000E+00;  1.7195436E-05;  3.2172409E+01;
 -2.0000000E-02;  9.9999998E-03;  4.4999999E-01;1726;  0.0000000E+00;  0.0000000E+00;  0.0000000E+00;  1.0000000E+03;  1.0000000E-01;  0.0000000E+00;0;  0.0000000E+00;  0.0000000E+00;  0.0000000E+00;0;  3.2246116E-06;  4.0000000E+04;  0.0000000E+00;  0.0000000E+00;  4.0000000E+04;  0.0000000E+00;  4.0000000E+04;  4.7746505E-07;  0.0000000E+00;  2.7471465E-06;  6.1741734E+00;
 -9.9999998E-03;  9.9999998E-03;  4.1000000E-01;1813;  0.0000000E+00;  0.0000000E+00;  0.0000000E+00;  1.0001279E+03;  1.0000000E-01;  1.0597231E+02;0;  0.0000000E+00;  0.0000000E+00;  0.0000000E+00;0;  4.2303695E-04;  4.0000000E+04;  0.0000000E+00;  0.0000000E+00;  4.0000000E+04;  0.0000000E+00;  4.0000000E+04;  9.1475777E-05;  0.0000000E+00;  3.3156117E-04;  4.6223291E+02;
 -9.9999998E-03;  9.9999998E-03;  4.1999999E-01;1814;  0.0000000E+00;  0.0000000E+00;  0.0000000E+00;  1.0000550E+03;  1.0000000E-01;  4.5529575E+01;0;  0.0000000E+00;  0.0000000E+00;  0.0000000E+00;0;  2.1082949E-04;  4.0000000E+04;  0.0000000E+00;  0.0000000E+00;  4.0000000E+04;  0.0000000E+00;  4.0000000E+04;  3.6548980E-05;  0.0000000E+00;  1.7428050E-04;  2.6015601E+02;
 -9.9999998E-03;  9.9999998E-03;  4.3000001E-01;1815;  0.0000000E+00;  0.0000000E+00;  0.0000000E+00;  1.0000000E+03;  1.0000000E-01;  0.0000000E+00;0;  0.0000000E+00;  0.0000000E+00;  0.0000000E+00;0;  8.6425061E-05;  4.0000000E+04;  0.0000000E+00;  0.0000000E+00;  4.0000000E+04;  0.0000000E+00;  4.0000000E+04;  1.2131530E-05;  0.0000000E+00;  7.4293530E-05;  1.2158704E+02;
 -9.9999998E-03;  9.9999998E-03;  4.4000000E-01;1816;  0.0000000E+00;  0.0000000E+00;  0.0000000E+00;  1.0000000E+03;  1.0000000E-01;  0.0000000E+00;0;  0.0000000E+00;  0.0000000E+00;  0.0000000E+00;0;  2.6109483E-05;  4.0000000E+04;  0.0000000E+00;  0.0000000E+00;  4.0000000E+04;  0.0000000E+00;  4.0000000E+04;  3.0420260E-06;  0.0000000E+00;  2.3067456E-05;  4.2972198E+01;
 -9.9999998E-03;  9.9999998E-03;  4.4999999E-01;1817;  0.0000000E+00;  0.0000000E+00;  0.0000000E+00;  1.0000000E+03;  1.0000000E-01;  0.0000000E+00;0;  0.0000000E+00;  0.0000000E+00;  0.0000000E+00;0;  4.7022709E-06;  4.0000000E+04;  0.0000000E+00;  0.0000000E+00;  4.0000000E+04;  0.0000000E+00;  4.0000000E+04;  4.8355821E-07;  0.0000000E+00;  4.2187125E-06;  9.3999224E+00;
  0.0000000E+00;  9.9999998E-03;  4.1000000E-01;1845;  0.0000000E+00;  0.0000000E+00;  0.0000000E+00;  1.0001499E+03;  1.0000000E-01;  1.2414464E+02;0;  0.0000000E+00;  0.0000000E+00;  0.0000000E+00;0;  4.4538226E-04;  4.0000000E+04;  0.0000000E+00;  0.0000000E+00;  4.0000000E+04;  0.0000000E+00;  4.0000000E+04;  7.9515034E-05;  0.0000000E+00;  3.6586722E-04;  5.1747076E+02;
  0.0000000E+00;  9.9999998E-03;  4.1999999E-01;1846;  0.0000000E+00;  0.0000000E+00;  0.0000000E+00;  1.0000707E+03;  1.0000000E-01;  5.8566246E+01;0;  0.0000000E+00;  0.0000000E+00;  0.0000000E+00;0;  2.2448598E-04;  4.0000000E+04;  0.0000000E+00;  0.0000000E+00;  4.0000000E+04;  0.0000000E+00;  4.0000000E+04;  2.9910085E-05;  0.0000000E+00;  1.9457590E-04;  2.9482101E+02;
  0.0000000E+00;  9.9999998E-03;  4.3000001E-01;1847;  0.0000000E+00;  0.0000000E+00;  0.0000000E+00;  1.0000084E+03;  1.0000000E-01;  6.9133849E+00;0;  0.0000000E+00;  0.0000000E+00;  0.0000000E+00;0;  9.4167081E-05;  4.0000000E+04;  0.0000000E+00;  0.0000000E+00;  4.0000000E+04;  0.0000000E+00;  4.0000000E+04;  9.2294131E-06;  0.0000000E+00;  8.4937667E-05;  1.4085306E+02;
  0.0000000E+00;  9.9999998E-03;  4.4000000E-01;1848;  0.0000000E+00;  0.0000000E+00;  0.0000000E+00;  1.0000000E+03;  1.0000000E-01;  0.0000000E+00;0;  0.0000000E+00;  0.0000000E+00;  0.0000000E+00;0;  2.9689887E-05;  4.0000000E+04;  0.0000000E+00;  0.0000000E+00;  4.0000000E+04;  0.0000000E+00;  4.0000000E+04;  2.1296123E-06;  0.0000000E+00;  2.7560274E-05;  5.1892639E+01;
  0.0000000E+00;  9.9999998E-03;  4.4999999E-01;1849;  0.0000000E+00;  0.0000000E+00;  0.0000000E+00;  1.0000000E+03;  1.0000000E-01;  0.0000000E+00;0;  0.0000000E+00;  0.0000000E+00;  0.0000000E+00;0;  5.8309242E-06;  4.0000000E+04;  0.0000000E+00;  0.0000000E+00;  4.0000000E+04;  0.0000000E+00;  4.0000000E+04;  3.2285598E-07;  0.0000000E+00;  5.5080682E-06;  1.2360730E+01;
  9.9999998E-03;  9.9999998E-03;  4.1000000E-01;1875;  0.0000000E+00;  0.0000000E+00;  0.0000000E+00;  1.0001780E+03;  1.0000000E-01;  1.4745262E+02;0;  0.0000000E+00;  0.0000000E+00;  0.0000000E+00;0;  4.4754759E-04;  4.0000000E+04;  0.0000000E+00;  0.0000000E+00;  4.0000000E+04;  0.0000000E+00;  4.0000000E+04;  6.6102599E-05;  0.0000000E+00;  3.8144499E-04;  5.5301636E+02;
  9.9999998E-03;  9.9999998E-03;  4.1999999E-01;1876;  0.0000000E+00;  0.0000000E+00;  0.0000000E+00;  1.0000889E+03;  1.0000000E-01;  7.3676926E+01;0;  0.0000000E+00;  0.0000000E+00;  0.0000000E+00;0;  2.2343767E-04;  4.0000000E+04;  0.0000000E+00;  0.0000000E+00;  4.0000000E+04;  0.0000000E+00;  4.0000000E+04;  2.1486128E-05;  0.0000000E+00;  2.0195154E-04;  3.1570853E+02;
  9.9999998E-03;  9.9999998E-03;  4.3000001E-01;1877;  0.0000000E+00;  0.0000000E+00;  0.0000000E+00;  1.0000317E+03;  1.0000000E-01;  2.6270863E+01;0;  0.0000000E+00;  0.0000000E+00;  0.0000000E+00;0;  9.3802075E-05;  4.0000000E+04;  0.0000000E+00;  0.0000000E+00;  4.0000000E+04;  0.0000000E+00;  4.0000000E+04;  5.1765760E-06;  0.0000000E+00;  8.8625500E-05;  1.5204823E+02;
  9.9999998E-03;  9.9999998E-03;  4.4000000E-01;1878;  0.0000000E+00;  0.0000000E+00;  0.0000000E+00;  1.0000000E+03;  1.0000000E-01;  0.0000000E+00;0;  0.0000000E+00;  0.0000000E+00;  0.0000000E+00;0;  3.0123027E-05;  4.0000000E+04;  0.0000000E+00;  0.0000000E+00;  4.0000000E+04;  0.0000000E+00;  4.0000000E+04;  7.3560471E-07;  0.0000000E+00;  2.9387422E-05;  5.7222752E+01;
  9.9999998E-03;  9.9999998E-03;  4.4999999E-01;1879;  0.0000000E+00;  0.0000000E+00;  0.0000000E+00;  1.0000000E+03;  1.0000000E-01;  0.0000000E+00;0;  0.0000000E+00;  0.0000000E+00;  0.0000000E+00;0;  6.2264571E-06;  4.0000000E+04;  0.0000000E+00;  0.0000000E+00;  4.0000000E+04;  0.0000000E+00;  4.0000000E+04;  3.2272865E-08;  0.0000000E+00;  6.1941842E-06;  1.4330263E+01;
  2.0000000E-02;  9.9999998E-03;  4.1000000E-01;1905;  0.0000000E+00;  0.0000000E+00;  0.0000000E+00;  1.0002037E+03;  1.0000000E-01;  1.6878535E+02;0;  0.0000000E+00;  0.0000000E+00;  0.0000000E+00;0;  4.4108502E-04;  4.0000000E+04;  0.0000000E+00;  0.0000000E+00;  4.0000000E+04;  0.0000000E+00;  4.0000000E+04;  6.0445760E-05;  0.0000000E+00;  3.8063928E-04;  5.6950220E+02;
  2.0000000E-02;  9.9999998E-03;  4.1999999E-01;1906;  0.0000000E+00;  0.0000000E+00;  0.0000000E+00;  1.0001116E+03;  1.0000000E-01;  9.2441833E+01;0;  0.0000000E+00;  0.0000000E+00;  0.0000000E+00;0;  2.1218124E-04;  4.0000000E+04;  0.0000000E+00;  0.0000000E+00;  4.0000000E+04;  0.0000000E+00;  4.0000000E+04;  1.5775635E-05;  0.0000000E+00;  1.9640561E-04;  3.2210132E+02;
  2.0000000E-02;  9.9999998E-03;  4.3000001E-01;1907;  0.0000000E+00;  0.0000000E+00;  0.0000000E+00;  1.0000461E+03;  1.0000000E-01;  3.8221142E+01;0;  0.0000000E+00;  0.0000000E+00;  0.0000000E+00;0;  8.5842010E-05;  4.0000000E+04;  0.0000000E+00;  0.0000000E+00;  4.0000000E+04;  0.0000000E+00;  4.0000000E+04;  1.6469278E-06;  0.0000000E+00;  8.4195082E-05;  1.5392761E+02;
  2.0000000E-02;  9.9999998E-03;  4.4000000E-01;1908;  0.0000000E+00;  0.0000000E+00;  0.0000000E+00;  1.0000000E+03;  1.0000000E-01;  0.0000000E+00;0;  0.0000000E+00;  0.0000000E+00;  0.0000000E+00;0;  2.7011189E-05;  4.0000000E+04;  0.0000000E+00;  0.0000000E+00;  4.0000000E+04;  0.0000000E+00;  4.0000000E+04; -6.4803635E-07;  0.0000000E+00;  2.7659225E-05;  5.7921986E+01;
  2.0000000E-02;  9.9999998E-03;  4.4999999E-01;1909;  0.0000000E+00;  0.0000000E+00;  0.0000000E+00;  1.0000000E+03;  1.0000000E-01;  0.0000000E+00;0;  0.0000000E+00;  0.0000000E+00;  0.0000000E+00;0;  5.6562285E-06;  4.0000000E+04;  0.0000000E+00;  0.0000000E+00;  4.0000000E+04;  0.0000000E+00;  4.0000000E+04; -2.7998706E-07;  0.0000000E+00;  5.9362155E-06;  1.4769721E+01;
  2.9999999E-02;  9.9999998E-03;  4.1000000E-01;1935;  0.0000000E+00;  0.0000000E+00;  0.0000000E+00;  1.0002367E+03;  1.0000000E-01;  1.9614259E+02;0;  0.0000000E+00;  0.0000000E+00;  0.0000000E+00;0;  4.4456712E-04;  4.0000000E+04;  0.0000000E+00;  0.0000000E+00;  4.0000000E+04;  0.0000000E+00;  4.0000000E+04;  7.2737625E-05;  0.0000000E+00;  3.7182949E-04;  5.7344745E+02;
  2.9999999E-02;  9.9999998E-03;  4.1999999E-01;1936;  0.0000000E+00;  0.0000000E+00;  0.0000000E+00;  1.0001301E+03;  1.0000000E-01;  1.0775004E+02;0;  0.0000000E+00;  0.0000000E+00;  0.0000000E+00;0;  2.0100790E-04;  4.0000000E+04;  0.0000000E+00;  0.0000000E+00;  4.0000000E+04;  0.0000000E+00;  4.0000000E+04;  1.8469245E-05;  0.0000000E+00;  1.8253866E-04;  3.1726657E+02;
  2.9999999E-02;  9.9999998E-03;  4.3000001E-01;1937;  0.0000000E+00;  0.0000000E+00;  0.0000000E+00;  1.0000506E+03;  1.0000000E-01;  4.1875359E+01;0;  0.0000000E+00;  0.0000000E+00;  0.0000000E+00;0;  7.4254909E-05;  4.0000000E+04;  0.0000000E+00;  0.0000000E+00;  4.0000000E+04;  0.0000000E+00;  4.0000000E+04;  1.1173189E-06;  0.0000000E+00;  7.3137591E-05;  1.4754895E+02;
  2.9999999E-02;  9.9999998E-03;  4.4000000E-01;1938;  0.0000000E+00;  0.0000000E+00;  0.0000000E+00;  1.0000000E+03;  1.0000000E-01;  0.0000000E+00;0;  0.0000000E+00;  0.0000000E+00;  0.0000000E+00;0;  2.1043024E-05;  4.0000000E+04;  0.0000000E+00;  0.0000000E+00;  4.0000000E+04;  0.0000000E+00;  4.0000000E+04; -1.3078316E-06;  0.0000000E+00;  2.2350856E-05;  5.4008228E+01;
  2.9999999E-02;  9.9999998E-03;  4.4999999E-01;1939;  0.0000000E+00;  0.0000000E+00;  0.0000000E+00;  1.0000000E+03;  1.0000000E-01;  0.0000000E+00;0;  0.0000000E+00;  0.0000000E+00;  0.0000000E+00;0;  4.1267776E-06;  4.0000000E+04;  0.0000000E+00;  0.0000000E+00;  4.0000000E+04;  0.0000000E+00;  4.0000000E+04; -4.7126923E-07;  0.0000000E+00;  4.5980469E-06;  1.3507719E+01;
  3.9999999E-02;  9.9999998E-03;  4.1000000E-01;1965;  0.0000000E+00;  0.0000000E+00;  0.0000000E+00;  1.0002566E+03;  1.0000000E-01;  2.1253720E+02;0;  0.0000000E+00;  0.0000000E+00;  0.0000000E+00;0;  4.7932344E-04;  4.0000000E+04;  0.0000000E+00;  0.0000000E+00;  4.0000000E+04;  0.0000000E+00;  4.0000000E+04;  1.1109271E-04;  0.0000000E+00;  3.6823074E-04;  5.7709918E+02;
  3.9999999E-02;  9.9999998E-03;  4.1999999E-01;1966;  0.0000000E+00;  0.0000000E+00;  0.0000000E+00;  1.0001376E+03;  1.0000000E-01;  1.1407085E+02;0;  0.0000000E+00;  0.0000000E+00;  0.0000000E+00;0;  2.0377622E-04;  4.0000000E+04;  0.0000000E+00;  0.0000000E+00;  4.0000000E+04;  0.0000000E+00;  4.0000000E+04;  3.4667977E-05;  0.0000000E+00;  1.6910824E-04;  3.0867941E+02;
  3.9999999E-02;  9.9999998E-03;  4.3000001E-01;1967;  0.0000000E+00;  0.0000000E+00;  0.0000000E+00;  1.0000569E+03;  1.0000000E-01;  4.7109779E+01;0;  0.0000000E+00;  0.0000000E+00;  0.0000000E+00;0;  6.6137800E-05;  4.0000000E+04;  0.0000000E+00;  0.0000000E+00;  4.0000000E+04;  0.0000000E+00;  4.0000000E+04;  6.2031504E-06;  0.0000000E+00;  5.9934649E-05;  1.3659598E+02;
  3.9999999E-02;  9.9999998E-03;  4.4000000E-01;1968;  0.0000000E+00;  0.0000000E+00;  0.0000000E+00;  1.0000000E+03;  1.0000000E-01;  0.0000000E+00;0;  0.0000000E+00;  0.0000000E+00;  0.0000000E+00;0;  1.4479683E-05;  4.0000000E+04;  0.0000000E+00;  0.0000000E+00;  4.0000000E+04;  0.0000000E+00;  4.0000000E+04; -3.6316274E-07;  0.0000000E+00;  1.4842846E-05;  4.6792686E+01;
  3.9999999E-02;  9.9999998E-03;  4.4999999E-01;1969;  0.0000000E+00;  0.0000000E+00;  0.0000000E+00;  1.0000000E+03;  1.0000000E-01;  0.0000000E+00;0;  0.0000000E+00;  0.0000000E+00;  0.0000000E+00;0;  1.9447054E-06;  4.0000000E+04;  0.0000000E+00;  0.0000000E+00;  4.0000000E+04;  0.0000000E+00;  4.0000000E+04; -4.0411723E-07;  0.0000000E+00;  2.3488226E-06;  1.0836316E+01;
  5.0000001E-02;  9.9999998E-03;  4.1000000E-01;1995;  0.0000000E+00;  0.0000000E+00;  0.0000000E+00;  1.0002643E+03;  1.0000000E-01;  2.1895677E+02;0;  0.0000000E+00;  0.0000000E+00;  0.0000000E+00;0;  5.6429440E-04;  4.0000000E+04;  0.0000000E+00;  0.0000000E+00;  4.0000000E+04;  0.0000000E+00;  4.0000000E+04;  1.7893163E-04;  0.0000000E+00;  3.8536280E-04;  5.9662964E+02;
  5.0000001E-02;  9.9999998E-03;  4.1999999E-01;1996;  0.0000000E+00;  0.0000000E+00;  0.0000000E+00;  1.0001482E+03;  1.0000000E-01;  1.2276196E+02;0;  0.0000000E+00;  0.0000000E+00;  0.0000000E+00;0;  2.3444249E-04;  4.0000000E+04;  0.0000000E+00;  0.0000000E+00;  4.0000000E+04;  0.0000000E+00;  4.0000000E+04;  6.7069588E-05;  0.0000000E+00;  1.6737290E-04;  3.0726242E+02;
  5.0000001E-02;  9.9999998E-03;  4.3000001E-01;1997;  0.0000000E+00;  0.0000000E+00;  0.0000000E+00;  1.0000646E+03;  1.0000000E-01;  5.3529350E+01;0;  0.0000000E+00;  0.0000000E+00;  0.0000000E+00;0;  6.9987669E-05;  4.0000000E+04;  0.0000000E+00;  0.0000000E+00;  4.0000000E+04;  0.0000000E+00;  4.0000000E+04;  1.8662773E-05;  0.0000000E+00;  5.1324900E-05;  1.2714446E+02;
  5.0000001E-02;  9.9999998E-03;  4.4000000E-01;1998;  0.0000000E+00;  0.0000000E+00;  0.0000000E+00;  1.0000000E+03;  1.0000000E-01;  0.0000000E+00;0;  0.0000000E+00;  0.0000000E+00;  0.0000000E+00;0;  1.0962986E-05;  4.0000000E+04;  0.0000000E+00;  0.0000000E+00;  4.0000000E+04;  0.0000000E+00;  4.0000000E+04;  2.9699213E-06;  0.0000000E+00;  7.9930651E-06;  3.8862411E+01;
  5.0000001E-02;  9.9999998E-03;  4.4999999E-01;1999;  0.0000000E+00;  0.0000000E+00;  0.0000000E+00;  1.0000000E+03;  1.0000000E-01;  0.0000000E+00;0;  0.0000000E+00;  0.0000000E+00;  0.0000000E+00;0; -1.7147076E-07;  4.0000000E+04;  0.0000000E+00;  0.0000000E+00;  4.0000000E+04;  0.0000000E+00;  4.0000000E+04;  5.1505822E-08;  0.0000000E+00; -2.2297658E-07;  7.5052180E+00;
  5.9999999E-02;  9.9999998E-03;  4.1000000E-01;2025;  0.0000000E+00;  0.0000000E+00;  0.0000000E+00;  1.0002708E+03;  1.0000000E-01;  2.2428995E+02;0;  0.0000000E+00;  0.0000000E+00;  0.0000000E+00;0;  7.1172568E-04;  4.0000000E+04;  0.0000000E+00;  0.0000000E+00;  4.0000000E+04;  0.0000000E+00;  4.0000000E+04;  2.7396035E-04;  0.0000000E+00;  4.3776529E-04;  6.4869543E+02;
  5.9999999E-02;  9.9999998E-03;  4.1999999E-01;2026;  0.0000000E+00;  0.0000000E+00;  0.0000000E+00;  1.0001510E+03;  1.0000000E-01;  1.2513226E+02;0;  0.0000000E+00;  0.0000000E+00;  0.0000000E+00;0;  3.0350691E-04;  4.0000000E+04;  0.0000000E+00;  0.0000000E+00;  4.0000000E+04;  0.0000000E+00;  4.0000000E+04;  1.1494798E-04;  0.0000000E+00;  1.8855892E-04;  3.2527960E+02;
  5.9999999E-02;  9.9999998E-03;  4.3000001E-01;2027;  0.0000000E+00;  0.0000000E+00;  0.0000000E+00;  1.0000660E+03;  1.0000000E-01;  5.4615738E+01;0;  0.0000000E+00;  0.0000000E+00;  0.0000000E+00;0;  9.3330309E-05;  4.0000000E+04;  0.0000000E+00;  0.0000000E+00;  4.0000000E+04;  0.0000000E+00;  4.0000000E+04;  3.8610950E-05;  0.0000000E+00;  5.4719356E-05;  1.2672282E+02;
  5.9999999E-02;  9.9999998E-03;  4.4000000E-01;2028;  0.0000000E+00;  0.0000000E+00;  0.0000000E+00;  1.0000000E+03;  1.0000000E-01;  0.0000000E+00;0;  0.0000000E+00;  0.0000000E+00;  0.0000000E+00;0;  1.4487605E-05;  4.0000000E+04;  0.0000000E+00;  0.0000000E+00;  4.0000000E+04;  0.0000000E+00;  4.0000000E+04;  9.0011217E-06;  0.0000000E+00;  5.4864831E-06;  3.3718468E+01;
  5.9999999E-02;  9.9999998E-03;  4.4999999E-01;2029;  0.0000000E+00;  0.0000000E+00;  0.0000000E+00;  1.0000000E+03;  1.0000000E-01;  0.0000000E+00;0;  0.0000000E+00;  0.0000000E+00;  0.0000000E+00;0; -1.0469265E-06;  4.0000000E+04;  0.0000000E+00;  0.0000000E+00;  4.0000000E+04;  0.0000000E+00;  4.0000000E+04;  1.0294171E-06;  0.0000000E+00; -2.0763437E-06;  4.6050000E+00;
  7.0000000E-02;  9.9999998E-03;  4.1000000E-01;2055;  0.0000000E+00;  0.0000000E+00;  0.0000000E+00;  1.0002794E+03;  1.0000000E-01;  2.3140086E+02;0;  0.0000000E+00;  0.0000000E+00;  0.0000000E+00;0;  9.2464767E-04;  4.0000000E+04;  0.0000000E+00;  0.0000000E+00;  4.0000000E+04;  0.0000000E+00;  4.0000000E+04;  3.8869877E-04;  0.0000000E+00;  5.3594890E-04;  7.4633124E+02;
  7.0000000E-02;  9.9999998E-03;  4.1999999E-01;2056;  0.0000000E+00;  0.0000000E+00;  0.0000000E+00;  1.0001518E+03;  1.0000000E-01;  1.2572484E+02;0;  0.0000000E+00;  0.0000000E+00;  0.0000000E+00;0;  4.1566195E-04;  4.0000000E+04;  0.0000000E+00;  0.0000000E+00;  4.0000000E+04;  0.0000000E+00;  4.0000000E+04;  1.7445425E-04;  0.0000000E+00;  2.4120770E-04;  3.7326642E+02;
  7.0000000E-02;  9.9999998E-03;  4.3000001E-01;2057;  0.0000000E+00;  0.0000000E+00;  0.0000000E+00;  1.0000672E+03;  1.0000000E-01;  5.5702129E+01;0;  0.0000000E+00;  0.0000000E+00;  0.0000000E+00;0;  1.4068204E-04;  4.0000000E+04;  0.0000000E+00;  0.0000000E+00;  4.0000000E+04;  0.0000000E+00;  4.0000000E+04;  6.4412008E-05;  0.0000000E+00;  7.6270029E-05;  1.4261929E+02;
  7.0000000E-02;  9.9999998E-03;  4.4000000E-01;2058;  0.0000000E+00;  0.0000000E+00;  0.0000000E+00;  1.0000000E+03;  1.0000000E-01;  0.0000000E+00;0;  0.0000000E+00;  0.0000000E+00;  0.0000000E+00;0;  2.8139060E-05;  4.0000000E+04;  0.0000000E+00;  0.0000000E+00;  4.0000000E+04;  0.0000000E+00;  4.0000000E+04;  1.7353319E-05;  0.0000000E+00;  1.0785740E-05;  3.5119770E+01;
  7.0000000E-02;  9.9999998E-03;  4.4999999E-01;2059;  0.0000000E+00;  0.0000000E+00;  0.0000000E+00;  1.0000000E+03;  1.0000000E-01;  0.0000000E+00;0;  0.0000000E+00;  0.0000000E+00;  0.0000000E+00;0;  5.6638009E-07;  4.0000000E+04;  0.0000000E+00;  0.0000000E+00;  4.0000000E+04;  0.0000000E+00;  4.0000000E+04;  2.5741817E-06;  0.0000000E+00; -2.0078016E-06;  3.3538113E+00;
  7.9999998E-02;  9.9999998E-03;  4.1000000E-01;2085;  0.0000000E+00;  0.0000000E+00;  0.0000000E+00;  1.0002816E+03;  1.0000000E-01;  2.3327736E+02;0;  0.0000000E+00;  0.0000000E+00;  0.0000000E+00;0;  1.1946840E-03;  4.0000000E+04;  0.0000000E+00;  0.0000000E+00;  4.0000000E+04;  0.0000000E+00;  4.0000000E+04;  5.1096070E-04;  0.0000000E+00;  6.8372325E-04;  8.9564795E+02;
  7.9999998E-02;  9.9999998E-03;  4.1999999E-01;2086;  0.0000000E+00;  0.0000000E+00;  0.0000000E+00;  1.0001471E+03;  1.0000000E-01;  1.2187309E+02;0;  0.0000000E+00;  0.0000000E+00;  0.0000000E+00;0;  5.6874845E-04;  4.0000000E+04;  0.0000000E+00;  0.0000000E+00;  4.0000000E+04;  0.0000000E+00;  4.0000000E+04;  2.3951399E-04;  0.0000000E+00;  3.2923449E-04;  4.5706424E+02;
  7.9999998E-02;  9.9999998E-03;  4.3000001E-01;2087;  0.0000000E+00;  0.0000000E+00;  0.0000000E+00;  1.0000687E+03;  1.0000000E-01;  5.6887280E+01;0;  0.0000000E+00;  0.0000000E+00;  0.0000000E+00;0;  2.1245552E-04;  4.0000000E+04;  0.0000000E+00;  0.0000000E+00;  4.0000000E+04;  0.0000000E+00;  4.0000000E+04;  9.3254981E-05;  0.0000000E+00;  1.1920053E-04;  1.7972112E+02;
  7.9999998E-02;  9.9999998E-03;  4.4000000E-01;2088;  0.0000000E+00;  0.0000000E+00;  0.0000000E+00;  1.0000000E+03;  1.0000000E-01;  0.0000000E+00;0;  0.0000000E+00;  0.0000000E+00;  0.0000000E+00;0;  5.3114913E-05;  4.0000000E+04;  0.0000000E+00;  0.0000000E+00;  4.0000000E+04;  0.0000000E+00;  4.0000000E+04;  2.7043348E-05;  0.0000000E+00;  2.6071566E-05;  4.6126740E+01;
  7.9999998E-02;  9.9999998E-03;  4.4999999E-01;2089;  0.0000000E+00;  0.0000000E+00;  0.0000000E+00;  1.0000000E+03;  1.0000000E-01;  0.0000000E+00;0;  0.0000000E+00;  0.0000000E+00;  0.0000000E+00;0;  5.5162809E-06;  4.0000000E+04;  0.0000000E+00;  0.0000000E+00;  4.0000000E+04;  0.0000000E+00;  4.0000000E+04;  4.5477445E-06;  0.0000000E+00;  9.6853660E-07;  4.8423066E+00;
  9.0000004E-02;  9.9999998E-03;  4.1000000E-01;2115;  0.0000000E+00;  0.0000000E+00;  0.0000000E+00;  1.0002789E+03;  1.0000000E-01;  2.3100581E+02;0;  0.0000000E+00;  0.0000000E+00;  0.0000000E+00;0;  1.5007232E-03;  4.0000000E+04;  0.0000000E+00;  0.0000000E+00;  4.0000000E+04;  0.0000000E+00;  4.0000000E+04;  6.2503380E-04;  0.0000000E+00;  8.7568944E-04;  1.0938613E+03;
  9.0000004E-02;  9.9999998E-03;  4.1999999E-01;2116;  0.0000000E+00;  0.0000000E+00;  0.0000000E+00;  1.0001422E+03;  1.0000000E-01;  1.1782383E+02;0;  0.0000000E+00;  0.0000000E+00;  0.0000000E+00;0;  7.5265544E-04;  4.0000000E+04;  0.0000000E+00;  0.0000000E+00;  4.0000000E+04;  0.0000000E+00;  4.0000000E+04;  3.0214354E-04;  0.0000000E+00;  4.5051187E-04;  5.7621765E+02;
  9.0000004E-02;  9.9999998E-03;  4.3000001E-01;2117;  0.0000000E+00;  0.0000000E+00;  0.0000000E+00;  1.0000709E+03;  1.0000000E-01;  5.8763771E+01;0;  0.0000000E+00;  0.0000000E+00;  0.0000000E+00;0;  3.0482415E-04;  4.0000000E+04;  0.0000000E+00;  0.0000000E+00;  4.0000000E+04;  0.0000000E+00;  4.0000000E+04;  1.2188439E-04;  0.0000000E+00;  1.8293977E-04;  2.3889742E+02;
  9.0000004E-02;  9.9999998E-03;  4.4000000E-01;2118;  0.0000000E+00;  0.0000000E+00;  0.0000000E+00;  1.0000000E+03;  1.0000000E-01;  0.0000000E+00;0;  0.0000000E+00;  0.0000000E+00;  0.0000000E+00;0;  8.8337540E-05;  4.0000000E+04;  0.0000000E+00;  0.0000000E+00;  4.0000000E+04;  0.0000000E+00;  4.0000000E+04;  3.6873978E-05;  0.0000000E+00;  5.1463561E-05;  6.8009293E+01;
  9.0000004E-02;  9.9999998E-03;  4.4999999E-01;2119;  0.0000000E+00;  0.0000000E+00;  0.0000000E+00;  1.0000000E+03;  1.0000000E-01;  0.0000000E+00;0;  0.0000000E+00;  0.0000000E+00;  0.0000000E+00;0;  1.3873005E-05;  4.0000000E+04;  0.0000000E+00;  0.0000000E+00;  4.0000000E+04;  0.0000000E+00;  4.0000000E+04;  6.6531516E-06;  0.0000000E+00;  7.2198536E-06;  9.7181444E+00;
  1.0000000E-01;  9.9999998E-03;  4.1000000E-01;2145;  0.0000000E+00;  0.0000000E+00;  0.0000000E+00;  1.0002726E+03;  1.0000000E-01;  2.2587015E+02;0;  0.0000000E+00;  0.0000000E+00;  0.0000000E+00;0;  1.8111893E-03;  4.0000000E+04;  0.0000000E+00;  0.0000000E+00;  4.0000000E+04;  0.0000000E+00;  4.0000000E+04;  7.1436958E-04;  0.0000000E+00;  1.0968198E-03;  1.3306965E+03;
  1.0000000E-01;  9.9999998E-03;  4.1999999E-01;2146;  0.0000000E+00;  0.0000000E+00;  0.0000000E+00;  1.0001379E+03;  1.0000000E-01;  1.1426837E+02;0;  0.0000000E+00;  0.0000000E+00;  0.0000000E+00;0;  9.4880012E-04;  4.0000000E+04;  0.0000000E+00;  0.0000000E+00;  4.0000000E+04;  0.0000000E+00;  4.0000000E+04;  3.5292105E-04;  0.0000000E+00;  5.9587904E-04;  7.2492657E+02;
  1.0000000E-01;  9.9999998E-03;  4.3000001E-01;2147;  0.0000000E+00;  0.0000000E+00;  0.0000000E+00;  1.0000734E+03;  1.0000000E-01;  6.0837784E+01;0;  0.0000000E+00;  0.0000000E+00;  0.0000000E+00;0;  4.0945417E-04;  4.0000000E+04;  0.0000000E+00;  0.0000000E+00;  4.0000000E+04;  0.0000000E+00;  4.0000000E+04;  1.4644934E-04;  0.0000000E+00;  2.6300483E-04;  3.1746307E+02;
  1.0000000E-01;  9.9999998E-03;  4.4000000E-01;2148;  0.0000000E+00;  0.0000000E+00;  0.0000000E+00;  1.0000000E+03;  1.0000000E-01;  0.0000000E+00;0;  0.0000000E+00;  0.0000000E+00;  0.0000000E+00;0;  1.3076674E-04;  4.0000000E+04;  0.0000000E+00;  0.0000000E+00;  4.0000000E+04;  0.0000000E+00;  4.0000000E+04;  4.5690071E-05;  0.0000000E+00;  8.5076674E-05;  1.0003642E+02;
  1.0000000E-01;  9.9999998E-03;  4.4999999E-01;2149;  0.0000000E+00;  0.0000000E+00;  0.0000000E+00;  1.0000000E+03;  1.0000000E-01;  0.0000000E+00;0;  0.0000000E+00;  0.0000000E+00;  0.0000000E+00;0;  2.4829460E-05;  4.0000000E+04;  0.0000000E+00;  0.0000000E+00;  4.0000000E+04;  0.0000000E+00;  4.0000000E+04;  8.5554084E-06;  0.0000000E+00;  1.6274053E-05;  1.8013283E+01;
  1.1000000E-01;  9.9999998E-03;  4.1000000E-01;2175;  0.0000000E+00;  0.0000000E+00;  0.0000000E+00;  1.0002712E+03;  1.0000000E-01;  2.2468500E+02;0;  0.0000000E+00;  0.0000000E+00;  0.0000000E+00;0;  2.0918744E-03;  4.0000000E+04;  0.0000000E+00;  0.0000000E+00;  4.0000000E+04;  0.0000000E+00;  4.0000000E+04;  7.6582964E-04;  0.0000000E+00;  1.3260447E-03;  1.5961017E+03;
  1.1000000E-01;  9.9999998E-03;  4.1999999E-01;2176;  0.0000000E+00;  0.0000000E+00;  0.0000000E+00;  1.0001387E+03;  1.0000000E-01;  1.1486095E+02;0;  0.0000000E+00;  0.0000000E+00;  0.0000000E+00;0;  1.1327891E-03;  4.0000000E+04;  0.0000000E+00;  0.0000000E+00;  4.0000000E+04;  0.0000000E+00;  4.0000000E+04;  3.8271322E-04;  0.0000000E+00;  7.5007585E-04;  8.9875958E+02;
  1.1000000E-01;  9.9999998E-03;  4.3000001E-01;2177;  0.0000000E+00;  0.0000000E+00;  0.0000000E+00;  1.0000676E+03;  1.0000000E-01;  5.5998417E+01;0;  0.0000000E+00;  0.0000000E+00;  0.0000000E+00;0;  5.1346445E-04;  4.0000000E+04;  0.0000000E+00;  0.0000000E+00;  4.0000000E+04;  0.0000000E+00;  4.0000000E+04;  1.6240869E-04;  0.0000000E+00;  3.5105573E-04;  4.1342264E+02;
  1.1000000E-01;  9.9999998E-03;  4.4000000E-01;2178;  0.0000000E+00;  0.0000000E+00;  0.0000000E+00;  1.0000000E+03;  1.0000000E-01;  0.0000000E+00;0;  0.0000000E+00;  0.0000000E+00;  0.0000000E+00;0;  1.7567877E-04;  4.0000000E+04;  0.0000000E+00;  0.0000000E+00;  4.0000000E+04;  0.0000000E+00;  4.0000000E+04;  5.2211613E-05;  0.0000000E+00;  1.2346715E-04;  1.4125189E+02;
  1.1000000E-01;  9.9999998E-03;  4.4999999E-01;2179;  0.0000000E+00;  0.0000000E+00;  0.0000000E+00;  1.0000000E+03;  1.0000000E-01;  0.0000000E+00;0;  0.0000000E+00;  0.0000000E+00;  0.0000000E+00;0;  3.7008394E-05;  4.0000000E+04;  0.0000000E+00;  0.0000000E+00;  4.0000000E+04;  0.0000000E+00;  4.0000000E+04;  9.9966328E-06;  0.0000000E+00;  2.7011762E-05;  2.9565269E+01;
  1.2000000E-01;  9.9999998E-03;  4.1000000E-01;2205;  0.0000000E+00;  0.0000000E+00;  0.0000000E+00;  1.0002827E+03;  1.0000000E-01;  2.3416621E+02;0;  0.0000000E+00;  0.0000000E+00;  0.0000000E+00;0;  2.3174412E-03;  4.0000000E+04;  0.0000000E+00;  0.0000000E+00;  4.0000000E+04;  0.0000000E+00;  4.0000000E+04;  7.7497511E-04;  0.0000000E+00;  1.5424661E-03;  1.9027213E+03;
  1.2000000E-01;  9.9999998E-03;  4.1999999E-01;2206;  0.0000000E+00;  0.0000000E+00;  0.0000000E+00;  1.0001401E+03;  1.0000000E-01;  1.1604610E+02;0;  0.0000000E+00;  0.0000000E+00;  0.0000000E+00;0;  1.2813167E-03;  4.0000000E+04;  0.0000000E+00;  0.0000000E+00;  4.0000000E+04;  0.0000000E+00;  4.0000000E+04;  3.8539863E-04;  0.0000000E+00;  8.9591811E-04;  1.1146472E+03;
  1.2000000E-01;  9.9999998E-03;  4.3000001E-01;2207;  0.0000000E+00;  0.0000000E+00;  0.0000000E+00;  1.0000652E+03;  1.0000000E-01;  5.4023163E+01;0;  0.0000000E+00;  0.0000000E+00;  0.0000000E+00;0;  6.0141308E-04;  4.0000000E+04;  0.0000000E+00;  0.0000000E+00;  4.0000000E+04;  0.0000000E+00;  4.0000000E+04;  1.6527630E-04;  0.0000000E+00;  4.3613676E-04;  5.3876532E+02;
  1.2000000E-01;  9.9999998E-03;  4.4000000E-01;2208;  0.0000000E+00;  0.0000000E+00;  0.0000000E+00;  1.0000000E+03;  1.0000000E-01;  0.0000000E+00;0;  0.0000000E+00;  0.0000000E+00;  0.0000000E+00;0;  2.1674947E-04;  4.0000000E+04;  0.0000000E+00;  0.0000000E+00;  4.0000000E+04;  0.0000000E+00;  4.0000000E+04;  5.4729178E-05;  0.0000000E+00;  1.6202028E-04;  1.9655522E+02;
  1.2000000E-01;  9.9999998E-03;  4.4999999E-01;2209;  0.0000000E+00;  0.0000000E+00;  0.0000000E+00;  1.0000000E+03;  1.0000000E-01;  0.0000000E+00;0;  0.0000000E+00;  0.0000000E+00;  0.0000000E+00;0;  4.8910788E-05;  4.0000000E+04;  0.0000000E+00;  0.0000000E+00;  4.0000000E+04;  0.0000000E+00;  4.0000000E+04;  1.0808845E-05;  0.0000000E+00;  3.8101942E-05;  4.5497894E+01;
  1.3000000E-01;  9.9999998E-03;  4.1000000E-01;2235;  0.0000000E+00;  0.0000000E+00;  0.0000000E+00;  1.0003007E+03;  1.0000000E-01;  2.4907938E+02;0;  0.0000000E+00;  0.0000000E+00;  0.0000000E+00;0;  2.4791532E-03;  4.0000000E+04;  0.0000000E+00;  0.0000000E+00;  4.0000000E+04;  0.0000000E+00;  4.0000000E+04;  7.4859278E-04;  0.0000000E+00;  1.7305603E-03;  2.3369980E+03;
  1.3000000E-01;  9.9999998E-03;  4.1999999E-01;2236;  0.0000000E+00;  0.0000000E+00;  0.0000000E+00;  1.0001429E+03;  1.0000000E-01;  1.1841640E+02;0;  0.0000000E+00;  0.0000000E+00;  0.0000000E+00;0;  1.3812435E-03;  4.0000000E+04;  0.0000000E+00;  0.0000000E+00;  4.0000000E+04;  0.0000000E+00;  4.0000000E+04;  3.6146436E-04;  0.0000000E+00;  1.0197791E-03;  1.4550146E+03;
  1.3000000E-01;  9.9999998E-03;  4.3000001E-01;2237;  0.0000000E+00;  0.0000000E+00;  0.0000000E+00;  1.0000662E+03;  1.0000000E-01;  5.4912025E+01;0;  0.0000000E+00;  0.0000000E+00;  0.0000000E+00;0;  6.6031533E-04;  4.0000000E+04;  0.0000000E+00;  0.0000000E+00;  4.0000000E+04;  0.0000000E+00;  4.0000000E+04;  1.5251391E-04;  0.0000000E+00;  5.0780142E-04;  7.4804120E+02;
  1.3000000E-01;  9.9999998E-03;  4.4000000E-01;2238;  0.0000000E+00;  0.0000000E+00;  0.0000000E+00;  1.0000000E+03;  1.0000000E-01;  0.0000000E+00;0;  0.0000000E+00;  0.0000000E+00;  0.0000000E+00;0;  2.4682851E-04;  4.0000000E+04;  0.0000000E+00;  0.0000000E+00;  4.0000000E+04;  0.0000000E+00;  4.0000000E+04;  5.1317860E-05;  0.0000000E+00;  1.9551066E-04;  2.9028510E+02;
  1.3000000E-01;  9.9999998E-03;  4.4999999E-01;2239;  0.0000000E+00;  0.0000000E+00;  0.0000000E+00;  1.0000000E+03;  1.0000000E-01;  0.0000000E+00;0;  0.0000000E+00;  0.0000000E+00;  0.0000000E+00;0;  5.8905080E-05;  4.0000000E+04;  0.0000000E+00;  0.0000000E+00;  4.0000000E+04;  0.0000000E+00;  4.0000000E+04;  1.0647030E-05;  0.0000000E+00;  4.8258051E-05;  7.1662460E+01;
  1.4000000E-01;  9.9999998E-03;  4.1000000E-01;2265;  0.0000000E+00;  0.0000000E+00;  0.0000000E+00;  1.0003186E+03;  1.0000000E-01;  2.6399252E+02;0;  0.0000000E+00;  0.0000000E+00;  0.0000000E+00;0;  2.5877326E-03;  4.0000000E+04;  0.0000000E+00;  0.0000000E+00;  4.0000000E+04;  0.0000000E+00;  4.0000000E+04;  7.0402492E-04;  0.0000000E+00;  1.8837077E-03;  3.1286416E+03;
  1.4000000E-01;  9.9999998E-03;  4.1999999E-01;2266;  0.0000000E+00;  0.0000000E+00;  0.0000000E+00;  1.0001513E+03;  1.0000000E-01;  1.2532979E+02;0;  0.0000000E+00;  0.0000000E+00;  0.0000000E+00;0;  1.4350320E-03;  4.0000000E+04;  0.0000000E+00;  0.0000000E+00;  4.0000000E+04;  0.0000000E+00;  4.0000000E+04;  3.1996740E-04;  0.0000000E+00;  1.1150646E-03;  2.1161978E+03;
  1.4000000E-01;  9.9999998E-03;  4.3000001E-01;2267;  0.0000000E+00;  0.0000000E+00;  0.0000000E+00;  1.0000692E+03;  1.0000000E-01;  5.7282330E+01;0;  0.0000000E+00;  0.0000000E+00;  0.0000000E+00;0;  6.8593700E-04;  4.0000000E+04;  0.0000000E+00;  0.0000000E+00;  4.0000000E+04;  0.0000000E+00;  4.0000000E+04;  1.2608028E-04;  0.0000000E+00;  5.5985671E-04;  1.1669487E+03;
  1.4000000E-01;  9.9999998E-03;  4.4000000E-01;2268;  0.0000000E+00;  0.0000000E+00;  0.0000000E+00;  1.0000000E+03;  1.0000000E-01;  0.0000000E+00;0;  0.0000000E+00;  0.0000000E+00;  0.0000000E+00;0;  2.6047547E-04;  4.0000000E+04;  0.0000000E+00;  0.0000000E+00;  4.0000000E+04;  0.0000000E+00;  4.0000000E+04;  4.0916817E-05;  0.0000000E+00;  2.1955864E-04;  4.8009491E+02;
  1.4000000E-01;  9.9999998E-03;  4.4999999E-01;2269;  0.0000000E+00;  0.0000000E+00;  0.0000000E+00;  1.0000000E+03;  1.0000000E-01;  0.0000000E+00;0;  0.0000000E+00;  0.0000000E+00;  0.0000000E+00;0;  6.5038264E-05;  4.0000000E+04;  0.0000000E+00;  0.0000000E+00;  4.0000000E+04;  0.0000000E+00;  4.0000000E+04;  8.9207078E-06;  0.0000000E+00;  5.6117558E-05;  1.2342984E+02;
  1.5000001E-01;  9.9999998E-03;  4.1000000E-01;2295;  0.0000000E+00;  0.0000000E+00;  0.0000000E+00;  1.0003392E+03;  1.0000000E-01;  2.8097971E+02;0;  0.0000000E+00;  0.0000000E+00;  0.0000000E+00;0;  2.6738022E-03;  4.0000000E+04;  0.0000000E+00;  0.0000000E+00;  4.0000000E+04;  0.0000000E+00;  4.0000000E+04;  6.6753867E-04;  0.0000000E+00;  2.0062635E-03;  4.6431479E+03;
  1.5000001E-01;  9.9999998E-03;  4.1999999E-01;2296;  0.0000000E+00;  0.0000000E+00;  0.0000000E+00;  1.0001617E+03;  1.0000000E-01;  1.3392213E+02;0;  0.0000000E+00;  0.0000000E+00;  0.0000000E+00;0;  1.4616249E-03;  4.0000000E+04;  0.0000000E+00;  0.0000000E+00;  4.0000000E+04;  0.0000000E+00;  4.0000000E+04;  2.7771119E-04;  0.0000000E+00;  1.1839137E-03;  3.3860376E+03;
  1.5000001E-01;  9.9999998E-03;  4.3000001E-01;2297;  0.0000000E+00;  0.0000000E+00;  0.0000000E+00;  1.0000769E+03;  1.0000000E-01;  6.3701900E+01;0;  0.0000000E+00;  0.0000000E+00;  0.0000000E+00;0;  6.8607414E-04;  4.0000000E+04;  0.0000000E+00;  0.0000000E+00;  4.0000000E+04;  0.0000000E+00;  4.0000000E+04;  9.3869632E-05;  0.0000000E+00;  5.9220451E-04;  1.9791292E+03;
  1.5000001E-01;  9.9999998E-03;  4.4000000E-01;2298;  0.0000000E+00;  0.0000000E+00;  0.0000000E+00;  1.0000000E+03;  1.0000000E-01;  0.0000000E+00;0;  0.0000000E+00;  0.0000000E+00;  0.0000000E+00;0;  2.5733886E-04;  4.0000000E+04;  0.0000000E+00;  0.0000000E+00;  4.0000000E+04;  0.0000000E+00;  4.0000000E+04;  2.4983678E-05;  0.0000000E+00;  2.3235517E-04;  8.5532117E+02;
  1.5000001E-01;  9.9999998E-03;  4.4999999E-01;2299;  0.0000000E+00;  0.0000000E+00;  0.0000000E+00;  1.0000000E+03;  1.0000000E-01;  0.0000000E+00;0;  0.0000000E+00;  0.0000000E+00;  0.0000000E+00;0;  6.5561107E-05;  4.0000000E+04;  0.0000000E+00;  0.0000000E+00;  4.0000000E+04;  0.0000000E+00;  4.0000000E+04;  5.1866959E-06;  0.0000000E+00;  6.0374408E-05;  2.2837064E+02;
  1.6000000E-01;  9.9999998E-03;  4.1000000E-01;2325;  0.0000000E+00;  0.0000000E+00;  0.0000000E+00;  1.0003873E+03;  1.0000000E-01;  3.2087982E+02;0;  0.0000000E+00;  0.0000000E+00;  0.0000000E+00;0;  2.7844876E-03;  4.0000000E+04;  0.0000000E+00;  0.0000000E+00;  4.0000000E+04;  0.0000000E+00;  4.0000000E+04;  6.6993461E-04;  0.0000000E+00;  2.1145530E-03;  7.2508638E+03;
  1.6000000E-01;  9.9999998E-03;  4.1999999E-01;2326;  0.0000000E+00;  0.0000000E+00;  0.0000000E+00;  1.0001824E+03;  1.0000000E-01;  1.5110684E+02;0;  0.0000000E+00;  0.0000000E+00;  0.0000000E+00;0;  1.4941937E-03;  4.0000000E+04;  0.0000000E+00;  0.0000000E+00;  4.0000000E+04;  0.0000000E+00;  4.0000000E+04;  2.5661674E-04;  0.0000000E+00;  1.2375769E-03;  5.5665059E+03;
  1.6000000E-01;  9.9999998E-03;  4.3000001E-01;2327;  0.0000000E+00;  0.0000000E+00;  0.0000000E+00;  1.0000897E+03;  1.0000000E-01;  7.4368271E+01;0;  0.0000000E+00;  0.0000000E+00;  0.0000000E+00;0;  6.7976862E-04;  4.0000000E+04;  0.0000000E+00;  0.0000000E+00;  4.0000000E+04;  0.0000000E+00;  4.0000000E+04;  6.8939400E-05;  0.0000000E+00;  6.1082921E-04;  3.3959685E+03;
  1.6000000E-01;  9.9999998E-03;  4.4000000E-01;2328;  0.0000000E+00;  0.0000000E+00;  0.0000000E+00;  1.0000000E+03;  1.0000000E-01;  0.0000000E+00;0;  0.0000000E+00;  0.0000000E+00;  0.0000000E+00;0;  2.4397910E-04;  4.0000000E+04;  0.0000000E+00;  0.0000000E+00;  4.0000000E+04;  0.0000000E+00;  4.0000000E+04;  8.5677511E-06;  0.0000000E+00;  2.3541135E-04;  1.5303799E+03;
  1.6000000E-01;  9.9999998E-03;  4.4999999E-01;2329;  0.0000000E+00;  0.0000000E+00;  0.0000000E+00;  1.0000000E+03;  1.0000000E-01;  0.0000000E+00;0;  0.0000000E+00;  0.0000000E+00;  0.0000000E+00;0;  6.0293438E-05;  4.0000000E+04;  0.0000000E+00;  0.0000000E+00;  4.0000000E+04;  0.0000000E+00;  4.0000000E+04; -1.4544817E-07;  0.0000000E+00;  6.0438884E-05;  4.2688080E+02;
  1.7000000E-01;  9.9999998E-03;  4.1000000E-01;2355;  0.0000000E+00;  0.0000000E+00;  0.0000000E+00;  1.0004316E+03;  1.0000000E-01;  3.5761951E+02;0;  0.0000000E+00;  0.0000000E+00;  0.0000000E+00;0;  2.9742862E-03;  4.0000000E+04;  0.0000000E+00;  0.0000000E+00;  4.0000000E+04;  0.0000000E+00;  4.0000000E+04;  7.3740387E-04;  0.0000000E+00;  2.2368822E-03;  1.1203673E+04;
  1.7000000E-01;  9.9999998E-03;  4.1999999E-01;2356;  0.0000000E+00;  0.0000000E+00;  0.0000000E+00;  1.0002131E+03;  1.0000000E-01;  1.7648883E+02;0;  0.0000000E+00;  0.0000000E+00;  0.0000000E+00;0;  1.5740570E-03;  4.0000000E+04;  0.0000000E+00;  0.0000000E+00;  4.0000000E+04;  0.0000000E+00;  4.0000000E+04;  2.7813166E-04;  0.0000000E+00;  1.2959254E-03;  8.9136543E+03;
  1.7000000E-01;  9.9999998E-03;  4.3000001E-01;2357;  0.0000000E+00;  0.0000000E+00;  0.0000000E+00;  1.0000969E+03;  1.0000000E-01;  8.0294022E+01;0;  0.0000000E+00;  0.0000000E+00;  0.0000000E+00;0;  6.9345185E-04;  4.0000000E+04;  0.0000000E+00;  0.0000000E+00;  4.0000000E+04;  0.0000000E+00;  4.0000000E+04;  6.6363573E-05;  0.0000000E+00;  6.2708830E-04;  5.6324258E+03;
  1.7000000E-01;  9.9999998E-03;  4.4000000E-01;2358;  0.0000000E+00;  0.0000000E+00;  0.0000000E+00;  1.0000000E+03;  1.0000000E-01;  0.0000000E+00;0;  0.0000000E+00;  0.0000000E+00;  0.0000000E+00;0;  2.3280573E-04;  4.0000000E+04;  0.0000000E+00;  0.0000000E+00;  4.0000000E+04;  0.0000000E+00;  4.0000000E+04; -4.3810707E-07;  0.0000000E+00;  2.3324383E-04;  2.6384751E+03;
  1.7000000E-01;  9.9999998E-03;  4.4999999E-01;2359;  0.0000000E+00;  0.0000000E+00;  0.0000000E+00;  1.0000000E+03;  1.0000000E-01;  0.0000000E+00;0;  0.0000000E+00;  0.0000000E+00;  0.0000000E+00;0;  5.1799674E-05;  4.0000000E+04;  0.0000000E+00;  0.0000000E+00;  4.0000000E+04;  0.0000000E+00;  4.0000000E+04; -5.1149350E-06;  0.0000000E+00;  5.6914610E-05;  7.7138080E+02;
  1.8000001E-01;  9.9999998E-03;  4.1000000E-01;2385;  0.0000000E+00;  0.0000000E+00;  0.0000000E+00;  1.0004797E+03;  1.0000000E-01;  3.9742087E+02;0;  0.0000000E+00;  0.0000000E+00;  0.0000000E+00;0;  3.2910402E-03;  4.0000000E+04;  0.0000000E+00;  0.0000000E+00;  4.0000000E+04;  0.0000000E+00;  4.0000000E+04;  8.7791512E-04;  0.0000000E+00;  2.4131250E-03;  1.6531656E+04;
  1.8000001E-01;  9.9999998E-03;  4.1999999E-01;2386;  0.0000000E+00;  0.0000000E+00;  0.0000000E+00;  1.0002331E+03;  1.0000000E-01;  1.9308096E+02;0;  0.0000000E+00;  0.0000000E+00;  0.0000000E+00;0;  1.7409120E-03;  4.0000000E+04;  0.0000000E+00;  0.0000000E+00;  4.0000000E+04;  0.0000000E+00;  4.0000000E+04;  3.5385982E-04;  0.0000000E+00;  1.3870521E-03;  1.3543854E+04;
  1.8000001E-01;  9.9999998E-03;  4.3000001E-01;2387;  0.0000000E+00;  0.0000000E+00;  0.0000000E+00;  1.0000991E+03;  1.0000000E-01;  8.2071754E+01;0;  0.0000000E+00;  0.0000000E+00;  0.0000000E+00;0;  7.5511180E-04;  4.0000000E+04;  0.0000000E+00;  0.0000000E+00;  4.0000000E+04;  0.0000000E+00;  4.0000000E+04;  9.7568212E-05;  0.0000000E+00;  6.5754360E-04;  8.8430547E+03;
  1.8000001E-01;  9.9999998E-03;  4.4000000E-01;2388;  0.0000000E+00;  0.0000000E+00;  0.0000000E+00;  1.0000000E+03;  1.0000000E-01;  0.0000000E+00;0;  0.0000000E+00;  0.0000000E+00;  0.0000000E+00;0;  2.3914766E-04;  4.0000000E+04;  0.0000000E+00;  0.0000000E+00;  4.0000000E+04;  0.0000000E+00;  4.0000000E+04;  5.9743697E-06;  0.0000000E+00;  2.3317328E-04;  4.3011519E+03;
  1.8000001E-01;  9.9999998E-03;  4.4999999E-01;2389;  0.0000000E+00;  0.0000000E+00;  0.0000000E+00;  1.0000000E+03;  1.0000000E-01;  0.0000000E+00;0;  0.0000000E+00;  0.0000000E+00;  0.0000000E+00;0;  4.5000070E-05;  4.0000000E+04;  0.0000000E+00;  0.0000000E+00;  4.0000000E+04;  0.0000000E+00;  4.0000000E+04; -6.5692752E-06;  0.0000000E+00;  5.1569346E-05;  1.3166846E+03;
  1.9000000E-01;  9.9999998E-03;  4.1000000E-01;2415;  0.0000000E+00;  0.0000000E+00;  0.0000000E+00;  1.0005206E+03;  1.0000000E-01;  4.3129645E+02;0;  0.0000000E+00;  0.0000000E+00;  0.0000000E+00;0;  3.7658524E-03;  4.0000000E+04;  0.0000000E+00;  0.0000000E+00;  4.0000000E+04;  0.0000000E+00;  4.0000000E+04;  1.0710759E-03;  0.0000000E+00;  2.6947765E-03;  2.2964785E+04;
  1.9000000E-01;  9.9999998E-03;  4.1999999E-01;2416;  0.0000000E+00;  0.0000000E+00;  0.0000000E+00;  1.0002666E+03;  1.0000000E-01;  2.2083327E+02;0;  0.0000000E+00;  0.0000000E+00;  0.0000000E+00;0;  2.0245630E-03;  4.0000000E+04;  0.0000000E+00;  0.0000000E+00;  4.0000000E+04;  0.0000000E+00;  4.0000000E+04;  4.7630735E-04;  0.0000000E+00;  1.5482557E-03;  1.9327701E+04;
  1.9000000E-01;  9.9999998E-03;  4.3000001E-01;2417;  0.0000000E+00;  0.0000000E+00;  0.0000000E+00;  1.0001163E+03;  1.0000000E-01;  9.6293571E+01;0;  0.0000000E+00;  0.0000000E+00;  0.0000000E+00;0;  8.8868756E-04;  4.0000000E+04;  0.0000000E+00;  0.0000000E+00;  4.0000000E+04;  0.0000000E+00;  4.0000000E+04;  1.6343530E-04;  0.0000000E+00;  7.2525226E-04;  1.3028232E+04;
  1.9000000E-01;  9.9999998E-03;  4.4000000E-01;2418;  0.0000000E+00;  0.0000000E+00;  0.0000000E+00;  1.0000082E+03;  1.0000000E-01;  6.8146219E+00;0;  0.0000000E+00;  0.0000000E+00;  0.0000000E+00;0;  2.7801868E-04;  4.0000000E+04;  0.0000000E+00;  0.0000000E+00;  4.0000000E+04;  0.0000000E+00;  4.0000000E+04;  3.1807274E-05;  0.0000000E+00;  2.4621139E-04;  6.5711577E+03;
  1.9000000E-01;  9.9999998E-03;  4.4999999E-01;2419;  0.0000000E+00;  0.0000000E+00;  0.0000000E+00;  1.0000000E+03;  1.0000000E-01;  0.0000000E+00;0;  0.0000000E+00;  0.0000000E+00;  0.0000000E+00;0;  4.6048674E-05;  4.0000000E+04;  0.0000000E+00;  0.0000000E+00;  4.0000000E+04;  0.0000000E+00;  4.0000000E+04; -1.6072989E-06;  0.0000000E+00;  4.7655973E-05;  2.0971912E+03;
  2.0000000E-01;  9.9999998E-03;  4.1000000E-01;2444;  0.0000000E+00;  0.0000000E+00;  0.0000000E+00;  1.0005472E+03;  1.0000000E-01;  4.5332053E+02;0;  0.0000000E+00;  0.0000000E+00;  0.0000000E+00;0;  4.4195042E-03;  4.0000000E+04;  0.0000000E+00;  0.0000000E+00;  4.0000000E+04;  0.0000000E+00;  4.0000000E+04;  1.2739258E-03;  0.0000000E+00;  3.1455783E-03;  3.0016627E+04;
  2.0000000E-01;  9.9999998E-03;  4.1999999E-01;2445;  0.0000000E+00;  0.0000000E+00;  0.0000000E+00;  1.0002852E+03;  1.0000000E-01;  2.3624023E+02;0;  0.0000000E+00;  0.0000000E+00;  0.0000000E+00;0;  2.4471707E-03;  4.0000000E+04;  0.0000000E+00;  0.0000000E+00;  4.0000000E+04;  0.0000000E+00;  4.0000000E+04;  6.1881007E-04;  0.0000000E+00;  1.8283606E-03;  2.5910715E+04;
  2.0000000E-01;  9.9999998E-03;  4.3000001E-01;2446;  0.0000000E+00;  0.0000000E+00;  0.0000000E+00;  1.0001308E+03;  1.0000000E-01;  1.0834261E+02;0;  0.0000000E+00;  0.0000000E+00;  0.0000000E+00;0;  1.1137908E-03;  4.0000000E+04;  0.0000000E+00;  0.0000000E+00;  4.0000000E+04;  0.0000000E+00;  4.0000000E+04;  2.5122968E-04;  0.0000000E+00;  8.6256117E-04;  1.8003861E+04;
  2.0000000E-01;  9.9999998E-03;  4.4000000E-01;2447;  0.0000000E+00;  0.0000000E+00;  0.0000000E+00;  1.0000304E+03;  1.0000000E-01;  2.5184473E+01;0;  0.0000000E+00;  0.0000000E+00;  0.0000000E+00;0;  3.6309203E-04;  4.0000000E+04;  0.0000000E+00;  0.0000000E+00;  4.0000000E+04;  0.0000000E+00;  4.0000000E+04;  7.3831987E-05;  0.0000000E+00;  2.8926003E-04;  9.3913242E+03;
 -2.0000000E-01;  9.9999998E-03; -4.4000000E-01;0;  0.0000000E+00;  0.0000000E+00;  0.0000000E+00;  1.0000000E+03;  1.0000000E-01;  0.0000000E+00;0;  0.0000000E+00;  0.0000000E+00;  0.0000000E+00;0;  0.0000000E+00;  4.0000000E+04;  0.0000000E+00;  0.0000000E+00;  4.0000000E+04;  0.0000000E+00;  4.0000000E+04;  0.0000000E+00;  0.0000000E+00;  0.0000000E+00;  0.0000000E+00;
 -2.0000000E-01;  9.9999998E-03; -4.3000001E-01;1;  0.0000000E+00;  0.0000000E+00;  0.0000000E+00;  1.0000000E+03;  1.0000000E-01;  0.0000000E+00;0;  0.0000000E+00;  0.0000000E+00;  0.0000000E+00;0;  0.0000000E+00;  4.0000000E+04;  0.0000000E+00;  0.0000000E+00;  4.0000000E+04;  0.0000000E+00;  4.0000000E+04;  0.0000000E+00;  0.0000000E+00;  0.0000000E+00;  0.0000000E+00;
 -2.0000000E-01;  9.9999998E-03; -4.1999999E-01;2;  0.0000000E+00;  0.0000000E+00;  0.0000000E+00;  1.0000000E+03;  1.0000000E-01;  0.0000000E+00;0;  0.0000000E+00;  0.0000000E+00;  0.0000000E+00;0;  0.0000000E+00;  4.0000000E+04;  0.0000000E+00;  0.0000000E+00;  4.0000000E+04;  0.0000000E+00;  4.0000000E+04;  0.0000000E+00;  0.0000000E+00;  0.0000000E+00;  0.0000000E+00;
 -2.0000000E-01;  9.9999998E-03; -4.1000000E-01;3;  0.0000000E+00;  0.0000000E+00;  0.0000000E+00;  1.0000000E+03;  1.0000000E-01;  0.0000000E+00;0;  0.0000000E+00;  0.0000000E+00;  0.0000000E+00;0;  0.0000000E+00;  4.0000000E+04;  0.0000000E+00;  0.0000000E+00;  4.0000000E+04;  0.0000000E+00;  4.0000000E+04;  0.0000000E+00;  0.0000000E+00;  0.0000000E+00;  0.0000000E+00;
 -2.0000000E-01;  9.9999998E-03; -4.0000001E-01;4;  0.0000000E+00;  0.0000000E+00;  0.0000000E+00;  1.0000000E+03;  1.0000000E-01;  0.0000000E+00;0;  0.0000000E+00;  0.0000000E+00;  0.0000000E+00;0;  0.0000000E+00;  4.0000000E+04;  0.0000000E+00;  0.0000000E+00;  4.0000000E+04;  0.0000000E+00;  4.0000000E+04;  0.0000000E+00;  0.0000000E+00;  0.0000000E+00;  0.0000000E+00;
 -2.0000000E-01;  9.9999998E-03; -3.8999999E-01;5;  0.0000000E+00;  0.0000000E+00;  0.0000000E+00;  1.0000000E+03;  1.0000000E-01;  0.0000000E+00;0;  0.0000000E+00;  0.0000000E+00;  0.0000000E+00;0;  0.0000000E+00;  4.0000000E+04;  0.0000000E+00;  0.0000000E+00;  4.0000000E+04;  0.0000000E+00;  4.0000000E+04;  0.0000000E+00;  0.0000000E+00;  0.0000000E+00;  0.0000000E+00;
 -2.0000000E-01;  9.9999998E-03; -3.8000000E-01;6;  0.0000000E+00;  0.0000000E+00;  0.0000000E+00;  1.0000000E+03;  1.0000000E-01;  0.0000000E+00;0;  0.0000000E+00;  0.0000000E+00;  0.0000000E+00;0;  0.0000000E+00;  4.0000000E+04;  0.0000000E+00;  0.0000000E+00;  4.0000000E+04;  0.0000000E+00;  4.0000000E+04;  0.0000000E+00;  0.0000000E+00;  0.0000000E+00;  0.0000000E+00;
 -2.0000000E-01;  9.9999998E-03; -3.7000000E-01;7;  0.0000000E+00;  0.0000000E+00;  0.0000000E+00;  1.0000000E+03;  1.0000000E-01;  0.0000000E+00;0;  0.0000000E+00;  0.0000000E+00;  0.0000000E+00;0;  0.0000000E+00;  4.0000000E+04;  0.0000000E+00;  0.0000000E+00;  4.0000000E+04;  0.0000000E+00;  4.0000000E+04;  0.0000000E+00;  0.0000000E+00;  0.0000000E+00;  0.0000000E+00;
 -2.0000000E-01;  9.9999998E-03; -3.6000001E-01;8;  0.0000000E+00;  0.0000000E+00;  0.0000000E+00;  1.0000000E+03;  1.0000000E-01;  0.0000000E+00;0;  0.0000000E+00;  0.0000000E+00;  0.0000000E+00;0;  0.0000000E+00;  4.0000000E+04;  0.0000000E+00;  0.0000000E+00;  4.0000000E+04;  0.0000000E+00;  4.0000000E+04;  0.0000000E+00;  0.0000000E+00;  0.0000000E+00;  0.0000000E+00;
 -2.0000000E-01;  9.9999998E-03; -3.4999999E-01;9;  0.0000000E+00;  0.0000000E+00;  0.0000000E+00;  1.0000000E+03;  1.0000000E-01;  0.0000000E+00;0;  0.0000000E+00;  0.0000000E+00;  0.0000000E+00;0;  0.0000000E+00;  4.0000000E+04;  0.0000000E+00;  0.0000000E+00;  4.0000000E+04;  0.0000000E+00;  4.0000000E+04;  0.0000000E+00;  0.0000000E+00;  0.0000000E+00;  0.0000000E+00;
 -2.0000000E-01;  9.9999998E-03; -3.4000000E-01;10;  0.0000000E+00;  0.0000000E+00;  0.0000000E+00;  1.0000000E+03;  1.0000000E-01;  0.0000000E+00;0;  0.0000000E+00;  0.0000000E+00;  0.0000000E+00;0;  0.0000000E+00;  4.0000000E+04;  0.0000000E+00;  0.0000000E+00;  4.0000000E+04;  0.0000000E+00;  4.0000000E+04;  0.0000000E+00;  0.0000000E+00;  0.0000000E+00;  0.0000000E+00;
 -2.0000000E-01;  9.9999998E-03; -3.3000001E-01;11;  0.0000000E+00;  0.0000000E+00;  0.0000000E+00;  1.0000000E+03;  1.0000000E-01;  0.0000000E+00;0;  0.0000000E+00;  0.0000000E+00;  0.0000000E+00;0;  0.0000000E+00;  4.0000000E+04;  0.0000000E+00;  0.0000000E+00;  4.0000000E+04;  0.0000000E+00;  4.0000000E+04;  0.0000000E+00;  0.0000000E+00;  0.0000000E+00;  0.0000000E+00;
 -2.0000000E-01;  9.9999998E-03; -3.1999999E-01;12;  0.0000000E+00;  0.0000000E+00;  0.0000000E+00;  1.0000000E+03;  1.0000000E-01;  0.0000000E+00;0;  0.0000000E+00;  0.0000000E+00;  0.0000000E+00;0;  0.0000000E+00;  4.0000000E+04;  0.0000000E+00;  0.0000000E+00;  4.0000000E+04;  0.0000000E+00;  4.0000000E+04;  0.0000000E+00;  0.0000000E+00;  0.0000000E+00;  0.0000000E+00;
 -2.0000000E-01;  9.9999998E-03; -3.1000000E-01;13;  0.0000000E+00;  0.0000000E+00;  0.0000000E+00;  1.0000000E+03;  1.0000000E-01;  0.0000000E+00;0;  0.0000000E+00;  0.0000000E+00;  0.0000000E+00;0;  0.0000000E+00;  4.0000000E+04;  0.0000000E+00;  0.0000000E+00;  4.0000000E+04;  0.0000000E+00;  4.0000000E+04;  0.0000000E+00;  0.0000000E+00;  0.0000000E+00;  0.0000000E+00;
 -2.0000000E-01;  9.9999998E-03; -3.0000001E-01;14;  0.0000000E+00;  0.0000000E+00;  0.0000000E+00;  1.0000000E+03;  1.0000000E-01;  0.0000000E+00;0;  0.0000000E+00;  0.0000000E+00;  0.0000000E+00;0;  0.0000000E+00;  4.0000000E+04;  0.0000000E+00;  0.0000000E+00;  4.0000000E+04;  0.0000000E+00;  4.0000000E+04;  0.0000000E+00;  0.0000000E+00;  0.0000000E+00;  0.0000000E+00;
 -2.0000000E-01;  9.9999998E-03; -2.8999999E-01;15;  0.0000000E+00;  0.0000000E+00;  0.0000000E+00;  1.0000000E+03;  1.0000000E-01;  0.0000000E+00;0;  0.0000000E+00;  0.0000000E+00;  0.0000000E+00;0;  0.0000000E+00;  4.0000000E+04;  0.0000000E+00;  0.0000000E+00;  4.0000000E+04;  0.0000000E+00;  4.0000000E+04;  0.0000000E+00;  0.0000000E+00;  0.0000000E+00;  0.0000000E+00;
 -2.0000000E-01;  9.9999998E-03; -2.8000000E-01;16;  0.0000000E+00;  0.0000000E+00;  0.0000000E+00;  1.0000000E+03;  1.0000000E-01;  0.0000000E+00;0;  0.0000000E+00;  0.0000000E+00;  0.0000000E+00;0;  0.0000000E+00;  4.0000000E+04;  0.0000000E+00;  0.0000000E+00;  4.0000000E+04;  0.0000000E+00;  4.0000000E+04;  0.0000000E+00;  0.0000000E+00;  0.0000000E+00;  0.0000000E+00;
 -2.0000000E-01;  9.9999998E-03; -2.7000001E-01;17;  0.0000000E+00;  0.0000000E+00;  0.0000000E+00;  1.0000000E+03;  1.0000000E-01;  0.0000000E+00;0;  0.0000000E+00;  0.0000000E+00;  0.0000000E+00;0;  0.0000000E+00;  4.0000000E+04;  0.0000000E+00;  0.0000000E+00;  4.0000000E+04;  0.0000000E+00;  4.0000000E+04;  0.0000000E+00;  0.0000000E+00;  0.0000000E+00;  0.0000000E+00;
 -2.0000000E-01;  9.9999998E-03; -2.5999999E-01;18;  0.0000000E+00;  0.0000000E+00;  0.0000000E+00;  1.0000000E+03;  1.0000000E-01;  0.0000000E+00;0;  0.0000000E+00;  0.0000000E+00;  0.0000000E+00;0;  0.0000000E+00;  4.0000000E+04;  0.0000000E+00;  0.0000000E+00;  4.0000000E+04;  0.0000000E+00;  4.0000000E+04;  0.0000000E+00;  0.0000000E+00;  0.0000000E+00;  0.0000000E+00;
 -2.0000000E-01;  9.9999998E-03; -2.5000000E-01;19;  0.0000000E+00;  0.0000000E+00;  0.0000000E+00;  1.0000000E+03;  1.0000000E-01;  0.0000000E+00;0;  0.0000000E+00;  0.0000000E+00;  0.0000000E+00;0;  0.0000000E+00;  4.0000000E+04;  0.0000000E+00;  0.0000000E+00;  4.0000000E+04;  0.0000000E+00;  4.0000000E+04;  0.0000000E+00;  0.0000000E+00;  0.0000000E+00;  0.0000000E+00;
 -2.0000000E-01;  9.9999998E-03; -2.3999999E-01;20;  0.0000000E+00;  0.0000000E+00;  0.0000000E+00;  1.0000000E+03;  1.0000000E-01;  0.0000000E+00;0;  0.0000000E+00;  0.0000000E+00;  0.0000000E+00;0;  0.0000000E+00;  4.0000000E+04;  0.0000000E+00;  0.0000000E+00;  4.0000000E+04;  0.0000000E+00;  4.0000000E+04;  0.0000000E+00;  0.0000000E+00;  0.0000000E+00;  0.0000000E+00;
 -2.0000000E-01;  9.9999998E-03; -2.3000000E-01;21;  0.0000000E+00;  0.0000000E+00;  0.0000000E+00;  1.0000000E+03;  1.0000000E-01;  0.0000000E+00;0;  0.0000000E+00;  0.0000000E+00;  0.0000000E+00;0;  0.0000000E+00;  4.0000000E+04;  0.0000000E+00;  0.0000000E+00;  4.0000000E+04;  0.0000000E+00;  4.0000000E+04;  0.0000000E+00;  0.0000000E+00;  0.0000000E+00;  0.0000000E+00;
 -2.0000000E-01;  9.9999998E-03; -2.2000000E-01;22;  0.0000000E+00;  0.0000000E+00;  0.0000000E+00;  1.0000000E+03;  1.0000000E-01;  0.0000000E+00;0;  0.0000000E+00;  0.0000000E+00;  0.0000000E+00;0;  0.0000000E+00;  4.0000000E+04;  0.0000000E+00;  0.0000000E+00;  4.0000000E+04;  0.0000000E+00;  4.0000000E+04;  0.0000000E+00;  0.0000000E+00;  0.0000000E+00;  0.0000000E+00;
 -2.0000000E-01;  9.9999998E-03; -2.0999999E-01;23;  0.0000000E+00;  0.0000000E+00;  0.0000000E+00;  1.0000000E+03;  1.0000000E-01;  0.0000000E+00;0;  0.0000000E+00;  0.0000000E+00;  0.0000000E+00;0;  0.0000000E+00;  4.0000000E+04;  0.0000000E+00;  0.0000000E+00;  4.0000000E+04;  0.0000000E+00;  4.0000000E+04;  0.0000000E+00;  0.0000000E+00;  0.0000000E+00;  0.0000000E+00;
 -2.0000000E-01;  9.9999998E-03; -2.0000000E-01;24;  0.0000000E+00;  0.0000000E+00;  0.0000000E+00;  1.0000000E+03;  1.0000000E-01;  0.0000000E+00;0;  0.0000000E+00;  0.0000000E+00;  0.0000000E+00;0;  0.0000000E+00;  4.0000000E+04;  0.0000000E+00;  0.0000000E+00;  4.0000000E+04;  0.0000000E+00;  4.0000000E+04;  0.0000000E+00;  0.0000000E+00;  0.0000000E+00;  0.0000000E+00;
 -2.0000000E-01;  9.9999998E-03; -1.9000000E-01;25;  0.0000000E+00;  0.0000000E+00;  0.0000000E+00;  1.0000000E+03;  1.0000000E-01;  0.0000000E+00;0;  0.0000000E+00;  0.0000000E+00;  0.0000000E+00;0;  0.0000000E+00;  4.0000000E+04;  0.0000000E+00;  0.0000000E+00;  4.0000000E+04;  0.0000000E+00;  4.0000000E+04;  0.0000000E+00;  0.0000000E+00;  0.0000000E+00;  0.0000000E+00;
 -2.0000000E-01;  9.9999998E-03; -1.8000001E-01;26;  0.0000000E+00;  0.0000000E+00;  0.0000000E+00;  1.0000000E+03;  1.0000000E-01;  0.0000000E+00;0;  0.0000000E+00;  0.0000000E+00;  0.0000000E+00;0;  0.0000000E+00;  4.0000000E+04;  0.0000000E+00;  0.0000000E+00;  4.0000000E+04;  0.0000000E+00;  4.0000000E+04;  0.0000000E+00;  0.0000000E+00;  0.0000000E+00;  0.0000000E+00;
 -2.0000000E-01;  9.9999998E-03; -1.7000000E-01;27;  0.0000000E+00;  0.0000000E+00;  0.0000000E+00;  1.0000000E+03;  1.0000000E-01;  0.0000000E+00;0;  0.0000000E+00;  0.0000000E+00;  0.0000000E+00;0;  0.0000000E+00;  4.0000000E+04;  0.0000000E+00;  0.0000000E+00;  4.0000000E+04;  0.0000000E+00;  4.0000000E+04;  0.0000000E+00;  0.0000000E+00;  0.0000000E+00;  0.0000000E+00;
 -2.0000000E-01;  9.9999998E-03; -1.6000000E-01;28;  0.0000000E+00;  0.0000000E+00;  0.0000000E+00;  1.0000000E+03;  1.0000000E-01;  0.0000000E+00;0;  0.0000000E+00;  0.0000000E+00;  0.0000000E+00;0;  0.0000000E+00;  4.0000000E+04;  0.0000000E+00;  0.0000000E+00;  4.0000000E+04;  0.0000000E+00;  4.0000000E+04;  0.0000000E+00;  0.0000000E+00;  0.0000000E+00;  0.0000000E+00;
 -2.0000000E-01;  9.9999998E-03; -1.5000001E-01;29;  0.0000000E+00;  0.0000000E+00;  0.0000000E+00;  1.0000000E+03;  1.0000000E-01;  0.0000000E+00;0;  0.0000000E+00;  0.0000000E+00;  0.0000000E+00;0;  0.0000000E+00;  4.0000000E+04;  0.0000000E+00;  0.0000000E+00;  4.0000000E+04;  0.0000000E+00;  4.0000000E+04;  0.0000000E+00;  0.0000000E+00;  0.0000000E+00;  0.0000000E+00;
 -2.0000000E-01;  9.9999998E-03; -1.4000000E-01;30;  0.0000000E+00;  0.0000000E+00;  0.0000000E+00;  1.0000000E+03;  1.0000000E-01;  0.0000000E+00;0;  0.0000000E+00;  0.0000000E+00;  0.0000000E+00;0;  0.0000000E+00;  4.0000000E+04;  0.0000000E+00;  0.0000000E+00;  4.0000000E+04;  0.0000000E+00;  4.0000000E+04;  0.0000000E+00;  0.0000000E+00;  0.0000000E+00;  0.0000000E+00;
 -2.0000000E-01;  9.9999998E-03; -1.3000000E-01;31;  0.0000000E+00;  0.0000000E+00;  0.0000000E+00;  1.0000000E+03;  1.0000000E-01;  0.0000000E+00;0;  0.0000000E+00;  0.0000000E+00;  0.0000000E+00;0;  0.0000000E+00;  4.0000000E+04;  0.0000000E+00;  0.0000000E+00;  4.0000000E+04;  0.0000000E+00;  4.0000000E+04;  0.0000000E+00;  0.0000000E+00;  0.0000000E+00;  0.0000000E+00;
 -2.0000000E-01;  9.9999998E-03; -1.2000000E-01;32;  0.0000000E+00;  0.0000000E+00;  0.0000000E+00;  1.0000000E+03;  1.0000000E-01;  0.0000000E+00;0;  0.0000000E+00;  0.0000000E+00;  0.0000000E+00;0;  0.0000000E+00;  4.0000000E+04;  0.0000000E+00;  0.0000000E+00;  4.0000000E+04;  0.0000000E+00;  4.0000000E+04;  0.0000000E+00;  0.0000000E+00;  0.0000000E+00;  0.0000000E+00;
 -2.0000000E-01;  9.9999998E-03; -1.1000000E-01;33;  0.0000000E+00;  0.0000000E+00;  0.0000000E+00;  1.0000000E+03;  1.0000000E-01;  0.0000000E+00;0;  0.0000000E+00;  0.0000000E+00;  0.0000000E+00;0;  0.0000000E+00;  4.0000000E+04;  0.0000000E+00;  0.0000000E+00;  4.0000000E+04;  0.0000000E+00;  4.0000000E+04;  0.0000000E+00;  0.0000000E+00;  0.0000000E+00;  0.0000000E+00;
 -2.0000000E-01;  9.9999998E-03; -1.0000000E-01;34;  0.0000000E+00;  0.0000000E+00;  0.0000000E+00;  1.0000000E+03;  1.0000000E-01;  0.0000000E+00;0;  0.0000000E+00;  0.0000000E+00;  0.0000000E+00;0;  0.0000000E+00;  4.0000000E+04;  0.0000000E+00;  0.0000000E+00;  4.0000000E+04;  0.0000000E+00;  4.0000000E+04;  0.0000000E+00;  0.0000000E+00;  0.0000000E+00;  0.0000000E+00;
 -2.0000000E-01;  9.9999998E-03; -9.0000004E-02;35;  0.0000000E+00;  0.0000000E+00;  0.0000000E+00;  1.0000000E+03;  1.0000000E-01;  0.0000000E+00;0;  0.0000000E+00;  0.0000000E+00;  0.0000000E+00;0;  0.0000000E+00;  4.0000000E+04;  0.0000000E+00;  0.0000000E+00;  4.0000000E+04;  0.0000000E+00;  4.0000000E+04;  0.0000000E+00;  0.0000000E+00;  0.0000000E+00;  0.0000000E+00;
 -2.0000000E-01;  9.9999998E-03; -7.9999998E-02;36;  0.0000000E+00;  0.0000000E+00;  0.0000000E+00;  1.0000000E+03;  1.0000000E-01;  0.0000000E+00;0;  0.0000000E+00;  0.0000000E+00;  0.0000000E+00;0;  0.0000000E+00;  4.0000000E+04;  0.0000000E+00;  0.0000000E+00;  4.0000000E+04;  0.0000000E+00;  4.0000000E+04;  0.0000000E+00;  0.0000000E+00;  0.0000000E+00;  0.0000000E+00;
 -2.0000000E-01;  9.9999998E-03; -7.0000000E-02;37;  0.0000000E+00;  0.0000000E+00;  0.0000000E+00;  1.0000000E+03;  1.0000000E-01;  0.0000000E+00;0;  0.0000000E+00;  0.0000000E+00;  0.0000000E+00;0;  0.0000000E+00;  4.0000000E+04;  0.0000000E+00;  0.0000000E+00;  4.0000000E+04;  0.0000000E+00;  4.0000000E+04;  0.0000000E+00;  0.0000000E+00;  0.0000000E+00;  0.0000000E+00;
 -2.0000000E-01;  9.9999998E-03; -5.9999999E-02;38;  0.0000000E+00;  0.0000000E+00;  0.0000000E+00;  1.0000000E+03;  1.0000000E-01;  0.0000000E+00;0;  0.0000000E+00;  0.0000000E+00;  0.0000000E+00;0;  0.0000000E+00;  4.0000000E+04;  0.0000000E+00;  0.0000000E+00;  4.0000000E+04;  0.0000000E+00;  4.0000000E+04;  0.0000000E+00;  0.0000000E+00;  0.0000000E+00;  0.0000000E+00;
 -2.0000000E-01;  9.9999998E-03; -5.0000001E-02;39;  0.0000000E+00;  0.0000000E+00;  0.0000000E+00;  1.0000000E+03;  1.0000000E-01;  0.0000000E+00;0;  0.0000000E+00;  0.0000000E+00;  0.0000000E+00;0;  0.0000000E+00;  4.0000000E+04;  0.0000000E+00;  0.0000000E+00;  4.0000000E+04;  0.0000000E+00;  4.0000000E+04;  0.0000000E+00;  0.0000000E+00;  0.0000000E+00;  0.0000000E+00;
 -2.0000000E-01;  9.9999998E-03; -3.9999999E-02;40;  0.0000000E+00;  0.0000000E+00;  0.0000000E+00;  1.0000000E+03;  1.0000000E-01;  0.0000000E+00;0;  0.0000000E+00;  0.0000000E+00;  0.0000000E+00;0;  0.0000000E+00;  4.0000000E+04;  0.0000000E+00;  0.0000000E+00;  4.0000000E+04;  0.0000000E+00;  4.0000000E+04;  0.0000000E+00;  0.0000000E+00;  0.0000000E+00;  0.0000000E+00;
 -2.0000000E-01;  9.9999998E-03; -2.9999999E-02;41;  0.0000000E+00;  0.0000000E+00;  0.0000000E+00;  1.0000000E+03;  1.0000000E-01;  0.0000000E+00;0;  0.0000000E+00;  0.0000000E+00;  0.0000000E+00;0;  0.0000000E+00;  4.0000000E+04;  0.0000000E+00;  0.0000000E+00;  4.0000000E+04;  0.0000000E+00;  4.0000000E+04;  0.0000000E+00;  0.0000000E+00;  0.0000000E+00;  0.0000000E+00;
 -2.0000000E-01;  9.9999998E-03; -2.0000000E-02;42;  0.0000000E+00;  0.0000000E+00;  0.0000000E+00;  1.0000000E+03;  1.0000000E-01;  0.0000000E+00;0;  0.0000000E+00;  0.0000000E+00;  0.0000000E+00;0;  0.0000000E+00;  4.0000000E+04;  0.0000000E+00;  0.0000000E+00;  4.0000000E+04;  0.0000000E+00;  4.0000000E+04;  0.0000000E+00;  0.0000000E+00;  0.0000000E+00;  0.0000000E+00;
 -2.0000000E-01;  9.9999998E-03; -9.9999998E-03;43;  0.0000000E+00;  0.0000000E+00;  0.0000000E+00;  1.0000000E+03;  1.0000000E-01;  0.0000000E+00;0;  0.0000000E+00;  0.0000000E+00;  0.0000000E+00;0;  0.0000000E+00;  4.0000000E+04;  0.0000000E+00;  0.0000000E+00;  4.0000000E+04;  0.0000000E+00;  4.0000000E+04;  0.0000000E+00;  0.0000000E+00;  0.0000000E+00;  0.0000000E+00;
 -2.0000000E-01;  9.9999998E-03;  0.0000000E+00;44;  0.0000000E+00;  0.0000000E+00;  0.0000000E+00;  1.0000000E+03;  1.0000000E-01;  0.0000000E+00;0;  0.0000000E+00;  0.0000000E+00;  0.0000000E+00;0;  0.0000000E+00;  4.0000000E+04;  0.0000000E+00;  0.0000000E+00;  4.0000000E+04;  0.0000000E+00;  4.0000000E+04;  0.0000000E+00;  0.0000000E+00;  0.0000000E+00;  0.0000000E+00;
 -2.0000000E-01;  9.9999998E-03;  9.9999998E-03;45;  0.0000000E+00;  0.0000000E+00;  0.0000000E+00;  1.0000000E+03;  1.0000000E-01;  0.0000000E+00;0;  0.0000000E+00;  0.0000000E+00;  0.0000000E+00;0;  0.0000000E+00;  4.0000000E+04;  0.0000000E+00;  0.0000000E+00;  4.0000000E+04;  0.0000000E+00;  4.0000000E+04;  0.0000000E+00;  0.0000000E+00;  0.0000000E+00;  0.0000000E+00;
 -2.0000000E-01;  9.9999998E-03;  2.0000000E-02;46;  0.0000000E+00;  0.0000000E+00;  0.0000000E+00;  1.0000000E+03;  1.0000000E-01;  0.0000000E+00;0;  0.0000000E+00;  0.0000000E+00;  0.0000000E+00;0;  0.0000000E+00;  4.0000000E+04;  0.0000000E+00;  0.0000000E+00;  4.0000000E+04;  0.0000000E+00;  4.0000000E+04;  0.0000000E+00;  0.0000000E+00;  0.0000000E+00;  0.0000000E+00;
 -2.0000000E-01;  9.9999998E-03;  2.9999999E-02;47;  0.0000000E+00;  0.0000000E+00;  0.0000000E+00;  1.0000000E+03;  1.0000000E-01;  0.0000000E+00;0;  0.0000000E+00;  0.0000000E+00;  0.0000000E+00;0;  0.0000000E+00;  4.0000000E+04;  0.0000000E+00;  0.0000000E+00;  4.0000000E+04;  0.0000000E+00;  4.0000000E+04;  0.0000000E+00;  0.0000000E+00;  0.0000000E+00;  0.0000000E+00;
 -2.0000000E-01;  9.9999998E-03;  3.9999999E-02;48;  0.0000000E+00;  0.0000000E+00;  0.0000000E+00;  1.0000000E+03;  1.0000000E-01;  0.0000000E+00;0;  0.0000000E+00;  0.0000000E+00;  0.0000000E+00;0;  0.0000000E+00;  4.0000000E+04;  0.0000000E+00;  0.0000000E+00;  4.0000000E+04;  0.0000000E+00;  4.0000000E+04;  0.0000000E+00;  0.0000000E+00;  0.0000000E+00;  0.0000000E+00;
 -2.0000000E-01;  9.9999998E-03;  5.0000001E-02;49;  0.0000000E+00;  0.0000000E+00;  0.0000000E+00;  1.0000000E+03;  1.0000000E-01;  0.0000000E+00;0;  0.0000000E+00;  0.0000000E+00;  0.0000000E+00;0;  0.0000000E+00;  4.0000000E+04;  0.0000000E+00;  0.0000000E+00;  4.0000000E+04;  0.0000000E+00;  4.0000000E+04;  0.0000000E+00;  0.0000000E+00;  0.0000000E+00;  0.0000000E+00;
 -2.0000000E-01;  9.9999998E-03;  5.9999999E-02;50;  0.0000000E+00;  0.0000000E+00;  0.0000000E+00;  1.0000000E+03;  1.0000000E-01;  0.0000000E+00;0;  0.0000000E+00;  0.0000000E+00;  0.0000000E+00;0;  0.0000000E+00;  4.0000000E+04;  0.0000000E+00;  0.0000000E+00;  4.0000000E+04;  0.0000000E+00;  4.0000000E+04;  0.0000000E+00;  0.0000000E+00;  0.0000000E+00;  0.0000000E+00;
 -2.0000000E-01;  9.9999998E-03;  7.0000000E-02;51;  0.0000000E+00;  0.0000000E+00;  0.0000000E+00;  1.0000000E+03;  1.0000000E-01;  0.0000000E+00;0;  0.0000000E+00;  0.0000000E+00;  0.0000000E+00;0;  0.0000000E+00;  4.0000000E+04;  0.0000000E+00;  0.0000000E+00;  4.0000000E+04;  0.0000000E+00;  4.0000000E+04;  0.0000000E+00;  0.0000000E+00;  0.0000000E+00;  0.0000000E+00;
 -2.0000000E-01;  9.9999998E-03;  7.9999998E-02;52;  0.0000000E+00;  0.0000000E+00;  0.0000000E+00;  1.0000000E+03;  1.0000000E-01;  0.0000000E+00;0;  0.0000000E+00;  0.0000000E+00;  0.0000000E+00;0;  0.0000000E+00;  4.0000000E+04;  0.0000000E+00;  0.0000000E+00;  4.0000000E+04;  0.0000000E+00;  4.0000000E+04;  0.0000000E+00;  0.0000000E+00;  0.0000000E+00;  0.0000000E+00;
 -2.0000000E-01;  9.9999998E-03;  9.0000004E-02;53;  0.0000000E+00;  0.0000000E+00;  0.0000000E+00;  1.0000000E+03;  1.0000000E-01;  0.0000000E+00;0;  0.0000000E+00;  0.0000000E+00;  0.0000000E+00;0;  0.0000000E+00;  4.0000000E+04;  0.0000000E+00;  0.0000000E+00;  4.0000000E+04;  0.0000000E+00;  4.0000000E+04;  0.0000000E+00;  0.0000000E+00;  0.0000000E+00;  0.0000000E+00;
 -2.0000000E-01;  9.9999998E-03;  1.0000000E-01;54;  0.0000000E+00;  0.0000000E+00;  0.0000000E+00;  1.0000000E+03;  1.0000000E-01;  0.0000000E+00;0;  0.0000000E+00;  0.0000000E+00;  0.0000000E+00;0;  0.0000000E+00;  4.0000000E+04;  0.0000000E+00;  0.0000000E+00;  4.0000000E+04;  0.0000000E+00;  4.0000000E+04;  0.0000000E+00;  0.0000000E+00;  0.0000000E+00;  0.0000000E+00;
 -2.0000000E-01;  9.9999998E-03;  1.1000000E-01;55;  0.0000000E+00;  0.0000000E+00;  0.0000000E+00;  1.0000000E+03;  1.0000000E-01;  0.0000000E+00;0;  0.0000000E+00;  0.0000000E+00;  0.0000000E+00;0;  0.0000000E+00;  4.0000000E+04;  0.0000000E+00;  0.0000000E+00;  4.0000000E+04;  0.0000000E+00;  4.0000000E+04;  0.0000000E+00;  0.0000000E+00;  0.0000000E+00;  0.0000000E+00;
 -2.0000000E-01;  9.9999998E-03;  1.2000000E-01;56;  0.0000000E+00;  0.0000000E+00;  0.0000000E+00;  1.0000000E+03;  1.0000000E-01;  0.0000000E+00;0;  0.0000000E+00;  0.0000000E+00;  0.0000000E+00;0;  0.0000000E+00;  4.0000000E+04;  0.0000000E+00;  0.0000000E+00;  4.0000000E+04;  0.0000000E+00;  4.0000000E+04;  0.0000000E+00;  0.0000000E+00;  0.0000000E+00;  0.0000000E+00;
 -2.0000000E-01;  9.9999998E-03;  1.3000000E-01;57;  0.0000000E+00;  0.0000000E+00;  0.0000000E+00;  1.0000000E+03;  1.0000000E-01;  0.0000000E+00;0;  0.0000000E+00;  0.0000000E+00;  0.0000000E+00;0;  0.0000000E+00;  4.0000000E+04;  0.0000000E+00;  0.0000000E+00;  4.0000000E+04;  0.0000000E+00;  4.0000000E+04;  0.0000000E+00;  0.0000000E+00;  0.0000000E+00;  0.0000000E+00;
 -2.0000000E-01;  9.9999998E-03;  1.4000000E-01;58;  0.0000000E+00;  0.0000000E+00;  0.0000000E+00;  1.0000000E+03;  1.0000000E-01;  0.0000000E+00;0;  0.0000000E+00;  0.0000000E+00;  0.0000000E+00;0;  0.0000000E+00;  4.0000000E+04;  0.0000000E+00;  0.0000000E+00;  4.0000000E+04;  0.0000000E+00;  4.0000000E+04;  0.0000000E+00;  0.0000000E+00;  0.0000000E+00;  0.0000000E+00;
 -2.0000000E-01;  9.9999998E-03;  1.5000001E-01;59;  0.0000000E+00;  0.0000000E+00;  0.0000000E+00;  1.0000000E+03;  1.0000000E-01;  0.0000000E+00;0;  0.0000000E+00;  0.0000000E+00;  0.0000000E+00;0;  0.0000000E+00;  4.0000000E+04;  0.0000000E+00;  0.0000000E+00;  4.0000000E+04;  0.0000000E+00;  4.0000000E+04;  0.0000000E+00;  0.0000000E+00;  0.0000000E+00;  0.0000000E+00;
 -2.0000000E-01;  9.9999998E-03;  1.6000000E-01;60;  0.0000000E+00;  0.0000000E+00;  0.0000000E+00;  1.0000000E+03;  1.0000000E-01;  0.0000000E+00;0;  0.0000000E+00;  0.0000000E+00;  0.0000000E+00;0;  0.0000000E+00;  4.0000000E+04;  0.0000000E+00;  0.0000000E+00;  4.0000000E+04;  0.0000000E+00;  4.0000000E+04;  0.0000000E+00;  0.0000000E+00;  0.0000000E+00;  0.0000000E+00;
 -2.0000000E-01;  9.9999998E-03;  1.7000000E-01;61;  0.0000000E+00;  0.0000000E+00;  0.0000000E+00;  1.0000000E+03;  1.0000000E-01;  0.0000000E+00;0;  0.0000000E+00;  0.0000000E+00;  0.0000000E+00;0;  0.0000000E+00;  4.0000000E+04;  0.0000000E+00;  0.0000000E+00;  4.0000000E+04;  0.0000000E+00;  4.0000000E+04;  0.0000000E+00;  0.0000000E+00;  0.0000000E+00;  0.0000000E+00;
 -2.0000000E-01;  9.9999998E-03;  1.8000001E-01;62;  0.0000000E+00;  0.0000000E+00;  0.0000000E+00;  1.0000000E+03;  1.0000000E-01;  0.0000000E+00;0;  0.0000000E+00;  0.0000000E+00;  0.0000000E+00;0;  0.0000000E+00;  4.0000000E+04;  0.0000000E+00;  0.0000000E+00;  4.0000000E+04;  0.0000000E+00;  4.0000000E+04;  0.0000000E+00;  0.0000000E+00;  0.0000000E+00;  0.0000000E+00;
 -2.0000000E-01;  9.9999998E-03;  1.9000000E-01;63;  0.0000000E+00;  0.0000000E+00;  0.0000000E+00;  1.0000000E+03;  1.0000000E-01;  0.0000000E+00;0;  0.0000000E+00;  0.0000000E+00;  0.0000000E+00;0;  0.0000000E+00;  4.0000000E+04;  0.0000000E+00;  0.0000000E+00;  4.0000000E+04;  0.0000000E+00;  4.0000000E+04;  0.0000000E+00;  0.0000000E+00;  0.0000000E+00;  0.0000000E+00;
 -2.0000000E-01;  9.9999998E-03;  2.0000000E-01;64;  0.0000000E+00;  0.0000000E+00;  0.0000000E+00;  1.0000000E+03;  1.0000000E-01;  0.0000000E+00;0;  0.0000000E+00;  0.0000000E+00;  0.0000000E+00;0;  0.0000000E+00;  4.0000000E+04;  0.0000000E+00;  0.0000000E+00;  4.0000000E+04;  0.0000000E+00;  4.0000000E+04;  0.0000000E+00;  0.0000000E+00;  0.0000000E+00;  0.0000000E+00;
 -2.0000000E-01;  9.9999998E-03;  2.0999999E-01;65;  0.0000000E+00;  0.0000000E+00;  0.0000000E+00;  1.0000000E+03;  1.0000000E-01;  0.0000000E+00;0;  0.0000000E+00;  0.0000000E+00;  0.0000000E+00;0;  0.0000000E+00;  4.0000000E+04;  0.0000000E+00;  0.0000000E+00;  4.0000000E+04;  0.0000000E+00;  4.0000000E+04;  0.0000000E+00;  0.0000000E+00;  0.0000000E+00;  0.0000000E+00;
 -2.0000000E-01;  9.9999998E-03;  2.2000000E-01;66;  0.0000000E+00;  0.0000000E+00;  0.0000000E+00;  1.0000000E+03;  1.0000000E-01;  0.0000000E+00;0;  0.0000000E+00;  0.0000000E+00;  0.0000000E+00;0;  0.0000000E+00;  4.0000000E+04;  0.0000000E+00;  0.0000000E+00;  4.0000000E+04;  0.0000000E+00;  4.0000000E+04;  0.0000000E+00;  0.0000000E+00;  0.0000000E+00;  0.0000000E+00;
 -2.0000000E-01;  9.9999998E-03;  2.3000000E-01;67;  0.0000000E+00;  0.0000000E+00;  0.0000000E+00;  1.0000000E+03;  1.0000000E-01;  0.0000000E+00;0;  0.0000000E+00;  0.0000000E+00;  0.0000000E+00;0;  0.0000000E+00;  4.0000000E+04;  0.0000000E+00;  0.0000000E+00;  4.0000000E+04;  0.0000000E+00;  4.0000000E+04;  0.0000000E+00;  0.0000000E+00;  0.0000000E+00;  0.0000000E+00;
 -2.0000000E-01;  9.9999998E-03;  2.3999999E-01;68;  0.0000000E+00;  0.0000000E+00;  0.0000000E+00;  1.0000000E+03;  1.0000000E-01;  0.0000000E+00;0;  0.0000000E+00;  0.0000000E+00;  0.0000000E+00;0;  0.0000000E+00;  4.0000000E+04;  0.0000000E+00;  0.0000000E+00;  4.0000000E+04;  0.0000000E+00;  4.0000000E+04;  0.0000000E+00;  0.0000000E+00;  0.0000000E+00;  0.0000000E+00;
 -2.0000000E-01;  9.9999998E-03;  2.5000000E-01;69;  0.0000000E+00;  0.0000000E+00;  0.0000000E+00;  1.0000000E+03;  1.0000000E-01;  0.0000000E+00;0;  0.0000000E+00;  0.0000000E+00;  0.0000000E+00;0;  0.0000000E+00;  4.0000000E+04;  0.0000000E+00;  0.0000000E+00;  4.0000000E+04;  0.0000000E+00;  4.0000000E+04;  0.0000000E+00;  0.0000000E+00;  0.0000000E+00;  0.0000000E+00;
 -2.0000000E-01;  9.9999998E-03;  2.5999999E-01;70;  0.0000000E+00;  0.0000000E+00;  0.0000000E+00;  1.0000000E+03;  1.0000000E-01;  0.0000000E+00;0;  0.0000000E+00;  0.0000000E+00;  0.0000000E+00;0;  0.0000000E+00;  4.0000000E+04;  0.0000000E+00;  0.0000000E+00;  4.0000000E+04;  0.0000000E+00;  4.0000000E+04;  0.0000000E+00;  0.0000000E+00;  0.0000000E+00;  0.0000000E+00;
 -2.0000000E-01;  9.9999998E-03;  2.7000001E-01;71;  0.0000000E+00;  0.0000000E+00;  0.0000000E+00;  1.0000000E+03;  1.0000000E-01;  0.0000000E+00;0;  0.0000000E+00;  0.0000000E+00;  0.0000000E+00;0;  0.0000000E+00;  4.0000000E+04;  0.0000000E+00;  0.0000000E+00;  4.0000000E+04;  0.0000000E+00;  4.0000000E+04;  0.0000000E+00;  0.0000000E+00;  0.0000000E+00;  0.0000000E+00;
 -2.0000000E-01;  9.9999998E-03;  2.8000000E-01;72;  0.0000000E+00;  0.0000000E+00;  0.0000000E+00;  1.0000000E+03;  1.0000000E-01;  0.0000000E+00;0;  0.0000000E+00;  0.0000000E+00;  0.0000000E+00;0;  0.0000000E+00;  4.0000000E+04;  0.0000000E+00;  0.0000000E+00;  4.0000000E+04;  0.0000000E+00;  4.0000000E+04;  0.0000000E+00;  0.0000000E+00;  0.0000000E+00;  0.0000000E+00;
 -2.0000000E-01;  9.9999998E-03;  2.8999999E-01;73;  0.0000000E+00;  0.0000000E+00;  0.0000000E+00;  1.0000000E+03;  1.0000000E-01;  0.0000000E+00;0;  0.0000000E+00;  0.0000000E+00;  0.0000000E+00;0;  0.0000000E+00;  4.0000000E+04;  0.0000000E+00;  0.0000000E+00;  4.0000000E+04;  0.0000000E+00;  4.0000000E+04;  0.0000000E+00;  0.0000000E+00;  0.0000000E+00;  0.0000000E+00;
 -2.0000000E-01;  9.9999998E-03;  3.0000001E-01;74;  0.0000000E+00;  0.0000000E+00;  0.0000000E+00;  1.0000000E+03;  1.0000000E-01;  0.0000000E+00;0;  0.0000000E+00;  0.0000000E+00;  0.0000000E+00;0;  0.0000000E+00;  4.0000000E+04;  0.0000000E+00;  0.0000000E+00;  4.0000000E+04;  0.0000000E+00;  4.0000000E+04;  0.0000000E+00;  0.0000000E+00;  0.0000000E+00;  0.0000000E+00;
 -2.0000000E-01;  9.9999998E-03;  3.1000000E-01;75;  0.0000000E+00;  0.0000000E+00;  0.0000000E+00;  1.0000000E+03;  1.0000000E-01;  0.0000000E+00;0;  0.0000000E+00;  0.0000000E+00;  0.0000000E+00;0;  0.0000000E+00;  4.0000000E+04;  0.0000000E+00;  0.0000000E+00;  4.0000000E+04;  0.0000000E+00;  4.0000000E+04;  0.0000000E+00;  0.0000000E+00;  0.0000000E+00;  0.0000000E+00;
 -2.0000000E-01;  9.9999998E-03;  3.1999999E-01;76;  0.0000000E+00;  0.0000000E+00;  0.0000000E+00;  1.0000000E+03;  1.0000000E-01;  0.0000000E+00;0;  0.0000000E+00;  0.0000000E+00;  0.0000000E+00;0;  0.0000000E+00;  4.0000000E+04;  0.0000000E+00;  0.0000000E+00;  4.0000000E+04;  0.0000000E+00;  4.0000000E+04;  0.0000000E+00;  0.0000000E+00;  0.0000000E+00;  0.0000000E+00;
 -2.0000000E-01;  9.9999998E-03;  3.3000001E-01;77;  0.0000000E+00;  0.0000000E+00;  0.0000000E+00;  1.0000000E+03;  1.0000000E-01;  0.0000000E+00;0;  0.0000000E+00;  0.0000000E+00;  0.0000000E+00;0;  0.0000000E+00;  4.0000000E+04;  0.0000000E+00;  0.0000000E+00;  4.0000000E+04;  0.0000000E+00;  4.0000000E+04;  0.0000000E+00;  0.0000000E+00;  0.0000000E+00;  0.0000000E+00;
 -2.0000000E-01;  9.9999998E-03;  3.4000000E-01;78;  0.0000000E+00;  0.0000000E+00;  0.0000000E+00;  1.0000000E+03;  1.0000000E-01;  0.0000000E+00;0;  0.0000000E+00;  0.0000000E+00;  0.0000000E+00;0;  0.0000000E+00;  4.0000000E+04;  0.0000000E+00;  0.0000000E+00;  4.0000000E+04;  0.0000000E+00;  4.0000000E+04;  0.0000000E+00;  0.0000000E+00;  0.0000000E+00;  0.0000000E+00;
 -2.0000000E-01;  9.9999998E-03;  3.4999999E-01;79;  0.0000000E+00;  0.0000000E+00;  0.0000000E+00;  1.0000000E+03;  1.0000000E-01;  0.0000000E+00;0;  0.0000000E+00;  0.0000000E+00;  0.0000000E+00;0;  0.0000000E+00;  4.0000000E+04;  0.0000000E+00;  0.0000000E+00;  4.0000000E+04;  0.0000000E+00;  4.0000000E+04;  0.0000000E+00;  0.0000000E+00;  0.0000000E+00;  0.0000000E+00;
 -2.0000000E-01;  9.9999998E-03;  3.6000001E-01;80;  0.0000000E+00;  0.0000000E+00;  0.0000000E+00;  1.0000000E+03;  1.0000000E-01;  0.0000000E+00;0;  0.0000000E+00;  0.0000000E+00;  0.0000000E+00;0;  0.0000000E+00;  4.0000000E+04;  0.0000000E+00;  0.0000000E+00;  4.0000000E+04;  0.0000000E+00;  4.0000000E+04;  0.0000000E+00;  0.0000000E+00;  0.0000000E+00;  0.0000000E+00;
 -2.0000000E-01;  9.9999998E-03;  3.7000000E-01;81;  0.0000000E+00;  0.0000000E+00;  0.0000000E+00;  1.0000000E+03;  1.0000000E-01;  0.0000000E+00;0;  0.0000000E+00;  0.0000000E+00;  0.0000000E+00;0;  0.0000000E+00;  4.0000000E+04;  0.0000000E+00;  0.0000000E+00;  4.0000000E+04;  0.0000000E+00;  4.0000000E+04;  0.0000000E+00;  0.0000000E+00;  0.0000000E+00;  0.0000000E+00;
 -2.0000000E-01;  9.9999998E-03;  3.8000000E-01;82;  0.0000000E+00;  0.0000000E+00;  0.0000000E+00;  1.0000000E+03;  1.0000000E-01;  0.0000000E+00;0;  0.0000000E+00;  0.0000000E+00;  0.0000000E+00;0;  0.0000000E+00;  4.0000000E+04;  0.0000000E+00;  0.0000000E+00;  4.0000000E+04;  0.0000000E+00;  4.0000000E+04;  0.0000000E+00;  0.0000000E+00;  0.0000000E+00;  0.0000000E+00;
 -2.0000000E-01;  9.9999998E-03;  3.8999999E-01;83;  0.0000000E+00;  0.0000000E+00;  0.0000000E+00;  1.0000000E+03;  1.0000000E-01;  0.0000000E+00;0;  0.0000000E+00;  0.0000000E+00;  0.0000000E+00;0;  0.0000000E+00;  4.0000000E+04;  0.0000000E+00;  0.0000000E+00;  4.0000000E+04;  0.0000000E+00;  4.0000000E+04;  0.0000000E+00;  0.0000000E+00;  0.0000000E+00;  0.0000000E+00;
 -2.0000000E-01;  9.9999998E-03;  4.0000001E-01;84;  0.0000000E+00;  0.0000000E+00;  0.0000000E+00;  1.0000000E+03;  1.0000000E-01;  0.0000000E+00;0;  0.0000000E+00;  0.0000000E+00;  0.0000000E+00;0;  0.0000000E+00;  4.0000000E+04;  0.0000000E+00;  0.0000000E+00;  4.0000000E+04;  0.0000000E+00;  4.0000000E+04;  0.0000000E+00;  0.0000000E+00;  0.0000000E+00;  0.0000000E+00;
 -2.0000000E-01;  9.9999998E-03;  4.1000000E-01;85;  0.0000000E+00;  0.0000000E+00;  0.0000000E+00;  1.0000000E+03;  1.0000000E-01;  0.0000000E+00;0;  0.0000000E+00;  0.0000000E+00;  0.0000000E+00;0;  0.0000000E+00;  4.0000000E+04;  0.0000000E+00;  0.0000000E+00;  4.0000000E+04;  0.0000000E+00;  4.0000000E+04;  0.0000000E+00;  0.0000000E+00;  0.0000000E+00;  0.0000000E+00;
 -2.0000000E-01;  9.9999998E-03;  4.1999999E-01;86;  0.0000000E+00;  0.0000000E+00;  0.0000000E+00;  1.0000000E+03;  1.0000000E-01;  0.0000000E+00;0;  0.0000000E+00;  0.0000000E+00;  0.0000000E+00;0;  0.0000000E+00;  4.0000000E+04;  0.0000000E+00;  0.0000000E+00;  4.0000000E+04;  0.0000000E+00;  4.0000000E+04;  0.0000000E+00;  0.0000000E+00;  0.0000000E+00;  0.0000000E+00;
 -2.0000000E-01;  9.9999998E-03;  4.3000001E-01;87;  0.0000000E+00;  0.0000000E+00;  0.0000000E+00;  1.0000000E+03;  1.0000000E-01;  0.0000000E+00;0;  0.0000000E+00;  0.0000000E+00;  0.0000000E+00;0;  0.0000000E+00;  4.0000000E+04;  0.0000000E+00;  0.0000000E+00;  4.0000000E+04;  0.0000000E+00;  4.0000000E+04;  0.0000000E+00;  0.0000000E+00;  0.0000000E+00;  0.0000000E+00;
 -2.0000000E-01;  9.9999998E-03;  4.4000000E-01;88;  0.0000000E+00;  0.0000000E+00;  0.0000000E+00;  1.0000000E+03;  1.0000000E-01;  0.0000000E+00;0;  0.0000000E+00;  0.0000000E+00;  0.0000000E+00;0;  0.0000000E+00;  4.0000000E+04;  0.0000000E+00;  0.0000000E+00;  4.0000000E+04;  0.0000000E+00;  4.0000000E+04;  0.0000000E+00;  0.0000000E+00;  0.0000000E+00;  0.0000000E+00;
  1.4698824E-04;  9.9999998E-03; -2.8986892E-01;2448;  2.6702168E-03;  0.0000000E+00;  1.3768164E-03;  9.9540173E+02;  1.0000000E-01; -3.8095713E+03;3;  2.4708969E+01;  0.0000000E+00;  3.5963707E+01;0;  2.2081917E-02;  3.9643348E+04;  0.0000000E+00; -3.8430333E-01;  4.0000000E+04;  0.0000000E+00;  3.9986328E+04;  1.8397775E-02;  0.0000000E+00;  3.6841431E-03;  1.4236730E+03;
  4.4380676E-04;  9.9999998E-03; -2.7983716E-01;2449;  4.0386324E-03;  0.0000000E+00;  1.6820554E-03;  9.9433124E+02;  1.0000000E-01; -4.6964600E+03;3;  3.1827888E+01;  0.0000000E+00;  3.4556389E+01;0;  2.4937794E-02;  3.9552270E+04;  0.0000000E+00; -4.3593106E-01;  4.0000000E+04;  0.0000000E+00;  3.9993277E+04;  2.1799043E-02;  0.0000000E+00;  3.1387517E-03;  7.0639166E+02;
  9.9276202E-03;  9.9999998E-03; -2.9980493E-01;2507;  7.8307628E-04;  0.0000000E+00;  7.7056763E-04;  9.9663568E+02;  1.0000000E-01; -2.7872793E+03;3;  1.4008902E+01;  0.0000000E+00;  3.6216698E+01;0;  1.9034997E-02;  3.9748004E+04;  0.0000000E+00; -4.2318875E-01;  4.0000000E+04;  0.0000000E+00;  3.9980125E+04;  1.4652112E-02;  0.0000000E+00;  4.3828841E-03;  2.2792605E+03;
  1.0149106E-02;  9.9999998E-03; -2.8979838E-01;2508;  2.4503937E-03;  0.0000000E+00;  1.6676579E-03;  9.9580939E+02;  1.0000000E-01; -3.4718525E+03;3;  1.9175987E+01;  0.0000000E+00;  3.4452911E+01;0;  2.1832617E-02;  3.9675555E+04;  0.0000000E+00; -4.7644424E-01;  4.0000000E+04;  0.0000000E+00;  3.9987117E+04;  1.7731052E-02;  0.0000000E+00;  4.1015656E-03;  1.4504875E+03;
  1.0447427E-02;  9.9999998E-03; -2.7980170E-01;2509;  3.6587527E-03;  0.0000000E+00;  1.7673305E-03;  9.9490222E+02;  1.0000000E-01; -4.2234360E+03;3;  2.5393768E+01;  0.0000000E+00;  3.1431499E+01;0;  2.4286933E-02;  3.9595781E+04;  0.0000000E+00; -5.2348238E-01;  4.0000000E+04;  0.0000000E+00;  3.9994859E+04;  2.0792682E-02;  0.0000000E+00;  3.4942525E-03;  7.6692657E+02;
  1.9881420E-02;  9.9999998E-03; -2.9981318E-01;2568;  5.3816504E-04;  0.0000000E+00;  8.3723688E-04;  9.9705603E+02;  1.0000000E-01; -2.4390422E+03;3;  1.0466982E+01;  0.0000000E+00;  3.3856258E+01;0;  1.9047018E-02;  3.9780469E+04;  0.0000000E+00; -5.1639897E-01;  4.0000000E+04;  0.0000000E+00;  3.9980781E+04;  1.4329608E-02;  0.0000000E+00;  4.7174096E-03;  2.2663887E+03;
  2.0099673E-02;  9.9999998E-03; -2.8983438E-01;2569;  2.0752253E-03;  0.0000000E+00;  1.5577314E-03;  9.9639807E+02;  1.0000000E-01; -2.9841130E+03;3;  1.4650257E+01;  0.0000000E+00;  3.0281988E+01;0;  2.1539349E-02;  3.9720406E+04;  0.0000000E+00; -5.6483400E-01;  4.0000000E+04;  0.0000000E+00;  3.9988117E+04;  1.7128825E-02;  0.0000000E+00;  4.4105249E-03;  1.3952761E+03;
  2.0408943E-02;  9.9999998E-03; -2.7985030E-01;2570;  3.2345734E-03;  0.0000000E+00;  1.6272875E-03;  9.9568915E+02;  1.0000000E-01; -3.5714546E+03;3;  1.9175150E+01;  0.0000000E+00;  2.6134501E+01;0;  2.3648791E-02;  3.9656137E+04;  0.0000000E+00; -6.0279667E-01;  4.0000000E+04;  0.0000000E+00;  3.9997195E+04;  1.9863952E-02;  0.0000000E+00;  3.7848386E-03;  8.5441943E+02;
  2.9820049E-02;  9.9999998E-03; -2.9987988E-01;2629;  1.3757504E-04;  0.0000000E+00;  4.9262459E-04;  9.9753290E+02;  1.0000000E-01; -2.0439421E+03;3;  8.3406734E+00;  0.0000000E+00;  2.9896099E+01;0;  1.9429199E-02;  3.9817156E+04;  0.0000000E+00; -6.0266781E-01;  4.0000000E+04;  0.0000000E+00;  3.9982160E+04;  1.4472131E-02;  0.0000000E+00;  4.9570692E-03;  2.2099392E+03;
  3.0040827E-02;  9.9999998E-03; -2.8990331E-01;2630;  1.6467384E-03;  0.0000000E+00;  1.2240589E-03;  9.9705927E+02;  1.0000000E-01; -2.4363262E+03;3;  1.1264094E+01;  0.0000000E+00;  2.4880999E+01;0;  2.1743780E-02;  3.9771289E+04;  0.0000000E+00; -6.4093149E-01;  4.0000000E+04;  0.0000000E+00;  3.9989781E+04;  1.7093629E-02;  0.0000000E+00;  4.6501514E-03;  1.3442332E+03;
  3.0365398E-02;  9.9999998E-03; -2.7991512E-01;2631;  2.8242855E-03;  0.0000000E+00;  1.3731593E-03;  9.9657483E+02;  1.0000000E-01; -2.8376975E+03;3;  1.3889588E+01;  0.0000000E+00;  1.9586592E+01;0;  2.3645269E-02;  3.9723863E+04;  0.0000000E+00; -6.6047114E-01;  4.0000000E+04;  0.0000000E+00;  3.9998895E+04;  1.9612053E-02;  0.0000000E+00;  4.0332158E-03;  9.5360980E+02;
  3.9771698E-02;  9.9999998E-03; -2.9995054E-01;2690; -1.6406651E-04;  0.0000000E+00;  4.5491761E-05;  9.9798810E+02;  1.0000000E-01; -1.6668170E+03;3;  7.0718060E+00;  0.0000000E+00;  2.5320004E+01;0;  2.0522792E-02;  3.9852223E+04;  0.0000000E+00; -6.7931551E-01;  4.0000000E+04;  0.0000000E+00;  3.9982965E+04;  1.5363891E-02;  0.0000000E+00;  5.1589021E-03;  2.1770630E+03;
  4.0006924E-02;  9.9999998E-03; -2.8995535E-01;2691;  1.1688808E-03;  0.0000000E+00;  6.7158218E-04;  9.9769952E+02;  1.0000000E-01; -1.9059214E+03;3;  9.3011475E+00;  0.0000000E+00;  1.9154587E+01;0;  2.2844957E-02;  3.9820676E+04;  0.0000000E+00; -6.9772404E-01;  4.0000000E+04;  0.0000000E+00;  3.9991316E+04;  1.7985931E-02;  0.0000000E+00;  4.8590270E-03;  1.3235065E+03;
  4.0343020E-02;  9.9999998E-03; -2.7995792E-01;2692;  2.4453700E-03;  0.0000000E+00;  1.0448272E-03;  9.9742706E+02;  1.0000000E-01; -2.1316433E+03;3;  1.0310769E+01;  0.0000000E+00;  1.2709310E+01;0;  2.4719205E-02;  3.9790309E+04;  0.0000000E+00; -6.8322504E-01;  4.0000000E+04;  0.0000000E+00;  4.0000430E+04;  2.0461205E-02;  0.0000000E+00;  4.2579989E-03;  1.0130577E+03;
  4.9752191E-02;  9.9999998E-03; -2.9999617E-01;2751; -2.1151763E-04;  0.0000000E+00; -1.3916643E-04;  9.9835840E+02;  1.0000000E-01; -1.3600603E+03;3;  6.9026709E+00;  0.0000000E+00;  2.0414087E+01;0;  2.2497926E-02;  3.9881160E+04;  0.0000000E+00; -7.4641341E-01;  4.0000000E+04;  0.0000000E+00;  3.9983148E+04;  1.7128531E-02;  0.0000000E+00;  5.3693959E-03;  2.2116621E+03;
  5.0000731E-02;  9.9999998E-03; -2.8998467E-01;2752;  6.7857414E-04;  0.0000000E+00;  1.8554398E-05;  9.9823029E+02;  1.0000000E-01; -1.4661808E+03;3;  9.0157433E+00;  0.0000000E+00;  1.3600873E+01;0;  2.5031608E-02;  3.9862395E+04;  0.0000000E+00; -7.3174196E-01;  4.0000000E+04;  0.0000000E+00;  3.9992113E+04;  1.9951636E-02;  0.0000000E+00;  5.0799716E-03;  1.3338090E+03;
  5.0341874E-02;  9.9999998E-03; -2.7997771E-01;2753;  2.0569533E-03;  0.0000000E+00;  5.9323094E-04;  9.9815564E+02;  1.0000000E-01; -1.5280062E+03;3;  8.7061739E+00;  0.0000000E+00;  6.2044611E+00;0;  2.7073566E-02;  3.9847344E+04;  0.0000000E+00; -6.6375113E-01;  4.0000000E+04;  0.0000000E+00;  4.0002082E+04;  2.2593630E-02;  0.0000000E+00;  4.4799359E-03;  1.0043912E+03;
  5.9758414E-02;  9.9999998E-03; -3.0002251E-01;2812; -1.9760041E-04;  0.0000000E+00; -3.0982165E-04;  9.9859235E+02;  1.0000000E-01; -1.1662386E+03;3;  8.0187588E+00;  0.0000000E+00;  1.6779774E+01;0;  2.5355536E-02;  3.9900270E+04;  0.0000000E+00; -7.7924359E-01;  4.0000000E+04;  0.0000000E+00;  3.9982770E+04;  1.9715153E-02;  0.0000000E+00;  5.6403847E-03;  2.3225950E+03;
  6.0016021E-02;  9.9999998E-03; -2.8999713E-01;2813;  4.9143954E-04;  0.0000000E+00; -3.1557799E-04;  9.9859943E+02;  1.0000000E-01; -1.1603623E+03;3;  9.8756123E+00;  0.0000000E+00;  8.4531384E+00;0;  2.8245613E-02;  3.9891980E+04;  0.0000000E+00; -7.1796894E-01;  4.0000000E+04;  0.0000000E+00;  3.9991793E+04;  2.2909043E-02;  0.0000000E+00;  5.3365696E-03;  1.3484917E+03;
  6.0354091E-02;  9.9999998E-03; -2.7998364E-01;2814;  1.7087699E-03;  0.0000000E+00;  5.8491580E-05;  9.9868140E+02;  1.0000000E-01; -1.0924136E+03;3;  9.0072899E+00;  0.0000000E+00;  4.4460261E-01;0;  3.0640855E-02;  3.9889621E+04;  0.0000000E+00; -5.8204067E-01;  4.0000000E+04;  0.0000000E+00;  4.0001344E+04;  2.5920672E-02;  0.0000000E+00;  4.7201840E-03;  8.9585510E+02;
  6.9788694E-02;  9.9999998E-03; -3.0003703E-01;2873; -1.0786266E-04;  0.0000000E+00; -4.6811474E-04;  9.9866406E+02;  1.0000000E-01; -1.1067836E+03;3;  1.0128855E+01;  0.0000000E+00;  1.5179296E+01;0;  2.8927181E-02;  3.9907625E+04;  0.0000000E+00; -6.8515903E-01;  4.0000000E+04;  0.0000000E+00;  3.9980699E+04;  2.2906333E-02;  0.0000000E+00;  6.0208477E-03;  2.4754651E+03;
  7.0052974E-02;  9.9999998E-03; -2.8999460E-01;2874;  5.3966674E-04;  0.0000000E+00; -5.0389249E-04;  9.9877057E+02;  1.0000000E-01; -1.0185391E+03;3;  1.1495559E+01;  0.0000000E+00;  5.2186332E+00;0;  3.2273751E-02;  3.9906832E+04;  0.0000000E+00; -5.6300604E-01;  4.0000000E+04;  0.0000000E+00;  3.9990953E+04;  2.6613817E-02;  0.0000000E+00;  5.6599327E-03;  1.2951549E+03;
  7.0378155E-02;  9.9999998E-03; -2.7998179E-01;2875;  1.5916058E-03;  0.0000000E+00; -3.1060964E-04;  9.9897510E+02;  1.0000000E-01; -8.4911182E+02;3;  1.0397345E+01;  0.0000000E+00; -3.9796746E+00;0;  3.5111301E-02;  3.9913625E+04;  0.0000000E+00; -3.5669440E-01;  4.0000000E+04;  0.0000000E+00;  4.0002043E+04;  3.0127991E-02;  0.0000000E+00;  4.9833087E-03;  5.9024396E+02;
  7.9844721E-02;  9.9999998E-03; -3.0004114E-01;2934;  6.8143301E-05;  0.0000000E+00; -5.9806736E-04;  9.9856604E+02;  1.0000000E-01; -1.1880157E+03;3;  1.2934272E+01;  0.0000000E+00;  1.5934573E+01;0;  3.2927159E-02;  3.9903102E+04;  0.0000000E+00; -2.8500107E-01;  4.0000000E+04;  0.0000000E+00;  3.9977812E+04;  2.6384549E-02;  0.0000000E+00;  6.5426109E-03;  2.6781304E+03;
  8.0111019E-02;  9.9999998E-03; -2.8998315E-01;2935;  7.7166408E-04;  0.0000000E+00; -6.1704731E-04;  9.9873962E+02;  1.0000000E-01; -1.0442174E+03;3;  1.3707273E+01;  0.0000000E+00;  4.3638506E+00;0;  3.6759399E-02;  3.9906438E+04;  0.0000000E+00; -8.6307533E-02;  4.0000000E+04;  0.0000000E+00;  3.9989465E+04;  3.0683771E-02;  0.0000000E+00;  6.0756272E-03;  1.2453889E+03;
  8.0416933E-02;  9.9999998E-03; -2.7997366E-01;2936;  1.7736738E-03;  0.0000000E+00; -4.8157928E-04;  9.9902948E+02;  1.0000000E-01; -8.0407605E+02;3;  1.2233758E+01;  0.0000000E+00; -6.3984542E+00;0;  4.0032152E-02;  3.9918781E+04;  0.0000000E+00;  1.7591746E-01;  4.0000000E+04;  0.0000000E+00;  4.0001109E+04;  3.4759052E-02;  0.0000000E+00;  5.2731000E-03;  3.5908759E+02;
  8.9928359E-02;  9.9999998E-03; -3.0003124E-01;2995;  3.8616391E-04;  0.0000000E+00; -6.6001603E-04;  9.9831171E+02;  1.0000000E-01; -1.3987258E+03;3;  1.6009933E+01;  0.0000000E+00;  1.9095144E+01;0;  3.7012868E-02;  3.9886719E+04;  0.0000000E+00;  6.7818218E-01;  4.0000000E+04;  0.0000000E+00;  3.9973656E+04;  2.9803921E-02;  0.0000000E+00;  7.2089466E-03;  3.2848252E+03;
  9.0186112E-02;  9.9999998E-03; -2.8996161E-01;2996;  1.2657638E-03;  0.0000000E+00; -5.8055262E-04;  9.9851880E+02;  1.0000000E-01; -1.2271257E+03;3;  1.6083660E+01;  0.0000000E+00;  5.8923440E+00;0;  4.1269943E-02;  3.9891516E+04;  0.0000000E+00;  9.6613610E-01;  4.0000000E+04;  0.0000000E+00;  3.9986684E+04;  3.4692865E-02;  0.0000000E+00;  6.5770783E-03;  2.0548726E+03;
  9.0465285E-02;  9.9999998E-03; -2.7995977E-01;2997;  2.3063556E-03;  0.0000000E+00; -4.2057311E-04;  9.9885950E+02;  1.0000000E-01; -9.4486218E+02;3;  1.4050788E+01;  0.0000000E+00; -6.6799016E+00;0;  4.4871550E-02;  3.9906469E+04;  0.0000000E+00;  1.2457989E+00;  4.0000000E+04;  0.0000000E+00;  4.0000648E+04;  3.9293155E-02;  0.0000000E+00;  5.5783940E-03;  1.8026825E+03;
  1.0004049E-01;  9.9999998E-03; -2.9999745E-01;3056;  1.0697559E-03;  0.0000000E+00; -4.8562803E-04;  9.9791095E+02;  1.0000000E-01; -1.7307164E+03;3;  1.9060623E+01;  0.0000000E+00;  2.4478714E+01;0;  4.0902913E-02;  3.9859793E+04;  0.0000000E+00;  2.5121114E+00;  4.0000000E+04;  0.0000000E+00;  3.9969172E+04;  3.2938391E-02;  0.0000000E+00;  7.9645198E-03;  5.1526475E+03;
  1.0027501E-01;  9.9999998E-03; -2.8992188E-01;3057;  2.3299551E-03;  0.0000000E+00; -1.1308824E-04;  9.9813306E+02;  1.0000000E-01; -1.5467217E+03;3;  1.8215094E+01;  0.0000000E+00;  9.2552490E+00;0;  4.5439370E-02;  3.9863750E+04;  0.0000000E+00;  2.8884776E+00;  4.0000000E+04;  0.0000000E+00;  3.9984922E+04;  3.8359046E-02;  0.0000000E+00;  7.0803231E-03;  4.5151865E+03;
  1.0051715E-01;  9.9999998E-03; -2.7993163E-01;3058;  3.6073760E-03;  0.0000000E+00;  2.0442945E-04;  9.9850488E+02;  1.0000000E-01; -1.2386810E+03;3;  1.5642762E+01;  0.0000000E+00; -5.2093024E+00;0;  4.9165729E-02;  3.9878977E+04;  0.0000000E+00;  3.1112089E+00;  4.0000000E+04;  0.0000000E+00;  4.0000336E+04;  4.3356098E-02;  0.0000000E+00;  5.8096321E-03;  4.4786797E+03;
  1.1017614E-01;  9.9999998E-03; -2.9992205E-01;3117;  2.9631746E-03;  0.0000000E+00;  7.8562315E-04;  9.9737830E+02;  1.0000000E-01; -2.1720374E+03;3;  2.2250250E+01;  0.0000000E+00;  3.0081570E+01;0;  4.4740971E-02;  3.9822191E+04;  0.0000000E+00;  5.5520458E+00;  4.0000000E+04;  0.0000000E+00;  3.9965445E+04;  3.6232013E-02;  0.0000000E+00;  8.5089579E-03;  8.9819717E+03;
  1.1037342E-01;  9.9999998E-03; -2.8984439E-01;3118;  4.9712127E-03;  0.0000000E+00;  1.6264374E-03;  9.9761560E+02;  1.0000000E-01; -1.9754503E+03;3;  2.0941597E+01;  0.0000000E+00;  1.1949410E+01;0;  4.9356058E-02;  3.9824453E+04;  0.0000000E+00;  5.9848127E+00;  4.0000000E+04;  0.0000000E+00;  3.9983406E+04;  4.2115074E-02;  0.0000000E+00;  7.2409860E-03;  8.8175527E+03;
  1.1057264E-01;  9.9999998E-03; -2.7987000E-01;3119;  6.7808307E-03;  0.0000000E+00;  1.9731598E-03;  9.9801056E+02;  1.0000000E-01; -1.6482003E+03;3;  1.8285789E+01;  0.0000000E+00; -4.4563265E+00;0;  5.2945666E-02;  3.9839434E+04;  0.0000000E+00;  6.0169721E+00;  4.0000000E+04;  0.0000000E+00;  4.0001242E+04;  4.7259372E-02;  0.0000000E+00;  5.6862924E-03;  8.6784883E+03;
  1.2031710E-01;  9.9999998E-03; -2.9979327E-01;3178;  6.2870635E-03;  0.0000000E+00;  3.4080672E-03;  9.9674469E+02;  1.0000000E-01; -2.6969607E+03;3;  2.7383032E+01;  0.0000000E+00;  3.1498297E+01;0;  4.9262881E-02;  3.9773598E+04;  0.0000000E+00;  1.0184668E+01;  4.0000000E+04;  0.0000000E+00;  3.9964844E+04;  4.1023649E-02;  0.0000000E+00;  8.2392320E-03;  1.5243174E+04;
  1.2044646E-01;  9.9999998E-03; -2.8973466E-01;3179;  7.8302519E-03;  0.0000000E+00;  3.4638059E-03;  9.9702942E+02;  1.0000000E-01; -2.4610662E+03;3;  2.4403616E+01;  0.0000000E+00;  1.1849206E+01;0;  5.3157128E-02;  3.9776738E+04;  0.0000000E+00;  1.0566241E+01;  4.0000000E+04;  0.0000000E+00;  3.9985348E+04;  4.6271052E-02;  0.0000000E+00;  6.8860743E-03;  1.5331997E+04;
  1.2060004E-01;  9.9999998E-03; -2.7977774E-01;3180;  8.8324649E-03;  0.0000000E+00;  3.1687182E-03;  9.9745135E+02;  1.0000000E-01; -2.1114958E+03;3;  2.0082628E+01;  0.0000000E+00; -4.6666393E+00;0;  5.5858821E-02;  3.9791723E+04;  0.0000000E+00;  1.0165424E+01;  4.0000000E+04;  0.0000000E+00;  4.0005406E+04;  5.0567757E-02;  0.0000000E+00;  5.2910633E-03;  1.4716798E+04;
  1.3039811E-01;  9.9999998E-03; -2.9966256E-01;3239;  7.5118425E-03;  0.0000000E+00;  4.0404182E-03;  9.9610992E+02;  1.0000000E-01; -3.2228718E+03;3;  3.0301601E+01;  0.0000000E+00;  2.9357412E+01;0;  5.3269561E-02;  3.9718922E+04;  0.0000000E+00;  1.6871761E+01;  4.0000000E+04;  0.0000000E+00;  3.9970594E+04;  4.5422740E-02;  0.0000000E+00;  7.8468211E-03;  2.4598709E+04;
  1.3046518E-01;  9.9999998E-03; -2.8961626E-01;3240;  8.4639536E-03;  0.0000000E+00;  3.6865298E-03;  9.9647357E+02;  1.0000000E-01; -2.9215964E+03;3;  2.6252338E+01;  0.0000000E+00;  8.8435955E+00;0;  5.6000333E-02;  3.9725688E+04;  0.0000000E+00;  1.6960024E+01;  4.0000000E+04;  0.0000000E+00;  3.9993562E+04;  4.9493827E-02;  0.0000000E+00;  6.5065064E-03;  2.4551238E+04;
  1.3058469E-01;  9.9999998E-03; -2.7967635E-01;3241;  9.1548329E-03;  0.0000000E+00;  3.2915808E-03;  9.9691736E+02;  1.0000000E-01; -2.5539031E+03;3;  2.1169950E+01;  0.0000000E+00; -7.0015793E+00;0;  5.7703190E-02;  3.9742160E+04;  0.0000000E+00;  1.5710634E+01;  4.0000000E+04;  0.0000000E+00;  4.0013586E+04;  5.2854329E-02;  0.0000000E+00;  4.8488602E-03;  2.2855412E+04;
  1.4044599E-01;  9.9999998E-03; -2.9953897E-01;3300;  8.1162164E-03;  0.0000000E+00;  4.0935678E-03;  9.9554260E+02;  1.0000000E-01; -3.6928833E+03;3;  3.6173771E+01;  0.0000000E+00;  2.2289152E+01;0;  5.7419997E-02;  3.9661191E+04;  0.0000000E+00;  2.6157490E+01;  4.0000000E+04;  0.0000000E+00;  3.9985160E+04;  5.0271921E-02;  0.0000000E+00;  7.1480758E-03;  3.7844746E+04;
  1.4045684E-01;  9.9999998E-03; -2.8950536E-01;3301;  8.6868471E-03;  0.0000000E+00;  3.6009264E-03;  9.9602814E+02;  1.0000000E-01; -3.2906230E+03;3;  3.1340025E+01;  0.0000000E+00;  1.3783776E+00;0;  5.8676019E-02;  3.9675863E+04;  0.0000000E+00;  2.5504593E+01;  4.0000000E+04;  0.0000000E+00;  4.0009348E+04;  5.2790809E-02;  0.0000000E+00;  5.8852099E-03;  3.7009895E+04;
  1.4056422E-01;  9.9999998E-03; -2.7957568E-01;3302;  9.1571035E-03;  0.0000000E+00;  3.1306955E-03;  9.9648230E+02;  1.0000000E-01; -2.9143374E+03;3;  2.4819836E+01;  0.0000000E+00; -1.2738746E+01;0;  5.9214763E-02;  3.9693836E+04;  0.0000000E+00;  2.2752970E+01;  4.0000000E+04;  0.0000000E+00;  4.0027883E+04;  5.4935344E-02;  0.0000000E+00;  4.2794216E-03;  3.3290281E+04;
  1.5049382E-01;  9.9999998E-03; -2.9948694E-01;3361;  8.4828660E-03;  0.0000000E+00;  3.7415104E-03;  9.9502972E+02;  1.0000000E-01; -4.1177603E+03;3;  4.9554672E+01;  0.0000000E+00;  1.3616610E+01;0;  6.2479839E-02;  3.9600406E+04;  0.0000000E+00;  3.8063145E+01;  4.0000000E+04;  0.0000000E+00;  4.0006711E+04;  5.6104515E-02;  0.0000000E+00;  6.3753258E-03;  5.5039629E+04;
  1.5045723E-01;  9.9999998E-03; -2.8944713E-01;3362;  8.6411070E-03;  0.0000000E+00;  3.1738086E-03;  9.9571350E+02;  1.0000000E-01; -3.5513069E+03;3;  4.2674660E+01;  0.0000000E+00; -8.7143250E+00;0;  6.1753735E-02;  3.9628637E+04;  0.0000000E+00;  3.6223007E+01;  4.0000000E+04;  0.0000000E+00;  4.0032492E+04;  5.6446761E-02;  0.0000000E+00;  5.3069759E-03;  5.2765090E+04;
  1.5057643E-01;  9.9999998E-03; -2.7951366E-01;3363;  8.9104706E-03;  0.0000000E+00;  2.7038695E-03;  9.9616028E+02;  1.0000000E-01; -3.1811445E+03;3;  3.2682014E+01;  0.0000000E+00; -2.0585554E+01;0;  6.0940750E-02;  3.9648031E+04;  0.0000000E+00;  3.1078125E+01;  4.0000000E+04;  0.0000000E+00;  4.0048449E+04;  5.7139877E-02;  0.0000000E+00;  3.8008718E-03;  4.5739672E+04;
  1.6062668E-01;  9.9999998E-03; -2.9959628E-01;3422;  8.8926731E-03;  0.0000000E+00;  2.9410184E-03;  9.9418420E+02;  1.0000000E-01; -4.8182837E+03;3;  6.9684067E+01;  0.0000000E+00;  1.7251110E+01;0;  6.9931760E-02;  3.9520199E+04;  0.0000000E+00;  4.9845146E+01;  4.0000000E+04;  0.0000000E+00;  4.0019770E+04;  6.3734904E-02;  0.0000000E+00;  6.1968546E-03;  7.2156102E+04;
  1.6054398E-01;  9.9999998E-03; -2.8950512E-01;3423;  8.4417574E-03;  0.0000000E+00;  2.2778055E-03;  9.9528009E+02;  1.0000000E-01; -3.9103586E+03;3;  6.0531006E+01;  0.0000000E+00; -1.2633677E+01;0;  6.6196434E-02;  3.9573734E+04;  0.0000000E+00;  4.7427048E+01;  4.0000000E+04;  0.0000000E+00;  4.0052930E+04;  6.0692165E-02;  0.0000000E+00;  5.5042701E-03;  6.9318836E+04;
  1.6069745E-01;  9.9999998E-03; -2.7952549E-01;3424;  8.4733311E-03;  0.0000000E+00;  1.9176716E-03;  9.9578192E+02;  1.0000000E-01; -3.4946172E+03;3;  4.5060253E+01;  0.0000000E+00; -2.5981810E+01;0;  6.3649468E-02;  3.9596777E+04;  0.0000000E+00;  3.9392551E+01;  4.0000000E+04;  0.0000000E+00;  4.0069516E+04;  5.9689447E-02;  0.0000000E+00;  3.9600180E-03;  5.8319984E+04;
  1.7099293E-01;  9.9999998E-03; -2.9987696E-01;3483;  1.0406875E-02;  0.0000000E+00;  2.3515131E-03;  9.9203180E+02;  1.0000000E-01; -6.6014922E+03;3;  8.2954315E+01;  0.0000000E+00;  5.3088940E+01;0;  8.3583437E-02;  3.9369699E+04;  0.0000000E+00;  5.2973263E+01;  4.0000000E+04;  0.0000000E+00;  3.9997770E+04;  7.7417135E-02;  0.0000000E+00;  6.1663035E-03;  7.6986570E+04;
  1.7082442E-01;  9.9999998E-03; -2.8969851E-01;3484;  8.4746704E-03;  0.0000000E+00;  1.2110469E-03;  9.9413300E+02;  1.0000000E-01; -4.8607021E+03;3;  7.7229515E+01;  0.0000000E+00;  3.8484409E+00;0;  7.3437423E-02;  3.9482793E+04;  0.0000000E+00;  5.3702885E+01;  4.0000000E+04;  0.0000000E+00;  4.0051262E+04;  6.6496998E-02;  0.0000000E+00;  6.9404235E-03;  7.8840773E+04;
  1.7095530E-01;  9.9999998E-03; -2.7965257E-01;3485;  7.9692677E-03;  0.0000000E+00;  8.4712217E-04;  9.9504761E+02;  1.0000000E-01; -4.1029458E+03;3;  5.7432762E+01;  0.0000000E+00; -1.9728363E+01;0;  6.8221599E-02;  3.9530617E+04;  0.0000000E+00;  4.4299812E+01;  4.0000000E+04;  0.0000000E+00;  4.0076730E+04;  6.2774740E-02;  0.0000000E+00;  5.4468559E-03;  6.6004430E+04;
  1.8160884E-01;  9.9999998E-03; -3.0006349E-01;3544;  1.1345449E-02;  0.0000000E+00;  3.0302533E-03;  9.8844934E+02;  1.0000000E-01; -9.5695068E+03;3;  7.7348160E+01;  0.0000000E+00;  1.0254891E+02;0;  9.3947887E-02;  3.9115438E+04;  0.0000000E+00;  4.0843369E+01;  4.0000000E+04;  0.0000000E+00;  3.9965516E+04;  9.1164440E-02;  0.0000000E+00;  2.7834512E-03;  6.0044641E+04;
  1.8130332E-01;  9.9999998E-03; -2.8992566E-01;3545;  9.1877123E-03;  0.0000000E+00;  9.1915211E-04;  9.9197156E+02;  1.0000000E-01; -6.6514170E+03;3;  7.9051811E+01;  0.0000000E+00;  4.2035294E+01;0;  8.3095178E-02;  3.9338180E+04;  0.0000000E+00;  4.8179829E+01;  4.0000000E+04;  0.0000000E+00;  4.0022531E+04;  7.5370848E-02;  0.0000000E+00;  7.7243275E-03;  7.1549531E+04;
  1.8129134E-01;  9.9999998E-03; -2.7986249E-01;3546;  7.8215394E-03;  0.0000000E+00;  6.6901739E-05;  9.9383856E+02;  1.0000000E-01; -5.1046460E+03;3;  6.0656460E+01;  0.0000000E+00;  3.8137181E+00;0;  7.4926198E-02;  3.9454027E+04;  0.0000000E+00;  4.1891697E+01;  4.0000000E+04;  0.0000000E+00;  4.0056012E+04;  6.7165405E-02;  0.0000000E+00;  7.7607925E-03;  6.2994504E+04;
  1.9225585E-01;  9.9999998E-03; -2.9994896E-01;3605;  5.3707561E-03;  0.0000000E+00;  2.1676221E-03;  9.8534259E+02;  1.0000000E-01; -1.2143409E+04;3;  8.3595924E+01;  0.0000000E+00;  9.6009155E+01;0;  7.4339241E-02;  3.8823535E+04;  0.0000000E+00;  2.0799829E+01;  4.0000000E+04;  0.0000000E+00;  4.0011426E+04;  6.9684036E-02;  0.0000000E+00;  4.6552084E-03;  3.0173852E+04;
  1.9179611E-01;  9.9999998E-03; -2.9001227E-01;3606;  8.6427229E-03;  0.0000000E+00;  1.1929140E-03;  9.8985675E+02;  1.0000000E-01; -8.4034658E+03;3;  6.9274414E+01;  0.0000000E+00;  6.6393242E+01;0;  8.6655475E-02;  3.9183133E+04;  0.0000000E+00;  3.2575207E+01;  4.0000000E+04;  0.0000000E+00;  4.0007895E+04;  7.9588734E-02;  0.0000000E+00;  7.0667411E-03;  4.9364602E+04;
  1.9149850E-01;  9.9999998E-03; -2.8002843E-01;3607;  8.4584011E-03;  0.0000000E+00;  4.7921698E-05;  9.9290924E+02;  1.0000000E-01; -5.8745498E+03;3;  5.3104843E+01;  0.0000000E+00;  3.0509966E+01;0;  8.2652047E-02;  3.9412559E+04;  0.0000000E+00;  3.4841690E+01;  4.0000000E+04;  0.0000000E+00;  4.0022594E+04;  7.3671147E-02;  0.0000000E+00;  8.9809010E-03;  5.3048715E+04;
  2.0227320E-01;  9.9999998E-03; -2.9987657E-01;3666;  1.2102207E-04;  0.0000000E+00; -2.4818054E-03;  9.8578094E+02;  1.0000000E-01; -1.1780210E+04;3;  8.7829063E+01;  0.0000000E+00;  5.0215805E+01;0;  7.6547526E-02;  3.8795426E+04;  0.0000000E+00;  1.4123434E+01;  4.0000000E+04;  0.0000000E+00;  4.0074488E+04;  4.5870248E-02;  0.0000000E+00;  3.0677278E-02;  2.1287654E+04;
  2.0194444E-01;  9.9999998E-03; -2.9001677E-01;3667;  7.1547530E-03;  0.0000000E+00;  2.7565510E-04;  9.8950781E+02;  1.0000000E-01; -8.6925938E+03;3;  6.0352596E+01;  0.0000000E+00;  6.3105885E+01;0;  9.0495035E-02;  3.9143465E+04;  0.0000000E+00;  2.0753603E+01;  4.0000000E+04;  0.0000000E+00;  4.0019512E+04;  7.7884942E-02;  0.0000000E+00;  1.2610096E-02;  3.1463293E+04;
  2.0151030E-01;  9.9999998E-03; -2.8009719E-01;3668;  9.7689386E-03;  0.0000000E+00;  8.8053202E-05;  9.9287628E+02;  1.0000000E-01; -5.9018579E+03;3;  4.3040249E+01;  0.0000000E+00;  4.4594612E+01;0;  9.1743469E-02;  3.9431094E+04;  0.0000000E+00;  2.9646545E+01;  4.0000000E+04;  0.0000000E+00;  4.0000355E+04;  8.1285939E-02;  0.0000000E+00;  1.0457528E-02;  4.5362094E+04;
  2.1200952E-01;  9.9999998E-03; -2.9994360E-01;3727;  1.3333891E-03;  0.0000000E+00; -3.9167730E-03;  9.8761902E+02;  1.0000000E-01; -1.0257389E+04;3;  6.9089539E+01;  0.0000000E+00;  5.2105251E+01;0;  1.0114427E-01;  3.8948652E+04;  0.0000000E+00;  1.3850310E+01;  4.0000000E+04;  0.0000000E+00;  4.0063871E+04;  5.3797405E-02;  0.0000000E+00;  4.7346864E-02;  1.8927279E+04;
  2.1180859E-01;  9.9999998E-03; -2.9003447E-01;3728;  7.6635201E-03;  0.0000000E+00; -1.1003771E-04;  9.9057489E+02;  1.0000000E-01; -7.8085200E+03;3;  4.8022980E+01;  0.0000000E+00;  6.0381962E+01;0;  9.8969288E-02;  3.9229055E+04;  0.0000000E+00;  1.8173569E+01;  4.0000000E+04;  0.0000000E+00;  4.0017289E+04;  8.1471562E-02;  0.0000000E+00;  1.7497726E-02;  2.6623549E+04;
  2.1147414E-01;  9.9999998E-03; -2.8010279E-01;3729;  1.4088126E-02;  0.0000000E+00;  9.5297256E-04;  9.9336975E+02;  1.0000000E-01; -5.4930298E+03;3;  3.4006191E+01;  0.0000000E+00;  4.6524948E+01;0;  1.0315577E-01;  3.9479031E+04;  0.0000000E+00;  2.6201687E+01;  4.0000000E+04;  0.0000000E+00;  3.9992074E+04;  9.5676467E-02;  0.0000000E+00;  7.4793017E-03;  3.9863551E+04;
  2.2181255E-01;  9.9999998E-03; -3.0000535E-01;3788;  6.1383722E-03;  0.0000000E+00; -2.6607508E-04;  9.8935016E+02;  1.0000000E-01; -8.8232070E+03;3;  4.8427181E+01;  0.0000000E+00;  7.1423500E+01;0;  1.0246768E-01;  3.9118945E+04;  0.0000000E+00;  1.4015805E+01;  4.0000000E+04;  0.0000000E+00;  4.0029555E+04;  7.7261724E-02;  0.0000000E+00;  2.5205953E-02;  1.7293738E+04;
  2.2169586E-01;  9.9999998E-03; -2.9004306E-01;3789;  1.2244712E-02;  0.0000000E+00;  2.1079972E-03;  9.9179517E+02;  1.0000000E-01; -6.7975361E+03;3;  3.4582397E+01;  0.0000000E+00;  5.6595261E+01;0;  9.9980086E-02;  3.9334242E+04;  0.0000000E+00;  1.6682014E+01;  4.0000000E+04;  0.0000000E+00;  4.0009801E+04;  9.7168729E-02;  0.0000000E+00;  2.8113569E-03;  2.3817869E+04;
  2.2148630E-01;  9.9999998E-03; -2.8008267E-01;3790;  1.6824529E-02;  0.0000000E+00;  2.5239501E-03;  9.9397937E+02;  1.0000000E-01; -4.9879575E+03;3;  1.8855261E+01;  0.0000000E+00;  4.0955395E+01;0;  9.9364139E-02;  3.9527797E+04;  0.0000000E+00;  2.1368238E+01;  4.0000000E+04;  0.0000000E+00;  3.9993164E+04;  1.0168539E-01;  0.0000000E+00; -2.3212489E-03;  3.2336268E+04;
  2.3169948E-01;  9.9999998E-03; -3.0000189E-01;3849;  1.4951126E-02;  0.0000000E+00;  3.8635889E-03;  9.9121881E+02;  1.0000000E-01; -7.2750537E+03;3;  3.1781092E+01;  0.0000000E+00;  6.0486904E+01;0;  9.9424168E-02;  3.9273039E+04;  0.0000000E+00;  1.4139717E+01;  4.0000000E+04;  0.0000000E+00;  4.0025418E+04;  1.1239196E-01;  0.0000000E+00; -1.2967795E-02;  1.8097490E+04;
  2.3163836E-01;  9.9999998E-03; -2.9002368E-01;3850;  1.6698163E-02;  0.0000000E+00;  3.6878008E-03;  9.9309894E+02;  1.0000000E-01; -5.7174185E+03;3;  1.6726112E+01;  0.0000000E+00;  4.3623959E+01;0;  9.4471969E-02;  3.9435535E+04;  0.0000000E+00;  1.4021855E+01;  4.0000000E+04;  0.0000000E+00;  4.0014305E+04;  1.0675067E-01;  0.0000000E+00; -1.2278696E-02;  2.0148252E+04;
  2.3148711E-01;  9.9999998E-03; -2.8005129E-01;3851;  1.6957704E-02;  0.0000000E+00;  3.6005438E-03;  9.9477924E+02;  1.0000000E-01; -4.3253096E+03;3;  8.9131184E+00;  0.0000000E+00;  3.0401451E+01;0;  8.3440803E-02;  3.9586473E+04;  0.0000000E+00;  1.6869078E+01;  4.0000000E+04;  0.0000000E+00;  4.0000531E+04;  9.5340967E-02;  0.0000000E+00; -1.1900165E-02;  2.5564146E+04;
  2.4164507E-01;  9.9999998E-03; -2.9998508E-01;3910;  1.6577234E-02;  0.0000000E+00;  3.9756941E-03;  9.9291980E+02;  1.0000000E-01; -5.8658096E+03;3;  1.1862331E+01;  0.0000000E+00;  4.1681717E+01;0;  9.0152666E-02;  3.9405434E+04;  0.0000000E+00;  1.1431001E+01;  4.0000000E+04;  0.0000000E+00;  4.0030699E+04;  1.0717260E-01;  0.0000000E+00; -1.7019935E-02;  1.5658069E+04;
  2.4158534E-01;  9.9999998E-03; -2.9000312E-01;3911;  1.6669819E-02;  0.0000000E+00;  4.0131588E-03;  9.9439185E+02;  1.0000000E-01; -4.6462388E+03;3;  5.9254608E+00;  0.0000000E+00;  2.9922764E+01;0;  7.7040367E-02;  3.9535918E+04;  0.0000000E+00;  1.1405172E+01;  4.0000000E+04;  0.0000000E+00;  4.0019801E+04;  9.4952941E-02;  0.0000000E+00; -1.7912574E-02;  1.6942432E+04;
  2.4147588E-01;  9.9999998E-03; -2.8002062E-01;3912;  1.6642924E-02;  0.0000000E+00;  4.0547997E-03;  9.9563824E+02;  1.0000000E-01; -3.6136262E+03;3;  1.8946286E+00;  0.0000000E+00;  1.9281969E+01;0;  6.6367775E-02;  3.9647957E+04;  0.0000000E+00;  1.2688823E+01;  4.0000000E+04;  0.0000000E+00;  4.0009855E+04;  8.4402591E-02;  0.0000000E+00; -1.8034812E-02;  1.9526285E+04;
  2.5159240E-01;  9.9999998E-03; -2.9997396E-01;3971;  1.6283471E-02;  0.0000000E+00;  3.8458521E-03;  9.9443475E+02;  1.0000000E-01; -4.6106846E+03;3;  1.6919864E+00;  0.0000000E+00;  2.6845926E+01;0;  7.2601825E-02;  3.9526613E+04;  0.0000000E+00;  8.6490040E+00;  4.0000000E+04;  0.0000000E+00;  4.0032543E+04;  9.0348884E-02;  0.0000000E+00; -1.7747058E-02;  1.2990903E+04;
  2.5153115E-01;  9.9999998E-03; -2.8998673E-01;3972;  1.6301798E-02;  0.0000000E+00;  4.0049916E-03;  9.9555249E+02;  1.0000000E-01; -3.6846858E+03;3; -1.1466846E+00;  0.0000000E+00;  1.8170387E+01;0;  5.9641220E-02;  3.9627062E+04;  0.0000000E+00;  8.9199352E+00;  4.0000000E+04;  0.0000000E+00;  4.0024160E+04;  7.9848215E-02;  0.0000000E+00; -2.0206993E-02;  1.3950977E+04;
  2.5144675E-01;  9.9999998E-03; -2.7999818E-01;3973;  1.6260227E-02;  0.0000000E+00;  4.2258045E-03;  9.9641412E+02;  1.0000000E-01; -2.9708296E+03;3; -3.0115252E+00;  0.0000000E+00;  1.0244226E+01;0;  4.9045123E-02;  3.9706098E+04;  0.0000000E+00;  9.2699862E+00;  4.0000000E+04;  0.0000000E+00;  4.0016297E+04;  7.1168125E-02;  0.0000000E+00; -2.2123003E-02;  1.4680745E+04;
  2.6153487E-01;  9.9999998E-03; -2.9996645E-01;4032;  1.5793979E-02;  0.0000000E+00;  3.6254460E-03;  9.9571136E+02;  1.0000000E-01; -3.5530354E+03;3; -4.8526940E+00;  0.0000000E+00;  1.5174493E+01;0;  5.5049334E-02;  3.9631891E+04;  0.0000000E+00;  6.1344905E+00;  4.0000000E+04;  0.0000000E+00;  4.0032770E+04;  7.2149158E-02;  0.0000000E+00; -1.7099824E-02;  1.0355793E+04;
  2.6147336E-01;  9.9999998E-03; -2.8997505E-01;4033;  1.5845453E-02;  0.0000000E+00;  3.8779962E-03;  9.9650397E+02;  1.0000000E-01; -2.8964119E+03;3; -5.5773864E+00;  0.0000000E+00;  9.2616673E+00;0;  4.2659909E-02;  3.9703805E+04;  0.0000000E+00;  6.5579433E+00;  4.0000000E+04;  0.0000000E+00;  4.0026141E+04;  6.3648164E-02;  0.0000000E+00; -2.0988254E-02;  1.0971542E+04;
  2.6140621E-01;  9.9999998E-03; -2.7998200E-01;4034;  1.5886137E-02;  0.0000000E+00;  4.1292752E-03;  9.9704413E+02;  1.0000000E-01; -2.4488689E+03;3; -5.7834229E+00;  0.0000000E+00;  4.0093699E+00;0;  3.3541508E-02;  3.9754840E+04;  0.0000000E+00;  6.4218836E+00;  4.0000000E+04;  0.0000000E+00;  4.0020477E+04;  5.6856245E-02;  0.0000000E+00; -2.3314735E-02;  1.0670278E+04;
  2.7146634E-01;  9.9999998E-03; -2.9996139E-01;4093;  1.5244819E-02;  0.0000000E+00;  3.3528027E-03;  9.9672595E+02;  1.0000000E-01; -2.7124666E+03;3; -8.3283463E+00;  0.0000000E+00;  6.9614291E+00;0;  3.8453232E-02;  3.9718094E+04;  0.0000000E+00;  3.9954438E+00;  4.0000000E+04;  0.0000000E+00;  4.0031230E+04;  5.4098312E-02;  0.0000000E+00; -1.5645079E-02;  7.8555361E+03;
  2.7140322E-01;  9.9999998E-03; -2.8996679E-01;4094;  1.5408880E-02;  0.0000000E+00;  3.6206080E-03;  9.9723175E+02;  1.0000000E-01; -2.2934661E+03;3; -7.7020512E+00;  0.0000000E+00;  3.2991590E+00;0;  2.7594490E-02;  3.9764488E+04;  0.0000000E+00;  4.6887078E+00;  4.0000000E+04;  0.0000000E+00;  4.0026781E+04;  4.7548577E-02;  0.0000000E+00; -1.9954087E-02;  8.4819922E+03;
  2.7135551E-01;  9.9999998E-03; -2.7997053E-01;4095;  1.5571684E-02;  0.0000000E+00;  3.8690295E-03;  9.9750415E+02;  1.0000000E-01; -2.0677439E+03;3; -6.9375834E+00;  0.0000000E+00;  1.4357923E-01;0;  1.9952217E-02;  3.9791039E+04;  0.0000000E+00;  4.2466021E+00;  4.0000000E+04;  0.0000000E+00;  4.0023117E+04;  4.2410955E-02;  0.0000000E+00; -2.2458738E-02;  7.6343149E+03;
  2.8138494E-01;  9.9999998E-03; -2.9995811E-01;4154;  1.4701137E-02;  0.0000000E+00;  3.0675717E-03;  9.9746368E+02;  1.0000000E-01; -2.1012739E+03;3; -9.3859777E+00;  0.0000000E+00;  1.7718081E+00;0;  2.2827551E-02;  3.9783383E+04;  0.0000000E+00;  2.1539953E+00;  4.0000000E+04;  0.0000000E+00;  4.0028895E+04;  3.7070557E-02;  0.0000000E+00; -1.4243008E-02;  5.5320430E+03;
  2.8133795E-01;  9.9999998E-03; -2.8996122E-01;4155;  1.4982498E-02;  0.0000000E+00;  3.3268055E-03;  9.9770593E+02;  1.0000000E-01; -1.9005883E+03;3; -8.1251431E+00;  0.0000000E+00; -2.7942020E-01;0;  1.3651637E-02;  3.9805215E+04;  0.0000000E+00;  2.7701933E+00;  4.0000000E+04;  0.0000000E+00;  4.0026453E+04;  3.2202784E-02;  0.0000000E+00; -1.8551147E-02;  5.9039243E+03;
  2.8130379E-01;  9.9999998E-03; -2.7996299E-01;4156;  1.5305835E-02;  0.0000000E+00;  3.5312809E-03;  9.9778058E+02;  1.0000000E-01; -1.8387628E+03;3; -6.9968538E+00;  0.0000000E+00; -1.9385335E+00;0;  7.8580193E-03;  3.9813188E+04;  0.0000000E+00;  2.5882187E+00;  4.0000000E+04;  0.0000000E+00;  4.0024328E+04;  2.8508227E-02;  0.0000000E+00; -2.0650208E-02;  5.4256177E+03;
  2.9134339E-01;  9.9999998E-03; -2.9995593E-01;4215;  1.4161715E-02;  0.0000000E+00;  2.8168655E-03;  9.9787714E+02;  1.0000000E-01; -1.7587650E+03;3; -8.7441549E+00;  0.0000000E+00; -1.1176366E+00;0;  7.5793229E-03;  3.9821363E+04;  0.0000000E+00; -5.1010710E-01;  4.0000000E+04;  0.0000000E+00;  4.0026609E+04;  2.1563299E-02;  0.0000000E+00; -1.3983976E-02;  3.4758667E+03;
  2.9130733E-01;  9.9999998E-03; -2.8995773E-01;4216;  1.4605367E-02;  0.0000000E+00;  3.0079132E-03;  9.9793872E+02;  1.0000000E-01; -1.7077542E+03;3; -7.4682813E+00;  0.0000000E+00; -2.0816445E+00;0;  1.0009725E-03;  3.9826141E+04;  0.0000000E+00;  5.9204787E-01;  4.0000000E+04;  0.0000000E+00;  4.0025633E+04;  1.8211462E-02;  0.0000000E+00; -1.7210489E-02;  3.6435645E+03;
  2.9126969E-01;  9.9999998E-03; -2.7995834E-01;4217;  1.5062246E-02;  0.0000000E+00;  3.1420230E-03;  9.9789630E+02;  1.0000000E-01; -1.7428643E+03;3; -6.4406219E+00;  0.0000000E+00; -2.8280048E+00;0; -2.7028322E-03;  3.9822344E+04;  0.0000000E+00;  1.1184652E+00;  4.0000000E+04;  0.0000000E+00;  4.0024805E+04;  1.5718678E-02;  0.0000000E+00; -1.8421510E-02;  3.8571514E+03;
  3.0138117E-01;  9.9999998E-03; -2.9995456E-01;4276;  1.3746921E-02;  0.0000000E+00;  2.4996973E-03;  9.9803943E+02;  1.0000000E-01; -1.6242997E+03;3; -7.4225998E+00;  0.0000000E+00; -2.3926525E+00;0; -5.3234370E-03;  3.9837090E+04;  0.0000000E+00; -3.0616295E+00;  4.0000000E+04;  0.0000000E+00;  4.0024648E+04;  8.1552034E-03;  0.0000000E+00; -1.3478640E-02;  5.0537471E+03;
  3.0133551E-01;  9.9999998E-03; -2.8995597E-01;4277;  1.4300129E-02;  0.0000000E+00;  2.6523981E-03;  9.9800677E+02;  1.0000000E-01; -1.6513607E+03;3; -6.4397535E+00;  0.0000000E+00; -2.7621806E+00;0; -9.9635087E-03;  3.9832641E+04;  0.0000000E+00; -1.3333666E+00;  4.0000000E+04;  0.0000000E+00;  4.0024434E+04;  6.0439748E-03;  0.0000000E+00; -1.6007483E-02;  3.5590999E+03;
  3.0129117E-01;  9.9999998E-03; -2.7995589E-01;4278;  1.4835270E-02;  0.0000000E+00;  2.6986836E-03;  9.9790692E+02;  1.0000000E-01; -1.7340745E+03;3; -5.6771731E+00;  0.0000000E+00; -2.9928534E+00;0; -1.1420159E-02;  3.9822695E+04;  0.0000000E+00; -3.1196991E-01;  4.0000000E+04;  0.0000000E+00;  4.0024969E+04;  4.5110099E-03;  0.0000000E+00; -1.5931169E-02;  3.2909807E+03;
  3.1147355E-01;  9.9999998E-03; -2.9995418E-01;4337;  1.3458873E-02;  0.0000000E+00;  2.0992847E-03;  9.9808368E+02;  1.0000000E-01; -1.5876588E+03;3; -6.1078911E+00;  0.0000000E+00; -2.7638669E+00;0; -1.5365982E-02;  3.9841605E+04;  0.0000000E+00; -3.9564819E+00;  4.0000000E+04;  0.0000000E+00;  4.0023133E+04; -2.8206557E-03;  0.0000000E+00; -1.2545327E-02;  6.1567402E+03;
  3.1140450E-01;  9.9999998E-03; -2.8995541E-01;4338;  1.4053662E-02;  0.0000000E+00;  2.2081137E-03;  9.9800055E+02;  1.0000000E-01; -1.6564963E+03;3; -5.4699140E+00;  0.0000000E+00; -2.8428938E+00;0; -1.8171296E-02;  3.9832531E+04;  0.0000000E+00; -2.1525719E+00;  4.0000000E+04;  0.0000000E+00;  4.0023648E+04; -3.9558024E-03;  0.0000000E+00; -1.4215494E-02;  4.2168989E+03;
  3.1134391E-01;  9.9999998E-03; -2.7995548E-01;4339;  1.4625614E-02;  0.0000000E+00;  2.2216095E-03;  9.9787939E+02;  1.0000000E-01; -1.7568885E+03;3; -5.0089092E+00;  0.0000000E+00; -2.8364005E+00;0; -1.8359859E-02;  3.9820086E+04;  0.0000000E+00; -9.8494643E-01;  4.0000000E+04;  0.0000000E+00;  4.0024711E+04; -4.7382209E-03;  0.0000000E+00; -1.3621638E-02;  3.4749038E+03;
  3.2140541E-01;  9.9999998E-03; -2.7995682E-01;4400;  1.4419989E-02;  0.0000000E+00;  1.7260379E-03;  9.9786346E+02;  1.0000000E-01; -1.7700732E+03;3; -4.5552025E+00;  0.0000000E+00; -2.5946195E+00;0; -2.3677967E-02;  3.9818336E+04;  0.0000000E+00; -9.3830824E-01;  4.0000000E+04;  0.0000000E+00;  4.0023660E+04; -1.1898383E-02;  0.0000000E+00; -1.1779585E-02;  3.3631865E+03;
  3.2145092E-01;  9.9999998E-03; -2.8995588E-01;4399;  1.3831530E-02;  0.0000000E+00;  1.6762301E-03;  9.9799323E+02;  1.0000000E-01; -1.6625702E+03;3; -4.7780356E+00;  0.0000000E+00; -2.6958184E+00;0; -2.3489255E-02;  3.9831230E+04;  0.0000000E+00; -1.7719878E+00;  4.0000000E+04;  0.0000000E+00;  4.0022824E+04; -1.1624696E-02;  0.0000000E+00; -1.1864559E-02;  3.8584229E+03;
  3.2149717E-01;  9.9999998E-03; -2.9995474E-01;4398;  1.3223009E-02;  0.0000000E+00;  1.6081721E-03;  9.9810559E+02;  1.0000000E-01; -1.5694863E+03;3; -5.1305604E+00;  0.0000000E+00; -2.7582555E+00;0; -2.2185519E-02;  3.9843094E+04;  0.0000000E+00; -2.8873649E+00;  4.0000000E+04;  0.0000000E+00;  4.0021738E+04; -1.1165474E-02;  0.0000000E+00; -1.1020046E-02;  4.8913359E+03;
  3.3148512E-01;  9.9999998E-03; -2.9995549E-01;4459;  1.2985966E-02;  0.0000000E+00;  9.9815149E-04;  9.9809308E+02;  1.0000000E-01; -1.5798564E+03;3; -4.5302458E+00;  0.0000000E+00; -2.6433139E+00;0; -2.5459472E-02;  3.9840387E+04;  0.0000000E+00; -1.6532788E+00;  4.0000000E+04;  0.0000000E+00;  4.0021090E+04; -1.7064637E-02;  0.0000000E+00; -8.3948346E-03;  3.6116516E+03;
  3.3145860E-01;  9.9999998E-03; -2.8995728E-01;4460;  1.3611088E-02;  0.0000000E+00;  1.1190363E-03;  9.9798230E+02;  1.0000000E-01; -1.6716069E+03;3; -4.3814015E+00;  0.0000000E+00; -2.5141096E+00;0; -2.7057726E-02;  3.9829270E+04;  0.0000000E+00; -1.0213847E+00;  4.0000000E+04;  0.0000000E+00;  4.0021945E+04; -1.7098740E-02;  0.0000000E+00; -9.9589853E-03;  3.2278152E+03;
  3.3143523E-01;  9.9999998E-03; -2.7995926E-01;4461;  1.4211375E-02;  0.0000000E+00;  1.2061072E-03;  9.9786786E+02;  1.0000000E-01; -1.7664191E+03;3; -4.3106661E+00;  0.0000000E+00; -2.3847699E+00;0; -2.7386431E-02;  3.9818312E+04;  0.0000000E+00; -4.9631521E-01;  4.0000000E+04;  0.0000000E+00;  4.0022152E+04; -1.7072171E-02;  0.0000000E+00; -1.0314261E-02;  3.0330728E+03;
  3.4145543E-01;  9.9999998E-03; -2.9995635E-01;4520;  1.2748393E-02;  0.0000000E+00;  3.1591524E-04;  9.9805243E+02;  1.0000000E-01; -1.6135345E+03;3; -4.2563829E+00;  0.0000000E+00; -2.5643272E+00;0; -2.6349038E-02;  3.9834496E+04;  0.0000000E+00; -7.9721165E-01;  4.0000000E+04;  0.0000000E+00;  4.0021152E+04; -2.0896554E-02;  0.0000000E+00; -5.4524830E-03;  3.0111306E+03;
  3.4145275E-01;  9.9999998E-03; -2.8995889E-01;4521;  1.3385455E-02;  0.0000000E+00;  4.9877417E-04;  9.9797070E+02;  1.0000000E-01; -1.6812363E+03;3; -4.2218237E+00;  0.0000000E+00; -2.3699381E+00;0; -2.8595194E-02;  3.9826172E+04;  0.0000000E+00; -4.3538904E-01;  4.0000000E+04;  0.0000000E+00;  4.0021441E+04; -2.0737875E-02;  0.0000000E+00; -7.8573190E-03;  2.9123113E+03;
  3.4146756E-01;  9.9999998E-03; -2.7996188E-01;4522;  1.3992961E-02;  0.0000000E+00;  6.3041336E-04;  9.9788550E+02;  1.0000000E-01; -1.7518021E+03;3; -4.2324176E+00;  0.0000000E+00; -2.2306368E+00;0; -2.9347107E-02;  3.9818918E+04;  0.0000000E+00; -1.0995851E-01;  4.0000000E+04;  0.0000000E+00;  4.0021273E+04; -2.0589616E-02;  0.0000000E+00; -8.7574916E-03;  2.8363418E+03;
  3.5140920E-01;  9.9999998E-03; -2.9995695E-01;4581;  1.2508843E-02;  0.0000000E+00; -4.9548125E-04;  9.9799042E+02;  1.0000000E-01; -1.6648911E+03;3; -4.1879797E+00;  0.0000000E+00; -2.5886865E+00;0; -2.4313997E-02;  3.9826211E+04;  0.0000000E+00; -3.5688081E-01;  4.0000000E+04;  0.0000000E+00;  4.0021816E+04; -2.3181211E-02;  0.0000000E+00; -1.1327855E-03;  2.9378904E+03;
  3.5143903E-01;  9.9999998E-03; -2.8996009E-01;4582;  1.3150185E-02;  0.0000000E+00; -2.2494615E-04;  9.9794763E+02;  1.0000000E-01; -1.7003468E+03;3; -4.2082381E+00;  0.0000000E+00; -2.3039167E+00;0; -2.7843038E-02;  3.9821828E+04;  0.0000000E+00; -1.2262672E-01;  4.0000000E+04;  0.0000000E+00;  4.0021766E+04; -2.2997299E-02;  0.0000000E+00; -4.8457379E-03;  2.8922185E+03;
  3.5149270E-01;  9.9999998E-03; -2.7996391E-01;4583;  1.3762446E-02;  0.0000000E+00; -3.2947166E-05;  9.9790710E+02;  1.0000000E-01; -1.7339261E+03;3; -4.2480526E+00;  0.0000000E+00; -2.1310709E+00;0; -2.9436745E-02;  3.9818668E+04;  0.0000000E+00;  9.1261216E-02;  4.0000000E+04;  0.0000000E+00;  4.0021133E+04; -2.2847973E-02;  0.0000000E+00; -6.5887724E-03;  2.8008760E+03;
  3.6136630E-01;  9.9999998E-03; -2.9995704E-01;4642;  1.2274483E-02;  0.0000000E+00; -1.4854819E-03;  9.9790637E+02;  1.0000000E-01; -1.7345187E+03;3; -4.2031946E+00;  0.0000000E+00; -2.6347680E+00;0; -1.8896932E-02;  3.9815574E+04;  0.0000000E+00; -2.0523466E-01;  4.0000000E+04;  0.0000000E+00;  4.0023035E+04; -2.4457956E-02;  0.0000000E+00;  5.5610240E-03;  3.0756077E+03;
  3.6142790E-01;  9.9999998E-03; -2.8996053E-01;4643;  1.2905683E-02;  0.0000000E+00; -1.0961094E-03;  9.9790381E+02;  1.0000000E-01; -1.7366421E+03;3; -4.2481613E+00;  0.0000000E+00; -2.3466315E+00;0; -2.4481023E-02;  3.9815184E+04;  0.0000000E+00; -3.3574618E-02;  4.0000000E+04;  0.0000000E+00;  4.0022902E+04; -2.4337461E-02;  0.0000000E+00; -1.4356218E-04;  3.0207625E+03;
  3.6150023E-01;  9.9999998E-03; -2.7996489E-01;4644;  1.3518033E-02;  0.0000000E+00; -7.8967930E-04;  9.9790839E+02;  1.0000000E-01; -1.7328397E+03;3; -4.3023257E+00;  0.0000000E+00; -2.0761092E+00;0; -2.7902380E-02;  3.9816039E+04;  0.0000000E+00;  1.2016164E-01;  4.0000000E+04;  0.0000000E+00;  4.0021406E+04; -2.4251224E-02;  0.0000000E+00; -3.6511547E-03;  2.8757190E+03;
  3.7134776E-01;  9.9999998E-03; -2.9995665E-01;4703;  1.2046693E-02;  0.0000000E+00; -2.5536746E-03;  9.9779193E+02;  1.0000000E-01; -1.8293308E+03;3; -4.2286787E+00;  0.0000000E+00; -2.5718529E+00;0; -1.2132557E-02;  3.9802844E+04;  0.0000000E+00; -1.8884021E-01;  4.0000000E+04;  0.0000000E+00;  4.0024422E+04; -2.5162702E-02;  0.0000000E+00;  1.3030145E-02;  3.2668757E+03;
  3.7142205E-01;  9.9999998E-03; -2.8996027E-01;4704;  1.2659344E-02;  0.0000000E+00; -2.1179682E-03;  9.9783160E+02;  1.0000000E-01; -1.7964923E+03;3; -4.2832184E+00;  0.0000000E+00; -2.4020646E+00;0; -1.8696904E-02;  3.9805781E+04;  0.0000000E+00; -5.5185188E-02;  4.0000000E+04;  0.0000000E+00;  4.0024152E+04; -2.5132613E-02;  0.0000000E+00;  6.4357086E-03;  3.2026382E+03;
  3.7149593E-01;  9.9999998E-03; -2.7996460E-01;4705;  1.3262788E-02;  0.0000000E+00; -1.6800186E-03;  9.9787439E+02;  1.0000000E-01; -1.7610365E+03;3; -4.3463326E+00;  0.0000000E+00; -2.1588316E+00;0; -2.4486501E-02;  3.9810285E+04;  0.0000000E+00;  6.4396299E-02;  4.0000000E+04;  0.0000000E+00;  4.0022949E+04; -2.5132673E-02;  0.0000000E+00;  6.4617180E-04;  3.0494172E+03;
  3.8137341E-01;  9.9999998E-03; -2.9995584E-01;4764;  1.1813125E-02;  0.0000000E+00; -3.5714188E-03;  9.9765509E+02;  1.0000000E-01; -1.9427103E+03;3; -4.2631741E+00;  0.0000000E+00; -2.3732610E+00;0; -6.4258445E-03;  3.9788570E+04;  0.0000000E+00; -1.9990757E-01;  4.0000000E+04;  0.0000000E+00;  4.0026004E+04; -2.5560796E-02;  0.0000000E+00;  1.9134952E-02;  3.4603291E+03;
  3.8144481E-01;  9.9999998E-03; -2.8995934E-01;4765;  1.2413235E-02;  0.0000000E+00; -3.2135225E-03;  9.9772620E+02;  1.0000000E-01; -1.8837985E+03;3; -4.3104939E+00;  0.0000000E+00; -2.3409534E+00;0; -1.1874877E-02;  3.9794234E+04;  0.0000000E+00; -1.0142664E-01;  4.0000000E+04;  0.0000000E+00;  4.0025551E+04; -2.5620142E-02;  0.0000000E+00;  1.3745265E-02;  3.4112583E+03;
  3.8150823E-01;  9.9999998E-03; -2.7996334E-01;4766;  1.3006685E-02;  0.0000000E+00; -2.7139564E-03;  9.9780408E+02;  1.0000000E-01; -1.8192571E+03;3; -4.3664641E+00;  0.0000000E+00; -2.2186968E+00;0; -1.9158624E-02;  3.9801277E+04;  0.0000000E+00; -1.0673651E-02;  4.0000000E+04;  0.0000000E+00;  4.0024691E+04; -2.5710257E-02;  0.0000000E+00;  6.5516322E-03;  3.2759832E+03;
  3.9143282E-01;  9.9999998E-03; -2.9995468E-01;4825;  1.1549484E-02;  0.0000000E+00; -4.4568805E-03;  9.9751434E+02;  1.0000000E-01; -2.0592996E+03;3; -4.2980094E+00;  0.0000000E+00; -2.1474435E+00;0; -3.2498538E-03;  3.9774352E+04;  0.0000000E+00; -1.9498815E-01;  4.0000000E+04;  0.0000000E+00;  4.0027219E+04; -2.5766496E-02;  0.0000000E+00;  2.2516642E-02;  3.6373762E+03;
  3.9149663E-01;  9.9999998E-03; -2.8995803E-01;4826;  1.2148799E-02;  0.0000000E+00; -4.2202123E-03;  9.9760571E+02;  1.0000000E-01; -1.9835980E+03;3; -4.3380556E+00;  0.0000000E+00; -2.1787331E+00;0; -6.7256615E-03;  3.9781594E+04;  0.0000000E+00; -1.3306345E-01;  4.0000000E+04;  0.0000000E+00;  4.0026945E+04; -2.5914732E-02;  0.0000000E+00;  1.9189071E-02;  3.5974485E+03;
  3.9154783E-01;  9.9999998E-03; -2.7996156E-01;4827;  1.2735912E-02;  0.0000000E+00; -3.7468185E-03;  9.9770422E+02;  1.0000000E-01; -1.9020201E+03;3; -4.3790097E+00;  0.0000000E+00; -2.2030444E+00;0; -1.4073348E-02;  3.9790242E+04;  0.0000000E+00; -7.3755719E-02;  4.0000000E+04;  0.0000000E+00;  4.0026480E+04; -2.6099134E-02;  0.0000000E+00;  1.2025787E-02;  3.4960227E+03;
  4.0149429E-01;  9.9999998E-03; -2.9995334E-01;4886;  1.1259654E-02;  0.0000000E+00; -5.2312566E-03;  9.9739197E+02;  1.0000000E-01; -2.1607288E+03;3; -4.3164449E+00;  0.0000000E+00; -1.9657884E+00;0; -2.1492001E-03;  3.9762551E+04;  0.0000000E+00; -1.7853849E-01;  4.0000000E+04;  0.0000000E+00;  4.0028336E+04; -2.5808664E-02;  0.0000000E+00;  2.3659464E-02;  3.7830032E+03;
  4.0154675E-01;  9.9999998E-03; -2.8995657E-01;4887;  1.1855950E-02;  0.0000000E+00; -5.0603626E-03;  9.9749365E+02;  1.0000000E-01; -2.0764844E+03;3; -4.3555646E+00;  0.0000000E+00; -2.0218277E+00;0; -4.4885632E-03;  3.9770684E+04;  0.0000000E+00; -1.4795376E-01;  4.0000000E+04;  0.0000000E+00;  4.0028078E+04; -2.6051026E-02;  0.0000000E+00;  2.1562463E-02;  3.7393464E+03;
  4.0158433E-01;  9.9999998E-03; -2.7995974E-01;4888;  1.2443159E-02;  0.0000000E+00; -4.6549439E-03;  9.9760339E+02;  1.0000000E-01; -1.9855239E+03;3; -4.3859501E+00;  0.0000000E+00; -2.1365812E+00;0; -1.0981170E-02;  3.9779953E+04;  0.0000000E+00; -1.1571704E-01;  4.0000000E+04;  0.0000000E+00;  4.0027445E+04; -2.6338261E-02;  0.0000000E+00;  1.5357091E-02;  3.6514241E+03;
  4.1154712E-01;  9.9999998E-03; -2.9995218E-01;4947;  1.0951335E-02;  0.0000000E+00; -5.9054932E-03;  9.9731696E+02;  1.0000000E-01; -2.2228506E+03;3; -4.3240919E+00;  0.0000000E+00; -1.8660104E+00;0; -2.8199758E-03;  3.9755035E+04;  0.0000000E+00; -1.6004175E-01;  4.0000000E+04;  0.0000000E+00;  4.0028945E+04; -2.5670914E-02;  0.0000000E+00;  2.2850938E-02;  3.8609651E+03;
  4.1159585E-01;  9.9999998E-03; -2.8995526E-01;4948;  1.1545811E-02;  0.0000000E+00; -5.7514785E-03;  9.9741675E+02;  1.0000000E-01; -2.1401863E+03;3; -4.3540692E+00;  0.0000000E+00; -1.9395263E+00;0; -4.8087016E-03;  3.9763230E+04;  0.0000000E+00; -1.6120271E-01;  4.0000000E+04;  0.0000000E+00;  4.0028656E+04; -2.6017837E-02;  0.0000000E+00;  2.1209136E-02;  3.8118994E+03;
  4.1163024E-01;  9.9999998E-03; -2.7995819E-01;4949;  1.2131019E-02;  0.0000000E+00; -5.4060710E-03;  9.9752533E+02;  1.0000000E-01; -2.0502134E+03;3; -4.3868074E+00;  0.0000000E+00; -2.0707929E+00;0; -1.0308420E-02;  3.9772777E+04;  0.0000000E+00; -1.5238532E-01;  4.0000000E+04;  0.0000000E+00;  4.0027898E+04; -2.6421465E-02;  0.0000000E+00;  1.6113045E-02;  3.7229302E+03;
  4.2160174E-01;  9.9999998E-03; -2.9995149E-01;5008;  1.0640992E-02;  0.0000000E+00; -6.4869551E-03;  9.9730768E+02;  1.0000000E-01; -2.2305540E+03;3; -4.3167286E+00;  0.0000000E+00; -1.8483441E+00;0; -5.0369017E-03;  3.9754156E+04;  0.0000000E+00; -1.1138268E-01;  4.0000000E+04;  0.0000000E+00;  4.0028801E+04; -2.5334453E-02;  0.0000000E+00;  2.0297552E-02;  3.8354897E+03;
  4.2165619E-01;  9.9999998E-03; -2.8995445E-01;5009;  1.1231338E-02;  0.0000000E+00; -6.3258051E-03;  9.9739966E+02;  1.0000000E-01; -2.1543093E+03;3; -4.3419476E+00;  0.0000000E+00; -1.9156196E+00;0; -7.0562419E-03;  3.9761961E+04;  0.0000000E+00; -1.5529954E-01;  4.0000000E+04;  0.0000000E+00;  4.0028398E+04; -2.5797825E-02;  0.0000000E+00;  1.8741583E-02;  3.7781560E+03;
  4.2169377E-01;  9.9999998E-03; -2.7995732E-01;5010;  1.1814958E-02;  0.0000000E+00; -6.0360283E-03;  9.9750269E+02;  1.0000000E-01; -2.0689783E+03;3; -4.3794365E+00;  0.0000000E+00; -2.0183611E+00;0; -1.1457787E-02;  3.9770844E+04;  0.0000000E+00; -1.7701641E-01;  4.0000000E+04;  0.0000000E+00;  4.0027410E+04; -2.6333021E-02;  0.0000000E+00;  1.4875234E-02;  3.6744072E+03;
  4.3167299E-01;  9.9999998E-03; -2.9995146E-01;5069;  1.0346721E-02;  0.0000000E+00; -7.0180236E-03;  9.9737842E+02;  1.0000000E-01; -2.1719385E+03;3; -4.2999249E+00;  0.0000000E+00; -1.8638153E+00;0; -7.9746563E-03;  3.9760621E+04;  0.0000000E+00; -1.5289679E-02;  4.0000000E+04;  0.0000000E+00;  4.0027555E+04; -2.4799667E-02;  0.0000000E+00;  1.6825011E-02;  3.6900957E+03;
  4.3172896E-01;  9.9999998E-03; -2.8995442E-01;5070;  1.0934473E-02;  0.0000000E+00; -6.8608839E-03;  9.9746136E+02;  1.0000000E-01; -2.1031997E+03;3; -4.3262844E+00;  0.0000000E+00; -1.9186867E+00;0; -9.8582469E-03;  3.9767770E+04;  0.0000000E+00; -1.1080121E-01;  4.0000000E+04;  0.0000000E+00;  4.0027211E+04; -2.5390489E-02;  0.0000000E+00;  1.5532242E-02;  3.6176096E+03;
  4.3176726E-01;  9.9999998E-03; -2.7995721E-01;5071;  1.1517755E-02;  0.0000000E+00; -6.6261506E-03;  9.9754822E+02;  1.0000000E-01; -2.0312511E+03;3; -4.3605380E+00;  0.0000000E+00; -1.9875944E+00;0; -1.3160600E-02;  3.9775699E+04;  0.0000000E+00; -1.6964129E-01;  4.0000000E+04;  0.0000000E+00;  4.0026449E+04; -2.6071206E-02;  0.0000000E+00;  1.2910605E-02;  3.5100508E+03;
  4.4176731E-01;  9.9999998E-03; -2.9995215E-01;5130;  1.0086833E-02;  0.0000000E+00; -7.5616078E-03;  9.9752985E+02;  1.0000000E-01; -2.0464604E+03;3; -4.2813163E+00;  0.0000000E+00; -1.8758268E+00;0; -1.0474362E-02;  3.9774844E+04;  0.0000000E+00;  1.0772195E-01;  4.0000000E+04;  0.0000000E+00;  4.0025895E+04; -2.4091242E-02;  0.0000000E+00;  1.3616879E-02;  3.4408997E+03;
  4.4181886E-01;  9.9999998E-03; -2.8995502E-01;5131;  1.0672076E-02;  0.0000000E+00; -7.4275667E-03;  9.9759766E+02;  1.0000000E-01; -1.9903140E+03;3; -4.3015108E+00;  0.0000000E+00; -1.9133534E+00;0; -1.1976562E-02;  3.9780746E+04;  0.0000000E+00; -3.5846971E-02;  4.0000000E+04;  0.0000000E+00;  4.0025211E+04; -2.4818225E-02;  0.0000000E+00;  1.2841663E-02;  3.3589302E+03;
  4.4185260E-01;  9.9999998E-03; -2.7995786E-01;5132;  1.1252487E-02;  0.0000000E+00; -7.2527570E-03;  9.9767322E+02;  1.0000000E-01; -1.9276984E+03;3; -4.3354468E+00;  0.0000000E+00; -1.9595459E+00;0; -1.4241518E-02;  3.9787742E+04;  0.0000000E+00; -1.3089699E-01;  4.0000000E+04;  0.0000000E+00;  4.0024355E+04; -2.5655128E-02;  0.0000000E+00;  1.1413610E-02;  3.2451453E+03;
  4.5188513E-01;  9.9999998E-03; -2.9995337E-01;5191;  9.8748272E-03;  0.0000000E+00; -8.1428764E-03;  9.9774200E+02;  1.0000000E-01; -1.8707124E+03;3; -4.2527046E+00;  0.0000000E+00; -1.8738502E+00;0; -1.2059527E-02;  3.9794609E+04;  0.0000000E+00;  2.3032294E-01;  4.0000000E+04;  0.0000000E+00;  4.0023121E+04; -2.3253256E-02;  0.0000000E+00;  1.1193729E-02;  3.1280183E+03;
  4.5192721E-01;  9.9999998E-03; -2.8995621E-01;5192;  1.0453376E-02;  0.0000000E+00; -8.0505330E-03;  9.9779669E+02;  1.0000000E-01; -1.8253804E+03;3; -4.2721715E+00;  0.0000000E+00; -1.8987601E+00;0; -1.2965316E-02;  3.9799434E+04;  0.0000000E+00;  5.1940348E-02;  4.0000000E+04;  0.0000000E+00;  4.0022738E+04; -2.4121424E-02;  0.0000000E+00;  1.1156108E-02;  3.0366843E+03;
  4.5195121E-01;  9.9999998E-03; -2.7995902E-01;5193;  1.1025676E-02;  0.0000000E+00; -7.9302508E-03;  9.9785626E+02;  1.0000000E-01; -1.7760483E+03;3; -4.3000998E+00;  0.0000000E+00; -1.9398272E+00;0; -1.4446191E-02;  3.9805145E+04;  0.0000000E+00; -7.2072804E-02;  4.0000000E+04;  0.0000000E+00;  4.0021945E+04; -2.5120748E-02;  0.0000000E+00;  1.0674557E-02;  2.9337244E+03;
  4.6195909E-01;  9.9999998E-03; -2.9995480E-01;5252;  9.7188614E-03;  0.0000000E+00; -8.7578464E-03;  9.9797174E+02;  1.0000000E-01; -1.6803969E+03;3; -4.2180610E+00;  0.0000000E+00; -1.8667973E+00;0; -1.2705840E-02;  3.9816059E+04;  0.0000000E+00;  3.3525491E-01;  4.0000000E+04;  0.0000000E+00;  4.0020672E+04; -2.2344718E-02;  0.0000000E+00;  9.6388776E-03;  2.8115422E+03;
  4.6199504E-01;  9.9999998E-03; -2.8995761E-01;5253;  1.0282749E-02;  0.0000000E+00; -8.7198410E-03;  9.9801819E+02;  1.0000000E-01; -1.6418794E+03;3; -4.2315063E+00;  0.0000000E+00; -1.8835719E+00;0; -1.2897184E-02;  3.9820297E+04;  0.0000000E+00;  1.4144376E-01;  4.0000000E+04;  0.0000000E+00;  4.0020371E+04; -2.3353452E-02;  0.0000000E+00;  1.0456268E-02;  2.7105940E+03;
  4.6201617E-01;  9.9999998E-03; -2.7996039E-01;5254;  1.0838908E-02;  0.0000000E+00; -8.6488593E-03;  9.9806659E+02;  1.0000000E-01; -1.6017817E+03;3; -4.2542434E+00;  0.0000000E+00; -1.9221110E+00;0; -1.3834141E-02;  3.9824617E+04;  0.0000000E+00; -1.2188731E-03;  4.0000000E+04;  0.0000000E+00;  4.0019508E+04; -2.4514902E-02;  0.0000000E+00;  1.0680761E-02;  2.6220583E+03;
  4.7193721E-01;  9.9999998E-03; -2.9995605E-01;5313;  9.6154306E-03;  0.0000000E+00; -9.3645053E-03;  9.9816571E+02;  1.0000000E-01; -1.5196606E+03;3; -4.1732635E+00;  0.0000000E+00; -1.8667392E+00;0; -1.3072600E-02;  3.9834293E+04;  0.0000000E+00;  3.8108408E-01;  4.0000000E+04;  0.0000000E+00;  4.0018523E+04; -2.1418095E-02;  0.0000000E+00;  8.3454950E-03;  2.5371492E+03;
  4.7196892E-01;  9.9999998E-03; -2.8995883E-01;5314;  1.0155488E-02;  0.0000000E+00; -9.3863616E-03;  9.9820569E+02;  1.0000000E-01; -1.4865751E+03;3; -4.1844482E+00;  0.0000000E+00; -1.8701633E+00;0; -1.2495755E-02;  3.9837855E+04;  0.0000000E+00;  2.0007031E-01;  4.0000000E+04;  0.0000000E+00;  4.0018148E+04; -2.2563424E-02;  0.0000000E+00;  1.0067669E-02;  2.4416355E+03;
  4.7199208E-01;  9.9999998E-03; -2.7996159E-01;5315;  1.0689110E-02;  0.0000000E+00; -9.3738940E-03;  9.9824780E+02;  1.0000000E-01; -1.4516626E+03;3; -4.2026062E+00;  0.0000000E+00; -1.9055278E+00;0; -1.2824446E-02;  3.9841270E+04;  0.0000000E+00;  5.8378499E-02;  4.0000000E+04;  0.0000000E+00;  4.0017758E+04; -2.3882497E-02;  0.0000000E+00;  1.1058051E-02;  2.3711562E+03;
  4.8185402E-01;  9.9999998E-03; -2.9995686E-01;5374;  9.5543107E-03;  0.0000000E+00; -9.9509619E-03;  9.9828479E+02;  1.0000147E-01; -1.4209967E+03;3; -4.1221461E+00;  0.0000000E+00; -1.8730716E+00;0; -1.3369406E-02;  3.9844539E+04;  0.0000000E+00;  3.3876562E-01;  4.0000000E+04;  0.0000000E+00;  4.0017043E+04; -2.0500151E-02;  0.0000000E+00;  7.1307458E-03;  2.3310476E+03;
  4.8188061E-01;  9.9999998E-03; -2.8995961E-01;5375;  1.0060637E-02;  0.0000000E+00; -1.0019566E-02;  9.9832062E+02;  1.0000147E-01; -1.3913186E+03;3; -4.1315780E+00;  0.0000000E+00; -1.8677362E+00;0; -1.2266614E-02;  3.9847777E+04;  0.0000000E+00;  1.9665685E-01;  4.0000000E+04;  0.0000000E+00;  4.0016836E+04; -2.1778233E-02;  0.0000000E+00;  9.5116189E-03;  2.2584526E+03;
  4.8190072E-01;  9.9999998E-03; -2.7996236E-01;5376;  1.0564547E-02;  0.0000000E+00; -1.0060828E-02;  9.9835999E+02;  1.0000148E-01; -1.3587269E+03;3; -4.1461740E+00;  0.0000000E+00; -1.8941457E+00;0; -1.2053614E-02;  3.9850902E+04;  0.0000000E+00;  7.8057885E-02;  4.0000000E+04;  0.0000000E+00;  4.0016535E+04; -2.3250373E-02;  0.0000000E+00;  1.1196759E-02;  2.2127285E+03;
  4.9182484E-01;  9.9999998E-03; -2.7996221E-01;5437;  1.0455904E-02;  0.0000000E+00; -1.0711675E-02;  9.9835596E+02;  1.0000204E-01; -1.3620354E+03;3; -4.0847445E+00;  0.0000000E+00; -1.8890054E+00;0; -1.1519814E-02;  3.9850473E+04;  0.0000000E+00;  4.4150595E-02;  4.0000000E+04;  0.0000000E+00;  4.0016422E+04; -2.2623066E-02;  0.0000000E+00;  1.1103252E-02;  2.2075046E+03;
  4.9180275E-01;  9.9999998E-03; -2.8995952E-01;5436;  9.9866288E-03;  0.0000000E+00; -1.0622530E-02;  9.9831519E+02;  1.0000199E-01; -1.3958123E+03;3; -4.0747404E+00;  0.0000000E+00; -1.8661478E+00;0; -1.2172590E-02;  3.9847137E+04;  0.0000000E+00;  1.2217186E-01;  4.0000000E+04;  0.0000000E+00;  4.0016547E+04; -2.1001065E-02;  0.0000000E+00;  8.8284751E-03;  2.2258108E+03;
  4.9178207E-01;  9.9999998E-03; -2.9995677E-01;5435;  9.5204292E-03;  0.0000000E+00; -1.0514586E-02;  9.9827631E+02;  1.0000207E-01; -1.4280582E+03;3; -4.0674725E+00;  0.0000000E+00; -1.8779430E+00;0; -1.3659578E-02;  3.9843965E+04;  0.0000000E+00;  2.0867497E-01;  4.0000000E+04;  0.0000000E+00;  4.0016773E+04; -1.9591572E-02;  0.0000000E+00;  5.9319935E-03;  2.2733137E+03;
  5.0184929E-01;  9.9999998E-03; -2.9995584E-01;5496;  9.4974721E-03;  0.0000000E+00; -1.1060799E-02;  9.9815723E+02;  1.0000388E-01; -1.5267222E+03;3; -4.0105395E+00;  0.0000000E+00; -1.8743193E+00;0; -1.3881932E-02;  3.9832234E+04;  0.0000000E+00;  5.8760568E-02;  4.0000000E+04;  0.0000000E+00;  4.0017809E+04; -1.8665299E-02;  0.0000000E+00;  4.7833668E-03;  2.3820554E+03;
  5.0185746E-01;  9.9999998E-03; -2.8995860E-01;5497;  9.9212043E-03;  0.0000000E+00; -1.1204941E-02;  9.9820123E+02;  1.0000371E-01; -1.4902294E+03;3; -4.0125203E+00;  0.0000000E+00; -1.8633507E+00;0; -1.2088388E-02;  3.9835766E+04;  0.0000000E+00;  1.6302532E-02;  4.0000000E+04;  0.0000000E+00;  4.0017504E+04; -2.0209715E-02;  0.0000000E+00;  8.1213266E-03;  2.3493040E+03;
  5.0186980E-01;  9.9999998E-03; -2.7996114E-01;5498;  1.0352224E-02;  0.0000000E+00; -1.1341128E-02;  9.9824835E+02;  1.0000388E-01; -1.4512181E+03;3; -4.0206418E+00;  0.0000000E+00; -1.8751558E+00;0; -1.1020159E-02;  3.9839520E+04;  0.0000000E+00; -2.3853296E-02;  4.0000000E+04;  0.0000000E+00;  4.0017707E+04; -2.1983869E-02;  0.0000000E+00;  1.0963710E-02;  2.3535266E+03;
  5.1181746E-01;  9.9999998E-03; -2.9995424E-01;5557;  9.4705904E-03;  0.0000000E+00; -1.1571679E-02;  9.9794702E+02;  1.0000626E-01; -1.7008407E+03;3; -3.9513228E+00;  0.0000000E+00; -1.8728338E+00;0; -1.4018610E-02;  3.9811613E+04;  0.0000000E+00; -3.3970591E-02;  4.0000000E+04;  0.0000000E+00;  4.0019672E+04; -1.7707251E-02;  0.0000000E+00;  3.6886414E-03;  2.6371301E+03;
  5.1181293E-01;  9.9999998E-03; -2.8995687E-01;5558;  9.8526534E-03;  0.0000000E+00; -1.1746890E-02;  9.9799579E+02;  1.0000617E-01; -1.6604468E+03;3; -3.9500074E+00;  0.0000000E+00; -1.8530660E+00;0; -1.2017649E-02;  3.9815496E+04;  0.0000000E+00; -5.3301126E-02;  4.0000000E+04;  0.0000000E+00;  4.0019391E+04; -1.9389777E-02;  0.0000000E+00;  7.3721283E-03;  2.6128555E+03;
  5.1181918E-01;  9.9999998E-03; -2.7995923E-01;5559;  1.0245883E-02;  0.0000000E+00; -1.1929078E-02;  9.9805334E+02;  1.0000617E-01; -1.6127444E+03;3; -3.9532580E+00;  0.0000000E+00; -1.8612826E+00;0; -1.0574632E-02;  3.9819926E+04;  0.0000000E+00; -7.1491323E-02;  4.0000000E+04;  0.0000000E+00;  4.0019695E+04; -2.1317326E-02;  0.0000000E+00;  1.0742693E-02;  2.6309739E+03;
  5.2179092E-01;  9.9999998E-03; -2.9995227E-01;5618;  9.4277933E-03;  0.0000000E+00; -1.2035326E-02;  9.9769116E+02;  1.0001039E-01; -1.9128346E+03;3; -3.8920453E+00;  0.0000000E+00; -1.8727878E+00;0; -1.4261629E-02;  3.9785066E+04;  0.0000000E+00; -7.3137641E-02;  4.0000000E+04;  0.0000000E+00;  4.0021832E+04; -1.6657595E-02;  0.0000000E+00;  2.3959647E-03;  2.9542703E+03;
  5.2178097E-01;  9.9999998E-03; -2.8995475E-01;5619;  9.7717131E-03;  0.0000000E+00; -1.2238006E-02;  9.9774402E+02;  1.0001048E-01; -1.8690334E+03;3; -3.8875043E+00;  0.0000000E+00; -1.8479432E+00;0; -1.2132645E-02;  3.9789480E+04;  0.0000000E+00; -8.4281176E-02;  4.0000000E+04;  0.0000000E+00;  4.0021812E+04; -1.8485924E-02;  0.0000000E+00;  6.3532796E-03;  2.9336179E+03;
  5.2178538E-01;  9.9999998E-03; -2.7995688E-01;5620;  1.0125927E-02;  0.0000000E+00; -1.2451794E-02;  9.9780859E+02;  1.0001054E-01; -1.8155535E+03;3; -3.8861654E+00;  0.0000000E+00; -1.8466678E+00;0; -1.0521768E-02;  3.9794383E+04;  0.0000000E+00; -9.6776649E-02;  4.0000000E+04;  0.0000000E+00;  4.0021984E+04; -2.0573787E-02;  0.0000000E+00;  1.0052020E-02;  2.9612183E+03;
  5.3181440E-01;  9.9999998E-03; -2.9995048E-01;5679;  9.3674930E-03;  0.0000000E+00; -1.2452438E-02;  9.9745294E+02;  1.0001730E-01; -2.1102117E+03;3; -3.8349030E+00;  0.0000000E+00; -1.8688670E+00;0; -1.4509437E-02;  3.9758426E+04;  0.0000000E+00; -5.8579303E-02;  4.0000000E+04;  0.0000000E+00;  4.0024012E+04; -1.5457790E-02;  0.0000000E+00;  9.4835390E-04;  3.2396973E+03;
  5.3179741E-01;  9.9999998E-03; -2.8995273E-01;5680;  9.6761109E-03;  0.0000000E+00; -1.2678682E-02;  9.9750598E+02;  1.0001743E-01; -2.0662625E+03;3; -3.8272500E+00;  0.0000000E+00; -1.8412998E+00;0; -1.2332994E-02;  3.9762484E+04;  0.0000000E+00; -6.8129279E-02;  4.0000000E+04;  0.0000000E+00;  4.0024109E+04; -1.7444659E-02;  0.0000000E+00;  5.1116650E-03;  3.2285979E+03;
  5.3179681E-01;  9.9999998E-03; -2.7995458E-01;5681;  9.9936416E-03;  0.0000000E+00; -1.2917037E-02;  9.9757672E+02;  1.0001760E-01; -2.0076467E+03;3; -3.8181758E+00;  0.0000000E+00; -1.8370757E+00;0; -1.0661278E-02;  3.9767973E+04;  0.0000000E+00; -8.8924162E-02;  4.0000000E+04;  0.0000000E+00;  4.0024191E+04; -1.9704778E-02;  0.0000000E+00;  9.0434998E-03;  3.2578767E+03;
  5.4188192E-01;  9.9999998E-03; -2.9994956E-01;5740;  9.2975013E-03;  0.0000000E+00; -1.2826352E-02;  9.9731451E+02;  1.0002959E-01; -2.2248752E+03;3; -3.7827461E+00;  0.0000000E+00; -1.8678221E+00;0; -1.4579433E-02;  3.9736238E+04;  0.0000000E+00; -2.3463996E-02;  4.0000000E+04;  0.0000000E+00;  4.0024992E+04; -1.4065823E-02;  0.0000000E+00; -5.1361066E-04;  3.3830522E+03;
  5.4185563E-01;  9.9999998E-03; -2.8995138E-01;5741;  9.5743630E-03;  0.0000000E+00; -1.3073583E-02;  9.9735870E+02;  1.0002951E-01; -2.1882837E+03;3; -3.7684021E+00;  0.0000000E+00; -1.8320172E+00;0; -1.2418190E-02;  3.9739848E+04;  0.0000000E+00; -1.9990355E-02;  4.0000000E+04;  0.0000000E+00;  4.0025062E+04; -1.6226590E-02;  0.0000000E+00;  3.8083994E-03;  3.3894333E+03;
  5.4184824E-01;  9.9999998E-03; -2.7995288E-01;5742;  9.8551912E-03;  0.0000000E+00; -1.3328054E-02;  9.9742682E+02;  1.0002955E-01; -2.1318408E+03;3; -3.7514863E+00;  0.0000000E+00; -1.8226584E+00;0; -1.0832345E-02;  3.9745051E+04;  0.0000000E+00; -5.0740801E-02;  4.0000000E+04;  0.0000000E+00;  4.0025422E+04; -1.8673480E-02;  0.0000000E+00;  7.8411344E-03;  3.4239465E+03;
  5.5198002E-01;  9.9999998E-03; -2.9994991E-01;5801;  9.2295641E-03;  0.0000000E+00; -1.3158418E-02;  9.9731750E+02;  1.0004847E-01; -2.2224060E+03;3; -3.7375298E+00;  0.0000000E+00; -1.8631601E+00;0; -1.4334680E-02;  3.9721609E+04;  0.0000000E+00; -1.3150728E-02;  4.0000000E+04;  0.0000000E+00;  4.0024445E+04; -1.2466206E-02;  0.0000000E+00; -1.8684734E-03;  3.3277612E+03;
  5.5195004E-01;  9.9999998E-03; -2.8995126E-01;5802;  9.4760805E-03;  0.0000000E+00; -1.3424132E-02;  9.9735138E+02;  1.0004845E-01; -2.1943081E+03;3; -3.7155938E+00;  0.0000000E+00; -1.8214866E+00;0; -1.2264887E-02;  3.9723949E+04;  0.0000000E+00;  1.6941601E-02;  4.0000000E+04;  0.0000000E+00;  4.0024609E+04; -1.4815394E-02;  0.0000000E+00;  2.5505074E-03;  3.3510989E+03;
  5.5193990E-01;  9.9999998E-03; -2.7995232E-01;5803;  9.7213825E-03;  0.0000000E+00; -1.3688835E-02;  9.9741205E+02;  1.0004848E-01; -2.1440874E+03;3; -3.6906881E+00;  0.0000000E+00; -1.8104988E+00;0; -1.0889531E-02;  3.9728457E+04;  0.0000000E+00; -1.4071946E-02;  4.0000000E+04;  0.0000000E+00;  4.0024945E+04; -1.7463852E-02;  0.0000000E+00;  6.5743206E-03;  3.3884370E+03;
  5.6210244E-01;  9.9999998E-03; -2.9995197E-01;5862;  9.1771074E-03;  0.0000000E+00; -1.3446118E-02;  9.9748224E+02;  1.0007981E-01; -2.0859163E+03;3; -3.6908405E+00;  0.0000000E+00; -1.8663257E+00;0; -1.3749624E-02;  3.9712250E+04;  0.0000000E+00; -8.7606788E-02;  4.0000000E+04;  0.0000000E+00;  4.0022137E+04; -1.0674006E-02;  0.0000000E+00; -3.0756174E-03;  3.0459680E+03;
  5.6207877E-01;  9.9999998E-03; -2.8995261E-01;5863;  9.3942406E-03;  0.0000000E+00; -1.3731432E-02;  9.9749982E+02;  1.0007969E-01; -2.0713486E+03;3; -3.6632249E+00;  0.0000000E+00; -1.8155556E+00;0; -1.1783234E-02;  3.9712949E+04;  0.0000000E+00; -3.3336937E-02;  4.0000000E+04;  0.0000000E+00;  4.0022484E+04; -1.3223050E-02;  0.0000000E+00;  1.4398167E-03;  3.0890642E+03;
  5.6207299E-01;  9.9999998E-03; -2.7995303E-01;5864;  9.6053928E-03;  0.0000000E+00; -1.4008002E-02;  9.9754602E+02;  1.0007984E-01; -2.0330781E+03;3; -3.6325803E+00;  0.0000000E+00; -1.7979605E+00;0; -1.0638904E-02;  3.9716141E+04;  0.0000000E+00; -4.5252468E-02;  4.0000000E+04;  0.0000000E+00;  4.0022777E+04; -1.6086027E-02;  0.0000000E+00;  5.4471237E-03;  3.1365933E+03;
  5.7222986E-01;  9.9999998E-03; -2.9995579E-01;5923;  9.1567961E-03;  0.0000000E+00; -1.3684453E-02;  9.9777557E+02;  1.0013096E-01; -1.8429105E+03;3; -3.6367998E+00;  0.0000000E+00; -1.8706267E+00;0; -1.2861624E-02;  3.9698574E+04;  0.0000000E+00; -2.7146584E-01;  4.0000000E+04;  0.0000000E+00;  4.0018289E+04; -8.7420261E-03;  0.0000000E+00; -4.1195988E-03;  2.6008750E+03;
  5.7222289E-01;  9.9999998E-03; -2.8995553E-01;5924;  9.3395496E-03;  0.0000000E+00; -1.3991408E-02;  9.9777765E+02;  1.0013096E-01; -1.8411823E+03;3; -3.6086106E+00;  0.0000000E+00; -1.8133366E+00;0; -1.0986976E-02;  3.9697977E+04;  0.0000000E+00; -2.1096481E-01;  4.0000000E+04;  0.0000000E+00;  4.0018660E+04; -1.1495433E-02;  0.0000000E+00;  5.0845643E-04;  2.6560691E+03;
  5.7223094E-01;  9.9999998E-03; -2.7995509E-01;5925;  9.5166340E-03;  0.0000000E+00; -1.4285762E-02;  9.9780737E+02;  1.0013135E-01; -1.8165409E+03;3; -3.5716598E+00;  0.0000000E+00; -1.7897544E+00;0; -1.0029638E-02;  3.9699812E+04;  0.0000000E+00; -1.9027750E-01;  4.0000000E+04;  0.0000000E+00;  4.0019207E+04; -1.4580650E-02;  0.0000000E+00;  4.5510116E-03;  2.7174719E+03;
  5.8233690E-01;  9.9999998E-03; -2.9996106E-01;5984;  9.1946460E-03;  0.0000000E+00; -1.3865961E-02;  9.9810583E+02;  1.0021381E-01; -1.5692887E+03;3; -3.5713453E+00;  0.0000000E+00; -1.8795856E+00;0; -1.1802884E-02;  3.9664047E+04;  0.0000000E+00; -5.1175278E-01;  4.0000000E+04;  0.0000000E+00;  4.0013766E+04; -6.7634871E-03;  0.0000000E+00; -5.0393972E-03;  2.1690667E+03;
  5.8235347E-01;  9.9999998E-03; -2.8995970E-01;5985;  9.3293805E-03;  0.0000000E+00; -1.4202227E-02;  9.9809692E+02;  1.0021405E-01; -1.5766465E+03;3; -3.5478647E+00;  0.0000000E+00; -1.8149216E+00;0; -9.8936539E-03;  3.9662203E+04;  0.0000000E+00; -4.5981202E-01;  4.0000000E+04;  0.0000000E+00;  4.0014391E+04; -9.7148921E-03;  0.0000000E+00; -1.7876222E-04;  2.2307334E+03;
  5.8238018E-01;  9.9999998E-03; -2.7995804E-01;5986;  9.4687333E-03;  0.0000000E+00; -1.4535666E-02;  9.9811633E+02;  1.0021434E-01; -1.5605977E+03;3; -3.5007646E+00;  0.0000000E+00; -1.7841542E+00;0; -8.8459915E-03;  3.9662922E+04;  0.0000000E+00; -3.9828157E-01;  4.0000000E+04;  0.0000000E+00;  4.0015340E+04; -1.3021639E-02;  0.0000000E+00;  4.1756472E-03;  2.3064065E+03;
  5.9241462E-01;  9.9999998E-03; -2.9996768E-01;6045;  9.3217371E-03;  0.0000000E+00; -1.3977557E-02;  9.9836890E+02;  1.0034749E-01; -1.3513196E+03;3; -3.4625041E+00;  0.0000000E+00; -1.8787059E+00;0; -1.0839699E-02;  3.9583977E+04;  0.0000000E+00; -7.3880267E-01;  4.0000000E+04;  0.0000000E+00;  4.0009680E+04; -4.8606368E-03;  0.0000000E+00; -5.9790616E-03;  1.9222412E+03;
  5.9244382E-01;  9.9999998E-03; -2.8996497E-01;6046;  9.3857152E-03;  0.0000000E+00; -1.4350152E-02;  9.9834967E+02;  1.0034800E-01; -1.3672698E+03;3; -3.4597139E+00;  0.0000000E+00; -1.8178631E+00;0; -8.7563498E-03;  3.9581137E+04;  0.0000000E+00; -6.3440746E-01;  4.0000000E+04;  0.0000000E+00;  4.0010422E+04; -7.9924781E-03;  0.0000000E+00; -7.6387171E-04;  1.9462756E+03;
  5.9247804E-01;  9.9999998E-03; -2.7996165E-01;6047;  9.4717974E-03;  0.0000000E+00; -1.4730531E-02;  9.9836157E+02;  1.0034849E-01; -1.3573936E+03;3; -3.4185927E+00;  0.0000000E+00; -1.7892543E+00;0; -7.5056539E-03;  3.9580434E+04;  0.0000000E+00; -5.0423199E-01;  4.0000000E+04;  0.0000000E+00;  4.0011645E+04; -1.1507649E-02;  0.0000000E+00;  4.0019951E-03;  2.0066226E+03;
  6.0241020E-01;  9.9999998E-03; -2.9997543E-01;6106;  9.5940428E-03;  0.0000000E+00; -1.4018677E-02;  9.9844482E+02;  1.0056060E-01; -1.2884572E+03;3; -3.2562287E+00;  0.0000000E+00; -1.8821542E+00;0; -1.0070058E-02;  3.9426848E+04;  0.0000000E+00; -4.4956538E-01;  4.0000000E+04;  0.0000000E+00;  4.0007137E+04; -3.1833928E-03;  0.0000000E+00; -6.8866652E-03;  1.6061498E+03;
  6.0244870E-01;  9.9999998E-03; -2.8997138E-01;6107;  9.5304744E-03;  0.0000000E+00; -1.4414557E-02;  9.9843024E+02;  1.0056145E-01; -1.3005062E+03;3; -3.3145294E+00;  0.0000000E+00; -1.8176452E+00;0; -7.9770284E-03;  3.9423770E+04;  0.0000000E+00; -4.0708303E-01;  4.0000000E+04;  0.0000000E+00;  4.0007660E+04; -6.4530694E-03;  0.0000000E+00; -1.5239589E-03;  1.6716572E+03;
  6.0248733E-01;  9.9999998E-03; -2.7996635E-01;6108;  9.5299259E-03;  0.0000000E+00; -1.4811627E-02;  9.9843420E+02;  1.0056195E-01; -1.2972471E+03;3; -3.3136408E+00;  0.0000000E+00; -1.7962978E+00;0; -6.9036237E-03;  3.9422348E+04;  0.0000000E+00; -3.1076625E-01;  4.0000000E+04;  0.0000000E+00;  4.0008977E+04; -1.0142079E-02;  0.0000000E+00;  3.2384549E-03;  1.7672053E+03;
  6.1233544E-01;  9.9999998E-03; -2.9998505E-01;6167;  1.0035681E-02;  0.0000000E+00; -1.3988110E-02;  9.9831152E+02;  1.0089329E-01; -1.3988738E+03;3; -2.9111729E+00;  0.0000000E+00; -1.9066116E+00;0; -9.6022254E-03;  3.9160227E+04;  0.0000000E+00;  2.4412492E-01;  4.0000000E+04;  0.0000000E+00;  4.0006043E+04; -1.8350214E-03;  0.0000000E+00; -7.7672042E-03;  1.6700107E+03;
  6.1238569E-01;  9.9999998E-03; -2.8997958E-01;6168;  9.7979354E-03;  0.0000000E+00; -1.4391630E-02;  9.9830377E+02;  1.0089496E-01; -1.4052933E+03;3; -3.0566719E+00;  0.0000000E+00; -1.8265747E+00;0; -7.6987017E-03;  3.9157523E+04;  0.0000000E+00;  1.0988513E-01;  4.0000000E+04;  0.0000000E+00;  4.0006344E+04; -5.1955953E-03;  0.0000000E+00; -2.5031061E-03;  1.7073500E+03;
  6.1243147E-01;  9.9999998E-03; -2.7997291E-01;6169;  9.6425079E-03;  0.0000000E+00; -1.4783809E-02;  9.9830975E+02;  1.0089624E-01; -1.4003552E+03;3; -3.1493840E+00;  0.0000000E+00; -1.8099021E+00;0; -7.0309052E-03;  3.9155555E+04;  0.0000000E+00;  7.9686619E-02;  4.0000000E+04;  0.0000000E+00;  4.0007039E+04; -9.0028625E-03;  0.0000000E+00;  1.9719570E-03;  1.7911487E+03;
  6.2220454E-01;  9.9999998E-03; -2.9999787E-01;6228;  1.0602770E-02;  0.0000000E+00; -1.3902326E-02;  9.9803265E+02;  1.0139926E-01; -1.6299288E+03;3; -2.4510009E+00;  0.0000000E+00; -1.9784397E+00;0; -9.1533735E-03;  3.8752234E+04;  0.0000000E+00;  8.8058412E-01;  4.0000000E+04;  0.0000000E+00;  4.0005133E+04; -8.3547371E-04;  0.0000000E+00; -8.3178999E-03;  2.3546243E+03;
  6.2226880E-01;  9.9999998E-03; -2.8999105E-01;6229;  1.0168246E-02;  0.0000000E+00; -1.4297590E-02;  9.9804761E+02;  1.0140163E-01; -1.6175342E+03;3; -2.6832135E+00;  0.0000000E+00; -1.8732603E+00;0; -7.6784147E-03;  3.8750340E+04;  0.0000000E+00;  5.8872825E-01;  4.0000000E+04;  0.0000000E+00;  4.0005211E+04; -4.2504943E-03;  0.0000000E+00; -3.4279204E-03;  2.1776777E+03;
  6.2232369E-01;  9.9999998E-03; -2.7998275E-01;6230;  9.8242024E-03;  0.0000000E+00; -1.4677620E-02;  9.9806445E+02;  1.0140407E-01; -1.6035592E+03;3; -2.8798923E+00;  0.0000000E+00; -1.8272077E+00;0; -7.4707633E-03;  3.8748930E+04;  0.0000000E+00;  4.4198662E-01;  4.0000000E+04;  0.0000000E+00;  4.0005547E+04; -8.1313672E-03;  0.0000000E+00;  6.6060398E-04;  2.1343699E+03;
  6.3203096E-01;  9.9999998E-03; -3.0001584E-01;6289;  1.1192917E-02;  0.0000000E+00; -1.3755523E-02;  9.9776410E+02;  1.0213719E-01; -1.8523916E+03;3; -2.0162420E+00;  0.0000000E+00; -2.0773804E+00;0; -8.6877868E-03;  3.8177480E+04;  0.0000000E+00;  7.6610613E-01;  4.0000000E+04;  0.0000000E+00;  4.0002551E+04; -8.4209139E-05;  0.0000000E+00; -8.6035775E-03;  2.5590432E+03;
  6.3210583E-01;  9.9999998E-03; -2.9000786E-01;6290;  1.0581491E-02;  0.0000000E+00; -1.4149780E-02;  9.9780725E+02;  1.0214166E-01; -1.8166395E+03;3; -2.2358618E+00;  0.0000000E+00; -1.9652900E+00;0; -7.5341538E-03;  3.8176488E+04;  0.0000000E+00;  5.2074581E-01;  4.0000000E+04;  0.0000000E+00;  4.0002531E+04; -3.5363527E-03;  0.0000000E+00; -3.9978013E-03;  2.4125139E+03;
  6.3216722E-01;  9.9999998E-03; -2.7999797E-01;6291;  1.0066334E-02;  0.0000000E+00; -1.4530717E-02;  9.9784503E+02;  1.0214505E-01; -1.7853318E+03;3; -2.5184872E+00;  0.0000000E+00; -1.8758664E+00;0; -7.6222909E-03;  3.8176234E+04;  0.0000000E+00;  4.3138561E-01;  4.0000000E+04;  0.0000000E+00;  4.0002523E+04; -7.4680592E-03;  0.0000000E+00; -1.5423167E-04;  2.3846450E+03;
  6.4184576E-01;  9.9999998E-03; -3.0004084E-01;6350;  1.1741975E-02;  0.0000000E+00; -1.3519883E-02;  9.9766669E+02;  1.0316130E-01; -1.9330807E+03;3; -1.6816242E+00;  0.0000000E+00; -2.1297722E+00;0; -8.4213093E-03;  3.7421074E+04;  0.0000000E+00; -8.8339114E-01;  4.0000000E+04;  0.0000000E+00;  3.9996457E+04;  6.1730144E-04;  0.0000000E+00; -9.0386104E-03;  2.7356228E+03;
  6.4192587E-01;  9.9999998E-03; -2.9003197E-01;6351;  1.0989266E-02;  0.0000000E+00; -1.3930399E-02;  9.9773871E+02;  1.0316780E-01; -1.8734281E+03;3; -1.8880244E+00;  0.0000000E+00; -2.0413773E+00;0; -7.3128017E-03;  3.7420785E+04;  0.0000000E+00; -7.2638255E-01;  4.0000000E+04;  0.0000000E+00;  3.9996016E+04; -2.8647797E-03;  0.0000000E+00; -4.4480222E-03;  2.5906277E+03;
  6.4198911E-01;  9.9999998E-03; -2.8002095E-01;6352;  1.0328097E-02;  0.0000000E+00; -1.4337986E-02;  9.9780896E+02;  1.0317304E-01; -1.8152568E+03;3; -2.1254587E+00;  0.0000000E+00; -1.9517447E+00;0; -7.3636989E-03;  3.7421344E+04;  0.0000000E+00; -4.2050803E-01;  4.0000000E+04;  0.0000000E+00;  3.9996289E+04; -6.8357820E-03;  0.0000000E+00; -5.2791688E-04;  2.4426982E+03;
  6.5169984E-01;  9.9999998E-03; -3.0007350E-01;6411;  1.2296750E-02;  0.0000000E+00; -1.3193774E-02;  9.9777155E+02;  1.0450064E-01; -1.8462188E+03;3; -1.4242401E+00;  0.0000000E+00; -2.1942265E+00;0; -8.0077704E-03;  3.6481465E+04;  0.0000000E+00; -4.4709477E+00;  4.0000000E+04;  0.0000000E+00;  3.9986250E+04;  1.6183421E-03;  0.0000000E+00; -9.6261129E-03;  7.2607705E+03;
  6.5177292E-01;  9.9999998E-03; -2.9006398E-01;6412;  1.1401717E-02;  0.0000000E+00; -1.3618217E-02;  9.9786499E+02;  1.0450911E-01; -1.7688381E+03;3; -1.5869744E+00;  0.0000000E+00; -2.0947833E+00;0; -6.9835945E-03;  3.6481188E+04;  0.0000000E+00; -3.5267160E+00;  4.0000000E+04;  0.0000000E+00;  3.9985609E+04; -1.8976616E-03;  0.0000000E+00; -5.0859330E-03;  5.8760962E+03;
  6.5183049E-01;  9.9999998E-03; -2.8005233E-01;6413;  1.0598841E-02;  0.0000000E+00; -1.4069101E-02;  9.9796558E+02;  1.0451498E-01; -1.6854825E+03;3; -1.8242018E+00;  0.0000000E+00; -2.0200944E+00;0; -6.7738709E-03;  3.6482820E+04;  0.0000000E+00; -2.4161570E+00;  4.0000000E+04;  0.0000000E+00;  3.9986059E+04; -5.9138248E-03;  0.0000000E+00; -8.6004613E-04;  4.3495776E+03;
  6.6172636E-01;  9.9999998E-03; -3.0011284E-01;6472;  1.2883378E-02;  0.0000000E+00; -1.2761574E-02;  9.9792938E+02;  1.0615193E-01; -1.7154570E+03;3; -1.2185347E+00;  0.0000000E+00; -2.2370591E+00;0; -6.9864821E-03;  3.5371125E+04;  0.0000000E+00; -9.3470564E+00;  4.0000000E+04;  0.0000000E+00;  3.9973094E+04;  3.4770055E-03;  0.0000000E+00; -1.0463487E-02;  1.4996485E+04;
  6.6178000E-01;  9.9999998E-03; -2.9010281E-01;6473;  1.1798260E-02;  0.0000000E+00; -1.3196412E-02;  9.9802905E+02;  1.0616234E-01; -1.6328915E+03;3; -1.4062397E+00;  0.0000000E+00; -2.1121385E+00;0; -6.1767814E-03;  3.5370016E+04;  0.0000000E+00; -7.4152188E+00;  4.0000000E+04;  0.0000000E+00;  3.9972902E+04; -1.1493938E-04;  0.0000000E+00; -6.0618422E-03;  1.1987431E+04;
  6.6182661E-01;  9.9999998E-03; -2.8009087E-01;6474;  1.0853616E-02;  0.0000000E+00; -1.3686422E-02;  9.9815302E+02;  1.0616936E-01; -1.5301783E+03;3; -1.5922259E+00;  0.0000000E+00; -2.0407045E+00;0; -5.8001317E-03;  3.5372312E+04;  0.0000000E+00; -5.2352939E+00;  4.0000000E+04;  0.0000000E+00;  3.9973688E+04; -4.2139287E-03;  0.0000000E+00; -1.5862029E-03;  8.6277070E+03;
  6.7202812E-01;  9.9999998E-03; -3.0015716E-01;6533;  1.3350305E-02;  0.0000000E+00; -1.2171515E-02;  9.9791675E+02;  1.0809884E-01; -1.7259257E+03;3; -1.1520281E+00;  0.0000000E+00; -2.2100770E+00;0; -5.3009307E-03;  3.4111949E+04;  0.0000000E+00; -1.3530700E+01;  4.0000000E+04;  0.0000000E+00;  3.9960328E+04;  6.9280304E-03;  0.0000000E+00; -1.2228961E-02;  2.2293436E+04;
  6.7201978E-01;  9.9999998E-03; -2.9014650E-01;6534;  1.2111145E-02;  0.0000000E+00; -1.2626287E-02;  9.9801715E+02;  1.0810918E-01; -1.6427676E+03;3; -1.3205954E+00;  0.0000000E+00; -2.0825467E+00;0; -4.6981890E-03;  3.4110254E+04;  0.0000000E+00; -1.1053370E+01;  4.0000000E+04;  0.0000000E+00;  3.9960426E+04;  3.1616706E-03;  0.0000000E+00; -7.8598596E-03;  1.8329836E+04;
  6.7202151E-01;  9.9999998E-03; -2.8013414E-01;6535;  1.1003375E-02;  0.0000000E+00; -1.3144994E-02;  9.9814996E+02;  1.0811486E-01; -1.5326967E+03;3; -1.4838878E+00;  0.0000000E+00; -1.9911803E+00;0; -4.3798541E-03;  3.4112930E+04;  0.0000000E+00; -8.0384846E+00;  4.0000000E+04;  0.0000000E+00;  3.9961473E+04; -1.1222180E-03;  0.0000000E+00; -3.2576362E-03;  1.3498890E+04;
  6.8266404E-01;  9.9999998E-03; -3.0020657E-01;6594;  1.3568521E-02;  0.0000000E+00; -1.1387882E-02;  9.9768286E+02;  1.1036925E-01; -1.9196978E+03;3; -1.1484345E+00;  0.0000000E+00; -2.1570048E+00;0; -2.5213305E-03;  3.2713586E+04;  0.0000000E+00; -1.5400607E+01;  4.0000000E+04;  0.0000000E+00;  3.9948133E+04;  1.2825578E-02;  0.0000000E+00; -1.5346909E-02;  2.6381160E+04;
  6.8255270E-01;  9.9999998E-03; -2.9019475E-01;6595;  1.2236143E-02;  0.0000000E+00; -1.1879243E-02;  9.9776947E+02;  1.1036934E-01; -1.8479468E+03;3; -1.3422134E+00;  0.0000000E+00; -1.9884207E+00;0; -2.0498633E-03;  3.2716527E+04;  0.0000000E+00; -1.3268261E+01;  4.0000000E+04;  0.0000000E+00;  3.9948652E+04;  8.7053273E-03;  0.0000000E+00; -1.0755191E-02;  2.2891148E+04;
  6.8245339E-01;  9.9999998E-03; -2.8018147E-01;6596;  1.1027802E-02;  0.0000000E+00; -1.2440394E-02;  9.9790320E+02;  1.1036328E-01; -1.7371351E+03;3; -1.5077879E+00;  0.0000000E+00; -1.8789406E+00;0; -1.7631007E-03;  3.2725605E+04;  0.0000000E+00; -1.0174479E+01;  4.0000000E+04;  0.0000000E+00;  3.9950406E+04;  4.0581566E-03;  0.0000000E+00; -5.8212574E-03;  1.7767061E+04;
  6.9449216E-01;  9.9999998E-03; -3.0026585E-01;6655;  1.3389831E-02;  0.0000000E+00; -1.0341564E-02;  9.9739569E+02;  1.1312354E-01; -2.1576167E+03;3; -1.2452658E+00;  0.0000000E+00; -2.0478449E+00;0;  3.2532774E-03;  3.1134734E+04;  0.0000000E+00; -1.1065582E+01;  4.0000000E+04;  0.0000000E+00;  3.9934039E+04;  2.2982072E-02;  0.0000000E+00; -1.9728795E-02;  2.0306260E+04;
  6.9428933E-01;  9.9999998E-03; -2.9025212E-01;6656;  1.2129361E-02;  0.0000000E+00; -1.0913007E-02;  9.9742377E+02;  1.1310323E-01; -2.1343582E+03;3; -1.4098129E+00;  0.0000000E+00; -1.8801768E+00;0;  3.9631194E-03;  3.1144285E+04;  0.0000000E+00; -1.0224779E+01;  4.0000000E+04;  0.0000000E+00;  3.9935406E+04;  1.8232392E-02;  0.0000000E+00; -1.4269273E-02;  1.8933258E+04;
  6.9404650E-01;  9.9999998E-03; -2.8023684E-01;6657;  1.0944268E-02;  0.0000000E+00; -1.1544754E-02;  9.9751410E+02;  1.1306655E-01; -2.0594961E+03;3; -1.5796183E+00;  0.0000000E+00; -1.7489849E+00;0;  4.1920524E-03;  3.1165406E+04;  0.0000000E+00; -8.4394407E+00;  4.0000000E+04;  0.0000000E+00;  3.9938406E+04;  1.2895227E-02;  0.0000000E+00; -8.7031750E-03;  1.5885902E+04;
  7.0691597E-01;  9.9999998E-03; -3.0033809E-01;6716;  1.3189604E-02;  0.0000000E+00; -9.1691967E-03;  9.9753986E+02;  1.1638054E-01; -2.0381631E+03;3; -1.3157058E+00;  0.0000000E+00; -1.9801700E+00;0;  1.5396643E-02;  2.9445676E+04;  0.0000000E+00; -8.3750706E+00;  4.0000000E+04;  0.0000000E+00;  3.9912891E+04;  3.8585044E-02;  0.0000000E+00; -2.3188401E-02;  1.6847029E+04;
  7.0676953E-01;  9.9999998E-03; -2.9032293E-01;6717;  1.1984763E-02;  0.0000000E+00; -9.7892499E-03;  9.9751324E+02;  1.1636343E-01; -2.0602366E+03;3; -1.4516689E+00;  0.0000000E+00; -1.8227812E+00;0;  1.5618904E-02;  2.9449229E+04;  0.0000000E+00; -7.7357917E+00;  4.0000000E+04;  0.0000000E+00;  3.9915250E+04;  3.2953784E-02;  0.0000000E+00; -1.7334880E-02;  1.5758663E+04;
  7.0655942E-01;  9.9999998E-03; -2.8030604E-01;6718;  1.0827783E-02;  0.0000000E+00; -1.0465856E-02;  9.9751807E+02;  1.1632180E-01; -2.0562366E+03;3; -1.5979784E+00;  0.0000000E+00; -1.7073436E+00;0;  1.5142149E-02;  2.9465627E+04;  0.0000000E+00; -6.3451252E+00;  4.0000000E+04;  0.0000000E+00;  3.9919414E+04;  2.6659813E-02;  0.0000000E+00; -1.1517663E-02;  1.3278084E+04;
  7.1839410E-01;  9.9999998E-03; -3.0041051E-01;6777;  1.3064361E-02;  0.0000000E+00; -8.0042453E-03;  9.9774597E+02;  1.1970387E-01; -1.8674023E+03;3; -1.3671665E+00;  0.0000000E+00; -1.9454945E+00;0;  3.2056157E-02;  2.7864164E+04;  0.0000000E+00; -9.6248856E+00;  4.0000000E+04;  0.0000000E+00;  3.9891691E+04;  5.7571284E-02;  0.0000000E+00; -2.5515128E-02;  2.0017518E+04;
  7.1844095E-01;  9.9999998E-03; -2.9039523E-01;6778;  1.1873466E-02;  0.0000000E+00; -8.6432816E-03;  9.9773688E+02;  1.1973148E-01; -1.8749576E+03;3; -1.4800990E+00;  0.0000000E+00; -1.8007073E+00;0;  3.1520117E-02;  2.7847857E+04;  0.0000000E+00; -8.6450014E+00;  4.0000000E+04;  0.0000000E+00;  3.9893613E+04;  5.1067986E-02;  0.0000000E+00; -1.9547869E-02;  1.8229057E+04;
  7.1844995E-01;  9.9999998E-03; -2.8037852E-01;6779;  1.0723697E-02;  0.0000000E+00; -9.3237320E-03;  9.9773132E+02;  1.1974011E-01; -1.8795500E+03;3; -1.6053432E+00;  0.0000000E+00; -1.7013282E+00;0;  2.9968716E-02;  2.7839479E+04;  0.0000000E+00; -6.8670559E+00;  4.0000000E+04;  0.0000000E+00;  3.9897559E+04;  4.3850578E-02;  0.0000000E+00; -1.3881863E-02;  1.4890681E+04;
  7.2968507E-01;  9.9999998E-03; -3.0048105E-01;6838;  1.2870498E-02;  0.0000000E+00; -6.7579816E-03;  9.9754803E+02;  1.2316234E-01; -2.0313971E+03;3; -1.4170511E+00;  0.0000000E+00; -1.9278442E+00;0;  5.2544460E-02;  2.6326543E+04;  0.0000000E+00; -8.1370583E+00;  4.0000000E+04;  0.0000000E+00;  3.9874586E+04;  7.9796232E-02;  0.0000000E+00; -2.7251774E-02;  1.7730053E+04;
  7.2980130E-01;  9.9999998E-03; -2.9046461E-01;6839;  1.1726142E-02;  0.0000000E+00; -7.4303281E-03;  9.9757233E+02;  1.2320516E-01; -2.0112988E+03;3; -1.5136149E+00;  0.0000000E+00; -1.7983066E+00;0;  5.0977744E-02;  2.6307111E+04;  0.0000000E+00; -7.5671558E+00;  4.0000000E+04;  0.0000000E+00;  3.9876078E+04;  7.2070360E-02;  0.0000000E+00; -2.1092618E-02;  1.6657176E+04;
  7.2988087E-01;  9.9999998E-03; -2.8044677E-01;6840;  1.0598065E-02;  0.0000000E+00; -8.1297560E-03;  9.9758362E+02;  1.2323145E-01; -2.0019164E+03;3; -1.6207652E+00;  0.0000000E+00; -1.7177989E+00;0;  4.7986273E-02;  2.6293369E+04;  0.0000000E+00; -6.1879177E+00;  4.0000000E+04;  0.0000000E+00;  3.9879637E+04;  6.3538961E-02;  0.0000000E+00; -1.5552689E-02;  1.4004536E+04;
  7.4184293E-01;  9.9999998E-03; -3.0055496E-01;6899;  1.2794125E-02;  0.0000000E+00; -5.2629909E-03;  9.9696973E+02;  1.2707587E-01; -2.5105430E+03;3; -1.4634345E+00;  0.0000000E+00; -1.9271884E+00;0;  7.6955058E-02;  2.4715375E+04;  0.0000000E+00; -1.1383429E+00;  4.0000000E+04;  0.0000000E+00;  3.9860090E+04;  1.0593417E-01;  0.0000000E+00; -2.8979106E-02;  4.4870312E+03;
  7.4192822E-01;  9.9999998E-03; -2.9053593E-01;6900;  1.1636041E-02;  0.0000000E+00; -6.0065268E-03;  9.9701843E+02;  1.2709706E-01; -2.4701492E+03;3; -1.5420638E+00;  0.0000000E+00; -1.8220675E+00;0;  7.4376144E-02;  2.4707395E+04;  0.0000000E+00; -2.1100798E+00;  4.0000000E+04;  0.0000000E+00;  3.9860992E+04;  9.6575230E-02;  0.0000000E+00; -2.2199087E-02;  6.2023486E+03;
  7.4197245E-01;  9.9999998E-03; -2.8051549E-01;6901;  1.0515348E-02;  0.0000000E+00; -6.7611015E-03;  9.9706274E+02;  1.2710489E-01; -2.4334590E+03;3; -1.6282463E+00;  0.0000000E+00; -1.7446384E+00;0;  6.9801196E-02;  2.4703896E+04;  0.0000000E+00; -2.3847940E+00;  4.0000000E+04;  0.0000000E+00;  3.9863977E+04;  8.6278237E-02;  0.0000000E+00; -1.6477041E-02;  6.9032461E+03;
  7.5441569E-01;  9.9999998E-03; -3.0063203E-01;6960;  1.3542928E-02;  0.0000000E+00; -3.3558726E-03;  9.9643860E+02;  1.3126996E-01; -2.9505293E+03;3; -1.3862282E+00;  0.0000000E+00; -1.9117852E+00;0;  9.8683588E-02;  2.3149537E+04;  0.0000000E+00;  7.8175712E+00;  4.0000000E+04;  0.0000000E+00;  3.9843910E+04;  1.3226905E-01;  0.0000000E+00; -3.3585466E-02;  1.8246459E+04;
  7.5455487E-01;  9.9999998E-03; -2.9061076E-01;6961;  1.2015270E-02;  0.0000000E+00; -4.2612911E-03;  9.9651031E+02;  1.3130464E-01; -2.8911238E+03;3; -1.5690913E+00;  0.0000000E+00; -1.8612475E+00;0;  9.7216249E-02;  2.3139244E+04;  0.0000000E+00;  4.8090343E+00;  4.0000000E+04;  0.0000000E+00;  3.9844102E+04;  1.2155586E-01;  0.0000000E+00; -2.4339614E-02;  1.1685838E+04;
  7.5466353E-01;  9.9999998E-03; -2.8058824E-01;6962;  1.0745350E-02;  0.0000000E+00; -5.1427265E-03;  9.9659631E+02;  1.3132791E-01; -2.8198667E+03;3; -1.6282613E+00;  0.0000000E+00; -1.8036295E+00;0;  9.2576228E-02;  2.3133252E+04;  0.0000000E+00;  2.5304768E+00;  4.0000000E+04;  0.0000000E+00;  3.9845789E+04;  1.0965774E-01;  0.0000000E+00; -1.7081512E-02;  7.0642202E+03;
  7.6864207E-01;  9.9999998E-03; -3.0072615E-01;7021;  1.7902544E-02;  0.0000000E+00; -5.0630060E-04;  9.9694098E+02;  1.3613868E-01; -2.5343433E+03;3;  7.8140169E-01;  0.0000000E+00; -1.8962069E+00;0;  1.0898946E-01;  2.1558719E+04;  0.0000000E+00;  1.1171270E+01;  4.0000000E+04;  0.0000000E+00;  3.9813898E+04;  1.5500666E-01;  0.0000000E+00; -4.6017196E-02;  2.9297127E+04;
  7.6865053E-01;  9.9999998E-03; -2.9070184E-01;7022;  1.4986898E-02;  0.0000000E+00; -1.5842440E-03;  9.9697589E+02;  1.3614008E-01; -2.5054060E+03;3; -1.7169657E-01;  0.0000000E+00; -1.8208230E+00;0;  1.0929805E-01;  2.1559225E+04;  0.0000000E+00;  7.6259723E+00;  4.0000000E+04;  0.0000000E+00;  3.9813816E+04;  1.4335002E-01;  0.0000000E+00; -3.4051970E-02;  2.0452611E+04;
  7.6863468E-01;  9.9999998E-03; -2.8067836E-01;7023;  1.2635746E-02;  0.0000000E+00; -2.5468317E-03;  9.9703168E+02;  1.3612975E-01; -2.4591851E+03;3; -7.5197822E-01;  0.0000000E+00; -1.8023182E+00;0;  1.0470853E-01;  2.1565057E+04;  0.0000000E+00;  4.6651788E+00;  4.0000000E+04;  0.0000000E+00;  3.9812805E+04;  1.3006735E-01;  0.0000000E+00; -2.5358817E-02;  1.2930436E+04;
  7.8416735E-01;  9.9999998E-03; -3.0083954E-01;7082;  2.8190507E-02;  0.0000000E+00;  1.8322049E-03;  9.9844281E+02;  1.4183947E-01; -1.2900840E+03;3;  7.4120903E+00;  0.0000000E+00; -2.9804602E+00;0;  1.2202331E-01;  1.9931014E+04;  0.0000000E+00;  8.0468683E+00;  4.0000000E+04;  0.0000000E+00;  3.9767098E+04;  1.6207872E-01;  0.0000000E+00; -4.0055405E-02;  2.6747395E+04;
  7.8396094E-01;  9.9999998E-03; -2.9081175E-01;7083;  2.3886148E-02;  0.0000000E+00;  8.9641212E-04;  9.9845941E+02;  1.4175479E-01; -1.2763560E+03;3;  5.9138470E+00;  0.0000000E+00; -2.8112507E+00;0;  1.1914321E-01;  1.9955393E+04;  0.0000000E+00;  5.3750749E+00;  4.0000000E+04;  0.0000000E+00;  3.9767086E+04;  1.5090461E-01;  0.0000000E+00; -3.1761400E-02;  1.8500586E+04;
  7.8370970E-01;  9.9999998E-03; -2.8078747E-01;7084;  2.0079533E-02;  0.0000000E+00;  2.2745819E-04;  9.9844250E+02;  1.4165220E-01; -1.2903308E+03;3;  4.6395340E+00;  0.0000000E+00; -2.6755795E+00;0;  1.0910708E-01;  1.9985000E+04;  0.0000000E+00;  3.2642179E+00;  4.0000000E+04;  0.0000000E+00;  3.9764586E+04;  1.3774070E-01;  0.0000000E+00; -2.8633615E-02;  1.1673864E+04;
  7.9936111E-01;  9.9999998E-03; -3.0094984E-01;7143;  3.9713770E-02;  0.0000000E+00;  2.6380902E-03;  9.9924780E+02;  1.4782555E-01; -6.2319037E+02;3;  1.4309431E+01;  0.0000000E+00; -4.5211167E+00;0;  1.4719391E-01;  1.8382430E+04;  0.0000000E+00;  7.6167269E+00;  4.0000000E+04;  0.0000000E+00;  3.9723938E+04;  1.4803411E-01;  0.0000000E+00; -8.4020098E-04;  2.9108834E+04;
  7.9936564E-01;  9.9999998E-03; -2.9092175E-01;7144;  3.4834441E-02;  0.0000000E+00;  1.8438811E-03;  9.9943701E+02;  1.4780858E-01; -4.6640515E+02;3;  1.3089084E+01;  0.0000000E+00; -4.5086164E+00;0;  1.4113036E-01;  1.8392951E+04;  0.0000000E+00;  4.2333217E+00;  4.0000000E+04;  0.0000000E+00;  3.9722031E+04;  1.3778703E-01;  0.0000000E+00;  3.3433349E-03;  1.8029631E+04;
  7.9918069E-01;  9.9999998E-03; -2.8089681E-01;7145;  3.0185860E-02;  0.0000000E+00;  1.2136321E-03;  9.9953448E+02;  1.4771777E-01; -3.8566693E+02;3;  1.1963373E+01;  0.0000000E+00; -4.5688934E+00;0;  1.2740882E-01;  1.8420510E+04;  0.0000000E+00;  2.0421019E+00;  4.0000000E+04;  0.0000000E+00;  3.9718965E+04;  1.2589063E-01;  0.0000000E+00;  1.5181906E-03;  1.0205201E+04;
  8.1345218E-01;  9.9999998E-03; -3.0104086E-01;7204;  4.5411721E-02;  0.0000000E+00;  5.0104782E-03;  9.9878467E+02;  1.5358491E-01; -1.0068815E+03;3;  1.6457312E+01;  0.0000000E+00; -4.4946294E+00;0;  1.3802074E-01;  1.7014143E+04;  0.0000000E+00;  6.0999532E+00;  4.0000000E+04;  0.0000000E+00;  3.9697215E+04;  1.2209345E-01;  0.0000000E+00;  1.5927291E-02;  2.2517727E+04;
  8.1344199E-01;  9.9999998E-03; -2.9100963E-01;7205;  4.0295780E-02;  0.0000000E+00;  4.0936014E-03;  9.9903705E+02;  1.5355684E-01; -7.9780170E+02;3;  1.5584481E+01;  0.0000000E+00; -4.7308578E+00;0;  1.3381791E-01;  1.7027268E+04;  0.0000000E+00;  3.7510166E+00;  4.0000000E+04;  0.0000000E+00;  3.9695484E+04;  1.1271918E-01;  0.0000000E+00;  2.1098727E-02;  1.4589864E+04;
  8.1332999E-01;  9.9999998E-03; -2.8098100E-01;7206;  3.5466138E-02;  0.0000000E+00;  3.2262711E-03;  9.9919391E+02;  1.5349826E-01; -6.6783057E+02;3;  1.4680367E+01;  0.0000000E+00; -4.9779444E+00;0;  1.2269510E-01;  1.7045371E+04;  0.0000000E+00;  2.2669408E+00;  4.0000000E+04;  0.0000000E+00;  3.9694375E+04;  1.0196330E-01;  0.0000000E+00;  2.0731801E-02;  9.2250703E+03;
  8.2681739E-01;  9.9999998E-03; -2.8104994E-01;7267;  3.7159272E-02;  0.0000000E+00;  7.1023097E-03;  9.9772205E+02;  1.5926099E-01; -1.8872467E+03;3;  1.5461769E+01;  0.0000000E+00; -4.3947382E+00;0;  8.9370303E-02;  1.5791313E+04;  0.0000000E+00;  1.8820462E+00;  4.0000000E+04;  0.0000000E+00;  3.9686617E+04;  7.1222655E-02;  0.0000000E+00;  1.8147649E-02;  4.7115679E+03;
  8.2692510E-01;  9.9999998E-03; -2.9108435E-01;7266;  4.2303994E-02;  0.0000000E+00;  8.0937818E-03;  9.9744733E+02;  1.5932386E-01; -2.1148442E+03;3;  1.6328432E+01;  0.0000000E+00; -4.1048031E+00;0;  9.6544437E-02;  1.5772181E+04;  0.0000000E+00;  2.4819870E+00;  4.0000000E+04;  0.0000000E+00;  3.9685934E+04;  8.0583587E-02;  0.0000000E+00;  1.5960848E-02;  6.3418335E+03;
  8.2701236E-01;  9.9999998E-03; -3.0112004E-01;7265;  4.7785453E-02;  0.0000000E+00;  8.9929746E-03;  9.9713049E+02;  1.5938778E-01; -2.3773047E+03;3;  1.7226583E+01;  0.0000000E+00; -3.9855075E+00;0;  9.9599548E-02;  1.5752435E+04;  0.0000000E+00;  3.4775622E+00;  4.0000000E+04;  0.0000000E+00;  3.9686570E+04;  8.8773213E-02;  0.0000000E+00;  1.0826337E-02;  9.2758994E+03;
  8.4281594E-01;  9.9999998E-03; -3.0121142E-01;7326;  4.8173461E-02;  0.0000000E+00;  1.4986258E-02;  9.9510046E+02;  1.6612498E-01; -4.0591707E+03;3;  1.7811834E+01;  0.0000000E+00; -3.2029252E+00;0;  3.6062926E-02;  1.4459255E+04;  0.0000000E+00; -6.1504114E-01;  4.0000000E+04;  0.0000000E+00;  3.9679191E+04;  4.4024374E-02;  0.0000000E+00; -7.9614483E-03;  1.1491818E+04;
  8.4278858E-01;  9.9999998E-03; -2.9117173E-01;7327;  4.2299580E-02;  0.0000000E+00;  1.4160397E-02;  9.9547424E+02;  1.6606003E-01; -3.7495022E+03;3;  1.6824015E+01;  0.0000000E+00; -3.2657638E+00;0;  3.4921926E-02;  1.4476662E+04;  0.0000000E+00;  3.4062278E-02;  4.0000000E+04;  0.0000000E+00;  3.9679516E+04;  3.7039191E-02;  0.0000000E+00; -2.1172652E-03;  8.1320488E+03;
  8.4262455E-01;  9.9999998E-03; -2.8113064E-01;7328;  3.6956601E-02;  0.0000000E+00;  1.3112210E-02;  9.9585321E+02;  1.6595866E-01; -3.4355374E+03;3;  1.5866584E+01;  0.0000000E+00; -3.3860645E+00;0;  3.2915078E-02;  1.4501103E+04;  0.0000000E+00;  7.8079194E-01;  4.0000000E+04;  0.0000000E+00;  3.9682387E+04;  2.9732028E-02;  0.0000000E+00;  3.1830508E-03;  5.0933076E+03;
  8.5928732E-01;  9.9999998E-03; -2.8123450E-01;7389;  3.5649080E-02;  0.0000000E+00;  2.0163739E-02;  9.9429779E+02;  1.7356195E-01; -4.7241279E+03;3;  1.6058924E+01;  0.0000000E+00; -1.9996940E+00;0; -2.6462626E-02;  1.3242043E+04;  0.0000000E+00; -4.8603365E-01;  4.0000000E+04;  0.0000000E+00;  3.9673695E+04; -1.4312302E-02;  0.0000000E+00; -1.2150325E-02;  1.2895788E+04;
  8.5922456E-01;  9.9999998E-03; -2.9127952E-01;7388;  4.1031409E-02;  0.0000000E+00;  2.1112887E-02;  9.9387640E+02;  1.7359324E-01; -5.0732515E+03;3;  1.7037672E+01;  0.0000000E+00; -1.9603001E+00;0; -2.8758075E-02;  1.3231760E+04;  0.0000000E+00; -2.1183889E+00;  4.0000000E+04;  0.0000000E+00;  3.9668438E+04; -8.7341843E-03;  0.0000000E+00; -2.0023890E-02;  2.0485162E+04;
  8.5904384E-01;  9.9999998E-03; -3.0132183E-01;7387;  4.6945162E-02;  0.0000000E+00;  2.1842457E-02;  9.9349951E+02;  1.7358769E-01; -5.3854878E+03;3;  1.8054579E+01;  0.0000000E+00; -2.0150337E+00;0; -3.0752504E-02;  1.3228499E+04;  0.0000000E+00; -4.1098471E+00;  4.0000000E+04;  0.0000000E+00;  3.9666660E+04; -3.0327626E-03;  0.0000000E+00; -2.7719742E-02;  2.9565576E+04;
  8.7802941E-01;  9.9999998E-03; -2.8136840E-01;7450;  3.3670470E-02;  0.0000000E+00;  2.8343819E-02;  9.9317316E+02;  1.8244183E-01; -5.6558350E+03;3;  1.6222469E+01;  0.0000000E+00; -2.6021463E-01;0; -7.8470886E-02;  1.1986021E+04;  0.0000000E+00; -7.9522848E-01;  4.0000000E+04;  0.0000000E+00;  3.9656848E+04; -5.7627156E-02;  0.0000000E+00; -2.0843733E-02;  1.6915414E+04;
  8.7777084E-01;  9.9999998E-03; -2.9141563E-01;7449;  3.8871504E-02;  0.0000000E+00;  2.9057533E-02;  9.9273938E+02;  1.8239330E-01; -6.0152290E+03;3;  1.7227676E+01;  0.0000000E+00; -3.3051187E-01;0; -8.4158614E-02;  1.1988209E+04;  0.0000000E+00; -2.4019957E+00;  4.0000000E+04;  0.0000000E+00;  3.9650344E+04; -5.5053093E-02;  0.0000000E+00; -2.9105520E-02;  2.5273002E+04;
  8.7736624E-01;  9.9999998E-03; -3.0145961E-01;7448;  4.4477340E-02;  0.0000000E+00;  2.9628506E-02;  9.9235059E+02;  1.8228218E-01; -6.3373403E+03;3;  1.8187258E+01;  0.0000000E+00; -4.3603706E-01;0; -9.0248086E-02;  1.1999497E+04;  0.0000000E+00; -4.7800283E+00;  4.0000000E+04;  0.0000000E+00;  3.9646938E+04; -5.1861625E-02;  0.0000000E+00; -3.8386460E-02;  3.6485750E+04;
  8.9646602E-01;  9.9999998E-03; -3.0161530E-01;7509;  4.1284706E-02;  0.0000000E+00;  3.7566304E-02;  9.9199438E+02;  1.9165573E-01; -6.6324199E+03;3;  1.8595612E+01;  0.0000000E+00;  1.1495763E+00;0; -1.2670018E-01;  1.0869820E+04;  0.0000000E+00; -5.2640057E+00;  4.0000000E+04;  0.0000000E+00;  3.9619684E+04; -9.0168282E-02;  0.0000000E+00; -3.6531899E-02;  4.0945977E+04;
  8.9692128E-01;  9.9999998E-03; -2.9156938E-01;7510;  3.6193993E-02;  0.0000000E+00;  3.7294831E-02;  9.9241144E+02;  1.9179113E-01; -6.2869023E+03;3;  1.7662657E+01;  0.0000000E+00;  1.2400351E+00;0; -1.1581607E-01;  1.0857575E+04;  0.0000000E+00; -2.8961949E+00;  4.0000000E+04;  0.0000000E+00;  3.9624512E+04; -8.7267295E-02;  0.0000000E+00; -2.8548777E-02;  2.8644379E+04;
  8.9715737E-01;  9.9999998E-03; -2.8152168E-01;7511;  3.1380698E-02;  0.0000000E+00;  3.6936902E-02;  9.9286194E+02;  1.9182804E-01; -5.9136831E+03;3;  1.6642569E+01;  0.0000000E+00;  1.2950526E+00;0; -1.0617247E-01;  1.0857429E+04;  0.0000000E+00; -1.3333478E+00;  4.0000000E+04;  0.0000000E+00;  3.9629887E+04; -8.3122827E-02;  0.0000000E+00; -2.3049643E-02;  1.9518297E+04;
  9.1720492E-01;  9.9999998E-03; -3.0178279E-01;7570;  3.6426160E-02;  0.0000000E+00;  4.5389056E-02;  9.9150769E+02;  2.0175572E-01; -7.0355806E+03;3;  1.9092224E+01;  0.0000000E+00;  2.8513618E+00;0; -1.0377485E-01;  9.8095000E+03;  0.0000000E+00; -1.5377944E+00;  4.0000000E+04;  0.0000000E+00;  3.9595785E+04; -8.5301198E-02;  0.0000000E+00; -1.8473646E-02;  1.9143322E+04;
  9.1758293E-01;  9.9999998E-03; -2.9173657E-01;7571;  3.2697786E-02;  0.0000000E+00;  4.5880664E-02;  9.9205719E+02;  2.0185208E-01; -6.5803413E+03;3;  1.8240562E+01;  0.0000000E+00;  2.9284747E+00;0; -8.7857403E-02;  9.8061016E+03;  0.0000000E+00; -9.2040652E-01;  4.0000000E+04;  0.0000000E+00;  3.9598949E+04; -6.8048514E-02;  0.0000000E+00; -1.9808890E-02;  1.5894449E+04;
  9.1775125E-01;  9.9999998E-03; -2.8169331E-01;7572;  2.8766280E-02;  0.0000000E+00;  4.6521850E-02;  9.9256964E+02;  2.0185071E-01; -6.1558169E+03;3;  1.7297272E+01;  0.0000000E+00;  2.8701937E+00;0; -7.5949118E-02;  9.8124902E+03;  0.0000000E+00; -5.4754090E-01;  4.0000000E+04;  0.0000000E+00;  3.9597688E+04; -4.9501494E-02;  0.0000000E+00; -2.6447620E-02;  1.3346798E+04;
  9.4024819E-01;  9.9999998E-03; -3.0196056E-01;7631;  3.0066600E-02;  0.0000000E+00;  4.8060130E-02;  9.9139459E+02;  2.1223772E-01; -7.1292539E+03;3;  1.9492437E+01;  0.0000000E+00;  3.9174845E+00;0;  1.6270980E-01;  8.8650244E+03;  0.0000000E+00;  3.2169137E+00;  4.0000000E+04;  0.0000000E+00;  3.9573621E+04;  7.7277839E-02;  0.0000000E+00;  8.5431956E-02;  3.1044639E+04;
  9.4024128E-01;  9.9999998E-03; -2.9191142E-01;7632;  2.8216057E-02;  0.0000000E+00;  5.1890224E-02;  9.9218219E+02;  2.1216887E-01; -6.4767451E+03;3;  1.8454515E+01;  0.0000000E+00;  3.5297732E+00;0;  1.4218841E-01;  8.8806396E+03;  0.0000000E+00;  1.5491951E+00;  4.0000000E+04;  0.0000000E+00;  3.9576223E+04;  1.1578105E-01;  0.0000000E+00;  2.6407357E-02;  2.1945117E+04;
  9.4015241E-01;  9.9999998E-03; -2.8187263E-01;7633;  2.5530791E-02;  0.0000000E+00;  5.6277711E-02;  9.9284772E+02;  2.1205796E-01; -5.9253667E+03;3;  1.7798796E+01;  0.0000000E+00;  4.9324551E+00;0;  1.2010616E-01;  8.9002383E+03;  0.0000000E+00;  2.9500040E-01;  4.0000000E+04;  0.0000000E+00;  3.9566855E+04;  1.5651405E-01;  0.0000000E+00; -3.6407888E-02;  1.4570045E+04;
  9.6542895E-01;  9.9999998E-03; -3.0213365E-01;7692;  2.4052545E-02;  0.0000000E+00;  4.1229505E-02;  9.9143994E+02;  2.2114865E-01; -7.0915957E+03;3;  2.0192011E+01;  0.0000000E+00;  5.7133088E+00;0;  9.3553585E-01;  8.1633442E+03;  0.0000000E+00;  1.4575366E+00;  4.0000000E+04;  0.0000000E+00;  3.9554254E+04;  6.3816041E-01;  0.0000000E+00;  2.9737544E-01;  4.7076648E+04;
  9.6490282E-01;  9.9999998E-03; -2.9207361E-01;7693;  2.2582876E-02;  0.0000000E+00;  4.4798203E-02;  9.9240100E+02;  2.2094752E-01; -6.2954019E+03;3;  1.7830999E+01;  0.0000000E+00;  1.1782191E+00;0;  9.1933042E-01;  8.1883701E+03;  0.0000000E+00;  2.9372346E-01;  4.0000000E+04;  0.0000000E+00;  3.9566266E+04;  6.8927979E-01;  0.0000000E+00;  2.3005062E-01;  3.5412223E+04;
  9.6438342E-01;  9.9999998E-03; -2.8202534E-01;7694;  2.0981509E-02;  0.0000000E+00;  5.9095595E-02;  9.9325958E+02;  2.2074160E-01; -5.5840908E+03;3;  1.8389380E+01;  0.0000000E+00;  5.4843140E+00;0;  7.4792188E-01;  8.2152285E+03;  0.0000000E+00; -7.0210981E-01;  4.0000000E+04;  0.0000000E+00;  3.9563238E+04;  7.4658304E-01;  0.0000000E+00;  1.3388233E-03;  2.3572170E+04;
  9.9050677E-01;  9.9999998E-03; -3.0226347E-01;7753;  1.4368748E-02;  0.0000000E+00;  4.1590624E-02;  9.8971362E+02;  2.2574683E-01; -8.5216367E+03;3;  2.1903795E+01;  0.0000000E+00;  1.4096862E+01;0;  2.0615647E+00;  7.8003853E+03;  0.0000000E+00; -4.3683786E+00;  4.0000000E+04;  0.0000000E+00;  3.9557043E+04;  1.8083723E+00;  0.0000000E+00;  2.5319242E-01;  2.5900617E+04;
  9.8979414E-01;  9.9999998E-03; -2.9219761E-01;7754;  1.3315136E-02;  0.0000000E+00;  4.0304992E-02;  9.9090875E+02;  2.2558764E-01; -7.5315483E+03;3;  1.7155941E+01;  0.0000000E+00;  4.5284991E+00;0;  2.1177022E+00;  7.8232588E+03;  0.0000000E+00; -3.8999364E+00;  4.0000000E+04;  0.0000000E+00;  3.9573574E+04;  1.8581855E+00;  0.0000000E+00;  2.5951669E-01;  2.3961572E+04;
  9.8908228E-01;  9.9999998E-03; -2.8213951E-01;7755;  1.3944786E-02;  0.0000000E+00;  6.0200773E-02;  9.9195471E+02;  2.2543524E-01; -6.6650522E+03;3;  1.6863241E+01;  0.0000000E+00;  3.1257272E+00;0;  1.8526433E+00;  7.8468286E+03;  0.0000000E+00; -3.3079460E+00;  4.0000000E+04;  0.0000000E+00;  3.9577355E+04;  1.9178463E+00;  0.0000000E+00; -6.5203056E-02;  2.1050467E+04;
  9.8845857E-01;  9.9999998E-03; -2.7211964E-01;7756;  1.3476242E-02;  0.0000000E+00;  7.6537363E-02;  9.9248065E+02;  2.2530003E-01; -6.2293364E+03;3;  2.1080145E+01;  0.0000000E+00;  1.5460769E+01;0;  1.7352414E+00;  7.8697817E+03;  0.0000000E+00; -2.4387600E+00;  4.0000000E+04;  0.0000000E+00;  3.9539473E+04;  1.9951583E+00;  0.0000000E+00; -2.5991696E-01;  1.4793785E+04;
  9.6387076E-01;  9.9999998E-03; -2.7200359E-01;7695;  1.8445279E-02;  0.0000000E+00;  6.8223678E-02;  9.9379510E+02;  2.2053613E-01; -5.1404653E+03;3;  1.7901077E+01;  0.0000000E+00;  8.3076096E+00;0;  6.9784987E-01;  8.2428359E+03;  0.0000000E+00; -1.1070198E+00;  4.0000000E+04;  0.0000000E+00;  3.9533637E+04;  8.1090331E-01;  0.0000000E+00; -1.1305345E-01;  1.3600035E+04;
  1.0126785E+00;  9.9999998E-03; -2.8226620E-01;7816;  6.1402321E-03;  0.0000000E+00;  8.4370844E-02;  9.8958820E+02;  2.2648250E-01; -8.6253525E+03;3;  2.8671240E+01;  0.0000000E+00;  2.2648827E+01;0;  2.9695029E+00;  7.7408618E+03;  0.0000000E+00; -4.1261659E+00;  4.0000000E+04;  0.0000000E+00;  3.9536035E+04;  3.5927007E+00;  0.0000000E+00; -6.2319785E-01;  1.5272208E+04;
  1.0134010E+00;  9.9999998E-03; -2.9229376E-01;7815;  2.5760441E-03;  0.0000000E+00;  6.8368100E-02;  9.8899536E+02;  2.2656389E-01; -9.1164570E+03;3;  2.1315239E+01;  0.0000000E+00;  1.1518012E+01;0;  3.1275535E+00;  7.7220850E+03;  0.0000000E+00; -5.3881431E+00;  4.0000000E+04;  0.0000000E+00;  3.9570008E+04;  3.5462799E+00;  0.0000000E+00; -4.1872638E-01;  1.9765980E+04;
  1.0141376E+00;  9.9999998E-03; -3.0234328E-01;7814; -3.3141393E-03;  0.0000000E+00;  4.6275444E-02;  9.8804401E+02;  2.2666383E-01; -9.9045664E+03;3;  2.5357143E+01;  0.0000000E+00;  1.4954326E+00;0;  3.4737074E+00;  7.7032065E+03;  0.0000000E+00; -6.5058923E+00;  4.0000000E+04;  0.0000000E+00;  3.9578262E+04;  3.5193961E+00;  0.0000000E+00; -4.5688592E-02;  2.1311088E+04;
  1.0338053E+00;  9.9999998E-03; -2.8235868E-01;7877;  1.0922991E-02;  0.0000000E+00;  7.1636580E-02;  9.8925330E+02;  2.2557902E-01; -8.9025664E+03;3; -1.2579070E+02;  0.0000000E+00;  4.6064667E+01;0;  4.4786344E+00;  7.8049194E+03;  0.0000000E+00; -2.4916012E+00;  4.0000000E+04;  0.0000000E+00;  3.9484250E+04;  5.2488079E+00;  0.0000000E+00; -7.7017337E-01;  9.0011045E+03;
  1.0342202E+00;  9.9999998E-03; -2.9238027E-01;7876; -4.4237566E-03;  0.0000000E+00;  6.7940988E-02;  9.8872968E+02;  2.2562519E-01; -9.3363320E+03;3; -6.3963226E+01;  0.0000000E+00;  3.2077358E+01;0;  4.4607053E+00;  7.7885112E+03;  0.0000000E+00; -2.7032094E+00;  4.0000000E+04;  0.0000000E+00;  3.9523727E+04;  5.2132983E+00;  0.0000000E+00; -7.5259322E-01;  1.4237562E+04;
  1.0347614E+00;  9.9999998E-03; -3.0241597E-01;7875; -1.2776975E-02;  0.0000000E+00;  6.1641257E-02;  9.8799066E+02;  2.2569606E-01; -9.9484922E+03;3; -3.7684246E+01;  0.0000000E+00;  1.4157399E+01;0;  4.5470543E+00;  7.7711045E+03;  0.0000000E+00; -2.5074317E+00;  4.0000000E+04;  0.0000000E+00;  3.9552133E+04;  5.1955562E+00;  0.0000000E+00; -6.4850193E-01;  1.8519205E+04;
  1.0546067E+00;  9.9999998E-03; -2.8242666E-01;7938;  1.7766960E-01;  0.0000000E+00;  3.8511228E-02;  9.9149841E+02;  2.2370127E-01; -7.0424487E+03;3; -1.8893755E+02;  0.0000000E+00;  5.4122330E+01;0;  5.8252487E+00;  7.9825532E+03;  0.0000000E+00; -1.3385335E+00;  4.0000000E+04;  0.0000000E+00;  3.9419906E+04;  6.5539513E+00;  0.0000000E+00; -7.2870278E-01;  5.2010000E+03;
  1.0548424E+00;  9.9999998E-03; -2.9245365E-01;7937;  1.4273591E-01;  0.0000000E+00;  4.0971588E-02;  9.9094330E+02;  2.2373576E-01; -7.5022710E+03;3; -1.9777187E+02;  0.0000000E+00;  5.0239182E+01;0;  5.7804608E+00;  7.9676274E+03;  0.0000000E+00; -7.2231275E-01;  4.0000000E+04;  0.0000000E+00;  3.9452254E+04;  6.5464215E+00;  0.0000000E+00; -7.6596057E-01;  1.1532417E+04;
  1.0550600E+00;  9.9999998E-03; -3.0249062E-01;7936;  1.0727453E-01;  0.0000000E+00;  4.1911289E-02;  9.9023566E+02;  2.2379127E-01; -8.0884419E+03;3; -2.0683765E+02;  0.0000000E+00;  4.6749310E+01;0;  5.7900896E+00;  7.9514629E+03;  0.0000000E+00;  4.5445427E-01;  4.0000000E+04;  0.0000000E+00;  3.9480789E+04;  6.5370212E+00;  0.0000000E+00; -7.4693179E-01;  1.9931334E+04;
  1.0759604E+00;  9.9999998E-03; -2.8246388E-01;7999;  4.1211995E-01;  0.0000000E+00; -3.9389655E-03;  9.9520776E+02;  2.2105177E-01; -3.9695149E+03;3; -1.9650023E+02;  0.0000000E+00;  6.0144909E+01;0;  6.6603470E+00;  8.2489668E+03;  0.0000000E+00; -1.7593147E+00;  4.0000000E+04;  0.0000000E+00;  3.9350219E+04;  7.2778840E+00;  0.0000000E+00; -6.1753720E-01;  1.1395873E+04;
  1.0761762E+00;  9.9999998E-03; -2.9249725E-01;7998;  3.7974709E-01;  0.0000000E+00;  2.6448662E-03;  9.9465637E+02;  2.2107542E-01; -4.4262534E+03;3; -2.0807997E+02;  0.0000000E+00;  5.7460560E+01;0;  6.6332889E+00;  8.2357637E+03;  0.0000000E+00; -7.2754008E-01;  4.0000000E+04;  0.0000000E+00;  3.9375703E+04;  7.3218279E+00;  0.0000000E+00; -6.8853903E-01;  1.7838326E+04;
  1.0762708E+00;  9.9999998E-03; -3.0253872E-01;7997;  3.4066653E-01;  0.0000000E+00;  7.2664605E-03;  9.9409845E+02;  2.2111207E-01; -4.8884238E+03;3; -2.2140472E+02;  0.0000000E+00;  5.5062141E+01;0;  6.6421661E+00;  8.2227734E+03;  0.0000000E+00;  7.8925288E-01;  4.0000000E+04;  0.0000000E+00;  3.9402621E+04;  7.3492332E+00;  0.0000000E+00; -7.0706689E-01;  2.7509898E+04;
  1.0982994E+00;  9.9999998E-03; -2.8245446E-01;8060;  6.7144364E-01;  0.0000000E+00; -5.5748940E-02;  9.9959344E+02;  2.1746345E-01; -3.3674185E+02;3; -1.5888847E+02;  0.0000000E+00;  5.7186428E+01;0;  6.7404237E+00;  8.6127842E+03;  0.0000000E+00; -3.4771678E+00;  4.0000000E+04;  0.0000000E+00;  3.9285039E+04;  7.1114497E+00;  0.0000000E+00; -3.7102598E-01;  1.7611199E+04;
  1.0985895E+00;  9.9999998E-03; -2.9249495E-01;8059;  6.5361714E-01;  0.0000000E+00; -4.6784952E-02;  9.9899835E+02;  2.1747708E-01; -8.2963501E+02;3; -1.6901666E+02;  0.0000000E+00;  5.6703976E+01;0;  6.7541327E+00;  8.6002939E+03;  0.0000000E+00; -2.7009985E+00;  4.0000000E+04;  0.0000000E+00;  3.9304406E+04;  7.2080312E+00;  0.0000000E+00; -4.5389864E-01;  2.0707395E+04;
  1.0988103E+00;  9.9999998E-03; -3.0254248E-01;8058;  6.3172382E-01;  0.0000000E+00; -4.0085331E-02;  9.9846533E+02;  2.1749838E-01; -1.2710856E+03;3; -1.8097937E+02;  0.0000000E+00;  5.6290394E+01;0;  6.7930818E+00;  8.5883438E+03;  0.0000000E+00; -1.0002985E+00;  4.0000000E+04;  0.0000000E+00;  3.9329000E+04;  7.2905421E+00;  0.0000000E+00; -4.9746031E-01;  3.0427400E+04;
  1.1223339E+00;  9.9999998E-03; -2.8237021E-01;8121;  9.0041316E-01;  0.0000000E+00; -1.0973747E-01;  1.0039235E+03;  2.1244942E-01;  3.2492566E+03;3; -9.1284111E+01;  0.0000000E+00;  4.3059269E+01;0;  5.9201369E+00;  9.1131299E+03;  0.0000000E+00; -4.2388091E+00;  4.0000000E+04;  0.0000000E+00;  3.9245637E+04;  5.9157524E+00;  0.0000000E+00;  4.3846322E-03;  2.3214949E+04;
  1.1228026E+00;  9.9999998E-03; -2.9241911E-01;8120;  8.9738190E-01;  0.0000000E+00; -1.0098339E-01;  1.0033588E+03;  2.1243319E-01;  2.7815862E+03;3; -9.8057999E+01;  0.0000000E+00;  4.4451691E+01;0;  5.9596300E+00;  9.1047217E+03;  0.0000000E+00; -4.1024418E+00;  4.0000000E+04;  0.0000000E+00;  3.9258254E+04;  6.0195837E+00;  0.0000000E+00; -5.9953921E-02;  2.1626305E+04;
  1.1234329E+00;  9.9999998E-03; -3.0247292E-01;8119;  8.9856905E-01;  0.0000000E+00; -9.4958693E-02;  1.0028793E+03;  2.1240161E-01;  2.3846030E+03;3; -1.0434737E+02;  0.0000000E+00;  4.5072609E+01;0;  6.0001817E+00;  9.0978809E+03;  0.0000000E+00; -2.8365605E+00;  4.0000000E+04;  0.0000000E+00;  3.9278434E+04;  6.0994115E+00;  0.0000000E+00; -9.9229649E-02;  2.3367984E+04;
  1.1456474E+00;  9.9999998E-03; -2.8220639E-01;8182;  1.0424330E+00;  0.0000000E+00; -1.4314570E-01;  1.0061572E+03;  2.0606847E-01;  5.0984751E+03;3; -1.8203068E+01;  0.0000000E+00;  1.8630306E+01;0;  4.4865236E+00;  9.7268789E+03;  0.0000000E+00; -3.2785668E+00;  4.0000000E+04;  0.0000000E+00;  3.9260910E+04;  4.1760745E+00;  0.0000000E+00;  3.1044888E-01;  2.3248227E+04;
  1.1463103E+00;  9.9999998E-03; -2.9226378E-01;8181;  1.0467100E+00;  0.0000000E+00; -1.3617931E-01;  1.0056355E+03;  2.0598882E-01;  4.6663965E+03;3; -2.4271263E+01;  0.0000000E+00;  1.9854700E+01;0;  4.5142150E+00;  9.7260781E+03;  0.0000000E+00; -3.3811910E+00;  4.0000000E+04;  0.0000000E+00;  3.9268613E+04;  4.2449965E+00;  0.0000000E+00;  2.6921862E-01;  2.1677229E+04;
  1.1471634E+00;  9.9999998E-03; -3.0232328E-01;8180;  1.0551610E+00;  0.0000000E+00; -1.3161597E-01;  1.0052098E+03;  2.0588881E-01;  4.3138745E+03;3; -2.7983341E+01;  0.0000000E+00;  2.1125317E+01;0;  4.5255699E+00;  9.7271885E+03;  0.0000000E+00; -2.8836892E+00;  4.0000000E+04;  0.0000000E+00;  3.9285102E+04;  4.2848830E+00;  0.0000000E+00;  2.4068713E-01;  1.8971818E+04;
  1.0122064E+00;  9.9999998E-03; -2.7226362E-01;7817;  5.8561303E-03;  0.0000000E+00;  9.0225555E-02;  9.9002948E+02;  2.2641960E-01; -8.2598145E+03;3;  2.8613716E+01;  0.0000000E+00;  2.8444954E+01;0;  3.0560756E+00;  7.7598208E+03;  0.0000000E+00; -2.8303578E+00;  4.0000000E+04;  0.0000000E+00;  3.9485949E+04;  3.6764505E+00;  0.0000000E+00; -6.2037504E-01;  8.8511855E+03;
  1.0335832E+00;  9.9999998E-03; -2.7234921E-01;7878;  4.1645598E-02;  0.0000000E+00;  7.0314579E-02;  9.8978278E+02;  2.2554703E-01; -8.4639590E+03;3; -1.3319734E+02;  0.0000000E+00;  5.0305397E+01;0;  4.6153316E+00;  7.8213564E+03;  0.0000000E+00; -1.9868357E+00;  4.0000000E+04;  0.0000000E+00;  3.9444281E+04;  5.3034539E+00;  0.0000000E+00; -6.8812221E-01;  3.8986372E+03;
  1.0543038E+00;  9.9999998E-03; -2.7240387E-01;7939;  2.0987828E-01;  0.0000000E+00;  3.2967683E-02;  9.9211407E+02;  2.2368103E-01; -6.5324619E+03;3; -1.8104924E+02;  0.0000000E+00;  5.7943333E+01;0;  5.9284844E+00;  7.9971094E+03;  0.0000000E+00; -1.5146738E+00;  4.0000000E+04;  0.0000000E+00;  3.9395402E+04;  6.5565109E+00;  0.0000000E+00; -6.2802649E-01;  2.9842412E+03;
  1.0756220E+00;  9.9999998E-03; -2.7243057E-01;8000;  4.3714148E-01;  0.0000000E+00; -1.3389306E-02;  9.9593182E+02;  2.2103719E-01; -3.3697954E+03;3; -1.8713312E+02;  0.0000000E+00;  6.1977978E+01;0;  6.7158680E+00;  8.2625596E+03;  0.0000000E+00; -2.1318884E+00;  4.0000000E+04;  0.0000000E+00;  3.9338336E+04;  7.2186170E+00;  0.0000000E+00; -5.0274903E-01;  9.9929102E+03;
  1.0980655E+00;  9.9999998E-03; -2.7241048E-01;8061;  6.8805009E-01;  0.0000000E+00; -6.7501642E-02;  1.0004075E+03;  2.1744645E-01;  3.3748270E+02;3; -1.4949280E+02;  0.0000000E+00;  5.7101696E+01;0;  6.7327809E+00;  8.6259521E+03;  0.0000000E+00; -3.3191991E+00;  4.0000000E+04;  0.0000000E+00;  3.9284109E+04;  6.9983287E+00;  0.0000000E+00; -2.6554787E-01;  1.7615668E+04;
  1.1220748E+00;  9.9999998E-03; -2.7231497E-01;8122;  9.0691900E-01;  0.0000000E+00; -1.2089879E-01;  1.0047280E+03;  2.1244620E-01;  3.9155615E+03;3; -8.2549690E+01;  0.0000000E+00;  4.1596935E+01;0;  5.8564839E+00;  9.1233379E+03;  0.0000000E+00; -3.5489693E+00;  4.0000000E+04;  0.0000000E+00;  3.9253602E+04;  5.7837548E+00;  0.0000000E+00;  7.2729252E-02;  2.3041674E+04;
  1.1451057E+00;  9.9999998E-03; -2.7214134E-01;8183;  1.0400293E+00;  0.0000000E+00; -1.5245987E-01;  1.0068687E+03;  2.0613386E-01;  5.6875029E+03;3; -1.0993028E+01;  0.0000000E+00;  1.7271458E+01;0;  4.4348688E+00;  9.7285244E+03;  0.0000000E+00; -2.6307573E+00;  4.0000000E+04;  0.0000000E+00;  3.9272496E+04;  4.0836210E+00;  0.0000000E+00;  3.5124782E-01;  2.1929334E+04;
  1.1660821E+00;  9.9999998E-03; -2.7194291E-01;8244;  1.0854719E+00;  0.0000000E+00; -1.5535598E-01;  1.0068386E+03;  1.9920950E-01;  5.6615239E+03;3;  4.2399178E+01;  0.0000000E+00; -4.4302320E+00;0;  3.0056307E+00;  1.0401851E+04;  0.0000000E+00; -2.2451353E+00;  4.0000000E+04;  0.0000000E+00;  3.9318391E+04;  2.5416281E+00;  0.0000000E+00;  4.6400264E-01;  1.7853635E+04;
  1.1667365E+00;  9.9999998E-03; -2.8201827E-01;8243;  1.0939245E+00;  0.0000000E+00; -1.4793269E-01;  1.0062132E+03;  1.9908974E-01;  5.1437529E+03;3;  3.6488136E+01;  0.0000000E+00; -3.2298722E+00;0;  3.0191371E+00;  1.0407696E+04;  0.0000000E+00; -2.9171038E+00;  4.0000000E+04;  0.0000000E+00;  3.9305246E+04;  2.5946636E+00;  0.0000000E+00;  4.2447343E-01;  2.0315695E+04;
  1.1674985E+00;  9.9999998E-03; -2.9208428E-01;8242;  1.1028222E+00;  0.0000000E+00; -1.4220223E-01;  1.0056974E+03;  1.9895382E-01;  4.7167778E+03;3;  3.1595030E+01;  0.0000000E+00; -2.2002723E+00;0;  3.0060022E+00;  1.0414095E+04;  0.0000000E+00; -3.1296058E+00;  4.0000000E+04;  0.0000000E+00;  3.9309070E+04;  2.6287372E+00;  0.0000000E+00;  3.7726501E-01;  1.9980951E+04;
  1.1684451E+00;  9.9999998E-03; -3.0214903E-01;8241;  1.1136386E+00;  0.0000000E+00; -1.3883500E-01;  1.0052358E+03;  1.9879554E-01;  4.3345068E+03;3;  2.7302704E+01;  0.0000000E+00; -1.2899264E+00;0;  2.9835176E+00;  1.0422328E+04;  0.0000000E+00; -2.8760569E+00;  4.0000000E+04;  0.0000000E+00;  3.9322762E+04;  2.6381667E+00;  0.0000000E+00;  3.4535092E-01;  1.7810039E+04;
  1.1860169E+00;  9.9999998E-03; -2.8184679E-01;8304;  1.1034096E+00;  0.0000000E+00; -1.3612454E-01;  1.0051086E+03;  1.9199790E-01;  4.2282524E+03;3;  5.0066479E+01;  0.0000000E+00; -1.5431087E+01;0;  1.8645861E+00;  1.1147187E+04;  0.0000000E+00; -4.2432117E+00;  4.0000000E+04;  0.0000000E+00;  3.9351195E+04;  1.4204258E+00;  0.0000000E+00;  4.4416034E-01;  1.9575943E+04;
  1.1864697E+00;  9.9999998E-03; -2.9192325E-01;8303;  1.1152434E+00;  0.0000000E+00; -1.3230225E-01;  1.0045892E+03;  1.9192927E-01;  3.7983372E+03;3;  4.6301907E+01;  0.0000000E+00; -1.4072742E+01;0;  1.8416100E+00;  1.1148186E+04;  0.0000000E+00; -4.4352107E+00;  4.0000000E+04;  0.0000000E+00;  3.9350188E+04;  1.4499769E+00;  0.0000000E+00;  3.9163300E-01;  2.0202420E+04;
  1.1871192E+00;  9.9999998E-03; -3.0199501E-01;8302;  1.1283288E+00;  0.0000000E+00; -1.3021886E-01;  1.0041093E+03;  1.9184779E-01;  3.4010759E+03;3;  4.3408394E+01;  0.0000000E+00; -1.3792910E+01;0;  1.8135359E+00;  1.1150037E+04;  0.0000000E+00; -3.9880002E+00;  4.0000000E+04;  0.0000000E+00;  3.9360473E+04;  1.4610322E+00;  0.0000000E+00;  3.5250384E-01;  1.8495275E+04;
  1.2035600E+00;  9.9999998E-03; -2.8170758E-01;8365;  1.1034796E+00;  0.0000000E+00; -1.1834090E-01;  1.0034752E+03;  1.8514983E-01;  2.8754824E+03;3;  5.3626183E+01;  0.0000000E+00; -2.2651432E+01;0;  1.1030509E+00;  1.1928270E+04;  0.0000000E+00; -5.9258704E+00;  4.0000000E+04;  0.0000000E+00;  3.9390762E+04;  6.5302014E-01;  0.0000000E+00;  4.5003083E-01;  2.0092092E+04;
  1.2040418E+00;  9.9999998E-03; -2.9179037E-01;8364;  1.1164583E+00;  0.0000000E+00; -1.1514331E-01;  1.0029863E+03;  1.8507746E-01;  2.4709473E+03;3;  5.1963413E+01;  0.0000000E+00; -2.2732935E+01;0;  1.0434014E+00;  1.1931827E+04;  0.0000000E+00; -6.0808096E+00;  4.0000000E+04;  0.0000000E+00;  3.9385074E+04;  6.6485065E-01;  0.0000000E+00;  3.7855071E-01;  2.1245357E+04;
  1.2047750E+00;  9.9999998E-03; -3.0186564E-01;8363;  1.1304970E+00;  0.0000000E+00; -1.1330979E-01;  1.0024960E+03;  1.8497899E-01;  2.0652256E+03;3;  5.0270138E+01;  0.0000000E+00; -2.2742113E+01;0;  9.8265725E-01;  1.1937271E+04;  0.0000000E+00; -5.3100638E+00;  4.0000000E+04;  0.0000000E+00;  3.9391598E+04;  6.6239738E-01;  0.0000000E+00;  3.2025987E-01;  1.9721949E+04;
  1.2207940E+00;  9.9999998E-03; -2.8159505E-01;8426;  1.1005762E+00;  0.0000000E+00; -9.8123558E-02;  1.0015930E+03;  1.7832889E-01;  1.3176025E+03;3;  5.5923286E+01;  0.0000000E+00; -2.6421083E+01;0;  6.2905359E-01;  1.2790002E+04;  0.0000000E+00; -7.5520587E+00;  4.0000000E+04;  0.0000000E+00;  3.9426723E+04;  1.5894243E-01;  0.0000000E+00;  4.7011116E-01;  2.1167758E+04;
  1.2214929E+00;  9.9999998E-03; -2.9168308E-01;8425;  1.1137004E+00;  0.0000000E+00; -9.4610408E-02;  1.0010494E+03;  1.7820296E-01;  8.6796802E+02;3;  5.4229561E+01;  0.0000000E+00; -2.6752411E+01;0;  5.3260303E-01;  1.2802568E+04;  0.0000000E+00; -7.3183832E+00;  4.0000000E+04;  0.0000000E+00;  3.9414035E+04;  1.5598881E-01;  0.0000000E+00;  3.7661418E-01;  2.1350146E+04;
  1.2224573E+00;  9.9999998E-03; -3.0176064E-01;8424;  1.1275272E+00;  0.0000000E+00; -9.2280060E-02;  1.0004525E+03;  1.7803818E-01;  3.7417459E+02;3;  5.2886169E+01;  0.0000000E+00; -2.6862337E+01;0;  4.3864384E-01;  1.2817054E+04;  0.0000000E+00; -5.2758799E+00;  4.0000000E+04;  0.0000000E+00;  3.9415934E+04;  1.4458919E-01;  0.0000000E+00;  2.9405466E-01;  1.6811084E+04;
  1.2379304E+00;  9.9999998E-03; -2.8150967E-01;8487;  1.0959636E+00;  0.0000000E+00; -7.7258043E-02;  9.9961029E+02;  1.7158382E-01; -3.2217166E+02;3;  5.6945023E+01;  0.0000000E+00; -2.9488247E+01;0;  3.6721522E-01;  1.3742276E+04;  0.0000000E+00; -9.6399031E+00;  4.0000000E+04;  0.0000000E+00;  3.9460473E+04; -1.4079994E-01;  0.0000000E+00;  5.0801516E-01;  2.4483148E+04;
  1.2387784E+00;  9.9999998E-03; -2.9160291E-01;8486;  1.1089927E+00;  0.0000000E+00; -7.3119409E-02;  9.9891638E+02;  1.7141798E-01; -8.9582782E+02;3;  5.5960041E+01;  0.0000000E+00; -3.0055403E+01;0;  2.4400662E-01;  1.3761926E+04;  0.0000000E+00; -8.2607565E+00;  4.0000000E+04;  0.0000000E+00;  3.9439715E+04; -1.5024085E-01;  0.0000000E+00;  3.9424747E-01;  2.1150262E+04;
  1.2399138E+00;  9.9999998E-03; -3.0168277E-01;8485;  1.1224970E+00;  0.0000000E+00; -7.0382133E-02;  9.9808575E+02;  1.7120756E-01; -1.5824724E+03;3;  5.5028339E+01;  0.0000000E+00; -2.9967875E+01;0;  1.2939133E-01;  1.3782436E+04;  0.0000000E+00; -3.2872958E+00;  4.0000000E+04;  0.0000000E+00;  3.9436395E+04; -1.6368429E-01;  0.0000000E+00;  2.9307562E-01;  9.0682432E+03;
  1.2544602E+00;  9.9999998E-03; -2.8145337E-01;8548;  1.0899652E+00;  0.0000000E+00; -5.7449274E-02;  9.9785938E+02;  1.6522157E-01; -1.7686760E+03;3;  5.8937473E+01;  0.0000000E+00; -3.0777321E+01;0;  2.4551168E-01;  1.4754197E+04;  0.0000000E+00; -1.1487978E+01;  4.0000000E+04;  0.0000000E+00;  3.9490051E+04; -3.1413010E-01;  0.0000000E+00;  5.5964178E-01;  2.8680361E+04;
  1.2554848E+00;  9.9999998E-03; -2.9155025E-01;8547;  1.1026189E+00;  0.0000000E+00; -5.2541122E-02;  9.9692841E+02;  1.6501676E-01; -2.5377668E+03;3;  5.8082115E+01;  0.0000000E+00; -3.1012148E+01;0;  1.0271201E-01;  1.4779823E+04;  0.0000000E+00; -8.4863319E+00;  4.0000000E+04;  0.0000000E+00;  3.9462598E+04; -3.2802981E-01;  0.0000000E+00;  4.3074182E-01;  2.0750604E+04;
  1.2566969E+00;  9.9999998E-03; -3.0163166E-01;8546;  1.1155895E+00;  0.0000000E+00; -4.9557630E-02;  9.9577539E+02;  1.6479035E-01; -3.4901958E+03;3;  5.7588707E+01;  0.0000000E+00; -3.0989599E+01;0; -2.6074469E-02;  1.4799725E+04;  0.0000000E+00;  1.0003078E+00;  4.0000000E+04;  0.0000000E+00;  3.9454398E+04; -3.4163064E-01;  0.0000000E+00;  3.1555617E-01;  4.6429385E+03;
  1.2704480E+00;  9.9999998E-03; -2.8142267E-01;8609;  1.0824467E+00;  0.0000000E+00; -3.9251447E-02;  9.9627496E+02;  1.5923402E-01; -3.0755237E+03;3;  6.1379704E+01;  0.0000000E+00; -3.0481911E+01;0;  2.0107985E-01;  1.5823382E+04;  0.0000000E+00; -1.5035972E+01;  4.0000000E+04;  0.0000000E+00;  3.9516840E+04; -4.1914606E-01;  0.0000000E+00;  6.2022591E-01;  3.7142059E+04;
  1.2715479E+00;  9.9999998E-03; -2.9152110E-01;8608;  1.0946804E+00;  0.0000000E+00; -3.3914305E-02;  9.9504474E+02;  1.5901855E-01; -4.0909673E+03;3;  6.0696758E+01;  0.0000000E+00; -3.2026047E+01;0;  4.6531647E-02;  1.5847811E+04;  0.0000000E+00; -1.0025570E+01;  4.0000000E+04;  0.0000000E+00;  3.9485047E+04; -4.3627957E-01;  0.0000000E+00;  4.8281121E-01;  2.4316561E+04;
  1.2727120E+00;  9.9999998E-03; -3.0160263E-01;8607;  1.1071193E+00;  0.0000000E+00; -3.0867076E-02;  9.9349268E+02;  1.5880895E-01; -5.3720332E+03;3;  6.0371826E+01;  0.0000000E+00; -3.2778824E+01;0; -9.3234688E-02;  1.5858196E+04;  0.0000000E+00;  5.6886206E+00;  4.0000000E+04;  0.0000000E+00;  3.9474148E+04; -4.4981372E-01;  0.0000000E+00;  3.5657904E-01;  1.4444967E+04;
  1.2858964E+00;  9.9999998E-03; -2.8141257E-01;8670;  1.0734965E+00;  0.0000000E+00; -2.3322064E-02;  9.9479230E+02;  1.5363815E-01; -4.2958257E+03;3;  6.3467812E+01;  0.0000000E+00; -3.0571661E+01;0;  2.0208547E-01;  1.6940443E+04;  0.0000000E+00; -2.0797159E+01;  4.0000000E+04;  0.0000000E+00;  3.9541789E+04; -4.8619762E-01;  0.0000000E+00;  6.8828309E-01;  4.8717512E+04;
  1.2871355E+00;  9.9999998E-03; -2.9150960E-01;8669;  1.0851609E+00;  0.0000000E+00; -1.8646868E-02;  9.9309314E+02;  1.5341087E-01; -5.6969873E+03;3;  6.3075104E+01;  0.0000000E+00; -2.7753141E+01;0;  6.0400665E-02;  1.6958371E+04;  0.0000000E+00; -1.3534591E+01;  4.0000000E+04;  0.0000000E+00;  3.9510219E+04; -5.0710738E-01;  0.0000000E+00;  5.6750804E-01;  3.1747041E+04;
  1.2881954E+00;  9.9999998E-03; -3.0158943E-01;8668;  1.0969903E+00;  0.0000000E+00; -1.5104473E-02;  9.9108307E+02;  1.5323892E-01; -7.3544170E+03;3;  6.3291542E+01;  0.0000000E+00; -2.9861898E+01;0; -9.6078277E-02;  1.6950682E+04;  0.0000000E+00;  1.1160291E+01;  4.0000000E+04;  0.0000000E+00;  3.9498508E+04; -5.2087921E-01;  0.0000000E+00;  4.2480093E-01;  2.5316449E+04;
  1.3005445E+00;  9.9999998E-03; -2.8142208E-01;8731;  1.0631614E+00;  0.0000000E+00; -8.5619660E-03;  9.9355408E+02;  1.4853945E-01; -5.3116172E+03;3;  6.6454498E+01;  0.0000000E+00; -3.5847023E+01;0;  2.0711172E-01;  1.8075621E+04;  0.0000000E+00; -2.6141600E+01;  4.0000000E+04;  0.0000000E+00;  3.9563738E+04; -5.2577937E-01;  0.0000000E+00;  7.3289108E-01;  5.6004066E+04;
  1.3019078E+00;  9.9999998E-03; -2.9151490E-01;8730;  1.0743525E+00;  0.0000000E+00; -7.4297599E-03;  9.9127216E+02;  1.4831233E-01; -7.1911680E+03;3;  6.5333832E+01;  0.0000000E+00; -2.2710926E+01;0;  1.2715393E-01;  1.8078438E+04;  0.0000000E+00; -1.6589806E+01;  4.0000000E+04;  0.0000000E+00;  3.9536312E+04; -5.5065221E-01;  0.0000000E+00;  6.7780614E-01;  3.6403355E+04;
  1.3026266E+00;  9.9999998E-03; -3.0159399E-01;8729;  1.0857290E+00;  0.0000000E+00; -3.4455000E-03;  9.8910663E+02;  1.4822339E-01; -8.9748623E+03;3;  6.5647484E+01;  0.0000000E+00; -2.5663877E+01;0; -4.6237409E-02;  1.8047426E+04;  0.0000000E+00;  1.8414896E+01;  4.0000000E+04;  0.0000000E+00;  3.9521875E+04; -5.6494606E-01;  0.0000000E+00;  5.1870865E-01;  3.8607730E+04;
  1.3145759E+00;  9.9999998E-03; -2.8144711E-01;8792;  1.0513312E+00;  0.0000000E+00;  7.4926461E-03;  9.9253369E+02;  1.4392808E-01; -6.1447393E+03;3;  6.9372925E+01;  0.0000000E+00; -4.4058525E+01;0;  1.7275858E-01;  1.9212963E+04;  0.0000000E+00; -2.8548847E+01;  4.0000000E+04;  0.0000000E+00;  3.9583051E+04; -5.4184508E-01;  0.0000000E+00;  7.1460366E-01;  5.4676211E+04;
  1.3160431E+00;  9.9999998E-03; -3.0161649E-01;8790;  1.0738370E+00;  0.0000000E+00;  3.9566220E-03;  9.8815417E+02;  1.4375106E-01; -9.7476270E+03;3;  6.8527641E+01;  0.0000000E+00; -2.2168339E+01;0;  5.0533056E-02;  1.9152107E+04;  0.0000000E+00;  2.8185562E+01;  4.0000000E+04;  0.0000000E+00;  3.9538004E+04; -5.8698004E-01;  0.0000000E+00;  6.3751310E-01;  5.4573160E+04;
  1.3159232E+00;  9.9999998E-03; -2.9153451E-01;8791;  1.0626279E+00;  0.0000000E+00;  1.3708017E-03;  9.8974176E+02;  1.4373155E-01; -8.4413584E+03;3;  6.8308250E+01;  0.0000000E+00; -2.5955648E+01;0;  2.0766616E-01;  1.9192299E+04;  0.0000000E+00; -1.5872170E+01;  4.0000000E+04;  0.0000000E+00;  3.9561156E+04; -5.7046163E-01;  0.0000000E+00;  7.7812779E-01;  3.2532975E+04;
  1.3280295E+00;  9.9999998E-03; -2.8148821E-01;8853;  1.0389072E+00;  0.0000000E+00;  2.4274673E-02;  9.9183435E+02;  1.3982572E-01; -6.7104395E+03;3;  7.0857437E+01;  0.0000000E+00; -5.2617558E+01;0;  1.0354006E-01;  2.0328279E+04;  0.0000000E+00; -2.6242537E+01;  4.0000000E+04;  0.0000000E+00;  3.9595602E+04; -5.3299570E-01;  0.0000000E+00;  6.3653576E-01;  4.4917359E+04;
  1.3286132E+00;  9.9999998E-03; -3.0165905E-01;8851;  1.0612471E+00;  0.0000000E+00;  9.7838072E-03;  9.8869232E+02;  1.3979751E-01; -9.2918418E+03;3;  7.0412415E+01;  0.0000000E+00; -2.4440983E+01;0;  1.4410508E-01;  2.0266758E+04;  0.0000000E+00;  3.6779293E+01;  4.0000000E+04;  0.0000000E+00;  3.9539430E+04; -5.9007210E-01;  0.0000000E+00;  7.3417717E-01;  6.5328656E+04;
  1.3291769E+00;  9.9999998E-03; -2.9156920E-01;8852;  1.0498583E+00;  0.0000000E+00;  1.1543930E-02;  9.8889471E+02;  1.3967805E-01; -9.1249316E+03;3;  7.1528831E+01;  0.0000000E+00; -3.5243629E+01;0;  2.3466694E-01;  2.0286662E+04;  0.0000000E+00; -9.7337494E+00;  4.0000000E+04;  0.0000000E+00;  3.9579902E+04; -5.6776673E-01;  0.0000000E+00;  8.0243367E-01;  2.1211281E+04;
  1.3412302E+00;  9.9999998E-03; -2.8154480E-01;8913;  1.0264699E+00;  0.0000000E+00;  4.2226445E-02;  9.9099799E+02;  1.3615172E-01; -7.3848271E+03;3;  7.1229614E+01;  0.0000000E+00; -5.7422344E+01;0; -4.3492913E-03;  2.1407258E+04;  0.0000000E+00; -2.1882692E+01;  4.0000000E+04;  0.0000000E+00;  3.9600805E+04; -4.9576926E-01;  0.0000000E+00;  4.9141997E-01;  3.4481371E+04;
  1.3419977E+00;  9.9999998E-03; -2.9161891E-01;8912;  1.0365455E+00;  0.0000000E+00;  2.5027575E-02;  9.8842023E+02;  1.3606852E-01; -9.4983965E+03;3;  7.3560951E+01;  0.0000000E+00; -4.6121193E+01;0;  1.8087679E-01;  2.1354729E+04;  0.0000000E+00;  3.4683788E-01;  4.0000000E+04;  0.0000000E+00;  3.9590418E+04; -5.4132682E-01;  0.0000000E+00;  7.2220361E-01;  1.4988735E+04;
  1.3541383E+00;  9.9999998E-03; -2.8161544E-01;8972;  1.0141982E+00;  0.0000000E+00;  5.7564553E-02;  9.9012299E+02;  1.3287069E-01; -8.0858877E+03;3;  7.1170647E+01;  0.0000000E+00; -5.8832497E+01;0; -9.4090760E-02;  2.2443910E+04;  0.0000000E+00; -1.5873775E+01;  4.0000000E+04;  0.0000000E+00;  3.9598918E+04; -4.2929620E-01;  0.0000000E+00;  3.3520544E-01;  2.5033111E+04;
  1.3544053E+00;  9.9999998E-03; -2.9168785E-01;8971;  1.0230585E+00;  0.0000000E+00;  3.9867148E-02;  9.8845343E+02;  1.3285685E-01; -9.4522100E+03;3;  7.4324272E+01;  0.0000000E+00; -5.4612999E+01;0;  8.0447137E-02;  2.2399268E+04;  0.0000000E+00;  1.1987946E+01;  4.0000000E+04;  0.0000000E+00;  3.9585785E+04; -4.9133593E-01;  0.0000000E+00;  5.7178307E-01;  2.3904695E+04;
  1.3664507E+00;  9.9999998E-03; -2.9177868E-01;9030;  1.0090740E+00;  0.0000000E+00;  5.4753829E-02;  9.8914050E+02;  1.2999052E-01; -8.8691641E+03;3;  7.4779922E+01;  0.0000000E+00; -5.6905609E+01;0; -4.3933600E-02;  2.3432250E+04;  0.0000000E+00;  2.1882732E+01;  4.0000000E+04;  0.0000000E+00;  3.9561457E+04; -4.2275304E-01;  0.0000000E+00;  3.7881944E-01;  3.2767947E+04;
  1.3666848E+00;  9.9999998E-03; -2.8170329E-01;9031;  1.0020361E+00;  0.0000000E+00;  7.0813306E-02;  9.8949066E+02;  1.2995449E-01; -8.5827451E+03;3;  7.0287453E+01;  0.0000000E+00; -5.7362003E+01;0; -1.7460878E-01;  2.3442686E+04;  0.0000000E+00; -8.0820818E+00;  4.0000000E+04;  0.0000000E+00;  3.9585219E+04; -3.3742112E-01;  0.0000000E+00;  1.6281234E-01;  1.7630592E+04;
  1.3782744E+00;  9.9999998E-03; -2.9188961E-01;9089;  9.9438584E-01;  0.0000000E+00;  6.8157688E-02;  9.9035681E+02;  1.2742090E-01; -7.8545342E+03;3;  7.5222931E+01;  0.0000000E+00; -5.3586300E+01;0; -1.6777226E-01;  2.4457475E+04;  0.0000000E+00;  2.7549906E+01;  4.0000000E+04;  0.0000000E+00;  3.9519855E+04; -3.4232333E-01;  0.0000000E+00;  1.7455107E-01;  3.4436328E+04;
  1.3788735E+00;  9.9999998E-03; -2.8181121E-01;9090;  9.8955810E-01;  0.0000000E+00;  8.1599958E-02;  9.8936664E+02;  1.2736699E-01; -8.6597344E+03;3;  6.9176414E+01;  0.0000000E+00; -5.1189529E+01;0; -2.4116020E-01;  2.4416625E+04;  0.0000000E+00;  7.2890478E-01;  4.0000000E+04;  0.0000000E+00;  3.9554934E+04; -2.2887170E-01;  0.0000000E+00; -1.2288489E-02;  1.5092326E+04;
  1.3907814E+00;  9.9999998E-03; -2.8193769E-01;9148;  9.7715271E-01;  0.0000000E+00;  8.8730603E-02;  9.8982422E+02;  1.2507208E-01; -8.2601885E+03;3;  6.8081169E+01;  0.0000000E+00; -4.0003567E+01;0; -2.7357268E-01;  2.5368715E+04;  0.0000000E+00;  8.5783987E+00;  4.0000000E+04;  0.0000000E+00;  3.9509547E+04; -1.1167902E-01;  0.0000000E+00; -1.6189367E-01;  1.5908583E+04;
  1.4024844E+00;  9.9999998E-03; -2.8207967E-01;9205;  9.6489167E-01;  0.0000000E+00;  9.0524316E-02;  9.9081909E+02;  1.2304057E-01; -7.4245542E+03;3;  6.7126221E+01;  0.0000000E+00; -2.4441980E+01;0; -2.4607423E-01;  2.6295416E+04;  0.0000000E+00;  1.3454113E+01;  4.0000000E+04;  0.0000000E+00;  3.9452328E+04;  3.2476189E-03;  0.0000000E+00; -2.4932185E-01;  1.4233165E+04;
  1.4140719E+00;  9.9999998E-03; -2.8223437E-01;9262;  9.5191282E-01;  0.0000000E+00;  8.6838014E-02;  9.9204175E+02;  1.2124690E-01; -6.4075933E+03;3;  6.5892593E+01;  0.0000000E+00; -9.5153742E+00;0; -1.7220780E-01;  2.7180832E+04;  0.0000000E+00;  1.5161921E+01;  4.0000000E+04;  0.0000000E+00;  3.9387305E+04;  9.5382720E-02;  0.0000000E+00; -2.6759052E-01;  9.2454561E+03;
  1.4376519E+00;  9.9999998E-03; -2.7250543E-01;9374;  9.3534124E-01;  0.0000000E+00;  6.4538158E-02;  9.9284436E+02;  1.1827288E-01; -5.6961597E+03;3;  5.4435490E+01;  0.0000000E+00;  2.9118986E+01;0;  2.6562482E-01;  2.8685281E+04;  0.0000000E+00;  9.2629728E+00;  4.0000000E+04;  0.0000000E+00;  3.9283609E+04;  4.1623166E-01;  0.0000000E+00; -1.5060684E-01;  2.0200997E+03;
  1.4261962E+00;  9.9999998E-03; -2.7233207E-01;9319;  9.4629574E-01;  0.0000000E+00;  8.0262125E-02;  9.9170258E+02;  1.1965036E-01; -6.6447026E+03;3;  5.5746925E+01;  0.0000000E+00;  1.2843975E+01;0;  1.1063552E-01;  2.7922725E+04;  0.0000000E+00;  6.1196055E+00;  4.0000000E+04;  0.0000000E+00;  3.9351750E+04;  4.0356159E-01;  0.0000000E+00; -2.9292607E-01;  5.1876943E+03;
  1.4146276E+00;  9.9999998E-03; -2.7216542E-01;9263;  9.5640874E-01;  0.0000000E+00;  9.0707839E-02;  9.9074329E+02;  1.2122341E-01; -7.4513701E+03;3;  5.6025017E+01;  0.0000000E+00; -3.7495742E+00;0; -3.2347262E-02;  2.7110494E+04;  0.0000000E+00;  4.5978079E+00;  4.0000000E+04;  0.0000000E+00;  3.9416660E+04;  3.1984258E-01;  0.0000000E+00; -3.5218984E-01;  9.8206973E+03;
  1.4029510E+00;  9.9999998E-03; -2.7200902E-01;9206;  9.6624523E-01;  0.0000000E+00;  9.6228488E-02;  9.8993781E+02;  1.2301611E-01; -8.1359380E+03;3;  5.8275986E+01;  0.0000000E+00; -1.8624043E+01;0; -1.4601679E-01;  2.6246092E+04;  0.0000000E+00;  1.8827055E+00;  4.0000000E+04;  0.0000000E+00;  3.9475793E+04;  1.9399197E-01;  0.0000000E+00; -3.4000877E-01;  1.3146852E+04;
  7.9365016E-04;  9.9999998E-03; -2.6982379E-01;2450;  5.1757209E-03;  0.0000000E+00;  1.6498566E-03;  9.9318195E+02;  1.0000000E-01; -5.6486304E+03;3;  4.0601124E+01;  0.0000000E+00;  3.2504868E+01;0;  2.7436912E-02;  3.9455203E+04;  0.0000000E+00; -4.8609450E-01;  4.0000000E+04;  0.0000000E+00;  4.0000887E+04;  2.5041386E-02;  0.0000000E+00;  2.3955265E-03;  9.7797961E+02;
  1.1656147E-03;  9.9999998E-03; -2.5983056E-01;2451;  6.1640195E-03;  0.0000000E+00;  1.5063989E-03;  9.9198273E+02;  1.0000000E-01; -6.6421826E+03;3;  5.0396175E+01;  0.0000000E+00;  3.0491165E+01;0;  2.9527830E-02;  3.9355391E+04;  0.0000000E+00; -5.3495765E-01;  4.0000000E+04;  0.0000000E+00;  4.0007273E+04;  2.7954308E-02;  0.0000000E+00;  1.5735219E-03;  1.8145771E+03;
  1.5273340E-03;  9.9999998E-03; -2.4985032E-01;2452;  6.9958558E-03;  0.0000000E+00;  1.3179948E-03;  9.9077960E+02;  1.0000000E-01; -7.6389443E+03;3;  6.0308117E+01;  0.0000000E+00;  2.8522039E+01;0;  3.1185808E-02;  3.9256859E+04;  0.0000000E+00; -5.7951844E-01;  4.0000000E+04;  0.0000000E+00;  4.0013855E+04;  3.0417131E-02;  0.0000000E+00;  7.6867710E-04;  2.5521399E+03;
  1.8653373E-03;  9.9999998E-03; -2.3987202E-01;2453;  7.6527447E-03;  0.0000000E+00;  1.1193758E-03;  9.8960754E+02;  1.0000000E-01; -8.6099297E+03;3;  6.9498215E+01;  0.0000000E+00;  2.6426146E+01;0;  3.2413606E-02;  3.9163188E+04;  0.0000000E+00; -6.1432803E-01;  4.0000000E+04;  0.0000000E+00;  4.0016160E+04;  3.2362051E-02;  0.0000000E+00;  5.1555457E-05;  3.0531724E+03;
  2.1774594E-03;  9.9999998E-03; -2.2989203E-01;2454;  8.1281038E-03;  0.0000000E+00;  9.2961168E-04;  9.8850793E+02;  1.0000000E-01; -9.5209648E+03;3;  7.7324608E+01;  0.0000000E+00;  2.3995356E+01;0;  3.3236373E-02;  3.9077531E+04;  0.0000000E+00; -6.3291830E-01;  4.0000000E+04;  0.0000000E+00;  4.0017770E+04;  3.3771507E-02;  0.0000000E+00; -5.3513248E-04;  3.2934626E+03;
  2.4539474E-03;  9.9999998E-03; -2.1990941E-01;2455;  8.4334640E-03;  0.0000000E+00;  7.6213561E-04;  9.8751459E+02;  1.0000000E-01; -1.0343905E+04;3;  8.3462486E+01;  0.0000000E+00;  2.1189936E+01;0;  3.3704508E-02;  3.9001707E+04;  0.0000000E+00; -6.2986159E-01;  4.0000000E+04;  0.0000000E+00;  4.0017414E+04;  3.4679510E-02;  0.0000000E+00; -9.7500114E-04;  3.3037598E+03;
  2.6863224E-03;  9.9999998E-03; -2.0992483E-01;2456;  8.5956315E-03;  0.0000000E+00;  6.2742230E-04;  9.8664655E+02;  1.0000000E-01; -1.1063095E+04;3;  8.7905869E+01;  0.0000000E+00;  1.8145853E+01;0;  3.3887085E-02;  3.8936676E+04;  0.0000000E+00; -6.0287207E-01;  4.0000000E+04;  0.0000000E+00;  4.0015555E+04;  3.5159998E-02;  0.0000000E+00; -1.2729145E-03;  3.1439343E+03;
  2.8723907E-03;  9.9999998E-03; -1.9993842E-01;2457;  8.6523890E-03;  0.0000000E+00;  5.3041748E-04;  9.8591504E+02;  1.0000000E-01; -1.1669103E+04;3;  9.0829605E+01;  0.0000000E+00;  1.5090043E+01;0;  3.3862624E-02;  3.8883176E+04;  0.0000000E+00; -5.5356067E-01;  4.0000000E+04;  0.0000000E+00;  4.0013078E+04;  3.5311539E-02;  0.0000000E+00; -1.4489144E-03;  2.8819124E+03;
  3.0155340E-03;  9.9999998E-03; -1.8995073E-01;2458;  8.6438162E-03;  0.0000000E+00;  4.7016589E-04;  9.8532922E+02;  1.0000000E-01; -1.2154471E+04;3;  9.2451988E+01;  0.0000000E+00;  1.2244820E+01;0;  3.3711195E-02;  3.8840480E+04;  0.0000000E+00; -4.8692682E-01;  4.0000000E+04;  0.0000000E+00;  4.0010219E+04;  3.5242654E-02;  0.0000000E+00; -1.5314588E-03;  2.5793376E+03;
  3.1200647E-03;  9.9999998E-03; -1.7996204E-01;2459;  8.6073885E-03;  0.0000000E+00;  4.4196559E-04;  9.8487854E+02;  1.0000000E-01; -1.2527843E+04;3;  9.3100525E+01;  0.0000000E+00;  9.7558346E+00;0;  3.3507083E-02;  3.8807852E+04;  0.0000000E+00; -4.0996033E-01;  4.0000000E+04;  0.0000000E+00;  4.0007441E+04;  3.5058521E-02;  0.0000000E+00; -1.5514393E-03;  2.2825068E+03;
  3.1931673E-03;  9.9999998E-03; -1.6997167E-01;2460;  8.5724769E-03;  0.0000000E+00;  4.4103889E-04;  9.8454797E+02;  1.0000000E-01; -1.2801712E+04;3;  9.3055336E+01;  0.0000000E+00;  7.6709108E+00;0;  3.3312246E-02;  3.8784258E+04;  0.0000000E+00; -3.3006263E-01;  4.0000000E+04;  0.0000000E+00;  4.0005453E+04;  3.4850232E-02;  0.0000000E+00; -1.5379858E-03;  2.0192638E+03;
  3.2414848E-03;  9.9999998E-03; -1.5997921E-01;2461;  8.5579455E-03;  0.0000000E+00;  4.5811621E-04;  9.8432227E+02;  1.0000000E-01; -1.2988719E+04;3;  9.2522301E+01;  0.0000000E+00;  5.9596906E+00;0;  3.3172004E-02;  3.8768422E+04;  0.0000000E+00; -2.5368673E-01;  4.0000000E+04;  0.0000000E+00;  4.0003293E+04;  3.4688402E-02;  0.0000000E+00; -1.5163969E-03;  1.8012798E+03;
  3.2717274E-03;  9.9999998E-03; -1.4998476E-01;2462;  8.5716518E-03;  0.0000000E+00;  4.8094749E-04;  9.8417810E+02;  1.0000000E-01; -1.3108123E+04;3;  9.1702423E+01;  0.0000000E+00;  4.5533872E+00;0;  3.3112057E-02;  3.8758234E+04;  0.0000000E+00; -1.8557554E-01;  4.0000000E+04;  0.0000000E+00;  4.0002789E+04;  3.4618609E-02;  0.0000000E+00; -1.5065514E-03;  1.6277958E+03;
  3.2890739E-03;  9.9999998E-03; -1.3998897E-01;2463;  8.6118374E-03;  0.0000000E+00;  4.9701409E-04;  9.8409607E+02;  1.0000000E-01; -1.3176121E+04;3;  9.0722786E+01;  0.0000000E+00;  3.3861482E+00;0;  3.3140186E-02;  3.8752859E+04;  0.0000000E+00; -1.2860131E-01;  4.0000000E+04;  0.0000000E+00;  4.0001305E+04;  3.4661651E-02;  0.0000000E+00; -1.5214637E-03;  1.4904761E+03;
  3.2969271E-03;  9.9999998E-03; -1.2999120E-01;2464;  8.6701130E-03;  0.0000000E+00;  4.9840851E-04;  9.8405762E+02;  1.0000000E-01; -1.3207972E+04;3;  8.9687836E+01;  0.0000000E+00;  2.4164948E+00;0;  3.3248916E-02;  3.8750363E+04;  0.0000000E+00; -8.3972640E-02;  4.0000000E+04;  0.0000000E+00;  4.0000719E+04;  3.4814656E-02;  0.0000000E+00; -1.5657402E-03;  1.3782383E+03;
  3.2979331E-03;  9.9999998E-03; -1.1998965E-01;2465;  8.7345922E-03;  0.0000000E+00;  4.8189831E-04;  9.8404456E+02;  1.0000000E-01; -1.3218787E+04;3;  8.8701309E+01;  0.0000000E+00;  1.6294079E+00;0;  3.3420652E-02;  3.8750094E+04;  0.0000000E+00; -5.1621757E-02;  4.0000000E+04;  0.0000000E+00;  3.9999504E+04;  3.5055544E-02;  0.0000000E+00; -1.6348938E-03;  1.2824607E+03;
  3.2943308E-03;  9.9999998E-03; -1.0998462E-01;2466;  8.7930709E-03;  0.0000000E+00;  4.4763723E-04;  9.8404572E+02;  1.0000000E-01; -1.3217799E+04;3;  8.7845863E+01;  0.0000000E+00;  1.0147491E+00;0;  3.3631217E-02;  3.8750508E+04;  0.0000000E+00; -3.0078813E-02;  4.0000000E+04;  0.0000000E+00;  3.9998398E+04;  3.5348877E-02;  0.0000000E+00; -1.7176592E-03;  1.2019016E+03;
  1.0806811E-02;  9.9999998E-03; -2.6981333E-01;2510;  4.7043446E-03;  0.0000000E+00;  1.6629024E-03;  9.9393280E+02;  1.0000000E-01; -5.0265737E+03;3;  3.2653980E+01;  0.0000000E+00;  2.8547844E+01;0;  2.6343897E-02;  3.9512191E+04;  0.0000000E+00; -5.7133847E-01;  4.0000000E+04;  0.0000000E+00;  4.0003023E+04;  2.3654265E-02;  0.0000000E+00;  2.6896317E-03;  1.2273311E+03;
  1.1179063E-02;  9.9999998E-03; -2.5983980E-01;2511;  5.6026941E-03;  0.0000000E+00;  1.4883643E-03;  9.9294196E+02;  1.0000000E-01; -5.8474395E+03;3;  4.0330154E+01;  0.0000000E+00;  2.6183558E+01;0;  2.7973339E-02;  3.9427773E+04;  0.0000000E+00; -6.2381524E-01;  4.0000000E+04;  0.0000000E+00;  4.0010000E+04;  2.6165333E-02;  0.0000000E+00;  1.8080063E-03;  2.1050525E+03;
  1.1523845E-02;  9.9999998E-03; -2.4987617E-01;2512;  6.3327942E-03;  0.0000000E+00;  1.2944267E-03;  9.9195093E+02;  1.0000000E-01; -6.6685029E+03;3;  4.7746803E+01;  0.0000000E+00;  2.4264162E+01;0;  2.9178707E-02;  3.9345809E+04;  0.0000000E+00; -6.7895675E-01;  4.0000000E+04;  0.0000000E+00;  4.0015832E+04;  2.8228512E-02;  0.0000000E+00;  9.5019536E-04;  2.8272004E+03;
  1.1834693E-02;  9.9999998E-03; -2.3991047E-01;2513;  6.8802037E-03;  0.0000000E+00;  1.1020940E-03;  9.9099768E+02;  1.0000000E-01; -7.4582583E+03;3;  5.4185059E+01;  0.0000000E+00;  2.2445436E+01;0;  2.9984647E-02;  3.9269367E+04;  0.0000000E+00; -7.2948349E-01;  4.0000000E+04;  0.0000000E+00;  4.0018906E+04;  2.9796563E-02;  0.0000000E+00;  1.8808455E-04;  3.2700630E+03;
  1.2114597E-02;  9.9999998E-03; -2.2993796E-01;2514;  7.2429110E-03;  0.0000000E+00;  9.3004631E-04;  9.9011523E+02;  1.0000000E-01; -8.1893486E+03;3;  5.9181530E+01;  0.0000000E+00;  2.0425722E+01;0;  3.0433973E-02;  3.9200410E+04;  0.0000000E+00; -7.6492018E-01;  4.0000000E+04;  0.0000000E+00;  4.0019785E+04;  3.0870104E-02;  0.0000000E+00; -4.3613114E-04;  3.4229714E+03;
  1.2354825E-02;  9.9999998E-03; -2.1995941E-01;2515;  7.4368455E-03;  0.0000000E+00;  7.8677264E-04;  9.8932727E+02;  1.0000000E-01; -8.8421699E+03;3;  6.2626049E+01;  0.0000000E+00;  1.8083551E+01;0;  3.0588906E-02;  3.9140793E+04;  0.0000000E+00; -7.7527899E-01;  4.0000000E+04;  0.0000000E+00;  4.0018531E+04;  3.1497549E-02;  0.0000000E+00; -9.0864307E-04;  3.3354287E+03;
  1.2550012E-02;  9.9999998E-03; -2.0997487E-01;2516;  7.4922382E-03;  0.0000000E+00;  6.7250582E-04;  9.8864594E+02;  1.0000000E-01; -9.4066475E+03;3;  6.4671455E+01;  0.0000000E+00;  1.5500527E+01;0;  3.0524135E-02;  3.9090734E+04;  0.0000000E+00; -7.5470728E-01;  4.0000000E+04;  0.0000000E+00;  4.0015867E+04;  3.1761944E-02;  0.0000000E+00; -1.2378098E-03;  3.0825034E+03;
  1.2701644E-02;  9.9999998E-03; -1.9998534E-01;2517;  7.4516381E-03;  0.0000000E+00;  5.8922631E-04;  9.8808929E+02;  1.0000000E-01; -9.8677705E+03;3;  6.5516548E+01;  0.0000000E+00;  1.2871637E+01;0;  3.0318130E-02;  3.9050516E+04;  0.0000000E+00; -7.0304966E-01;  4.0000000E+04;  0.0000000E+00;  4.0012652E+04;  3.1763852E-02;  0.0000000E+00; -1.4457217E-03;  2.7438755E+03;
  1.2814125E-02;  9.9999998E-03; -1.8999241E-01;2518;  7.3600002E-03;  0.0000000E+00;  5.3523894E-04;  9.8765430E+02;  1.0000000E-01; -1.0228204E+04;3;  6.5494286E+01;  0.0000000E+00;  1.0412250E+01;0;  3.0047357E-02;  3.9019578E+04;  0.0000000E+00; -6.2549984E-01;  4.0000000E+04;  0.0000000E+00;  4.0009344E+04;  3.1608827E-02;  0.0000000E+00; -1.5614699E-03;  2.3874688E+03;
  1.2892450E-02;  9.9999998E-03; -1.7999700E-01;2519;  7.2581270E-03;  0.0000000E+00;  5.0631783E-04;  9.8733240E+02;  1.0000000E-01; -1.0494863E+04;3;  6.4900925E+01;  0.0000000E+00;  8.2658920E+00;0;  2.9780423E-02;  3.8996922E+04;  0.0000000E+00; -5.3089726E-01;  4.0000000E+04;  0.0000000E+00;  4.0006613E+04;  3.1395685E-02;  0.0000000E+00; -1.6152612E-03;  2.0605957E+03;
  1.2943460E-02;  9.9999998E-03; -1.6999950E-01;2520;  7.1768896E-03;  0.0000000E+00;  4.9599813E-04;  9.8711060E+02;  1.0000000E-01; -1.0678611E+04;3;  6.3961628E+01;  0.0000000E+00;  6.4799762E+00;0;  2.9571986E-02;  3.8981422E+04;  0.0000000E+00; -4.2942873E-01;  4.0000000E+04;  0.0000000E+00;  4.0004199E+04;  3.1206610E-02;  0.0000000E+00; -1.6346241E-03;  1.7894167E+03;
  1.2974029E-02;  9.9999998E-03; -1.6000104E-01;2521;  7.1346369E-03;  0.0000000E+00;  4.9715629E-04;  9.8696851E+02;  1.0000000E-01; -1.0796337E+04;3;  6.2856960E+01;  0.0000000E+00;  5.0247149E+00;0;  2.9459091E-02;  3.8971699E+04;  0.0000000E+00; -3.3052918E-01;  4.0000000E+04;  0.0000000E+00;  4.0003320E+04;  3.1101694E-02;  0.0000000E+00; -1.6426026E-03;  1.5815162E+03;
  1.2990800E-02;  9.9999998E-03; -1.5000278E-01;2522;  7.1364795E-03;  0.0000000E+00;  5.0174422E-04;  9.8689465E+02;  1.0000000E-01; -1.0857521E+04;3;  6.1636539E+01;  0.0000000E+00;  3.8356349E+00;0;  2.9459586E-02;  3.8966645E+04;  0.0000000E+00; -2.4149674E-01;  4.0000000E+04;  0.0000000E+00;  4.0001609E+04;  3.1117007E-02;  0.0000000E+00; -1.6574211E-03;  1.4297212E+03;
  1.2997837E-02;  9.9999998E-03; -1.4000377E-01;2523;  7.1772998E-03;  0.0000000E+00;  5.0216558E-04;  9.8686407E+02;  1.0000000E-01; -1.0882853E+04;3;  6.0408916E+01;  0.0000000E+00;  2.8504453E+00;0;  2.9573053E-02;  3.8964879E+04;  0.0000000E+00; -1.6692948E-01;  4.0000000E+04;  0.0000000E+00;  4.0000914E+04;  3.1264834E-02;  0.0000000E+00; -1.6917817E-03;  1.3175844E+03;
  1.2998469E-02;  9.9999998E-03; -1.3000302E-01;2524;  7.2444086E-03;  0.0000000E+00;  4.9332861E-04;  9.8685809E+02;  1.0000000E-01; -1.0887840E+04;3;  5.9236122E+01;  0.0000000E+00;  2.0324972E+00;0;  2.9784165E-02;  3.8964730E+04;  0.0000000E+00; -1.0883469E-01;  4.0000000E+04;  0.0000000E+00;  4.0001035E+04;  3.1535536E-02;  0.0000000E+00; -1.7513703E-03;  1.2263174E+03;
  1.2995372E-02;  9.9999998E-03; -1.2000006E-01;2525;  7.3215361E-03;  0.0000000E+00;  4.7265223E-04;  9.8686761E+02;  1.0000000E-01; -1.0879939E+04;3;  5.8132118E+01;  0.0000000E+00;  1.3687249E+00;0;  3.0068032E-02;  3.8965855E+04;  0.0000000E+00; -6.7094520E-02;  4.0000000E+04;  0.0000000E+00;  4.0000086E+04;  3.1901430E-02;  0.0000000E+00; -1.8333981E-03;  1.1410647E+03;
  1.2990474E-02;  9.9999998E-03; -1.0999482E-01;2526;  7.3929117E-03;  0.0000000E+00;  4.3841169E-04;  9.8687793E+02;  1.0000000E-01; -1.0871396E+04;3;  5.7190365E+01;  0.0000000E+00;  8.5089797E-01;0;  3.0394755E-02;  3.8967152E+04;  0.0000000E+00; -3.9589938E-02;  4.0000000E+04;  0.0000000E+00;  3.9999891E+04;  3.2322831E-02;  0.0000000E+00; -1.9280760E-03;  1.0575752E+03;
  2.0775305E-02;  9.9999998E-03; -2.6986900E-01;2571;  4.1988166E-03;  0.0000000E+00;  1.5073819E-03;  9.9495758E+02;  1.0000000E-01; -4.1775610E+03;3;  2.4041553E+01;  0.0000000E+00;  2.2546501E+01;0;  2.5331128E-02;  3.9590285E+04;  0.0000000E+00; -6.4217222E-01;  4.0000000E+04;  0.0000000E+00;  4.0005691E+04;  2.2375500E-02;  0.0000000E+00;  2.9556281E-03;  1.4659982E+03;
  2.1139128E-02;  9.9999998E-03; -2.5990272E-01;2572;  5.0131837E-03;  0.0000000E+00;  1.3428165E-03;  9.9421375E+02;  1.0000000E-01; -4.7937905E+03;3;  2.8932722E+01;  0.0000000E+00;  1.9962324E+01;0;  2.6577115E-02;  3.9525477E+04;  0.0000000E+00; -6.9046795E-01;  4.0000000E+04;  0.0000000E+00;  4.0012891E+04;  2.4531132E-02;  0.0000000E+00;  2.0459844E-03;  2.3348855E+03;
  2.1464081E-02;  9.9999998E-03; -2.4994433E-01;2573;  5.6417380E-03;  0.0000000E+00;  1.1661462E-03;  9.9348651E+02;  1.0000000E-01; -5.3962920E+03;3;  3.3255733E+01;  0.0000000E+00;  1.8232870E+01;0;  2.7415592E-02;  3.9463977E+04;  0.0000000E+00; -7.4739629E-01;  4.0000000E+04;  0.0000000E+00;  4.0018016E+04;  2.6256887E-02;  0.0000000E+00;  1.1587052E-03;  3.0001094E+03;
  2.1750256E-02;  9.9999998E-03; -2.3997931E-01;2574;  6.0829679E-03;  0.0000000E+00;  1.0019350E-03;  9.9279279E+02;  1.0000000E-01; -5.9710410E+03;3;  3.6546207E+01;  0.0000000E+00;  1.6949951E+01;0;  2.7890248E-02;  3.9408020E+04;  0.0000000E+00; -8.0479449E-01;  4.0000000E+04;  0.0000000E+00;  4.0019973E+04;  2.7522950E-02;  0.0000000E+00;  3.6729942E-04;  3.3533223E+03;
  2.2001591E-02;  9.9999998E-03; -2.3000258E-01;2575;  6.3390438E-03;  0.0000000E+00;  8.6109131E-04;  9.9216339E+02;  1.0000000E-01; -6.4924585E+03;3;  3.8508968E+01;  0.0000000E+00;  1.5641999E+01;0;  2.8058931E-02;  3.9359371E+04;  0.0000000E+00; -8.4943247E-01;  4.0000000E+04;  0.0000000E+00;  4.0020547E+04;  2.8345753E-02;  0.0000000E+00; -2.8682081E-04;  3.3985449E+03;
  2.2210233E-02;  9.9999998E-03; -2.2001547E-01;2576;  6.4283158E-03;  0.0000000E+00;  7.4635062E-04;  9.9161084E+02;  1.0000000E-01; -6.9502725E+03;3;  3.9218597E+01;  0.0000000E+00;  1.4065442E+01;0;  2.7992874E-02;  3.9318824E+04;  0.0000000E+00; -8.6798781E-01;  4.0000000E+04;  0.0000000E+00;  4.0018055E+04;  2.8784284E-02;  0.0000000E+00; -7.9141022E-04;  3.2031479E+03;
  2.2373073E-02;  9.9999998E-03; -2.1002011E-01;2577;  6.3864542E-03;  0.0000000E+00;  6.5733265E-04;  9.9114807E+02;  1.0000000E-01; -7.3336689E+03;3;  3.8906849E+01;  0.0000000E+00;  1.2209047E+01;0;  2.7769377E-02;  3.9286305E+04;  0.0000000E+00; -8.5179526E-01;  4.0000000E+04;  0.0000000E+00;  4.0014988E+04;  2.8925307E-02;  0.0000000E+00; -1.1559288E-03;  2.8594587E+03;
  2.2494087E-02;  9.9999998E-03; -2.0001921E-01;2578;  6.2587261E-03;  0.0000000E+00;  5.9245311E-04;  9.9078375E+02;  1.0000000E-01; -7.6354878E+03;3;  3.7872814E+01;  0.0000000E+00;  1.0228661E+01;0;  2.7465962E-02;  3.9261406E+04;  0.0000000E+00; -7.9907131E-01;  4.0000000E+04;  0.0000000E+00;  4.0011379E+04;  2.8868860E-02;  0.0000000E+00; -1.4028981E-03;  2.4573540E+03;
  2.2577876E-02;  9.9999998E-03; -1.9001538E-01;2579;  6.0941069E-03;  0.0000000E+00;  5.4941961E-04;  9.9051526E+02;  1.0000000E-01; -7.8579507E+03;3;  3.6438614E+01;  0.0000000E+00;  8.3235216E+00;0;  2.7155394E-02;  3.9243520E+04;  0.0000000E+00; -7.1481323E-01;  4.0000000E+04;  0.0000000E+00;  4.0007625E+04;  2.8715704E-02;  0.0000000E+00; -1.5603092E-03;  2.0670398E+03;
  2.2630628E-02;  9.9999998E-03; -1.8001041E-01;2580;  5.9354627E-03;  0.0000000E+00;  5.2417419E-04;  9.9033527E+02;  1.0000000E-01; -8.0070327E+03;3;  3.4851913E+01;  0.0000000E+00;  6.6354704E+00;0;  2.6900001E-02;  3.9231691E+04;  0.0000000E+00; -6.0892332E-01;  4.0000000E+04;  0.0000000E+00;  4.0005418E+04;  2.8556086E-02;  0.0000000E+00; -1.6560851E-03;  1.7322921E+03;
  2.2660246E-02;  9.9999998E-03; -1.7000619E-01;2581;  5.8139917E-03;  0.0000000E+00;  5.1157677E-04;  9.9022943E+02;  1.0000000E-01; -8.0947339E+03;3;  3.3283962E+01;  0.0000000E+00;  5.2183757E+00;0;  2.6747055E-02;  3.9224934E+04;  0.0000000E+00; -4.9341136E-01;  4.0000000E+04;  0.0000000E+00;  4.0004480E+04;  2.8461922E-02;  0.0000000E+00; -1.7148659E-03;  1.4737289E+03;
  2.2673987E-02;  9.9999998E-03; -1.6000357E-01;2582;  5.7467627E-03;  0.0000000E+00;  5.0594535E-04;  9.9018030E+02;  1.0000000E-01; -8.1354243E+03;3;  3.1820219E+01;  0.0000000E+00;  4.0550976E+00;0;  2.6725374E-02;  3.9221980E+04;  0.0000000E+00; -3.7977538E-01;  4.0000000E+04;  0.0000000E+00;  4.0002766E+04;  2.8482247E-02;  0.0000000E+00; -1.7568723E-03;  1.2942794E+03;
  2.2677725E-02;  9.9999998E-03; -1.5000197E-01;2583;  5.7366663E-03;  0.0000000E+00;  5.0166482E-04;  9.9017596E+02;  1.0000000E-01; -8.1390293E+03;3;  3.0446899E+01;  0.0000000E+00;  3.0971653E+00;0;  2.6844444E-02;  3.9221824E+04;  0.0000000E+00; -2.7714583E-01;  4.0000000E+04;  0.0000000E+00;  4.0002340E+04;  2.8642595E-02;  0.0000000E+00; -1.7981507E-03;  1.1823146E+03;
  2.2675434E-02;  9.9999998E-03; -1.4000052E-01;2584;  5.7752770E-03;  0.0000000E+00;  4.9409654E-04;  9.9019501E+02;  1.0000000E-01; -8.1232271E+03;3;  2.9186256E+01;  0.0000000E+00;  2.2994123E+00;0;  2.7095247E-02;  3.9223488E+04;  0.0000000E+00; -1.9137609E-01;  4.0000000E+04;  0.0000000E+00;  4.0001359E+04;  2.8946236E-02;  0.0000000E+00; -1.8509889E-03;  1.1141283E+03;
  2.2670083E-02;  9.9999998E-03; -1.2999865E-01;2585;  5.8466066E-03;  0.0000000E+00;  4.7993532E-04;  9.9022260E+02;  1.0000000E-01; -8.1004131E+03;3;  2.8030519E+01;  0.0000000E+00;  1.6362833E+00;0;  2.7454048E-02;  3.9225895E+04;  0.0000000E+00; -1.2500547E-01;  4.0000000E+04;  0.0000000E+00;  4.0001844E+04;  2.9376566E-02;  0.0000000E+00; -1.9225173E-03;  1.0607231E+03;
  2.2664035E-02;  9.9999998E-03; -1.1999603E-01;2586;  5.9313835E-03;  0.0000000E+00;  4.5720860E-04;  9.9024939E+02;  1.0000000E-01; -8.0781914E+03;3;  2.6969456E+01;  0.0000000E+00;  1.0987269E+00;0;  2.7888749E-02;  3.9228363E+04;  0.0000000E+00; -7.7745520E-02;  4.0000000E+04;  0.0000000E+00;  4.0001461E+04;  2.9901206E-02;  0.0000000E+00; -2.0124582E-03;  9.9806201E+02;
  2.2658885E-02;  9.9999998E-03; -1.0999288E-01;2587;  6.0109627E-03;  0.0000000E+00;  4.2456042E-04;  9.9026965E+02;  1.0000000E-01; -8.0614019E+03;3;  2.6022055E+01;  0.0000000E+00;  6.7986602E-01;0;  2.8363638E-02;  3.9230633E+04;  0.0000000E+00; -4.6864729E-02;  4.0000000E+04;  0.0000000E+00;  4.0000789E+04;  3.0477356E-02;  0.0000000E+00; -2.1137183E-03;  9.1747070E+02;
  3.0737244E-02;  9.9999998E-03; -2.6992866E-01;2632;  3.7362045E-03;  0.0000000E+00;  1.2797860E-03;  9.9608905E+02;  1.0000000E-01; -3.2401553E+03;3;  1.6342089E+01;  0.0000000E+00;  1.5289395E+01;0;  2.5099566E-02;  3.9677742E+04;  0.0000000E+00; -6.7798340E-01;  4.0000000E+04;  0.0000000E+00;  4.0007406E+04;  2.1893611E-02;  0.0000000E+00;  3.2059546E-03;  1.6276938E+03;
  3.1093739E-02;  9.9999998E-03; -2.5995773E-01;2633;  4.4702068E-03;  0.0000000E+00;  1.1359291E-03;  9.9561395E+02;  1.0000000E-01; -3.6337737E+03;3;  1.8441055E+01;  0.0000000E+00;  1.2527031E+01;0;  2.6110852E-02;  3.9634113E+04;  0.0000000E+00; -7.0597529E-01;  4.0000000E+04;  0.0000000E+00;  4.0014938E+04;  2.3821432E-02;  0.0000000E+00;  2.2894207E-03;  2.4512478E+03;
  3.1401776E-02;  9.9999998E-03; -2.4999531E-01;2634;  5.0207502E-03;  0.0000000E+00;  9.8865747E-04;  9.9515955E+02;  1.0000000E-01; -4.0102075E+03;3;  1.9848248E+01;  0.0000000E+00;  1.1148262E+01;0;  2.6723227E-02;  3.9594527E+04;  0.0000000E+00; -7.4760914E-01;  4.0000000E+04;  0.0000000E+00;  4.0019270E+04;  2.5335006E-02;  0.0000000E+00;  1.3882194E-03;  3.0317935E+03;
  3.1663328E-02;  9.9999998E-03; -2.4002483E-01;2635;  5.3751240E-03;  0.0000000E+00;  8.5655204E-04;  9.9474316E+02;  1.0000000E-01; -4.3551855E+03;3;  2.0255253E+01;  0.0000000E+00;  1.0577939E+01;0;  2.7001316E-02;  3.9560945E+04;  0.0000000E+00; -7.9600459E-01;  4.0000000E+04;  0.0000000E+00;  4.0021137E+04;  2.6424859E-02;  0.0000000E+00;  5.7645771E-04;  3.2765249E+03;
  3.1884961E-02;  9.9999998E-03; -2.3003973E-01;2636;  5.5442578E-03;  0.0000000E+00;  7.4869831E-04;  9.9437299E+02;  1.0000000E-01; -4.6618931E+03;3;  1.9624155E+01;  0.0000000E+00;  1.0193019E+01;0;  2.7016670E-02;  3.9533500E+04;  0.0000000E+00; -8.3751887E-01;  4.0000000E+04;  0.0000000E+00;  4.0019938E+04;  2.7121235E-02;  0.0000000E+00; -1.0456529E-04;  3.2059722E+03;
  3.2061797E-02;  9.9999998E-03; -2.2004227E-01;2637;  5.5491989E-03;  0.0000000E+00;  6.6514267E-04;  9.9406116E+02;  1.0000000E-01; -4.9202065E+03;3;  1.8111717E+01;  0.0000000E+00;  9.5782175E+00;0;  2.6847202E-02;  3.9512734E+04;  0.0000000E+00; -8.5741127E-01;  4.0000000E+04;  0.0000000E+00;  4.0016969E+04;  2.7490370E-02;  0.0000000E+00; -6.4316823E-04;  2.9065713E+03;
  3.2192823E-02;  9.9999998E-03; -2.1003675E-01;2638;  5.4273112E-03;  0.0000000E+00;  6.0393009E-04;  9.9381818E+02;  1.0000000E-01; -5.1215342E+03;3;  1.5998785E+01;  0.0000000E+00;  8.6208124E+00;0;  2.6572639E-02;  3.9497730E+04;  0.0000000E+00; -8.4515005E-01;  4.0000000E+04;  0.0000000E+00;  4.0013094E+04;  2.7621515E-02;  0.0000000E+00; -1.0488759E-03;  2.4878091E+03;
  3.2283593E-02;  9.9999998E-03; -2.0002721E-01;2639;  5.2290517E-03;  0.0000000E+00;  5.6144403E-04;  9.9364081E+02;  1.0000000E-01; -5.2684932E+03;3;  1.3641494E+01;  0.0000000E+00;  7.4302740E+00;0;  2.6269350E-02;  3.9488102E+04;  0.0000000E+00; -7.9711443E-01;  4.0000000E+04;  0.0000000E+00;  4.0009457E+04;  2.7612261E-02;  0.0000000E+00; -1.3429106E-03;  2.0487979E+03;
  3.2340001E-02;  9.9999998E-03; -1.9001655E-01;2640;  5.0063767E-03;  0.0000000E+00;  5.3451839E-04;  9.9353644E+02;  1.0000000E-01; -5.3549595E+03;3;  1.1268538E+01;  0.0000000E+00;  6.1790981E+00;0;  2.6006598E-02;  3.9483309E+04;  0.0000000E+00; -7.1694386E-01;  4.0000000E+04;  0.0000000E+00;  4.0006074E+04;  2.7556863E-02;  0.0000000E+00; -1.5502652E-03;  1.6577708E+03;
  3.2370098E-02;  9.9999998E-03; -1.8000729E-01;2641;  4.8019411E-03;  0.0000000E+00;  5.1986706E-04;  9.9349237E+02;  1.0000000E-01; -5.3914526E+03;3;  9.1002502E+00;  0.0000000E+00;  5.0121489E+00;0;  2.5842384E-02;  3.9482094E+04;  0.0000000E+00; -6.1371773E-01;  4.0000000E+04;  0.0000000E+00;  4.0004027E+04;  2.7537195E-02;  0.0000000E+00; -1.6948117E-03;  1.3472061E+03;
  3.2380719E-02;  9.9999998E-03; -1.7000051E-01;2642;  4.6491884E-03;  0.0000000E+00;  5.1162654E-04;  9.9349445E+02;  1.0000000E-01; -5.3897241E+03;3;  7.2422338E+00;  0.0000000E+00;  3.9950879E+00;0;  2.5816863E-02;  3.9483711E+04;  0.0000000E+00; -4.9928159E-01;  4.0000000E+04;  0.0000000E+00;  4.0002273E+04;  2.7614096E-02;  0.0000000E+00; -1.7972332E-03;  1.1247229E+03;
  3.2378994E-02;  9.9999998E-03; -1.5999621E-01;2643;  4.5651747E-03;  0.0000000E+00;  5.0357496E-04;  9.9353174E+02;  1.0000000E-01; -5.3588115E+03;3;  5.6831503E+00;  0.0000000E+00;  3.1314714E+00;0;  2.5950760E-02;  3.9487047E+04;  0.0000000E+00; -3.8548735E-01;  4.0000000E+04;  0.0000000E+00;  4.0002008E+04;  2.7825369E-02;  0.0000000E+00; -1.8746083E-03;  9.8947314E+02;
  3.2370348E-02;  9.9999998E-03; -1.4999382E-01;2644;  4.5487387E-03;  0.0000000E+00;  4.9319188E-04;  9.9358594E+02;  1.0000000E-01; -5.3139238E+03;3;  4.3909392E+00;  0.0000000E+00;  2.3995378E+00;0;  2.6245547E-02;  3.9491367E+04;  0.0000000E+00; -2.8207651E-01;  4.0000000E+04;  0.0000000E+00;  4.0002266E+04;  2.8186532E-02;  0.0000000E+00; -1.9409837E-03;  9.3251227E+02;
  3.2358754E-02;  9.9999998E-03; -1.3999261E-01;2645;  4.5876401E-03;  0.0000000E+00;  4.7907885E-04;  9.9364838E+02;  1.0000000E-01; -5.2622217E+03;3;  3.2666483E+00;  0.0000000E+00;  1.7797748E+00;0;  2.6683697E-02;  3.9495676E+04;  0.0000000E+00; -1.9549030E-01;  4.0000000E+04;  0.0000000E+00;  4.0002484E+04;  2.8692042E-02;  0.0000000E+00; -2.0083450E-03;  9.2494031E+02;
  3.2347478E-02;  9.9999998E-03; -1.2999196E-01;2646;  4.6629738E-03;  0.0000000E+00;  4.6074609E-04;  9.9370416E+02;  1.0000000E-01; -5.2160005E+03;3;  2.2621696E+00;  0.0000000E+00;  1.2626712E+00;0;  2.7232984E-02;  3.9499953E+04;  0.0000000E+00; -1.2864912E-01;  4.0000000E+04;  0.0000000E+00;  4.0003352E+04;  2.9318733E-02;  0.0000000E+00; -2.0857486E-03;  9.2387427E+02;
  3.2338675E-02;  9.9999998E-03; -1.1999169E-01;2647;  4.7535612E-03;  0.0000000E+00;  4.3751183E-04;  9.9374536E+02;  1.0000000E-01; -5.1818286E+03;3;  1.3351222E+00;  0.0000000E+00;  8.4411347E-01;0;  2.7853712E-02;  3.9503301E+04;  0.0000000E+00; -8.1227340E-02;  4.0000000E+04;  0.0000000E+00;  4.0003203E+04;  3.0030059E-02;  0.0000000E+00; -2.1763472E-03;  8.9310944E+02;
  3.2333110E-02;  9.9999998E-03; -1.0999183E-01;2648;  4.8392247E-03;  0.0000000E+00;  4.0800447E-04;  9.9377087E+02;  1.0000000E-01; -5.1606934E+03;3;  4.6956185E-01;  0.0000000E+00;  5.1843077E-01;0;  2.8504308E-02;  3.9506094E+04;  0.0000000E+00; -5.0272655E-02;  4.0000000E+04;  0.0000000E+00;  4.0002523E+04;  3.0781243E-02;  0.0000000E+00; -2.2769338E-03;  8.1890820E+02;
  4.0711574E-02;  9.9999998E-03; -2.6996624E-01;2693;  3.3435700E-03;  0.0000000E+00;  1.0107600E-03;  9.9718207E+02;  1.0000000E-01; -2.3346006E+03;3;  1.0734113E+01;  0.0000000E+00;  7.6814795E+00;0;  2.6132450E-02;  3.9763266E+04;  0.0000000E+00; -6.5801942E-01;  4.0000000E+04;  0.0000000E+00;  4.0009539E+04;  2.2689383E-02;  0.0000000E+00;  3.4430667E-03;  1.6901824E+03;
  4.1054931E-02;  9.9999998E-03; -2.5999022E-01;2694;  4.0200870E-03;  0.0000000E+00;  8.9938403E-04;  9.9696649E+02;  1.0000000E-01; -2.5132129E+03;3;  1.0545767E+01;  0.0000000E+00;  4.7916417E+00;0;  2.7094081E-02;  3.9740246E+04;  0.0000000E+00; -6.4188373E-01;  4.0000000E+04;  0.0000000E+00;  4.0016270E+04;  2.4566092E-02;  0.0000000E+00;  2.5279885E-03;  2.4533989E+03;
  4.1343197E-02;  9.9999998E-03; -2.5002122E-01;2695;  4.5050834E-03;  0.0000000E+00;  7.8257750E-04;  9.9677563E+02;  1.0000000E-01; -2.6713318E+03;3;  9.6515446E+00;  0.0000000E+00;  3.8390024E+00;0;  2.7659068E-02;  3.9722379E+04;  0.0000000E+00; -6.4452881E-01;  4.0000000E+04;  0.0000000E+00;  4.0019785E+04;  2.6041495E-02;  0.0000000E+00;  1.6175727E-03;  2.9405269E+03;
  4.1579679E-02;  9.9999998E-03; -2.4004315E-01;2696;  4.7944067E-03;  0.0000000E+00;  6.8618741E-04;  9.9661023E+02;  1.0000000E-01; -2.8083650E+03;3;  7.9711514E+00;  0.0000000E+00;  4.0920138E+00;0;  2.7907547E-02;  3.9709590E+04;  0.0000000E+00; -6.6370195E-01;  4.0000000E+04;  0.0000000E+00;  4.0021324E+04;  2.7120430E-02;  0.0000000E+00;  7.8711601E-04;  3.0728484E+03;
  4.1771993E-02;  9.9999998E-03; -2.3005010E-01;2697;  4.8964741E-03;  0.0000000E+00;  6.1342894E-04;  9.9648553E+02;  1.0000000E-01; -2.9116707E+03;3;  5.5339432E+00;  0.0000000E+00;  4.6964684E+00;0;  2.7924728E-02;  3.9702344E+04;  0.0000000E+00; -6.8842906E-01;  4.0000000E+04;  0.0000000E+00;  4.0019465E+04;  2.7846737E-02;  0.0000000E+00;  7.7990699E-05;  2.8875203E+03;
  4.1918393E-02;  9.9999998E-03; -2.2004607E-01;2698;  4.8363260E-03;  0.0000000E+00;  5.6412222E-04;  9.9639764E+02;  1.0000000E-01; -2.9845083E+03;3;  2.5995827E+00;  0.0000000E+00;  5.1069951E+00;0;  2.7793836E-02;  3.9699852E+04;  0.0000000E+00; -7.0442271E-01;  4.0000000E+04;  0.0000000E+00;  4.0015781E+04;  2.8292332E-02;  0.0000000E+00; -4.9849518E-04;  2.4900005E+03;
  4.2020742E-02;  9.9999998E-03; -2.1003558E-01;2699;  4.6521844E-03;  0.0000000E+00;  5.3481216E-04;  9.9635028E+02;  1.0000000E-01; -3.0237170E+03;3; -5.3674084E-01;  0.0000000E+00;  5.1068511E+00;0;  2.7596477E-02;  3.9701289E+04;  0.0000000E+00; -6.9978613E-01;  4.0000000E+04;  0.0000000E+00;  4.0011359E+04;  2.8548039E-02;  0.0000000E+00; -9.5156196E-04;  2.0077166E+03;
  4.2085584E-02;  9.9999998E-03; -2.0002212E-01;2700;  4.3853126E-03;  0.0000000E+00;  5.3206721E-04;  9.9634662E+02;  1.0000000E-01; -3.0267786E+03;3; -3.5997887E+00;  0.0000000E+00;  4.7418723E+00;0;  2.7411845E-02;  3.9705840E+04;  0.0000000E+00; -6.6816598E-01;  4.0000000E+04;  0.0000000E+00;  4.0007695E+04;  2.8711677E-02;  0.0000000E+00; -1.2998321E-03;  1.5532192E+03;
  4.2120274E-02;  9.9999998E-03; -1.9000921E-01;2701;  4.1052252E-03;  0.0000000E+00;  5.4512877E-04;  9.9638361E+02;  1.0000000E-01; -2.9961128E+03;3; -6.3630781E+00;  0.0000000E+00;  4.1661949E+00;0;  2.7303351E-02;  3.9712527E+04;  0.0000000E+00; -6.0957307E-01;  4.0000000E+04;  0.0000000E+00;  4.0003957E+04;  2.8866764E-02;  0.0000000E+00; -1.5634135E-03;  1.1952224E+03;
  4.2131182E-02;  9.9999998E-03; -1.7999835E-01;2702;  3.8679722E-03;  0.0000000E+00;  5.4971682E-04;  9.9645428E+02;  1.0000000E-01; -2.9375466E+03;3; -8.6922035E+00;  0.0000000E+00;  3.5228817E+00;0;  2.7321229E-02;  3.9720566E+04;  0.0000000E+00; -5.2954358E-01;  4.0000000E+04;  0.0000000E+00;  4.0002332E+04;  2.9081635E-02;  0.0000000E+00; -1.7604060E-03;  9.4582959E+02;
  4.2125087E-02;  9.9999998E-03; -1.6999030E-01;2703;  3.7031241E-03;  0.0000000E+00;  5.3681829E-04;  9.9654669E+02;  1.0000000E-01; -2.8610056E+03;3; -1.0540373E+01;  0.0000000E+00;  2.8941445E+00;0;  2.7500389E-02;  3.9728844E+04;  0.0000000E+00; -4.3697932E-01;  4.0000000E+04;  0.0000000E+00;  4.0001664E+04;  2.9406941E-02;  0.0000000E+00; -1.9065513E-03;  7.8463147E+02;
  4.2108972E-02;  9.9999998E-03; -1.5998565E-01;2704;  3.6179544E-03;  0.0000000E+00;  5.1463343E-04;  9.9664789E+02;  1.0000000E-01; -2.7771560E+03;3; -1.1948197E+01;  0.0000000E+00;  2.3110170E+00;0;  2.7856231E-02;  3.9737117E+04;  0.0000000E+00; -3.4189466E-01;  4.0000000E+04;  0.0000000E+00;  4.0002289E+04;  2.9872255E-02;  0.0000000E+00; -2.0160244E-03;  7.0598285E+02;
  4.2088624E-02;  9.9999998E-03; -1.4998442E-01;2705;  3.6062275E-03;  0.0000000E+00;  4.8874679E-04;  9.9675189E+02;  1.0000000E-01; -2.6909856E+03;3; -1.3040441E+01;  0.0000000E+00;  1.7838466E+00;0;  2.8382231E-02;  3.9744770E+04;  0.0000000E+00; -2.5330544E-01;  4.0000000E+04;  0.0000000E+00;  4.0002484E+04;  3.0484077E-02;  0.0000000E+00; -2.1018451E-03;  7.1686816E+02;
  4.2068280E-02;  9.9999998E-03; -1.3998520E-01;2706;  3.6525135E-03;  0.0000000E+00;  4.6248385E-04;  9.9684564E+02;  1.0000000E-01; -2.6133088E+03;3; -1.3924303E+01;  0.0000000E+00;  1.3227282E+00;0;  2.9052272E-02;  3.9751105E+04;  0.0000000E+00; -1.7779674E-01;  4.0000000E+04;  0.0000000E+00;  4.0004320E+04;  3.1228635E-02;  0.0000000E+00; -2.1763621E-03;  7.8577881E+02;
  4.2051323E-02;  9.9999998E-03; -1.2998775E-01;2707;  3.7363879E-03;  0.0000000E+00;  4.3744713E-04;  9.9691754E+02;  1.0000000E-01; -2.5537549E+03;3; -1.4690546E+01;  0.0000000E+00;  9.3569434E-01;0;  2.9826006E-02;  3.9756379E+04;  0.0000000E+00; -1.1884303E-01;  4.0000000E+04;  0.0000000E+00;  4.0004301E+04;  3.2077026E-02;  0.0000000E+00; -2.2510202E-03;  8.4898053E+02;
  4.2039525E-02;  9.9999998E-03; -1.1999139E-01;2708;  3.8353465E-03;  0.0000000E+00;  4.1335443E-04;  9.9696735E+02;  1.0000000E-01; -2.5124722E+03;3; -1.5432453E+01;  0.0000000E+00;  6.2276530E-01;0;  3.0656826E-02;  3.9760016E+04;  0.0000000E+00; -7.6611027E-02;  4.0000000E+04;  0.0000000E+00;  4.0005309E+04;  3.2989956E-02;  0.0000000E+00; -2.3331298E-03;  8.5583014E+02;
  4.2032983E-02;  9.9999998E-03; -1.0999510E-01;2709;  3.9290539E-03;  0.0000000E+00;  3.8785019E-04;  9.9699396E+02;  1.0000000E-01; -2.4904480E+03;3; -1.6167902E+01;  0.0000000E+00;  3.7956232E-01;0;  3.1497527E-02;  3.9762676E+04;  0.0000000E+00; -4.8661001E-02;  4.0000000E+04;  0.0000000E+00;  4.0004566E+04;  3.3921927E-02;  0.0000000E+00; -2.4244010E-03;  7.8911475E+02;
  5.0698452E-02;  9.9999998E-03; -2.6998359E-01;2754;  3.0220784E-03;  0.0000000E+00;  7.0623931E-04;  9.9812463E+02;  1.0000000E-01; -1.5536844E+03;3;  7.6456232E+00;  0.0000000E+00;  5.4422742E-01;0;  2.8632326E-02;  3.9837414E+04;  0.0000000E+00; -5.7100874E-01;  4.0000000E+04;  0.0000000E+00;  4.0009977E+04;  2.4966512E-02;  0.0000000E+00;  3.6658139E-03;  1.6644183E+03;
  5.1021118E-02;  9.9999998E-03; -2.6000521E-01;2755;  3.6776192E-03;  0.0000000E+00;  6.4260577E-04;  9.9813403E+02;  1.0000000E-01; -1.5459316E+03;3;  5.8970356E+00;  0.0000000E+00; -2.4419436E+00;0;  2.9730475E-02;  3.9832945E+04;  0.0000000E+00; -4.8321074E-01;  4.0000000E+04;  0.0000000E+00;  4.0016879E+04;  2.6986819E-02;  0.0000000E+00;  2.7436551E-03;  2.3832051E+03;
  5.1286731E-02;  9.9999998E-03; -2.5002974E-01;2756;  4.1156909E-03;  0.0000000E+00;  5.6400051E-04;  9.9817273E+02;  1.0000000E-01; -1.5138831E+03;3;  3.5132463E+00;  0.0000000E+00; -2.9611890E+00;0;  3.0431964E-02;  3.9833793E+04;  0.0000000E+00; -4.2090014E-01;  4.0000000E+04;  0.0000000E+00;  4.0020816E+04;  2.8615870E-02;  0.0000000E+00;  1.8160935E-03;  2.7959746E+03;
  5.1497374E-02;  9.9999998E-03; -2.4004558E-01;2757;  4.3555060E-03;  0.0000000E+00;  5.0019915E-04;  9.9823425E+02;  1.0000000E-01; -1.4628722E+03;3;  5.6815100E-01;  0.0000000E+00; -1.9358038E+00;0;  3.0828521E-02;  3.9839551E+04;  0.0000000E+00; -3.9102536E-01;  4.0000000E+04;  0.0000000E+00;  4.0021270E+04;  2.9868301E-02;  0.0000000E+00;  9.6022052E-04;  2.8332007E+03;
  5.1662404E-02;  9.9999998E-03; -2.3004802E-01;2758;  4.4090641E-03;  0.0000000E+00;  4.5923601E-04;  9.9831519E+02;  1.0000000E-01; -1.3958124E+03;3; -2.7905607E+00;  0.0000000E+00; -3.6468127E-01;0;  3.1015694E-02;  3.9849703E+04;  0.0000000E+00; -3.8810539E-01;  4.0000000E+04;  0.0000000E+00;  4.0018508E+04;  3.0798320E-02;  0.0000000E+00;  2.1737511E-04;  2.5445447E+03;
  5.1782712E-02;  9.9999998E-03; -2.2004086E-01;2759;  4.2859204E-03;  0.0000000E+00;  4.5432491E-04;  9.9841095E+02;  1.0000000E-01; -1.3165060E+03;3; -6.3240924E+00;  0.0000000E+00;  1.0453684E+00;0;  3.1082848E-02;  3.9862762E+04;  0.0000000E+00; -3.9948094E-01;  4.0000000E+04;  0.0000000E+00;  4.0014570E+04;  3.1485230E-02;  0.0000000E+00; -4.0238112E-04;  2.0497061E+03;
  5.1862363E-02;  9.9999998E-03; -2.1002774E-01;2760;  4.0163076E-03;  0.0000000E+00;  5.0806504E-04;  9.9852863E+02;  1.0000000E-01; -1.2190272E+03;3; -9.7978964E+00;  0.0000000E+00;  1.9696119E+00;0;  3.1113673E-02;  3.9877898E+04;  0.0000000E+00; -4.1129610E-01;  4.0000000E+04;  0.0000000E+00;  4.0010125E+04;  3.2022081E-02;  0.0000000E+00; -9.0840890E-04;  1.4939702E+03;
  5.1908739E-02;  9.9999998E-03; -2.0001301E-01;2761;  3.6914176E-03;  0.0000000E+00;  5.6825235E-04;  9.9866138E+02;  1.0000000E-01; -1.1090056E+03;3; -1.2959333E+01;  0.0000000E+00;  2.3839190E+00;0;  3.1177772E-02;  3.9893805E+04;  0.0000000E+00; -4.1242996E-01;  4.0000000E+04;  0.0000000E+00;  4.0005453E+04;  3.2493114E-02;  0.0000000E+00; -1.3153425E-03;  1.0141772E+03;
  5.1927377E-02;  9.9999998E-03; -1.8999898E-01;2762;  3.3895764E-03;  0.0000000E+00;  5.9493957E-04;  9.9880811E+02;  1.0000000E-01; -9.8747827E+02;3; -1.5653641E+01;  0.0000000E+00;  2.4241211E+00;0;  3.1334598E-02;  3.9909543E+04;  0.0000000E+00; -3.9651334E-01;  4.0000000E+04;  0.0000000E+00;  4.0002754E+04;  3.2971378E-02;  0.0000000E+00; -1.6367807E-03;  7.0359906E+02;
  5.1923506E-02;  9.9999998E-03; -1.7998739E-01;2763;  3.1508903E-03;  0.0000000E+00;  5.8940885E-04;  9.9896173E+02;  1.0000000E-01; -8.6017322E+02;3; -1.7802439E+01;  0.0000000E+00;  2.2514102E+00;0;  3.1632356E-02;  3.9924348E+04;  0.0000000E+00; -3.6244056E-01;  4.0000000E+04;  0.0000000E+00;  4.0000902E+04;  3.3516511E-02;  0.0000000E+00; -1.8841560E-03;  5.5424683E+02;
  5.1904123E-02;  9.9999998E-03; -1.6997951E-01;2764;  2.9938652E-03;  0.0000000E+00;  5.5878580E-04;  9.9911877E+02;  1.0000000E-01; -7.3010278E+02;3; -1.9423231E+01;  0.0000000E+00;  1.9652119E+00;0;  3.2101143E-02;  3.9937773E+04;  0.0000000E+00; -3.1336743E-01;  4.0000000E+04;  0.0000000E+00;  4.0000223E+04;  3.4169551E-02;  0.0000000E+00; -2.0684074E-03;  4.7817847E+02;
  5.1876407E-02;  9.9999998E-03; -1.5997674E-01;2765;  2.9171542E-03;  0.0000000E+00;  5.1630620E-04;  9.9926611E+02;  1.0000000E-01; -6.0803217E+02;3; -2.0574594E+01;  0.0000000E+00;  1.6245028E+00;0;  3.2749072E-02;  3.9949125E+04;  0.0000000E+00; -2.5544438E-01;  4.0000000E+04;  0.0000000E+00;  4.0001746E+04;  3.4950674E-02;  0.0000000E+00; -2.2016033E-03;  4.6307892E+02;
  5.1846344E-02;  9.9999998E-03; -1.4997780E-01;2766;  2.9115397E-03;  0.0000000E+00;  4.7341522E-04;  9.9939624E+02;  1.0000000E-01; -5.0018338E+02;3; -2.1380989E+01;  0.0000000E+00;  1.2702882E+00;0;  3.3560507E-02;  3.9958285E+04;  0.0000000E+00; -1.9604583E-01;  4.0000000E+04;  0.0000000E+00;  4.0004246E+04;  3.5857469E-02;  0.0000000E+00; -2.2969632E-03;  5.6016412E+02;
  5.1818397E-02;  9.9999998E-03; -1.3998207E-01;2767;  2.9637795E-03;  0.0000000E+00;  4.3556467E-04;  9.9950031E+02;  1.0000000E-01; -4.1396359E+02;3; -2.1976099E+01;  0.0000000E+00;  9.4297159E-01;0;  3.4499891E-02;  3.9965406E+04;  0.0000000E+00; -1.4190592E-01;  4.0000000E+04;  0.0000000E+00;  4.0004770E+04;  3.6868066E-02;  0.0000000E+00; -2.3681747E-03;  7.2349615E+02;
  5.1796079E-02;  9.9999998E-03; -1.2998901E-01;2768;  3.0536032E-03;  0.0000000E+00;  4.0532439E-04;  9.9957916E+02;  1.0000000E-01; -3.4863211E+02;3; -2.2504517E+01;  0.0000000E+00;  6.6575897E-01;0;  3.5520069E-02;  3.9970457E+04;  0.0000000E+00; -9.7608216E-02;  4.0000000E+04;  0.0000000E+00;  4.0006699E+04;  3.7949428E-02;  0.0000000E+00; -2.4293573E-03;  8.5844135E+02;
  5.1780727E-02;  9.9999998E-03; -1.1999696E-01;2769;  3.1590245E-03;  0.0000000E+00;  3.8140884E-04;  9.9962347E+02;  1.0000000E-01; -3.1194180E+02;3; -2.3028038E+01;  0.0000000E+00;  4.4174817E-01;0;  3.6568779E-02;  3.9974051E+04;  0.0000000E+00; -6.4593419E-02;  4.0000000E+04;  0.0000000E+00;  4.0007211E+04;  3.9061289E-02;  0.0000000E+00; -2.4925107E-03;  9.0441187E+02;
  5.1772129E-02;  9.9999998E-03; -1.1000400E-01;2770;  3.2584080E-03;  0.0000000E+00;  3.6031418E-04;  9.9964301E+02;  1.0000000E-01; -2.9574472E+02;3; -2.3602480E+01;  0.0000000E+00;  2.6852509E-01;0;  3.7595633E-02;  3.9976051E+04;  0.0000000E+00; -4.1819725E-02;  4.0000000E+04;  0.0000000E+00;  4.0006730E+04;  4.0160656E-02;  0.0000000E+00; -2.5650242E-03;  8.4430237E+02;
  6.0693171E-02;  9.9999998E-03; -2.6999030E-01;2815;  2.7611842E-03;  0.0000000E+00;  3.3784026E-04;  9.9883203E+02;  1.0000000E-01; -9.6762695E+02;3;  6.8877296E+00;  0.0000000E+00; -5.6473618E+00;0;  3.2502312E-02;  3.9893656E+04;  0.0000000E+00; -4.0610224E-01;  4.0000000E+04;  0.0000000E+00;  4.0011316E+04;  2.8628934E-02;  0.0000000E+00;  3.8733771E-03;  1.5848066E+03;
  6.0989480E-02;  9.9999998E-03; -2.6001179E-01;2816;  3.4289791E-03;  0.0000000E+00;  3.4945537E-04;  9.9902679E+02;  1.0000000E-01; -8.0629816E+02;3;  4.2064257E+00;  0.0000000E+00; -8.7080641E+00;0;  3.3890128E-02;  3.9904172E+04;  0.0000000E+00; -2.2970217E-01;  4.0000000E+04;  0.0000000E+00;  4.0017531E+04;  3.0973226E-02;  0.0000000E+00;  2.9169014E-03;  2.3221836E+03;
  6.1230168E-02;  9.9999998E-03; -2.5003189E-01;2817;  3.8444013E-03;  0.0000000E+00;  3.0093518E-04;  9.9925061E+02;  1.0000000E-01; -6.2087134E+02;3;  1.0648993E+00;  0.0000000E+00; -8.8742933E+00;0;  3.4885820E-02;  3.9920258E+04;  0.0000000E+00; -8.5804135E-02;  4.0000000E+04;  0.0000000E+00;  4.0021188E+04;  3.2934234E-02;  0.0000000E+00;  1.9515865E-03;  2.7169910E+03;
  6.1416417E-02;  9.9999998E-03; -2.4004404E-01;2818;  4.0525338E-03;  0.0000000E+00;  2.6987196E-04;  9.9948816E+02;  1.0000000E-01; -4.2403738E+02;3; -2.3964367E+00;  0.0000000E+00; -7.1354251E+00;0;  3.5591599E-02;  3.9940820E+04;  0.0000000E+00;  5.9873727E-03;  4.0000000E+04;  0.0000000E+00;  4.0021000E+04;  3.4536697E-02;  0.0000000E+00;  1.0549009E-03;  2.7079597E+03;
  6.1557744E-02;  9.9999998E-03; -2.3004398E-01;2819;  4.0518302E-03;  0.0000000E+00;  2.9156689E-04;  9.9972961E+02;  1.0000000E-01; -2.2399367E+02;3; -6.0056834E+00;  0.0000000E+00; -4.6497951E+00;0;  3.6111347E-02;  3.9964457E+04;  0.0000000E+00;  4.1424461E-02;  4.0000000E+04;  0.0000000E+00;  4.0018402E+04;  3.5844348E-02;  0.0000000E+00;  2.6699889E-04;  2.3531367E+03;
  6.1658137E-02;  9.9999998E-03; -2.2003429E-01;2820;  3.8592978E-03;  0.0000000E+00;  3.9091293E-04;  9.9996826E+02;  1.0000000E-01; -2.6270863E+01;3; -9.5471859E+00;  0.0000000E+00; -2.3138297E+00;0;  3.6533408E-02;  3.9989594E+04;  0.0000000E+00;  2.9774385E-02;  4.0000000E+04;  0.0000000E+00;  4.0013766E+04;  3.6937315E-02;  0.0000000E+00; -4.0390727E-04;  1.7792245E+03;
  6.1722450E-02;  9.9999998E-03; -2.1001939E-01;2821;  3.5479043E-03;  0.0000000E+00;  5.1280262E-04;  1.0002027E+03;  1.0000000E-01;  1.6789648E+02;3; -1.2812815E+01;  0.0000000E+00; -5.9129298E-01;0;  3.6933236E-02;  4.0014746E+04;  0.0000000E+00; -1.1078703E-02;  4.0000000E+04;  0.0000000E+00;  4.0009496E+04;  3.7898630E-02;  0.0000000E+00; -9.6539251E-04;  1.1372340E+03;
  6.1756987E-02;  9.9999998E-03; -2.0000350E-01;2822;  3.2103332E-03;  0.0000000E+00;  5.9434422E-04;  1.0004316E+03;  1.0000000E-01;  3.5761951E+02;3; -1.5651388E+01;  0.0000000E+00;  4.6913505E-01;0;  3.7376728E-02;  4.0038766E+04;  0.0000000E+00; -6.2234871E-02;  4.0000000E+04;  0.0000000E+00;  4.0004840E+04;  3.8805414E-02;  0.0000000E+00; -1.4286865E-03;  5.6996143E+02;
  6.1765108E-02;  9.9999998E-03; -1.8998876E-01;2823;  2.9077847E-03;  0.0000000E+00;  6.2242791E-04;  1.0006494E+03;  1.0000000E-01;  5.3805884E+02;3; -1.7971350E+01;  0.0000000E+00;  1.0249195E+00;0;  3.7919521E-02;  4.0060664E+04;  0.0000000E+00; -1.0825915E-01;  4.0000000E+04;  0.0000000E+00;  4.0001430E+04;  3.9721750E-02;  0.0000000E+00; -1.8022293E-03;  2.1782568E+02;
  6.1751537E-02;  9.9999998E-03; -1.7997734E-01;2824;  2.6715691E-03;  0.0000000E+00;  6.0823682E-04;  1.0008536E+03;  1.0000000E-01;  7.0723926E+02;3; -1.9749031E+01;  0.0000000E+00;  1.2390600E+00;0;  3.8603518E-02;  4.0079613E+04;  0.0000000E+00; -1.3891879E-01;  4.0000000E+04;  0.0000000E+00;  4.0000613E+04;  4.0695097E-02;  0.0000000E+00; -2.0915777E-03;  2.0014819E+02;
  6.1723426E-02;  9.9999998E-03; -1.6997157E-01;2825;  2.5108992E-03;  0.0000000E+00;  5.6226837E-04;  1.0010431E+03;  1.0000000E-01;  8.6417310E+02;3; -2.1024755E+01;  0.0000000E+00;  1.2303619E+00;0;  3.9450578E-02;  4.0095371E+04;  0.0000000E+00; -1.4981942E-01;  4.0000000E+04;  0.0000000E+00;  4.0000516E+04;  4.1753795E-02;  0.0000000E+00; -2.3032185E-03;  2.1379018E+02;
  6.1688144E-02;  9.9999998E-03; -1.5997125E-01;2826;  2.4382386E-03;  0.0000000E+00;  5.0299458E-04;  1.0012039E+03;  1.0000000E-01;  9.9740387E+02;3; -2.1857496E+01;  0.0000000E+00;  1.0824668E+00;0;  4.0455885E-02;  4.0107617E+04;  0.0000000E+00; -1.4215937E-01;  4.0000000E+04;  0.0000000E+00;  4.0002684E+04;  4.2903628E-02;  0.0000000E+00; -2.4477427E-03;  2.6817633E+02;
  6.1651353E-02;  9.9999998E-03; -1.4997543E-01;2827;  2.4389599E-03;  0.0000000E+00;  4.4324528E-04;  1.0013414E+03;  1.0000000E-01;  1.1113760E+03;3; -2.2393112E+01;  0.0000000E+00;  8.6704117E-01;0;  4.1593898E-02;  4.0116879E+04;  0.0000000E+00; -1.2142062E-01;  4.0000000E+04;  0.0000000E+00;  4.0004348E+04;  4.4133343E-02;  0.0000000E+00; -2.5394456E-03;  4.9034775E+02;
  6.1617870E-02;  9.9999998E-03; -1.3998358E-01;2828;  2.4950476E-03;  0.0000000E+00;  3.9392416E-04;  1.0014438E+03;  1.0000000E-01;  1.1962131E+03;3; -2.2748104E+01;  0.0000000E+00;  6.4750046E-01;0;  4.2821836E-02;  4.0123223E+04;  0.0000000E+00; -9.4937526E-02;  4.0000000E+04;  0.0000000E+00;  4.0007070E+04;  4.5416366E-02;  0.0000000E+00; -2.5945317E-03;  7.5845709E+02;
  6.1590999E-02;  9.9999998E-03; -1.2999502E-01;2829;  2.5905427E-03;  0.0000000E+00;  3.5940431E-04;  1.0015129E+03;  1.0000000E-01;  1.2533966E+03;3; -2.3057112E+01;  0.0000000E+00;  4.5926094E-01;0;  4.4087365E-02;  4.0127445E+04;  0.0000000E+00; -6.9108188E-02;  4.0000000E+04;  0.0000000E+00;  4.0008711E+04;  4.6717502E-02;  0.0000000E+00; -2.6301357E-03;  9.6306848E+02;
  6.1572026E-02;  9.9999998E-03; -1.2000734E-01;2830;  2.7043265E-03;  0.0000000E+00;  3.3823584E-04;  1.0015499E+03;  1.0000000E-01;  1.2840131E+03;3; -2.3407932E+01;  0.0000000E+00;  3.0794045E-01;0;  4.5336097E-02;  4.0129848E+04;  0.0000000E+00; -4.7400851E-02;  4.0000000E+04;  0.0000000E+00;  4.0009652E+04;  4.7999386E-02;  0.0000000E+00; -2.6632873E-03;  1.0449147E+03;
  6.1561376E-02;  9.9999998E-03; -1.1001713E-01;2831;  2.8129129E-03;  0.0000000E+00;  3.2499211E-04;  1.0015588E+03;  1.0000000E-01;  1.2914203E+03;3; -2.3832432E+01;  0.0000000E+00;  1.8974617E-01;0;  4.6518713E-02;  4.0130973E+04;  0.0000000E+00; -3.0906651E-02;  4.0000000E+04;  0.0000000E+00;  4.0009199E+04;  4.9226195E-02;  0.0000000E+00; -2.7074821E-03;  9.8941516E+02;
  7.0692301E-02;  9.9999998E-03; -2.6999480E-01;2876;  2.5708412E-03;  0.0000000E+00; -1.0984048E-04;  9.9926044E+02;  1.0000000E-01; -6.1272339E+02;3;  7.8210106E+00;  0.0000000E+00; -1.0727729E+01;0;  3.7380137E-02;  3.9928176E+04;  0.0000000E+00; -1.0569324E-01;  4.0000000E+04;  0.0000000E+00;  4.0011832E+04;  3.3313010E-02;  0.0000000E+00;  4.0671262E-03;  1.5140878E+03;
  7.0960194E-02;  9.9999998E-03; -2.6001775E-01;2877;  3.2506562E-03;  0.0000000E+00; -5.3409385E-05;  9.9959869E+02;  1.0000000E-01; -3.3248444E+02;3;  4.6562696E+00;  0.0000000E+00; -1.3920968E+01;0;  3.9152205E-02;  3.9949691E+04;  0.0000000E+00;  1.4430390E-01;  4.0000000E+04;  0.0000000E+00;  4.0019062E+04;  3.6116876E-02;  0.0000000E+00;  3.0353302E-03;  2.3798047E+03;
  7.1174659E-02;  9.9999998E-03; -2.5003609E-01;2878;  3.6617520E-03;  0.0000000E+00; -6.3316846E-05;  9.9996094E+02;  1.0000000E-01; -3.2344765E+01;3;  1.2298347E+00;  0.0000000E+00; -1.3776468E+01;0;  4.0544316E-02;  3.9976926E+04;  0.0000000E+00;  3.5262832E-01;  4.0000000E+04;  0.0000000E+00;  4.0022070E+04;  3.8545243E-02;  0.0000000E+00;  1.9990713E-03;  2.8374756E+03;
  7.1339324E-02;  9.9999998E-03; -2.4004473E-01;2879;  3.8652646E-03;  0.0000000E+00; -2.5650765E-05;  1.0003259E+03;  1.0000000E-01;  2.7001706E+02;3; -2.2914460E+00;  0.0000000E+00; -1.1363745E+01;0;  4.1674908E-02;  4.0008090E+04;  0.0000000E+00;  4.9107373E-01;  4.0000000E+04;  0.0000000E+00;  4.0022316E+04;  4.0638745E-02;  0.0000000E+00;  1.0361650E-03;  2.8517139E+03;
  7.1462251E-02;  9.9999998E-03; -2.3004174E-01;2880;  3.8493192E-03;  0.0000000E+00;  9.9396311E-05;  1.0006797E+03;  1.0000000E-01;  5.6314459E+02;3; -5.7285786E+00;  0.0000000E+00; -8.0397949E+00;0;  4.2652238E-02;  4.0041348E+04;  0.0000000E+00;  5.4697573E-01;  4.0000000E+04;  0.0000000E+00;  4.0019344E+04;  4.2465571E-02;  0.0000000E+00;  1.8666672E-04;  2.4939646E+03;
  7.1549185E-02;  9.9999998E-03; -2.2002964E-01;2881;  3.6360347E-03;  0.0000000E+00;  2.8493279E-04;  1.0010117E+03;  1.0000000E-01;  8.3819849E+02;3; -8.9026432E+00;  0.0000000E+00; -4.9129949E+00;0;  4.3560416E-02;  4.0074527E+04;  0.0000000E+00;  5.2436739E-01;  4.0000000E+04;  0.0000000E+00;  4.0015047E+04;  4.4101812E-02;  0.0000000E+00; -5.4139696E-04;  1.9013201E+03;
  7.1604535E-02;  9.9999998E-03; -2.1001297E-01;2882;  3.3073914E-03;  0.0000000E+00;  4.6503317E-04;  1.0013204E+03;  1.0000000E-01;  1.0938950E+03;3; -1.1683791E+01;  0.0000000E+00; -2.5389495E+00;0;  4.4463281E-02;  4.0106086E+04;  0.0000000E+00;  4.4195136E-01;  4.0000000E+04;  0.0000000E+00;  4.0009332E+04;  4.5619745E-02;  0.0000000E+00; -1.1564638E-03;  1.2366040E+03;
  7.1632147E-02;  9.9999998E-03; -1.9999534E-01;2883;  2.9635290E-03;  0.0000000E+00;  5.7502190E-04;  1.0016001E+03;  1.0000000E-01;  1.3256909E+03;3; -1.3994631E+01;  0.0000000E+00; -9.5741624E-01;0;  4.5413580E-02;  4.0134832E+04;  0.0000000E+00;  3.2720014E-01;  4.0000000E+04;  0.0000000E+00;  4.0004910E+04;  4.7081787E-02;  0.0000000E+00; -1.6682090E-03;  6.5721344E+02;
  7.1634404E-02;  9.9999998E-03; -1.8998013E-01;2884;  2.6602582E-03;  0.0000000E+00;  6.1131874E-04;  1.0018503E+03;  1.0000000E-01;  1.5328949E+03;3; -1.5813972E+01;  0.0000000E+00; -7.2410149E-03;0;  4.6454512E-02;  4.0159578E+04;  0.0000000E+00;  2.0739329E-01;  4.0000000E+04;  0.0000000E+00;  4.0001746E+04;  4.8536178E-02;  0.0000000E+00; -2.0816678E-03;  3.0138785E+02;
  7.1615770E-02;  9.9999998E-03; -1.7996973E-01;2885;  2.4238445E-03;  0.0000000E+00;  5.9179129E-04;  1.0020713E+03;  1.0000000E-01;  1.7160009E+03;3; -1.7157763E+01;  0.0000000E+00;  4.9416110E-01;0;  4.7615696E-02;  4.0179852E+04;  0.0000000E+00;  1.0274695E-01;  4.0000000E+04;  0.0000000E+00;  4.0000578E+04;  5.0014243E-02;  0.0000000E+00; -2.3985479E-03;  1.9587628E+02;
  7.1584173E-02;  9.9999998E-03; -1.6996627E-01;2886;  2.2671267E-03;  0.0000000E+00;  5.3885841E-04;  1.0022591E+03;  1.0000000E-01;  1.8716508E+03;3; -1.8067135E+01;  0.0000000E+00;  6.8758225E-01;0;  4.8907019E-02;  4.0195672E+04;  0.0000000E+00;  2.5165496E-02;  4.0000000E+04;  0.0000000E+00;  4.0000945E+04;  5.1529508E-02;  0.0000000E+00; -2.6224907E-03;  7.5446457E+01;
  7.1545757E-02;  9.9999998E-03; -1.5996847E-01;2887;  2.1949834E-03;  0.0000000E+00;  4.6875863E-04;  1.0024186E+03;  1.0000000E-01;  2.0037952E+03;3; -1.8632460E+01;  0.0000000E+00;  6.8104613E-01;0;  5.0311573E-02;  4.0206988E+04;  0.0000000E+00; -2.1944840E-02;  4.0000000E+04;  0.0000000E+00;  4.0003125E+04;  5.3074576E-02;  0.0000000E+00; -2.7630043E-03;  1.8658330E+02;
  7.1506396E-02;  9.9999998E-03; -1.4997548E-01;2888;  2.1959906E-03;  0.0000000E+00;  3.9912746E-04;  1.0025418E+03;  1.0000000E-01;  2.1058169E+03;3; -1.8944263E+01;  0.0000000E+00;  5.6839764E-01;0;  5.1792260E-02;  4.0214633E+04;  0.0000000E+00; -4.2610239E-02;  4.0000000E+04;  0.0000000E+00;  4.0006004E+04;  5.4628279E-02;  0.0000000E+00; -2.8360204E-03;  5.4057471E+02;
  7.1470715E-02;  9.9999998E-03; -1.3998750E-01;2889;  2.2568516E-03;  0.0000000E+00;  3.4075865E-04;  1.0026247E+03;  1.0000000E-01;  2.1745557E+03;3; -1.9115084E+01;  0.0000000E+00;  4.3175256E-01;0;  5.3298995E-02;  4.0219152E+04;  0.0000000E+00; -4.5311674E-02;  4.0000000E+04;  0.0000000E+00;  4.0008633E+04;  5.6159973E-02;  0.0000000E+00; -2.8609766E-03;  8.9461316E+02;
  7.1441762E-02;  9.9999998E-03; -1.3000338E-01;2890;  2.3553739E-03;  0.0000000E+00;  3.0234290E-04;  1.0026769E+03;  1.0000000E-01;  2.2177151E+03;3; -1.9270838E+01;  0.0000000E+00;  3.1247351E-01;0;  5.4778971E-02;  4.0221418E+04;  0.0000000E+00; -3.8637716E-02;  4.0000000E+04;  0.0000000E+00;  4.0010672E+04;  5.7637524E-02;  0.0000000E+00; -2.8585515E-03;  1.1572349E+03;
  7.1420990E-02;  9.9999998E-03; -1.2001924E-01;2891;  2.4726964E-03;  0.0000000E+00;  2.8492263E-04;  1.0026931E+03;  1.0000000E-01;  2.2311467E+03;3; -1.9473898E+01;  0.0000000E+00;  2.1599521E-01;0;  5.6180302E-02;  4.0222195E+04;  0.0000000E+00; -2.8587645E-02;  4.0000000E+04;  0.0000000E+00;  4.0012035E+04;  5.9031226E-02;  0.0000000E+00; -2.8509235E-03;  1.2694711E+03;
  7.1408443E-02;  9.9999998E-03; -1.1003148E-01;2892;  2.5866353E-03;  0.0000000E+00;  2.8249167E-04;  1.0026883E+03;  1.0000000E-01;  2.2271963E+03;3; -1.9767864E+01;  0.0000000E+00;  1.4043102E-01;0;  5.7458293E-02;  4.0222004E+04;  0.0000000E+00; -1.8659908E-02;  4.0000000E+04;  0.0000000E+00;  4.0011773E+04;  6.0316134E-02;  0.0000000E+00; -2.8578429E-03;  1.2174092E+03;
  8.0698945E-02;  9.9999998E-03; -2.6999739E-01;2937;  2.6550463E-03;  0.0000000E+00; -3.7821470E-04;  9.9941040E+02;  1.0000000E-01; -4.8848001E+02;3;  9.4042749E+00;  0.0000000E+00; -1.4213737E+01;0;  4.2699799E-02;  3.9940117E+04;  0.0000000E+00;  4.5996520E-01;  4.0000000E+04;  0.0000000E+00;  4.0012293E+04;  3.8469333E-02;  0.0000000E+00;  4.2304653E-03;  1.7057664E+03;
  8.0936290E-02;  9.9999998E-03; -2.6002511E-01;2938;  3.2538404E-03;  0.0000000E+00; -4.0404566E-04;  9.9984601E+02;  1.0000000E-01; -1.2760133E+02;3;  6.1191864E+00;  0.0000000E+00; -1.7908398E+01;0;  4.4871520E-02;  3.9968867E+04;  0.0000000E+00;  7.2235596E-01;  4.0000000E+04;  0.0000000E+00;  4.0020379E+04;  4.1790623E-02;  0.0000000E+00;  3.0808961E-03;  2.7295266E+03;
  8.1123754E-02;  9.9999998E-03; -2.5004423E-01;2939;  3.6320137E-03;  0.0000000E+00; -4.5259704E-04;  1.0003040E+03;  1.0000000E-01;  2.5184473E+02;3;  2.7183063E+00;  0.0000000E+00; -1.7680836E+01;0;  4.6693701E-02;  4.0003449E+04;  0.0000000E+00;  9.2677706E-01;  4.0000000E+04;  0.0000000E+00;  4.0023633E+04;  4.4755064E-02;  0.0000000E+00;  1.9386390E-03;  3.2742803E+03;
  8.1270263E-02;  9.9999998E-03; -2.4004950E-01;2940;  3.8276610E-03;  0.0000000E+00; -4.1771386E-04;  1.0007535E+03;  1.0000000E-01;  6.2427863E+02;3; -6.0360706E-01;  0.0000000E+00; -1.4751822E+01;0;  4.8308447E-02;  4.0041273E+04;  0.0000000E+00;  1.0493937E+00;  4.0000000E+04;  0.0000000E+00;  4.0024133E+04;  4.7424257E-02;  0.0000000E+00;  8.8419102E-04;  3.3288801E+03;
  8.1379935E-02;  9.9999998E-03; -2.3004252E-01;2941;  3.8249195E-03;  0.0000000E+00; -2.4916089E-04;  1.0011731E+03;  1.0000000E-01;  9.7192316E+02;3; -3.6772795E+00;  0.0000000E+00; -1.0716866E+01;0;  4.9823120E-02;  4.0080156E+04;  0.0000000E+00;  1.0783452E+00;  4.0000000E+04;  0.0000000E+00;  4.0021520E+04;  4.9865127E-02;  0.0000000E+00; -4.2006082E-05;  2.9807256E+03;
  8.1458665E-02;  9.9999998E-03; -2.2002752E-01;2942;  3.6242814E-03;  0.0000000E+00;  6.8008332E-05;  1.0015560E+03;  1.0000000E-01;  1.2891487E+03;3; -6.3757696E+00;  0.0000000E+00; -6.8623309E+00;0;  5.1309858E-02;  4.0117867E+04;  0.0000000E+00;  1.0157119E+00;  4.0000000E+04;  0.0000000E+00;  4.0016172E+04;  5.2144118E-02;  0.0000000E+00; -8.3426078E-04;  2.3809531E+03;
  8.1509776E-02;  9.9999998E-03; -2.1000865E-01;2943;  3.2886455E-03;  0.0000000E+00;  3.5693706E-04;  1.0018925E+03;  1.0000000E-01;  1.5679557E+03;3; -8.5982056E+00;  0.0000000E+00; -3.8955534E+00;0;  5.2816324E-02;  4.0152574E+04;  0.0000000E+00;  8.7823474E-01;  4.0000000E+04;  0.0000000E+00;  4.0010785E+04;  5.4315183E-02;  0.0000000E+00; -1.4988603E-03;  1.7056525E+03;
  8.1533961E-02;  9.9999998E-03; -1.9998953E-01;2944;  2.9371006E-03;  0.0000000E+00;  5.1712454E-04;  1.0021882E+03;  1.0000000E-01;  1.8128870E+03;3; -1.0362548E+01;  0.0000000E+00; -1.9216322E+00;0;  5.4369122E-02;  4.0182684E+04;  0.0000000E+00;  6.9501418E-01;  4.0000000E+04;  0.0000000E+00;  4.0005730E+04;  5.6415737E-02;  0.0000000E+00; -2.0466130E-03;  1.1181980E+03;
  8.1534229E-02;  9.9999998E-03; -1.8997401E-01;2945;  2.6369500E-03;  0.0000000E+00;  5.6960317E-04;  1.0024387E+03;  1.0000000E-01;  2.0203873E+03;3; -1.1695795E+01;  0.0000000E+00; -6.9781142E-01;0;  5.5988465E-02;  4.0207715E+04;  0.0000000E+00;  5.0058776E-01;  4.0000000E+04;  0.0000000E+00;  4.0002434E+04;  5.8471233E-02;  0.0000000E+00; -2.4827688E-03;  7.1931293E+02;
  8.1514478E-02;  9.9999998E-03; -1.7996480E-01;2946;  2.4106859E-03;  0.0000000E+00;  5.5564882E-04;  1.0026476E+03;  1.0000000E-01;  2.1935183E+03;3; -1.2642838E+01;  0.0000000E+00; -6.6711353E-03;0;  5.7683669E-02;  4.0226855E+04;  0.0000000E+00;  3.2464731E-01;  4.0000000E+04;  0.0000000E+00;  4.0000883E+04;  6.0491722E-02;  0.0000000E+00; -2.8080537E-03;  4.7286850E+02;
  8.1482552E-02;  9.9999998E-03; -1.6996284E-01;2947;  2.2645541E-03;  0.0000000E+00;  4.9830915E-04;  1.0028127E+03;  1.0000000E-01;  2.3303044E+03;3; -1.3250167E+01;  0.0000000E+00;  3.1734651E-01;0;  5.9448715E-02;  4.0240641E+04;  0.0000000E+00;  1.8476632E-01;  4.0000000E+04;  0.0000000E+00;  4.0001875E+04;  6.2474284E-02;  0.0000000E+00; -3.0255707E-03;  2.6436914E+02;
  8.1445307E-02;  9.9999998E-03; -1.5996662E-01;2948;  2.2011462E-03;  0.0000000E+00;  4.2651128E-04;  1.0029438E+03;  1.0000000E-01;  2.4388445E+03;3; -1.3595862E+01;  0.0000000E+00;  4.0485567E-01;0;  6.1254490E-02;  4.0249477E+04;  0.0000000E+00;  8.7214492E-02;  4.0000000E+04;  0.0000000E+00;  4.0004500E+04;  6.4399615E-02;  0.0000000E+00; -3.1451241E-03;  3.1561438E+02;
  8.1407972E-02;  9.9999998E-03; -1.4997591E-01;2949;  2.2100885E-03;  0.0000000E+00;  3.5093963E-04;  1.0030343E+03;  1.0000000E-01;  2.5139043E+03;3; -1.3750806E+01;  0.0000000E+00;  3.6404896E-01;0;  6.3052863E-02;  4.0254262E+04;  0.0000000E+00;  2.8608778E-02;  4.0000000E+04;  0.0000000E+00;  4.0007945E+04;  6.6237018E-02;  0.0000000E+00; -3.1841542E-03;  6.9980798E+02;
  8.1375472E-02;  9.9999998E-03; -1.3999167E-01;2950;  2.2743659E-03;  0.0000000E+00;  2.9288675E-04;  1.0030909E+03;  1.0000000E-01;  2.5608164E+03;3; -1.3813442E+01;  0.0000000E+00;  2.8683242E-01;0;  6.4789906E-02;  4.0255844E+04;  0.0000000E+00; -7.9630985E-04;  4.0000000E+04;  0.0000000E+00;  4.0011883E+04;  6.7955367E-02;  0.0000000E+00; -3.1654630E-03;  1.1097437E+03;
  8.1349276E-02;  9.9999998E-03; -1.3001116E-01;2951;  2.3776118E-03;  0.0000000E+00;  2.5622922E-04;  1.0031141E+03;  1.0000000E-01;  2.5799763E+03;3; -1.3868409E+01;  0.0000000E+00;  2.1699452E-01;0;  6.6413753E-02;  4.0255520E+04;  0.0000000E+00; -1.1650133E-02;  4.0000000E+04;  0.0000000E+00;  4.0014020E+04;  6.9527350E-02;  0.0000000E+00; -3.1135948E-03;  1.4184921E+03;
  8.1330635E-02;  9.9999998E-03; -1.2002984E-01;2952;  2.4982081E-03;  0.0000000E+00;  2.4377569E-04;  1.0031099E+03;  1.0000000E-01;  2.5764209E+03;3; -1.3976996E+01;  0.0000000E+00;  1.5966991E-01;0;  6.7881659E-02;  4.0254367E+04;  0.0000000E+00; -1.2462437E-02;  4.0000000E+04;  0.0000000E+00;  4.0014527E+04;  7.0937417E-02;  0.0000000E+00; -3.0557560E-03;  1.5572659E+03;
  8.1318252E-02;  9.9999998E-03; -1.1004408E-01;2953;  2.6153156E-03;  0.0000000E+00;  2.5306767E-04;  1.0030875E+03;  1.0000000E-01;  2.5579524E+03;3; -1.4165733E+01;  0.0000000E+00;  1.1501757E-01;0;  6.9158852E-02;  4.0252895E+04;  0.0000000E+00; -8.9108692E-03;  4.0000000E+04;  0.0000000E+00;  4.0014395E+04;  7.2176665E-02;  0.0000000E+00; -3.0178158E-03;  1.5099500E+03;
  9.0710424E-02;  9.9999998E-03; -2.6999554E-01;2998;  3.1214850E-03;  0.0000000E+00; -3.8752091E-04;  9.9930560E+02;  1.0000000E-01; -5.7529236E+02;3;  1.0989917E+01;  0.0000000E+00; -1.5833894E+01;0;  4.7826778E-02;  3.9931250E+04;  0.0000000E+00;  1.4794799E+00;  4.0000000E+04;  0.0000000E+00;  4.0012875E+04;  4.3477029E-02;  0.0000000E+00;  4.3497505E-03;  2.7172214E+03;
  9.0918325E-02;  9.9999998E-03; -2.6002952E-01;2999;  3.6515845E-03;  0.0000000E+00; -4.7759418E-04;  9.9980518E+02;  1.0000000E-01; -1.6142754E+02;3;  7.6454754E+00;  0.0000000E+00; -2.0205780E+01;0;  5.0311614E-02;  3.9964242E+04;  0.0000000E+00;  1.6399271E+00;  4.0000000E+04;  0.0000000E+00;  4.0022047E+04;  4.7276847E-02;  0.0000000E+00;  3.0347661E-03;  3.6422551E+03;
  9.1082260E-02;  9.9999998E-03; -2.5005007E-01;3000;  3.9402614E-03;  0.0000000E+00; -5.9303711E-04;  1.0003200E+03;  1.0000000E-01;  2.6507892E+02;3;  4.3648477E+00;  0.0000000E+00; -2.0126471E+01;0;  5.2514590E-02;  4.0002676E+04;  0.0000000E+00;  1.7151136E+00;  4.0000000E+04;  0.0000000E+00;  4.0026738E+04;  5.0761171E-02;  0.0000000E+00;  1.7534189E-03;  4.1378398E+03;
  9.1213144E-02;  9.9999998E-03; -2.4005285E-01;3001;  4.0506516E-03;  0.0000000E+00; -6.3494896E-04;  1.0008138E+03;  1.0000000E-01;  6.7415375E+02;3;  1.3438561E+00;  0.0000000E+00; -1.6997076E+01;0;  5.4599773E-02;  4.0044117E+04;  0.0000000E+00;  1.7064582E+00;  4.0000000E+04;  0.0000000E+00;  4.0027180E+04;  5.4012828E-02;  0.0000000E+00;  5.8694487E-04;  4.1335762E+03;
  9.1313288E-02;  9.9999998E-03; -2.3004325E-01;3002;  4.0171496E-03;  0.0000000E+00; -5.1869272E-04;  1.0012634E+03;  1.0000000E-01;  1.0466864E+03;3; -1.3009986E+00;  0.0000000E+00; -1.2527501E+01;0;  5.6669768E-02;  4.0085453E+04;  0.0000000E+00;  1.6187569E+00;  4.0000000E+04;  0.0000000E+00;  4.0024293E+04;  5.7095744E-02;  0.0000000E+00; -4.2597548E-04;  3.7094314E+03;
  9.1388464E-02;  9.9999998E-03; -2.2002620E-01;3003;  3.8244524E-03;  0.0000000E+00; -2.4318200E-04;  1.0016628E+03;  1.0000000E-01;  1.3776400E+03;3; -3.4999447E+00;  0.0000000E+00; -8.2115526E+00;0;  5.8777601E-02;  4.0124746E+04;  0.0000000E+00;  1.4598864E+00;  4.0000000E+04;  0.0000000E+00;  4.0018734E+04;  6.0056873E-02;  0.0000000E+00; -1.2792705E-03;  3.0234944E+03;
  9.1437034E-02;  9.9999998E-03; -2.1000603E-01;3004;  3.4934431E-03;  0.0000000E+00;  1.4973599E-04;  1.0020026E+03;  1.0000000E-01;  1.6591135E+03;3; -5.2364292E+00;  0.0000000E+00; -4.8127103E+00;0;  6.0932789E-02;  4.0159660E+04;  0.0000000E+00;  1.2431171E+00;  4.0000000E+04;  0.0000000E+00;  4.0012500E+04;  6.2918119E-02;  0.0000000E+00; -1.9853306E-03;  2.2591648E+03;
  9.1461740E-02;  9.9999998E-03; -1.9998604E-01;3005;  3.1278597E-03;  0.0000000E+00;  4.1825519E-04;  1.0022835E+03;  1.0000000E-01;  1.8917983E+03;3; -6.5367184E+00;  0.0000000E+00; -2.5026269E+00;0;  6.3132867E-02;  4.0189270E+04;  0.0000000E+00;  9.9075443E-01;  4.0000000E+04;  0.0000000E+00;  4.0007387E+04;  6.5687016E-02;  0.0000000E+00; -2.5541482E-03;  1.5776517E+03;
  9.1461405E-02;  9.9999998E-03; -1.8997057E-01;3006;  2.8216611E-03;  0.0000000E+00;  5.0849578E-04;  1.0025049E+03;  1.0000000E-01;  2.0752007E+03;3; -7.4702749E+00;  0.0000000E+00; -1.0995145E+00;0;  6.5359615E-02;  4.0212031E+04;  0.0000000E+00;  7.3256290E-01;  4.0000000E+04;  0.0000000E+00;  4.0003723E+04;  6.8352751E-02;  0.0000000E+00; -2.9931401E-03;  1.0686798E+03;
  9.1441862E-02;  9.9999998E-03; -1.7996182E-01;3007;  2.5998238E-03;  0.0000000E+00;  5.0620659E-04;  1.0026774E+03;  1.0000000E-01;  2.2182090E+03;3; -8.1042957E+00;  0.0000000E+00; -3.0211857E-01;0;  6.7594081E-02;  4.0228625E+04;  0.0000000E+00;  4.9866498E-01;  4.0000000E+04;  0.0000000E+00;  4.0002207E+04;  7.0899703E-02;  0.0000000E+00; -3.3056189E-03;  7.1223029E+02;
  9.1411881E-02;  9.9999998E-03; -1.6996017E-01;3008;  2.4641952E-03;  0.0000000E+00;  4.5682851E-04;  1.0028047E+03;  1.0000000E-01;  2.3236873E+03;3; -8.4919443E+00;  0.0000000E+00;  9.2864558E-02;0;  6.9810286E-02;  4.0238867E+04;  0.0000000E+00;  3.0976450E-01;  4.0000000E+04;  0.0000000E+00;  4.0003055E+04;  7.3306993E-02;  0.0000000E+00; -3.4967070E-03;  4.6117581E+02;
  9.1378525E-02;  9.9999998E-03; -1.5996407E-01;3009;  2.4133776E-03;  0.0000000E+00;  3.8368194E-04;  1.0028893E+03;  1.0000000E-01;  2.3937100E+03;3; -8.6878901E+00;  0.0000000E+00;  2.3329535E-01;0;  7.1965277E-02;  4.0244090E+04;  0.0000000E+00;  1.7270231E-01;  4.0000000E+04;  0.0000000E+00;  4.0005691E+04;  7.5543635E-02;  0.0000000E+00; -3.5783609E-03;  5.1757202E+02;
  9.1347784E-02;  9.9999998E-03; -1.4997491E-01;3010;  2.4342516E-03;  0.0000000E+00;  3.1065746E-04;  1.0029418E+03;  1.0000000E-01;  2.4371655E+03;3; -8.7576065E+00;  0.0000000E+00;  2.4031861E-01;0;  7.4003160E-02;  4.0245004E+04;  0.0000000E+00;  8.3822086E-02;  4.0000000E+04;  0.0000000E+00;  4.0009555E+04;  7.7573039E-02;  0.0000000E+00; -3.5698765E-03;  9.1491364E+02;
  9.1323204E-02;  9.9999998E-03; -1.3999374E-01;3011;  2.5108219E-03;  0.0000000E+00;  2.5520622E-04;  1.0029636E+03;  1.0000000E-01;  2.4553379E+03;3; -8.7671089E+00;  0.0000000E+00;  2.0136765E-01;0;  7.5867556E-02;  4.0243301E+04;  0.0000000E+00;  3.2713331E-02;  4.0000000E+04;  0.0000000E+00;  4.0013328E+04;  7.9364099E-02;  0.0000000E+00; -3.4965398E-03;  1.3654843E+03;
  9.1306128E-02;  9.9999998E-03; -1.3001613E-01;3012;  2.6289823E-03;  0.0000000E+00;  2.2248880E-04;  1.0029557E+03;  1.0000000E-01;  2.4488196E+03;3; -8.7735796E+00;  0.0000000E+00;  1.6286470E-01;0;  7.7515341E-02;  4.0240285E+04;  0.0000000E+00;  7.1803043E-03;  4.0000000E+04;  0.0000000E+00;  4.0016082E+04;  8.0902062E-02;  0.0000000E+00; -3.3867245E-03;  1.7136952E+03;
  9.1295235E-02;  9.9999998E-03; -1.2003718E-01;3013;  2.7684532E-03;  0.0000000E+00;  2.1805002E-04;  1.0029278E+03;  1.0000000E-01;  2.4256104E+03;3; -8.8254147E+00;  0.0000000E+00;  1.3219079E-01;0;  7.8917310E-02;  4.0237012E+04;  0.0000000E+00; -3.1583095E-03;  4.0000000E+04;  0.0000000E+00;  4.0017289E+04;  8.2189374E-02;  0.0000000E+00; -3.2720619E-03;  1.8786171E+03;
  9.1288850E-02;  9.9999998E-03; -1.1005228E-01;3014;  2.9068466E-03;  0.0000000E+00;  2.4659510E-04;  1.0028913E+03;  1.0000000E-01;  2.3953892E+03;3; -8.9406605E+00;  0.0000000E+00;  1.0583935E-01;0;  8.0059245E-02;  4.0234191E+04;  0.0000000E+00; -5.4885815E-03;  4.0000000E+04;  0.0000000E+00;  4.0016484E+04;  8.3243288E-02;  0.0000000E+00; -3.1840424E-03;  1.8404690E+03;
  1.0072793E-01;  9.9999998E-03; -2.6997817E-01;3059;  4.6222145E-03;  0.0000000E+00;  2.7667929E-04;  9.9898651E+02;  1.0000000E-01; -8.3967993E+02;3;  1.2418399E+01;  0.0000000E+00; -1.5714145E+01;0;  5.2212629E-02;  3.9905133E+04;  0.0000000E+00;  3.1616752E+00;  4.0000000E+04;  0.0000000E+00;  4.0014684E+04;  4.7867052E-02;  0.0000000E+00;  4.3455758E-03;  4.9279512E+03;
  1.0090789E-01;  9.9999998E-03; -2.6002130E-01;3060;  5.2943435E-03;  0.0000000E+00;  1.8095752E-04;  9.9952582E+02;  1.0000000E-01; -3.9282840E+02;3;  9.0167418E+00;  0.0000000E+00; -2.0832720E+01;0;  5.4834384E-02;  3.9939891E+04;  0.0000000E+00;  3.0501697E+00;  4.0000000E+04;  0.0000000E+00;  4.0024488E+04;  5.1993586E-02;  0.0000000E+00;  2.8407993E-03;  5.3961943E+03;
  1.0105679E-01;  9.9999998E-03; -2.5004360E-01;3061;  5.4529347E-03;  0.0000000E+00; -7.1155278E-06;  1.0000744E+03;  1.0000000E-01;  6.1627888E+01;3;  5.7216167E+00;  0.0000000E+00; -2.0922670E+01;0;  5.7269011E-02;  3.9980211E+04;  0.0000000E+00;  2.8184426E+00;  4.0000000E+04;  0.0000000E+00;  4.0030586E+04;  5.5854656E-02;  0.0000000E+00;  1.4143565E-03;  5.5472822E+03;
  1.0117491E-01;  9.9999998E-03; -2.4004608E-01;3062;  5.1863710E-03;  0.0000000E+00; -1.9331081E-04;  1.0005902E+03;  1.0000000E-01;  4.8897382E+02;3;  2.8362925E+00;  0.0000000E+00; -1.7762016E+01;0;  5.9711196E-02;  4.0022918E+04;  0.0000000E+00;  2.5174391E+00;  4.0000000E+04;  0.0000000E+00;  4.0030988E+04;  5.9571266E-02;  0.0000000E+00;  1.3992848E-04;  5.2684380E+03;
  1.0126831E-01;  9.9999998E-03; -2.3003650E-01;3063;  4.7608986E-03;  0.0000000E+00; -2.6486313E-04;  1.0010506E+03;  1.0000000E-01;  8.7039514E+02;3;  5.1548111E-01;  0.0000000E+00; -1.3220204E+01;0;  6.2266838E-02;  4.0065105E+04;  0.0000000E+00;  2.1876457E+00;  4.0000000E+04;  0.0000000E+00;  4.0027656E+04;  6.3217983E-02;  0.0000000E+00; -9.5114612E-04;  4.6102632E+03;
  1.0133816E-01;  9.9999998E-03; -2.2002108E-01;3064;  4.3575964E-03;  0.0000000E+00; -1.8550464E-04;  1.0014402E+03;  1.0000000E-01;  1.1931515E+03;3; -1.2430071E+00;  0.0000000E+00; -8.7897892E+00;0;  6.4955704E-02;  4.0103773E+04;  0.0000000E+00;  1.8511949E+00;  4.0000000E+04;  0.0000000E+00;  4.0021785E+04;  6.6810071E-02;  0.0000000E+00; -1.8543649E-03;  3.7206687E+03;
  1.0138866E-01;  9.9999998E-03; -2.1000190E-01;3065;  3.9618965E-03;  0.0000000E+00;  5.9319322E-05;  1.0017587E+03;  1.0000000E-01;  1.4570452E+03;3; -2.5520892E+00;  0.0000000E+00; -5.2381225E+00;0;  6.7742631E-02;  4.0137520E+04;  0.0000000E+00;  1.5166491E+00;  4.0000000E+04;  0.0000000E+00;  4.0015570E+04;  7.0326887E-02;  0.0000000E+00; -2.5842565E-03;  2.7814045E+03;
  1.0141224E-01;  9.9999998E-03; -1.9998336E-01;3066;  3.5627589E-03;  0.0000000E+00;  3.3807650E-04;  1.0020055E+03;  1.0000000E-01;  1.6614839E+03;3; -3.4866650E+00;  0.0000000E+00; -2.7807086E+00;0;  7.0564762E-02;  4.0164402E+04;  0.0000000E+00;  1.1898668E+00;  4.0000000E+04;  0.0000000E+00;  4.0009297E+04;  7.3719658E-02;  0.0000000E+00; -3.1548971E-03;  1.9541719E+03;
  1.0141210E-01;  9.9999998E-03; -1.8996826E-01;3067;  3.2363860E-03;  0.0000000E+00;  4.6021820E-04;  1.0021846E+03;  1.0000000E-01;  1.8099241E+03;3; -4.1268973E+00;  0.0000000E+00; -1.2809117E+00;0;  7.3362045E-02;  4.0184160E+04;  0.0000000E+00;  8.8229483E-01;  4.0000000E+04;  0.0000000E+00;  4.0004855E+04;  7.6938555E-02;  0.0000000E+00; -3.5765099E-03;  1.3288113E+03;
  1.0139405E-01;  9.9999998E-03; -1.7995982E-01;3068;  3.0091843E-03;  0.0000000E+00;  4.6345411E-04;  1.0023068E+03;  1.0000000E-01;  1.9111559E+03;3; -4.5425115E+00;  0.0000000E+00; -4.3991804E-01;0;  7.6076858E-02;  4.0196801E+04;  0.0000000E+00;  6.1087489E-01;  4.0000000E+04;  0.0000000E+00;  4.0003441E+04;  7.9933316E-02;  0.0000000E+00; -3.8564578E-03;  8.9376428E+02;
  1.0136648E-01;  9.9999998E-03; -1.6995680E-01;3069;  2.8898355E-03;  0.0000000E+00;  4.1367914E-04;  1.0023857E+03;  1.0000000E-01;  1.9765367E+03;3; -4.7853265E+00;  0.0000000E+00; -1.8550055E-02;0;  7.8656971E-02;  4.0203070E+04;  0.0000000E+00;  3.9096737E-01;  4.0000000E+04;  0.0000000E+00;  4.0004293E+04;  8.2660355E-02;  0.0000000E+00; -4.0033804E-03;  6.2804828E+02;
  1.0133707E-01;  9.9999998E-03; -1.5995885E-01;3070;  2.8654172E-03;  0.0000000E+00;  3.4180225E-04;  1.0024236E+03;  1.0000000E-01;  2.0079432E+03;3; -4.8979158E+00;  0.0000000E+00;  1.4356226E-01;0;  8.1044734E-02;  4.0203801E+04;  0.0000000E+00;  2.2842105E-01;  4.0000000E+04;  0.0000000E+00;  4.0006727E+04;  8.5077494E-02;  0.0000000E+00; -4.0327609E-03;  7.1159821E+02;
  1.0131288E-01;  9.9999998E-03; -1.4997070E-01;3071;  2.9232476E-03;  0.0000000E+00;  2.7245740E-04;  1.0024299E+03;  1.0000000E-01;  2.0131776E+03;3; -4.9288850E+00;  0.0000000E+00;  1.7367959E-01;0;  8.3179399E-02;  4.0200828E+04;  0.0000000E+00;  1.1876527E-01;  4.0000000E+04;  0.0000000E+00;  4.0011055E+04;  8.7146230E-02;  0.0000000E+00; -3.9668316E-03;  1.1325260E+03;
  1.0129698E-01;  9.9999998E-03; -1.3999148E-01;3072;  3.0572072E-03;  0.0000000E+00;  2.1479941E-04;  1.0024119E+03;  1.0000000E-01;  1.9982645E+03;3; -4.9246502E+00;  0.0000000E+00;  1.5735658E-01;0;  8.5009620E-02;  4.0195676E+04;  0.0000000E+00;  5.1818490E-02;  4.0000000E+04;  0.0000000E+00;  4.0015004E+04;  8.8842340E-02;  0.0000000E+00; -3.8327195E-03;  1.6202849E+03;
  1.0128892E-01;  9.9999998E-03; -1.3001563E-01;3073;  3.2495803E-03;  0.0000000E+00;  1.8334358E-04;  1.0023775E+03;  1.0000000E-01;  1.9697220E+03;3; -4.9233017E+00;  0.0000000E+00;  1.4139047E-01;0;  8.6504765E-02;  4.0189863E+04;  0.0000000E+00;  1.4790911E-02;  4.0000000E+04;  0.0000000E+00;  4.0017785E+04;  9.0166256E-02;  0.0000000E+00; -3.6614921E-03;  2.0066042E+03;
  1.0128650E-01;  9.9999998E-03; -1.2003694E-01;3074;  3.4845774E-03;  0.0000000E+00;  1.8707004E-04;  1.0023344E+03;  1.0000000E-01;  1.9339700E+03;3; -4.9534979E+00;  0.0000000E+00;  1.2720901E-01;0;  8.7660894E-02;  4.0184719E+04;  0.0000000E+00; -3.4713640E-03;  4.0000000E+04;  0.0000000E+00;  4.0019434E+04;  9.1148920E-02;  0.0000000E+00; -3.4880256E-03;  2.2004812E+03;
  1.0128836E-01;  9.9999998E-03; -1.1004978E-01;3075;  3.7182656E-03;  0.0000000E+00;  2.4585283E-04;  1.0022861E+03;  1.0000000E-01;  1.8939711E+03;3; -5.0251493E+00;  0.0000000E+00;  1.1171743E-01;0;  8.8493027E-02;  4.0181125E+04;  0.0000000E+00; -1.0831404E-02;  4.0000000E+04;  0.0000000E+00;  4.0019223E+04;  9.1841459E-02;  0.0000000E+00; -3.3484297E-03;  2.1782126E+03;
  1.1075586E-01;  9.9999998E-03; -2.6992849E-01;3120;  8.1157032E-03;  0.0000000E+00;  1.9468154E-03;  9.9852051E+02;  1.0000000E-01; -1.2257432E+03;3;  1.4909847E+01;  0.0000000E+00; -1.5910103E+01;0;  5.5771641E-02;  3.9865828E+04;  0.0000000E+00;  5.6849780E+00;  4.0000000E+04;  0.0000000E+00;  4.0017184E+04;  5.1743463E-02;  0.0000000E+00;  4.0281769E-03;  8.5022646E+03;
  1.1091872E-01;  9.9999998E-03; -2.5998071E-01;3121;  8.7685511E-03;  0.0000000E+00;  1.7473344E-03;  9.9908618E+02;  1.0000000E-01; -7.5706500E+02;3;  1.1055783E+01;  0.0000000E+00; -2.1152884E+01;0;  5.8183964E-02;  3.9901199E+04;  0.0000000E+00;  5.0767331E+00;  4.0000000E+04;  0.0000000E+00;  4.0028785E+04;  5.5794049E-02;  0.0000000E+00;  2.3899153E-03;  8.1783140E+03;
  1.1105951E-01;  9.9999998E-03; -2.5000948E-01;3122;  9.1051674E-03;  0.0000000E+00;  1.5658383E-03;  9.9965454E+02;  1.0000000E-01; -2.8621414E+02;3;  7.6316333E+00;  0.0000000E+00; -2.1206257E+01;0;  6.0584120E-02;  3.9942445E+04;  0.0000000E+00;  4.3190475E+00;  4.0000000E+04;  0.0000000E+00;  4.0034852E+04;  5.9725076E-02;  0.0000000E+00;  8.5904403E-04;  7.6104395E+03;
  1.1117336E-01;  9.9999998E-03; -2.4001858E-01;3123;  9.1206133E-03;  0.0000000E+00;  1.3835661E-03;  1.0001802E+03;  1.0000000E-01;  1.4923035E+02;3;  4.8546414E+00;  0.0000000E+00; -1.7897331E+01;0;  6.3180864E-02;  3.9985660E+04;  0.0000000E+00;  3.5369148E+00;  4.0000000E+04;  0.0000000E+00;  4.0036371E+04;  6.3664973E-02;  0.0000000E+00; -4.8410846E-04;  6.7563501E+03;
  1.1125664E-01;  9.9999998E-03; -2.3001495E-01;3124;  8.5390676E-03;  0.0000000E+00;  1.1368983E-03;  1.0006398E+03;  1.0000000E-01;  5.3005908E+02;3;  2.5927188E+00;  0.0000000E+00; -1.3230553E+01;0;  6.6039875E-02;  4.0027637E+04;  0.0000000E+00;  2.8207822E+00;  4.0000000E+04;  0.0000000E+00;  4.0032164E+04;  6.7645580E-02;  0.0000000E+00; -1.6057054E-03;  5.6593076E+03;
  1.1132295E-01;  9.9999998E-03; -2.2000478E-01;3125;  7.0420043E-03;  0.0000000E+00;  8.6054381E-04;  1.0010114E+03;  1.0000000E-01;  8.3790222E+02;3;  5.7521904E-01;  0.0000000E+00; -8.6728067E+00;0;  6.9123201E-02;  4.0065387E+04;  0.0000000E+00;  2.2122266E+00;  4.0000000E+04;  0.0000000E+00;  4.0025863E+04;  7.1639314E-02;  0.0000000E+00; -2.5161132E-03;  4.4356250E+03;
  1.1136673E-01;  9.9999998E-03; -2.0999189E-01;3126;  5.5639441E-03;  0.0000000E+00;  7.2258530E-04;  1.0012945E+03;  1.0000000E-01;  1.0724635E+03;3; -7.2563851E-01;  0.0000000E+00; -5.1145000E+00;0;  7.2378479E-02;  4.0096949E+04;  0.0000000E+00;  1.7109368E+00;  4.0000000E+04;  0.0000000E+00;  4.0018105E+04;  7.5617284E-02;  0.0000000E+00; -3.2388060E-03;  3.2436960E+03;
  1.1138676E-01;  9.9999998E-03; -1.9997792E-01;3127;  4.6891687E-03;  0.0000000E+00;  7.0102874E-04;  1.0014980E+03;  1.0000000E-01;  1.2411500E+03;3; -1.4613539E+00;  0.0000000E+00; -2.7148032E+00;0;  7.5698078E-02;  4.0120941E+04;  0.0000000E+00;  1.2965579E+00;  4.0000000E+04;  0.0000000E+00;  4.0010918E+04;  7.9485409E-02;  0.0000000E+00; -3.7873336E-03;  2.2331951E+03;
  1.1138691E-01;  9.9999998E-03; -1.8996447E-01;3128;  4.1935574E-03;  0.0000000E+00;  6.7943259E-04;  1.0016294E+03;  1.0000000E-01;  1.3498877E+03;3; -1.9081728E+00;  0.0000000E+00; -1.2517546E+00;0;  7.8945279E-02;  4.0137078E+04;  0.0000000E+00;  9.4912720E-01;  4.0000000E+04;  0.0000000E+00;  4.0006285E+04;  8.3118163E-02;  0.0000000E+00; -4.1728858E-03;  1.4909268E+03;
  1.1136895E-01;  9.9999998E-03; -1.7995523E-01;3129;  3.9179721E-03;  0.0000000E+00;  6.2766735E-04;  1.0017003E+03;  1.0000000E-01;  1.4086515E+03;3; -2.1823678E+00;  0.0000000E+00; -4.2937997E-01;0;  8.2006313E-02;  4.0145520E+04;  0.0000000E+00;  6.5954280E-01;  4.0000000E+04;  0.0000000E+00;  4.0004043E+04;  8.6411424E-02;  0.0000000E+00; -4.4051083E-03;  1.0016598E+03;
  1.1134293E-01;  9.9999998E-03; -1.6994962E-01;3130;  3.8228575E-03;  0.0000000E+00;  5.4467033E-04;  1.0017255E+03;  1.0000000E-01;  1.4294905E+03;3; -2.3378615E+00;  0.0000000E+00; -1.8400472E-02;0;  8.4795728E-02;  4.0147254E+04;  0.0000000E+00;  4.2746603E-01;  4.0000000E+04;  0.0000000E+00;  4.0004660E+04;  8.9291818E-02;  0.0000000E+00; -4.4960910E-03;  7.3871698E+02;
  1.1131721E-01;  9.9999998E-03; -1.5994795E-01;3131;  3.8981971E-03;  0.0000000E+00;  4.4622665E-04;  1.0017140E+03;  1.0000000E-01;  1.4200093E+03;3; -2.4097464E+00;  0.0000000E+00;  1.4640476E-01;0;  8.7242573E-02;  4.0143750E+04;  0.0000000E+00;  2.5331089E-01;  4.0000000E+04;  0.0000000E+00;  4.0007332E+04;  9.1707259E-02;  0.0000000E+00; -4.4646892E-03;  8.5573041E+02;
  1.1130057E-01;  9.9999998E-03; -1.4995895E-01;3132;  4.1472702E-03;  0.0000000E+00;  3.4617601E-04;  1.0016788E+03;  1.0000000E-01;  1.3908743E+03;3; -2.4323511E+00;  0.0000000E+00;  1.8370183E-01;0;  8.9288019E-02;  4.0137102E+04;  0.0000000E+00;  1.3246535E-01;  4.0000000E+04;  0.0000000E+00;  4.0011340E+04;  9.3625166E-02;  0.0000000E+00; -4.3371445E-03;  1.3097006E+03;
  1.1129659E-01;  9.9999998E-03; -1.3997944E-01;3133;  4.5604259E-03;  0.0000000E+00;  2.6743338E-04;  1.0016310E+03;  1.0000000E-01;  1.3512704E+03;3; -2.4384792E+00;  0.0000000E+00;  1.7393184E-01;0;  9.0893358E-02;  4.0128773E+04;  0.0000000E+00;  5.5422440E-02;  4.0000000E+04;  0.0000000E+00;  4.0016496E+04;  9.5036313E-02;  0.0000000E+00; -4.1429549E-03;  1.8371886E+03;
  1.1130483E-01;  9.9999998E-03; -1.3000110E-01;3134;  5.2355235E-03;  0.0000000E+00;  2.6210953E-04;  1.0015743E+03;  1.0000000E-01;  1.3042594E+03;3; -2.4380124E+00;  0.0000000E+00;  1.5766709E-01;0;  9.2060417E-02;  4.0120676E+04;  0.0000000E+00;  1.0223861E-02;  4.0000000E+04;  0.0000000E+00;  4.0019410E+04;  9.5974334E-02;  0.0000000E+00; -3.9139171E-03;  2.2637966E+03;
  1.1132920E-01;  9.9999998E-03; -1.2001684E-01;3135;  6.1946646E-03;  0.0000000E+00;  3.8231310E-04;  1.0015133E+03;  1.0000000E-01;  1.2537917E+03;3; -2.4482846E+00;  0.0000000E+00;  1.3602647E-01;0;  9.2821270E-02;  4.0114039E+04;  0.0000000E+00; -1.3910050E-02;  4.0000000E+04;  0.0000000E+00;  4.0020773E+04;  9.6507274E-02;  0.0000000E+00; -3.6860001E-03;  2.4908762E+03;
  1.1140541E-01;  9.9999998E-03; -1.1001717E-01;3136;  7.6665864E-03;  0.0000000E+00;  6.7385501E-04;  1.0014580E+03;  1.0000000E-01;  1.2079658E+03;3; -2.3045018E+00;  0.0000000E+00;  1.2760554E-01;0;  9.3254678E-02;  4.0109426E+04;  0.0000000E+00; -2.4793107E-02;  4.0000000E+04;  0.0000000E+00;  4.0021230E+04;  9.6753359E-02;  0.0000000E+00; -3.4986832E-03;  2.4907793E+03;
  1.2075818E-01;  9.9999998E-03; -2.6984945E-01;3181;  9.5021240E-03;  0.0000000E+00;  2.8518506E-03;  9.9798090E+02;  1.0000000E-01; -1.6727922E+03;3;  1.5416600E+01;  0.0000000E+00; -1.5858805E+01;0;  5.7934888E-02;  3.9818723E+04;  0.0000000E+00;  9.1584053E+00;  4.0000000E+04;  0.0000000E+00;  4.0022043E+04;  5.4375496E-02;  0.0000000E+00;  3.5593910E-03;  1.3555079E+04;
  1.2092046E-01;  9.9999998E-03; -2.5990927E-01;3182;  1.0052945E-02;  0.0000000E+00;  2.6032338E-03;  9.9856262E+02;  1.0000000E-01; -1.1908306E+03;3;  1.1242440E+01;  0.0000000E+00; -2.1111382E+01;0;  5.9887804E-02;  3.9854867E+04;  0.0000000E+00;  7.7690215E+00;  4.0000000E+04;  0.0000000E+00;  4.0034051E+04;  5.8053095E-02;  0.0000000E+00;  1.8347101E-03;  1.2048198E+04;
  1.2107204E-01;  9.9999998E-03; -2.4994785E-01;3183;  1.0536890E-02;  0.0000000E+00;  2.4411865E-03;  9.9914758E+02;  1.0000000E-01; -7.0620227E+02;3;  7.8607774E+00;  0.0000000E+00; -2.1156191E+01;0;  6.2033750E-02;  3.9896785E+04;  0.0000000E+00;  6.2376204E+00;  4.0000000E+04;  0.0000000E+00;  4.0040203E+04;  6.1793439E-02;  0.0000000E+00;  2.4031010E-04;  1.0358893E+04;
  1.2120295E-01;  9.9999998E-03; -2.3996656E-01;3184;  1.0941223E-02;  0.0000000E+00;  2.3488838E-03;  9.9968170E+02;  1.0000000E-01; -2.6369626E+02;3;  5.3528686E+00;  0.0000000E+00; -1.7783190E+01;0;  6.4559557E-02;  3.9940449E+04;  0.0000000E+00;  4.7808967E+00;  4.0000000E+04;  0.0000000E+00;  4.0040984E+04;  6.5703757E-02;  0.0000000E+00; -1.1442038E-03;  8.5983193E+03;
  1.2130535E-01;  9.9999998E-03; -2.2997363E-01;3185;  1.1248523E-02;  0.0000000E+00;  2.2612154E-03;  1.0001370E+03;  1.0000000E-01;  1.1347827E+02;3;  3.6262515E+00;  0.0000000E+00; -1.3068850E+01;0;  6.7532487E-02;  3.9982438E+04;  0.0000000E+00;  3.5405273E+00;  4.0000000E+04;  0.0000000E+00;  4.0036668E+04;  6.9815189E-02;  0.0000000E+00; -2.2826986E-03;  6.8340405E+03;
  1.2136514E-01;  9.9999998E-03; -2.1997361E-01;3186;  1.1376308E-02;  0.0000000E+00;  2.1467612E-03;  1.0004929E+03;  1.0000000E-01;  4.0828476E+02;3;  2.5154085E+00;  0.0000000E+00; -8.5214252E+00;0;  7.0891149E-02;  4.0019715E+04;  0.0000000E+00;  2.5711222E+00;  4.0000000E+04;  0.0000000E+00;  4.0029430E+04;  7.4073687E-02;  0.0000000E+00; -3.1825379E-03;  5.1435410E+03;
  1.2139779E-01;  9.9999998E-03; -2.0996951E-01;3187;  1.1187259E-02;  0.0000000E+00;  1.9753594E-03;  1.0007490E+03;  1.0000000E-01;  6.2052563E+02;3;  1.7711623E+00;  0.0000000E+00; -4.9511714E+00;0;  7.4485980E-02;  4.0049453E+04;  0.0000000E+00;  1.8542191E+00;  4.0000000E+04;  0.0000000E+00;  4.0020102E+04;  7.8355879E-02;  0.0000000E+00; -3.8699014E-03;  3.6300376E+03;
  1.2141387E-01;  9.9999998E-03; -1.9996221E-01;3188;  1.0431031E-02;  0.0000000E+00;  1.7436873E-03;  1.0009079E+03;  1.0000000E-01;  7.5217627E+02;3;  1.1261605E+00;  0.0000000E+00; -2.5297816E+00;0;  7.8114122E-02;  4.0070766E+04;  0.0000000E+00;  1.3333266E+00;  4.0000000E+04;  0.0000000E+00;  4.0012301E+04;  8.2485840E-02;  0.0000000E+00; -4.3717157E-03;  2.4068906E+03;
  1.2140944E-01;  9.9999998E-03; -1.8995170E-01;3189;  9.2061795E-03;  0.0000000E+00;  1.5405602E-03;  1.0009894E+03;  1.0000000E-01;  8.1972992E+02;3;  3.7033993E-01;  0.0000000E+00; -1.0720727E+00;0;  8.1583291E-02;  4.0083273E+04;  0.0000000E+00;  9.4739902E-01;  4.0000000E+04;  0.0000000E+00;  4.0006543E+04;  8.6288333E-02;  0.0000000E+00; -4.7050426E-03;  1.5462419E+03;
  1.2139148E-01;  9.9999998E-03; -1.7994039E-01;3190;  8.4962333E-03;  0.0000000E+00;  1.3876085E-03;  1.0010098E+03;  1.0000000E-01;  8.3661829E+02;3; -8.7682709E-02;  0.0000000E+00; -2.7175963E-01;0;  8.4775805E-02;  4.0087789E+04;  0.0000000E+00;  6.5178442E-01;  4.0000000E+04;  0.0000000E+00;  4.0003961E+04;  8.9656256E-02;  0.0000000E+00; -4.8804525E-03;  1.0177279E+03;
  1.2137223E-01;  9.9999998E-03; -1.6992839E-01;3191;  8.7218285E-03;  0.0000000E+00;  1.2587353E-03;  1.0009877E+03;  1.0000000E-01;  8.1824847E+02;3; -1.6868316E-01;  0.0000000E+00;  1.1701158E-01;0;  8.7591290E-02;  4.0085535E+04;  0.0000000E+00;  4.2232752E-01;  4.0000000E+04;  0.0000000E+00;  4.0004402E+04;  9.2502899E-02;  0.0000000E+00; -4.9116113E-03;  7.6470764E+02;
  1.2136576E-01;  9.9999998E-03; -1.5991952E-01;3192;  9.9267969E-03;  0.0000000E+00;  1.1675261E-03;  1.0009343E+03;  1.0000000E-01;  7.7400281E+02;3;  1.3306354E-01;  0.0000000E+00;  2.6735434E-01;0;  8.9949913E-02;  4.0078051E+04;  0.0000000E+00;  2.4891330E-01;  4.0000000E+04;  0.0000000E+00;  4.0007348E+04;  9.4769038E-02;  0.0000000E+00; -4.8191282E-03;  9.1792267E+02;
  1.2139919E-01;  9.9999998E-03; -1.4992563E-01;3193;  1.1823111E-02;  0.0000000E+00;  1.1116710E-03;  1.0008633E+03;  1.0000000E-01;  7.1523901E+02;3;  6.9083679E-01;  0.0000000E+00;  3.1427258E-01;0;  9.1781512E-02;  4.0067953E+04;  0.0000000E+00;  1.2552515E-01;  4.0000000E+04;  0.0000000E+00;  4.0012004E+04;  9.6414723E-02;  0.0000000E+00; -4.6332106E-03;  1.4140120E+03;
  1.2148484E-01;  9.9999998E-03; -1.3993920E-01;3194;  1.3467136E-02;  0.0000000E+00;  1.0401068E-03;  1.0007806E+03;  1.0000000E-01;  6.4669775E+02;3;  1.2525231E+00;  0.0000000E+00;  3.3481851E-01;0;  9.2999615E-02;  4.0056828E+04;  0.0000000E+00;  4.4072781E-02;  4.0000000E+04;  0.0000000E+00;  4.0016199E+04;  9.7387135E-02;  0.0000000E+00; -4.3875230E-03;  1.9862915E+03;
  1.2161645E-01;  9.9999998E-03; -1.2994908E-01;3195;  1.4322013E-02;  0.0000000E+00;  8.8069926E-04;  1.0007002E+03;  1.0000000E-01;  5.8013171E+02;3;  1.5169650E+00;  0.0000000E+00;  3.2415929E-01;0;  9.3583442E-02;  4.0046406E+04;  0.0000000E+00; -5.3797811E-03;  4.0000000E+04;  0.0000000E+00;  4.0020438E+04;  9.7697601E-02;  0.0000000E+00; -4.1141585E-03;  2.4550701E+03;
  1.2174278E-01;  9.9999998E-03; -1.1995110E-01;3196;  1.4742723E-02;  0.0000000E+00;  7.2594394E-04;  1.0006262E+03;  1.0000000E-01;  5.1880017E+02;3;  1.6245602E+00;  0.0000000E+00;  2.9802638E-01;0;  9.3631119E-02;  4.0038270E+04;  0.0000000E+00; -3.2396637E-02;  4.0000000E+04;  0.0000000E+00;  4.0022066E+04;  9.7476952E-02;  0.0000000E+00; -3.8458314E-03;  2.7164009E+03;
  1.2181871E-01;  9.9999998E-03; -1.0994989E-01;3197;  1.4946762E-02;  0.0000000E+00;  6.0548593E-04;  1.0005685E+03;  1.0000000E-01;  4.7099902E+02;3;  1.6828606E+00;  0.0000000E+00;  2.6452440E-01;0;  9.3271941E-02;  4.0033316E+04;  0.0000000E+00; -4.4265371E-02;  4.0000000E+04;  0.0000000E+00;  4.0022332E+04;  9.6892729E-02;  0.0000000E+00; -3.6207882E-03;  2.7413777E+03;
  1.3073899E-01;  9.9999998E-03; -2.6975566E-01;3242;  9.7483853E-03;  0.0000000E+00;  2.9607855E-03;  9.9745428E+02;  1.0000000E-01; -2.1090762E+03;3;  1.5984097E+01;  0.0000000E+00; -1.7513630E+01;0;  5.8998130E-02;  3.9769520E+04;  0.0000000E+00;  1.3603811E+01;  4.0000000E+04;  0.0000000E+00;  4.0029762E+04;  5.5950291E-02;  0.0000000E+00;  3.0478369E-03;  2.0125012E+04;
  1.3090645E-01;  9.9999998E-03; -2.5982913E-01;3243;  1.0308030E-02;  0.0000000E+00;  2.7123895E-03;  9.9804742E+02;  1.0000000E-01; -1.6176826E+03;3;  1.1390487E+01;  0.0000000E+00; -2.2105612E+01;0;  6.0324717E-02;  3.9806566E+04;  0.0000000E+00;  1.1068565E+01;  4.0000000E+04;  0.0000000E+00;  4.0041430E+04;  5.9049323E-02;  0.0000000E+00;  1.2753932E-03;  1.6914400E+04;
  1.3107428E-01;  9.9999998E-03; -2.4988098E-01;3244;  1.0844144E-02;  0.0000000E+00;  2.5303313E-03;  9.9864319E+02;  1.0000000E-01; -1.1241163E+03;3;  7.7952471E+00;  0.0000000E+00; -2.1684910E+01;0;  6.1990052E-02;  3.9850090E+04;  0.0000000E+00;  8.5007858E+00;  4.0000000E+04;  0.0000000E+00;  4.0047230E+04;  6.2329624E-02;  0.0000000E+00; -3.3956952E-04;  1.3685008E+04;
  1.3122143E-01;  9.9999998E-03; -2.3991355E-01;3245;  1.1361407E-02;  0.0000000E+00;  2.4356954E-03;  9.9918713E+02;  1.0000000E-01; -6.7346246E+02;3;  5.2390924E+00;  0.0000000E+00; -1.7972902E+01;0;  6.4163968E-02;  3.9895688E+04;  0.0000000E+00;  6.1971855E+00;  4.0000000E+04;  0.0000000E+00;  4.0046180E+04;  6.5894790E-02;  0.0000000E+00; -1.7308253E-03;  1.0702236E+04;
  1.3133761E-01;  9.9999998E-03; -2.2993395E-01;3246;  1.1851438E-02;  0.0000000E+00;  2.3873427E-03;  9.9964716E+02;  1.0000000E-01; -2.9233740E+02;3;  3.6146348E+00;  0.0000000E+00; -1.3026268E+01;0;  6.6899396E-02;  3.9938848E+04;  0.0000000E+00;  4.3289499E+00;  4.0000000E+04;  0.0000000E+00;  4.0040938E+04;  6.9761492E-02;  0.0000000E+00; -2.8620991E-03;  8.0653032E+03;
  1.3142009E-01;  9.9999998E-03; -2.1994585E-01;3247;  1.2293770E-02;  0.0000000E+00;  2.3236501E-03;  9.9999402E+02;  1.0000000E-01; -4.9381318E+00;3;  2.6906409E+00;  0.0000000E+00; -8.3873367E+00;0;  7.0123769E-02;  3.9975965E+04;  0.0000000E+00;  2.9378874E+00;  4.0000000E+04;  0.0000000E+00;  4.0031797E+04;  7.3860615E-02;  0.0000000E+00; -3.7368427E-03;  5.7929453E+03;
  1.3147029E-01;  9.9999998E-03; -2.0995007E-01;3248;  1.2679061E-02;  0.0000000E+00;  2.2173917E-03;  1.0002269E+03;  1.0000000E-01;  1.8804407E+02;3;  2.2135789E+00;  0.0000000E+00; -4.8178997E+00;0;  7.3665246E-02;  4.0004980E+04;  0.0000000E+00;  1.9706258E+00;  4.0000000E+04;  0.0000000E+00;  4.0021742E+04;  7.8049697E-02;  0.0000000E+00; -4.3844506E-03;  3.9069368E+03;
  1.3149476E-01;  9.9999998E-03; -1.9994745E-01;3249;  1.3001033E-02;  0.0000000E+00;  2.0692961E-03;  1.0003528E+03;  1.0000000E-01;  2.9223865E+02;3;  1.9896106E+00;  0.0000000E+00; -2.4243248E+00;0;  7.7295251E-02;  4.0024176E+04;  0.0000000E+00;  1.3253920E+00;  4.0000000E+04;  0.0000000E+00;  4.0013016E+04;  8.2130894E-02;  0.0000000E+00; -4.8356396E-03;  2.4568660E+03;
  1.3150081E-01;  9.9999998E-03; -1.8993622E-01;3250;  1.3315447E-02;  0.0000000E+00;  1.8898504E-03;  1.0003948E+03;  1.0000000E-01;  3.2710187E+02;3;  1.8995092E+00;  0.0000000E+00; -9.9350542E-01;0;  8.0775261E-02;  4.0033957E+04;  0.0000000E+00;  8.9556599E-01;  4.0000000E+04;  0.0000000E+00;  4.0006191E+04;  8.5887834E-02;  0.0000000E+00; -5.1125768E-03;  1.4833325E+03;
  1.3150500E-01;  9.9999998E-03; -1.7991857E-01;3251;  1.3681863E-02;  0.0000000E+00;  1.6971115E-03;  1.0003724E+03;  1.0000000E-01;  3.0853448E+02;3;  1.8889569E+00;  0.0000000E+00; -2.0945166E-01;0;  8.3881795E-02;  4.0034895E+04;  0.0000000E+00;  5.9736532E-01;  4.0000000E+04;  0.0000000E+00;  4.0003527E+04;  8.9112855E-02;  0.0000000E+00; -5.2310564E-03;  9.2905353E+02;
  1.3152754E-01;  9.9999998E-03; -1.6989529E-01;3252;  1.4135149E-02;  0.0000000E+00;  1.4875010E-03;  1.0003094E+03;  1.0000000E-01;  2.5638782E+02;3;  1.9362361E+00;  0.0000000E+00;  1.7393082E-01;0;  8.6436369E-02;  4.0029176E+04;  0.0000000E+00;  3.7932897E-01;  4.0000000E+04;  0.0000000E+00;  4.0003875E+04;  9.1643289E-02;  0.0000000E+00; -5.2069188E-03;  6.8623499E+02;
  1.3159311E-01;  9.9999998E-03; -1.5987189E-01;3253;  1.4588666E-02;  0.0000000E+00;  1.2618089E-03;  1.0002188E+03;  1.0000000E-01;  1.8122945E+02;3;  1.9950444E+00;  0.0000000E+00;  3.2062107E-01;0;  8.8313460E-02;  4.0018793E+04;  0.0000000E+00;  2.1660514E-01;  4.0000000E+04;  0.0000000E+00;  4.0007094E+04;  9.3375355E-02;  0.0000000E+00; -5.0618979E-03;  8.7779218E+02;
  1.3171139E-01;  9.9999998E-03; -1.4986147E-01;3254;  1.4978996E-02;  0.0000000E+00;  1.0314863E-03;  1.0001198E+03;  1.0000000E-01;  9.9256454E+01;3;  2.0585318E+00;  0.0000000E+00;  3.4714237E-01;0;  8.9459017E-02;  4.0005859E+04;  0.0000000E+00;  9.8809265E-02;  4.0000000E+04;  0.0000000E+00;  4.0011457E+04;  9.4285823E-02;  0.0000000E+00; -4.8268028E-03;  1.4232281E+03;
  1.3180691E-01;  9.9999998E-03; -1.3986777E-01;3255;  1.5258856E-02;  0.0000000E+00;  8.1601721E-04;  1.0000198E+03;  1.0000000E-01;  1.6394598E+01;3;  2.1161320E+00;  0.0000000E+00;  3.3017644E-01;0;  8.9924671E-02;  3.9992809E+04;  0.0000000E+00;  1.9501917E-02;  4.0000000E+04;  0.0000000E+00;  4.0016219E+04;  9.4462551E-02;  0.0000000E+00; -4.5378790E-03;  2.0423337E+03;
  1.3182876E-01;  9.9999998E-03; -1.2989572E-01;3256;  1.5426592E-02;  0.0000000E+00;  6.3616614E-04;  9.9993237E+02;  1.0000000E-01; -5.6047798E+01;3;  2.1671472E+00;  0.0000000E+00;  3.1125978E-01;0;  8.9819893E-02;  3.9981523E+04;  0.0000000E+00; -2.8526206E-02;  4.0000000E+04;  0.0000000E+00;  4.0020195E+04;  9.4049461E-02;  0.0000000E+00; -4.2295703E-03;  2.5543838E+03;
  1.3181466E-01;  9.9999998E-03; -1.1992301E-01;3257;  1.5505885E-02;  0.0000000E+00;  4.9713778E-04;  9.9985895E+02;  1.0000000E-01; -1.1683620E+02;3;  2.2111475E+00;  0.0000000E+00;  2.9262686E-01;0;  8.9248441E-02;  3.9973117E+04;  0.0000000E+00; -5.3337272E-02;  4.0000000E+04;  0.0000000E+00;  4.0022426E+04;  9.3182199E-02;  0.0000000E+00; -3.9337561E-03;  2.8510581E+03;
  1.3178769E-01;  9.9999998E-03; -1.0994182E-01;3258;  1.5519542E-02;  0.0000000E+00;  3.9887041E-04;  9.9979895E+02;  1.0000000E-01; -1.6656319E+02;3;  2.2557316E+00;  0.0000000E+00;  2.6856214E-01;0;  8.8333264E-02;  3.9967730E+04;  0.0000000E+00; -6.2046174E-02;  4.0000000E+04;  0.0000000E+00;  4.0023000E+04;  9.2019163E-02;  0.0000000E+00; -3.6859000E-03;  2.9010835E+03;
  1.4072952E-01;  9.9999998E-03; -2.6966801E-01;3303;  9.6502006E-03;  0.0000000E+00;  2.7615339E-03;  9.9700745E+02;  1.0000000E-01; -2.4792878E+03;3;  1.8138771E+01;  0.0000000E+00; -2.1192060E+01;0;  5.9575841E-02;  3.9722059E+04;  0.0000000E+00;  1.8920618E+01;  4.0000000E+04;  0.0000000E+00;  4.0042332E+04;  5.7070628E-02;  0.0000000E+00;  2.5052130E-03;  2.8091805E+04;
  1.4092341E-01;  9.9999998E-03; -2.5975087E-01;3304;  1.0195107E-02;  0.0000000E+00;  2.4873381E-03;  9.9759552E+02;  1.0000000E-01; -1.9920425E+03;3;  1.2382953E+01;  0.0000000E+00; -2.4160456E+01;0;  6.0130984E-02;  3.9761059E+04;  0.0000000E+00;  1.4786224E+01;  4.0000000E+04;  0.0000000E+00;  4.0051625E+04;  5.9381083E-02;  0.0000000E+00;  7.4990001E-04;  2.2518217E+04;
  1.4109702E-01;  9.9999998E-03; -2.4982411E-01;3305;  1.0777518E-02;  0.0000000E+00;  2.3109384E-03;  9.9820483E+02;  1.0000000E-01; -1.4872666E+03;3;  8.0284138E+00;  0.0000000E+00; -2.2518873E+01;0;  6.1127793E-02;  3.9807988E+04;  0.0000000E+00;  1.0919088E+01;  4.0000000E+04;  0.0000000E+00;  4.0054445E+04;  6.1981764E-02;  0.0000000E+00; -8.5396972E-04;  1.7315889E+04;
  1.4124018E-01;  9.9999998E-03; -2.3987862E-01;3306;  1.1353226E-02;  0.0000000E+00;  2.2174281E-03;  9.9877325E+02;  1.0000000E-01; -1.0163170E+03;3;  5.1175070E+00;  0.0000000E+00; -1.8142868E+01;0;  6.2715717E-02;  3.9857191E+04;  0.0000000E+00;  7.6541324E+00;  4.0000000E+04;  0.0000000E+00;  4.0051070E+04;  6.4939789E-02;  0.0000000E+00; -2.2240756E-03;  1.2863153E+04;
  1.4135656E-01;  9.9999998E-03; -2.2991328E-01;3307;  1.1941123E-02;  0.0000000E+00;  2.1479875E-03;  9.9924414E+02;  1.0000000E-01; -6.2620453E+02;3;  3.4128792E+00;  0.0000000E+00; -1.2924427E+01;0;  6.4950339E-02;  3.9903141E+04;  0.0000000E+00;  5.1172862E+00;  4.0000000E+04;  0.0000000E+00;  4.0043410E+04;  6.8268560E-02;  0.0000000E+00; -3.3182204E-03;  9.2205195E+03;
  1.4144698E-01;  9.9999998E-03; -2.1993384E-01;3308;  1.2512672E-02;  0.0000000E+00;  2.0818163E-03;  9.9959515E+02;  1.0000000E-01; -3.3539792E+02;3;  2.5518162E+00;  0.0000000E+00; -8.2156019E+00;0;  6.7729309E-02;  3.9941758E+04;  0.0000000E+00;  3.2918291E+00;  4.0000000E+04;  0.0000000E+00;  4.0032734E+04;  7.1877882E-02;  0.0000000E+00; -4.1485764E-03;  6.3050601E+03;
  1.4150731E-01;  9.9999998E-03; -2.0994461E-01;3309;  1.3052578E-02;  0.0000000E+00;  1.9858200E-03;  9.9981696E+02;  1.0000000E-01; -1.5165002E+02;3;  2.1957800E+00;  0.0000000E+00; -4.6759467E+00;0;  7.0863962E-02;  3.9970613E+04;  0.0000000E+00;  2.0659654E+00;  4.0000000E+04;  0.0000000E+00;  4.0021844E+04;  7.5607978E-02;  0.0000000E+00; -4.7440166E-03;  4.0288369E+03;
  1.4154409E-01;  9.9999998E-03; -1.9994424E-01;3310;  1.3554779E-02;  0.0000000E+00;  1.8511686E-03;  9.9992236E+02;  1.0000000E-01; -6.4343857E+01;3;  2.0940299E+00;  0.0000000E+00; -2.3506026E+00;0;  7.4103892E-02;  3.9988836E+04;  0.0000000E+00;  1.2874216E+00;  4.0000000E+04;  0.0000000E+00;  4.0011984E+04;  7.9242706E-02;  0.0000000E+00; -5.1388158E-03;  2.3612705E+03;
  1.4158006E-01;  9.9999998E-03; -1.8992658E-01;3311;  1.4042878E-02;  0.0000000E+00;  1.6792950E-03;  9.9993726E+02;  1.0000000E-01; -5.1998528E+01;3;  2.1028693E+00;  0.0000000E+00; -9.7824639E-01;0;  7.7176414E-02;  3.9996586E+04;  0.0000000E+00;  8.0622804E-01;  4.0000000E+04;  0.0000000E+00;  4.0004895E+04;  8.2535610E-02;  0.0000000E+00; -5.3591980E-03;  1.2984327E+03;
  1.4164083E-01;  9.9999998E-03; -1.7988907E-01;3312;  1.4501878E-02;  0.0000000E+00;  1.4807392E-03;  9.9988660E+02;  1.0000000E-01; -9.3972649E+01;3;  2.1388068E+00;  0.0000000E+00; -2.3144531E-01;0;  7.9821289E-02;  3.9995273E+04;  0.0000000E+00;  5.0341928E-01;  4.0000000E+04;  0.0000000E+00;  4.0001383E+04;  8.5244551E-02;  0.0000000E+00; -5.4232618E-03;  7.4491858E+02;
  1.4172222E-01;  9.9999998E-03; -1.6983919E-01;3313;  1.4911911E-02;  0.0000000E+00;  1.2625775E-03;  9.9979431E+02;  1.0000000E-01; -1.7041493E+02;3;  2.1807451E+00;  0.0000000E+00;  1.3487546E-01;0;  8.1841618E-02;  3.9987020E+04;  0.0000000E+00;  3.0078036E-01;  4.0000000E+04;  0.0000000E+00;  4.0001684E+04;  8.7189436E-02;  0.0000000E+00; -5.3478177E-03;  5.0182147E+02;
  1.4178041E-01;  9.9999998E-03; -1.5981640E-01;3314;  1.5240454E-02;  0.0000000E+00;  1.0421899E-03;  9.9968347E+02;  1.0000000E-01; -2.6221481E+02;3;  2.2191727E+00;  0.0000000E+00;  2.8106892E-01;0;  8.3142221E-02;  3.9974562E+04;  0.0000000E+00;  1.5669619E-01;  4.0000000E+04;  0.0000000E+00;  4.0005703E+04;  8.8298999E-02;  0.0000000E+00; -5.1567783E-03;  7.2835187E+02;
  1.4180234E-01;  9.9999998E-03; -1.4983207E-01;3315;  1.5474702E-02;  0.0000000E+00;  8.3574589E-04;  9.9956982E+02;  1.0000000E-01; -3.5638498E+02;3;  2.2556407E+00;  0.0000000E+00;  3.1497982E-01;0;  8.3714023E-02;  3.9959996E+04;  0.0000000E+00;  5.3906947E-02;  4.0000000E+04;  0.0000000E+00;  4.0010453E+04;  8.8598199E-02;  0.0000000E+00; -4.8841764E-03;  1.3354841E+03;
  1.4179768E-01;  9.9999998E-03; -1.3986264E-01;3316;  1.5621704E-02;  0.0000000E+00;  6.5638084E-04;  9.9945514E+02;  1.0000000E-01; -4.5139465E+02;3;  2.2971416E+00;  0.0000000E+00;  3.0969542E-01;0;  8.3610497E-02;  3.9945387E+04;  0.0000000E+00; -1.4210444E-02;  4.0000000E+04;  0.0000000E+00;  4.0015656E+04;  8.8179797E-02;  0.0000000E+00; -4.5693023E-03;  2.0028379E+03;
  1.4177832E-01;  9.9999998E-03; -1.2989394E-01;3317;  1.5686808E-02;  0.0000000E+00;  5.1321654E-04;  9.9935004E+02;  1.0000000E-01; -5.3850330E+02;3;  2.3432910E+00;  0.0000000E+00;  2.9934818E-01;0;  8.2931444E-02;  3.9932262E+04;  0.0000000E+00; -5.3224385E-02;  4.0000000E+04;  0.0000000E+00;  4.0019844E+04;  8.7178789E-02;  0.0000000E+00; -4.2473436E-03;  2.5494453E+03;
  1.4174888E-01;  9.9999998E-03; -1.1991929E-01;3318;  1.5683781E-02;  0.0000000E+00;  4.0858026E-04;  9.9925500E+02;  1.0000000E-01; -6.1721710E+02;3;  2.3922863E+00;  0.0000000E+00;  2.8730071E-01;0;  8.1815541E-02;  3.9921770E+04;  0.0000000E+00; -7.0200339E-02;  4.0000000E+04;  0.0000000E+00;  4.0022344E+04;  8.5762076E-02;  0.0000000E+00; -3.9465390E-03;  2.8700906E+03;
  1.4171216E-01;  9.9999998E-03; -1.0993540E-01;3319;  1.5630381E-02;  0.0000000E+00;  3.4077207E-04;  9.9917169E+02;  1.0000000E-01; -6.8625220E+02;3;  2.4582574E+00;  0.0000000E+00;  2.6231486E-01;0;  8.0418356E-02;  3.9914586E+04;  0.0000000E+00; -7.2189413E-02;  4.0000000E+04;  0.0000000E+00;  4.0022715E+04;  8.4116660E-02;  0.0000000E+00; -3.6983073E-03;  2.9354653E+03;
  1.5164533E-01;  9.9999998E-03; -1.0992353E-01;3380;  1.5532232E-02;  0.0000000E+00;  3.0314387E-04;  9.9871161E+02;  1.0000000E-01; -1.0674266E+03;3;  2.5262897E+00;  0.0000000E+00;  2.2645518E-01;0;  7.1071468E-02;  3.9876109E+04;  0.0000000E+00; -7.2711326E-02;  4.0000000E+04;  0.0000000E+00;  4.0021551E+04;  7.4755289E-02;  0.0000000E+00; -3.6838229E-03;  2.8266316E+03;
  1.5168324E-01;  9.9999998E-03; -1.1991196E-01;3379;  1.5642885E-02;  0.0000000E+00;  3.3406485E-04;  9.9882159E+02;  1.0000000E-01; -9.7626868E+02;3;  2.4476714E+00;  0.0000000E+00;  2.6464820E-01;0;  7.2849341E-02;  3.9885691E+04;  0.0000000E+00; -7.9716489E-02;  4.0000000E+04;  0.0000000E+00;  4.0021004E+04;  7.6757558E-02;  0.0000000E+00; -3.9082137E-03;  2.7563115E+03;
  1.5171456E-01;  9.9999998E-03; -1.2989108E-01;3378;  1.5701322E-02;  0.0000000E+00;  4.0531033E-04;  9.9894873E+02;  1.0000000E-01; -8.7093835E+02;3;  2.3841825E+00;  0.0000000E+00;  2.7747607E-01;0;  7.4426532E-02;  3.9898609E+04;  0.0000000E+00; -7.5566590E-02;  4.0000000E+04;  0.0000000E+00;  4.0018492E+04;  7.8617170E-02;  0.0000000E+00; -4.1906368E-03;  2.4259766E+03;
  1.5173797E-01;  9.9999998E-03; -1.3986471E-01;3377;  1.5694441E-02;  0.0000000E+00;  5.1378174E-04;  9.9907904E+02;  1.0000000E-01; -7.6299078E+02;3;  2.3381333E+00;  0.0000000E+00;  2.8263769E-01;0;  7.5631857E-02;  3.9914055E+04;  0.0000000E+00; -5.3320881E-02;  4.0000000E+04;  0.0000000E+00;  4.0014207E+04;  8.0136210E-02;  0.0000000E+00; -4.5043533E-03;  1.8611277E+03;
  1.5175444E-01;  9.9999998E-03; -1.4983802E-01;3376;  1.5604751E-02;  0.0000000E+00;  6.5572269E-04;  9.9921509E+02;  1.0000000E-01; -6.5030261E+02;3;  2.2989159E+00;  0.0000000E+00;  2.8325766E-01;0;  7.6301619E-02;  3.9930820E+04;  0.0000000E+00; -6.2671266E-03;  4.0000000E+04;  0.0000000E+00;  4.0009133E+04;  8.1125505E-02;  0.0000000E+00; -4.8238863E-03;  1.1609091E+03;
  1.5176442E-01;  9.9999998E-03; -1.5982145E-01;3375;  1.5419446E-02;  0.0000000E+00;  8.2328933E-04;  9.9935229E+02;  1.0000000E-01; -5.3662677E+02;3;  2.2620924E+00;  0.0000000E+00;  2.4449638E-01;0;  7.6311752E-02;  3.9947633E+04;  0.0000000E+00;  7.1053855E-02;  4.0000000E+04;  0.0000000E+00;  4.0003465E+04;  8.1425250E-02;  0.0000000E+00; -5.1134988E-03;  4.9196078E+02;
  1.5176152E-01;  9.9999998E-03; -1.6983373E-01;3374;  1.5134158E-02;  0.0000000E+00;  1.0061921E-03;  9.9948059E+02;  1.0000000E-01; -4.3030881E+02;3;  2.2234282E+00;  0.0000000E+00;  9.7356312E-02;0;  7.5601257E-02;  3.9962023E+04;  0.0000000E+00;  1.8859495E-01;  4.0000000E+04;  0.0000000E+00;  3.9999754E+04;  8.0935232E-02;  0.0000000E+00; -5.3339745E-03;  2.7086255E+02;
  1.5172613E-01;  9.9999998E-03; -1.7987278E-01;3373;  1.4749858E-02;  0.0000000E+00;  1.1918780E-03;  9.9958606E+02;  1.0000000E-01; -3.4295328E+02;3;  2.1686757E+00;  0.0000000E+00; -2.5138891E-01;0;  7.4192822E-02;  3.9972012E+04;  0.0000000E+00;  3.7346777E-01;  4.0000000E+04;  0.0000000E+00;  3.9998949E+04;  7.9643629E-02;  0.0000000E+00; -5.4508070E-03;  5.4379791E+02;
  1.5165642E-01;  9.9999998E-03; -1.8991873E-01;3372;  1.4275059E-02;  0.0000000E+00;  1.3665499E-03;  9.9965131E+02;  1.0000000E-01; -2.8888071E+02;3;  2.0921319E+00;  0.0000000E+00; -9.5169991E-01;0;  7.2188251E-02;  3.9974734E+04;  0.0000000E+00;  6.8402457E-01;  4.0000000E+04;  0.0000000E+00;  4.0001973E+04;  7.7625535E-02;  0.0000000E+00; -5.4372814E-03;  1.0216273E+03;
  1.5158367E-01;  9.9999998E-03; -1.9995344E-01;3371;  1.3725036E-02;  0.0000000E+00;  1.5153431E-03;  9.9964899E+02;  1.0000000E-01; -2.9080658E+02;3;  2.0093656E+00;  0.0000000E+00; -2.2477279E+00;0;  6.9760695E-02;  3.9968000E+04;  0.0000000E+00;  1.2202920E+00;  4.0000000E+04;  0.0000000E+00;  4.0009289E+04;  7.5033531E-02;  0.0000000E+00; -5.2728346E-03;  2.1145393E+03;
  1.5151404E-01;  9.9999998E-03; -2.0996064E-01;3370;  1.3119082E-02;  0.0000000E+00;  1.6283573E-03;  9.9955023E+02;  1.0000000E-01; -3.7263144E+02;3;  2.0091927E+00;  0.0000000E+00; -4.4551873E+00;0;  6.7164160E-02;  3.9950199E+04;  0.0000000E+00;  2.1275308E+00;  4.0000000E+04;  0.0000000E+00;  4.0019715E+04;  7.2100222E-02;  0.0000000E+00; -4.9360595E-03;  3.9531526E+03;
  1.5078920E-01;  9.9999998E-03; -2.6960617E-01;3364;  9.3358653E-03;  0.0000000E+00;  2.3489948E-03;  9.9663245E+02;  1.0000000E-01; -2.7899458E+03;3;  2.2749022E+01;  0.0000000E+00; -2.6050148E+01;0;  6.0288560E-02;  3.9676516E+04;  0.0000000E+00;  2.4717960E+01;  4.0000000E+04;  0.0000000E+00;  4.0058426E+04;  5.8209397E-02;  0.0000000E+00;  2.0791618E-03;  3.6914879E+04;
  1.5099487E-01;  9.9999998E-03; -2.5970757E-01;3365;  9.8894816E-03;  0.0000000E+00;  2.0828962E-03;  9.9722479E+02;  1.0000000E-01; -2.2991943E+03;3;  1.4559116E+01;  0.0000000E+00; -2.6395618E+01;0;  5.9989672E-02;  3.9720355E+04;  0.0000000E+00;  1.8515255E+01;  4.0000000E+04;  0.0000000E+00;  4.0062137E+04;  5.9625003E-02;  0.0000000E+00;  3.6466960E-04;  2.8248848E+04;
  1.5115914E-01;  9.9999998E-03; -2.4980085E-01;3366;  1.0505510E-02;  0.0000000E+00;  1.9184012E-03;  9.9786359E+02;  1.0000000E-01; -1.7699746E+03;3;  8.7441378E+00;  0.0000000E+00; -2.3111397E+01;0;  6.0187493E-02;  3.9774203E+04;  0.0000000E+00;  1.3180701E+01;  4.0000000E+04;  0.0000000E+00;  4.0060449E+04;  6.1403148E-02;  0.0000000E+00; -1.2156554E-03;  2.0763971E+04;
  1.5128718E-01;  9.9999998E-03; -2.3987429E-01;3367;  1.1144774E-02;  0.0000000E+00;  1.8175215E-03;  9.9846228E+02;  1.0000000E-01; -1.2739886E+03;3;  5.1355996E+00;  0.0000000E+00; -1.7968912E+01;0;  6.1033454E-02;  3.9828969E+04;  0.0000000E+00;  8.9488678E+00;  4.0000000E+04;  0.0000000E+00;  4.0054051E+04;  6.3587435E-02;  0.0000000E+00; -2.5539799E-03;  1.4753705E+04;
  1.5138093E-01;  9.9999998E-03; -2.2992350E-01;3368;  1.1812088E-02;  0.0000000E+00;  1.7523114E-03;  9.9896008E+02;  1.0000000E-01; -8.6155591E+02;3;  3.1712568E+00;  0.0000000E+00; -1.2533786E+01;0;  6.2565193E-02;  3.9879074E+04;  0.0000000E+00;  5.7979345E+00;  4.0000000E+04;  0.0000000E+00;  4.0044121E+04;  6.6176400E-02;  0.0000000E+00; -3.6112033E-03;  1.0107850E+04;
  1.5145020E-01;  9.9999998E-03; -2.1995066E-01;3369;  1.2477428E-02;  0.0000000E+00;  1.7012686E-03;  9.9932562E+02;  1.0000000E-01; -5.5870026E+02;3;  2.2845571E+00;  0.0000000E+00; -7.8727403E+00;0;  6.4676464E-02;  3.9920406E+04;  0.0000000E+00;  3.5872395E+00;  4.0000000E+04;  0.0000000E+00;  4.0032004E+04;  6.9071747E-02;  0.0000000E+00; -4.3952852E-03;  6.5792339E+03;
  1.6093856E-01;  9.9999998E-03; -2.6960862E-01;3425;  8.8538537E-03;  0.0000000E+00;  1.6798760E-03;  9.9626013E+02;  1.0000000E-01; -3.0984309E+03;3;  2.9626478E+01;  0.0000000E+00; -2.9255281E+01;0;  6.1847322E-02;  3.9630629E+04;  0.0000000E+00;  2.9941441E+01;  4.0000000E+04;  0.0000000E+00;  4.0074461E+04;  5.9705492E-02;  0.0000000E+00;  2.1418300E-03;  4.5024957E+04;
  1.6115233E-01;  9.9999998E-03; -2.5972220E-01;3426;  9.4395531E-03;  0.0000000E+00;  1.5084292E-03;  9.9687982E+02;  1.0000000E-01; -2.5850134E+03;3;  1.7657440E+01;  0.0000000E+00; -2.6993504E+01;0;  6.0586076E-02;  3.9684082E+04;  0.0000000E+00;  2.1483189E+01;  4.0000000E+04;  0.0000000E+00;  4.0071098E+04;  6.0244001E-02;  0.0000000E+00;  3.4207571E-04;  3.2920023E+04;
  1.6130029E-01;  9.9999998E-03; -2.4982762E-01;3427;  1.0123856E-02;  0.0000000E+00;  1.3845866E-03;  9.9757977E+02;  1.0000000E-01; -2.0051284E+03;3;  9.7764635E+00;  0.0000000E+00; -2.2376837E+01;0;  5.9899122E-02;  3.9748152E+04;  0.0000000E+00;  1.4805549E+01;  4.0000000E+04;  0.0000000E+00;  4.0063711E+04;  6.1177470E-02;  0.0000000E+00; -1.2783497E-03;  2.3254707E+04;
  1.6136977E-01;  9.9999998E-03; -2.3991118E-01;3428;  1.0840289E-02;  0.0000000E+00;  1.3044316E-03;  9.9824915E+02;  1.0000000E-01; -1.4505269E+03;3;  5.2053471E+00;  0.0000000E+00; -1.6898464E+01;0;  5.9880078E-02;  3.9812469E+04;  0.0000000E+00;  9.8403072E+00;  4.0000000E+04;  0.0000000E+00;  4.0053250E+04;  6.2513754E-02;  0.0000000E+00; -2.6336757E-03;  1.5956460E+04;
  1.6140531E-01;  9.9999998E-03; -2.2996750E-01;3429;  1.1573045E-02;  0.0000000E+00;  1.2593258E-03;  9.9879480E+02;  1.0000000E-01; -9.9849030E+02;3;  2.8926756E+00;  0.0000000E+00; -1.1616589E+01;0;  6.0565948E-02;  3.9868234E+04;  0.0000000E+00;  6.2604122E+00;  4.0000000E+04;  0.0000000E+00;  4.0041246E+04;  6.4255834E-02;  0.0000000E+00; -3.6898833E-03;  1.0530628E+04;
  1.6143428E-01;  9.9999998E-03; -2.1999434E-01;3430;  1.2294356E-02;  0.0000000E+00;  1.2259583E-03;  9.9918268E+02;  1.0000000E-01; -6.7711664E+02;3;  1.9486462E+00;  0.0000000E+00; -7.2657042E+00;0;  6.1861351E-02;  3.9911961E+04;  0.0000000E+00;  3.7759736E+00;  4.0000000E+04;  0.0000000E+00;  4.0028285E+04;  6.6313349E-02;  0.0000000E+00; -4.4519976E-03;  6.5420229E+03;
  1.6149256E-01;  9.9999998E-03; -2.0999630E-01;3431;  1.3019437E-02;  0.0000000E+00;  1.1872385E-03;  9.9941852E+02;  1.0000000E-01; -4.8176416E+02;3;  1.7400445E+00;  0.0000000E+00; -4.1295562E+00;0;  6.3557044E-02;  3.9942559E+04;  0.0000000E+00;  2.1362424E+00;  4.0000000E+04;  0.0000000E+00;  4.0015645E+04;  6.8514735E-02;  0.0000000E+00; -4.9576913E-03;  3.6743989E+03;
  1.6159469E-01;  9.9999998E-03; -1.9997290E-01;3432;  1.3710555E-02;  0.0000000E+00;  1.1192048E-03;  9.9952008E+02;  1.0000000E-01; -3.9761838E+02;3;  1.8425648E+00;  0.0000000E+00; -2.1016040E+00;0;  6.5371908E-02;  3.9960363E+04;  0.0000000E+00;  1.1192616E+00;  4.0000000E+04;  0.0000000E+00;  4.0005285E+04;  7.0622876E-02;  0.0000000E+00; -5.2509657E-03;  1.7593563E+03;
  1.6169529E-01;  9.9999998E-03; -1.8993716E-01;3433;  1.4309211E-02;  0.0000000E+00;  1.0123551E-03;  9.9951941E+02;  1.0000000E-01; -3.9816159E+02;3;  2.0009711E+00;  0.0000000E+00; -9.0886110E-01;0;  6.7034803E-02;  3.9966457E+04;  0.0000000E+00;  5.3032714E-01;  4.0000000E+04;  0.0000000E+00;  3.9998656E+04;  7.2406523E-02;  0.0000000E+00; -5.3717191E-03;  7.7454669E+02;
  1.6173324E-01;  9.9999998E-03; -1.7989555E-01;3434;  1.4803346E-02;  0.0000000E+00;  8.8012649E-04;  9.9945026E+02;  1.0000000E-01; -4.5544391E+02;3;  2.1340752E+00;  0.0000000E+00; -2.6286718E-01;0;  6.8332545E-02;  3.9962684E+04;  0.0000000E+00;  2.1140444E-01;  4.0000000E+04;  0.0000000E+00;  3.9995855E+04;  7.3682740E-02;  0.0000000E+00; -5.3501921E-03;  5.6267303E+02;
  1.6174184E-01;  9.9999998E-03; -1.6985631E-01;3435;  1.5181927E-02;  0.0000000E+00;  7.3703780E-04;  9.9933325E+02;  1.0000000E-01; -5.5237946E+02;3;  2.2106280E+00;  0.0000000E+00;  6.7038119E-02;0;  6.9074154E-02;  3.9951285E+04;  0.0000000E+00;  4.7372572E-02;  4.0000000E+04;  0.0000000E+00;  3.9997125E+04;  7.4284010E-02;  0.0000000E+00; -5.2098520E-03;  3.2281308E+02;
  1.6173200E-01;  9.9999998E-03; -1.5984078E-01;3436;  1.5443531E-02;  0.0000000E+00;  5.9865799E-04;  9.9918854E+02;  1.0000000E-01; -6.7227728E+02;3;  2.2562988E+00;  0.0000000E+00;  2.1340299E-01;0;  6.9159620E-02;  3.9935020E+04;  0.0000000E+00; -3.5772689E-02;  4.0000000E+04;  0.0000000E+00;  4.0000965E+04;  7.4138455E-02;  0.0000000E+00; -4.9788328E-03;  2.1135698E+02;
  1.6171937E-01;  9.9999998E-03; -1.4985412E-01;3437;  1.5588539E-02;  0.0000000E+00;  4.7508266E-04;  9.9903345E+02;  1.0000000E-01; -8.0076746E+02;3;  2.2935169E+00;  0.0000000E+00;  2.5448069E-01;0;  6.8574272E-02;  3.9916324E+04;  0.0000000E+00; -7.7470295E-02;  4.0000000E+04;  0.0000000E+00;  4.0006625E+04;  7.3266998E-02;  0.0000000E+00; -4.6927286E-03;  9.1880029E+02;
  1.6170853E-01;  9.9999998E-03; -1.3987941E-01;3438;  1.5628960E-02;  0.0000000E+00;  3.7475105E-04;  9.9887164E+02;  1.0000000E-01; -9.3483777E+02;3;  2.3298645E+00;  0.0000000E+00;  2.6067033E-01;0;  6.7387521E-02;  3.9897227E+04;  0.0000000E+00; -9.4266787E-02;  4.0000000E+04;  0.0000000E+00;  4.0012035E+04;  7.1778111E-02;  0.0000000E+00; -4.3905918E-03;  1.6292930E+03;
  1.6169621E-01;  9.9999998E-03; -1.2990686E-01;3439;  1.5584759E-02;  0.0000000E+00;  2.9959806E-04;  9.9870844E+02;  1.0000000E-01; -1.0700438E+03;3;  2.3875294E+00;  0.0000000E+00;  2.6774454E-01;0;  6.5737784E-02;  3.9879312E+04;  0.0000000E+00; -9.3478471E-02;  4.0000000E+04;  0.0000000E+00;  4.0016473E+04;  6.9845222E-02;  0.0000000E+00; -4.1074408E-03;  2.1942166E+03;
  1.6167580E-01;  9.9999998E-03; -1.1993033E-01;3440;  1.5465157E-02;  0.0000000E+00;  2.7585134E-04;  9.9855457E+02;  1.0000000E-01; -1.1974969E+03;3;  2.4773040E+00;  0.0000000E+00;  2.2780837E-01;0;  6.3804463E-02;  3.9864215E+04;  0.0000000E+00; -8.1820995E-02;  4.0000000E+04;  0.0000000E+00;  4.0019559E+04;  6.7670897E-02;  0.0000000E+00; -3.8664306E-03;  2.5210474E+03;
  1.6164581E-01;  9.9999998E-03; -1.0994575E-01;3441;  1.5313479E-02;  0.0000000E+00;  2.8842816E-04;  9.9841858E+02;  1.0000000E-01; -1.3101852E+03;3;  2.5598640E+00;  0.0000000E+00;  1.7388259E-01;0;  6.1767943E-02;  3.9852336E+04;  0.0000000E+00; -6.5607339E-02;  4.0000000E+04;  0.0000000E+00;  4.0020035E+04;  6.5457247E-02;  0.0000000E+00; -3.6893026E-03;  2.5884600E+03;
  1.7118061E-01;  9.9999998E-03; -2.6971197E-01;3486;  8.2362499E-03;  0.0000000E+00;  7.9785724E-04;  9.9572021E+02;  1.0000000E-01; -3.5457268E+03;3;  3.6120388E+01;  0.0000000E+00; -2.5181316E+01;0;  6.4872079E-02;  3.9582711E+04;  0.0000000E+00;  3.2515064E+01;  4.0000000E+04;  0.0000000E+00;  4.0078992E+04;  6.1694767E-02;  0.0000000E+00;  3.1773136E-03;  4.9239234E+04;
  1.7135988E-01;  9.9999998E-03; -2.5982112E-01;3487;  8.8953162E-03;  0.0000000E+00;  7.8886107E-04;  9.9648584E+02;  1.0000000E-01; -2.9114238E+03;3;  2.0230450E+01;  0.0000000E+00; -2.2957857E+01;0;  6.2502384E-02;  3.9653758E+04;  0.0000000E+00;  2.2590191E+01;  4.0000000E+04;  0.0000000E+00;  4.0069742E+04;  6.1514173E-02;  0.0000000E+00;  9.8821148E-04;  3.4739664E+04;
  1.7144421E-01;  9.9999998E-03; -2.4992619E-01;3488;  9.6924407E-03;  0.0000000E+00;  7.4861490E-04;  9.9731909E+02;  1.0000000E-01; -2.2210730E+03;3;  1.0422340E+01;  0.0000000E+00; -1.8817135E+01;0;  6.0832191E-02;  3.9732934E+04;  0.0000000E+00;  1.5325668E+01;  4.0000000E+04;  0.0000000E+00;  4.0057531E+04;  6.1693277E-02;  0.0000000E+00; -8.6108432E-04;  2.3919500E+04;
  1.7144060E-01;  9.9999998E-03; -2.3999909E-01;3489;  1.0502381E-02;  0.0000000E+00;  7.0898863E-04;  9.9809937E+02;  1.0000000E-01; -1.5746222E+03;3;  5.0543418E+00;  0.0000000E+00; -1.4370344E+01;0;  5.9842318E-02;  3.9807465E+04;  0.0000000E+00;  1.0154545E+01;  4.0000000E+04;  0.0000000E+00;  4.0045961E+04;  6.2198035E-02;  0.0000000E+00; -2.3557183E-03;  1.6109989E+04;
  1.7140804E-01;  9.9999998E-03; -2.3004206E-01;3490;  1.1286072E-02;  0.0000000E+00;  6.9392589E-04;  9.9870825E+02;  1.0000000E-01; -1.0701919E+03;3;  2.5094802E+00;  0.0000000E+00; -1.0021878E+01;0;  5.9573233E-02;  3.9868652E+04;  0.0000000E+00;  6.4469285E+00;  4.0000000E+04;  0.0000000E+00;  4.0033039E+04;  6.3071541E-02;  0.0000000E+00; -3.4983079E-03;  1.0389556E+04;
  1.7140082E-01;  9.9999998E-03; -2.2005694E-01;3491;  1.2075397E-02;  0.0000000E+00;  6.9025677E-04;  9.9912659E+02;  1.0000000E-01; -7.2358447E+02;3;  1.5621619E+00;  0.0000000E+00; -6.3703914E+00;0;  5.9965592E-02;  3.9913891E+04;  0.0000000E+00;  3.8371527E+00;  4.0000000E+04;  0.0000000E+00;  4.0020910E+04;  6.4268291E-02;  0.0000000E+00; -4.3026977E-03;  6.2105625E+03;
  1.7145544E-01;  9.9999998E-03; -2.1004178E-01;3492;  1.2832979E-02;  0.0000000E+00;  6.8066729E-04;  9.9937408E+02;  1.0000000E-01; -5.1855322E+02;3;  1.4363439E+00;  0.0000000E+00; -3.7046587E+00;0;  6.0797378E-02;  3.9944367E+04;  0.0000000E+00;  2.0851848E+00;  4.0000000E+04;  0.0000000E+00;  4.0009480E+04;  6.5615252E-02;  0.0000000E+00; -4.8178714E-03;  3.2707087E+03;
  1.7156956E-01;  9.9999998E-03; -2.0000097E-01;3493;  1.3580026E-02;  0.0000000E+00;  6.7576137E-04;  9.9948578E+02;  1.0000000E-01; -4.2601263E+02;3;  1.5997827E+00;  0.0000000E+00; -1.9266629E+00;0;  6.1788104E-02;  3.9961340E+04;  0.0000000E+00;  9.8556036E-01;  4.0000000E+04;  0.0000000E+00;  4.0000320E+04;  6.6894099E-02;  0.0000000E+00; -5.1059946E-03;  1.4288466E+03;
  1.7167582E-01;  9.9999998E-03; -1.8996237E-01;3494;  1.4246858E-02;  0.0000000E+00;  6.3998817E-04;  9.9949042E+02;  1.0000000E-01; -4.2216089E+02;3;  1.8861673E+00;  0.0000000E+00; -8.5120112E-01;0;  6.2671788E-02;  3.9966992E+04;  0.0000000E+00;  3.5237548E-01;  4.0000000E+04;  0.0000000E+00;  3.9994551E+04;  6.7885548E-02;  0.0000000E+00; -5.2137598E-03;  8.2278094E+02;
  1.7173684E-01;  9.9999998E-03; -1.7993033E-01;3495;  1.4762548E-02;  0.0000000E+00;  5.5569294E-04;  9.9941943E+02;  1.0000000E-01; -4.8097406E+02;3;  2.0839655E+00;  0.0000000E+00; -2.6376954E-01;0;  6.3228309E-02;  3.9962176E+04;  0.0000000E+00;  2.7940165E-02;  4.0000000E+04;  0.0000000E+00;  3.9992707E+04;  6.8410523E-02;  0.0000000E+00; -5.1822141E-03;  8.8089722E+02;
  1.7175066E-01;  9.9999998E-03; -1.6990061E-01;3496;  1.5140707E-02;  0.0000000E+00;  4.6298787E-04;  9.9929822E+02;  1.0000000E-01; -5.8141565E+02;3;  2.1900489E+00;  0.0000000E+00;  4.6333726E-02;0;  6.3298747E-02;  3.9949812E+04;  0.0000000E+00; -1.1105748E-01;  4.0000000E+04;  0.0000000E+00;  3.9994242E+04;  6.8340503E-02;  0.0000000E+00; -5.0417553E-03;  6.7019141E+02;
  1.7174698E-01;  9.9999998E-03; -1.5989719E-01;3497;  1.5379978E-02;  0.0000000E+00;  3.7432558E-04;  9.9914343E+02;  1.0000000E-01; -7.0965894E+02;3;  2.2460229E+00;  0.0000000E+00;  1.8767507E-01;0;  6.2790275E-02;  3.9932191E+04;  0.0000000E+00; -1.5283149E-01;  4.0000000E+04;  0.0000000E+00;  3.9998859E+04;  6.7612641E-02;  0.0000000E+00; -4.8223641E-03;  2.3498792E+02;
  1.7174470E-01;  9.9999998E-03; -1.4991552E-01;3498;  1.5494548E-02;  0.0000000E+00;  2.9252429E-04;  9.9896918E+02;  1.0000000E-01; -8.5400055E+02;3;  2.2703805E+00;  0.0000000E+00;  2.5928858E-01;0;  6.1696321E-02;  3.9912055E+04;  0.0000000E+00; -1.5110384E-01;  4.0000000E+04;  0.0000000E+00;  4.0004371E+04;  6.6257544E-02;  0.0000000E+00; -4.5612222E-03;  6.6274469E+02;
  1.7174301E-01;  9.9999998E-03; -1.3994320E-01;3499;  1.5503953E-02;  0.0000000E+00;  2.2190454E-04;  9.9878448E+02;  1.0000000E-01; -1.0070333E+03;3;  2.3140862E+00;  0.0000000E+00;  2.7346855E-01;0;  6.0096152E-02;  3.9891340E+04;  0.0000000E+00; -1.3158263E-01;  4.0000000E+04;  0.0000000E+00;  4.0009977E+04;  6.4394057E-02;  0.0000000E+00; -4.2979042E-03;  1.3443741E+03;
  1.7173536E-01;  9.9999998E-03; -1.2997104E-01;3500;  1.5394558E-02;  0.0000000E+00;  2.0330558E-04;  9.9860431E+02;  1.0000000E-01; -1.1563130E+03;3;  2.4118762E+00;  0.0000000E+00;  2.2977370E-01;0;  5.8137380E-02;  3.9872098E+04;  0.0000000E+00; -1.0493176E-01;  4.0000000E+04;  0.0000000E+00;  4.0014035E+04;  6.2202625E-02;  0.0000000E+00; -4.0652473E-03;  1.8853861E+03;
  1.7171420E-01;  9.9999998E-03; -1.1999449E-01;3501;  1.5233367E-02;  0.0000000E+00;  2.4002539E-04;  9.9842761E+02;  1.0000000E-01; -1.3026792E+03;3;  2.5062532E+00;  0.0000000E+00;  1.6840345E-01;0;  5.6002177E-02;  3.9855223E+04;  0.0000000E+00; -7.7672012E-02;  4.0000000E+04;  0.0000000E+00;  4.0016219E+04;  5.9887335E-02;  0.0000000E+00; -3.8851560E-03;  2.1908792E+03;
  1.7167601E-01;  9.9999998E-03; -1.1001057E-01;3502;  1.5053807E-02;  0.0000000E+00;  2.9034555E-04;  9.9826959E+02;  1.0000000E-01; -1.4335891E+03;3;  2.5789313E+00;  0.0000000E+00;  1.2337518E-01;0;  5.3870376E-02;  3.9841691E+04;  0.0000000E+00; -5.4512255E-02;  4.0000000E+04;  0.0000000E+00;  4.0016852E+04;  5.7644274E-02;  0.0000000E+00; -3.7738970E-03;  2.2423496E+03;
  1.8138988E-01;  9.9999998E-03; -2.6989955E-01;3547;  7.8194486E-03;  0.0000000E+00; -6.2251984E-06;  9.9505176E+02;  1.0000000E-01; -4.0995386E+03;3;  3.7481316E+01;  0.0000000E+00; -1.0056520E+01;0;  6.9749646E-02;  3.9547863E+04;  0.0000000E+00;  3.1079630E+01;  4.0000000E+04;  0.0000000E+00;  4.0060273E+04;  6.4544640E-02;  0.0000000E+00;  5.2050031E-03;  4.7317059E+04;
  1.8146713E-01;  9.9999998E-03; -2.5998676E-01;3548;  8.4679853E-03;  0.0000000E+00;  1.0562983E-04;  9.9611639E+02;  1.0000000E-01; -3.2174893E+03;3;  2.0108105E+01;  0.0000000E+00; -1.2589479E+01;0;  6.5953277E-02;  3.9643273E+04;  0.0000000E+00;  2.1664858E+01;  4.0000000E+04;  0.0000000E+00;  4.0050355E+04;  6.3590720E-02;  0.0000000E+00;  2.3625561E-03;  3.3232957E+04;
  1.8147786E-01;  9.9999998E-03; -2.5007248E-01;3549;  9.3167732E-03;  0.0000000E+00;  1.1786228E-04;  9.9711243E+02;  1.0000000E-01; -2.3922781E+03;3;  9.7500944E+00;  0.0000000E+00; -1.1849042E+01;0;  6.3161701E-02;  3.9735188E+04;  0.0000000E+00;  1.4836838E+01;  4.0000000E+04;  0.0000000E+00;  4.0038625E+04;  6.3052803E-02;  0.0000000E+00;  1.0889876E-04;  2.2806268E+04;
  1.8143262E-01;  9.9999998E-03; -2.4012117E-01;3550;  1.0188900E-02;  0.0000000E+00;  9.4644245E-05;  9.9798682E+02;  1.0000000E-01; -1.6679034E+03;3;  4.3494730E+00;  0.0000000E+00; -1.0142862E+01;0;  6.1137974E-02;  3.9814523E+04;  0.0000000E+00;  9.9673729E+00;  4.0000000E+04;  0.0000000E+00;  4.0029371E+04;  6.2793888E-02;  0.0000000E+00; -1.6559132E-03;  1.5330226E+04;
  1.8136783E-01;  9.9999998E-03; -2.3013738E-01;3551;  1.1032359E-02;  0.0000000E+00;  1.0173271E-04;  9.9865295E+02;  1.0000000E-01; -1.1160178E+03;3;  1.9035649E+00;  0.0000000E+00; -7.6923060E+00;0;  5.9867926E-02;  3.9876574E+04;  0.0000000E+00;  6.3972073E+00;  4.0000000E+04;  0.0000000E+00;  4.0020805E+04;  6.2870808E-02;  0.0000000E+00; -3.0028811E-03;  9.8194424E+03;
  1.8134451E-01;  9.9999998E-03; -2.2012801E-01;3552;  1.1862766E-02;  0.0000000E+00;  1.1902384E-04;  9.9909381E+02;  1.0000000E-01; -7.5074420E+02;3;  1.1218376E+00;  0.0000000E+00; -5.1841588E+00;0;  5.9324514E-02;  3.9920801E+04;  0.0000000E+00;  3.7917786E+00;  4.0000000E+04;  0.0000000E+00;  4.0011035E+04;  6.3264318E-02;  0.0000000E+00; -3.9398032E-03;  5.7471338E+03;
  1.8140513E-01;  9.9999998E-03; -2.1008559E-01;3553;  1.2640153E-02;  0.0000000E+00;  1.5319811E-04;  9.9935468E+02;  1.0000000E-01; -5.3465155E+02;3;  1.0998304E+00;  0.0000000E+00; -3.1343465E+00;0;  5.9282474E-02;  3.9949492E+04;  0.0000000E+00;  1.9872526E+00;  4.0000000E+04;  0.0000000E+00;  4.0002098E+04;  6.3824266E-02;  0.0000000E+00; -4.5417938E-03;  2.9206274E+03;
  1.8151230E-01;  9.9999998E-03; -2.0003067E-01;3554;  1.3394561E-02;  0.0000000E+00;  2.0986078E-04;  9.9947461E+02;  1.0000000E-01; -4.3529633E+02;3;  1.3904254E+00;  0.0000000E+00; -1.6854432E+00;0;  5.9472188E-02;  3.9965246E+04;  0.0000000E+00;  8.3346570E-01;  4.0000000E+04;  0.0000000E+00;  3.9994859E+04;  6.4356059E-02;  0.0000000E+00; -4.8838700E-03;  1.3519320E+03;
  1.8160851E-01;  9.9999998E-03; -1.8998611E-01;3555;  1.4126037E-02;  0.0000000E+00;  2.7350875E-04;  9.9948901E+02;  1.0000000E-01; -4.2334604E+02;3;  1.7620908E+00;  0.0000000E+00; -7.5568032E-01;0;  5.9626073E-02;  3.9969719E+04;  0.0000000E+00;  1.6876854E-01;  4.0000000E+04;  0.0000000E+00;  3.9990316E+04;  6.4653300E-02;  0.0000000E+00; -5.0272262E-03;  1.1734437E+03;
  1.8168363E-01;  9.9999998E-03; -1.7995477E-01;3556;  1.4693073E-02;  0.0000000E+00;  2.6415961E-04;  9.9942328E+02;  1.0000000E-01; -4.7781366E+02;3;  2.0526044E+00;  0.0000000E+00; -1.9502106E-01;0;  5.9518844E-02;  3.9964328E+04;  0.0000000E+00; -1.5494576E-01;  4.0000000E+04;  0.0000000E+00;  3.9989543E+04;  6.4539872E-02;  0.0000000E+00; -5.0210264E-03;  1.2755677E+03;
  1.8172082E-01;  9.9999998E-03; -1.6994289E-01;3557;  1.5060932E-02;  0.0000000E+00;  1.9818985E-04;  9.9930090E+02;  1.0000000E-01; -5.7919348E+02;3;  2.1702719E+00;  0.0000000E+00;  9.6017487E-02;0;  5.9001666E-02;  3.9951633E+04;  0.0000000E+00; -2.6430449E-01;  4.0000000E+04;  0.0000000E+00;  3.9992098E+04;  6.3910708E-02;  0.0000000E+00; -4.9090427E-03;  1.0288169E+03;
  1.8173528E-01;  9.9999998E-03; -1.5995111E-01;3558;  1.5294099E-02;  0.0000000E+00;  1.3354470E-04;  9.9914337E+02;  1.0000000E-01; -7.0970831E+02;3;  2.2090518E+00;  0.0000000E+00;  2.2783627E-01;0;  5.8003642E-02;  3.9933391E+04;  0.0000000E+00; -2.6054057E-01;  4.0000000E+04;  0.0000000E+00;  3.9996410E+04;  6.2729299E-02;  0.0000000E+00; -4.7256565E-03;  5.2526904E+02;
  1.8174084E-01;  9.9999998E-03; -1.4997439E-01;3559;  1.5400178E-02;  0.0000000E+00;  7.9403493E-05;  9.9896344E+02;  1.0000000E-01; -8.5879053E+02;3;  2.2423778E+00;  0.0000000E+00;  2.7918947E-01;0;  5.6533273E-02;  3.9912770E+04;  0.0000000E+00; -2.1223681E-01;  4.0000000E+04;  0.0000000E+00;  4.0001902E+04;  6.1043303E-02;  0.0000000E+00; -4.5100315E-03;  4.5026691E+02;
  1.8173663E-01;  9.9999998E-03; -1.4000288E-01;3560;  1.5363201E-02;  0.0000000E+00;  6.6744207E-05;  9.9877173E+02;  1.0000000E-01; -1.0176008E+03;3;  2.3253171E+00;  0.0000000E+00;  2.6057473E-01;0;  5.4677017E-02;  3.9891746E+04;  0.0000000E+00; -1.5554073E-01;  4.0000000E+04;  0.0000000E+00;  4.0007176E+04;  5.8979690E-02;  0.0000000E+00; -4.3026721E-03;  1.0272539E+03;
  1.8172120E-01;  9.9999998E-03; -1.3002931E-01;3561;  1.5202391E-02;  0.0000000E+00;  1.3151435E-04;  9.9858289E+02;  1.0000000E-01; -1.1740409E+03;3;  2.4235733E+00;  0.0000000E+00;  1.9767463E-01;0;  5.2579954E-02;  3.9872113E+04;  0.0000000E+00; -1.0480502E-01;  4.0000000E+04;  0.0000000E+00;  4.0011285E+04;  5.6715492E-02;  0.0000000E+00; -4.1355384E-03;  1.5146410E+03;
  1.8169558E-01;  9.9999998E-03; -1.2004977E-01;3562;  1.4997935E-02;  0.0000000E+00;  2.3476477E-04;  9.9839923E+02;  1.0000000E-01; -1.3261847E+03;3;  2.5234411E+00;  0.0000000E+00;  1.2151695E-01;0;  5.0413538E-02;  3.9854973E+04;  0.0000000E+00; -6.5535478E-02;  4.0000000E+04;  0.0000000E+00;  4.0013145E+04;  5.4443073E-02;  0.0000000E+00; -4.0295338E-03;  1.7777734E+03;
  1.8166077E-01;  9.9999998E-03; -1.1006367E-01;3563;  1.4809606E-02;  0.0000000E+00;  3.0554415E-04;  9.9823224E+02;  1.0000000E-01; -1.4645511E+03;3;  2.5888331E+00;  0.0000000E+00;  8.6669348E-02;0;  4.8346188E-02;  3.9841074E+04;  0.0000000E+00; -3.9665226E-02;  4.0000000E+04;  0.0000000E+00;  4.0013301E+04;  5.2341666E-02;  0.0000000E+00; -3.9954786E-03;  1.7993080E+03;
  1.9142762E-01;  9.9999998E-03; -2.7006263E-01;3608;  8.0690263E-03;  0.0000000E+00; -2.8862280E-04;  9.9469330E+02;  1.0000000E-01; -4.3965176E+03;3;  3.2762005E+01;  0.0000000E+00;  9.1710081E+00;0;  7.5798802E-02;  3.9551926E+04;  0.0000000E+00;  2.7975119E+01;  4.0000000E+04;  0.0000000E+00;  4.0026809E+04;  6.8773031E-02;  0.0000000E+00;  7.0257732E-03;  4.2756762E+04;
  1.9143082E-01;  9.9999998E-03; -2.6013172E-01;3609;  8.4310155E-03;  0.0000000E+00; -2.8335198E-04;  9.9593884E+02;  1.0000000E-01; -3.3645962E+03;3;  1.6872673E+01;  0.0000000E+00;  5.4967672E-01;0;  7.0420623E-02;  3.9660117E+04;  0.0000000E+00;  1.9999113E+01;  4.0000000E+04;  0.0000000E+00;  4.0019285E+04;  6.6461012E-02;  0.0000000E+00;  3.9596139E-03;  3.0546732E+04;
  1.9140673E-01;  9.9999998E-03; -2.5020227E-01;3610;  9.1643212E-03;  0.0000000E+00; -3.2355706E-04;  9.9699530E+02;  1.0000000E-01; -2.4893123E+03;3;  7.5564561E+00;  0.0000000E+00; -3.1972587E+00;0;  6.6460371E-02;  3.9753520E+04;  0.0000000E+00;  1.3960025E+01;  4.0000000E+04;  0.0000000E+00;  4.0010840E+04;  6.5071940E-02;  0.0000000E+00;  1.3884305E-03;  2.1166312E+04;
  1.9134927E-01;  9.9999998E-03; -2.4023412E-01;3611;  1.0001345E-02;  0.0000000E+00; -3.9578034E-04;  9.9789551E+02;  1.0000000E-01; -1.7435557E+03;3;  2.9842477E+00;  0.0000000E+00; -4.9706926E+00;0;  6.3448258E-02;  3.9830035E+04;  0.0000000E+00;  9.5712843E+00;  4.0000000E+04;  0.0000000E+00;  4.0006605E+04;  6.4099535E-02;  0.0000000E+00; -6.5127632E-04;  1.4373354E+04;
  1.9128555E-01;  9.9999998E-03; -2.3022601E-01;3612;  1.0870377E-02;  0.0000000E+00; -4.2546907E-04;  9.9858575E+02;  1.0000000E-01; -1.1716705E+03;3;  1.0934532E+00;  0.0000000E+00; -4.9347563E+00;0;  6.1256506E-02;  3.9887961E+04;  0.0000000E+00;  6.2321830E+00;  4.0000000E+04;  0.0000000E+00;  4.0003555E+04;  6.3503951E-02;  0.0000000E+00; -2.2474446E-03;  9.2698535E+03;
  1.9127519E-01;  9.9999998E-03; -2.2018611E-01;3613;  1.1712392E-02;  0.0000000E+00; -3.8825537E-04;  9.9904388E+02;  1.0000000E-01; -7.9212573E+02;3;  6.1526024E-01;  0.0000000E+00; -3.8028319E+00;0;  5.9810176E-02;  3.9927789E+04;  0.0000000E+00;  3.6855953E+00;  4.0000000E+04;  0.0000000E+00;  3.9999816E+04;  6.3224331E-02;  0.0000000E+00; -3.4141554E-03;  5.4349932E+03;
  1.9134723E-01;  9.9999998E-03; -2.1011515E-01;3614;  1.2508135E-02;  0.0000000E+00; -3.0199226E-04;  9.9931470E+02;  1.0000000E-01; -5.6773700E+02;3;  8.0838799E-01;  0.0000000E+00; -2.4720213E+00;0;  5.8949068E-02;  3.9953172E+04;  0.0000000E+00;  1.8665546E+00;  4.0000000E+04;  0.0000000E+00;  3.9994973E+04;  6.3137457E-02;  0.0000000E+00; -4.1883877E-03;  2.8082747E+03;
  1.9143446E-01;  9.9999998E-03; -2.0005387E-01;3615;  1.3269682E-02;  0.0000000E+00; -2.0984199E-04;  9.9943921E+02;  1.0000000E-01; -4.6462885E+02;3;  1.2465857E+00;  0.0000000E+00; -1.3903573E+00;0;  5.8423366E-02;  3.9966762E+04;  0.0000000E+00;  6.8635309E-01;  4.0000000E+04;  0.0000000E+00;  3.9989840E+04;  6.3067041E-02;  0.0000000E+00; -4.6436763E-03;  1.5825283E+03;
  1.9152059E-01;  9.9999998E-03; -1.9000468E-01;3616;  1.4005513E-02;  0.0000000E+00; -1.0289574E-04;  9.9945837E+02;  1.0000000E-01; -4.4872806E+02;3;  1.6814175E+00;  0.0000000E+00; -6.2107170E-01;0;  5.7950635E-02;  3.9969914E+04;  0.0000000E+00;  7.4262577E-03;  4.0000000E+04;  0.0000000E+00;  3.9987098E+04;  6.2823273E-02;  0.0000000E+00; -4.8726401E-03;  1.5625804E+03;
  1.9159259E-01;  9.9999998E-03; -1.7997853E-01;3617;  1.4585401E-02;  0.0000000E+00; -5.0045786E-05;  9.9940143E+02;  1.0000000E-01; -4.9588721E+02;3;  1.9848174E+00;  0.0000000E+00; -1.1117385E-01;0;  5.7311147E-02;  3.9964000E+04;  0.0000000E+00; -3.0550399E-01;  4.0000000E+04;  0.0000000E+00;  3.9987254E+04;  6.2246557E-02;  0.0000000E+00; -4.9354117E-03;  1.6052264E+03;
  1.9163927E-01;  9.9999998E-03; -1.6997865E-01;3618;  1.4968370E-02;  0.0000000E+00; -6.6430453E-05;  9.9928552E+02;  1.0000000E-01; -5.9193390E+02;3;  2.1449397E+00;  0.0000000E+00;  1.9121659E-01;0;  5.6362323E-02;  3.9951133E+04;  0.0000000E+00; -3.8079661E-01;  4.0000000E+04;  0.0000000E+00;  3.9989906E+04;  6.1246805E-02;  0.0000000E+00; -4.8844828E-03;  1.3045388E+03;
  1.9166718E-01;  9.9999998E-03; -1.5999524E-01;3619;  1.5213023E-02;  0.0000000E+00; -9.5693700E-05;  9.9913739E+02;  1.0000000E-01; -7.1464648E+02;3;  2.1699138E+00;  0.0000000E+00;  3.3945638E-01;0;  5.5044815E-02;  3.9933887E+04;  0.0000000E+00; -3.3141825E-01;  4.0000000E+04;  0.0000000E+00;  3.9994914E+04;  5.9806187E-02;  0.0000000E+00; -4.7613718E-03;  7.6196753E+02;
  1.9168127E-01;  9.9999998E-03; -1.5001976E-01;3620;  1.5307538E-02;  0.0000000E+00; -1.0733918E-04;  9.9896497E+02;  1.0000000E-01; -8.5750659E+02;3;  2.2072861E+00;  0.0000000E+00;  3.5375234E-01;0;  5.3378370E-02;  3.9914219E+04;  0.0000000E+00; -2.3966745E-01;  4.0000000E+04;  0.0000000E+00;  3.9999840E+04;  5.7987411E-02;  0.0000000E+00; -4.6090423E-03;  3.4734937E+02;
  1.9168445E-01;  9.9999998E-03; -1.4004551E-01;3621;  1.5220559E-02;  0.0000000E+00; -3.6660902E-05;  9.9878058E+02;  1.0000000E-01; -1.0102430E+03;3;  2.3201070E+00;  0.0000000E+00;  2.7209249E-01;0;  5.1451005E-02;  3.9894168E+04;  0.0000000E+00; -1.5131362E-01;  4.0000000E+04;  0.0000000E+00;  4.0004508E+04;  5.5921514E-02;  0.0000000E+00; -4.4705071E-03;  7.0523981E+02;
  1.9167751E-01;  9.9999998E-03; -1.3006733E-01;3622;  1.5017117E-02;  0.0000000E+00;  1.1456909E-04;  9.9860071E+02;  1.0000000E-01; -1.1592759E+03;3;  2.4380100E+00;  0.0000000E+00;  1.7053714E-01;0;  4.9401317E-02;  3.9875750E+04;  0.0000000E+00; -8.3363533E-02;  4.0000000E+04;  0.0000000E+00;  4.0008074E+04;  5.3780396E-02;  0.0000000E+00; -4.3790783E-03;  1.1130117E+03;
  1.9166470E-01;  9.9999998E-03; -1.2008303E-01;3623;  1.4794138E-02;  0.0000000E+00;  2.4803658E-04;  9.9842767E+02;  1.0000000E-01; -1.3026299E+03;3;  2.5298827E+00;  0.0000000E+00;  9.7466156E-02;0;  4.7388949E-02;  3.9860168E+04;  0.0000000E+00; -3.8986407E-02;  4.0000000E+04;  0.0000000E+00;  4.0009402E+04;  5.1743671E-02;  0.0000000E+00; -4.3547219E-03;  1.3173540E+03;
  1.9165358E-01;  9.9999998E-03; -1.1009263E-01;3624;  1.4594736E-02;  0.0000000E+00;  3.3148550E-04;  9.9827478E+02;  1.0000000E-01; -1.4292930E+03;3;  2.5950294E+00;  0.0000000E+00;  5.8753174E-02;0;  4.5569029E-02;  3.9847828E+04;  0.0000000E+00; -1.6265027E-02;  4.0000000E+04;  0.0000000E+00;  4.0009203E+04;  4.9971096E-02;  0.0000000E+00; -4.4020684E-03;  1.2986049E+03;
  2.0134746E-01;  9.9999998E-03; -2.7013507E-01;3669;  8.7518981E-03;  0.0000000E+00; -3.2665412E-04;  9.9482886E+02;  1.0000000E-01; -4.2841753E+03;3;  2.5970163E+01;  0.0000000E+00;  2.2223820E+01;0;  8.2026929E-02;  3.9589801E+04;  0.0000000E+00;  2.6070753E+01;  4.0000000E+04;  0.0000000E+00;  3.9999148E+04;  7.3306471E-02;  0.0000000E+00;  8.7204613E-03;  3.9958969E+04;
  2.0131601E-01;  9.9999998E-03; -2.6019272E-01;3670;  8.7125506E-03;  0.0000000E+00; -3.7299309E-04;  9.9605200E+02;  1.0000000E-01; -3.2708210E+03;3;  1.2522202E+01;  0.0000000E+00;  9.9887285E+00;0;  7.4748166E-02;  3.9695473E+04;  0.0000000E+00;  1.9034885E+01;  4.0000000E+04;  0.0000000E+00;  3.9992746E+04;  6.9392577E-02;  0.0000000E+00;  5.3555910E-03;  2.9132334E+04;
  2.0128459E-01;  9.9999998E-03; -2.5025687E-01;3671;  9.2564616E-03;  0.0000000E+00; -4.7462029E-04;  9.9701349E+02;  1.0000000E-01; -2.4742510E+03;3;  4.8150268E+00;  0.0000000E+00;  3.4489515E+00;0;  6.9713414E-02;  3.9780383E+04;  0.0000000E+00;  1.3396935E+01;  4.0000000E+04;  0.0000000E+00;  3.9985836E+04;  6.7159921E-02;  0.0000000E+00;  2.5534949E-03;  2.0398314E+04;
  2.0123273E-01;  9.9999998E-03; -2.4028586E-01;3672;  1.0017117E-02;  0.0000000E+00; -6.5799960E-04;  9.9784589E+02;  1.0000000E-01; -1.7846409E+03;3;  1.3832985E+00;  0.0000000E+00; -6.8681616E-01;0;  6.5997154E-02;  3.9847668E+04;  0.0000000E+00;  9.2661657E+00;  4.0000000E+04;  0.0000000E+00;  3.9985320E+04;  6.5598682E-02;  0.0000000E+00;  3.9846881E-04;  1.4018013E+04;
  2.0119211E-01;  9.9999998E-03; -2.3026498E-01;3673;  1.0843425E-02;  0.0000000E+00; -7.5024535E-04;  9.9850580E+02;  1.0000000E-01; -1.2379403E+03;3;  2.4756432E-01;  0.0000000E+00; -2.5034025E+00;0;  6.3049823E-02;  3.9897066E+04;  0.0000000E+00;  6.0507817E+00;  4.0000000E+04;  0.0000000E+00;  3.9988164E+04;  6.4475812E-02;  0.0000000E+00; -1.4259883E-03;  9.1075625E+03;
  2.0120762E-01;  9.9999998E-03; -2.2020188E-01;3674;  1.1672485E-02;  0.0000000E+00; -7.0695649E-04;  9.9895770E+02;  1.0000000E-01; -8.6353113E+02;3;  1.9187696E-01;  0.0000000E+00; -2.5592127E+00;0;  6.0835704E-02;  3.9930215E+04;  0.0000000E+00;  3.5488889E+00;  4.0000000E+04;  0.0000000E+00;  3.9989684E+04;  6.3698269E-02;  0.0000000E+00; -2.8625666E-03;  5.3829399E+03;
  2.0127599E-01;  9.9999998E-03; -2.1012093E-01;3675;  1.2501471E-02;  0.0000000E+00; -5.9496413E-04;  9.9922211E+02;  1.0000000E-01; -6.4447559E+02;3;  6.3114065E-01;  0.0000000E+00; -1.8663110E+00;0;  5.9298493E-02;  3.9951082E+04;  0.0000000E+00;  1.7450999E+00;  4.0000000E+04;  0.0000000E+00;  3.9989219E+04;  6.3148133E-02;  0.0000000E+00; -3.8496417E-03;  2.9044280E+03;
  2.0134354E-01;  9.9999998E-03; -2.0006341E-01;3676;  1.3310849E-02;  0.0000000E+00; -4.5524267E-04;  9.9933856E+02;  1.0000000E-01; -5.4798450E+02;3;  1.1856394E+00;  0.0000000E+00; -1.0512371E+00;0;  5.8195133E-02;  3.9961992E+04;  0.0000000E+00;  5.6855917E-01;  4.0000000E+04;  0.0000000E+00;  3.9986145E+04;  6.2661774E-02;  0.0000000E+00; -4.4666417E-03;  1.8764280E+03;
  2.0142502E-01;  9.9999998E-03; -1.9001633E-01;3677;  1.4047705E-02;  0.0000000E+00; -3.2849723E-04;  9.9936517E+02;  1.0000000E-01; -5.2596045E+02;3;  1.6603243E+00;  0.0000000E+00; -4.0012515E-01;0;  5.7255026E-02;  3.9963539E+04;  0.0000000E+00; -1.0119961E-01;  4.0000000E+04;  0.0000000E+00;  3.9985426E+04;  6.2070940E-02;  0.0000000E+00; -4.8159147E-03;  1.8256742E+03;
  2.0149454E-01;  9.9999998E-03; -1.8000104E-01;3678;  1.4566399E-02;  0.0000000E+00; -2.8638678E-04;  9.9931525E+02;  1.0000000E-01; -5.6729260E+02;3;  1.9789493E+00;  0.0000000E+00;  2.8412294E-02;0;  5.6263737E-02;  3.9957551E+04;  0.0000000E+00; -3.8945025E-01;  4.0000000E+04;  0.0000000E+00;  3.9986164E+04;  6.1242249E-02;  0.0000000E+00; -4.9785133E-03;  1.7840221E+03;
  2.0154834E-01;  9.9999998E-03; -1.7000954E-01;3679;  1.4891481E-02;  0.0000000E+00; -3.1231565E-04;  9.9921692E+02;  1.0000000E-01; -6.4877179E+02;3;  2.0835717E+00;  0.0000000E+00;  3.2703701E-01;0;  5.5083510E-02;  3.9945945E+04;  0.0000000E+00; -4.2728496E-01;  4.0000000E+04;  0.0000000E+00;  3.9989238E+04;  6.0101472E-02;  0.0000000E+00; -5.0179618E-03;  1.4346394E+03;
  2.0158833E-01;  9.9999998E-03; -1.6002908E-01;3680;  1.5106450E-02;  0.0000000E+00; -3.2185490E-04;  9.9908636E+02;  1.0000000E-01; -7.5691687E+02;3;  2.1209624E+00;  0.0000000E+00;  4.4092089E-01;0;  5.3662837E-02;  3.9930430E+04;  0.0000000E+00; -3.3736038E-01;  4.0000000E+04;  0.0000000E+00;  3.9993730E+04;  5.8640927E-02;  0.0000000E+00; -4.9780896E-03;  8.7859393E+02;
  2.0161428E-01;  9.9999998E-03; -1.5005228E-01;3681;  1.5192631E-02;  0.0000000E+00; -2.5979287E-04;  9.9893945E+02;  1.0000000E-01; -8.7864185E+02;3;  2.1504011E+00;  0.0000000E+00;  4.9176177E-01;0;  5.2025899E-02;  3.9913168E+04;  0.0000000E+00; -2.1247512E-01;  4.0000000E+04;  0.0000000E+00;  3.9998109E+04;  5.6930125E-02;  0.0000000E+00; -4.9042255E-03;  3.3207629E+02;
  2.0163101E-01;  9.9999998E-03; -1.4007384E-01;3682;  1.5093952E-02;  0.0000000E+00; -7.8641715E-05;  9.9878326E+02;  1.0000000E-01; -1.0080209E+03;3;  2.2770662E+00;  0.0000000E+00;  3.8783213E-01;0;  5.0256126E-02;  3.9896098E+04;  0.0000000E+00; -1.0480309E-01;  4.0000000E+04;  0.0000000E+00;  4.0002070E+04;  5.5100136E-02;  0.0000000E+00; -4.8440080E-03;  4.0413617E+02;
  2.0164521E-01;  9.9999998E-03; -1.3008982E-01;3683;  1.4862776E-02;  0.0000000E+00;  1.3866791E-04;  9.9863043E+02;  1.0000000E-01; -1.1346840E+03;3;  2.4272189E+00;  0.0000000E+00;  1.9203809E-01;0;  4.8479222E-02;  3.9881051E+04;  0.0000000E+00; -3.1449500E-02;  4.0000000E+04;  0.0000000E+00;  4.0005156E+04;  5.3313557E-02;  0.0000000E+00; -4.8343358E-03;  7.2475702E+02;
  2.0166524E-01;  9.9999998E-03; -1.2009916E-01;3684;  1.4625254E-02;  0.0000000E+00;  2.8831523E-04;  9.9849609E+02;  1.0000000E-01; -1.2459401E+03;3;  2.5254762E+00;  0.0000000E+00;  9.2402957E-02;0;  4.6839256E-02;  3.9868891E+04;  0.0000000E+00;  8.3394106E-03;  4.0000000E+04;  0.0000000E+00;  4.0005984E+04;  5.1732741E-02;  0.0000000E+00; -4.8934855E-03;  8.6228229E+02;
  2.0169425E-01;  9.9999998E-03; -1.1010219E-01;3685;  1.4412123E-02;  0.0000000E+00;  3.7420774E-04;  9.9838544E+02;  1.0000000E-01; -1.3376412E+03;3;  2.5925999E+00;  0.0000000E+00;  4.9794059E-02;0;  4.5476306E-02;  3.9860363E+04;  0.0000000E+00;  2.1224303E-02;  4.0000000E+04;  0.0000000E+00;  4.0005441E+04;  5.0496440E-02;  0.0000000E+00; -5.0201355E-03;  7.9757721E+02;
  2.1124887E-01;  9.9999998E-03; -2.7014524E-01;3730;  1.0207550E-02;  0.0000000E+00;  1.8018109E-04;  9.9525500E+02;  1.0000000E-01; -3.9311482E+03;3;  1.9389227E+01;  0.0000000E+00;  2.7174128E+01;0;  8.6067319E-02;  3.9640145E+04;  0.0000000E+00;  2.5379080E+01;  4.0000000E+04;  0.0000000E+00;  3.9983410E+04;  7.7860758E-02;  0.0000000E+00;  8.2065593E-03;  3.8802527E+04;
  2.1119152E-01;  9.9999998E-03; -2.6018476E-01;3731;  9.2425551E-03;  0.0000000E+00; -2.0653653E-04;  9.9637323E+02;  1.0000000E-01; -3.0047051E+03;3;  8.6030483E+00;  0.0000000E+00;  1.3351303E+01;0;  7.7574573E-02;  3.9735801E+04;  0.0000000E+00;  1.8923496E+01;  4.0000000E+04;  0.0000000E+00;  3.9979070E+04;  7.1418174E-02;  0.0000000E+00;  6.1564017E-03;  2.8967721E+04;
  2.1116827E-01;  9.9999998E-03; -2.5023654E-01;3732;  9.6006617E-03;  0.0000000E+00; -3.8802909E-04;  9.9716779E+02;  1.0000000E-01; -2.3464521E+03;3;  2.5297997E+00;  0.0000000E+00;  6.0244155E+00;0;  7.1888700E-02;  3.9805977E+04;  0.0000000E+00;  1.3191669E+01;  4.0000000E+04;  0.0000000E+00;  3.9972852E+04;  6.8528950E-02;  0.0000000E+00;  3.3597511E-03;  2.0241311E+04;
  2.1113513E-01;  9.9999998E-03; -2.4026339E-01;3733;  1.0252496E-02;  0.0000000E+00; -6.2051753E-04;  9.9785571E+02;  1.0000000E-01; -1.7764929E+03;3;  1.3558398E-01;  0.0000000E+00;  1.3914758E+00;0;  6.7650855E-02;  3.9860395E+04;  0.0000000E+00;  9.0203524E+00;  4.0000000E+04;  0.0000000E+00;  3.9973637E+04;  6.6539899E-02;  0.0000000E+00;  1.1109536E-03;  1.3900426E+04;
  2.1112058E-01;  9.9999998E-03; -2.3023652E-01;3734;  1.1010126E-02;  0.0000000E+00; -7.6500536E-04;  9.9843250E+02;  1.0000000E-01; -1.2986299E+03;3; -3.1466463E-01;  0.0000000E+00; -1.1217767E+00;0;  6.4213999E-02;  3.9899363E+04;  0.0000000E+00;  5.8235550E+00;  4.0000000E+04;  0.0000000E+00;  3.9979488E+04;  6.5065123E-02;  0.0000000E+00; -8.5112354E-04;  8.9987539E+03;
  2.1115749E-01;  9.9999998E-03; -2.2016343E-01;3735;  1.1861511E-02;  0.0000000E+00; -7.3537364E-04;  9.9883679E+02;  1.0000000E-01; -9.6367645E+02;3;  1.9862525E-02;  0.0000000E+00; -1.7575905E+00;0;  6.1490621E-02;  3.9924988E+04;  0.0000000E+00;  3.3676279E+00;  4.0000000E+04;  0.0000000E+00;  3.9985266E+04;  6.3983306E-02;  0.0000000E+00; -2.4926844E-03;  5.2921514E+03;
  2.1120641E-01;  9.9999998E-03; -2.1009777E-01;3736;  1.2806712E-02;  0.0000000E+00; -5.5879221E-04;  9.9906537E+02;  1.0000000E-01; -7.7434845E+02;3;  6.3062596E-01;  0.0000000E+00; -1.3179984E+00;0;  5.9466660E-02;  3.9941203E+04;  0.0000000E+00;  1.6261412E+00;  4.0000000E+04;  0.0000000E+00;  3.9986074E+04;  6.3162766E-02;  0.0000000E+00; -3.6961059E-03;  2.9573914E+03;
  2.1126477E-01;  9.9999998E-03; -2.0005064E-01;3737;  1.3791703E-02;  0.0000000E+00; -3.0937904E-04;  9.9917126E+02;  1.0000000E-01; -6.8659784E+02;3;  1.2808009E+00;  0.0000000E+00; -6.4967257E-01;0;  5.7973288E-02;  3.9949000E+04;  0.0000000E+00;  4.9470448E-01;  4.0000000E+04;  0.0000000E+00;  3.9984543E+04;  6.2453236E-02;  0.0000000E+00; -4.4799475E-03;  1.9990598E+03;
  2.1134113E-01;  9.9999998E-03; -1.9001967E-01;3738;  1.4523771E-02;  0.0000000E+00; -1.5575626E-04;  9.9918616E+02;  1.0000000E-01; -6.7425256E+02;3;  1.7503073E+00;  0.0000000E+00; -9.5007926E-02;0;  5.6780774E-02;  3.9949320E+04;  0.0000000E+00; -1.3339858E-01;  4.0000000E+04;  0.0000000E+00;  3.9984480E+04;  6.1714511E-02;  0.0000000E+00; -4.9337386E-03;  1.8812767E+03;
  2.1140653E-01;  9.9999998E-03; -1.8001942E-01;3739;  1.4924687E-02;  0.0000000E+00; -1.5156176E-04;  9.9914954E+02;  1.0000000E-01; -7.0457269E+02;3;  1.9741154E+00;  0.0000000E+00;  3.1866419E-01;0;  5.5674590E-02;  3.9943879E+04;  0.0000000E+00; -3.7980774E-01;  4.0000000E+04;  0.0000000E+00;  3.9985953E+04;  6.0864385E-02;  0.0000000E+00; -5.1897937E-03;  1.7607638E+03;
  2.1146454E-01;  9.9999998E-03; -1.7003521E-01;3740;  1.5032331E-02;  0.0000000E+00; -2.6377384E-04;  9.9907874E+02;  1.0000000E-01; -7.6323767E+02;3;  2.1082892E+00;  0.0000000E+00;  5.6252283E-01;0;  5.4515712E-02;  3.9934121E+04;  0.0000000E+00; -3.7922418E-01;  4.0000000E+04;  0.0000000E+00;  3.9989328E+04;  5.9842259E-02;  0.0000000E+00; -5.3265463E-03;  1.3806201E+03;
  2.1151301E-01;  9.9999998E-03; -1.6005723E-01;3741;  1.5084917E-02;  0.0000000E+00; -3.2290391E-04;  9.9898248E+02;  1.0000000E-01; -8.4298853E+02;3;  2.1322346E+00;  0.0000000E+00;  6.7938662E-01;0;  5.3256575E-02;  3.9921945E+04;  0.0000000E+00; -2.5994503E-01;  4.0000000E+04;  0.0000000E+00;  3.9993184E+04;  5.8640569E-02;  0.0000000E+00; -5.3839958E-03;  8.4423773E+02;
  2.1155673E-01;  9.9999998E-03; -1.5007816E-01;3742;  1.5087562E-02;  0.0000000E+00; -2.6256740E-04;  9.9887738E+02;  1.0000000E-01; -9.3004779E+02;3;  2.1389120E+00;  0.0000000E+00;  6.9759774E-01;0;  5.1917817E-02;  3.9908938E+04;  0.0000000E+00; -1.1947664E-01;  4.0000000E+04;  0.0000000E+00;  3.9997242E+04;  5.7319466E-02;  0.0000000E+00; -5.4016481E-03;  3.0433307E+02;
  2.1160382E-01;  9.9999998E-03; -1.4009321E-01;3743;  1.4966065E-02;  0.0000000E+00; -5.8380268E-05;  9.9877130E+02;  1.0000000E-01; -1.0179465E+03;3;  2.2484579E+00;  0.0000000E+00;  5.6300193E-01;0;  5.0569456E-02;  3.9896887E+04;  0.0000000E+00; -1.0789055E-02;  4.0000000E+04;  0.0000000E+00;  4.0000477E+04;  5.5998404E-02;  0.0000000E+00; -5.4289484E-03;  1.5585078E+02;
  2.1166015E-01;  9.9999998E-03; -1.3009748E-01;3744;  1.4740263E-02;  0.0000000E+00;  2.2420041E-04;  9.9867780E+02;  1.0000000E-01; -1.0954258E+03;3;  2.4223595E+00;  0.0000000E+00;  2.5431418E-01;0;  4.9318831E-02;  3.9887152E+04;  0.0000000E+00;  5.2632291E-02;  4.0000000E+04;  0.0000000E+00;  4.0002117E+04;  5.4823089E-02;  0.0000000E+00; -5.5042584E-03;  4.1096631E+02;
  2.1173352E-01;  9.9999998E-03; -1.2009059E-01;3745;  1.4494444E-02;  0.0000000E+00;  3.6970209E-04;  9.9860229E+02;  1.0000000E-01; -1.1579919E+03;3;  2.5180230E+00;  0.0000000E+00;  1.0859699E-01;0;  4.8289463E-02;  3.9880438E+04;  0.0000000E+00;  7.7009931E-02;  4.0000000E+04;  0.0000000E+00;  4.0002746E+04;  5.3934686E-02;  0.0000000E+00; -5.6452234E-03;  4.7706601E+02;
  2.1183144E-01;  9.9999998E-03; -1.1007163E-01;3746;  1.4273934E-02;  0.0000000E+00;  4.3969581E-04;  9.9855511E+02;  1.0000000E-01; -1.1970526E+03;3;  2.5874729E+00;  0.0000000E+00;  5.1388498E-02;0;  4.7602296E-02;  3.9877363E+04;  0.0000000E+00;  7.3924996E-02;  4.0000000E+04;  0.0000000E+00;  4.0002102E+04;  5.3448476E-02;  0.0000000E+00; -5.8461800E-03;  3.6167920E+02;
  2.2125439E-01;  9.9999998E-03; -2.7011976E-01;3791;  1.4313772E-02;  0.0000000E+00;  1.8248950E-03;  9.9564258E+02;  1.0000000E-01; -3.6100212E+03;3;  1.3573977E+01;  0.0000000E+00;  2.5670294E+01;0;  8.5398942E-02;  3.9675293E+04;  0.0000000E+00;  2.2476475E+01;  4.0000000E+04;  0.0000000E+00;  3.9980922E+04;  8.5100189E-02;  0.0000000E+00;  2.9875198E-04;  3.4293496E+04;
  2.2114696E-01;  9.9999998E-03; -2.6015070E-01;3792;  1.0586306E-02;  0.0000000E+00;  7.4338290E-04;  9.9666229E+02;  1.0000000E-01; -2.7652058E+03;3;  5.3673015E+00;  0.0000000E+00;  1.3177628E+01;0;  7.5770177E-02;  3.9764121E+04;  0.0000000E+00;  1.7813028E+01;  4.0000000E+04;  0.0000000E+00;  3.9975188E+04;  7.2467238E-02;  0.0000000E+00;  3.3029364E-03;  2.7214984E+04;
  2.2111684E-01;  9.9999998E-03; -2.5018108E-01;3793;  1.0358597E-02;  0.0000000E+00;  2.1223271E-04;  9.9733636E+02;  1.0000000E-01; -2.2067524E+03;3;  1.0794892E+00;  0.0000000E+00;  5.7826114E+00;0;  7.0934087E-02;  3.9821754E+04;  0.0000000E+00;  1.2505946E+01;  4.0000000E+04;  0.0000000E+00;  3.9972148E+04;  6.8504959E-02;  0.0000000E+00;  2.4291279E-03;  1.9183371E+04;
  2.2109777E-01;  9.9999998E-03; -2.4019331E-01;3794;  1.0891312E-02;  0.0000000E+00; -1.3249631E-04;  9.9788727E+02;  1.0000000E-01; -1.7503702E+03;3; -3.7509528E-01;  0.0000000E+00;  1.4855552E+00;0;  6.6962257E-02;  3.9863328E+04;  0.0000000E+00;  8.4628077E+00;  4.0000000E+04;  0.0000000E+00;  3.9973480E+04;  6.6219546E-02;  0.0000000E+00;  7.4271229E-04;  1.3071813E+04;
  2.2110403E-01;  9.9999998E-03; -2.3015556E-01;3795;  1.1660705E-02;  0.0000000E+00; -3.2676294E-04;  9.9836108E+02;  1.0000000E-01; -1.3577888E+03;3; -3.2025903E-01;  0.0000000E+00; -8.1992948E-01;0;  6.3525498E-02;  3.9892215E+04;  0.0000000E+00;  5.3883448E+00;  4.0000000E+04;  0.0000000E+00;  3.9981488E+04;  6.4558372E-02;  0.0000000E+00; -1.0328705E-03;  8.3282168E+03;
  2.2112454E-01;  9.9999998E-03; -2.2009805E-01;3796;  1.2767911E-02;  0.0000000E+00; -1.7036144E-04;  9.9867615E+02;  1.0000000E-01; -1.0968085E+03;3;  2.1911518E-01;  0.0000000E+00; -1.2293758E+00;0;  6.0545821E-02;  3.9911461E+04;  0.0000000E+00;  3.1086867E+00;  4.0000000E+04;  0.0000000E+00;  3.9985922E+04;  6.3356966E-02;  0.0000000E+00; -2.8111436E-03;  4.9096318E+03;
  2.2115500E-01;  9.9999998E-03; -2.1005642E-01;3797;  1.4207097E-02;  0.0000000E+00;  2.7357478E-04;  9.9884332E+02;  1.0000000E-01; -9.5829388E+02;3;  8.9051598E-01;  0.0000000E+00; -7.6223201E-01;0;  5.8268446E-02;  3.9922953E+04;  0.0000000E+00;  1.4992326E+00;  4.0000000E+04;  0.0000000E+00;  3.9986043E+04;  6.2433757E-02;  0.0000000E+00; -4.1653118E-03;  2.7881594E+03;
  2.2121367E-01;  9.9999998E-03; -2.0002587E-01;3798;  1.5708536E-02;  0.0000000E+00;  7.3919108E-04;  9.9891888E+02;  1.0000000E-01; -8.9567834E+02;3;  1.3308835E+00;  0.0000000E+00; -2.0860711E-01;0;  5.6684468E-02;  3.9928008E+04;  0.0000000E+00;  4.6910203E-01;  4.0000000E+04;  0.0000000E+00;  3.9985406E+04;  6.1641432E-02;  0.0000000E+00; -4.9569658E-03;  1.8836443E+03;
  2.2128350E-01;  9.9999998E-03; -1.9001678E-01;3799;  1.7207278E-02;  0.0000000E+00;  1.0133408E-03;  9.9893365E+02;  1.0000000E-01; -8.8343182E+02;3;  1.0474547E+00;  0.0000000E+00;  2.7138191E-01;0;  5.5569556E-02;  3.9927707E+04;  0.0000000E+00; -7.8434452E-02;  4.0000000E+04;  0.0000000E+00;  3.9985902E+04;  6.0941253E-02;  0.0000000E+00; -5.3716986E-03;  1.7102659E+03;
  2.2135057E-01;  9.9999998E-03; -1.8002936E-01;3800;  1.7803865E-02;  0.0000000E+00;  9.3501894E-04;  9.9891663E+02;  1.0000000E-01; -8.9755487E+02;3;  8.8314801E-01;  0.0000000E+00;  5.8595324E-01;0;  5.4653127E-02;  3.9923758E+04;  0.0000000E+00; -2.6664007E-01;  4.0000000E+04;  0.0000000E+00;  3.9987500E+04;  6.0266085E-02;  0.0000000E+00; -5.6129592E-03;  1.5244785E+03;
  2.2141224E-01;  9.9999998E-03; -1.7005196E-01;3801;  1.7467394E-02;  0.0000000E+00;  6.8375026E-04;  9.9888129E+02;  1.0000000E-01; -9.2683801E+02;3;  1.2689660E+00;  0.0000000E+00;  7.4409831E-01;0;  5.3805400E-02;  3.9917082E+04;  0.0000000E+00; -2.3139770E-01;  4.0000000E+04;  0.0000000E+00;  3.9990562E+04;  5.9604701E-02;  0.0000000E+00; -5.7993019E-03;  1.1417233E+03;
  2.2147377E-01;  9.9999998E-03; -1.6007449E-01;3802;  1.5882785E-02;  0.0000000E+00;  3.8608420E-04;  9.9883893E+02;  1.0000000E-01; -9.6194812E+02;3;  2.0625217E+00;  0.0000000E+00;  9.1812688E-01;0;  5.2991159E-02;  3.9909480E+04;  0.0000000E+00; -1.0026155E-01;  4.0000000E+04;  0.0000000E+00;  3.9993996E+04;  5.8935434E-02;  0.0000000E+00; -5.9442734E-03;  6.7045642E+02;
  2.2155038E-01;  9.9999998E-03; -1.5008792E-01;3803;  1.5142238E-02;  0.0000000E+00;  2.0349381E-04;  9.9879327E+02;  1.0000000E-01; -9.9977417E+02;3;  2.3226538E+00;  0.0000000E+00;  8.4237117E-01;0;  5.2243363E-02;  3.9902457E+04;  0.0000000E+00;  3.2709382E-02;  4.0000000E+04;  0.0000000E+00;  3.9997203E+04;  5.8304898E-02;  0.0000000E+00; -6.0615353E-03;  2.6032489E+02;
  2.2165352E-01;  9.9999998E-03; -1.4008439E-01;3804;  1.4908132E-02;  0.0000000E+00;  2.9142527E-04;  9.9875958E+02;  1.0000000E-01; -1.0276747E+03;3;  2.3444946E+00;  0.0000000E+00;  6.4068782E-01;0;  5.1599279E-02;  3.9897004E+04;  0.0000000E+00;  1.2093281E-01;  4.0000000E+04;  0.0000000E+00;  3.9999305E+04;  5.7784729E-02;  0.0000000E+00; -6.1854478E-03;  1.7914343E+02;
  2.2179231E-01;  9.9999998E-03; -1.3005872E-01;3805;  1.4653023E-02;  0.0000000E+00;  4.3922564E-04;  9.9874329E+02;  1.0000000E-01; -1.0411558E+03;3;  2.4542143E+00;  0.0000000E+00;  2.9016721E-01;0;  5.1138856E-02;  3.9894141E+04;  0.0000000E+00;  1.5858775E-01;  4.0000000E+04;  0.0000000E+00;  4.0000738E+04;  5.7490982E-02;  0.0000000E+00; -6.3521280E-03;  2.9185828E+02;
  2.2193301E-01;  9.9999998E-03; -1.2002787E-01;3806;  1.4399997E-02;  0.0000000E+00;  5.2710465E-04;  9.9874335E+02;  1.0000000E-01; -1.0411063E+03;3;  2.5266736E+00;  0.0000000E+00;  1.3786553E-01;0;  5.0952923E-02;  3.9894535E+04;  0.0000000E+00;  1.5788223E-01;  4.0000000E+04;  0.0000000E+00;  4.0000371E+04;  5.7524528E-02;  0.0000000E+00; -6.5716072E-03;  2.7829056E+02;
  2.2202997E-01;  9.9999998E-03; -1.1000734E-01;3807;  1.4177433E-02;  0.0000000E+00;  5.5595505E-04;  9.9876508E+02;  1.0000000E-01; -1.0231315E+03;3;  2.5896726E+00;  0.0000000E+00;  6.9083847E-02;0;  5.1108081E-02;  3.9897512E+04;  0.0000000E+00;  1.3447647E-01;  4.0000000E+04;  0.0000000E+00;  3.9999180E+04;  5.7937805E-02;  0.0000000E+00; -6.8297237E-03;  1.9212912E+02;
  2.3130478E-01;  9.9999998E-03; -2.7007797E-01;3852;  1.6295848E-02;  0.0000000E+00;  3.3647439E-03;  9.9607709E+02;  1.0000000E-01; -3.2500808E+03;3;  4.8358459E+00;  0.0000000E+00;  1.9246576E+01;0;  7.3872834E-02;  3.9703816E+04;  0.0000000E+00;  1.7828781E+01;  4.0000000E+04;  0.0000000E+00;  3.9989199E+04;  8.3997577E-02;  0.0000000E+00; -1.0124744E-02;  2.7230281E+04;
  2.3119080E-01;  9.9999998E-03; -2.6010227E-01;3853;  1.3370922E-02;  0.0000000E+00;  2.3744917E-03;  9.9690106E+02;  1.0000000E-01; -2.5674336E+03;3;  3.2918708E+00;  0.0000000E+00;  1.0065237E+01;0;  6.7858063E-02;  3.9778652E+04;  0.0000000E+00;  1.4778072E+01;  4.0000000E+04;  0.0000000E+00;  3.9981547E+04;  7.2465748E-02;  0.0000000E+00; -4.6076858E-03;  2.2567412E+04;
  2.3113962E-01;  9.9999998E-03; -2.5011405E-01;3854;  1.2461461E-02;  0.0000000E+00;  1.5782511E-03;  9.9747583E+02;  1.0000000E-01; -2.0912495E+03;3;  6.5433902E-01;  0.0000000E+00;  3.9910607E+00;0;  6.5012217E-02;  3.9825699E+04;  0.0000000E+00;  1.0783819E+01;  4.0000000E+04;  0.0000000E+00;  3.9979945E+04;  6.7214184E-02;  0.0000000E+00; -2.2019646E-03;  1.6452000E+04;
  2.3112391E-01;  9.9999998E-03; -2.4010186E-01;3855;  1.2767451E-02;  0.0000000E+00;  1.0730407E-03;  9.9793042E+02;  1.0000000E-01; -1.7146182E+03;3; -1.6550191E-02;  0.0000000E+00;  5.1190722E-01;0;  6.2357046E-02;  3.9856730E+04;  0.0000000E+00;  7.3396201E+00;  4.0000000E+04;  0.0000000E+00;  3.9984160E+04;  6.4409830E-02;  0.0000000E+00; -2.0527840E-03;  1.1165488E+04;
  2.3110771E-01;  9.9999998E-03; -2.3006874E-01;3856;  1.3802538E-02;  0.0000000E+00;  1.0132915E-03;  9.9827228E+02;  1.0000000E-01; -1.4313669E+03;3;  8.3165750E-02;  0.0000000E+00; -7.8819132E-01;0;  5.9365939E-02;  3.9877852E+04;  0.0000000E+00;  4.7343917E+00;  4.0000000E+04;  0.0000000E+00;  3.9988789E+04;  6.2603682E-02;  0.0000000E+00; -3.2377427E-03;  7.1819868E+03;
  2.3110375E-01;  9.9999998E-03; -2.2003479E-01;3857;  1.5562445E-02;  0.0000000E+00;  1.4315376E-03;  9.9847388E+02;  1.0000000E-01; -1.2643593E+03;3;  3.2366377E-01;  0.0000000E+00; -7.6968151E-01;0;  5.6636024E-02;  3.9891066E+04;  0.0000000E+00;  2.7555821E+00;  4.0000000E+04;  0.0000000E+00;  3.9989848E+04;  6.1326958E-02;  0.0000000E+00; -4.6909330E-03;  4.2646255E+03;
  2.3113468E-01;  9.9999998E-03; -2.1001044E-01;3858;  1.7829550E-02;  0.0000000E+00;  2.1174636E-03;  9.9857074E+02;  1.0000000E-01; -1.1841146E+03;3; -3.6283723E-01;  0.0000000E+00; -4.5191130E-01;0;  5.4650433E-02;  3.9897871E+04;  0.0000000E+00;  1.3537269E+00;  4.0000000E+04;  0.0000000E+00;  3.9988820E+04;  6.0316831E-02;  0.0000000E+00; -5.6663984E-03;  2.3941179E+03;
  2.3119462E-01;  9.9999998E-03; -1.9999994E-01;3859;  1.9327525E-02;  0.0000000E+00;  2.4393387E-03;  9.9861548E+02;  1.0000000E-01; -1.1470293E+03;3; -1.6908276E+00;  0.0000000E+00; -3.9476088E-01;0;  5.3488806E-02;  3.9900824E+04;  0.0000000E+00;  4.8791245E-01;  4.0000000E+04;  0.0000000E+00;  3.9988008E+04;  5.9422947E-02;  0.0000000E+00; -5.9341406E-03;  1.5726299E+03;
  2.3126449E-01;  9.9999998E-03; -1.9000871E-01;3860;  2.0003662E-02;  0.0000000E+00;  2.3806267E-03;  9.9863397E+02;  1.0000000E-01; -1.1317211E+03;3; -2.1004622E+00;  0.0000000E+00; -1.9892544E-01;0;  5.2778378E-02;  3.9901008E+04;  0.0000000E+00;  5.7085324E-02;  4.0000000E+04;  0.0000000E+00;  3.9988309E+04;  5.8799952E-02;  0.0000000E+00; -6.0215755E-03;  1.3469418E+03;
  2.3133948E-01;  9.9999998E-03; -1.8002999E-01;3861;  2.0250965E-02;  0.0000000E+00;  2.1423041E-03;  9.9864740E+02;  1.0000000E-01; -1.1206102E+03;3; -1.8040792E+00;  0.0000000E+00;  1.5868117E-01;0;  5.2318420E-02;  3.9899207E+04;  0.0000000E+00; -6.3057974E-02;  4.0000000E+04;  0.0000000E+00;  3.9990188E+04;  5.8488794E-02;  0.0000000E+00; -6.1703743E-03;  1.1174070E+03;
  2.3141979E-01;  9.9999998E-03; -1.7005400E-01;3862;  2.0065093E-02;  0.0000000E+00;  1.7841335E-03;  9.9866107E+02;  1.0000000E-01; -1.1092526E+03;3; -8.8882881E-01;  0.0000000E+00;  5.0513613E-01;0;  5.2059077E-02;  3.9897129E+04;  0.0000000E+00; -3.7629218E-03;  4.0000000E+04;  0.0000000E+00;  3.9992988E+04;  5.8434501E-02;  0.0000000E+00; -6.3754227E-03;  7.7635718E+02;
  2.3151514E-01;  9.9999998E-03; -1.6006853E-01;3863;  1.8964892E-02;  0.0000000E+00;  1.3243953E-03;  9.9868146E+02;  1.0000000E-01; -1.0923641E+03;3;  8.7486857E-01;  0.0000000E+00;  5.6892264E-01;0;  5.1978845E-02;  3.9895371E+04;  0.0000000E+00;  1.1685785E-01;  4.0000000E+04;  0.0000000E+00;  3.9995762E+04;  5.8574881E-02;  0.0000000E+00; -6.5960377E-03;  4.5883658E+02;
  2.3164342E-01;  9.9999998E-03; -1.5006001E-01;3864;  1.6196815E-02;  0.0000000E+00;  1.0220840E-03;  9.9871472E+02;  1.0000000E-01; -1.0648094E+03;3;  2.2257082E+00;  0.0000000E+00;  2.9248905E-01;0;  5.2079640E-02;  3.9895367E+04;  0.0000000E+00;  2.1741126E-01;  4.0000000E+04;  0.0000000E+00;  3.9998098E+04;  5.8891717E-02;  0.0000000E+00; -6.8120784E-03;  3.4289481E+02;
  2.3181383E-01;  9.9999998E-03; -1.4002977E-01;3865;  1.5078324E-02;  0.0000000E+00;  9.0464205E-04;  9.9876410E+02;  1.0000000E-01; -1.0239216E+03;3;  2.4780593E+00;  0.0000000E+00;  1.7418078E-01;0;  5.2394796E-02;  3.9897734E+04;  0.0000000E+00;  2.6476452E-01;  4.0000000E+04;  0.0000000E+00;  3.9999418E+04;  5.9430536E-02;  0.0000000E+00; -7.0357393E-03;  3.8305002E+02;
  2.3196173E-01;  9.9999998E-03; -1.3000348E-01;3866;  1.4697189E-02;  0.0000000E+00;  8.5265684E-04;  9.9883167E+02;  1.0000000E-01; -9.6792322E+02;3;  2.5215034E+00;  0.0000000E+00;  1.0255419E-01;0;  5.2934375E-02;  3.9902746E+04;  0.0000000E+00;  2.6343954E-01;  4.0000000E+04;  0.0000000E+00;  3.9999719E+04;  6.0218830E-02;  0.0000000E+00; -7.2844545E-03;  3.8817944E+02;
  2.3205152E-01;  9.9999998E-03; -1.1998945E-01;3867;  1.4400451E-02;  0.0000000E+00;  8.1389782E-04;  9.9890961E+02;  1.0000000E-01; -9.0338184E+02;3;  2.5649545E+00;  0.0000000E+00;  5.4136414E-02;0;  5.3725671E-02;  3.9909633E+04;  0.0000000E+00;  2.3188710E-01;  4.0000000E+04;  0.0000000E+00;  3.9999055E+04;  6.1288349E-02;  0.0000000E+00; -7.5626774E-03;  3.3187067E+02;
  2.3208851E-01;  9.9999998E-03; -1.0998254E-01;3868;  1.4158015E-02;  0.0000000E+00;  7.8321027E-04;  9.9899451E+02;  1.0000000E-01; -8.3301349E+02;3;  2.6072807E+00;  0.0000000E+00;  3.4212116E-02;0;  5.4800604E-02;  3.9918152E+04;  0.0000000E+00;  1.8786106E-01;  4.0000000E+04;  0.0000000E+00;  3.9997777E+04;  6.2660150E-02;  0.0000000E+00; -7.8595467E-03;  3.3625186E+02;
  2.4135621E-01;  9.9999998E-03; -2.7003798E-01;3913;  1.6432621E-02;  0.0000000E+00;  4.0789852E-03;  9.9654303E+02;  1.0000000E-01; -2.8640178E+03;3; -6.5799618E-01;  0.0000000E+00;  1.1009065E+01;0;  5.8530733E-02;  3.9731879E+04;  0.0000000E+00;  1.2637738E+01;  4.0000000E+04;  0.0000000E+00;  4.0000461E+04;  7.5664446E-02;  0.0000000E+00; -1.7133711E-02;  1.9494418E+04;
  2.4128248E-01;  9.9999998E-03; -2.6005247E-01;3914;  1.5660869E-02;  0.0000000E+00;  3.6080310E-03;  9.9712018E+02;  1.0000000E-01; -2.3858584E+03;3;  1.7501391E-01;  0.0000000E+00;  5.6929598E+00;0;  5.5817526E-02;  3.9785676E+04;  0.0000000E+00;  1.0403748E+01;  4.0000000E+04;  0.0000000E+00;  3.9993527E+04;  6.8263277E-02;  0.0000000E+00; -1.2445752E-02;  1.5989575E+04;
  2.4121569E-01;  9.9999998E-03; -2.5005120E-01;3915;  1.5195207E-02;  0.0000000E+00;  2.9469791E-03;  9.9757739E+02;  1.0000000E-01; -2.0071038E+03;3; -8.7138578E-02;  0.0000000E+00;  1.6998512E+00;0;  5.5085085E-02;  3.9821699E+04;  0.0000000E+00;  8.1445618E+00;  4.0000000E+04;  0.0000000E+00;  3.9993020E+04;  6.3358970E-02;  0.0000000E+00; -8.2738856E-03;  1.2392924E+04;
  2.4115653E-01;  9.9999998E-03; -2.4003060E-01;3916;  1.5617528E-02;  0.0000000E+00;  2.5555515E-03;  9.9793146E+02;  1.0000000E-01; -1.7137294E+03;3; -3.8319933E-01;  0.0000000E+00; -3.7211341E-01;0;  5.3752173E-02;  3.9844902E+04;  0.0000000E+00;  5.9286327E+00;  4.0000000E+04;  0.0000000E+00;  3.9996273E+04;  6.0383659E-02;  0.0000000E+00; -6.6314852E-03;  8.9308809E+03;
  2.4111065E-01;  9.9999998E-03; -2.3000363E-01;3917;  1.7066682E-02;  0.0000000E+00;  2.7708872E-03;  9.9813782E+02;  1.0000000E-01; -1.5427712E+03;3; -1.1507313E+00;  0.0000000E+00; -9.3886793E-01;0;  5.1451851E-02;  3.9858594E+04;  0.0000000E+00;  3.9315412E+00;  4.0000000E+04;  0.0000000E+00;  3.9997121E+04;  5.8497567E-02;  0.0000000E+00; -7.0457170E-03;  5.8898364E+03;
  2.4110575E-01;  9.9999998E-03; -2.1997984E-01;3918;  1.8827697E-02;  0.0000000E+00;  3.3089488E-03;  9.9823389E+02;  1.0000000E-01; -1.4631685E+03;3; -3.4464118E+00;  0.0000000E+00; -1.7969025E+00;0;  4.9457174E-02;  3.9865508E+04;  0.0000000E+00;  2.3119304E+00;  4.0000000E+04;  0.0000000E+00;  3.9996129E+04;  5.7005607E-02;  0.0000000E+00; -7.5484323E-03;  3.4762126E+03;
  2.4113776E-01;  9.9999998E-03; -2.0997067E-01;3919;  1.9808982E-02;  0.0000000E+00;  3.4362820E-03;  9.9826709E+02;  1.0000000E-01; -1.4356631E+03;3; -4.7093892E+00;  0.0000000E+00; -2.3600335E+00;0;  4.8585605E-02;  3.9868984E+04;  0.0000000E+00;  1.1975392E+00;  4.0000000E+04;  0.0000000E+00;  3.9993703E+04;  5.5734739E-02;  0.0000000E+00; -7.1491334E-03;  1.9143060E+03;
  2.4119776E-01;  9.9999998E-03; -1.9997761E-01;3920;  2.0396143E-02;  0.0000000E+00;  3.3355034E-03;  9.9829169E+02;  1.0000000E-01; -1.4153180E+03;3; -4.7482829E+00;  0.0000000E+00; -2.1185524E+00;0;  4.8183877E-02;  3.9870910E+04;  0.0000000E+00;  5.4465026E-01;  4.0000000E+04;  0.0000000E+00;  3.9992262E+04;  5.4946855E-02;  0.0000000E+00; -6.7629791E-03;  1.1825759E+03;
  2.4128155E-01;  9.9999998E-03; -1.8999574E-01;3921;  2.0839754E-02;  0.0000000E+00;  3.1884406E-03;  9.9832367E+02;  1.0000000E-01; -1.3888002E+03;3; -4.6512804E+00;  0.0000000E+00; -1.7670720E+00;0;  4.8037793E-02;  3.9872168E+04;  0.0000000E+00;  2.5023112E-01;  4.0000000E+04;  0.0000000E+00;  3.9992289E+04;  5.4688804E-02;  0.0000000E+00; -6.6510104E-03;  9.0145117E+02;
  2.4138367E-01;  9.9999998E-03; -1.8001767E-01;3922;  2.1171713E-02;  0.0000000E+00;  3.0188218E-03;  9.9837872E+02;  1.0000000E-01; -1.3432213E+03;3; -4.5270171E+00;  0.0000000E+00; -1.4446400E+00;0;  4.8180860E-02;  3.9874082E+04;  0.0000000E+00;  1.9540456E-01;  4.0000000E+04;  0.0000000E+00;  3.9994066E+04;  5.4928273E-02;  0.0000000E+00; -6.7474148E-03;  6.7940015E+02;
  2.4151064E-01;  9.9999998E-03; -1.7003176E-01;3923;  2.1383258E-02;  0.0000000E+00;  2.8044661E-03;  9.9845355E+02;  1.0000000E-01; -1.2811984E+03;3; -4.2412133E+00;  0.0000000E+00; -1.0017711E+00;0;  4.8646040E-02;  3.9877223E+04;  0.0000000E+00;  2.6083562E-01;  4.0000000E+04;  0.0000000E+00;  3.9996109E+04;  5.5614199E-02;  0.0000000E+00; -6.9681583E-03;  5.0910175E+02;
  2.4166094E-01;  9.9999998E-03; -1.6002816E-01;3924;  2.1352828E-02;  0.0000000E+00;  2.5020498E-03;  9.9854834E+02;  1.0000000E-01; -1.2026820E+03;3; -3.0314562E+00;  0.0000000E+00; -2.9389873E-01;0;  4.9443692E-02;  3.9882387E+04;  0.0000000E+00;  3.4676799E-01;  4.0000000E+04;  0.0000000E+00;  3.9998332E+04;  5.6693580E-02;  0.0000000E+00; -7.2498876E-03;  5.0755014E+02;
  2.4181800E-01;  9.9999998E-03; -1.5000704E-01;3925;  2.0140788E-02;  0.0000000E+00;  1.9614645E-03;  9.9866583E+02;  1.0000000E-01; -1.1053514E+03;3;  9.2738700E-01;  0.0000000E+00;  1.7332472E-01;0;  5.0562523E-02;  3.9890207E+04;  0.0000000E+00;  3.9285704E-01;  4.0000000E+04;  0.0000000E+00;  3.9999719E+04;  5.8112919E-02;  0.0000000E+00; -7.5503979E-03;  5.7189294E+02;
  2.4194890E-01;  9.9999998E-03; -1.3998753E-01;3926;  1.6270095E-02;  0.0000000E+00;  1.6645032E-03;  9.9880023E+02;  1.0000000E-01; -9.9399658E+02;3;  2.6616268E+00;  0.0000000E+00; -2.0672391E-01;0;  5.1987059E-02;  3.9900336E+04;  0.0000000E+00;  3.8529754E-01;  4.0000000E+04;  0.0000000E+00;  4.0000656E+04;  5.9843484E-02;  0.0000000E+00; -7.8564240E-03;  5.7676526E+02;
  2.4203315E-01;  9.9999998E-03; -1.2998091E-01;3927;  1.5065019E-02;  0.0000000E+00;  1.4473854E-03;  9.9893945E+02;  1.0000000E-01; -8.7864185E+02;3;  2.5606375E+00;  0.0000000E+00; -1.4974919E-01;0;  5.3641416E-02;  3.9911875E+04;  0.0000000E+00;  3.4052175E-01;  4.0000000E+04;  0.0000000E+00;  4.0000191E+04;  6.1813518E-02;  0.0000000E+00; -8.1721013E-03;  5.0302567E+02;
  2.4206336E-01;  9.9999998E-03; -1.1998105E-01;3928;  1.4598958E-02;  0.0000000E+00;  1.2895572E-03;  9.9907483E+02;  1.0000000E-01; -7.6649683E+02;3;  2.5634818E+00;  0.0000000E+00; -1.3436598E-01;0;  5.5484042E-02;  3.9924160E+04;  0.0000000E+00;  2.7992281E-01;  4.0000000E+04;  0.0000000E+00;  3.9999012E+04;  6.3984185E-02;  0.0000000E+00; -8.5001448E-03;  4.0138901E+02;
  2.4204998E-01;  9.9999998E-03; -1.0998490E-01;3929;  1.4288693E-02;  0.0000000E+00;  1.1566214E-03;  9.9919971E+02;  1.0000000E-01; -6.6304297E+02;3;  2.5925951E+00;  0.0000000E+00; -1.1713874E-01;0;  5.7513002E-02;  3.9936074E+04;  0.0000000E+00;  2.1964355E-01;  4.0000000E+04;  0.0000000E+00;  3.9997227E+04;  6.6340908E-02;  0.0000000E+00; -8.8279052E-03;  4.1852414E+02;
  2.5138178E-01;  9.9999998E-03; -2.7000841E-01;3974;  1.6268864E-02;  0.0000000E+00;  4.3806946E-03;  9.9697473E+02;  1.0000000E-01; -2.5063982E+03;3; -4.3751006E+00;  0.0000000E+00;  4.3510966E+00;0;  4.2662024E-02;  3.9759535E+04;  0.0000000E+00;  8.1878386E+00;  4.0000000E+04;  0.0000000E+00;  4.0009273E+04;  6.4421013E-02;  0.0000000E+00; -2.1758988E-02;  1.2968782E+04;
  2.5133687E-01;  9.9999998E-03; -2.6001537E-01;3975;  1.6507849E-02;  0.0000000E+00;  4.2841244E-03;  9.9733344E+02;  1.0000000E-01; -2.2092214E+03;3; -4.4312272E+00;  0.0000000E+00;  9.4501102E-01;0;  4.1071758E-02;  3.9793680E+04;  0.0000000E+00;  6.7336550E+00;  4.0000000E+04;  0.0000000E+00;  4.0003730E+04;  5.9468701E-02;  0.0000000E+00; -1.8396946E-02;  1.0543260E+04;
  2.5125548E-01;  9.9999998E-03; -2.5000939E-01;3976;  1.6913554E-02;  0.0000000E+00;  3.9321687E-03;  9.9764154E+02;  1.0000000E-01; -1.9539200E+03;3; -4.0105128E+00;  0.0000000E+00; -1.2216895E+00;0;  4.1897602E-02;  3.9817117E+04;  0.0000000E+00;  5.8086576E+00;  4.0000000E+04;  0.0000000E+00;  4.0003301E+04;  5.5840142E-02;  0.0000000E+00; -1.3942539E-02;  8.9181709E+03;
  2.5116956E-01;  9.9999998E-03; -2.3998618E-01;3977;  1.7613066E-02;  0.0000000E+00;  3.7167007E-03;  9.9786493E+02;  1.0000000E-01; -1.7688882E+03;3; -4.1979942E+00;  0.0000000E+00; -2.4829631E+00;0;  4.1998915E-02;  3.9830613E+04;  0.0000000E+00;  4.5152369E+00;  4.0000000E+04;  0.0000000E+00;  4.0005812E+04;  5.3220533E-02;  0.0000000E+00; -1.1221616E-02;  6.8847578E+03;
  2.5112075E-01;  9.9999998E-03; -2.2995739E-01;3978;  1.8554743E-02;  0.0000000E+00;  3.7340787E-03;  9.9796991E+02;  1.0000000E-01; -1.6818784E+03;3; -5.3585482E+00;  0.0000000E+00; -3.4968071E+00;0;  4.1419424E-02;  3.9836504E+04;  0.0000000E+00;  3.0435393E+00;  4.0000000E+04;  0.0000000E+00;  4.0005875E+04;  5.1265590E-02;  0.0000000E+00; -9.8461639E-03;  4.6659990E+03;
  2.5112081E-01;  9.9999998E-03; -2.1993984E-01;3979;  1.9298455E-02;  0.0000000E+00;  3.6827431E-03;  9.9798047E+02;  1.0000000E-01; -1.6731378E+03;3; -5.4371142E+00;  0.0000000E+00; -3.3568244E+00;0;  4.1181598E-02;  3.9838309E+04;  0.0000000E+00;  1.8383087E+00;  4.0000000E+04;  0.0000000E+00;  4.0002797E+04;  4.9757589E-02;  0.0000000E+00; -8.5759917E-03;  2.8097537E+03;
  2.5115749E-01;  9.9999998E-03; -2.0994304E-01;3980;  1.9903965E-02;  0.0000000E+00;  3.5899079E-03;  9.9796655E+02;  1.0000000E-01; -1.6846931E+03;3; -5.2209101E+00;  0.0000000E+00; -2.9109337E+00;0;  4.1102029E-02;  3.9839531E+04;  0.0000000E+00;  1.0514501E+00;  4.0000000E+04;  0.0000000E+00;  3.9998836E+04;  4.8799898E-02;  0.0000000E+00; -7.6978691E-03;  1.5778347E+03;
  2.5123912E-01;  9.9999998E-03; -1.9995749E-01;3981;  2.0412512E-02;  0.0000000E+00;  3.4755054E-03;  9.9798450E+02;  1.0000000E-01; -1.6698293E+03;3; -5.0567484E+00;  0.0000000E+00; -2.5478237E+00;0;  4.1189652E-02;  3.9841430E+04;  0.0000000E+00;  6.2610680E-01;  4.0000000E+04;  0.0000000E+00;  3.9997250E+04;  4.8422515E-02;  0.0000000E+00; -7.2328644E-03;  9.5324011E+02;
  2.5135303E-01;  9.9999998E-03; -1.8997674E-01;3982;  2.0839626E-02;  0.0000000E+00;  3.3544865E-03;  9.9804620E+02;  1.0000000E-01; -1.6186703E+03;3; -4.9895573E+00;  0.0000000E+00; -2.2873139E+00;0;  4.1544791E-02;  3.9845191E+04;  0.0000000E+00;  4.6491772E-01;  4.0000000E+04;  0.0000000E+00;  3.9997238E+04;  4.8647135E-02;  0.0000000E+00; -7.1023456E-03;  7.0760406E+02;
  2.5149620E-01;  9.9999998E-03; -1.7999108E-01;3983;  2.1194460E-02;  0.0000000E+00;  3.2309850E-03;  9.9815228E+02;  1.0000000E-01; -1.5308209E+03;3; -5.0334969E+00;  0.0000000E+00; -2.0799410E+00;0;  4.2264957E-02;  3.9851680E+04;  0.0000000E+00;  4.5817015E-01;  4.0000000E+04;  0.0000000E+00;  3.9998586E+04;  4.9472678E-02;  0.0000000E+00; -7.2077205E-03;  6.6539844E+02;
  2.5166142E-01;  9.9999998E-03; -1.6999379E-01;3984;  2.1481048E-02;  0.0000000E+00;  3.1148547E-03;  9.9829620E+02;  1.0000000E-01; -1.4115651E+03;3; -5.0769734E+00;  0.0000000E+00; -1.9603847E+00;0;  4.3420944E-02;  3.9861082E+04;  0.0000000E+00;  5.0655538E-01;  4.0000000E+04;  0.0000000E+00;  4.0000191E+04;  5.0883714E-02;  0.0000000E+00; -7.4627688E-03;  7.4970831E+02;
  2.5182742E-01;  9.9999998E-03; -1.5998511E-01;3985;  2.1707198E-02;  0.0000000E+00;  2.9917760E-03;  9.9846625E+02;  1.0000000E-01; -1.2706801E+03;3; -5.1758313E+00;  0.0000000E+00; -1.7841327E+00;0;  4.5050960E-02;  3.9873312E+04;  0.0000000E+00;  5.3692752E-01;  4.0000000E+04;  0.0000000E+00;  4.0001605E+04;  5.2848931E-02;  0.0000000E+00; -7.7979709E-03;  8.3547784E+02;
  2.5195435E-01;  9.9999998E-03; -1.4997558E-01;3986;  2.1883542E-02;  0.0000000E+00;  2.8584322E-03;  9.9866302E+02;  1.0000000E-01; -1.1076724E+03;3; -5.0981202E+00;  0.0000000E+00; -1.5736613E+00;0;  4.7143258E-02;  3.9888117E+04;  0.0000000E+00;  5.1699805E-01;  4.0000000E+04;  0.0000000E+00;  4.0002121E+04;  5.5308651E-02;  0.0000000E+00; -8.1653949E-03;  8.3918024E+02;
  2.5201598E-01;  9.9999998E-03; -1.3997276E-01;3987;  2.1255575E-02;  0.0000000E+00;  2.5379721E-03;  9.9886121E+02;  1.0000000E-01; -9.4347949E+02;3;  3.8598481E-01;  0.0000000E+00; -4.0706903E-01;0;  4.9626414E-02;  3.9904340E+04;  0.0000000E+00;  4.5412701E-01;  4.0000000E+04;  0.0000000E+00;  4.0002211E+04;  5.8161575E-02;  0.0000000E+00; -8.5351616E-03;  7.4828107E+02;
  2.5203186E-01;  9.9999998E-03; -1.2997758E-01;3988;  1.7288996E-02;  0.0000000E+00;  2.2994759E-03;  9.9905322E+02;  1.0000000E-01; -7.8437286E+02;3;  2.6769900E+00;  0.0000000E+00; -7.7923608E-01;0;  5.2390244E-02;  3.9920863E+04;  0.0000000E+00;  3.7166628E-01;  4.0000000E+04;  0.0000000E+00;  4.0001332E+04;  6.1297178E-02;  0.0000000E+00; -8.9069335E-03;  5.8482770E+02;
  2.5201386E-01;  9.9999998E-03; -1.1998689E-01;3989;  1.5475202E-02;  0.0000000E+00;  2.0482503E-03;  9.9922125E+02;  1.0000000E-01; -6.4516693E+02;3;  2.4150324E+00;  0.0000000E+00; -5.7212728E-01;0;  5.5269901E-02;  3.9936195E+04;  0.0000000E+00;  2.8970155E-01;  4.0000000E+04;  0.0000000E+00;  3.9999676E+04;  6.4546041E-02;  0.0000000E+00; -9.2761395E-03;  4.1429150E+02;
  2.5196967E-01;  9.9999998E-03; -1.0999523E-01;3990;  1.4808743E-02;  0.0000000E+00;  1.7778062E-03;  9.9935602E+02;  1.0000000E-01; -5.3351575E+02;3;  2.4613538E+00;  0.0000000E+00; -4.4379902E-01;0;  5.8206849E-02;  3.9949297E+04;  0.0000000E+00;  2.2034214E-01;  4.0000000E+04;  0.0000000E+00;  3.9997422E+04;  6.7834347E-02;  0.0000000E+00; -9.6274996E-03;  4.1133691E+02;
  2.6137021E-01;  9.9999998E-03; -2.6998708E-01;4035;  1.6051149E-02;  0.0000000E+00;  4.2552948E-03;  9.9734589E+02;  1.0000000E-01; -2.1989009E+03;3; -5.9508333E+00;  0.0000000E+00;  1.5487026E-01;0;  2.9167257E-02;  3.9784578E+04;  0.0000000E+00;  5.2027307E+00;  4.0000000E+04;  0.0000000E+00;  4.0015785E+04;  5.1720403E-02;  0.0000000E+00; -2.2553146E-02;  8.6765986E+03;
  2.6133412E-01;  9.9999998E-03; -2.5998920E-01;4036;  1.6524842E-02;  0.0000000E+00;  4.1972087E-03;  9.9752124E+02;  1.0000000E-01; -2.0536208E+03;3; -6.1949215E+00;  0.0000000E+00; -2.2653253E+00;0;  2.8754218E-02;  3.9801516E+04;  0.0000000E+00;  4.3972182E+00;  4.0000000E+04;  0.0000000E+00;  4.0011891E+04;  4.8065998E-02;  0.0000000E+00; -1.9311780E-02;  7.1878643E+03;
  2.6125234E-01;  9.9999998E-03; -2.4998114E-01;4037;  1.7166961E-02;  0.0000000E+00;  3.9760191E-03;  9.9766748E+02;  1.0000000E-01; -1.9324392E+03;3; -6.0175772E+00;  0.0000000E+00; -3.4941621E+00;0;  3.0181196E-02;  3.9811609E+04;  0.0000000E+00;  4.0450850E+00;  4.0000000E+04;  0.0000000E+00;  4.0011473E+04;  4.5382578E-02;  0.0000000E+00; -1.5201382E-02;  6.4518281E+03;
  2.6116982E-01;  9.9999998E-03; -2.3995624E-01;4038;  1.7846759E-02;  0.0000000E+00;  3.7442790E-03;  9.9776917E+02;  1.0000000E-01; -1.8481947E+03;3; -5.7528343E+00;  0.0000000E+00; -3.9059329E+00;0;  3.1359322E-02;  3.9815145E+04;  0.0000000E+00;  3.2254450E+00;  4.0000000E+04;  0.0000000E+00;  4.0013637E+04;  4.3338582E-02;  0.0000000E+00; -1.1979260E-02;  5.2649712E+03;
  2.6113647E-01;  9.9999998E-03; -2.2992800E-01;4039;  1.8553663E-02;  0.0000000E+00;  3.6389390E-03;  9.9778290E+02;  1.0000000E-01; -1.8368369E+03;3; -5.4667726E+00;  0.0000000E+00; -3.7302241E+00;0;  3.1759597E-02;  3.9814141E+04;  0.0000000E+00;  2.1931419E+00;  4.0000000E+04;  0.0000000E+00;  4.0013348E+04;  4.1805249E-02;  0.0000000E+00; -1.0045651E-02;  3.8041689E+03;
  2.6114994E-01;  9.9999998E-03; -2.1991768E-01;4040;  1.9216111E-02;  0.0000000E+00;  3.5742014E-03;  9.9772876E+02;  1.0000000E-01; -1.8816752E+03;3; -5.2628136E+00;  0.0000000E+00; -3.2773304E+00;0;  3.2007106E-02;  3.9812559E+04;  0.0000000E+00;  1.4028466E+00;  4.0000000E+04;  0.0000000E+00;  4.0009145E+04;  4.0767778E-02;  0.0000000E+00; -8.7606730E-03;  2.4853220E+03;
  2.6121649E-01;  9.9999998E-03; -2.0992638E-01;4041;  1.9783044E-02;  0.0000000E+00;  3.4867229E-03;  9.9769904E+02;  1.0000000E-01; -1.9063164E+03;3; -5.0964851E+00;  0.0000000E+00; -2.8788376E+00;0;  3.2330625E-02;  3.9812676E+04;  0.0000000E+00;  9.3069303E-01;  4.0000000E+04;  0.0000000E+00;  4.0004527E+04;  4.0252950E-02;  0.0000000E+00; -7.9223234E-03;  1.5860955E+03;
  2.6132837E-01;  9.9999998E-03; -1.9994389E-01;4042;  2.0276029E-02;  0.0000000E+00;  3.3764374E-03;  9.9773065E+02;  1.0000000E-01; -1.8800950E+03;3; -4.9930310E+00;  0.0000000E+00; -2.5895758E+00;0;  3.2831971E-02;  3.9816051E+04;  0.0000000E+00;  7.1568334E-01;  4.0000000E+04;  0.0000000E+00;  4.0002426E+04;  4.0318776E-02;  0.0000000E+00; -7.4868063E-03;  1.1675906E+03;
  2.6147234E-01;  9.9999998E-03; -1.8995941E-01;4043;  2.0691542E-02;  0.0000000E+00;  3.2685588E-03;  9.9783551E+02;  1.0000000E-01; -1.7932333E+03;3; -4.9766002E+00;  0.0000000E+00; -2.4061661E+00;0;  3.3631474E-02;  3.9823602E+04;  0.0000000E+00;  6.6016197E-01;  4.0000000E+04;  0.0000000E+00;  4.0002344E+04;  4.1014947E-02;  0.0000000E+00; -7.3834732E-03;  1.0764349E+03;
  2.6163554E-01;  9.9999998E-03; -1.7996746E-01;4044;  2.1048985E-02;  0.0000000E+00;  3.1670660E-03;  9.9799939E+02;  1.0000000E-01; -1.6574840E+03;3; -5.0396643E+00;  0.0000000E+00; -2.2605648E+00;0;  3.4860779E-02;  3.9835277E+04;  0.0000000E+00;  6.7257923E-01;  4.0000000E+04;  0.0000000E+00;  4.0003215E+04;  4.2374164E-02;  0.0000000E+00; -7.5133843E-03;  1.1325642E+03;
  2.6179931E-01;  9.9999998E-03; -1.6996734E-01;4045;  2.1342214E-02;  0.0000000E+00;  3.0853387E-03;  9.9820831E+02;  1.0000000E-01; -1.4844025E+03;3; -5.1484661E+00;  0.0000000E+00; -2.1611016E+00;0;  3.6610339E-02;  3.9850766E+04;  0.0000000E+00;  6.8165237E-01;  4.0000000E+04;  0.0000000E+00;  4.0004121E+04;  4.4405717E-02;  0.0000000E+00; -7.7953795E-03;  1.1964297E+03;
  2.6193663E-01;  9.9999998E-03; -1.5996455E-01;4046;  2.1600801E-02;  0.0000000E+00;  3.0072648E-03;  9.9845062E+02;  1.0000000E-01; -1.2836180E+03;3; -5.2840509E+00;  0.0000000E+00; -2.0961177E+00;0;  3.8925264E-02;  3.9869332E+04;  0.0000000E+00;  6.4690572E-01;  4.0000000E+04;  0.0000000E+00;  4.0004762E+04;  4.7088426E-02;  0.0000000E+00; -8.1631616E-03;  1.1860530E+03;
  2.6202062E-01;  9.9999998E-03; -1.4996633E-01;4047;  2.1829015E-02;  0.0000000E+00;  2.9351930E-03;  9.9870117E+02;  1.0000000E-01; -1.0760684E+03;3; -5.4233403E+00;  0.0000000E+00; -2.0014169E+00;0;  4.1784868E-02;  3.9889512E+04;  0.0000000E+00;  5.6499863E-01;  4.0000000E+04;  0.0000000E+00;  4.0004668E+04;  5.0354991E-02;  0.0000000E+00; -8.5701253E-03;  1.0794752E+03;
  2.6203835E-01;  9.9999998E-03; -1.3997389E-01;4048;  2.2051122E-02;  0.0000000E+00;  2.8604285E-03;  9.9894092E+02;  1.0000000E-01; -8.7740729E+02;3; -5.5513463E+00;  0.0000000E+00; -1.9141586E+00;0;  4.5095991E-02;  3.9909836E+04;  0.0000000E+00;  4.5822147E-01;  4.0000000E+04;  0.0000000E+00;  4.0003934E+04;  5.4082140E-02;  0.0000000E+00; -8.9861490E-03;  8.8888495E+02;
  2.6200360E-01;  9.9999998E-03; -1.2998448E-01;4049;  2.2138305E-02;  0.0000000E+00;  2.7714560E-03;  9.9915393E+02;  1.0000000E-01; -7.0096783E+02;3; -3.8234513E+00;  0.0000000E+00; -1.6420946E+00;0;  4.8696190E-02;  3.9928621E+04;  0.0000000E+00;  3.5043949E-01;  4.0000000E+04;  0.0000000E+00;  4.0002672E+04;  5.8094393E-02;  0.0000000E+00; -9.3982024E-03;  6.3774438E+02;
  2.6194721E-01;  9.9999998E-03; -1.1999564E-01;4050;  1.9414142E-02;  0.0000000E+00;  2.7190971E-03;  9.9932281E+02;  1.0000000E-01; -5.6102118E+02;3;  2.2653289E+00;  0.0000000E+00; -1.5174484E+00;0;  5.2422188E-02;  3.9944684E+04;  0.0000000E+00;  2.5777227E-01;  4.0000000E+04;  0.0000000E+00;  4.0000500E+04;  6.2218688E-02;  0.0000000E+00; -9.7964993E-03;  3.8501166E+02;
  2.6188105E-01;  9.9999998E-03; -1.1000469E-01;4051;  1.7330335E-02;  0.0000000E+00;  2.5602772E-03;  9.9944385E+02;  1.0000000E-01; -4.6077710E+02;3;  2.2251205E+00;  0.0000000E+00; -1.1201348E+00;0;  5.6101888E-02;  3.9957031E+04;  0.0000000E+00;  1.8732773E-01;  4.0000000E+04;  0.0000000E+00;  3.9998211E+04;  6.6261746E-02;  0.0000000E+00; -1.0159856E-02;  3.3952960E+02;
  2.7132937E-01;  9.9999998E-03; -2.6997221E-01;4096;  1.5889980E-02;  0.0000000E+00;  3.9337720E-03;  9.9761420E+02;  1.0000000E-01; -1.9765861E+03;3; -6.3568978E+00;  0.0000000E+00; -1.9899144E+00;0;  1.7453777E-02;  3.9802707E+04;  0.0000000E+00;  3.4194949E+00;  4.0000000E+04;  0.0000000E+00;  4.0020285E+04;  3.8616795E-02;  0.0000000E+00; -2.1163018E-02;  6.2433555E+03;
  2.7129295E-01;  9.9999998E-03; -2.5997031E-01;4097;  1.6400607E-02;  0.0000000E+00;  3.8279453E-03;  9.9764728E+02;  1.0000000E-01; -1.9491794E+03;3; -6.0552235E+00;  0.0000000E+00; -3.1712284E+00;0;  1.8209714E-02;  3.9805793E+04;  0.0000000E+00;  3.0039313E+00;  4.0000000E+04;  0.0000000E+00;  4.0018539E+04;  3.5881769E-02;  0.0000000E+00; -1.7672054E-02;  5.4245742E+03;
  2.7122912E-01;  9.9999998E-03; -2.4996069E-01;4098;  1.7048143E-02;  0.0000000E+00;  3.6499188E-03;  9.9765723E+02;  1.0000000E-01; -1.9409327E+03;3; -5.7942758E+00;  0.0000000E+00; -3.7289355E+00;0;  1.9782018E-02;  3.9804008E+04;  0.0000000E+00;  2.7019031E+00;  4.0000000E+04;  0.0000000E+00;  4.0018293E+04;  3.3906110E-02;  0.0000000E+00; -1.4124091E-02;  4.8909160E+03;
  2.7117687E-01;  9.9999998E-03; -2.3993714E-01;4099;  1.7733641E-02;  0.0000000E+00;  3.4690392E-03;  9.9765314E+02;  1.0000000E-01; -1.9443401E+03;3; -5.4755225E+00;  0.0000000E+00; -3.7414825E+00;0;  2.1080829E-02;  3.9799301E+04;  0.0000000E+00;  2.1013646E+00;  4.0000000E+04;  0.0000000E+00;  4.0020359E+04;  3.2448739E-02;  0.0000000E+00; -1.1367911E-02;  4.2365645E+03;
  2.7117518E-01;  9.9999998E-03; -2.2991376E-01;4100;  1.8412586E-02;  0.0000000E+00;  3.3914654E-03;  9.9759515E+02;  1.0000000E-01; -1.9923881E+03;3; -5.2026653E+00;  0.0000000E+00; -3.4292939E+00;0;  2.1700380E-02;  3.9793816E+04;  0.0000000E+00;  1.4626648E+00;  4.0000000E+04;  0.0000000E+00;  4.0019172E+04;  3.1416789E-02;  0.0000000E+00; -9.7164083E-03;  3.4118538E+03;
  2.7122638E-01;  9.9999998E-03; -2.1991128E-01;4101;  1.9041304E-02;  0.0000000E+00;  3.3407500E-03;  9.9751398E+02;  1.0000000E-01; -2.0596455E+03;3; -5.0525656E+00;  0.0000000E+00; -3.0420742E+00;0;  2.2209436E-02;  3.9790617E+04;  0.0000000E+00;  1.0441030E+00;  4.0000000E+04;  0.0000000E+00;  4.0013547E+04;  3.0824089E-02;  0.0000000E+00; -8.6146528E-03;  2.4824214E+03;
  2.7132526E-01;  9.9999998E-03; -2.0992500E-01;4102;  1.9590149E-02;  0.0000000E+00;  3.2535272E-03;  9.9748804E+02;  1.0000000E-01; -2.0811262E+03;3; -4.9704084E+00;  0.0000000E+00; -2.7081177E+00;0;  2.2839952E-02;  3.9791738E+04;  0.0000000E+00;  8.4804654E-01;  4.0000000E+04;  0.0000000E+00;  4.0009309E+04;  3.0724425E-02;  0.0000000E+00; -7.8844726E-03;  1.8541998E+03;
  2.7145731E-01;  9.9999998E-03; -1.9994144E-01;4103;  2.0070964E-02;  0.0000000E+00;  3.1445504E-03;  9.9755951E+02;  1.0000000E-01; -2.0219181E+03;3; -4.9077878E+00;  0.0000000E+00; -2.5062730E+00;0;  2.3668231E-02;  3.9797887E+04;  0.0000000E+00;  7.9454660E-01;  4.0000000E+04;  0.0000000E+00;  4.0007246E+04;  3.1193275E-02;  0.0000000E+00; -7.5250431E-03;  1.6154281E+03;
  2.7160710E-01;  9.9999998E-03; -1.8995312E-01;4104;  2.0485470E-02;  0.0000000E+00;  3.0457340E-03;  9.9771429E+02;  1.0000000E-01; -1.8936748E+03;3; -4.9691100E+00;  0.0000000E+00; -2.3544145E+00;0;  2.4825780E-02;  3.9809531E+04;  0.0000000E+00;  7.9921049E-01;  4.0000000E+04;  0.0000000E+00;  4.0007094E+04;  3.2297321E-02;  0.0000000E+00; -7.4715405E-03;  1.5903772E+03;
  2.7175662E-01;  9.9999998E-03; -1.7995875E-01;4105;  2.0846834E-02;  0.0000000E+00;  2.9591955E-03;  9.9793646E+02;  1.0000000E-01; -1.7095813E+03;3; -5.0301027E+00;  0.0000000E+00; -2.2632647E+00;0;  2.6454035E-02;  3.9826352E+04;  0.0000000E+00;  7.9877520E-01;  4.0000000E+04;  0.0000000E+00;  4.0007520E+04;  3.4085017E-02;  0.0000000E+00; -7.6309806E-03;  1.6100789E+03;
  2.7188751E-01;  9.9999998E-03; -1.6996017E-01;4106;  2.1155510E-02;  0.0000000E+00;  2.8833079E-03;  9.9819952E+02;  1.0000000E-01; -1.4916615E+03;3; -5.1357093E+00;  0.0000000E+00; -2.1867297E+00;0;  2.8644478E-02;  3.9846996E+04;  0.0000000E+00;  7.5524455E-01;  4.0000000E+04;  0.0000000E+00;  4.0007906E+04;  3.6573667E-02;  0.0000000E+00; -7.9291891E-03;  1.5777692E+03;
  2.7198097E-01;  9.9999998E-03; -1.5996332E-01;4107;  2.1430871E-02;  0.0000000E+00;  2.8160010E-03;  9.9848810E+02;  1.0000000E-01; -1.2526066E+03;3; -5.3203025E+00;  0.0000000E+00; -2.1023619E+00;0;  3.1429619E-02;  3.9870148E+04;  0.0000000E+00;  6.6041631E-01;  4.0000000E+04;  0.0000000E+00;  4.0007691E+04;  3.9739426E-02;  0.0000000E+00; -8.3098095E-03;  1.4579856E+03;
  2.7202532E-01;  9.9999998E-03; -1.4997204E-01;4108;  2.1690616E-02;  0.0000000E+00;  2.7487229E-03;  9.9877014E+02;  1.0000000E-01; -1.0189341E+03;3; -5.4413295E+00;  0.0000000E+00; -2.0413382E+00;0;  3.4774937E-02;  3.9893633E+04;  0.0000000E+00;  5.3282446E-01;  4.0000000E+04;  0.0000000E+00;  4.0007035E+04;  4.3505404E-02;  0.0000000E+00; -8.7304665E-03;  1.2547399E+03;
  2.7201775E-01;  9.9999998E-03; -1.3998438E-01;4109;  2.1946771E-02;  0.0000000E+00;  2.6774418E-03;  9.9902307E+02;  1.0000000E-01; -8.0935980E+02;3; -5.5942192E+00;  0.0000000E+00; -1.9653810E+00;0;  3.8576454E-02;  3.9915871E+04;  0.0000000E+00;  3.9992297E-01;  4.0000000E+04;  0.0000000E+00;  4.0005699E+04;  4.7739334E-02;  0.0000000E+00; -9.1628786E-03;  9.8312183E+02;
  2.7196637E-01;  9.9999998E-03; -1.2999627E-01;4110;  2.2218699E-02;  0.0000000E+00;  2.5930842E-03;  9.9922815E+02;  1.0000000E-01; -6.3948810E+02;3; -5.7547860E+00;  0.0000000E+00; -1.8759655E+00;0;  4.2669095E-02;  3.9934734E+04;  0.0000000E+00;  2.8176501E-01;  4.0000000E+04;  0.0000000E+00;  4.0003676E+04;  5.2258879E-02;  0.0000000E+00; -9.5897838E-03;  6.6210791E+02;
  2.7189267E-01;  9.9999998E-03; -1.2000544E-01;4111;  2.2506818E-02;  0.0000000E+00;  2.4903170E-03;  9.9937787E+02;  1.0000000E-01; -5.1544220E+02;3; -5.8427291E+00;  0.0000000E+00; -1.7854844E+00;0;  4.6855450E-02;  3.9949398E+04;  0.0000000E+00;  1.8950701E-01;  4.0000000E+04;  0.0000000E+00;  4.0001320E+04;  5.6848526E-02;  0.0000000E+00; -9.9930773E-03;  3.3512555E+02;
  2.7181607E-01;  9.9999998E-03; -1.1001185E-01;4112;  2.2765581E-02;  0.0000000E+00;  2.3589148E-03;  9.9946368E+02;  1.0000000E-01; -4.4433310E+02;3; -5.2229576E+00;  0.0000000E+00; -1.6615691E+00;0;  5.0944015E-02;  3.9959082E+04;  0.0000000E+00;  1.2549992E-01;  4.0000000E+04;  0.0000000E+00;  3.9998594E+04;  6.1293226E-02;  0.0000000E+00; -1.0349209E-02;  2.3071286E+02;
  2.8127682E-01;  9.9999998E-03; -2.6996243E-01;4157;  1.5735025E-02;  0.0000000E+00;  3.5429529E-03;  9.9775885E+02;  1.0000000E-01; -1.8567377E+03;3; -6.1851082E+00;  0.0000000E+00; -2.9454508E+00;0;  6.8403408E-03;  3.9811703E+04;  0.0000000E+00;  2.2381871E+00;  4.0000000E+04;  0.0000000E+00;  4.0023324E+04;  2.5803093E-02;  0.0000000E+00; -1.8962752E-02;  4.8263857E+03;
  2.8125027E-01;  9.9999998E-03; -2.5995809E-01;4158;  1.6275890E-02;  0.0000000E+00;  3.4174398E-03;  9.9769019E+02;  1.0000000E-01; -1.9136249E+03;3; -5.6343298E+00;  0.0000000E+00; -3.4151299E+00;0;  8.2294242E-03;  3.9804508E+04;  0.0000000E+00;  1.9093109E+00;  4.0000000E+04;  0.0000000E+00;  4.0023262E+04;  2.3846406E-02;  0.0000000E+00; -1.5616982E-02;  4.3680981E+03;
  2.8122410E-01;  9.9999998E-03; -2.4994807E-01;4159;  1.6898202E-02;  0.0000000E+00;  3.2717602E-03;  9.9760193E+02;  1.0000000E-01; -1.9867587E+03;3; -5.3471322E+00;  0.0000000E+00; -3.4992437E+00;0;  9.7979559E-03;  3.9794707E+04;  0.0000000E+00;  1.5663728E+00;  4.0000000E+04;  0.0000000E+00;  4.0023480E+04;  2.2446278E-02;  0.0000000E+00; -1.2648323E-02;  4.0081560E+03;
  2.8122512E-01;  9.9999998E-03; -2.3992752E-01;4160;  1.7556736E-02;  0.0000000E+00;  3.1257088E-03;  9.9753247E+02;  1.0000000E-01; -2.0442878E+03;3; -5.1322970E+00;  0.0000000E+00; -3.3514068E+00;0;  1.1071455E-02;  3.9785129E+04;  0.0000000E+00;  1.1785678E+00;  4.0000000E+04;  0.0000000E+00;  4.0025305E+04;  2.1462360E-02;  0.0000000E+00; -1.0390906E-02;  3.8182976E+03;
  2.8127113E-01;  9.9999998E-03; -2.2991145E-01;4161;  1.8207017E-02;  0.0000000E+00;  3.0710511E-03;  9.9743945E+02;  1.0000000E-01; -2.1213721E+03;3; -4.9696207E+00;  0.0000000E+00; -3.0634720E+00;0;  1.1761756E-02;  3.9777980E+04;  0.0000000E+00;  9.0603286E-01;  4.0000000E+04;  0.0000000E+00;  4.0022641E+04;  2.0847686E-02;  0.0000000E+00; -9.0859300E-03;  3.3547312E+03;
  2.8134710E-01;  9.9999998E-03; -2.1991752E-01;4162;  1.8808866E-02;  0.0000000E+00;  3.0261877E-03;  9.9735669E+02;  1.0000000E-01; -2.1899133E+03;3; -4.9048877E+00;  0.0000000E+00; -2.7442443E+00;0;  1.2445500E-02;  3.9775379E+04;  0.0000000E+00;  8.0640036E-01;  4.0000000E+04;  0.0000000E+00;  4.0016852E+04;  2.0642867E-02;  0.0000000E+00; -8.1973672E-03;  2.6173420E+03;
  2.8145921E-01;  9.9999998E-03; -2.0993300E-01;4163;  1.9351097E-02;  0.0000000E+00;  2.9324531E-03;  9.9736792E+02;  1.0000000E-01; -2.1806296E+03;3; -4.8706164E+00;  0.0000000E+00; -2.5104618E+00;0;  1.3290792E-02;  3.9778730E+04;  0.0000000E+00;  8.0767453E-01;  4.0000000E+04;  0.0000000E+00;  4.0012703E+04;  2.0895494E-02;  0.0000000E+00; -7.6047024E-03;  2.1801187E+03;
  2.8158960E-01;  9.9999998E-03; -1.9994792E-01;4164;  1.9828241E-02;  0.0000000E+00;  2.8310900E-03;  9.9748334E+02;  1.0000000E-01; -2.0850273E+03;3; -4.8517246E+00;  0.0000000E+00; -2.3673170E+00;0;  1.4337962E-02;  3.9788527E+04;  0.0000000E+00;  8.4259099E-01;  4.0000000E+04;  0.0000000E+00;  4.0011207E+04;  2.1686794E-02;  0.0000000E+00; -7.3488317E-03;  2.0363643E+03;
  2.8172094E-01;  9.9999998E-03; -1.8995869E-01;4165;  2.0249136E-02;  0.0000000E+00;  2.7420977E-03;  9.9768860E+02;  1.0000000E-01; -1.9149581E+03;3; -4.9468355E+00;  0.0000000E+00; -2.2547002E+00;0;  1.5734676E-02;  3.9804270E+04;  0.0000000E+00;  8.5652536E-01;  4.0000000E+04;  0.0000000E+00;  4.0011062E+04;  2.3089740E-02;  0.0000000E+00; -7.3550646E-03;  2.0024779E+03;
  2.8183806E-01;  9.9999998E-03; -1.7996395E-01;4166;  2.0623250E-02;  0.0000000E+00;  2.6658776E-03;  9.9795245E+02;  1.0000000E-01; -1.6963470E+03;3; -5.0547032E+00;  0.0000000E+00; -2.1657078E+00;0;  1.7613441E-02;  3.9825137E+04;  0.0000000E+00;  8.1867778E-01;  4.0000000E+04;  0.0000000E+00;  4.0011043E+04;  2.5154887E-02;  0.0000000E+00; -7.5414451E-03;  1.9510358E+03;
  2.8192157E-01;  9.9999998E-03; -1.6996771E-01;4167;  2.0954534E-02;  0.0000000E+00;  2.5977257E-03;  9.9825531E+02;  1.0000000E-01; -1.4454406E+03;3; -5.1500072E+00;  0.0000000E+00; -2.1038947E+00;0;  2.0057444E-02;  3.9849535E+04;  0.0000000E+00;  7.2261018E-01;  4.0000000E+04;  0.0000000E+00;  4.0010902E+04;  2.7903253E-02;  0.0000000E+00; -7.8458097E-03;  1.8243456E+03;
  2.8197107E-01;  9.9999998E-03; -1.5997484E-01;4168;  2.1255210E-02;  0.0000000E+00;  2.5320768E-03;  9.9856396E+02;  1.0000000E-01; -1.1897441E+03;3; -5.3165741E+00;  0.0000000E+00; -2.0197148E+00;0;  2.3075517E-02;  3.9875133E+04;  0.0000000E+00;  5.8460879E-01;  4.0000000E+04;  0.0000000E+00;  4.0010008E+04;  3.1296451E-02;  0.0000000E+00; -8.2209334E-03;  1.6179177E+03;
  2.8198522E-01;  9.9999998E-03; -1.4998673E-01;4169;  2.1546217E-02;  0.0000000E+00;  2.4626243E-03;  9.9885132E+02;  1.0000000E-01; -9.5167676E+02;3; -5.4786839E+00;  0.0000000E+00; -1.9633487E+00;0;  2.6617303E-02;  3.9899836E+04;  0.0000000E+00;  4.3350598E-01;  4.0000000E+04;  0.0000000E+00;  4.0008695E+04;  3.5248697E-02;  0.0000000E+00; -8.6313942E-03;  1.3447439E+03;
  2.8196266E-01;  9.9999998E-03; -1.3999888E-01;4170;  2.1840097E-02;  0.0000000E+00;  2.3851341E-03;  9.9909692E+02;  1.0000000E-01; -7.4817639E+02;3; -5.6207957E+00;  0.0000000E+00; -1.8820457E+00;0;  3.0572703E-02;  3.9921625E+04;  0.0000000E+00;  2.9345828E-01;  4.0000000E+04;  0.0000000E+00;  4.0006848E+04;  3.9625227E-02;  0.0000000E+00; -9.0525243E-03;  1.0175380E+03;
  2.8191146E-01;  9.9999998E-03; -1.3000828E-01;4171;  2.2148827E-02;  0.0000000E+00;  2.2927308E-03;  9.9927655E+02;  1.0000000E-01; -5.9934106E+02;3; -5.7901826E+00;  0.0000000E+00; -1.7958739E+00;0;  3.4776539E-02;  3.9938684E+04;  0.0000000E+00;  1.7936732E-01;  4.0000000E+04;  0.0000000E+00;  4.0004332E+04;  4.4240590E-02;  0.0000000E+00; -9.4640534E-03;  6.5409283E+02;
  2.8184617E-01;  9.9999998E-03; -1.2001413E-01;4172;  2.2479255E-02;  0.0000000E+00;  2.1818138E-03;  9.9938647E+02;  1.0000000E-01; -5.0828192E+02;3; -5.9414992E+00;  0.0000000E+00; -1.7052016E+00;0;  3.9031759E-02;  3.9950496E+04;  0.0000000E+00;  9.7455800E-02;  4.0000000E+04;  0.0000000E+00;  4.0001699E+04;  4.8875004E-02;  0.0000000E+00; -9.8432461E-03;  2.8399222E+02;
  2.8177947E-01;  9.9999998E-03; -1.1001688E-01;4173;  2.2831229E-02;  0.0000000E+00;  2.0465844E-03;  9.9942615E+02;  1.0000000E-01; -4.7544333E+02;3; -6.1143360E+00;  0.0000000E+00; -1.5807642E+00;0;  4.3138057E-02;  3.9956461E+04;  0.0000000E+00;  4.6260215E-02;  4.0000000E+04;  0.0000000E+00;  3.9998898E+04;  5.3302247E-02;  0.0000000E+00; -1.0164192E-02;  1.1619304E+02;
  2.9124281E-01;  9.9999998E-03; -2.6995653E-01;4218;  1.5566248E-02;  0.0000000E+00;  3.1056819E-03;  9.9779553E+02;  1.0000000E-01; -1.8263680E+03;3; -5.7036610E+00;  0.0000000E+00; -3.1873856E+00;0; -2.4932642E-03;  3.9812699E+04;  0.0000000E+00;  1.1617670E+00;  4.0000000E+04;  0.0000000E+00;  4.0025195E+04;  1.3905227E-02;  0.0000000E+00; -1.6398491E-02;  3.8739512E+03;
  2.9125026E-01;  9.9999998E-03; -2.5995153E-01;4219;  1.6125847E-02;  0.0000000E+00;  2.9931820E-03;  9.9766071E+02;  1.0000000E-01; -1.9380686E+03;3; -5.1986599E+00;  0.0000000E+00; -3.2530596E+00;0; -9.4768591E-04;  3.9799180E+04;  0.0000000E+00;  8.5070300E-01;  4.0000000E+04;  0.0000000E+00;  4.0026109E+04;  1.2584496E-02;  0.0000000E+00; -1.3532182E-02;  3.7388835E+03;
  2.9128939E-01;  9.9999998E-03; -2.4994248E-01;4220;  1.6729875E-02;  0.0000000E+00;  2.8738305E-03;  9.9752643E+02;  1.0000000E-01; -2.0493247E+03;3; -4.9251146E+00;  0.0000000E+00; -3.1260033E+00;0;  5.4016989E-04;  3.9785703E+04;  0.0000000E+00;  5.9561104E-01;  4.0000000E+04;  0.0000000E+00;  4.0026582E+04;  1.1646857E-02;  0.0000000E+00; -1.1106688E-02;  3.6867302E+03;
  2.9133207E-01;  9.9999998E-03; -2.3992735E-01;4221;  1.7354939E-02;  0.0000000E+00;  2.7602920E-03;  9.9743152E+02;  1.0000000E-01; -2.1279397E+03;3; -4.8214884E+00;  0.0000000E+00; -2.9258392E+00;0;  1.7445255E-03;  3.9775098E+04;  0.0000000E+00;  5.5183387E-01;  4.0000000E+04;  0.0000000E+00;  4.0027355E+04;  1.1061007E-02;  0.0000000E+00; -9.3164816E-03;  3.7360439E+03;
  2.9138842E-01;  9.9999998E-03; -2.2991943E-01;4222;  1.7969429E-02;  0.0000000E+00;  2.7101901E-03;  9.9734204E+02;  1.0000000E-01; -2.2020613E+03;3; -4.7931600E+00;  0.0000000E+00; -2.6805520E+00;0;  2.5333110E-03;  3.9769051E+04;  0.0000000E+00;  6.0538960E-01;  4.0000000E+04;  0.0000000E+00;  4.0024074E+04;  1.0807514E-02;  0.0000000E+00; -8.2742032E-03;  3.3670688E+03;
  2.9147404E-01;  9.9999998E-03; -2.1992896E-01;4223;  1.8552899E-02;  0.0000000E+00;  2.6503871E-03;  9.9729419E+02;  1.0000000E-01; -2.2417144E+03;3; -4.7642140E+00;  0.0000000E+00; -2.4736519E+00;0;  3.3463198E-03;  3.9768789E+04;  0.0000000E+00;  6.9863886E-01;  4.0000000E+04;  0.0000000E+00;  4.0018871E+04;  1.0903608E-02;  0.0000000E+00; -7.5572883E-03;  2.7807783E+03;
  2.9157981E-01;  9.9999998E-03; -2.0994504E-01;4224;  1.9086014E-02;  0.0000000E+00;  2.5606952E-03;  9.9734949E+02;  1.0000000E-01; -2.1958884E+03;3; -4.7966790E+00;  0.0000000E+00; -2.3277600E+00;0;  4.2895256E-03;  3.9775098E+04;  0.0000000E+00;  7.9037571E-01;  4.0000000E+04;  0.0000000E+00;  4.0015602E+04;  1.1413464E-02;  0.0000000E+00; -7.1239388E-03;  2.4522358E+03;
  2.9169127E-01;  9.9999998E-03; -1.9995999E-01;4225;  1.9567106E-02;  0.0000000E+00;  2.4729997E-03;  9.9750952E+02;  1.0000000E-01; -2.0632996E+03;3; -4.8513508E+00;  0.0000000E+00; -2.2225645E+00;0;  5.4387026E-03;  3.9788184E+04;  0.0000000E+00;  8.3946669E-01;  4.0000000E+04;  0.0000000E+00;  4.0014086E+04;  1.2414152E-02;  0.0000000E+00; -6.9754492E-03;  2.3284946E+03;
  2.9179689E-01;  9.9999998E-03; -1.8996991E-01;4226;  1.9997796E-02;  0.0000000E+00;  2.3971039E-03;  9.9774908E+02;  1.0000000E-01; -1.8648362E+03;3; -4.9414630E+00;  0.0000000E+00; -2.1400142E+00;0;  6.9358237E-03;  3.9807344E+04;  0.0000000E+00;  8.2273173E-01;  4.0000000E+04;  0.0000000E+00;  4.0013766E+04;  1.3973012E-02;  0.0000000E+00; -7.0371879E-03;  2.2530630E+03;
  2.9187185E-01;  9.9999998E-03; -1.7997679E-01;4227;  2.0388078E-02;  0.0000000E+00;  2.3316455E-03;  9.9804169E+02;  1.0000000E-01; -1.6224232E+03;3; -5.0839581E+00;  0.0000000E+00; -2.0657067E+00;0;  8.9068618E-03;  3.9830902E+04;  0.0000000E+00;  7.3810029E-01;  4.0000000E+04;  0.0000000E+00;  4.0013531E+04;  1.6148617E-02;  0.0000000E+00; -7.2417553E-03;  2.1265220E+03;
  2.9191115E-01;  9.9999998E-03; -1.6998234E-01;4228;  2.0744469E-02;  0.0000000E+00;  2.2708524E-03;  9.9835742E+02;  1.0000000E-01; -1.3608503E+03;3; -5.1916857E+00;  0.0000000E+00; -2.0027781E+00;0;  1.1410975E-02;  3.9856773E+04;  0.0000000E+00;  6.0212559E-01;  4.0000000E+04;  0.0000000E+00;  4.0012672E+04;  1.8950038E-02;  0.0000000E+00; -7.5390628E-03;  1.9274125E+03;
  2.9192576E-01;  9.9999998E-03; -1.5999153E-01;4229;  2.1075625E-02;  0.0000000E+00;  2.2091151E-03;  9.9866663E+02;  1.0000000E-01; -1.1046602E+03;3; -5.3347645E+00;  0.0000000E+00; -1.9190481E+00;0;  1.4437462E-02;  3.9882832E+04;  0.0000000E+00;  4.4373131E-01;  4.0000000E+04;  0.0000000E+00;  4.0011484E+04;  2.2328183E-02;  0.0000000E+00; -7.8907209E-03;  1.6627633E+03;
  2.9191855E-01;  9.9999998E-03; -1.5000312E-01;4230;  2.1397807E-02;  0.0000000E+00;  2.1401194E-03;  9.9893719E+02;  1.0000000E-01; -8.8051831E+02;3; -5.4909420E+00;  0.0000000E+00; -1.8503535E+00;0;  1.7924227E-02;  3.9906816E+04;  0.0000000E+00;  2.9052117E-01;  4.0000000E+04;  0.0000000E+00;  4.0009555E+04;  2.6192397E-02;  0.0000000E+00; -8.2681710E-03;  1.3457675E+03;
  2.9188755E-01;  9.9999998E-03; -1.4001317E-01;4231;  2.1724502E-02;  0.0000000E+00;  2.0604841E-03;  9.9914905E+02;  1.0000000E-01; -7.0501709E+02;3; -5.6411419E+00;  0.0000000E+00; -1.7745200E+00;0;  2.1759063E-02;  3.9926590E+04;  0.0000000E+00;  1.5998232E-01;  4.0000000E+04;  0.0000000E+00;  4.0007281E+04;  3.0408841E-02;  0.0000000E+00; -8.6497786E-03;  9.8938654E+02;
  2.9183927E-01;  9.9999998E-03; -1.3001922E-01;4232;  2.2064470E-02;  0.0000000E+00;  1.9656604E-03;  9.9929376E+02;  1.0000000E-01; -5.8511926E+02;3; -5.8165078E+00;  0.0000000E+00; -1.6904513E+00;0;  2.5784153E-02;  3.9940758E+04;  0.0000000E+00;  6.1920173E-02;  4.0000000E+04;  0.0000000E+00;  4.0004359E+04;  3.4797858E-02;  0.0000000E+00; -9.0137059E-03;  6.1493036E+02;
  2.9178420E-01;  9.9999998E-03; -1.2002142E-01;4233;  2.2422269E-02;  0.0000000E+00;  1.8521263E-03;  9.9935632E+02;  1.0000000E-01; -5.3326886E+02;3; -5.9911113E+00;  0.0000000E+00; -1.5923685E+00;0;  2.9812288E-02;  3.9948926E+04;  0.0000000E+00; -1.7226939E-03;  4.0000000E+04;  0.0000000E+00;  4.0001570E+04;  3.9147966E-02;  0.0000000E+00; -9.3356790E-03;  2.5215202E+02;
  2.9173011E-01;  9.9999998E-03; -1.1002083E-01;4234;  2.2796638E-02;  0.0000000E+00;  1.7178429E-03;  9.9934717E+02;  1.0000000E-01; -5.4087360E+02;3; -6.1839213E+00;  0.0000000E+00; -1.4808106E+00;0;  3.3652849E-02;  3.9950715E+04;  0.0000000E+00; -3.5183210E-02;  4.0000000E+04;  0.0000000E+00;  3.9999133E+04;  4.3242514E-02;  0.0000000E+00; -9.5896628E-03;  8.3388084E+01;
  3.0126449E-01;  9.9999998E-03; -2.6995409E-01;4279;  1.5382427E-02;  0.0000000E+00;  2.6529876E-03;  9.9776843E+02;  1.0000000E-01; -1.8487872E+03;3; -5.1701460E+00;  0.0000000E+00; -3.0351794E+00;0; -1.0587829E-02;  3.9808992E+04;  0.0000000E+00;  1.1095792E-01;  4.0000000E+04;  0.0000000E+00;  4.0026051E+04;  3.4220230E-03;  0.0000000E+00; -1.4009852E-02;  3.4381797E+03;
  3.0128357E-01;  9.9999998E-03; -2.5994986E-01;4280;  1.5954502E-02;  0.0000000E+00;  2.5550132E-03;  9.9761896E+02;  1.0000000E-01; -1.9726356E+03;3; -4.8274322E+00;  0.0000000E+00; -2.9311893E+00;0; -8.9301188E-03;  3.9794180E+04;  0.0000000E+00;  1.5976048E-01;  4.0000000E+04;  0.0000000E+00;  4.0027098E+04;  2.6460097E-03;  0.0000000E+00; -1.1576128E-02;  3.6011589E+03;
  3.0135536E-01;  9.9999998E-03; -2.4994342E-01;4281;  1.6543889E-02;  0.0000000E+00;  2.4621375E-03;  9.9748212E+02;  1.0000000E-01; -2.0860151E+03;3; -4.6495399E+00;  0.0000000E+00; -2.7518747E+00;0; -7.5234231E-03;  3.9780766E+04;  0.0000000E+00;  1.7742932E-01;  4.0000000E+04;  0.0000000E+00;  4.0027586E+04;  2.1110438E-03;  0.0000000E+00; -9.6344668E-03;  3.6697693E+03;
  3.0142653E-01;  9.9999998E-03; -2.3993401E-01;4282;  1.7139828E-02;  0.0000000E+00;  2.3698031E-03;  9.9739044E+02;  1.0000000E-01; -2.1619636E+03;3; -4.6185431E+00;  0.0000000E+00; -2.5592477E+00;0; -6.3561960E-03;  3.9771727E+04;  0.0000000E+00;  3.3317885E-01;  4.0000000E+04;  0.0000000E+00;  4.0027566E+04;  1.8376228E-03;  0.0000000E+00; -8.1938189E-03;  3.6816931E+03;
  3.0149743E-01;  9.9999998E-03; -2.2993176E-01;4283;  1.7727192E-02;  0.0000000E+00;  2.3121252E-03;  9.9733057E+02;  1.0000000E-01; -2.2115918E+03;3; -4.6544862E+00;  0.0000000E+00; -2.3866847E+00;0; -5.4992484E-03;  3.9768121E+04;  0.0000000E+00;  5.1841789E-01;  4.0000000E+04;  0.0000000E+00;  4.0024223E+04;  1.8338194E-03;  0.0000000E+00; -7.3330677E-03;  3.3466372E+03;
  3.0157924E-01;  9.9999998E-03; -2.1994358E-01;4284;  1.8290754E-02;  0.0000000E+00;  2.2460783E-03;  9.9732629E+02;  1.0000000E-01; -2.2150979E+03;3; -4.7034583E+00;  0.0000000E+00; -2.2565982E+00;0; -4.6505388E-03;  3.9770770E+04;  0.0000000E+00;  6.7075747E-01;  4.0000000E+04;  0.0000000E+00;  4.0019902E+04;  2.1285098E-03;  0.0000000E+00; -6.7790486E-03;  2.8681028E+03;
  3.0166996E-01;  9.9999998E-03; -2.0996001E-01;4285;  1.8816479E-02;  0.0000000E+00;  2.1626267E-03;  9.9742499E+02;  1.0000000E-01; -2.1333718E+03;3; -4.7586932E+00;  0.0000000E+00; -2.1661193E+00;0; -3.7028105E-03;  3.9780207E+04;  0.0000000E+00;  7.6028597E-01;  4.0000000E+04;  0.0000000E+00;  4.0016902E+04;  2.7804342E-03;  0.0000000E+00; -6.4832447E-03;  2.5959216E+03;
  3.0175826E-01;  9.9999998E-03; -1.9997379E-01;4286;  1.9299103E-02;  0.0000000E+00;  2.0856992E-03;  9.9761975E+02;  1.0000000E-01; -1.9719937E+03;3; -4.8651290E+00;  0.0000000E+00; -2.0927382E+00;0; -2.5603150E-03;  3.9796012E+04;  0.0000000E+00;  7.7206683E-01;  4.0000000E+04;  0.0000000E+00;  4.0016102E+04;  3.8616259E-03;  0.0000000E+00; -6.4219409E-03;  2.4641143E+03;
  3.0182767E-01;  9.9999998E-03; -1.8998347E-01;4287;  1.9741762E-02;  0.0000000E+00;  2.0211015E-03;  9.9788293E+02;  1.0000000E-01; -1.7539257E+03;3; -4.9566460E+00;  0.0000000E+00; -2.0332000E+00;0; -1.0845261E-03;  3.9817121E+04;  0.0000000E+00;  7.0699376E-01;  4.0000000E+04;  0.0000000E+00;  4.0015355E+04;  5.4405509E-03;  0.0000000E+00; -6.5250769E-03;  2.3361160E+03;
  3.0186495E-01;  9.9999998E-03; -1.7999145E-01;4288;  2.0148173E-02;  0.0000000E+00;  1.9649675E-03;  9.9818353E+02;  1.0000000E-01; -1.5048958E+03;3; -5.1167169E+00;  0.0000000E+00; -1.9650960E+00;0;  8.2793739E-04;  3.9841555E+04;  0.0000000E+00;  5.8238232E-01;  4.0000000E+04;  0.0000000E+00;  4.0014664E+04;  7.5628017E-03;  0.0000000E+00; -6.7348643E-03;  2.1502461E+03;
  3.0187261E-01;  9.9999998E-03; -1.6999798E-01;4289;  2.0529028E-02;  0.0000000E+00;  1.9109229E-03;  9.9848993E+02;  1.0000000E-01; -1.2510757E+03;3; -5.2310143E+00;  0.0000000E+00; -1.9023150E+00;0;  3.2193083E-03;  3.9867570E+04;  0.0000000E+00;  4.2686114E-01;  4.0000000E+04;  0.0000000E+00;  4.0013457E+04;  1.0229877E-02;  0.0000000E+00; -7.0105689E-03;  1.9043662E+03;
  3.0186266E-01;  9.9999998E-03; -1.6000669E-01;4290;  2.0889569E-02;  0.0000000E+00;  1.8535428E-03;  9.9877551E+02;  1.0000000E-01; -1.0144404E+03;3; -5.3787937E+00;  0.0000000E+00; -1.8237988E+00;0;  6.0695419E-03;  3.9892391E+04;  0.0000000E+00;  2.6988468E-01;  4.0000000E+04;  0.0000000E+00;  4.0011824E+04;  1.3390841E-02;  0.0000000E+00; -7.3212991E-03;  1.6064803E+03;
  3.0184022E-01;  9.9999998E-03; -1.5001653E-01;4291;  2.1242807E-02;  0.0000000E+00;  1.7870972E-03;  9.9901593E+02;  1.0000000E-01; -8.1528558E+02;3; -5.5185256E+00;  0.0000000E+00; -1.7507540E+00;0;  9.3091689E-03;  3.9913895E+04;  0.0000000E+00;  1.3113901E-01;  4.0000000E+04;  0.0000000E+00;  4.0009301E+04;  1.6952885E-02;  0.0000000E+00; -7.6437159E-03;  1.2686676E+03;
  3.0180612E-01;  9.9999998E-03; -1.4002353E-01;4292;  2.1598587E-02;  0.0000000E+00;  1.7085247E-03;  9.9918671E+02;  1.0000000E-01; -6.7380811E+02;3; -5.6862097E+00;  0.0000000E+00; -1.6720294E+00;0;  1.2827744E-02;  3.9930410E+04;  0.0000000E+00;  2.2451174E-02;  4.0000000E+04;  0.0000000E+00;  4.0006598E+04;  2.0785309E-02;  0.0000000E+00; -7.9575656E-03;  9.0910480E+02;
  3.0176580E-01;  9.9999998E-03; -1.3002609E-01;4293;  2.1963857E-02;  0.0000000E+00;  1.6149123E-03;  9.9928369E+02;  1.0000000E-01; -5.9346472E+02;3; -5.8446679E+00;  0.0000000E+00; -1.5831468E+00;0;  1.6478121E-02;  3.9941328E+04;  0.0000000E+00; -5.1107123E-02;  4.0000000E+04;  0.0000000E+00;  4.0003852E+04;  2.4719641E-02;  0.0000000E+00; -8.2415193E-03;  5.5589313E+02;
  3.0172583E-01;  9.9999998E-03; -1.2002522E-01;4294;  2.2340097E-02;  0.0000000E+00;  1.5046503E-03;  9.9930383E+02;  1.0000000E-01; -5.7677380E+02;3; -6.0232015E+00;  0.0000000E+00; -1.4904789E+00;0;  2.0088596E-02;  3.9945715E+04;  0.0000000E+00; -9.1125086E-02;  4.0000000E+04;  0.0000000E+00;  4.0001344E+04;  2.8561182E-02;  0.0000000E+00; -8.4725861E-03;  2.5386737E+02;
  3.0169213E-01;  9.9999998E-03; -1.1002200E-01;4295;  2.2722648E-02;  0.0000000E+00;  1.3784110E-03;  9.9925317E+02;  1.0000000E-01; -6.1874792E+02;3; -6.2180061E+00;  0.0000000E+00; -1.3868060E+00;0;  2.3484919E-02;  3.9943820E+04;  0.0000000E+00; -1.0382318E-01;  4.0000000E+04;  0.0000000E+00;  3.9999059E+04;  3.2111418E-02;  0.0000000E+00; -8.6264992E-03;  1.5718390E+02;
  3.1130970E-01;  9.9999998E-03; -2.6995462E-01;4340;  1.5193390E-02;  0.0000000E+00;  2.1902933E-03;  9.9773688E+02;  1.0000000E-01; -1.8749594E+03;3; -4.7155871E+00;  0.0000000E+00; -2.7463801E+00;0; -1.7266016E-02;  3.9806125E+04;  0.0000000E+00; -3.6067209E-01;  4.0000000E+04;  0.0000000E+00;  4.0025336E+04; -5.2662622E-03;  0.0000000E+00; -1.1999754E-02;  3.3977932E+03;
  3.1133631E-01;  9.9999998E-03; -2.5995207E-01;4341;  1.5765628E-02;  0.0000000E+00;  2.1048880E-03;  9.9760040E+02;  1.0000000E-01; -1.9880425E+03;3; -4.5616617E+00;  0.0000000E+00; -2.6045008E+00;0; -1.5494897E-02;  3.9792363E+04;  0.0000000E+00; -7.6247752E-02;  4.0000000E+04;  0.0000000E+00;  4.0026734E+04; -5.6280000E-03;  0.0000000E+00; -9.8668970E-03;  3.5219893E+03;
  3.1143498E-01;  9.9999998E-03; -2.4994849E-01;4342;  1.6342686E-02;  0.0000000E+00;  2.0232459E-03;  9.9748706E+02;  1.0000000E-01; -2.0819165E+03;3; -4.4823618E+00;  0.0000000E+00; -2.4424629E+00;0; -1.4071844E-02;  3.9781418E+04;  0.0000000E+00;  1.0967116E-01;  4.0000000E+04;  0.0000000E+00;  4.0026895E+04; -5.8636758E-03;  0.0000000E+00; -8.2081677E-03;  3.5694050E+03;
  3.1153303E-01;  9.9999998E-03; -2.3994447E-01;4343;  1.6917963E-02;  0.0000000E+00;  1.9434765E-03;  9.9742334E+02;  1.0000000E-01; -2.1347051E+03;3; -4.5054488E+00;  0.0000000E+00; -2.2980678E+00;0; -1.2947422E-02;  3.9775234E+04;  0.0000000E+00;  3.3244637E-01;  4.0000000E+04;  0.0000000E+00;  4.0026195E+04; -5.9252516E-03;  0.0000000E+00; -7.0221708E-03;  3.5138147E+03;
  3.1160489E-01;  9.9999998E-03; -2.2994740E-01;4344;  1.7484320E-02;  0.0000000E+00;  1.8834583E-03;  9.9739868E+02;  1.0000000E-01; -2.1551489E+03;3; -4.5686045E+00;  0.0000000E+00; -2.1822107E+00;0; -1.2088157E-02;  3.9774793E+04;  0.0000000E+00;  5.3089648E-01;  4.0000000E+04;  0.0000000E+00;  4.0023227E+04; -5.7743569E-03;  0.0000000E+00; -6.3138008E-03;  3.2017129E+03;
  3.1167141E-01;  9.9999998E-03; -2.1996105E-01;4345;  1.8031059E-02;  0.0000000E+00;  1.8140766E-03;  9.9744250E+02;  1.0000000E-01; -2.1188538E+03;3; -4.6688581E+00;  0.0000000E+00; -2.0999227E+00;0; -1.1269083E-02;  3.9780613E+04;  0.0000000E+00;  6.5328610E-01;  4.0000000E+04;  0.0000000E+00;  4.0019574E+04; -5.3821565E-03;  0.0000000E+00; -5.8869268E-03;  2.8124150E+03;
  3.1173649E-01;  9.9999998E-03; -2.0997620E-01;4346;  1.8549962E-02;  0.0000000E+00;  1.7362016E-03;  9.9757819E+02;  1.0000000E-01; -2.0064124E+03;3; -4.7701564E+00;  0.0000000E+00; -2.0454030E+00;0; -1.0391017E-02;  3.9792590E+04;  0.0000000E+00;  6.8985653E-01;  4.0000000E+04;  0.0000000E+00;  4.0017555E+04; -4.6934206E-03;  0.0000000E+00; -5.6975968E-03;  2.5898096E+03;
  3.1179023E-01;  9.9999998E-03; -1.9998801E-01;4347;  1.9035308E-02;  0.0000000E+00;  1.6692365E-03;  9.9779535E+02;  1.0000000E-01; -1.8265162E+03;3; -4.8726487E+00;  0.0000000E+00; -1.9860623E+00;0; -9.3418024E-03;  3.9810078E+04;  0.0000000E+00;  6.4497113E-01;  4.0000000E+04;  0.0000000E+00;  4.0016613E+04; -3.6404012E-03;  0.0000000E+00; -5.7014013E-03;  2.4449880E+03;
  3.1182203E-01;  9.9999998E-03; -1.8999693E-01;4348;  1.9487834E-02;  0.0000000E+00;  1.6144126E-03;  9.9806097E+02;  1.0000000E-01; -1.6064237E+03;3; -4.9958515E+00;  0.0000000E+00; -1.9367012E+00;0; -7.9930611E-03;  3.9831793E+04;  0.0000000E+00;  5.3558868E-01;  4.0000000E+04;  0.0000000E+00;  4.0015824E+04; -2.1638102E-03;  0.0000000E+00; -5.8292509E-03;  2.2765034E+03;
  3.1183130E-01;  9.9999998E-03; -1.8000409E-01;4349;  1.9911315E-02;  0.0000000E+00;  1.5663041E-03;  9.9834845E+02;  1.0000000E-01; -1.3682576E+03;3; -5.1360044E+00;  0.0000000E+00; -1.8713233E+00;0; -6.2614409E-03;  3.9855750E+04;  0.0000000E+00;  3.8899013E-01;  4.0000000E+04;  0.0000000E+00;  4.0014777E+04; -2.3166064E-04;  0.0000000E+00; -6.0297805E-03;  2.0555337E+03;
  3.1181985E-01;  9.9999998E-03; -1.7000999E-01;4350;  2.0313628E-02;  0.0000000E+00;  1.5180068E-03;  9.9863141E+02;  1.0000000E-01; -1.1338445E+03;3; -5.2746983E+00;  0.0000000E+00; -1.8119251E+00;0; -4.1147936E-03;  3.9879926E+04;  0.0000000E+00;  2.3470618E-01;  4.0000000E+04;  0.0000000E+00;  4.0013082E+04;  2.1543510E-03;  0.0000000E+00; -6.2691444E-03;  1.7847939E+03;
  3.1179482E-01;  9.9999998E-03; -1.6001724E-01;4351;  2.0701125E-02;  0.0000000E+00;  1.4650600E-03;  9.9888251E+02;  1.0000000E-01; -9.2580096E+02;3; -5.4201560E+00;  0.0000000E+00; -1.7380801E+00;0; -1.5755724E-03;  3.9902117E+04;  0.0000000E+00;  9.4290406E-02;  4.0000000E+04;  0.0000000E+00;  4.0011031E+04;  4.9465206E-03;  0.0000000E+00; -6.5220930E-03;  1.4727858E+03;
  3.1176344E-01;  9.9999998E-03; -1.5002438E-01;4352;  2.1081695E-02;  0.0000000E+00;  1.4028742E-03;  9.9907660E+02;  1.0000000E-01; -7.6501538E+02;3; -5.5702100E+00;  0.0000000E+00; -1.6595902E+00;0;  1.2871376E-03;  3.9920441E+04;  0.0000000E+00; -1.9205498E-02;  4.0000000E+04;  0.0000000E+00;  4.0008320E+04;  8.0548357E-03;  0.0000000E+00; -6.7676981E-03;  1.1354049E+03;
  3.1173155E-01;  9.9999998E-03; -1.4002764E-01;4353;  2.1462210E-02;  0.0000000E+00;  1.3284888E-03;  9.9920520E+02;  1.0000000E-01; -6.5849988E+02;3; -5.7231112E+00;  0.0000000E+00; -1.5800822E+00;0;  4.3684696E-03;  3.9933543E+04;  0.0000000E+00; -9.8699495E-02;  4.0000000E+04;  0.0000000E+00;  4.0005672E+04;  1.1354790E-02;  0.0000000E+00; -6.9863205E-03;  7.9743286E+02;
  3.1170332E-01;  9.9999998E-03; -1.3002625E-01;4354;  2.1846224E-02;  0.0000000E+00;  1.2404550E-03;  9.9926227E+02;  1.0000000E-01; -6.1119257E+02;3; -5.8942637E+00;  0.0000000E+00; -1.4974190E+00;0;  7.5332872E-03;  3.9940898E+04;  0.0000000E+00; -1.4330138E-01;  4.0000000E+04;  0.0000000E+00;  4.0003055E+04;  1.4692586E-02;  0.0000000E+00; -7.1592988E-03;  4.9394363E+02;
  3.1168467E-01;  9.9999998E-03; -1.2002143E-01;4355;  2.2232970E-02;  0.0000000E+00;  1.1387104E-03;  9.9925043E+02;  1.0000000E-01; -6.2101947E+02;3; -6.0596638E+00;  0.0000000E+00; -1.4058616E+00;0;  1.0625109E-02;  3.9942086E+04;  0.0000000E+00; -1.5746711E-01;  4.0000000E+04;  0.0000000E+00;  4.0000844E+04;  1.7891875E-02;  0.0000000E+00; -7.2667659E-03;  2.7762860E+02;
  3.1168348E-01;  9.9999998E-03; -1.1001282E-01;4356;  2.2617305E-02;  0.0000000E+00;  1.0245194E-03;  9.9917426E+02;  1.0000000E-01; -6.8412878E+02;3; -6.2305989E+00;  0.0000000E+00; -1.3111671E+00;0;  1.3486318E-02;  3.9937770E+04;  0.0000000E+00; -1.4889285E-01;  4.0000000E+04;  0.0000000E+00;  3.9999137E+04;  2.0773834E-02;  0.0000000E+00; -7.2875158E-03;  2.1639648E+02;
  3.2175100E-01;  9.9999998E-03; -1.0999541E-01;4417;  2.2484764E-02;  0.0000000E+00;  6.5326854E-04;  9.9912610E+02;  1.0000000E-01; -7.2402887E+02;3; -6.2692184E+00;  0.0000000E+00; -1.2456741E+00;0;  4.2724209E-03;  3.9934176E+04;  0.0000000E+00; -1.6611001E-01;  4.0000000E+04;  0.0000000E+00;  3.9999387E+04;  9.8606916E-03;  0.0000000E+00; -5.5882707E-03;  2.3742107E+02;
  3.2170641E-01;  9.9999998E-03; -1.2000881E-01;4416;  2.2104023E-02;  0.0000000E+00;  7.5145072E-04;  9.9921014E+02;  1.0000000E-01; -6.5440118E+02;3; -6.1003504E+00;  0.0000000E+00; -1.3347802E+00;0;  1.9671423E-03;  3.9939836E+04;  0.0000000E+00; -1.9361418E-01;  4.0000000E+04;  0.0000000E+00;  4.0000504E+04;  7.7000251E-03;  0.0000000E+00; -5.7328828E-03;  2.9777469E+02;
  3.2168302E-01;  9.9999998E-03; -1.3002039E-01;4415;  2.1712421E-02;  0.0000000E+00;  8.4128021E-04;  9.9924445E+02;  1.0000000E-01; -6.2595758E+02;3; -5.9283042E+00;  0.0000000E+00; -1.4187447E+00;0; -5.6459662E-04;  3.9940707E+04;  0.0000000E+00; -2.0403889E-01;  4.0000000E+04;  0.0000000E+00;  4.0002418E+04;  5.2175415E-03;  0.0000000E+00; -5.7821381E-03;  4.4259399E+02;
  3.2168496E-01;  9.9999998E-03; -1.4002645E-01;4414;  2.1315649E-02;  0.0000000E+00;  9.2014979E-04;  9.9922113E+02;  1.0000000E-01; -6.4526562E+02;3; -5.7673693E+00;  0.0000000E+00; -1.5015810E+00;0; -3.1934003E-03;  3.9936262E+04;  0.0000000E+00; -1.8866903E-01;  4.0000000E+04;  0.0000000E+00;  4.0004469E+04;  2.5571277E-03;  0.0000000E+00; -5.7505281E-03;  6.7943311E+02;
  3.2170340E-01;  9.9999998E-03; -1.5002698E-01;4413;  2.0915966E-02;  0.0000000E+00;  9.8749564E-04;  9.9913092E+02;  1.0000000E-01; -7.2002899E+02;3; -5.6141267E+00;  0.0000000E+00; -1.5798883E+00;0; -5.7764705E-03;  3.9926500E+04;  0.0000000E+00; -1.4075607E-01;  4.0000000E+04;  0.0000000E+00;  4.0007094E+04; -1.2252665E-04;  0.0000000E+00; -5.6539439E-03;  9.7449133E+02;
  3.2173136E-01;  9.9999998E-03; -1.6002271E-01;4412;  2.0513300E-02;  0.0000000E+00;  1.0439937E-03;  9.9897784E+02;  1.0000000E-01; -8.4684021E+02;3; -5.4549236E+00;  0.0000000E+00; -1.6572999E+00;0; -8.1881117E-03;  3.9911672E+04;  0.0000000E+00; -5.7602983E-02;  4.0000000E+04;  0.0000000E+00;  4.0009715E+04; -2.6805911E-03;  0.0000000E+00; -5.5075204E-03;  1.2916660E+03;
  3.2176143E-01;  9.9999998E-03; -1.7001651E-01;4411;  2.0103239E-02;  0.0000000E+00;  1.0920457E-03;  9.9877155E+02;  1.0000000E-01; -1.0177489E+03;3; -5.3060851E+00;  0.0000000E+00; -1.7255913E+00;0; -1.0333285E-02;  3.9892828E+04;  0.0000000E+00;  5.7934925E-02;  4.0000000E+04;  0.0000000E+00;  4.0012027E+04; -5.0039846E-03;  0.0000000E+00; -5.3293006E-03;  1.6017952E+03;
  3.2178539E-01;  9.9999998E-03; -1.8001121E-01;4410;  1.9681631E-02;  0.0000000E+00;  1.1348746E-03;  9.9852899E+02;  1.0000000E-01; -1.2186815E+03;3; -5.1606407E+00;  0.0000000E+00; -1.7835624E+00;0; -1.2150918E-02;  3.9871371E+04;  0.0000000E+00;  1.9699787E-01;  4.0000000E+04;  0.0000000E+00;  4.0013785E+04; -7.0109284E-03;  0.0000000E+00; -5.1399898E-03;  1.8839880E+03;
  3.2179955E-01;  9.9999998E-03; -1.9000648E-01;4409;  1.9242764E-02;  0.0000000E+00;  1.1762900E-03;  9.9826624E+02;  1.0000000E-01; -1.4364037E+03;3; -5.0202289E+00;  0.0000000E+00; -1.8403807E+00;0; -1.3619641E-02;  3.9849102E+04;  0.0000000E+00;  3.4531468E-01;  4.0000000E+04;  0.0000000E+00;  4.0015164E+04; -8.6572245E-03;  0.0000000E+00; -4.9624159E-03;  2.1224944E+03;
  3.2180205E-01;  9.9999998E-03; -2.0000058E-01;4408;  1.8780418E-02;  0.0000000E+00;  1.2224186E-03;  9.9801013E+02;  1.0000000E-01; -1.6485459E+03;3; -4.8989296E+00;  0.0000000E+00; -1.8873448E+00;0; -1.4762648E-02;  3.9828199E+04;  0.0000000E+00;  4.8065805E-01;  4.0000000E+04;  0.0000000E+00;  4.0016434E+04; -9.9363038E-03;  0.0000000E+00; -4.8263445E-03;  2.3077180E+03;
  3.2179570E-01;  9.9999998E-03; -2.0999201E-01;4407;  1.8292384E-02;  0.0000000E+00;  1.2795449E-03;  9.9778979E+02;  1.0000000E-01; -1.8311085E+03;3; -4.7813811E+00;  0.0000000E+00; -1.9343973E+00;0; -1.5652876E-02;  3.9810035E+04;  0.0000000E+00;  5.7483298E-01;  4.0000000E+04;  0.0000000E+00;  4.0016789E+04; -1.0875269E-02;  0.0000000E+00; -4.7776066E-03;  2.4494504E+03;
  3.2177186E-01;  9.9999998E-03; -2.1997796E-01;4406;  1.7778428E-02;  0.0000000E+00;  1.3491781E-03;  9.9762701E+02;  1.0000000E-01; -1.9659690E+03;3; -4.6688533E+00;  0.0000000E+00; -1.9814599E+00;0; -1.6402250E-02;  3.9796484E+04;  0.0000000E+00;  6.0274005E-01;  4.0000000E+04;  0.0000000E+00;  4.0018340E+04; -1.1516228E-02;  0.0000000E+00; -4.8860214E-03;  2.6431921E+03;
  3.2172829E-01;  9.9999998E-03; -2.2996238E-01;4405;  1.7243275E-02;  0.0000000E+00;  1.4142115E-03;  9.9754584E+02;  1.0000000E-01; -2.0332263E+03;3; -4.5602922E+00;  0.0000000E+00; -2.0445483E+00;0; -1.7118229E-02;  3.9788246E+04;  0.0000000E+00;  5.4844493E-01;  4.0000000E+04;  0.0000000E+00;  4.0021539E+04; -1.1915802E-02;  0.0000000E+00; -5.2024266E-03;  2.9953232E+03;
  3.2166174E-01;  9.9999998E-03; -2.3995540E-01;4404;  1.6692627E-02;  0.0000000E+00;  1.4698493E-03;  9.9752942E+02;  1.0000000E-01; -2.0468062E+03;3; -4.4664655E+00;  0.0000000E+00; -2.1241243E+00;0; -1.7896820E-02;  3.9785207E+04;  0.0000000E+00;  4.0810063E-01;  4.0000000E+04;  0.0000000E+00;  4.0024223E+04; -1.2128988E-02;  0.0000000E+00; -5.7678306E-03;  3.3028396E+03;
  3.2156023E-01;  9.9999998E-03; -2.4995588E-01;4403;  1.6132167E-02;  0.0000000E+00;  1.5465315E-03;  9.9755328E+02;  1.0000000E-01; -2.0270536E+03;3; -4.4078822E+00;  0.0000000E+00; -2.2316022E+00;0; -1.8995907E-02;  3.9787688E+04;  0.0000000E+00;  1.9809793E-01;  4.0000000E+04;  0.0000000E+00;  4.0025320E+04; -1.2195078E-02;  0.0000000E+00; -6.8008285E-03;  3.3554395E+03;
  3.2144326E-01;  9.9999998E-03; -2.5995687E-01;4402;  1.5565727E-02;  0.0000000E+00;  1.6334361E-03;  9.9762354E+02;  1.0000000E-01; -1.9688330E+03;3; -4.3995156E+00;  0.0000000E+00; -2.3447204E+00;0; -2.0535123E-02;  3.9795043E+04;  0.0000000E+00; -5.1717758E-02;  4.0000000E+04;  0.0000000E+00;  4.0025094E+04; -1.2153265E-02;  0.0000000E+00; -8.3818585E-03;  3.3111108E+03;
  3.2138830E-01;  9.9999998E-03; -2.6995739E-01;4401;  1.4995917E-02;  0.0000000E+00;  1.7145318E-03;  9.9773358E+02;  1.0000000E-01; -1.8776752E+03;3; -4.4278250E+00;  0.0000000E+00; -2.4641519E+00;0; -2.2465426E-02;  3.9805852E+04;  0.0000000E+00; -3.8966468E-01;  4.0000000E+04;  0.0000000E+00;  4.0024160E+04; -1.2055721E-02;  0.0000000E+00; -1.0409706E-02;  3.2423037E+03;
  3.3144960E-01;  9.9999998E-03; -2.6996142E-01;4462;  1.4791095E-02;  0.0000000E+00;  1.2171724E-03;  9.9776550E+02;  1.0000000E-01; -1.8512561E+03;3; -4.3023658E+00;  0.0000000E+00; -2.2504950E+00;0; -2.6162352E-02;  3.9808789E+04;  0.0000000E+00; -1.0600050E-01;  4.0000000E+04;  0.0000000E+00;  4.0022285E+04; -1.7024837E-02;  0.0000000E+00; -9.1375140E-03;  2.9726492E+03;
  3.3152840E-01;  9.9999998E-03; -2.5996318E-01;4463;  1.5357569E-02;  0.0000000E+00;  1.1427837E-03;  9.9769611E+02;  1.0000000E-01; -1.9087360E+03;3; -4.3354878E+00;  0.0000000E+00; -2.1469064E+00;0; -2.4104230E-02;  3.9801820E+04;  0.0000000E+00;  1.6793928E-01;  4.0000000E+04;  0.0000000E+00;  4.0022453E+04; -1.6979311E-02;  0.0000000E+00; -7.1249185E-03;  3.0130142E+03;
  3.3164856E-01;  9.9999998E-03; -2.4996464E-01;4464;  1.5915954E-02;  0.0000000E+00;  1.0472977E-03;  9.9766925E+02;  1.0000000E-01; -1.9309576E+03;3; -4.3997173E+00;  0.0000000E+00; -2.0684044E+00;0; -2.2414874E-02;  3.9798645E+04;  0.0000000E+00;  3.6085564E-01;  4.0000000E+04;  0.0000000E+00;  4.0022484E+04; -1.6923536E-02;  0.0000000E+00; -5.4913387E-03;  3.0606255E+03;
  3.3174592E-01;  9.9999998E-03; -2.3996708E-01;4465;  1.6466359E-02;  0.0000000E+00;  9.6693769E-04;  9.9768988E+02;  1.0000000E-01; -1.9138717E+03;3; -4.4816380E+00;  0.0000000E+00; -1.9988940E+00;0; -2.1321757E-02;  3.9799859E+04;  0.0000000E+00;  4.8501098E-01;  4.0000000E+04;  0.0000000E+00;  4.0021855E+04; -1.6814647E-02;  0.0000000E+00; -4.5071095E-03;  3.0095869E+03;
  3.3180308E-01;  9.9999998E-03; -2.2997601E-01;4466;  1.7006449E-02;  0.0000000E+00;  9.1175368E-04;  9.9774316E+02;  1.0000000E-01; -1.8697247E+03;3; -4.5886307E+00;  0.0000000E+00; -1.9430438E+00;0; -2.0637635E-02;  3.9805535E+04;  0.0000000E+00;  5.3654426E-01;  4.0000000E+04;  0.0000000E+00;  4.0019605E+04; -1.6613852E-02;  0.0000000E+00; -4.0237838E-03;  2.7335823E+03;
  3.3183274E-01;  9.9999998E-03; -2.1999037E-01;4467;  1.7533887E-02;  0.0000000E+00;  8.5046038E-04;  9.9785553E+02;  1.0000000E-01; -1.7766410E+03;3; -4.7029047E+00;  0.0000000E+00; -1.8949673E+00;0; -2.0066630E-02;  3.9815867E+04;  0.0000000E+00;  5.1612192E-01;  4.0000000E+04;  0.0000000E+00;  4.0017059E+04; -1.6281594E-02;  0.0000000E+00; -3.7850356E-03;  2.4399314E+03;
  3.3184260E-01;  9.9999998E-03; -2.1000113E-01;4468;  1.8045286E-02;  0.0000000E+00;  7.8975398E-04;  9.9802905E+02;  1.0000000E-01; -1.6328920E+03;3; -4.8154783E+00;  0.0000000E+00; -1.8518397E+00;0; -1.9502779E-02;  3.9830223E+04;  0.0000000E+00;  4.3532914E-01;  4.0000000E+04;  0.0000000E+00;  4.0016156E+04; -1.5768971E-02;  0.0000000E+00; -3.7338082E-03;  2.2733525E+03;
  3.3183038E-01;  9.9999998E-03; -2.0000678E-01;4469;  1.8536536E-02;  0.0000000E+00;  7.4232061E-04;  9.9824323E+02;  1.0000000E-01; -1.4554648E+03;3; -4.9328737E+00;  0.0000000E+00; -1.8050370E+00;0; -1.8830739E-02;  3.9847750E+04;  0.0000000E+00;  3.1314152E-01;  4.0000000E+04;  0.0000000E+00;  4.0015516E+04; -1.5023747E-02;  0.0000000E+00; -3.8069920E-03;  2.1230303E+03;
  3.3179596E-01;  9.9999998E-03; -1.9000931E-01;4470;  1.9007893E-02;  0.0000000E+00;  7.0486619E-04;  9.9847009E+02;  1.0000000E-01; -1.2675197E+03;3; -5.0550103E+00;  0.0000000E+00; -1.7564253E+00;0; -1.7942507E-02;  3.9867082E+04;  0.0000000E+00;  1.7305011E-01;  4.0000000E+04;  0.0000000E+00;  4.0014250E+04; -1.4005345E-02;  0.0000000E+00; -3.9371625E-03;  1.9247386E+03;
  3.3175316E-01;  9.9999998E-03; -1.8001217E-01;4471;  1.9460991E-02;  0.0000000E+00;  6.7037297E-04;  9.9869543E+02;  1.0000000E-01; -1.0808088E+03;3; -5.1882248E+00;  0.0000000E+00; -1.7025572E+00;0; -1.6780771E-02;  3.9886598E+04;  0.0000000E+00;  3.6418341E-02;  4.0000000E+04;  0.0000000E+00;  4.0012449E+04; -1.2700411E-02;  0.0000000E+00; -4.0803608E-03;  1.6730525E+03;
  3.3171666E-01;  9.9999998E-03; -1.7001694E-01;4472;  1.9899340E-02;  0.0000000E+00;  6.3349237E-04;  9.9890045E+02;  1.0000000E-01; -9.1093713E+02;3; -5.3340096E+00;  0.0000000E+00; -1.6429108E+00;0; -1.5331923E-02;  3.9904836E+04;  0.0000000E+00; -8.1127092E-02;  4.0000000E+04;  0.0000000E+00;  4.0010387E+04; -1.1125210E-02;  0.0000000E+00; -4.2067133E-03;  1.3892709E+03;
  3.3169043E-01;  9.9999998E-03; -1.6002230E-01;4473;  2.0327028E-02;  0.0000000E+00;  5.9125928E-04;  9.9906293E+02;  1.0000000E-01; -7.7632367E+02;3; -5.4797406E+00;  0.0000000E+00; -1.5788594E+00;0; -1.3613163E-02;  3.9920383E+04;  0.0000000E+00; -1.6877608E-01;  4.0000000E+04;  0.0000000E+00;  4.0008023E+04; -9.3205478E-03;  0.0000000E+00; -4.2926152E-03;  1.0956180E+03;
  3.3168232E-01;  9.9999998E-03; -1.5002470E-01;4474;  2.0746363E-02;  0.0000000E+00;  5.4153532E-04;  9.9917896E+02;  1.0000000E-01; -6.8022760E+02;3; -5.6417060E+00;  0.0000000E+00; -1.5092542E+00;0; -1.1675829E-02;  3.9932109E+04;  0.0000000E+00; -2.2138856E-01;  4.0000000E+04;  0.0000000E+00;  4.0005465E+04; -7.3586227E-03;  0.0000000E+00; -4.3172059E-03;  8.1505768E+02;
  3.3169958E-01;  9.9999998E-03; -1.4002070E-01;4475;  2.1158684E-02;  0.0000000E+00;  4.8307152E-04;  9.9924091E+02;  1.0000000E-01; -6.2887103E+02;3; -5.8052206E+00;  0.0000000E+00; -1.4340749E+00;0; -9.6049877E-03;  3.9939371E+04;  0.0000000E+00; -2.3976685E-01;  4.0000000E+04;  0.0000000E+00;  4.0003172E+04; -5.3401953E-03;  0.0000000E+00; -4.2647924E-03;  5.7583685E+02;
  3.3174410E-01;  9.9999998E-03; -1.3000832E-01;4476;  2.1562776E-02;  0.0000000E+00;  4.1598151E-04;  9.9925000E+02;  1.0000000E-01; -6.2136511E+02;3; -5.9656353E+00;  0.0000000E+00; -1.3553697E+00;0; -7.5105354E-03;  3.9941969E+04;  0.0000000E+00; -2.2949979E-01;  4.0000000E+04;  0.0000000E+00;  4.0001348E+04; -3.3851340E-03;  0.0000000E+00; -4.1254014E-03;  4.0261063E+02;
  3.3180302E-01;  9.9999998E-03; -1.1999037E-01;4477;  2.1954667E-02;  0.0000000E+00;  3.4222507E-04;  9.9921375E+02;  1.0000000E-01; -6.5138892E+02;3; -6.1302004E+00;  0.0000000E+00; -1.2727116E+00;0; -5.5038063E-03;  3.9940227E+04;  0.0000000E+00; -1.9902223E-01;  4.0000000E+04;  0.0000000E+00;  4.0000133E+04; -1.6108189E-03;  0.0000000E+00; -3.8929875E-03;  2.9669144E+02;
  3.3185932E-01;  9.9999998E-03; -1.0997855E-01;4478;  2.2328144E-02;  0.0000000E+00;  2.6508281E-04;  9.9914148E+02;  1.0000000E-01; -7.1128845E+02;3; -6.2937055E+00;  0.0000000E+00; -1.1894479E+00;0; -3.6846586E-03;  3.9934664E+04;  0.0000000E+00; -1.5754072E-01;  4.0000000E+04;  0.0000000E+00;  3.9999625E+04; -1.2085417E-04;  0.0000000E+00; -3.5638043E-03;  2.2679942E+02;
  3.4151599E-01;  9.9999998E-03; -2.6996550E-01;4523;  1.4574626E-02;  0.0000000E+00;  6.7404861E-04;  9.9782410E+02;  1.0000000E-01; -1.8027144E+03;3; -4.2759252E+00;  0.0000000E+00; -2.1135538E+00;0; -2.8349515E-02;  3.9813352E+04;  0.0000000E+00;  1.4866038E-01;  4.0000000E+04;  0.0000000E+00;  4.0020758E+04; -2.0466365E-02;  0.0000000E+00; -7.8831501E-03;  2.7656262E+03;
  3.4160501E-01;  9.9999998E-03; -2.5996944E-01;4524;  1.5140245E-02;  0.0000000E+00;  6.2133343E-04;  9.9779401E+02;  1.0000000E-01; -1.8276025E+03;3; -4.3471251E+00;  0.0000000E+00; -2.0189655E+00;0; -2.6349496E-02;  3.9810570E+04;  0.0000000E+00;  3.3306116E-01;  4.0000000E+04;  0.0000000E+00;  4.0020145E+04; -2.0373221E-02;  0.0000000E+00; -5.9762746E-03;  2.7351743E+03;
  3.4171760E-01;  9.9999998E-03; -2.4997361E-01;4525;  1.5694816E-02;  0.0000000E+00;  5.2882748E-04;  9.9780933E+02;  1.0000000E-01; -1.8149115E+03;3; -4.4282141E+00;  0.0000000E+00; -1.9521530E+00;0; -2.4592351E-02;  3.9811469E+04;  0.0000000E+00;  4.4540125E-01;  4.0000000E+04;  0.0000000E+00;  4.0019723E+04; -2.0298319E-02;  0.0000000E+00; -4.2940332E-03;  2.7146133E+03;
  3.4180322E-01;  9.9999998E-03; -2.3997921E-01;4526;  1.6240103E-02;  0.0000000E+00;  4.4772148E-04;  9.9786090E+02;  1.0000000E-01; -1.7721967E+03;3; -4.5215201E+00;  0.0000000E+00; -1.9068295E+00;0; -2.3502517E-02;  3.9816020E+04;  0.0000000E+00;  4.9094689E-01;  4.0000000E+04;  0.0000000E+00;  4.0018805E+04; -2.0208860E-02;  0.0000000E+00; -3.2936577E-03;  2.6176919E+03;
  3.4184292E-01;  9.9999998E-03; -2.2999023E-01;4527;  1.6775288E-02;  0.0000000E+00;  3.8780007E-04;  9.9794818E+02;  1.0000000E-01; -1.6999025E+03;3; -4.6247334E+00;  0.0000000E+00; -1.8590559E+00;0; -2.2882132E-02;  3.9824051E+04;  0.0000000E+00;  4.7564709E-01;  4.0000000E+04;  0.0000000E+00;  4.0016566E+04; -2.0069344E-02;  0.0000000E+00; -2.8127884E-03;  2.3614395E+03;
  3.4185219E-01;  9.9999998E-03; -2.2000237E-01;4528;  1.7299023E-02;  0.0000000E+00;  3.2582556E-04;  9.9808026E+02;  1.0000000E-01; -1.5904734E+03;3; -4.7370892E+00;  0.0000000E+00; -1.8196839E+00;0; -2.2448756E-02;  3.9835613E+04;  0.0000000E+00;  4.0778735E-01;  4.0000000E+04;  0.0000000E+00;  4.0015312E+04; -1.9844647E-02;  0.0000000E+00; -2.6041092E-03;  2.1600671E+03;
  3.4184664E-01;  9.9999998E-03; -2.1000782E-01;4529;  1.7809518E-02;  0.0000000E+00;  2.7134086E-04;  9.9826154E+02;  1.0000000E-01; -1.4403048E+03;3; -4.8531795E+00;  0.0000000E+00; -1.7795314E+00;0; -2.2078337E-02;  3.9849906E+04;  0.0000000E+00;  3.0130446E-01;  4.0000000E+04;  0.0000000E+00;  4.0015004E+04; -1.9495249E-02;  0.0000000E+00; -2.5830879E-03;  2.0621650E+03;
  3.4183154E-01;  9.9999998E-03; -2.0000832E-01;4530;  1.8304201E-02;  0.0000000E+00;  2.3182899E-04;  9.9845990E+02;  1.0000000E-01; -1.2759639E+03;3; -4.9695053E+00;  0.0000000E+00; -1.7347984E+00;0; -2.1643301E-02;  3.9866371E+04;  0.0000000E+00;  1.7393091E-01;  4.0000000E+04;  0.0000000E+00;  4.0014324E+04; -1.8980753E-02;  0.0000000E+00; -2.6625483E-03;  1.9257540E+03;
  3.4180680E-01;  9.9999998E-03; -1.9000885E-01;4531;  1.8782914E-02;  0.0000000E+00;  2.0047069E-04;  9.9865808E+02;  1.0000000E-01; -1.1117710E+03;3; -5.0935640E+00;  0.0000000E+00; -1.6857612E+00;0; -2.1039978E-02;  3.9883430E+04;  0.0000000E+00;  4.2811766E-02;  4.0000000E+04;  0.0000000E+00;  4.0012914E+04; -1.8269954E-02;  0.0000000E+00; -2.7700230E-03;  1.7103317E+03;
  3.4177402E-01;  9.9999998E-03; -1.8001083E-01;4532;  1.9247023E-02;  0.0000000E+00;  1.7134083E-04;  9.9884399E+02;  1.0000000E-01; -9.5775061E+02;3; -5.2225871E+00;  0.0000000E+00; -1.6335583E+00;0; -2.0212865E-02;  3.9900391E+04;  0.0000000E+00; -7.6278619E-02;  4.0000000E+04;  0.0000000E+00;  4.0010840E+04; -1.7349888E-02;  0.0000000E+00; -2.8629769E-03;  1.4506451E+03;
  3.4174684E-01;  9.9999998E-03; -1.7001362E-01;4533;  1.9698527E-02;  0.0000000E+00;  1.4026830E-04;  9.9901001E+02;  1.0000000E-01; -8.2017426E+02;3; -5.3642545E+00;  0.0000000E+00; -1.5760480E+00;0; -1.9144086E-02;  3.9915516E+04;  0.0000000E+00; -1.7026219E-01;  4.0000000E+04;  0.0000000E+00;  4.0008602E+04; -1.6234217E-02;  0.0000000E+00; -2.9098683E-03;  1.1777543E+03;
  3.4174287E-01;  9.9999998E-03; -1.6001488E-01;4534;  2.0139312E-02;  0.0000000E+00;  1.0466141E-04;  9.9913782E+02;  1.0000000E-01; -7.1430072E+02;3; -5.5121908E+00;  0.0000000E+00; -1.5145642E+00;0; -1.7847326E-02;  3.9928133E+04;  0.0000000E+00; -2.3112765E-01;  4.0000000E+04;  0.0000000E+00;  4.0006293E+04; -1.4963628E-02;  0.0000000E+00; -2.8836983E-03;  9.1347253E+02;
  3.4177133E-01;  9.9999998E-03; -1.5001081E-01;4535;  2.0570306E-02;  0.0000000E+00;  6.3272171E-05;  9.9922620E+02;  1.0000000E-01; -6.4106824E+02;3; -5.6641445E+00;  0.0000000E+00; -1.4469727E+00;0; -1.6365731E-02;  3.9937488E+04;  0.0000000E+00; -2.5689372E-01;  4.0000000E+04;  0.0000000E+00;  4.0004039E+04; -1.3601975E-02;  0.0000000E+00; -2.7637566E-03;  6.7907568E+02;
  3.4182775E-01;  9.9999998E-03; -1.3999891E-01;4536;  2.0990185E-02;  0.0000000E+00;  1.6118365E-05;  9.9927423E+02;  1.0000000E-01; -6.0126691E+02;3; -5.8288898E+00;  0.0000000E+00; -1.3760961E+00;0; -1.4768649E-02;  3.9943023E+04;  0.0000000E+00; -2.5125134E-01;  4.0000000E+04;  0.0000000E+00;  4.0002211E+04; -1.2229498E-02;  0.0000000E+00; -2.5391511E-03;  4.9430591E+02;
  3.4188774E-01;  9.9999998E-03; -1.2998338E-01;4537;  2.1396725E-02;  0.0000000E+00; -3.4955588E-05;  9.9928363E+02;  1.0000000E-01; -5.9351404E+02;3; -5.9943428E+00;  0.0000000E+00; -1.3024962E+00;0; -1.3139175E-02;  3.9944859E+04;  0.0000000E+00; -2.2188008E-01;  4.0000000E+04;  0.0000000E+00;  4.0001004E+04; -1.0928252E-02;  0.0000000E+00; -2.2109239E-03;  3.6445712E+02;
  3.4192905E-01;  9.9999998E-03; -1.1997094E-01;4538;  2.1785397E-02;  0.0000000E+00; -8.7545559E-05;  9.9925708E+02;  1.0000000E-01; -6.1548871E+02;3; -6.1566110E+00;  0.0000000E+00; -1.2281262E+00;0; -1.1564710E-02;  3.9943422E+04;  0.0000000E+00; -1.7816788E-01;  4.0000000E+04;  0.0000000E+00;  4.0000301E+04; -9.7801061E-03;  0.0000000E+00; -1.7846043E-03;  2.7516452E+02;
  3.4195185E-01;  9.9999998E-03; -1.0996552E-01;4539;  2.2150096E-02;  0.0000000E+00; -1.3973241E-04;  9.9920294E+02;  1.0000000E-01; -6.6032697E+02;3; -6.3199358E+00;  0.0000000E+00; -1.1536318E+00;0; -1.0132516E-02;  3.9938871E+04;  0.0000000E+00; -1.2916605E-01;  4.0000000E+04;  0.0000000E+00;  4.0000445E+04; -8.8696107E-03;  0.0000000E+00; -1.2629046E-03;  2.1890979E+02;
  3.5155904E-01;  9.9999998E-03; -2.6996869E-01;4584;  1.4347419E-02;  0.0000000E+00;  6.0882769E-05;  9.9788495E+02;  1.0000000E-01; -1.7522960E+03;3; -4.3100953E+00;  0.0000000E+00; -2.0220423E+00;0; -2.9027037E-02;  3.9817297E+04;  0.0000000E+00;  2.6031831E-01;  4.0000000E+04;  0.0000000E+00;  4.0019656E+04; -2.2735385E-02;  0.0000000E+00; -6.2916530E-03;  2.6617107E+03;
  3.5164538E-01;  9.9999998E-03; -2.5997445E-01;4585;  1.4915411E-02;  0.0000000E+00;  5.3179490E-05;  9.9789093E+02;  1.0000000E-01; -1.7473085E+03;3; -4.3879666E+00;  0.0000000E+00; -1.9331311E+00;0; -2.7406674E-02;  3.9818832E+04;  0.0000000E+00;  3.7432158E-01;  4.0000000E+04;  0.0000000E+00;  4.0018449E+04; -2.2662096E-02;  0.0000000E+00; -4.7445786E-03;  2.5157598E+03;
  3.5174456E-01;  9.9999998E-03; -2.4998078E-01;4586;  1.5470600E-02;  0.0000000E+00; -2.5880479E-05;  9.9794031E+02;  1.0000000E-01; -1.7064208E+03;3; -4.4748373E+00;  0.0000000E+00; -1.8751701E+00;0; -2.5692020E-02;  3.9823168E+04;  0.0000000E+00;  4.2989817E-01;  4.0000000E+04;  0.0000000E+00;  4.0017301E+04; -2.2621300E-02;  0.0000000E+00; -3.0707202E-03;  2.4064424E+03;
  3.5181746E-01;  9.9999998E-03; -2.3998909E-01;4587;  1.6014947E-02;  0.0000000E+00; -1.0123863E-04;  9.9802136E+02;  1.0000000E-01; -1.6392622E+03;3; -4.5657458E+00;  0.0000000E+00; -1.8288522E+00;0; -2.4642805E-02;  3.9830355E+04;  0.0000000E+00;  4.3110871E-01;  4.0000000E+04;  0.0000000E+00;  4.0016066E+04; -2.2590706E-02;  0.0000000E+00; -2.0520992E-03;  2.2451538E+03;
  3.5184589E-01;  9.9999998E-03; -2.3000136E-01;4588;  1.6549027E-02;  0.0000000E+00; -1.6386490E-04;  9.9812769E+02;  1.0000000E-01; -1.5511659E+03;3; -4.6621189E+00;  0.0000000E+00; -1.7909164E+00;0; -2.4093114E-02;  3.9840516E+04;  0.0000000E+00;  3.8549659E-01;  4.0000000E+04;  0.0000000E+00;  4.0014211E+04; -2.2542728E-02;  0.0000000E+00; -1.5503862E-03;  2.0103955E+03;
  3.5184646E-01;  9.9999998E-03; -2.2001103E-01;4589;  1.7072557E-02;  0.0000000E+00; -2.2769914E-04;  9.9827576E+02;  1.0000000E-01; -1.4285027E+03;3; -4.7692327E+00;  0.0000000E+00; -1.7564503E+00;0; -2.3793589E-02;  3.9852652E+04;  0.0000000E+00;  3.0276507E-01;  4.0000000E+04;  0.0000000E+00;  4.0013570E+04; -2.2449516E-02;  0.0000000E+00; -1.3440745E-03;  1.8969037E+03;
  3.5183161E-01;  9.9999998E-03; -2.1001190E-01;4590;  1.7583609E-02;  0.0000000E+00; -2.7600766E-04;  9.9845544E+02;  1.0000000E-01; -1.2796180E+03;3; -4.8834085E+00;  0.0000000E+00; -1.7140585E+00;0; -2.3615101E-02;  3.9866457E+04;  0.0000000E+00;  1.9543326E-01;  4.0000000E+04;  0.0000000E+00;  4.0013734E+04; -2.2279529E-02;  0.0000000E+00; -1.3355727E-03;  1.8593307E+03;
  3.5180876E-01;  9.9999998E-03; -2.0000830E-01;4591;  1.8081361E-02;  0.0000000E+00; -3.0764911E-04;  9.9863623E+02;  1.0000000E-01; -1.1298445E+03;3; -5.0003662E+00;  0.0000000E+00; -1.6710806E+00;0; -2.3411347E-02;  3.9881598E+04;  0.0000000E+00;  7.6934002E-02;  4.0000000E+04;  0.0000000E+00;  4.0012957E+04; -2.2002565E-02;  0.0000000E+00; -1.4087810E-03;  1.7339636E+03;
  3.5178486E-01;  9.9999998E-03; -1.9000541E-01;4592;  1.8566029E-02;  0.0000000E+00; -3.3253146E-04;  9.9880554E+02;  1.0000000E-01; -9.8960156E+02;3; -5.1229839E+00;  0.0000000E+00; -1.6266011E+00;0; -2.3080185E-02;  3.9896641E+04;  0.0000000E+00; -3.8299277E-02;  4.0000000E+04;  0.0000000E+00;  4.0011352E+04; -2.1596868E-02;  0.0000000E+00; -1.4833171E-03;  1.5131389E+03;
  3.5176909E-01;  9.9999998E-03; -1.8000425E-01;4593;  1.9038152E-02;  0.0000000E+00; -3.5623307E-04;  9.9896136E+02;  1.0000000E-01; -8.6046942E+02;3; -5.2535663E+00;  0.0000000E+00; -1.5743135E+00;0; -2.2567796E-02;  3.9911043E+04;  0.0000000E+00; -1.3665318E-01;  4.0000000E+04;  0.0000000E+00;  4.0009262E+04; -2.1054849E-02;  0.0000000E+00; -1.5129471E-03;  1.2537601E+03;
  3.5177085E-01;  9.9999998E-03; -1.7000259E-01;4594;  1.9498631E-02;  0.0000000E+00; -3.8133588E-04;  9.9909705E+02;  1.0000000E-01; -7.4807758E+02;3; -5.3936715E+00;  0.0000000E+00; -1.5174637E+00;0; -2.1850789E-02;  3.9923926E+04;  0.0000000E+00; -2.0754406E-01;  4.0000000E+04;  0.0000000E+00;  4.0006957E+04; -2.0387067E-02;  0.0000000E+00; -1.4637233E-03;  9.9691370E+02;
  3.5179386E-01;  9.9999998E-03; -1.5999688E-01;4595;  1.9948110E-02;  0.0000000E+00; -4.0887875E-04;  9.9919812E+02;  1.0000000E-01; -6.6432684E+02;3; -5.5393600E+00;  0.0000000E+00; -1.4578068E+00;0; -2.0931993E-02;  3.9934215E+04;  0.0000000E+00; -2.4539059E-01;  4.0000000E+04;  0.0000000E+00;  4.0005020E+04; -1.9622833E-02;  0.0000000E+00; -1.3091599E-03;  7.6490088E+02;
  3.5183236E-01;  9.9999998E-03; -1.4998591E-01;4596;  2.0385630E-02;  0.0000000E+00; -4.3883245E-04;  9.9927472E+02;  1.0000000E-01; -6.0087183E+02;3; -5.6922636E+00;  0.0000000E+00; -1.3953587E+00;0; -1.9840313E-02;  3.9942051E+04;  0.0000000E+00; -2.5048196E-01;  4.0000000E+04;  0.0000000E+00;  4.0003078E+04; -1.8807717E-02;  0.0000000E+00; -1.0325967E-03;  5.7308783E+02;
  3.5187244E-01;  9.9999998E-03; -1.3997397E-01;4597;  2.0809308E-02;  0.0000000E+00; -4.7040320E-04;  9.9931659E+02;  1.0000000E-01; -5.6620618E+02;3; -5.8477702E+00;  0.0000000E+00; -1.3312920E+00;0; -1.8629206E-02;  3.9946730E+04;  0.0000000E+00; -2.2833544E-01;  4.0000000E+04;  0.0000000E+00;  4.0001730E+04; -1.7998897E-02;  0.0000000E+00; -6.3030905E-04;  4.2844757E+02;
  3.5190055E-01;  9.9999998E-03; -1.2996675E-01;4598;  2.1214908E-02;  0.0000000E+00; -5.0221902E-04;  9.9933264E+02;  1.0000000E-01; -5.5287323E+02;3; -6.0108557E+00;  0.0000000E+00; -1.2669346E+00;0; -1.7370183E-02;  3.9948551E+04;  0.0000000E+00; -1.8770419E-01;  4.0000000E+04;  0.0000000E+00;  4.0001137E+04; -1.7260367E-02;  0.0000000E+00; -1.0981550E-04;  3.2540314E+02;
  3.5191736E-01;  9.9999998E-03; -1.1996362E-01;4599;  2.1597451E-02;  0.0000000E+00; -5.3313712E-04;  9.9932202E+02;  1.0000000E-01; -5.6171246E+02;3; -6.1754532E+00;  0.0000000E+00; -1.2028959E+00;0; -1.6142916E-02;  3.9947805E+04;  0.0000000E+00; -1.3814817E-01;  4.0000000E+04;  0.0000000E+00;  4.0000820E+04; -1.6662290E-02;  0.0000000E+00;  5.1937363E-04;  2.6172238E+02;
  3.5192701E-01;  9.9999998E-03; -1.0996297E-01;4600;  2.1951461E-02;  0.0000000E+00; -5.6189339E-04;  9.9928949E+02;  1.0000000E-01; -5.8862531E+02;3; -6.3387928E+00;  0.0000000E+00; -1.1402755E+00;0; -1.5020365E-02;  3.9944855E+04;  0.0000000E+00; -8.8121124E-02;  4.0000000E+04;  0.0000000E+00;  4.0001359E+04; -1.6268149E-02;  0.0000000E+00;  1.2477845E-03;  2.6732040E+02;
  3.6157027E-01;  9.9999998E-03; -2.6997039E-01;4645;  1.4108365E-02;  0.0000000E+00; -6.2869635E-04;  9.9792615E+02;  1.0000000E-01; -1.7181241E+03;3; -4.3638563E+00;  0.0000000E+00; -1.9576315E+00;0; -2.8435241E-02;  3.9818828E+04;  0.0000000E+00;  2.4042006E-01;  4.0000000E+04;  0.0000000E+00;  4.0019609E+04; -2.4200203E-02;  0.0000000E+00; -4.2350395E-03;  2.6551140E+03;
  3.6164519E-01;  9.9999998E-03; -2.5997716E-01;4646;  1.4680866E-02;  0.0000000E+00; -5.8247475E-04;  9.9796320E+02;  1.0000000E-01; -1.6874584E+03;3; -4.4359846E+00;  0.0000000E+00; -1.8730615E+00;0; -2.7394300E-02;  3.9823895E+04;  0.0000000E+00;  3.1859913E-01;  4.0000000E+04;  0.0000000E+00;  4.0017688E+04; -2.4186786E-02;  0.0000000E+00; -3.2075136E-03;  2.4140166E+03;
  3.6172661E-01;  9.9999998E-03; -2.4998499E-01;4647;  1.5240846E-02;  0.0000000E+00; -6.2769774E-04;  9.9803973E+02;  1.0000000E-01; -1.6240527E+03;3; -4.5184031E+00;  0.0000000E+00; -1.8116571E+00;0; -2.5938476E-02;  3.9831223E+04;  0.0000000E+00;  3.5105228E-01;  4.0000000E+04;  0.0000000E+00;  4.0016031E+04; -2.4209872E-02;  0.0000000E+00; -1.7286035E-03;  2.2093069E+03;
  3.6178574E-01;  9.9999998E-03; -2.3999481E-01;4648;  1.5789144E-02;  0.0000000E+00; -6.8937964E-04;  9.9813733E+02;  1.0000000E-01; -1.5431661E+03;3; -4.6042013E+00;  0.0000000E+00; -1.7675211E+00;0; -2.4993014E-02;  3.9840602E+04;  0.0000000E+00;  3.4077173E-01;  4.0000000E+04;  0.0000000E+00;  4.0014262E+04; -2.4258085E-02;  0.0000000E+00; -7.3492940E-04;  1.9955018E+03;
  3.6181092E-01;  9.9999998E-03; -2.3000693E-01;4649;  1.6325328E-02;  0.0000000E+00; -7.5051491E-04;  9.9826239E+02;  1.0000000E-01; -1.4395641E+03;3; -4.6958027E+00;  0.0000000E+00; -1.7313906E+00;0; -2.4532134E-02;  3.9851840E+04;  0.0000000E+00;  2.9350746E-01;  4.0000000E+04;  0.0000000E+00;  4.0012668E+04; -2.4314661E-02;  0.0000000E+00; -2.1747359E-04;  1.7865934E+03;
  3.6181340E-01;  9.9999998E-03; -2.2001398E-01;4650;  1.6850224E-02;  0.0000000E+00; -8.1089279E-04;  9.9841724E+02;  1.0000000E-01; -1.3112715E+03;3; -4.7963800E+00;  0.0000000E+00; -1.6980348E+00;0; -2.4373487E-02;  3.9864379E+04;  0.0000000E+00;  2.1716711E-01;  4.0000000E+04;  0.0000000E+00;  4.0012613E+04; -2.4360472E-02;  0.0000000E+00; -1.3013955E-05;  1.7321589E+03;
  3.6180001E-01;  9.9999998E-03; -2.1001218E-01;4651;  1.7362673E-02;  0.0000000E+00; -8.5173512E-04;  9.9859064E+02;  1.0000000E-01; -1.1676212E+03;3; -4.9037700E+00;  0.0000000E+00; -1.6620936E+00;0; -2.4378126E-02;  3.9877898E+04;  0.0000000E+00;  1.2241177E-01;  4.0000000E+04;  0.0000000E+00;  4.0012629E+04; -2.4373021E-02;  0.0000000E+00; -5.1062161E-06;  1.7127146E+03;
  3.6178029E-01;  9.9999998E-03; -2.0000637E-01;4652;  1.7862514E-02;  0.0000000E+00; -8.7561004E-04;  9.9875000E+02;  1.0000000E-01; -1.0356250E+03;3; -5.0243182E+00;  0.0000000E+00; -1.6169863E+00;0; -2.4389300E-02;  3.9891652E+04;  0.0000000E+00;  2.1537939E-02;  4.0000000E+04;  0.0000000E+00;  4.0011941E+04; -2.4330750E-02;  0.0000000E+00; -5.8550373E-05;  1.5825775E+03;
  3.6176589E-01;  9.9999998E-03; -1.9000088E-01;4653;  1.8350717E-02;  0.0000000E+00; -8.9387008E-04;  9.9889966E+02;  1.0000000E-01; -9.1162848E+02;3; -5.1481762E+00;  0.0000000E+00; -1.5716240E+00;0; -2.4304627E-02;  3.9905105E+04;  0.0000000E+00; -7.2789371E-02;  4.0000000E+04;  0.0000000E+00;  4.0010094E+04; -2.4217661E-02;  0.0000000E+00; -8.6964181E-05;  1.3582921E+03;
  3.6176389E-01;  9.9999998E-03; -1.7999555E-01;4654;  1.8827468E-02;  0.0000000E+00; -9.1068109E-04;  9.9903357E+02;  1.0000000E-01; -8.0066864E+02;3; -5.2801247E+00;  0.0000000E+00; -1.5198730E+00;0; -2.4067823E-02;  3.9917652E+04;  0.0000000E+00; -1.4917481E-01;  4.0000000E+04;  0.0000000E+00;  4.0008082E+04; -2.4026802E-02;  0.0000000E+00; -4.1021343E-05;  1.1054185E+03;
  3.6177763E-01;  9.9999998E-03; -1.6998839E-01;4655;  1.9293064E-02;  0.0000000E+00; -9.2762441E-04;  9.9914301E+02;  1.0000000E-01; -7.1000458E+02;3; -5.4188409E+00;  0.0000000E+00; -1.4660146E+00;0; -2.3649601E-02;  3.9928676E+04;  0.0000000E+00; -1.9917248E-01;  4.0000000E+04;  0.0000000E+00;  4.0005957E+04; -2.3764741E-02;  0.0000000E+00;  1.1513952E-04;  8.6570306E+02;
  3.6180651E-01;  9.9999998E-03; -1.5997820E-01;4656;  1.9746771E-02;  0.0000000E+00; -9.4522699E-04;  9.9923718E+02;  1.0000000E-01; -6.3198206E+02;3; -5.5654578E+00;  0.0000000E+00; -1.4112955E+00;0; -2.3045272E-02;  3.9937574E+04;  0.0000000E+00; -2.1897231E-01;  4.0000000E+04;  0.0000000E+00;  4.0004113E+04; -2.3453072E-02;  0.0000000E+00;  4.0780011E-04;  6.6089783E+02;
  3.6183870E-01;  9.9999998E-03; -1.4996812E-01;4657;  2.0186679E-02;  0.0000000E+00; -9.6241868E-04;  9.9930511E+02;  1.0000000E-01; -5.7568738E+02;3; -5.7179341E+00;  0.0000000E+00; -1.3508959E+00;0; -2.2273609E-02;  3.9944527E+04;  0.0000000E+00; -2.1019118E-01;  4.0000000E+04;  0.0000000E+00;  4.0002680E+04; -2.3123411E-02;  0.0000000E+00;  8.4980228E-04;  5.0127557E+02;
  3.6186135E-01;  9.9999998E-03; -1.3996273E-01;4658;  2.0609330E-02;  0.0000000E+00; -9.7850652E-04;  9.9935199E+02;  1.0000000E-01; -5.3687366E+02;3; -5.8752065E+00;  0.0000000E+00; -1.2919687E+00;0; -2.1376219E-02;  3.9948934E+04;  0.0000000E+00; -1.7913747E-01;  4.0000000E+04;  0.0000000E+00;  4.0001902E+04; -2.2815583E-02;  0.0000000E+00;  1.4393651E-03;  3.8680615E+02;
  3.6187628E-01;  9.9999998E-03; -1.2996118E-01;4659;  2.1010380E-02;  0.0000000E+00; -9.9229033E-04;  9.9937585E+02;  1.0000000E-01; -5.1707178E+02;3; -6.0356002E+00;  0.0000000E+00; -1.2299036E+00;0; -2.0413583E-02;  3.9951285E+04;  0.0000000E+00; -1.3474305E-01;  4.0000000E+04;  0.0000000E+00;  4.0001531E+04; -2.2578772E-02;  0.0000000E+00;  2.1651890E-03;  3.1758148E+02;
  3.6188731E-01;  9.9999998E-03; -1.1996171E-01;4660;  2.1384362E-02;  0.0000000E+00; -1.0031410E-03;  9.9938373E+02;  1.0000000E-01; -5.1055344E+02;3; -6.1996818E+00;  0.0000000E+00; -1.1693364E+00;0; -1.9451449E-02;  3.9951387E+04;  0.0000000E+00; -8.6138204E-02;  4.0000000E+04;  0.0000000E+00;  4.0001922E+04; -2.2462226E-02;  0.0000000E+00;  3.0107780E-03;  3.1131055E+02;
  3.6189604E-01;  9.9999998E-03; -1.0996352E-01;4661;  2.1726141E-02;  0.0000000E+00; -1.0081036E-03;  9.9937799E+02;  1.0000000E-01; -5.1534338E+02;3; -6.3666430E+00;  0.0000000E+00; -1.1013957E+00;0; -1.8548463E-02;  3.9949992E+04;  0.0000000E+00; -4.0814385E-02;  4.0000000E+04;  0.0000000E+00;  4.0002637E+04; -2.2506375E-02;  0.0000000E+00;  3.9579114E-03;  3.8455624E+02;
  3.7155983E-01;  9.9999998E-03; -2.6997012E-01;4706;  1.3854705E-02;  0.0000000E+00; -1.4137290E-03;  9.9793024E+02;  1.0000000E-01; -1.7147662E+03;3; -4.4139757E+00;  0.0000000E+00; -1.9261910E+00;0; -2.6625633E-02;  3.9816195E+04;  0.0000000E+00;  1.5983994E-01;  4.0000000E+04;  0.0000000E+00;  4.0020949E+04; -2.5164839E-02;  0.0000000E+00; -1.4607941E-03;  2.7916670E+03;
  3.7161896E-01;  9.9999998E-03; -2.5997713E-01;4707;  1.4434563E-02;  0.0000000E+00; -1.2994206E-03;  9.9799780E+02;  1.0000000E-01; -1.6587678E+03;3; -4.4786148E+00;  0.0000000E+00; -1.8288749E+00;0; -2.6458165E-02;  3.9824121E+04;  0.0000000E+00;  2.2400485E-01;  4.0000000E+04;  0.0000000E+00;  4.0018324E+04; -2.5231984E-02;  0.0000000E+00; -1.2261817E-03;  2.4820742E+03;
  3.7167957E-01;  9.9999998E-03; -2.4998550E-01;4708;  1.5002536E-02;  0.0000000E+00; -1.2896520E-03;  9.9808899E+02;  1.0000000E-01; -1.5832144E+03;3; -4.5526133E+00;  0.0000000E+00; -1.7701796E+00;0; -2.5522560E-02;  3.9833879E+04;  0.0000000E+00;  2.5232556E-01;  4.0000000E+04;  0.0000000E+00;  4.0016035E+04; -2.5336523E-02;  0.0000000E+00; -1.8603675E-04;  2.1923066E+03;
  3.7172803E-01;  9.9999998E-03; -2.3999545E-01;4709;  1.5557569E-02;  0.0000000E+00; -1.3260156E-03;  9.9820245E+02;  1.0000000E-01; -1.4892417E+03;3; -4.6306543E+00;  0.0000000E+00; -1.7275220E+00;0; -2.4786603E-02;  3.9844719E+04;  0.0000000E+00;  2.4561280E-01;  4.0000000E+04;  0.0000000E+00;  4.0014020E+04; -2.5476739E-02;  0.0000000E+00;  6.9013616E-04;  1.9367207E+03;
  3.7175453E-01;  9.9999998E-03; -2.3000646E-01;4710;  1.6098320E-02;  0.0000000E+00; -1.3745165E-03;  9.9833582E+02;  1.0000000E-01; -1.3787263E+03;3; -4.7199240E+00;  0.0000000E+00; -1.6854346E+00;0; -2.4466179E-02;  3.9856738E+04;  0.0000000E+00;  2.0887551E-01;  4.0000000E+04;  0.0000000E+00;  4.0012531E+04; -2.5645876E-02;  0.0000000E+00;  1.1796972E-03;  1.7329542E+03;
  3.7176490E-01;  9.9999998E-03; -2.2001165E-01;4711;  1.6625570E-02;  0.0000000E+00; -1.4245656E-03;  9.9849286E+02;  1.0000000E-01; -1.2486560E+03;3; -4.8166118E+00;  0.0000000E+00; -1.6510290E+00;0; -2.4457086E-02;  3.9869535E+04;  0.0000000E+00;  1.4928752E-01;  4.0000000E+04;  0.0000000E+00;  4.0012246E+04; -2.5833463E-02;  0.0000000E+00;  1.3763765E-03;  1.6846282E+03;
  3.7176692E-01;  9.9999998E-03; -2.1000852E-01;4712;  1.7138410E-02;  0.0000000E+00; -1.4550245E-03;  9.9865637E+02;  1.0000000E-01; -1.1131536E+03;3; -4.9242363E+00;  0.0000000E+00; -1.6106105E+00;0; -2.4630761E-02;  3.9882820E+04;  0.0000000E+00;  7.5951569E-02;  4.0000000E+04;  0.0000000E+00;  4.0012402E+04; -2.6025575E-02;  0.0000000E+00;  1.3948131E-03;  1.6491433E+03;
  3.7176636E-01;  9.9999998E-03; -2.0000081E-01;4713;  1.7638629E-02;  0.0000000E+00; -1.4708393E-03;  9.9880463E+02;  1.0000000E-01; -9.9034229E+02;3; -5.0433235E+00;  0.0000000E+00; -1.5665461E+00;0; -2.4830339E-02;  3.9895562E+04;  0.0000000E+00; -9.9952472E-04;  4.0000000E+04;  0.0000000E+00;  4.0011270E+04; -2.6207035E-02;  0.0000000E+00;  1.3766952E-03;  1.5079657E+03;
  3.7177017E-01;  9.9999998E-03; -1.8999192E-01;4714;  1.8127466E-02;  0.0000000E+00; -1.4813663E-03;  9.9893781E+02;  1.0000000E-01; -8.8002441E+02;3; -5.1701779E+00;  0.0000000E+00; -1.5221056E+00;0; -2.4956221E-02;  3.9907992E+04;  0.0000000E+00; -7.1208917E-02;  4.0000000E+04;  0.0000000E+00;  4.0009559E+04; -2.6365256E-02;  0.0000000E+00;  1.4090356E-03;  1.2815585E+03;
  3.7178174E-01;  9.9999998E-03; -1.7998220E-01;4715;  1.8605746E-02;  0.0000000E+00; -1.4908067E-03;  9.9905353E+02;  1.0000000E-01; -7.8412592E+02;3; -5.3022852E+00;  0.0000000E+00; -1.4786224E+00;0; -2.4949979E-02;  3.9919207E+04;  0.0000000E+00; -1.2546656E-01;  4.0000000E+04;  0.0000000E+00;  4.0007582E+04; -2.6493980E-02;  0.0000000E+00;  1.5440014E-03;  1.0322285E+03;
  3.7180048E-01;  9.9999998E-03; -1.6997157E-01;4716;  1.9073000E-02;  0.0000000E+00; -1.4997522E-03;  9.9915247E+02;  1.0000000E-01; -7.0215295E+02;3; -5.4398613E+00;  0.0000000E+00; -1.4331309E+00;0; -2.4777092E-02;  3.9929336E+04;  0.0000000E+00; -1.5713862E-01;  4.0000000E+04;  0.0000000E+00;  4.0005684E+04; -2.6595779E-02;  0.0000000E+00;  1.8186870E-03;  8.0366382E+02;
  3.7182003E-01;  9.9999998E-03; -1.5996292E-01;4717;  1.9527564E-02;  0.0000000E+00; -1.5076729E-03;  9.9923969E+02;  1.0000000E-01; -6.2990808E+02;3; -5.5841355E+00;  0.0000000E+00; -1.3834409E+00;0; -2.4424504E-02;  3.9937512E+04;  0.0000000E+00; -1.6360503E-01;  4.0000000E+04;  0.0000000E+00;  4.0004156E+04; -2.6682412E-02;  0.0000000E+00;  2.2579080E-03;  6.1915387E+02;
  3.7183514E-01;  9.9999998E-03; -1.4995910E-01;4718;  1.9966211E-02;  0.0000000E+00; -1.5138504E-03;  9.9930963E+02;  1.0000000E-01; -5.7193439E+02;3; -5.7343998E+00;  0.0000000E+00; -1.3335786E+00;0; -2.3902038E-02;  3.9943957E+04;  0.0000000E+00; -1.4695375E-01;  4.0000000E+04;  0.0000000E+00;  4.0003211E+04; -2.6774587E-02;  0.0000000E+00;  2.8725495E-03;  4.8722046E+02;
  3.7184602E-01;  9.9999998E-03; -1.3995896E-01;4719;  2.0385053E-02;  0.0000000E+00; -1.5165269E-03;  9.9935773E+02;  1.0000000E-01; -5.3213306E+02;3; -5.8876653E+00;  0.0000000E+00; -1.2832361E+00;0; -2.3241779E-02;  3.9948395E+04;  0.0000000E+00; -1.1343668E-01;  4.0000000E+04;  0.0000000E+00;  4.0002613E+04; -2.6900390E-02;  0.0000000E+00;  3.6586113E-03;  4.0897873E+02;
  3.7185463E-01;  9.9999998E-03; -1.2996082E-01;4720;  2.0779103E-02;  0.0000000E+00; -1.5132714E-03;  9.9939648E+02;  1.0000000E-01; -4.9998581E+02;3; -6.0479355E+00;  0.0000000E+00; -1.2213604E+00;0; -2.2491669E-02;  3.9951320E+04;  0.0000000E+00; -7.1485482E-02;  4.0000000E+04;  0.0000000E+00;  4.0002527E+04; -2.7090374E-02;  0.0000000E+00;  4.5987051E-03;  3.9099121E+02;
  3.7186351E-01;  9.9999998E-03; -1.1996379E-01;4721;  2.1143001E-02;  0.0000000E+00; -1.5017015E-03;  9.9941925E+02;  1.0000000E-01; -4.8112216E+02;3; -6.2113366E+00;  0.0000000E+00; -1.1524733E+00;0; -2.1704404E-02;  3.9952672E+04;  0.0000000E+00; -2.9249350E-02;  4.0000000E+04;  0.0000000E+00;  4.0002988E+04; -2.7372822E-02;  0.0000000E+00;  5.6684180E-03;  4.3887781E+02;
  3.7187222E-01;  9.9999998E-03; -1.0996728E-01;4722;  2.1471884E-02;  0.0000000E+00; -1.4772189E-03;  9.9943463E+02;  1.0000000E-01; -4.6838177E+02;3; -6.3771830E+00;  0.0000000E+00; -1.0662680E+00;0; -2.0927751E-02;  3.9952898E+04;  0.0000000E+00;  7.0920214E-03;  4.0000000E+04;  0.0000000E+00;  4.0004008E+04; -2.7768264E-02;  0.0000000E+00;  6.8405122E-03;  5.4101990E+02;
  3.8155663E-01;  9.9999998E-03; -2.6996836E-01;4767;  1.3591439E-02;  0.0000000E+00; -2.3040134E-03;  9.9788666E+02;  1.0000000E-01; -1.7508639E+03;3; -4.4339728E+00;  0.0000000E+00; -2.0184665E+00;0; -2.3717906E-02;  3.9809625E+04;  0.0000000E+00;  6.5700561E-02;  4.0000000E+04;  0.0000000E+00;  4.0022879E+04; -2.5834132E-02;  0.0000000E+00;  2.1162252E-03;  3.0248511E+03;
  3.8159418E-01;  9.9999998E-03; -2.5997487E-01;4768;  1.4173349E-02;  0.0000000E+00; -2.0807332E-03;  9.9797742E+02;  1.0000000E-01; -1.6756561E+03;3; -4.5098014E+00;  0.0000000E+00; -1.8281600E+00;0; -2.4972627E-02;  3.9819621E+04;  0.0000000E+00;  1.2127403E-01;  4.0000000E+04;  0.0000000E+00;  4.0020094E+04; -2.5995806E-02;  0.0000000E+00;  1.0231789E-03;  2.6844412E+03;
  3.8163856E-01;  9.9999998E-03; -2.4998248E-01;4769;  1.4750777E-02;  0.0000000E+00; -2.0158850E-03;  9.9808624E+02;  1.0000000E-01; -1.5855353E+03;3; -4.5791655E+00;  0.0000000E+00; -1.7421944E+00;0; -2.4634741E-02;  3.9830730E+04;  0.0000000E+00;  1.4912319E-01;  4.0000000E+04;  0.0000000E+00;  4.0017398E+04; -2.6200134E-02;  0.0000000E+00;  1.5653929E-03;  2.3617910E+03;
  3.8168457E-01;  9.9999998E-03; -2.3999093E-01;4770;  1.5313270E-02;  0.0000000E+00; -2.0172496E-03;  9.9821039E+02;  1.0000000E-01; -1.4826740E+03;3; -4.6512694E+00;  0.0000000E+00; -1.6950644E+00;0; -2.4220226E-02;  3.9842738E+04;  0.0000000E+00;  1.5058725E-01;  4.0000000E+04;  0.0000000E+00;  4.0015398E+04; -2.6449936E-02;  0.0000000E+00;  2.2297096E-03;  2.0915522E+03;
  3.8171932E-01;  9.9999998E-03; -2.3000005E-01;4771;  1.5859252E-02;  0.0000000E+00; -2.0400169E-03;  9.9834583E+02;  1.0000000E-01; -1.3704303E+03;3; -4.7391872E+00;  0.0000000E+00; -1.6543405E+00;0; -2.4111515E-02;  3.9855543E+04;  0.0000000E+00;  1.3015488E-01;  4.0000000E+04;  0.0000000E+00;  4.0013695E+04; -2.6744455E-02;  0.0000000E+00;  2.6329400E-03;  1.8653707E+03;
  3.8174286E-01;  9.9999998E-03; -2.2000355E-01;4772;  1.6388496E-02;  0.0000000E+00; -2.0723571E-03;  9.9850177E+02;  1.0000000E-01; -1.2412488E+03;3; -4.8298779E+00;  0.0000000E+00; -1.6357497E+00;0; -2.4266863E-02;  3.9868434E+04;  0.0000000E+00;  9.2979468E-02;  4.0000000E+04;  0.0000000E+00;  4.0013117E+04; -2.7079768E-02;  0.0000000E+00;  2.8129048E-03;  1.7790089E+03;
  3.8176051E-01;  9.9999998E-03; -2.0999895E-01;4773;  1.6901271E-02;  0.0000000E+00; -2.0898690E-03;  9.9865607E+02;  1.0000000E-01; -1.1134005E+03;3; -4.9334674E+00;  0.0000000E+00; -1.6047847E+00;0; -2.4595227E-02;  3.9881492E+04;  0.0000000E+00;  4.5601957E-02;  4.0000000E+04;  0.0000000E+00;  4.0012668E+04; -2.7448507E-02;  0.0000000E+00;  2.8532799E-03;  1.7047103E+03;
  3.8177541E-01;  9.9999998E-03; -1.9998969E-01;4774;  1.7400594E-02;  0.0000000E+00; -2.0954723E-03;  9.9879449E+02;  1.0000000E-01; -9.9873712E+02;3; -5.0519919E+00;  0.0000000E+00; -1.5605140E+00;0; -2.4956640E-02;  3.9893926E+04;  0.0000000E+00; -4.4026310E-03;  4.0000000E+04;  0.0000000E+00;  4.0011336E+04; -2.7841153E-02;  0.0000000E+00;  2.8845118E-03;  1.5360558E+03;
  3.8179007E-01;  9.9999998E-03; -1.8997899E-01;4775;  1.7889125E-02;  0.0000000E+00; -2.0982102E-03;  9.9891559E+02;  1.0000000E-01; -8.9839429E+02;3; -5.1775546E+00;  0.0000000E+00; -1.5151364E+00;0; -2.5256792E-02;  3.9905477E+04;  0.0000000E+00; -4.9159940E-02;  4.0000000E+04;  0.0000000E+00;  4.0009527E+04; -2.8248623E-02;  0.0000000E+00;  2.9918307E-03;  1.2958158E+03;
  3.8180536E-01;  9.9999998E-03; -1.7996888E-01;4776;  1.8367451E-02;  0.0000000E+00; -2.1010807E-03;  9.9902399E+02;  1.0000000E-01; -8.0861902E+02;3; -5.3047023E+00;  0.0000000E+00; -1.4763409E+00;0; -2.5436813E-02;  3.9916164E+04;  0.0000000E+00; -8.1649743E-02;  4.0000000E+04;  0.0000000E+00;  4.0007688E+04; -2.8664719E-02;  0.0000000E+00;  3.2279061E-03;  1.0435175E+03;
  3.8181818E-01;  9.9999998E-03; -1.6996150E-01;4777;  1.8834224E-02;  0.0000000E+00; -2.1031846E-03;  9.9912231E+02;  1.0000000E-01; -7.2713989E+02;3; -5.4379964E+00;  0.0000000E+00; -1.4376050E+00;0; -2.5456928E-02;  3.9925547E+04;  0.0000000E+00; -9.6952260E-02;  4.0000000E+04;  0.0000000E+00;  4.0005969E+04; -2.9087566E-02;  0.0000000E+00;  3.6306391E-03;  8.2462415E+02;
  3.8182521E-01;  9.9999998E-03; -1.5995830E-01;4778;  1.9286674E-02;  0.0000000E+00; -2.1027115E-03;  9.9920380E+02;  1.0000000E-01; -6.5963562E+02;3; -5.5800133E+00;  0.0000000E+00; -1.3898436E+00;0; -2.5295842E-02;  3.9933480E+04;  0.0000000E+00; -9.3378045E-02;  4.0000000E+04;  0.0000000E+00;  4.0004594E+04; -2.9520886E-02;  0.0000000E+00;  4.2250445E-03;  6.6248145E+02;
  3.8182968E-01;  9.9999998E-03; -1.4995866E-01;4779;  1.9721134E-02;  0.0000000E+00; -2.0974558E-03;  9.9927271E+02;  1.0000000E-01; -6.0255084E+02;3; -5.7293587E+00;  0.0000000E+00; -1.3384266E+00;0; -2.4954399E-02;  3.9939680E+04;  0.0000000E+00; -7.3057055E-02;  4.0000000E+04;  0.0000000E+00;  4.0003781E+04; -2.9975617E-02;  0.0000000E+00;  5.0212177E-03;  5.6244177E+02;
  3.8183543E-01;  9.9999998E-03; -1.3996129E-01;4780;  2.0133073E-02;  0.0000000E+00; -2.0835854E-03;  9.9933063E+02;  1.0000000E-01; -5.5455219E+02;3; -5.8852596E+00;  0.0000000E+00; -1.2704899E+00;0; -2.4455104E-02;  3.9944516E+04;  0.0000000E+00; -4.1579295E-02;  4.0000000E+04;  0.0000000E+00;  4.0003855E+04; -3.0466562E-02;  0.0000000E+00;  6.0114576E-03;  5.2385321E+02;
  3.8184199E-01;  9.9999998E-03; -1.2996514E-01;4781;  2.0517597E-02;  0.0000000E+00; -2.0590080E-03;  9.9937744E+02;  1.0000000E-01; -5.1578784E+02;3; -6.0452743E+00;  0.0000000E+00; -1.2020029E+00;0; -2.3835657E-02;  3.9947855E+04;  0.0000000E+00; -6.2590116E-03;  4.0000000E+04;  0.0000000E+00;  4.0003922E+04; -3.1007312E-02;  0.0000000E+00;  7.1716546E-03;  5.4371057E+02;
  3.8184914E-01;  9.9999998E-03; -1.1996964E-01;4782;  2.0869786E-02;  0.0000000E+00; -2.0178773E-03;  9.9941632E+02;  1.0000000E-01; -4.8359122E+02;3; -6.2133694E+00;  0.0000000E+00; -1.1202754E+00;0; -2.3139352E-02;  3.9950348E+04;  0.0000000E+00;  2.6217693E-02;  4.0000000E+04;  0.0000000E+00;  4.0004457E+04; -3.1608421E-02;  0.0000000E+00;  8.4690694E-03;  6.1155084E+02;
  3.8185772E-01;  9.9999998E-03; -1.0997415E-01;4783;  2.1184998E-02;  0.0000000E+00; -1.9591923E-03;  9.9944641E+02;  1.0000000E-01; -4.5865366E+02;3; -6.3820896E+00;  0.0000000E+00; -1.0378323E+00;0; -2.2407319E-02;  3.9952164E+04;  0.0000000E+00;  5.1249560E-02;  4.0000000E+04;  0.0000000E+00;  4.0005246E+04; -3.2275677E-02;  0.0000000E+00;  9.8683564E-03;  7.1045740E+02;
  3.9158037E-01;  9.9999998E-03; -2.6996592E-01;4828;  1.3317609E-02;  0.0000000E+00; -3.2596278E-03;  9.9780914E+02;  1.0000000E-01; -1.8150597E+03;3; -4.4395390E+00;  0.0000000E+00; -2.0840764E+00;0; -2.0242445E-02;  3.9800254E+04;  0.0000000E+00; -1.9170204E-02;  4.0000000E+04;  0.0000000E+00;  4.0024660E+04; -2.6324222E-02;  0.0000000E+00;  6.0817772E-03;  3.2637358E+03;
  3.9160475E-01;  9.9999998E-03; -2.5997132E-01;4829;  1.3899741E-02;  0.0000000E+00; -2.9437293E-03;  9.9791504E+02;  1.0000000E-01; -1.7273584E+03;3; -4.5103774E+00;  0.0000000E+00; -1.9308200E+00;0; -2.2932734E-02;  3.9811520E+04;  0.0000000E+00;  2.3987608E-02;  4.0000000E+04;  0.0000000E+00;  4.0022297E+04; -2.6595481E-02;  0.0000000E+00;  3.6627464E-03;  2.9474189E+03;
  3.9163953E-01;  9.9999998E-03; -2.4997689E-01;4830;  1.4482870E-02;  0.0000000E+00; -2.8212601E-03;  9.9804059E+02;  1.0000000E-01; -1.6233120E+03;3; -4.5782213E+00;  0.0000000E+00; -1.8276258E+00;0; -2.3346264E-02;  3.9823676E+04;  0.0000000E+00;  4.9888838E-02;  4.0000000E+04;  0.0000000E+00;  4.0019750E+04; -2.6919054E-02;  0.0000000E+00;  3.5727902E-03;  2.6661982E+03;
  3.9168161E-01;  9.9999998E-03; -2.3998177E-01;4831;  1.5054255E-02;  0.0000000E+00; -2.7868312E-03;  9.9817603E+02;  1.0000000E-01; -1.5111177E+03;3; -4.6487536E+00;  0.0000000E+00; -1.7624416E+00;0; -2.3347914E-02;  3.9836551E+04;  0.0000000E+00;  5.9687309E-02;  4.0000000E+04;  0.0000000E+00;  4.0018191E+04; -2.7299527E-02;  0.0000000E+00;  3.9516124E-03;  2.4517068E+03;
  3.9171752E-01;  9.9999998E-03; -2.2998783E-01;4832;  1.5604149E-02;  0.0000000E+00; -2.7652266E-03;  9.9831610E+02;  1.0000000E-01; -1.3950715E+03;3; -4.7335629E+00;  0.0000000E+00; -1.7043958E+00;0; -2.3571584E-02;  3.9849480E+04;  0.0000000E+00;  5.5902623E-02;  4.0000000E+04;  0.0000000E+00;  4.0016461E+04; -2.7738117E-02;  0.0000000E+00;  4.1665328E-03;  2.1898567E+03;
  3.9174533E-01;  9.9999998E-03; -2.1999004E-01;4833;  1.6133910E-02;  0.0000000E+00; -2.7639503E-03;  9.9846198E+02;  1.0000000E-01; -1.2742355E+03;3; -4.8262572E+00;  0.0000000E+00; -1.6644679E+00;0; -2.3941288E-02;  3.9862766E+04;  0.0000000E+00;  4.1303158E-02;  4.0000000E+04;  0.0000000E+00;  4.0014977E+04; -2.8234363E-02;  0.0000000E+00;  4.2930748E-03;  2.0120378E+03;
  3.9176813E-01;  9.9999998E-03; -2.0998599E-01;4834;  1.6645793E-02;  0.0000000E+00; -2.7598666E-03;  9.9860291E+02;  1.0000000E-01; -1.1574486E+03;3; -4.9307575E+00;  0.0000000E+00; -1.6171211E+00;0; -2.4430044E-02;  3.9875418E+04;  0.0000000E+00;  1.9956196E-02;  4.0000000E+04;  0.0000000E+00;  4.0013844E+04; -2.8785458E-02;  0.0000000E+00;  4.3554143E-03;  1.8518193E+03;
  3.9178720E-01;  9.9999998E-03; -1.9997849E-01;4835;  1.7143868E-02;  0.0000000E+00; -2.7518081E-03;  9.9873267E+02;  1.0000000E-01; -1.0499456E+03;3; -5.0465484E+00;  0.0000000E+00; -1.5658888E+00;0; -2.4937954E-02;  3.9887539E+04;  0.0000000E+00; -3.1574983E-03;  4.0000000E+04;  0.0000000E+00;  4.0012203E+04; -2.9385779E-02;  0.0000000E+00;  4.4478243E-03;  1.6311339E+03;
  3.9180255E-01;  9.9999998E-03; -1.8997087E-01;4836;  1.7631007E-02;  0.0000000E+00; -2.7451036E-03;  9.9884875E+02;  1.0000000E-01; -9.5380011E+02;3; -5.1693225E+00;  0.0000000E+00; -1.5162688E+00;0; -2.5384996E-02;  3.9898828E+04;  0.0000000E+00; -2.2765815E-02;  4.0000000E+04;  0.0000000E+00;  4.0010223E+04; -3.0028425E-02;  0.0000000E+00;  4.6434286E-03;  1.3713512E+03;
  3.9181304E-01;  9.9999998E-03; -1.7996518E-01;4837;  1.8107332E-02;  0.0000000E+00; -2.7398949E-03;  9.9895142E+02;  1.0000000E-01; -8.6871613E+02;3; -5.2977657E+00;  0.0000000E+00; -1.4679443E+00;0; -2.5713731E-02;  3.9909176E+04;  0.0000000E+00; -3.4212310E-02;  4.0000000E+04;  0.0000000E+00;  4.0008207E+04; -3.0706469E-02;  0.0000000E+00;  4.9927374E-03;  1.1241505E+03;
  3.9181936E-01;  9.9999998E-03; -1.6996232E-01;4838;  1.8570689E-02;  0.0000000E+00; -2.7336150E-03;  9.9904620E+02;  1.0000000E-01; -7.9019983E+02;3; -5.4316015E+00;  0.0000000E+00; -1.4220102E+00;0; -2.5880082E-02;  3.9918031E+04;  0.0000000E+00; -3.4358811E-02;  4.0000000E+04;  0.0000000E+00;  4.0006871E+04; -3.1414937E-02;  0.0000000E+00;  5.5348556E-03;  9.2600067E+02;
  3.9182347E-01;  9.9999998E-03; -1.5996233E-01;4839;  1.9017756E-02;  0.0000000E+00; -2.7221446E-03;  9.9913177E+02;  1.0000000E-01; -7.1928827E+02;3; -5.5724435E+00;  0.0000000E+00; -1.3762558E+00;0; -2.5855757E-02;  3.9925820E+04;  0.0000000E+00; -2.2462348E-02;  4.0000000E+04;  0.0000000E+00;  4.0005629E+04; -3.2151293E-02;  0.0000000E+00;  6.2955362E-03;  7.9102997E+02;
  3.9182541E-01;  9.9999998E-03; -1.4996466E-01;4840;  1.9444454E-02;  0.0000000E+00; -2.7012811E-03;  9.9920062E+02;  1.0000000E-01; -6.6225281E+02;3; -5.7241459E+00;  0.0000000E+00; -1.3167676E+00;0; -2.5633227E-02;  3.9931949E+04;  0.0000000E+00; -6.0972024E-04;  4.0000000E+04;  0.0000000E+00;  4.0005320E+04; -3.2915037E-02;  0.0000000E+00;  7.2818110E-03;  7.1953375E+02;
  3.9182884E-01;  9.9999998E-03; -1.3996863E-01;4841;  1.9846445E-02;  0.0000000E+00; -2.6681549E-03;  9.9926385E+02;  1.0000000E-01; -6.0985925E+02;3; -5.8802581E+00;  0.0000000E+00; -1.2535980E+00;0; -2.5227102E-02;  3.9937102E+04;  0.0000000E+00;  2.6623068E-02;  4.0000000E+04;  0.0000000E+00;  4.0005156E+04; -3.3708196E-02;  0.0000000E+00;  8.4810946E-03;  7.0494867E+02;
  3.9183545E-01;  9.9999998E-03; -1.2997349E-01;4842;  2.0219106E-02;  0.0000000E+00; -2.6175065E-03;  9.9931775E+02;  1.0000000E-01; -5.6521857E+02;3; -6.0436158E+00;  0.0000000E+00; -1.1828703E+00;0; -2.4668623E-02;  3.9941191E+04;  0.0000000E+00;  5.3520702E-02;  4.0000000E+04;  0.0000000E+00;  4.0005332E+04; -3.4532230E-02;  0.0000000E+00;  9.8636076E-03;  7.3610535E+02;
  3.9184347E-01;  9.9999998E-03; -1.1997845E-01;4843;  2.0558037E-02;  0.0000000E+00; -2.5471384E-03;  9.9936804E+02;  1.0000000E-01; -5.2354071E+02;3; -6.2096672E+00;  0.0000000E+00; -1.1075572E+00;0; -2.3995820E-02;  3.9944633E+04;  0.0000000E+00;  7.5183012E-02;  4.0000000E+04;  0.0000000E+00;  4.0005789E+04; -3.5384998E-02;  0.0000000E+00;  1.1389178E-02;  7.9809296E+02;
  3.9185208E-01;  9.9999998E-03; -1.0998283E-01;4844;  2.0859824E-02;  0.0000000E+00; -2.4524792E-03;  9.9941278E+02;  1.0000000E-01; -4.8650473E+02;3; -6.3766289E+00;  0.0000000E+00; -1.0268135E+00;0; -2.3246899E-02;  3.9947469E+04;  0.0000000E+00;  8.8715076E-02;  4.0000000E+04;  0.0000000E+00;  4.0006684E+04; -3.6260918E-02;  0.0000000E+00;  1.3014019E-02;  8.7535699E+02;
  4.0160865E-01;  9.9999998E-03; -2.6996335E-01;4889;  1.3024910E-02;  0.0000000E+00; -4.1831112E-03;  9.9771765E+02;  1.0000000E-01; -1.8908600E+03;3; -4.4444942E+00;  0.0000000E+00; -2.1002119E+00;0; -1.7353784E-02;  3.9790535E+04;  0.0000000E+00; -8.4049843E-02;  4.0000000E+04;  0.0000000E+00;  4.0026090E+04; -2.6677059E-02;  0.0000000E+00;  9.3232738E-03;  3.4572029E+03;
  4.0162787E-01;  9.9999998E-03; -2.5996733E-01;4890;  1.3613373E-02;  0.0000000E+00; -3.8544042E-03;  9.9783832E+02;  1.0000000E-01; -1.7909122E+03;3; -4.5065737E+00;  0.0000000E+00; -1.9910308E+00;0; -2.0642858E-02;  3.9802359E+04;  0.0000000E+00; -5.7036243E-02;  4.0000000E+04;  0.0000000E+00;  4.0024117E+04; -2.7074289E-02;  0.0000000E+00;  6.4314315E-03;  3.2018142E+03;
  4.0165555E-01;  9.9999998E-03; -2.4997003E-01;4891;  1.4206420E-02;  0.0000000E+00; -3.7209727E-03;  9.9797900E+02;  1.0000000E-01; -1.6743723E+03;3; -4.5648174E+00;  0.0000000E+00; -1.9113327E+00;0; -2.1581691E-02;  3.9814840E+04;  0.0000000E+00; -3.7333101E-02;  4.0000000E+04;  0.0000000E+00;  4.0022758E+04; -2.7537197E-02;  0.0000000E+00;  5.9555061E-03;  3.0285317E+03;
  4.0169108E-01;  9.9999998E-03; -2.3997074E-01;4892;  1.4783820E-02;  0.0000000E+00; -3.6430389E-03;  9.9812457E+02;  1.0000000E-01; -1.5537338E+03;3; -4.6328068E+00;  0.0000000E+00; -1.8413577E+00;0; -2.2181377E-02;  3.9827902E+04;  0.0000000E+00; -2.3514511E-02;  4.0000000E+04;  0.0000000E+00;  4.0021785E+04; -2.8071191E-02;  0.0000000E+00;  5.8898134E-03;  2.8907229E+03;
  4.0172428E-01;  9.9999998E-03; -2.2997485E-01;4893;  1.5330854E-02;  0.0000000E+00; -3.5427604E-03;  9.9825519E+02;  1.0000000E-01; -1.4455393E+03;3; -4.7191572E+00;  0.0000000E+00; -1.7615267E+00;0; -2.2935709E-02;  3.9840797E+04;  0.0000000E+00; -1.4877283E-02;  4.0000000E+04;  0.0000000E+00;  4.0019117E+04; -2.8678199E-02;  0.0000000E+00;  5.7424898E-03;  2.5508196E+03;
  4.0175036E-01;  9.9999998E-03; -2.1997893E-01;4894;  1.5857315E-02;  0.0000000E+00; -3.4870696E-03;  9.9838300E+02;  1.0000000E-01; -1.3396658E+03;3; -4.8153963E+00;  0.0000000E+00; -1.6961155E+00;0; -2.3588046E-02;  3.9853844E+04;  0.0000000E+00; -1.0712419E-02;  4.0000000E+04;  0.0000000E+00;  4.0016691E+04; -2.9357769E-02;  0.0000000E+00;  5.7697222E-03;  2.2292227E+03;
  4.0177053E-01;  9.9999998E-03; -2.0997865E-01;4895;  1.6367206E-02;  0.0000000E+00; -3.4562929E-03;  9.9851263E+02;  1.0000000E-01; -1.2322614E+03;3; -4.9186096E+00;  0.0000000E+00; -1.6365236E+00;0; -2.4241429E-02;  3.9866387E+04;  0.0000000E+00; -9.2833778E-03;  4.0000000E+04;  0.0000000E+00;  4.0014883E+04; -3.0107813E-02;  0.0000000E+00;  5.8663832E-03;  1.9763420E+03;
  4.0178606E-01;  9.9999998E-03; -1.9997576E-01;4896;  1.6863346E-02;  0.0000000E+00; -3.4335251E-03;  9.9863519E+02;  1.0000000E-01; -1.1307334E+03;3; -5.0318370E+00;  0.0000000E+00; -1.5810184E+00;0; -2.4884390E-02;  3.9878312E+04;  0.0000000E+00; -8.1549520E-03;  4.0000000E+04;  0.0000000E+00;  4.0012832E+04; -3.0924039E-02;  0.0000000E+00;  6.0396497E-03;  1.7231686E+03;
  4.0179721E-01;  9.9999998E-03; -1.8997265E-01;4897;  1.7347720E-02;  0.0000000E+00; -3.4163564E-03;  9.9874945E+02;  1.0000000E-01; -1.0360693E+03;3; -5.1523347E+00;  0.0000000E+00; -1.5280652E+00;0; -2.5458092E-02;  3.9889168E+04;  0.0000000E+00; -4.6591810E-03;  4.0000000E+04;  0.0000000E+00;  4.0010891E+04; -3.1799838E-02;  0.0000000E+00;  6.3417465E-03;  1.4713708E+03;
  4.0180451E-01;  9.9999998E-03; -1.7997065E-01;4898;  1.7819505E-02;  0.0000000E+00; -3.4010906E-03;  9.9884918E+02;  1.0000000E-01; -9.5345447E+02;3; -5.2792025E+00;  0.0000000E+00; -1.4776919E+00;0; -2.5906418E-02;  3.9899215E+04;  0.0000000E+00;  3.4500337E-03;  4.0000000E+04;  0.0000000E+00;  4.0009148E+04; -3.2727271E-02;  0.0000000E+00;  6.8208538E-03;  1.2504666E+03;
  4.0180960E-01;  9.9999998E-03; -1.6997039E-01;4899;  1.8276263E-02;  0.0000000E+00; -3.3831848E-03;  9.9894177E+02;  1.0000000E-01; -8.7671588E+02;3; -5.4124327E+00;  0.0000000E+00; -1.4308276E+00;0; -2.6180975E-02;  3.9907941E+04;  0.0000000E+00;  1.7409846E-02;  4.0000000E+04;  0.0000000E+00;  4.0007926E+04; -3.3697702E-02;  0.0000000E+00;  7.5167269E-03;  1.0815027E+03;
  4.0181392E-01;  9.9999998E-03; -1.5997200E-01;4900;  1.8714396E-02;  0.0000000E+00; -3.3571508E-03;  9.9902808E+02;  1.0000000E-01; -8.0521173E+02;3; -5.5566382E+00;  0.0000000E+00; -1.3753263E+00;0; -2.6248407E-02;  3.9915426E+04;  0.0000000E+00;  3.6904335E-02;  4.0000000E+04;  0.0000000E+00;  4.0007078E+04; -3.4702659E-02;  0.0000000E+00;  8.4542530E-03;  9.7167969E+02;
  4.0181962E-01;  9.9999998E-03; -1.4997524E-01;4901;  1.9130100E-02;  0.0000000E+00; -3.3193154E-03;  9.9910107E+02;  1.0000000E-01; -7.4471960E+02;3; -5.7078037E+00;  0.0000000E+00; -1.3159260E+00;0; -2.6095947E-02;  3.9921758E+04;  0.0000000E+00;  5.9870541E-02;  4.0000000E+04;  0.0000000E+00;  4.0006570E+04; -3.5733920E-02;  0.0000000E+00;  9.6379723E-03;  9.1772461E+02;
  4.0182555E-01;  9.9999998E-03; -1.3997951E-01;4902;  1.9519290E-02;  0.0000000E+00; -3.2634342E-03;  9.9916638E+02;  1.0000000E-01; -6.9064709E+02;3; -5.8675747E+00;  0.0000000E+00; -1.2486310E+00;0; -2.5733255E-02;  3.9927305E+04;  0.0000000E+00;  8.2810201E-02;  4.0000000E+04;  0.0000000E+00;  4.0006852E+04; -3.6782652E-02;  0.0000000E+00;  1.1049397E-02;  9.0981543E+02;
  4.0183321E-01;  9.9999998E-03; -1.2998411E-01;4903;  1.9877963E-02;  0.0000000E+00; -3.1867751E-03;  9.9922815E+02;  1.0000000E-01; -6.3948804E+02;3; -6.0322094E+00;  0.0000000E+00; -1.1763710E+00;0; -2.5187325E-02;  3.9931961E+04;  0.0000000E+00;  1.0176902E-01;  4.0000000E+04;  0.0000000E+00;  4.0006832E+04; -3.7840299E-02;  0.0000000E+00;  1.2652975E-02;  9.3453333E+02;
  4.0184304E-01;  9.9999998E-03; -1.1998841E-01;4904;  2.0202724E-02;  0.0000000E+00; -3.0830717E-03;  9.9928339E+02;  1.0000000E-01; -5.9371155E+02;3; -6.2006207E+00;  0.0000000E+00; -1.0914787E+00;0; -2.4493648E-02;  3.9936047E+04;  0.0000000E+00;  1.1374605E-01;  4.0000000E+04;  0.0000000E+00;  4.0007133E+04; -3.8896728E-02;  0.0000000E+00;  1.4403081E-02;  9.7693872E+02;
  4.0185222E-01;  9.9999998E-03; -1.0999199E-01;4905;  2.0490546E-02;  0.0000000E+00; -2.9471624E-03;  9.9933289E+02;  1.0000000E-01; -5.5267566E+02;3; -6.3704171E+00;  0.0000000E+00; -9.9700385E-01;0; -2.3689916E-02;  3.9939906E+04;  0.0000000E+00;  1.1747809E-01;  4.0000000E+04;  0.0000000E+00;  4.0007621E+04; -3.9938398E-02;  0.0000000E+00;  1.6248481E-02;  1.0236636E+03;
  4.1165176E-01;  9.9999998E-03; -2.6996127E-01;4950;  1.2717517E-02;  0.0000000E+00; -5.0106375E-03;  9.9764093E+02;  1.0000000E-01; -1.9544631E+03;3; -4.4401474E+00;  0.0000000E+00; -2.0820875E+00;0; -1.5778083E-02;  3.9783578E+04;  0.0000000E+00; -1.3902745E-01;  4.0000000E+04;  0.0000000E+00;  4.0026605E+04; -2.6890432E-02;  0.0000000E+00;  1.1112350E-02;  3.5511245E+03;
  4.1166735E-01;  9.9999998E-03; -2.5996417E-01;4951;  1.3313175E-02;  0.0000000E+00; -4.7277277E-03;  9.9776544E+02;  1.0000000E-01; -1.8513055E+03;3; -4.4947581E+00;  0.0000000E+00; -2.0290246E+00;0; -1.8872790E-02;  3.9794906E+04;  0.0000000E+00; -1.2569118E-01;  4.0000000E+04;  0.0000000E+00;  4.0025309E+04; -2.7433231E-02;  0.0000000E+00;  8.5604405E-03;  3.3508601E+03;
  4.1168576E-01;  9.9999998E-03; -2.4996457E-01;4952;  1.3913961E-02;  0.0000000E+00; -4.6208105E-03;  9.9791180E+02;  1.0000000E-01; -1.7300250E+03;3; -4.5425453E+00;  0.0000000E+00; -1.9877090E+00;0; -1.9970775E-02;  3.9806941E+04;  0.0000000E+00; -1.1263669E-01;  4.0000000E+04;  0.0000000E+00;  4.0024711E+04; -2.8057406E-02;  0.0000000E+00;  8.0866301E-03;  3.2782981E+03;
  4.1171011E-01;  9.9999998E-03; -2.3996259E-01;4953;  1.4492846E-02;  0.0000000E+00; -4.5051859E-03;  9.9805914E+02;  1.0000000E-01; -1.6079543E+03;3; -4.6073337E+00;  0.0000000E+00; -1.9192556E+00;0; -2.1108676E-02;  3.9819621E+04;  0.0000000E+00; -9.8013215E-02;  4.0000000E+04;  0.0000000E+00;  4.0024059E+04; -2.8768577E-02;  0.0000000E+00;  7.6599014E-03;  3.1919585E+03;
  4.1173366E-01;  9.9999998E-03; -2.2996719E-01;4954;  1.5033492E-02;  0.0000000E+00; -4.3278318E-03;  9.9817542E+02;  1.0000000E-01; -1.5116115E+03;3; -4.7026219E+00;  0.0000000E+00; -1.8060976E+00;0; -2.2364700E-02;  3.9832395E+04;  0.0000000E+00; -8.1728801E-02;  4.0000000E+04;  0.0000000E+00;  4.0020770E+04; -2.9568322E-02;  0.0000000E+00;  7.2036223E-03;  2.7555034E+03;
  4.1175264E-01;  9.9999998E-03; -2.1997525E-01;4955;  1.5555421E-02;  0.0000000E+00; -4.2266096E-03;  9.9828766E+02;  1.0000000E-01; -1.4186265E+03;3; -4.8010893E+00;  0.0000000E+00; -1.7208909E+00;0; -2.3265325E-02;  3.9844805E+04;  0.0000000E+00; -6.4135142E-02;  4.0000000E+04;  0.0000000E+00;  4.0017219E+04; -3.0455491E-02;  0.0000000E+00;  7.1901656E-03;  2.3178379E+03;
  4.1176748E-01;  9.9999998E-03; -2.0997962E-01;4956;  1.6062913E-02;  0.0000000E+00; -4.1771042E-03;  9.9840845E+02;  1.0000000E-01; -1.3185798E+03;3; -4.9049029E+00;  0.0000000E+00; -1.6562934E+00;0; -2.4066759E-02;  3.9856742E+04;  0.0000000E+00; -4.5188658E-02;  4.0000000E+04;  0.0000000E+00;  4.0015090E+04; -3.1426948E-02;  0.0000000E+00;  7.3601883E-03;  2.0256454E+03;
  4.1177854E-01;  9.9999998E-03; -1.9998062E-01;4957;  1.6556289E-02;  0.0000000E+00; -4.1418099E-03;  9.9852509E+02;  1.0000000E-01; -1.2219407E+03;3; -5.0147429E+00;  0.0000000E+00; -1.5983032E+00;0; -2.4837498E-02;  3.9868156E+04;  0.0000000E+00; -2.4542537E-02;  4.0000000E+04;  0.0000000E+00;  4.0013340E+04; -3.2476619E-02;  0.0000000E+00;  7.6391203E-03;  1.7898552E+03;
  4.1178685E-01;  9.9999998E-03; -1.8998057E-01;4958;  1.7035812E-02;  0.0000000E+00; -4.1125007E-03;  9.9863428E+02;  1.0000000E-01; -1.1314741E+03;3; -5.1328902E+00;  0.0000000E+00; -1.5427210E+00;0; -2.5527216E-02;  3.9878746E+04;  0.0000000E+00; -1.7952352E-03;  4.0000000E+04;  0.0000000E+00;  4.0011758E+04; -3.3595644E-02;  0.0000000E+00;  8.0684265E-03;  1.5753495E+03;
  4.1179377E-01;  9.9999998E-03; -1.7998081E-01;4959;  1.7500268E-02;  0.0000000E+00; -4.0840497E-03;  9.9873553E+02;  1.0000000E-01; -1.0475752E+03;3; -5.2563190E+00;  0.0000000E+00; -1.4934108E+00;0; -2.6077315E-02;  3.9888223E+04;  0.0000000E+00;  2.3103517E-02;  4.0000000E+04;  0.0000000E+00;  4.0010273E+04; -3.4773223E-02;  0.0000000E+00;  8.6959070E-03;  1.3924054E+03;
  4.1179997E-01;  9.9999998E-03; -1.6998194E-01;4960;  1.7946979E-02;  0.0000000E+00; -4.0498632E-03;  9.9882489E+02;  1.0000000E-01; -9.7355261E+02;3; -5.3901076E+00;  0.0000000E+00; -1.4382803E+00;0; -2.6435848E-02;  3.9896762E+04;  0.0000000E+00;  4.9568333E-02;  4.0000000E+04;  0.0000000E+00;  4.0009145E+04; -3.5996512E-02;  0.0000000E+00;  9.5606623E-03;  1.2536608E+03;
  4.1180706E-01;  9.9999998E-03; -1.5998419E-01;4961;  1.8372713E-02;  0.0000000E+00; -4.0063658E-03;  9.9890906E+02;  1.0000000E-01; -9.0382623E+02;3; -5.5340543E+00;  0.0000000E+00; -1.3814824E+00;0; -2.6566278E-02;  3.9904223E+04;  0.0000000E+00;  7.6184504E-02;  4.0000000E+04;  0.0000000E+00;  4.0008602E+04; -3.7251994E-02;  0.0000000E+00;  1.0685716E-02;  1.1634053E+03;
  4.1181535E-01;  9.9999998E-03; -1.4998738E-01;4962;  1.8774064E-02;  0.0000000E+00; -3.9458792E-03;  9.9898810E+02;  1.0000000E-01; -8.3834662E+02;3; -5.6894579E+00;  0.0000000E+00; -1.3133004E+00;0; -2.6453614E-02;  3.9910840E+04;  0.0000000E+00;  1.0079943E-01;  4.0000000E+04;  0.0000000E+00;  4.0008035E+04; -3.8525052E-02;  0.0000000E+00;  1.2071438E-02;  1.1174312E+03;
  4.1182545E-01;  9.9999998E-03; -1.3999107E-01;4963;  1.9147651E-02;  0.0000000E+00; -3.8656830E-03;  9.9905688E+02;  1.0000000E-01; -7.8136053E+02;3; -5.8500490E+00;  0.0000000E+00; -1.2434567E+00;0; -2.6105706E-02;  3.9916305E+04;  0.0000000E+00;  1.2087334E-01;  4.0000000E+04;  0.0000000E+00;  4.0008027E+04; -3.9800961E-02;  0.0000000E+00;  1.3695255E-02;  1.1057526E+03;
  4.1183585E-01;  9.9999998E-03; -1.2999475E-01;4964;  1.9490549E-02;  0.0000000E+00; -3.7582831E-03;  9.9911951E+02;  1.0000000E-01; -7.2946082E+02;3; -6.0182457E+00;  0.0000000E+00; -1.1586779E+00;0; -2.5547652E-02;  3.9921516E+04;  0.0000000E+00;  1.3406327E-01;  4.0000000E+04;  0.0000000E+00;  4.0008105E+04; -4.1063700E-02;  0.0000000E+00;  1.5516048E-02;  1.1154047E+03;
  4.1184577E-01;  9.9999998E-03; -1.1999793E-01;4965;  1.9799812E-02;  0.0000000E+00; -3.6178541E-03;  9.9917865E+02;  1.0000000E-01; -6.8047455E+02;3; -6.1892209E+00;  0.0000000E+00; -1.0684172E+00;0; -2.4812905E-02;  3.9926094E+04;  0.0000000E+00;  1.3904892E-01;  4.0000000E+04;  0.0000000E+00;  4.0008254E+04; -4.2296302E-02;  0.0000000E+00;  1.7483396E-02;  1.1329587E+03;
  4.1185561E-01;  9.9999998E-03; -1.1000037E-01;4966;  2.0073252E-02;  0.0000000E+00; -3.4410236E-03;  9.9923138E+02;  1.0000000E-01; -6.3677209E+02;3; -6.3613062E+00;  0.0000000E+00; -9.7723854E-01;0; -2.3940176E-02;  3.9930449E+04;  0.0000000E+00;  1.3594985E-01;  4.0000000E+04;  0.0000000E+00;  4.0008562E+04; -4.3482069E-02;  0.0000000E+00;  1.9541893E-02;  1.1471622E+03;
  4.2171812E-01;  9.9999998E-03; -2.6996005E-01;5011;  1.2405476E-02;  0.0000000E+00; -5.7379887E-03;  9.9760809E+02;  1.0000000E-01; -1.9816722E+03;3; -4.4269795E+00;  0.0000000E+00; -2.0537193E+00;0; -1.5506183E-02;  3.9780680E+04;  0.0000000E+00; -1.8445073E-01;  4.0000000E+04;  0.0000000E+00;  4.0026441E+04; -2.6950423E-02;  0.0000000E+00;  1.1444240E-02;  3.5200576E+03;
  4.2173287E-01;  9.9999998E-03; -2.5996223E-01;5012;  1.3004874E-02;  0.0000000E+00; -5.5407723E-03;  9.9773053E+02;  1.0000000E-01; -1.8801936E+03;3; -4.4755864E+00;  0.0000000E+00; -2.0346334E+00;0; -1.7783413E-02;  3.9791469E+04;  0.0000000E+00; -1.8337484E-01;  4.0000000E+04;  0.0000000E+00;  4.0025191E+04; -2.7659247E-02;  0.0000000E+00;  9.8758340E-03;  3.3686938E+03;
  4.2174217E-01;  9.9999998E-03; -2.4996108E-01;5013;  1.3607530E-02;  0.0000000E+00; -5.4845954E-03;  9.9787280E+02;  1.0000000E-01; -1.7623204E+03;3; -4.5210195E+00;  0.0000000E+00; -2.0217426E+00;0; -1.8724510E-02;  3.9802762E+04;  0.0000000E+00; -1.7572896E-01;  4.0000000E+04;  0.0000000E+00;  4.0025516E+04; -2.8466882E-02;  0.0000000E+00;  9.7423717E-03;  3.3831287E+03;
  4.2175245E-01;  9.9999998E-03; -2.3995776E-01;5014;  1.4184042E-02;  0.0000000E+00; -5.3535872E-03;  9.9801385E+02;  1.0000000E-01; -1.6454843E+03;3; -4.5820346E+00;  0.0000000E+00; -1.9688005E+00;0; -2.0208478E-02;  3.9814477E+04;  0.0000000E+00; -1.6148910E-01;  4.0000000E+04;  0.0000000E+00;  4.0025164E+04; -2.9378192E-02;  0.0000000E+00;  9.1697145E-03;  3.3278013E+03;
  4.2176190E-01;  9.9999998E-03; -2.2996362E-01;5015;  1.4714822E-02;  0.0000000E+00; -5.1171919E-03;  9.9811072E+02;  1.0000000E-01; -1.5652396E+03;3; -4.6828322E+00;  0.0000000E+00; -1.8417298E+00;0; -2.1867573E-02;  3.9826266E+04;  0.0000000E+00; -1.4130254E-01;  4.0000000E+04;  0.0000000E+00;  4.0021379E+04; -3.0393407E-02;  0.0000000E+00;  8.5258335E-03;  2.8260967E+03;
  4.2177010E-01;  9.9999998E-03; -2.1997544E-01;5016;  1.5230324E-02;  0.0000000E+00; -4.9820668E-03;  9.9820239E+02;  1.0000000E-01; -1.4892911E+03;3; -4.7834935E+00;  0.0000000E+00; -1.7449846E+00;0; -2.2976035E-02;  3.9837738E+04;  0.0000000E+00; -1.1577086E-01;  4.0000000E+04;  0.0000000E+00;  4.0017211E+04; -3.1510551E-02;  0.0000000E+00;  8.5345153E-03;  2.3238628E+03;
  4.2177787E-01;  9.9999998E-03; -2.0998372E-01;5017;  1.5734134E-02;  0.0000000E+00; -4.9184258E-03;  9.9831726E+02;  1.0000000E-01; -1.3941333E+03;3; -4.8841906E+00;  0.0000000E+00; -1.6805433E+00;0; -2.3912892E-02;  3.9848891E+04;  0.0000000E+00; -8.5579053E-02;  4.0000000E+04;  0.0000000E+00;  4.0015082E+04; -3.2725032E-02;  0.0000000E+00;  8.8121416E-03;  2.0312188E+03;
  4.2178470E-01;  9.9999998E-03; -1.9998772E-01;5018;  1.6222546E-02;  0.0000000E+00; -4.8710033E-03;  9.9842773E+02;  1.0000000E-01; -1.3025803E+03;3; -4.9896035E+00;  0.0000000E+00; -1.6187489E+00;0; -2.4804819E-02;  3.9859523E+04;  0.0000000E+00; -5.1615242E-02;  4.0000000E+04;  0.0000000E+00;  4.0013512E+04; -3.4028057E-02;  0.0000000E+00;  9.2232386E-03;  1.8336030E+03;
  4.2179084E-01;  9.9999998E-03; -1.8998979E-01;5019;  1.6694371E-02;  0.0000000E+00; -4.8280042E-03;  9.9853632E+02;  1.0000000E-01; -1.2126570E+03;3; -5.1035709E+00;  0.0000000E+00; -1.5684352E+00;0; -2.5603537E-02;  3.9869371E+04;  0.0000000E+00; -1.5062102E-02;  4.0000000E+04;  0.0000000E+00;  4.0012277E+04; -3.5406638E-02;  0.0000000E+00;  9.8031005E-03;  1.6650530E+03;
  4.2179686E-01;  9.9999998E-03; -1.7999130E-01;5020;  1.7147887E-02;  0.0000000E+00; -4.7823596E-03;  9.9862891E+02;  1.0000000E-01; -1.1359185E+03;3; -5.2292171E+00;  0.0000000E+00; -1.5109506E+00;0; -2.6246093E-02;  3.9878562E+04;  0.0000000E+00;  2.2434520E-02;  4.0000000E+04;  0.0000000E+00;  4.0011281E+04; -3.6844999E-02;  0.0000000E+00;  1.0598905E-02;  1.5210381E+03;
  4.2180374E-01;  9.9999998E-03; -1.6999303E-01;5021;  1.7580852E-02;  0.0000000E+00; -4.7299122E-03;  9.9872101E+02;  1.0000000E-01; -1.0596243E+03;3; -5.3642869E+00;  0.0000000E+00; -1.4530410E+00;0; -2.6677094E-02;  3.9886730E+04;  0.0000000E+00;  5.8776520E-02;  4.0000000E+04;  0.0000000E+00;  4.0010301E+04; -3.8325280E-02;  0.0000000E+00;  1.1648186E-02;  1.4091403E+03;
  4.2181182E-01;  9.9999998E-03; -1.5999529E-01;5022;  1.7990751E-02;  0.0000000E+00; -4.6632034E-03;  9.9880487E+02;  1.0000000E-01; -9.9014478E+02;3; -5.5097246E+00;  0.0000000E+00; -1.3855295E+00;0; -2.6858233E-02;  3.9894152E+04;  0.0000000E+00;  9.1569029E-02;  4.0000000E+04;  0.0000000E+00;  4.0009812E+04; -3.9828498E-02;  0.0000000E+00;  1.2970265E-02;  1.3330480E+03;
  4.2182124E-01;  9.9999998E-03; -1.4999807E-01;5023;  1.8374670E-02;  0.0000000E+00; -4.5785350E-03;  9.9888361E+02;  1.0000000E-01; -9.2491205E+02;3; -5.6668124E+00;  0.0000000E+00; -1.3148664E+00;0; -2.6773779E-02;  3.9900664E+04;  0.0000000E+00;  1.1847680E-01;  4.0000000E+04;  0.0000000E+00;  4.0009508E+04; -4.1335322E-02;  0.0000000E+00;  1.4561543E-02;  1.2895333E+03;
  4.2183205E-01;  9.9999998E-03; -1.4000095E-01;5024;  1.8730469E-02;  0.0000000E+00; -4.4694608E-03;  9.9895300E+02;  1.0000000E-01; -8.6743219E+02;3; -5.8311367E+00;  0.0000000E+00; -1.2321844E+00;0; -2.6431447E-02;  3.9906480E+04;  0.0000000E+00;  1.3761830E-01;  4.0000000E+04;  0.0000000E+00;  4.0009199E+04; -4.2826444E-02;  0.0000000E+00;  1.6394997E-02;  1.2699261E+03;
  4.2184427E-01;  9.9999998E-03; -1.3000362E-01;5025;  1.9055549E-02;  0.0000000E+00; -4.3280451E-03;  9.9901587E+02;  1.0000000E-01; -8.1533490E+02;3; -6.0017996E+00;  0.0000000E+00; -1.1433331E+00;0; -2.5855990E-02;  3.9911758E+04;  0.0000000E+00;  1.4789553E-01;  4.0000000E+04;  0.0000000E+00;  4.0009258E+04; -4.4282623E-02;  0.0000000E+00;  1.8426633E-02;  1.2626746E+03;
  4.2185628E-01;  9.9999998E-03; -1.2000576E-01;5026;  1.9348171E-02;  0.0000000E+00; -4.1494328E-03;  9.9907660E+02;  1.0000000E-01; -7.6501532E+02;3; -6.1755214E+00;  0.0000000E+00; -1.0492413E+00;0; -2.5080441E-02;  3.9916574E+04;  0.0000000E+00;  1.4927256E-01;  4.0000000E+04;  0.0000000E+00;  4.0009223E+04; -4.5683775E-02;  0.0000000E+00;  2.0603335E-02;  1.2560400E+03;
  4.2186686E-01;  9.9999998E-03; -1.1000717E-01;5027;  1.9607071E-02;  0.0000000E+00; -3.9325464E-03;  9.9913049E+02;  1.0000000E-01; -7.2037463E+02;3; -6.3482943E+00;  0.0000000E+00; -9.5158666E-01;0; -2.4144029E-02;  3.9921043E+04;  0.0000000E+00;  1.4276995E-01;  4.0000000E+04;  0.0000000E+00;  4.0008996E+04; -4.7010381E-02;  0.0000000E+00;  2.2866352E-02;  1.2410784E+03;
  4.3179184E-01;  9.9999998E-03; -2.6995981E-01;5072;  1.2107290E-02;  0.0000000E+00; -6.4260792E-03;  9.9764301E+02;  1.0000000E-01; -1.9527347E+03;3; -4.4060564E+00;  0.0000000E+00; -2.0153348E+00;0; -1.5725136E-02;  3.9784496E+04;  0.0000000E+00; -2.0199260E-01;  4.0000000E+04;  0.0000000E+00;  4.0025168E+04; -2.6853137E-02;  0.0000000E+00;  1.1128000E-02;  3.3690173E+03;
  4.3180636E-01;  9.9999998E-03; -2.5996149E-01;5073;  1.2704929E-02;  0.0000000E+00; -6.3217771E-03;  9.9775500E+02;  1.0000000E-01; -1.8599473E+03;3; -4.4512668E+00;  0.0000000E+00; -2.0254123E+00;0; -1.7048590E-02;  3.9794133E+04;  0.0000000E+00; -2.1620873E-01;  4.0000000E+04;  0.0000000E+00;  4.0024496E+04; -2.7745748E-02;  0.0000000E+00;  1.0697157E-02;  3.2717480E+03;
  4.3181056E-01;  9.9999998E-03; -2.4995947E-01;5074;  1.3301631E-02;  0.0000000E+00; -6.3139508E-03;  9.9788556E+02;  1.0000000E-01; -1.7517528E+03;3; -4.4922152E+00;  0.0000000E+00; -2.0370164E+00;0; -1.7787814E-02;  3.9803977E+04;  0.0000000E+00; -2.1709035E-01;  4.0000000E+04;  0.0000000E+00;  4.0025215E+04; -2.8755849E-02;  0.0000000E+00;  1.0968035E-02;  3.3500312E+03;
  4.3181235E-01;  9.9999998E-03; -2.3995554E-01;5075;  1.3867206E-02;  0.0000000E+00; -6.1873375E-03;  9.9801440E+02;  1.0000000E-01; -1.6450398E+03;3; -4.5524917E+00;  0.0000000E+00; -2.0020182E+00;0; -1.9458424E-02;  3.9814277E+04;  0.0000000E+00; -2.0692348E-01;  4.0000000E+04;  0.0000000E+00;  4.0025137E+04; -2.9886862E-02;  0.0000000E+00;  1.0428437E-02;  3.3252605E+03;
  4.3181372E-01;  9.9999998E-03; -2.2996168E-01;5076;  1.4383555E-02;  0.0000000E+00; -5.9200414E-03;  9.9809387E+02;  1.0000000E-01; -1.5792145E+03;3; -4.6562243E+00;  0.0000000E+00; -1.8760843E+00;0; -2.1403356E-02;  3.9824711E+04;  0.0000000E+00; -1.8730894E-01;  4.0000000E+04;  0.0000000E+00;  4.0021094E+04; -3.1137595E-02;  0.0000000E+00;  9.7342394E-03;  2.8220720E+03;
  4.3181351E-01;  9.9999998E-03; -2.1997549E-01;5077;  1.4888884E-02;  0.0000000E+00; -5.7583977E-03;  9.9816895E+02;  1.0000000E-01; -1.5169940E+03;3; -4.7591391E+00;  0.0000000E+00; -1.7732029E+00;0; -2.2703458E-02;  3.9835133E+04;  0.0000000E+00; -1.5947726E-01;  4.0000000E+04;  0.0000000E+00;  4.0017086E+04; -3.2504328E-02;  0.0000000E+00;  9.8008709E-03;  2.3024314E+03;
  4.3181401E-01;  9.9999998E-03; -2.0998639E-01;5078;  1.5385442E-02;  0.0000000E+00; -5.6795976E-03;  9.9826740E+02;  1.0000000E-01; -1.4354161E+03;3; -4.8563976E+00;  0.0000000E+00; -1.7051476E+00;0; -2.3774020E-02;  3.9844945E+04;  0.0000000E+00; -1.2458566E-01;  4.0000000E+04;  0.0000000E+00;  4.0014801E+04; -3.3980526E-02;  0.0000000E+00;  1.0206507E-02;  2.0198270E+03;
  4.3181533E-01;  9.9999998E-03; -1.9999270E-01;5079;  1.5864983E-02;  0.0000000E+00; -5.6191813E-03;  9.9836707E+02;  1.0000000E-01; -1.3528506E+03;3; -4.9601440E+00;  0.0000000E+00; -1.6503508E+00;0; -2.4781169E-02;  3.9854613E+04;  0.0000000E+00; -8.4137186E-02;  4.0000000E+04;  0.0000000E+00;  4.0013551E+04; -3.5553958E-02;  0.0000000E+00;  1.0772789E-02;  1.8552656E+03;
  4.3181756E-01;  9.9999998E-03; -1.8999630E-01;5080;  1.6324921E-02;  0.0000000E+00; -5.5589629E-03;  9.9846857E+02;  1.0000000E-01; -1.2687542E+03;3; -5.0737839E+00;  0.0000000E+00; -1.5902021E+00;0; -2.5682207E-02;  3.9863559E+04;  0.0000000E+00; -4.0175565E-02;  4.0000000E+04;  0.0000000E+00;  4.0012836E+04; -3.7207313E-02;  0.0000000E+00;  1.1525107E-02;  1.7257177E+03;
  4.3182066E-01;  9.9999998E-03; -1.7999871E-01;5081;  1.6763465E-02;  0.0000000E+00; -5.4935282E-03;  9.9856329E+02;  1.0000000E-01; -1.1902872E+03;3; -5.1993318E+00;  0.0000000E+00; -1.5305929E+00;0; -2.6410684E-02;  3.9872082E+04;  0.0000000E+00;  4.6057901E-03;  4.0000000E+04;  0.0000000E+00;  4.0011996E+04; -3.8919240E-02;  0.0000000E+00;  1.2508557E-02;  1.6139482E+03;
  4.3182546E-01;  9.9999998E-03; -1.7000072E-01;5082;  1.7178923E-02;  0.0000000E+00; -5.4168901E-03;  9.9864923E+02;  1.0000000E-01; -1.1190793E+03;3; -5.3359737E+00;  0.0000000E+00; -1.4623401E+00;0; -2.6909415E-02;  3.9879758E+04;  0.0000000E+00;  4.7094353E-02;  4.0000000E+04;  0.0000000E+00;  4.0011117E+04; -4.0666100E-02;  0.0000000E+00;  1.3756685E-02;  1.5236279E+03;
  4.3183231E-01;  9.9999998E-03; -1.6000283E-01;5083;  1.7569415E-02;  0.0000000E+00; -5.3243791E-03;  9.9872968E+02;  1.0000000E-01; -1.0524640E+03;3; -5.4832139E+00;  0.0000000E+00; -1.3920133E+00;0; -2.7139191E-02;  3.9886691E+04;  0.0000000E+00;  8.4180027E-02;  4.0000000E+04;  0.0000000E+00;  4.0010738E+04; -4.2423703E-02;  0.0000000E+00;  1.5284513E-02;  1.4580677E+03;
  4.3184146E-01;  9.9999998E-03; -1.5000516E-01;5084;  1.7933248E-02;  0.0000000E+00; -5.2116583E-03;  9.9880426E+02;  1.0000000E-01; -9.9063855E+02;3; -5.6427183E+00;  0.0000000E+00; -1.3095114E+00;0; -2.7084395E-02;  3.9893043E+04;  0.0000000E+00;  1.1331858E-01;  4.0000000E+04;  0.0000000E+00;  4.0010258E+04; -4.4168275E-02;  0.0000000E+00;  1.7083880E-02;  1.4151820E+03;
  4.3185312E-01;  9.9999998E-03; -1.4000745E-01;5085;  1.8268729E-02;  0.0000000E+00; -5.0702193E-03;  9.9887305E+02;  1.0000000E-01; -9.3365253E+02;3; -5.8089504E+00;  0.0000000E+00; -1.2208675E+00;0; -2.6753370E-02;  3.9898961E+04;  0.0000000E+00;  1.3298884E-01;  4.0000000E+04;  0.0000000E+00;  4.0010215E+04; -4.5877576E-02;  0.0000000E+00;  1.9124206E-02;  1.3879167E+03;
  4.3186644E-01;  9.9999998E-03; -1.3000941E-01;5086;  1.8574178E-02;  0.0000000E+00; -4.8944098E-03;  9.9893689E+02;  1.0000000E-01; -8.8076514E+02;3; -5.9824171E+00;  0.0000000E+00; -1.1262580E+00;0; -2.6170529E-02;  3.9904336E+04;  0.0000000E+00;  1.4291112E-01;  4.0000000E+04;  0.0000000E+00;  4.0009984E+04; -4.7530044E-02;  0.0000000E+00;  2.1359514E-02;  1.3662908E+03;
  4.3188035E-01;  9.9999998E-03; -1.2001091E-01;5087;  1.8848896E-02;  0.0000000E+00; -4.6797008E-03;  9.9899640E+02;  1.0000000E-01; -8.3148260E+02;3; -6.1580582E+00;  0.0000000E+00; -1.0271199E+00;0; -2.5368126E-02;  3.9909242E+04;  0.0000000E+00;  1.4379211E-01;  4.0000000E+04;  0.0000000E+00;  4.0009676E+04; -4.9104784E-02;  0.0000000E+00;  2.3736658E-02;  1.3403705E+03;
  4.3189293E-01;  9.9999998E-03; -1.1001185E-01;5088;  1.9093202E-02;  0.0000000E+00; -4.4233762E-03;  9.9904553E+02;  1.0000000E-01; -7.9074298E+02;3; -6.3239198E+00;  0.0000000E+00; -9.3570369E-01;0; -2.4385974E-02;  3.9913672E+04;  0.0000000E+00;  1.3709322E-01;  4.0000000E+04;  0.0000000E+00;  4.0009598E+04; -5.0581992E-02;  0.0000000E+00;  2.6196018E-02;  1.3031174E+03;
  4.4187221E-01;  9.9999998E-03; -2.6996046E-01;5133;  1.1837094E-02;  0.0000000E+00; -7.1227024E-03;  9.9775391E+02;  1.0000000E-01; -1.8608361E+03;3; -4.3760500E+00;  0.0000000E+00; -1.9887226E+00;0; -1.5807813E-02;  3.9795031E+04;  0.0000000E+00; -1.8901677E-01;  4.0000000E+04;  0.0000000E+00;  4.0023293E+04; -2.6613742E-02;  0.0000000E+00;  1.0805929E-02;  3.1226411E+03;
  4.4188344E-01;  9.9999998E-03; -2.5996190E-01;5134;  1.2423778E-02;  0.0000000E+00; -7.0835175E-03;  9.9784711E+02;  1.0000000E-01; -1.7836531E+03;3; -4.4146733E+00;  0.0000000E+00; -2.0139492E+00;0; -1.6497288E-02;  3.9803188E+04;  0.0000000E+00; -2.2036083E-01;  4.0000000E+04;  0.0000000E+00;  4.0022906E+04; -2.7702980E-02;  0.0000000E+00;  1.1205691E-02;  3.0708396E+03;
  4.4188440E-01;  9.9999998E-03; -2.4996002E-01;5135;  1.3003930E-02;  0.0000000E+00; -7.0972866E-03;  9.9796222E+02;  1.0000000E-01; -1.6882484E+03;3; -4.4559245E+00;  0.0000000E+00; -2.0394735E+00;0; -1.7195355E-02;  3.9811500E+04;  0.0000000E+00; -2.3227279E-01;  4.0000000E+04;  0.0000000E+00;  4.0023711E+04; -2.8929031E-02;  0.0000000E+00;  1.1733674E-02;  3.1671011E+03;
  4.4188091E-01;  9.9999998E-03; -2.3995619E-01;5136;  1.3550253E-02;  0.0000000E+00; -6.9852020E-03;  9.9807074E+02;  1.0000000E-01; -1.5983744E+03;3; -4.5203075E+00;  0.0000000E+00; -2.0108345E+00;0; -1.8926449E-02;  3.9820113E+04;  0.0000000E+00; -2.2924434E-01;  4.0000000E+04;  0.0000000E+00;  4.0023727E+04; -3.0293776E-02;  0.0000000E+00;  1.1367327E-02;  3.1728682E+03;
  4.4187748E-01;  9.9999998E-03; -2.2996119E-01;5137;  1.4049095E-02;  0.0000000E+00; -6.7268922E-03;  9.9813849E+02;  1.0000000E-01; -1.5422279E+03;3; -4.6215959E+00;  0.0000000E+00; -1.9020976E+00;0; -2.0983422E-02;  3.9828895E+04;  0.0000000E+00; -2.1409537E-01;  4.0000000E+04;  0.0000000E+00;  4.0020398E+04; -3.1794518E-02;  0.0000000E+00;  1.0811096E-02;  2.7422354E+03;
  4.4187310E-01;  9.9999998E-03; -2.1997400E-01;5138;  1.4539835E-02;  0.0000000E+00; -6.5542664E-03;  9.9820087E+02;  1.0000000E-01; -1.4905256E+03;3; -4.7232804E+00;  0.0000000E+00; -1.8037385E+00;0; -2.2441227E-02;  3.9837582E+04;  0.0000000E+00; -1.8884487E-01;  4.0000000E+04;  0.0000000E+00;  4.0016914E+04; -3.3425696E-02;  0.0000000E+00;  1.0984468E-02;  2.2688577E+03;
  4.4186848E-01;  9.9999998E-03; -2.0998533E-01;5139;  1.5023456E-02;  0.0000000E+00; -6.4576501E-03;  9.9827704E+02;  1.0000000E-01; -1.4274163E+03;3; -4.8198466E+00;  0.0000000E+00; -1.7375051E+00;0; -2.3649093E-02;  3.9846004E+04;  0.0000000E+00; -1.5506205E-01;  4.0000000E+04;  0.0000000E+00;  4.0014762E+04; -3.5177868E-02;  0.0000000E+00;  1.1528776E-02;  2.0023739E+03;
  4.4186446E-01;  9.9999998E-03; -1.9999282E-01;5140;  1.5488650E-02;  0.0000000E+00; -6.3795391E-03;  9.9836798E+02;  1.0000000E-01; -1.3521099E+03;3; -4.9250855E+00;  0.0000000E+00; -1.6768976E+00;0; -2.4767503E-02;  3.9854305E+04;  0.0000000E+00; -1.1450437E-01;  4.0000000E+04;  0.0000000E+00;  4.0013520E+04; -3.7034895E-02;  0.0000000E+00;  1.2267393E-02;  1.8553477E+03;
  4.4186151E-01;  9.9999998E-03; -1.8999746E-01;5141;  1.5931599E-02;  0.0000000E+00; -6.2991302E-03;  9.9845581E+02;  1.0000000E-01; -1.2793218E+03;3; -5.0383954E+00;  0.0000000E+00; -1.6155000E+00;0; -2.5762344E-02;  3.9862359E+04;  0.0000000E+00; -6.9536194E-02;  4.0000000E+04;  0.0000000E+00;  4.0012820E+04; -3.8974449E-02;  0.0000000E+00;  1.3212105E-02;  1.7486785E+03;
  4.4186053E-01;  9.9999998E-03; -1.8000051E-01;5142;  1.6350627E-02;  0.0000000E+00; -6.2087462E-03;  9.9854114E+02;  1.0000000E-01; -1.2086571E+03;3; -5.1656508E+00;  0.0000000E+00; -1.5414085E+00;0; -2.6568953E-02;  3.9869918E+04;  0.0000000E+00; -2.3249056E-02;  4.0000000E+04;  0.0000000E+00;  4.0012000E+04; -4.0969886E-02;  0.0000000E+00;  1.4400933E-02;  1.6585294E+03;
  4.4186237E-01;  9.9999998E-03; -1.7000289E-01;5143;  1.6744474E-02;  0.0000000E+00; -6.1048167E-03;  9.9862073E+02;  1.0000000E-01; -1.1426836E+03;3; -5.3042574E+00;  0.0000000E+00; -1.4689689E+00;0; -2.7130567E-02;  3.9876949E+04;  0.0000000E+00;  2.0817358E-02;  4.0000000E+04;  0.0000000E+00;  4.0011609E+04; -4.2992160E-02;  0.0000000E+00;  1.5861593E-02;  1.5837896E+03;
  4.4186750E-01;  9.9999998E-03; -1.6000517E-01;5144;  1.7112141E-02;  0.0000000E+00; -5.9851333E-03;  9.9869623E+02;  1.0000000E-01; -1.0801669E+03;3; -5.4544706E+00;  0.0000000E+00; -1.3896739E+00;0; -2.7408922E-02;  3.9883441E+04;  0.0000000E+00;  5.9230372E-02;  4.0000000E+04;  0.0000000E+00;  4.0011355E+04; -4.5012049E-02;  0.0000000E+00;  1.7603127E-02;  1.5264536E+03;
  4.4187590E-01;  9.9999998E-03; -1.5000744E-01;5145;  1.7452860E-02;  0.0000000E+00; -5.8411798E-03;  9.9877100E+02;  1.0000000E-01; -1.0181934E+03;3; -5.6167073E+00;  0.0000000E+00; -1.3024240E+00;0; -2.7389754E-02;  3.9889770E+04;  0.0000000E+00;  8.9355499E-02;  4.0000000E+04;  0.0000000E+00;  4.0010922E+04; -4.7002226E-02;  0.0000000E+00;  1.9612473E-02;  1.4848248E+03;
  4.4188723E-01;  9.9999998E-03; -1.4000948E-01;5146;  1.7765690E-02;  0.0000000E+00; -5.6661172E-03;  9.9883588E+02;  1.0000000E-01; -9.6446649E+02;3; -5.7850428E+00;  0.0000000E+00; -1.2071929E+00;0; -2.7081924E-02;  3.9895453E+04;  0.0000000E+00;  1.0990432E-01;  4.0000000E+04;  0.0000000E+00;  4.0010609E+04; -4.8938029E-02;  0.0000000E+00;  2.1856105E-02;  1.4528629E+03;
  4.4190034E-01;  9.9999998E-03; -1.3001120E-01;5147;  1.8050093E-02;  0.0000000E+00; -5.4564262E-03;  9.9889514E+02;  1.0000000E-01; -9.1533209E+02;3; -5.9593549E+00;  0.0000000E+00; -1.1042932E+00;0; -2.6509015E-02;  3.9900746E+04;  0.0000000E+00;  1.2096476E-01;  4.0000000E+04;  0.0000000E+00;  4.0010590E+04; -5.0796762E-02;  0.0000000E+00;  2.4287747E-02;  1.4219989E+03;
  4.4191408E-01;  9.9999998E-03; -1.2001263E-01;5148;  1.8305916E-02;  0.0000000E+00; -5.2064760E-03;  9.9895050E+02;  1.0000000E-01; -8.6950623E+02;3; -6.1327100E+00;  0.0000000E+00; -1.0074625E+00;0; -2.5701491E-02;  3.9905391E+04;  0.0000000E+00;  1.2351463E-01;  4.0000000E+04;  0.0000000E+00;  4.0010266E+04; -5.2557658E-02;  0.0000000E+00;  2.6856167E-02;  1.3839941E+03;
  4.4192588E-01;  9.9999998E-03; -1.1001359E-01;5149;  1.8534735E-02;  0.0000000E+00; -4.9139927E-03;  9.9899750E+02;  1.0000000E-01; -8.3054437E+02;3; -6.2979565E+00;  0.0000000E+00; -9.2118049E-01;0; -2.4698209E-02;  3.9909559E+04;  0.0000000E+00;  1.1903867E-01;  4.0000000E+04;  0.0000000E+00;  4.0009758E+04; -5.4201301E-02;  0.0000000E+00;  2.9503092E-02;  1.3338201E+03;
  4.5196104E-01;  9.9999998E-03; -2.6996166E-01;5194;  1.1596897E-02;  0.0000000E+00; -7.8433929E-03;  9.9792371E+02;  1.0000000E-01; -1.7201488E+03;3; -4.3349023E+00;  0.0000000E+00; -1.9706713E+00;0; -1.5522441E-02;  3.9811227E+04;  0.0000000E+00; -1.5318225E-01;  4.0000000E+04;  0.0000000E+00;  4.0021082E+04; -2.6262870E-02;  0.0000000E+00;  1.0740429E-02;  2.8305410E+03;
  4.5196456E-01;  9.9999998E-03; -2.5996321E-01;5195;  1.2166391E-02;  0.0000000E+00; -7.8305863E-03;  9.9799890E+02;  1.0000000E-01; -1.6578789E+03;3; -4.3708472E+00;  0.0000000E+00; -2.0006063E+00;0; -1.6046546E-02;  3.9817465E+04;  0.0000000E+00; -2.0115542E-01;  4.0000000E+04;  0.0000000E+00;  4.0020809E+04; -2.7555948E-02;  0.0000000E+00;  1.1509402E-02;  2.8026316E+03;
  4.5196253E-01;  9.9999998E-03; -2.4996227E-01;5196;  1.2720381E-02;  0.0000000E+00; -7.8341654E-03;  9.9808740E+02;  1.0000000E-01; -1.5845476E+03;3; -4.4153428E+00;  0.0000000E+00; -2.0206511E+00;0; -1.6915802E-02;  3.9824043E+04;  0.0000000E+00; -2.2439218E-01;  4.0000000E+04;  0.0000000E+00;  4.0021445E+04; -2.9005188E-02;  0.0000000E+00;  1.2089388E-02;  2.8746890E+03;
  4.5195714E-01;  9.9999998E-03; -2.3995943E-01;5197;  1.3239565E-02;  0.0000000E+00; -7.7366414E-03;  9.9817395E+02;  1.0000000E-01; -1.5128459E+03;3; -4.4813690E+00;  0.0000000E+00; -2.0040648E+00;0; -1.8642325E-02;  3.9830902E+04;  0.0000000E+00; -2.2917059E-01;  4.0000000E+04;  0.0000000E+00;  4.0021621E+04; -3.0611597E-02;  0.0000000E+00;  1.1969272E-02;  2.8909792E+03;
  4.5195007E-01;  9.9999998E-03; -2.2996223E-01;5198;  1.3719509E-02;  0.0000000E+00; -7.5264494E-03;  9.9823560E+02;  1.0000000E-01; -1.4617858E+03;3; -4.5786295E+00;  0.0000000E+00; -1.9225285E+00;0; -2.0631745E-02;  3.9837957E+04;  0.0000000E+00; -2.1992326E-01;  4.0000000E+04;  0.0000000E+00;  4.0019445E+04; -3.2371037E-02;  0.0000000E+00;  1.1739292E-02;  2.5907307E+03;
  4.5194104E-01;  9.9999998E-03; -2.1997100E-01;5199;  1.4191448E-02;  0.0000000E+00; -7.3567075E-03;  9.9828430E+02;  1.0000000E-01; -1.4214412E+03;3; -4.6765723E+00;  0.0000000E+00; -1.8410339E+00;0; -2.2210918E-02;  3.9844992E+04;  0.0000000E+00; -1.9980612E-01;  4.0000000E+04;  0.0000000E+00;  4.0016461E+04; -3.4275826E-02;  0.0000000E+00;  1.2064907E-02;  2.2242542E+03;
  4.5193058E-01;  9.9999998E-03; -2.0998019E-01;5200;  1.4655187E-02;  0.0000000E+00; -7.2442149E-03;  9.9834949E+02;  1.0000000E-01; -1.3674180E+03;3; -4.7754989E+00;  0.0000000E+00; -1.7695051E+00;0; -2.3548776E-02;  3.9852184E+04;  0.0000000E+00; -1.7092772E-01;  4.0000000E+04;  0.0000000E+00;  4.0014539E+04; -3.6312744E-02;  0.0000000E+00;  1.2763968E-02;  1.9822321E+03;
  4.5192096E-01;  9.9999998E-03; -1.9998719E-01;5201;  1.5099497E-02;  0.0000000E+00; -7.1442416E-03;  9.9842249E+02;  1.0000000E-01; -1.3069259E+03;3; -4.8807111E+00;  0.0000000E+00; -1.7081466E+00;0; -2.4772691E-02;  3.9859102E+04;  0.0000000E+00; -1.3510843E-01;  4.0000000E+04;  0.0000000E+00;  4.0013555E+04; -3.8461320E-02;  0.0000000E+00;  1.3688629E-02;  1.8366039E+03;
  4.5191327E-01;  9.9999998E-03; -1.8999211E-01;5202;  1.5519756E-02;  0.0000000E+00; -7.0391288E-03;  9.9849677E+02;  1.0000000E-01; -1.2453967E+03;3; -4.9966736E+00;  0.0000000E+00; -1.6325586E+00;0; -2.5851540E-02;  3.9865801E+04;  0.0000000E+00; -9.4580986E-02;  4.0000000E+04;  0.0000000E+00;  4.0012738E+04; -4.0694393E-02;  0.0000000E+00;  1.4842853E-02;  1.7341940E+03;
  4.5190817E-01;  9.9999998E-03; -1.7999573E-01;5203;  1.5913958E-02;  0.0000000E+00; -6.9210711E-03;  9.9857288E+02;  1.0000000E-01; -1.1823368E+03;3; -5.1280003E+00;  0.0000000E+00; -1.5573869E+00;0; -2.6726648E-02;  3.9872434E+04;  0.0000000E+00; -5.2253749E-02;  4.0000000E+04;  0.0000000E+00;  4.0012312E+04; -4.2979669E-02;  0.0000000E+00;  1.6253021E-02;  1.6524655E+03;
  4.5190614E-01;  9.9999998E-03; -1.6999868E-01;5204;  1.6282007E-02;  0.0000000E+00; -6.7897174E-03;  9.9864624E+02;  1.0000000E-01; -1.1215485E+03;3; -5.2702250E+00;  0.0000000E+00; -1.4747041E+00;0; -2.7344747E-02;  3.9878758E+04;  0.0000000E+00; -1.1485605E-02;  4.0000000E+04;  0.0000000E+00;  4.0011488E+04; -4.5282923E-02;  0.0000000E+00;  1.7938176E-02;  1.5868494E+03;
  4.5190755E-01;  9.9999998E-03; -1.6000129E-01;5205;  1.6623670E-02;  0.0000000E+00; -6.6387663E-03;  9.9871466E+02;  1.0000000E-01; -1.0648586E+03;3; -5.4240618E+00;  0.0000000E+00; -1.3833679E+00;0; -2.7670845E-02;  3.9884809E+04;  0.0000000E+00;  2.4478655E-02;  4.0000000E+04;  0.0000000E+00;  4.0011352E+04; -4.7570586E-02;  0.0000000E+00;  1.9899741E-02;  1.5362646E+03;
  4.5191243E-01;  9.9999998E-03; -1.5000376E-01;5206;  1.6938666E-02;  0.0000000E+00; -6.4620893E-03;  9.9878180E+02;  1.0000000E-01; -1.0092553E+03;3; -5.5869603E+00;  0.0000000E+00; -1.2870585E+00;0; -2.7692549E-02;  3.9890562E+04;  0.0000000E+00;  5.3211827E-02;  4.0000000E+04;  0.0000000E+00;  4.0011098E+04; -4.9812332E-02;  0.0000000E+00;  2.2119783E-02;  1.4976350E+03;
  4.5192039E-01;  9.9999998E-03; -1.4000608E-01;5207;  1.7226703E-02;  0.0000000E+00; -6.2550185E-03;  9.9884430E+02;  1.0000000E-01; -9.5745435E+02;3; -5.7574825E+00;  0.0000000E+00; -1.1882124E+00;0; -2.7419582E-02;  3.9896020E+04;  0.0000000E+00;  7.3620461E-02;  4.0000000E+04;  0.0000000E+00;  4.0010875E+04; -5.1982176E-02;  0.0000000E+00;  2.4562594E-02;  1.4651138E+03;
  4.5193014E-01;  9.9999998E-03; -1.3000816E-01;5208;  1.7488448E-02;  0.0000000E+00; -6.0108379E-03;  9.9889905E+02;  1.0000000E-01; -9.1212225E+02;3; -5.9333544E+00;  0.0000000E+00; -1.0829097E+00;0; -2.6874000E-02;  3.9901035E+04;  0.0000000E+00;  8.5896991E-02;  4.0000000E+04;  0.0000000E+00;  4.0010520E+04; -5.4057237E-02;  0.0000000E+00;  2.7183237E-02;  1.4313536E+03;
  4.5194000E-01;  9.9999998E-03; -1.2000977E-01;5209;  1.7724592E-02;  0.0000000E+00; -5.7285936E-03;  9.9895142E+02;  1.0000000E-01; -8.6871613E+02;3; -6.0989456E+00;  0.0000000E+00; -9.9201483E-01;0; -2.6083028E-02;  3.9905422E+04;  0.0000000E+00;  9.0936415E-02;  4.0000000E+04;  0.0000000E+00;  4.0010258E+04; -5.6017336E-02;  0.0000000E+00;  2.9934308E-02;  1.3896703E+03;
  4.5194945E-01;  9.9999998E-03; -1.1001049E-01;5210;  1.7936496E-02;  0.0000000E+00; -5.4033813E-03;  9.9899280E+02;  1.0000000E-01; -8.3444550E+02;3; -6.2727971E+00;  0.0000000E+00; -8.9809954E-01;0; -2.5083162E-02;  3.9909117E+04;  0.0000000E+00;  8.9948863E-02;  4.0000000E+04;  0.0000000E+00;  4.0009863E+04; -5.7844922E-02;  0.0000000E+00;  3.2761760E-02;  1.3367380E+03;
  4.6202651E-01;  9.9999998E-03; -2.6996303E-01;5255;  1.1390788E-02;  0.0000000E+00; -8.5934922E-03;  9.9811810E+02;  1.0000000E-01; -1.5591163E+03;3; -4.2841783E+00;  0.0000000E+00; -1.9592762E+00;0; -1.4746278E-02;  3.9829230E+04;  0.0000000E+00; -1.0076106E-01;  4.0000000E+04;  0.0000000E+00;  4.0019012E+04; -2.5840627E-02;  0.0000000E+00;  1.1094349E-02;  2.5499636E+03;
  4.6203104E-01;  9.9999998E-03; -2.5996494E-01;5256;  1.1933694E-02;  0.0000000E+00; -8.5741570E-03;  9.9817566E+02;  1.0000000E-01; -1.5114139E+03;3; -4.3210483E+00;  0.0000000E+00; -1.9874376E+00;0; -1.5554565E-02;  3.9834215E+04;  0.0000000E+00; -1.6373780E-01;  4.0000000E+04;  0.0000000E+00;  4.0018824E+04; -2.7338268E-02;  0.0000000E+00;  1.1783703E-02;  2.5241150E+03;
  4.6202973E-01;  9.9999998E-03; -2.4996573E-01;5257;  1.2451616E-02;  0.0000000E+00; -8.5307015E-03;  9.9823737E+02;  1.0000000E-01; -1.4603043E+03;3; -4.3712559E+00;  0.0000000E+00; -2.0022464E+00;0; -1.6885173E-02;  3.9839258E+04;  0.0000000E+00; -1.9743955E-01;  4.0000000E+04;  0.0000000E+00;  4.0018797E+04; -2.9011961E-02;  0.0000000E+00;  1.2126789E-02;  2.5236526E+03;
  4.6202534E-01;  9.9999998E-03; -2.3996511E-01;5258;  1.2938780E-02;  0.0000000E+00; -8.4401397E-03;  9.9830426E+02;  1.0000000E-01; -1.4048984E+03;3; -4.4401350E+00;  0.0000000E+00; -1.9809356E+00;0; -1.8594066E-02;  3.9844496E+04;  0.0000000E+00; -2.0920499E-01;  4.0000000E+04;  0.0000000E+00;  4.0018668E+04; -3.0861802E-02;  0.0000000E+00;  1.2267737E-02;  2.5059116E+03;
  4.6201831E-01;  9.9999998E-03; -2.2996572E-01;5259;  1.3399271E-02;  0.0000000E+00; -8.2934126E-03;  9.9835864E+02;  1.0000000E-01; -1.3598132E+03;3; -4.5267687E+00;  0.0000000E+00; -1.9327233E+00;0; -2.0417310E-02;  3.9850188E+04;  0.0000000E+00; -2.0548452E-01;  4.0000000E+04;  0.0000000E+00;  4.0017660E+04; -3.2883011E-02;  0.0000000E+00;  1.2465701E-02;  2.3583330E+03;
  4.6200714E-01;  9.9999998E-03; -2.1996897E-01;5260;  1.3849069E-02;  0.0000000E+00; -8.1503410E-03;  9.9840747E+02;  1.0000000E-01; -1.3193700E+03;3; -4.6179528E+00;  0.0000000E+00; -1.8750842E+00;0; -2.2042662E-02;  3.9855789E+04;  0.0000000E+00; -1.9094150E-01;  4.0000000E+04;  0.0000000E+00;  4.0015977E+04; -3.5065092E-02;  0.0000000E+00;  1.3022431E-02;  2.1395273E+03;
  4.6199289E-01;  9.9999998E-03; -2.0997328E-01;5261;  1.4286210E-02;  0.0000000E+00; -8.0253519E-03;  9.9846368E+02;  1.0000000E-01; -1.2728035E+03;3; -4.7181811E+00;  0.0000000E+00; -1.8091545E+00;0; -2.3496252E-02;  3.9861652E+04;  0.0000000E+00; -1.6852450E-01;  4.0000000E+04;  0.0000000E+00;  4.0014352E+04; -3.7390679E-02;  0.0000000E+00;  1.3894428E-02;  1.9479884E+03;
  4.6197727E-01;  9.9999998E-03; -1.9997750E-01;5262;  1.4702760E-02;  0.0000000E+00; -7.9030395E-03;  9.9852252E+02;  1.0000000E-01; -1.2240641E+03;3; -4.8260202E+00;  0.0000000E+00; -1.7383300E+00;0; -2.4813823E-02;  3.9867531E+04;  0.0000000E+00; -1.4024188E-01;  4.0000000E+04;  0.0000000E+00;  4.0013305E+04; -3.9834302E-02;  0.0000000E+00;  1.5020479E-02;  1.8009407E+03;
  4.6196270E-01;  9.9999998E-03; -1.8998121E-01;5263;  1.5094032E-02;  0.0000000E+00; -7.7706832E-03;  9.9858368E+02;  1.0000000E-01; -1.1733988E+03;3; -4.9487653E+00;  0.0000000E+00; -1.6556643E+00;0; -2.5965018E-02;  3.9873445E+04;  0.0000000E+00; -1.0799201E-01;  4.0000000E+04;  0.0000000E+00;  4.0012375E+04; -4.2363532E-02;  0.0000000E+00;  1.6398514E-02;  1.6892244E+03;
  4.6194997E-01;  9.9999998E-03; -1.7998452E-01;5264;  1.5458697E-02;  0.0000000E+00; -7.6258658E-03;  9.9864594E+02;  1.0000000E-01; -1.1217953E+03;3; -5.0847721E+00;  0.0000000E+00; -1.5706503E+00;0; -2.6897447E-02;  3.9878996E+04;  0.0000000E+00; -7.4060425E-02;  4.0000000E+04;  0.0000000E+00;  4.0011848E+04; -4.4940747E-02;  0.0000000E+00;  1.8043300E-02;  1.6041189E+03;
  4.6194026E-01;  9.9999998E-03; -1.6998781E-01;5265;  1.5797237E-02;  0.0000000E+00; -7.4638464E-03;  9.9870801E+02;  1.0000000E-01; -1.0703894E+03;3; -5.2301497E+00;  0.0000000E+00; -1.4743797E+00;0; -2.7564993E-02;  3.9884699E+04;  0.0000000E+00; -4.1070092E-02;  4.0000000E+04;  0.0000000E+00;  4.0011578E+04; -4.7526829E-02;  0.0000000E+00;  1.9961836E-02;  1.5406495E+03;
  4.6193466E-01;  9.9999998E-03; -1.5999104E-01;5266;  1.6109627E-02;  0.0000000E+00; -7.2803204E-03;  9.9877057E+02;  1.0000000E-01; -1.0185390E+03;3; -5.3879323E+00;  0.0000000E+00; -1.3753917E+00;0; -2.7936639E-02;  3.9889930E+04;  0.0000000E+00; -1.1547274E-02;  4.0000000E+04;  0.0000000E+00;  4.0010891E+04; -5.0084859E-02;  0.0000000E+00;  2.2148220E-02;  1.4947087E+03;
  4.6193323E-01;  9.9999998E-03; -1.4999413E-01;5267;  1.6396424E-02;  0.0000000E+00; -7.0711211E-03;  9.9883063E+02;  1.0000000E-01; -9.6881201E+02;3; -5.5521169E+00;  0.0000000E+00; -1.2719487E+00;0; -2.8002826E-02;  3.9895164E+04;  0.0000000E+00;  1.2648643E-02;  4.0000000E+04;  0.0000000E+00;  4.0010906E+04; -5.2582260E-02;  0.0000000E+00;  2.4579434E-02;  1.4605052E+03;
  4.6193564E-01;  9.9999998E-03; -1.3999711E-01;5268;  1.6657900E-02;  0.0000000E+00; -6.8309372E-03;  9.9889020E+02;  1.0000000E-01; -9.1943073E+02;3; -5.7255673E+00;  0.0000000E+00; -1.1642081E+00;0; -2.7774058E-02;  3.9899957E+04;  0.0000000E+00;  3.0724032E-02;  4.0000000E+04;  0.0000000E+00;  4.0010656E+04; -5.4992307E-02;  0.0000000E+00;  2.7218249E-02;  1.4314708E+03;
  4.6194059E-01;  9.9999998E-03; -1.2999961E-01;5269;  1.6895533E-02;  0.0000000E+00; -6.5561812E-03;  9.9894275E+02;  1.0000000E-01; -8.7592578E+02;3; -5.8960471E+00;  0.0000000E+00; -1.0637580E+00;0; -2.7270474E-02;  3.9904582E+04;  0.0000000E+00;  4.2878941E-02;  4.0000000E+04;  0.0000000E+00;  4.0010387E+04; -5.7293087E-02;  0.0000000E+00;  3.0022614E-02;  1.4007850E+03;
  4.6194714E-01;  9.9999998E-03; -1.2000142E-01;5270;  1.7110366E-02;  0.0000000E+00; -6.2445346E-03;  9.9898657E+02;  1.0000000E-01; -8.3958112E+02;3; -6.0634618E+00;  0.0000000E+00; -9.7707206E-01;0; -2.6515078E-02;  3.9908465E+04;  0.0000000E+00;  4.9791809E-02;  4.0000000E+04;  0.0000000E+00;  4.0010156E+04; -5.9465889E-02;  0.0000000E+00;  3.2950811E-02;  1.3633784E+03;
  4.6195483E-01;  9.9999998E-03; -1.1000235E-01;5271;  1.7303878E-02;  0.0000000E+00; -5.8891354E-03;  9.9902417E+02;  1.0000000E-01; -8.0847089E+02;3; -6.2416415E+00;  0.0000000E+00; -8.7394410E-01;0; -2.5540754E-02;  3.9911891E+04;  0.0000000E+00;  5.2277923E-02;  4.0000000E+04;  0.0000000E+00;  4.0009727E+04; -6.1494548E-02;  0.0000000E+00;  3.5953794E-02;  1.3171564E+03;
  4.7200909E-01;  9.9999998E-03; -2.6996416E-01;5316;  1.1215606E-02;  0.0000000E+00; -9.3523655E-03;  9.9828705E+02;  1.0000000E-01; -1.4191697E+03;3; -4.2274399E+00;  0.0000000E+00; -1.9491041E+00;0; -1.3650868E-02;  3.9844945E+04;  0.0000000E+00; -4.6646576E-02;  4.0000000E+04;  0.0000000E+00;  4.0017340E+04; -2.5387123E-02;  0.0000000E+00;  1.1736255E-02;  2.3323179E+03;
  4.7201788E-01;  9.9999998E-03; -2.5996640E-01;5317;  1.1726155E-02;  0.0000000E+00; -9.3165087E-03;  9.9833038E+02;  1.0000000E-01; -1.3832694E+03;3; -4.2633858E+00;  0.0000000E+00; -1.9833702E+00;0; -1.4943342E-02;  3.9848891E+04;  0.0000000E+00; -1.1668724E-01;  4.0000000E+04;  0.0000000E+00;  4.0017211E+04; -2.7084850E-02;  0.0000000E+00;  1.2141508E-02;  2.3049583E+03;
  4.7202140E-01;  9.9999998E-03; -2.4996944E-01;5318;  1.2199305E-02;  0.0000000E+00; -9.2015844E-03;  9.9837231E+02;  1.0000000E-01; -1.3485050E+03;3; -4.3214216E+00;  0.0000000E+00; -1.9865868E+00;0; -1.6963311E-02;  3.9852949E+04;  0.0000000E+00; -1.5628074E-01;  4.0000000E+04;  0.0000000E+00;  4.0016312E+04; -2.8978601E-02;  0.0000000E+00;  1.2015290E-02;  2.1880320E+03;
  4.7202498E-01;  9.9999998E-03; -2.3997228E-01;5319;  1.2649542E-02;  0.0000000E+00; -9.0971338E-03;  9.9841437E+02;  1.0000000E-01; -1.3136417E+03;3; -4.3922105E+00;  0.0000000E+00; -1.9651431E+00;0; -1.8751331E-02;  3.9857371E+04;  0.0000000E+00; -1.7259118E-01;  4.0000000E+04;  0.0000000E+00;  4.0015414E+04; -3.1068053E-02;  0.0000000E+00;  1.2316723E-02;  2.0794167E+03;
  4.7202706E-01;  9.9999998E-03; -2.2997248E-01;5320;  1.3088983E-02;  0.0000000E+00; -9.0146316E-03;  9.9847064E+02;  1.0000000E-01; -1.2670258E+03;3; -4.4663095E+00;  0.0000000E+00; -1.9419295E+00;0; -2.0367026E-02;  3.9862059E+04;  0.0000000E+00; -1.7302817E-01;  4.0000000E+04;  0.0000000E+00;  4.0015270E+04; -3.3348158E-02;  0.0000000E+00;  1.2981131E-02;  2.0445695E+03;
  4.7202319E-01;  9.9999998E-03; -2.1997093E-01;5321;  1.3513610E-02;  0.0000000E+00; -8.9098569E-03;  9.9852588E+02;  1.0000000E-01; -1.2212987E+03;3; -4.5529690E+00;  0.0000000E+00; -1.9032494E+00;0; -2.1982189E-02;  3.9867000E+04;  0.0000000E+00; -1.6327168E-01;  4.0000000E+04;  0.0000000E+00;  4.0014754E+04; -3.5805833E-02;  0.0000000E+00;  1.3823644E-02;  1.9848846E+03;
  4.7201318E-01;  9.9999998E-03; -2.0996979E-01;5322;  1.3919212E-02;  0.0000000E+00; -8.7831402E-03;  9.9857928E+02;  1.0000000E-01; -1.1770531E+03;3; -4.6531839E+00;  0.0000000E+00; -1.8412151E+00;0; -2.3518119E-02;  3.9872188E+04;  0.0000000E+00; -1.4724158E-01;  4.0000000E+04;  0.0000000E+00;  4.0013871E+04; -3.8419120E-02;  0.0000000E+00;  1.4901000E-02;  1.8690745E+03;
  4.7199854E-01;  9.9999998E-03; -1.9996978E-01;5323;  1.4301885E-02;  0.0000000E+00; -8.6422926E-03;  9.9863165E+02;  1.0000000E-01; -1.1336469E+03;3; -4.7639875E+00;  0.0000000E+00; -1.7716753E+00;0; -2.4912538E-02;  3.9877320E+04;  0.0000000E+00; -1.2737897E-01;  4.0000000E+04;  0.0000000E+00;  4.0012836E+04; -4.1157253E-02;  0.0000000E+00;  1.6244715E-02;  1.7359578E+03;
  4.7198191E-01;  9.9999998E-03; -1.8997073E-01;5324;  1.4658871E-02;  0.0000000E+00; -8.4874853E-03;  9.9868542E+02;  1.0000000E-01; -1.0891049E+03;3; -4.8910866E+00;  0.0000000E+00; -1.6875331E+00;0; -2.6121790E-02;  3.9882438E+04;  0.0000000E+00; -1.0535029E-01;  4.0000000E+04;  0.0000000E+00;  4.0011906E+04; -4.3982323E-02;  0.0000000E+00;  1.7860534E-02;  1.6174604E+03;
  4.7196546E-01;  9.9999998E-03; -1.7997253E-01;5325;  1.4989711E-02;  0.0000000E+00; -8.3148861E-03;  9.9874182E+02;  1.0000000E-01; -1.0423901E+03;3; -5.0303197E+00;  0.0000000E+00; -1.5868671E+00;0; -2.7101496E-02;  3.9887664E+04;  0.0000000E+00; -8.2667656E-02;  4.0000000E+04;  0.0000000E+00;  4.0011070E+04; -4.6851508E-02;  0.0000000E+00;  1.9750012E-02;  1.5250367E+03;
  4.7195163E-01;  9.9999998E-03; -1.6997510E-01;5326;  1.5294690E-02;  0.0000000E+00; -8.1218304E-03;  9.9879419E+02;  1.0000000E-01; -9.9898401E+02;3; -5.1823463E+00;  0.0000000E+00; -1.4791759E+00;0; -2.7811177E-02;  3.9892609E+04;  0.0000000E+00; -6.0861308E-02;  4.0000000E+04;  0.0000000E+00;  4.0010738E+04; -4.9721327E-02;  0.0000000E+00;  2.1910150E-02;  1.4593562E+03;
  4.7194135E-01;  9.9999998E-03; -1.5997832E-01;5327;  1.5574906E-02;  0.0000000E+00; -7.9065822E-03;  9.9885138E+02;  1.0000000E-01; -9.5162732E+02;3; -5.3420825E+00;  0.0000000E+00; -1.3675166E+00;0; -2.8225174E-02;  3.9897395E+04;  0.0000000E+00; -4.1319810E-02;  4.0000000E+04;  0.0000000E+00;  4.0010566E+04; -5.2551668E-02;  0.0000000E+00;  2.4326494E-02;  1.4153411E+03;
  4.7193497E-01;  9.9999998E-03; -1.4998198E-01;5328;  1.5830906E-02;  0.0000000E+00; -7.6643522E-03;  9.9890497E+02;  1.0000000E-01; -9.0723352E+02;3; -5.5114851E+00;  0.0000000E+00; -1.2558464E+00;0; -2.8337417E-02;  3.9901965E+04;  0.0000000E+00; -2.4993019E-02;  4.0000000E+04;  0.0000000E+00;  4.0010258E+04; -5.5308212E-02;  0.0000000E+00;  2.6970794E-02;  1.3854242E+03;
  4.7193229E-01;  9.9999998E-03; -1.3998571E-01;5329;  1.6064083E-02;  0.0000000E+00; -7.3935175E-03;  9.9895673E+02;  1.0000000E-01; -8.6432117E+02;3; -5.6820645E+00;  0.0000000E+00; -1.1484120E+00;0; -2.8159361E-02;  3.9906250E+04;  0.0000000E+00; -1.2158480E-02;  4.0000000E+04;  0.0000000E+00;  4.0010145E+04; -5.7964206E-02;  0.0000000E+00;  2.9804844E-02;  1.3619752E+03;
  4.7193271E-01;  9.9999998E-03; -1.2998907E-01;5330;  1.6276116E-02;  0.0000000E+00; -7.0902775E-03;  9.9900250E+02;  1.0000000E-01; -8.2639630E+02;3; -5.8483849E+00;  0.0000000E+00; -1.0539018E+00;0; -2.7708694E-02;  3.9910113E+04;  0.0000000E+00; -2.4905503E-03;  4.0000000E+04;  0.0000000E+00;  4.0009887E+04; -6.0499188E-02;  0.0000000E+00;  3.2790493E-02;  1.3387030E+03;
  4.7193587E-01;  9.9999998E-03; -1.1999165E-01;5331;  1.6467905E-02;  0.0000000E+00; -6.7511667E-03;  9.9904382E+02;  1.0000000E-01; -7.9217505E+02;3; -6.0211077E+00;  0.0000000E+00; -9.5978642E-01;0; -2.7003583E-02;  3.9913707E+04;  0.0000000E+00;  4.5041521E-03;  4.0000000E+04;  0.0000000E+00;  4.0009777E+04; -6.2896065E-02;  0.0000000E+00;  3.5892483E-02;  1.3116357E+03;
  4.7194123E-01;  9.9999998E-03; -1.0999332E-01;5332;  1.6640972E-02;  0.0000000E+00; -6.3699610E-03;  9.9907831E+02;  1.0000000E-01; -7.6358331E+02;3; -6.2001710E+00;  0.0000000E+00; -8.5695887E-01;0; -2.6072320E-02;  3.9916516E+04;  0.0000000E+00;  9.2793824E-03;  4.0000000E+04;  0.0000000E+00;  4.0009527E+04; -6.5140046E-02;  0.0000000E+00;  3.9067727E-02;  1.2795830E+03;
  4.8195207E-01;  9.9999998E-03; -1.0998721E-01;5393;  1.5948113E-02;  0.0000000E+00; -6.8446323E-03;  9.9914636E+02;  1.0000146E-01; -7.0723920E+02;3; -6.1520219E+00;  0.0000000E+00; -8.3832586E-01;0; -2.6682664E-02;  3.9921430E+04;  0.0000000E+00; -3.5228163E-02;  4.0000000E+04;  0.0000000E+00;  4.0009043E+04; -6.8792373E-02;  0.0000000E+00;  4.2109709E-02;  1.2271078E+03;
  4.8194873E-01;  9.9999998E-03; -1.1998496E-01;5392;  1.5797643E-02;  0.0000000E+00; -7.2483867E-03;  9.9911823E+02;  1.0000150E-01; -7.3054718E+02;3; -5.9712458E+00;  0.0000000E+00; -9.4279289E-01;0; -2.7558424E-02;  3.9919230E+04;  0.0000000E+00; -4.0335592E-02;  4.0000000E+04;  0.0000000E+00;  4.0009094E+04; -6.6320375E-02;  0.0000000E+00;  3.8761951E-02;  1.2404856E+03;
  4.8194826E-01;  9.9999998E-03; -1.2998183E-01;5391;  1.5630988E-02;  0.0000000E+00; -7.6128147E-03;  9.9908350E+02;  1.0000146E-01; -7.5928711E+02;3; -5.7931600E+00;  0.0000000E+00; -1.0442222E+00;0; -2.8203476E-02;  3.9916090E+04;  0.0000000E+00; -4.4993620E-02;  4.0000000E+04;  0.0000000E+00;  4.0009336E+04; -6.3688897E-02;  0.0000000E+00;  3.5485420E-02;  1.2539136E+03;
  4.8195004E-01;  9.9999998E-03; -1.3997804E-01;5390;  1.5446749E-02;  0.0000000E+00; -7.9435315E-03;  9.9903961E+02;  1.0000150E-01; -7.9568115E+02;3; -5.6201591E+00;  0.0000000E+00; -1.1479021E+00;0; -2.8594594E-02;  3.9912934E+04;  0.0000000E+00; -4.9421266E-02;  4.0000000E+04;  0.0000000E+00;  4.0009137E+04; -6.0911246E-02;  0.0000000E+00;  3.2316651E-02;  1.2682585E+03;
  4.8195356E-01;  9.9999998E-03; -1.4997408E-01;5389;  1.5243743E-02;  0.0000000E+00; -8.2431622E-03;  9.9899438E+02;  1.0000141E-01; -8.3311218E+02;3; -5.4546862E+00;  0.0000000E+00; -1.2515254E+00;0; -2.8718552E-02;  3.9909105E+04;  0.0000000E+00; -5.4123152E-02;  4.0000000E+04;  0.0000000E+00;  4.0009461E+04; -5.8002502E-02;  0.0000000E+00;  2.9283950E-02;  1.2868224E+03;
  4.8195812E-01;  9.9999998E-03; -1.5997052E-01;5388;  1.5020850E-02;  0.0000000E+00; -8.5159801E-03;  9.9894550E+02;  1.0000144E-01; -8.7365424E+02;3; -5.2860126E+00;  0.0000000E+00; -1.3674372E+00;0; -2.8560294E-02;  3.9904941E+04;  0.0000000E+00; -5.9777819E-02;  4.0000000E+04;  0.0000000E+00;  4.0009668E+04; -5.4981925E-02;  0.0000000E+00;  2.6421631E-02;  1.3153317E+03;
  4.8196349E-01;  9.9999998E-03; -1.6996779E-01;5387;  1.4776177E-02;  0.0000000E+00; -8.7625878E-03;  9.9889417E+02;  1.0000145E-01; -9.1617157E+02;3; -5.1224837E+00;  0.0000000E+00; -1.4902914E+00;0; -2.8107570E-02;  3.9900309E+04;  0.0000000E+00; -6.6908054E-02;  4.0000000E+04;  0.0000000E+00;  4.0009898E+04; -5.1876284E-02;  0.0000000E+00;  2.3768714E-02;  1.3612860E+03;
  4.8196888E-01;  9.9999998E-03; -1.7996642E-01;5386;  1.4508281E-02;  0.0000000E+00; -8.9847120E-03;  9.9884106E+02;  1.0000140E-01; -9.6017029E+02;3; -4.9661450E+00;  0.0000000E+00; -1.6092461E+00;0; -2.7362004E-02;  3.9895820E+04;  0.0000000E+00; -7.5750932E-02;  4.0000000E+04;  0.0000000E+00;  4.0010527E+04; -4.8720907E-02;  0.0000000E+00;  2.1358903E-02;  1.4318834E+03;
  4.8197374E-01;  9.9999998E-03; -1.8996677E-01;5385;  1.4215840E-02;  0.0000000E+00; -9.1830017E-03;  9.9878973E+02;  1.0000148E-01; -1.0026876E+03;3; -4.8232903E+00;  0.0000000E+00; -1.7148405E+00;0; -2.6343739E-02;  3.9890773E+04;  0.0000000E+00; -8.6240843E-02;  4.0000000E+04;  0.0000000E+00;  4.0011359E+04; -4.5559492E-02;  0.0000000E+00;  1.9215753E-02;  1.5292186E+03;
  4.8197708E-01;  9.9999998E-03; -1.9996922E-01;5384;  1.3897745E-02;  0.0000000E+00; -9.3575362E-03;  9.9873627E+02;  1.0000140E-01; -1.0469827E+03;3; -4.6932597E+00;  0.0000000E+00; -1.8071032E+00;0; -2.5087010E-02;  3.9885492E+04;  0.0000000E+00; -9.7990684E-02;  4.0000000E+04;  0.0000000E+00;  4.0012191E+04; -4.2439695E-02;  0.0000000E+00;  1.7352685E-02;  1.6412462E+03;
  4.8197630E-01;  9.9999998E-03; -2.0997338E-01;5383;  1.3553583E-02;  0.0000000E+00; -9.5082484E-03;  9.9867841E+02;  1.0000147E-01; -1.0949319E+03;3; -4.5804644E+00;  0.0000000E+00; -1.8723028E+00;0; -2.3634095E-02;  3.9880301E+04;  0.0000000E+00; -1.1015467E-01;  4.0000000E+04;  0.0000000E+00;  4.0012934E+04; -3.9409500E-02;  0.0000000E+00;  1.5775405E-02;  1.7356276E+03;
  4.8197117E-01;  9.9999998E-03; -2.1997842E-01;5382;  1.3183319E-02;  0.0000000E+00; -9.6281506E-03;  9.9861505E+02;  1.0000146E-01; -1.1474242E+03;3; -4.4831619E+00;  0.0000000E+00; -1.9203000E+00;0; -2.2044448E-02;  3.9875156E+04;  0.0000000E+00; -1.2116410E-01;  4.0000000E+04;  0.0000000E+00;  4.0013027E+04; -3.6512583E-02;  0.0000000E+00;  1.4468135E-02;  1.7595929E+03;
  4.8196277E-01;  9.9999998E-03; -2.2998218E-01;5381;  1.2786767E-02;  0.0000000E+00; -9.6926102E-03;  9.9854626E+02;  1.0000141E-01; -1.2044103E+03;3; -4.4038272E+00;  0.0000000E+00; -1.9427977E+00;0; -2.0467620E-02;  3.9870246E+04;  0.0000000E+00; -1.2835573E-01;  4.0000000E+04;  0.0000000E+00;  4.0012375E+04; -3.3784617E-02;  0.0000000E+00;  1.3316996E-02;  1.6830898E+03;
  4.8195159E-01;  9.9999998E-03; -2.3997995E-01;5380;  1.2372117E-02;  0.0000000E+00; -9.7245323E-03;  9.9848608E+02;  1.0000148E-01; -1.2542361E+03;3; -4.3348775E+00;  0.0000000E+00; -1.9520576E+00;0; -1.9027278E-02;  3.9865570E+04;  0.0000000E+00; -1.2759833E-01;  4.0000000E+04;  0.0000000E+00;  4.0012348E+04; -3.1251568E-02;  0.0000000E+00;  1.2224291E-02;  1.6738043E+03;
  4.8193973E-01;  9.9999998E-03; -2.4997255E-01;5379;  1.1963801E-02;  0.0000000E+00; -9.8683648E-03;  9.9846271E+02;  1.0000146E-01; -1.2735935E+03;3; -4.2612033E+00;  0.0000000E+00; -1.9755540E+00;0; -1.6995691E-02;  3.9861367E+04;  0.0000000E+00; -1.1296956E-01;  4.0000000E+04;  0.0000000E+00;  4.0014461E+04; -2.8928494E-02;  0.0000000E+00;  1.1932804E-02;  1.9358667E+03;
  4.8192951E-01;  9.9999998E-03; -2.5996742E-01;5378;  1.1537608E-02;  0.0000000E+00; -1.0050373E-02;  9.9843866E+02;  1.0000148E-01; -1.2935436E+03;3; -4.2012048E+00;  0.0000000E+00; -1.9730183E+00;0; -1.4259811E-02;  3.9857543E+04;  0.0000000E+00; -7.7223256E-02;  4.0000000E+04;  0.0000000E+00;  4.0016234E+04; -2.6820526E-02;  0.0000000E+00;  1.2560714E-02;  2.1694817E+03;
  4.8191810E-01;  9.9999998E-03; -2.6996493E-01;5377;  1.1061653E-02;  0.0000000E+00; -1.0083321E-02;  9.9840082E+02;  1.0000148E-01; -1.3249008E+03;3; -4.1678505E+00;  0.0000000E+00; -1.9334502E+00;0; -1.2650169E-02;  3.9854031E+04;  0.0000000E+00; -1.4062577E-02;  4.0000000E+04;  0.0000000E+00;  4.0016305E+04; -2.4928594E-02;  0.0000000E+00;  1.2278426E-02;  2.1967720E+03;
  4.9202165E-01;  9.9999998E-03; -1.0997227E-01;5454;  1.5223587E-02;  0.0000000E+00; -7.3082824E-03;  9.9919110E+02;  1.0000202E-01; -6.7015381E+02;3; -6.0969701E+00;  0.0000000E+00; -8.1485289E-01;0; -2.7374648E-02;  3.9925297E+04;  0.0000000E+00; -7.7073485E-02;  4.0000000E+04;  0.0000000E+00;  4.0008539E+04; -7.2464474E-02;  0.0000000E+00;  4.5089826E-02;  1.1639099E+03;
  4.9201488E-01;  9.9999998E-03; -1.1997002E-01;5453;  1.5098471E-02;  0.0000000E+00; -7.7339211E-03;  9.9916583E+02;  1.0000196E-01; -6.9109149E+02;3; -5.9146976E+00;  0.0000000E+00; -9.2465550E-01;0; -2.8188150E-02;  3.9923535E+04;  0.0000000E+00; -8.0321349E-02;  4.0000000E+04;  0.0000000E+00;  4.0008613E+04; -6.9752924E-02;  0.0000000E+00;  4.1564774E-02;  1.1576687E+03;
  4.9201238E-01;  9.9999998E-03; -1.2996709E-01;5452;  1.4959327E-02;  0.0000000E+00; -8.1218239E-03;  9.9913708E+02;  1.0000198E-01; -7.1489331E+02;3; -5.7352247E+00;  0.0000000E+00; -1.0338780E+00;0; -2.8769098E-02;  3.9920953E+04;  0.0000000E+00; -8.0280215E-02;  4.0000000E+04;  0.0000000E+00;  4.0008590E+04; -6.6877007E-02;  0.0000000E+00;  3.8107909E-02;  1.1574803E+03;
  4.9201354E-01;  9.9999998E-03; -1.3996370E-01;5451;  1.4804982E-02;  0.0000000E+00; -8.4795207E-03;  9.9910175E+02;  1.0000201E-01; -7.4417645E+02;3; -5.5559464E+00;  0.0000000E+00; -1.1457201E+00;0; -2.9098943E-02;  3.9918090E+04;  0.0000000E+00; -7.7141605E-02;  4.0000000E+04;  0.0000000E+00;  4.0008449E+04; -6.3848831E-02;  0.0000000E+00;  3.4749888E-02;  1.1645547E+03;
  4.9201751E-01;  9.9999998E-03; -1.4996032E-01;5450;  1.4634438E-02;  0.0000000E+00; -8.8072000E-03;  9.9905817E+02;  1.0000207E-01; -7.8027417E+02;3; -5.3831997E+00;  0.0000000E+00; -1.2651122E+00;0; -2.9169533E-02;  3.9914797E+04;  0.0000000E+00; -7.1634375E-02;  4.0000000E+04;  0.0000000E+00;  4.0008590E+04; -6.0682304E-02;  0.0000000E+00;  3.1512771E-02;  1.1821638E+03;
  4.9202335E-01;  9.9999998E-03; -1.5995759E-01;5449;  1.4446546E-02;  0.0000000E+00; -9.1089932E-03;  9.9901306E+02;  1.0000201E-01; -8.1765582E+02;3; -5.2131720E+00;  0.0000000E+00; -1.3849878E+00;0; -2.8968275E-02;  3.9910758E+04;  0.0000000E+00; -6.5040983E-02;  4.0000000E+04;  0.0000000E+00;  4.0008797E+04; -5.7395298E-02;  0.0000000E+00;  2.8427023E-02;  1.2160920E+03;
  4.9202958E-01;  9.9999998E-03; -1.6995627E-01;5448;  1.4239342E-02;  0.0000000E+00; -9.3857087E-03;  9.9896350E+02;  1.0000210E-01; -8.5874109E+02;3; -5.0488272E+00;  0.0000000E+00; -1.5106301E+00;0; -2.8481403E-02;  3.9906379E+04;  0.0000000E+00; -5.8937032E-02;  4.0000000E+04;  0.0000000E+00;  4.0009418E+04; -5.4013826E-02;  0.0000000E+00;  2.5532423E-02;  1.2741614E+03;
  4.9203455E-01;  9.9999998E-03; -1.7995678E-01;5447;  1.4011103E-02;  0.0000000E+00; -9.6357279E-03;  9.9891089E+02;  1.0000210E-01; -9.0229541E+02;3; -4.8924737E+00;  0.0000000E+00; -1.6293910E+00;0; -2.7706215E-02;  3.9901277E+04;  0.0000000E+00; -5.4959740E-02;  4.0000000E+04;  0.0000000E+00;  4.0009961E+04; -5.0574165E-02;  0.0000000E+00;  2.2867950E-02;  1.3632015E+03;
  4.9203527E-01;  9.9999998E-03; -1.8995959E-01;5446;  1.3759942E-02;  0.0000000E+00; -9.8590674E-03;  9.9885260E+02;  1.0000215E-01; -9.5059033E+02;3; -4.7471924E+00;  0.0000000E+00; -1.7410958E+00;0; -2.6656128E-02;  3.9895844E+04;  0.0000000E+00; -5.4475222E-02;  4.0000000E+04;  0.0000000E+00;  4.0010949E+04; -4.7121990E-02;  0.0000000E+00;  2.0465862E-02;  1.4824155E+03;
  4.9202904E-01;  9.9999998E-03; -1.9996448E-01;5445;  1.3484248E-02;  0.0000000E+00; -1.0053347E-02;  9.9879156E+02;  1.0000205E-01; -1.0011568E+03;3; -4.6125569E+00;  0.0000000E+00; -1.8369102E+00;0; -2.5358504E-02;  3.9889941E+04;  0.0000000E+00; -5.8205068E-02;  4.0000000E+04;  0.0000000E+00;  4.0011984E+04; -4.3709118E-02;  0.0000000E+00;  1.8350614E-02;  1.6151783E+03;
  4.9201781E-01;  9.9999998E-03; -2.0997164E-01;5444;  1.3182796E-02;  0.0000000E+00; -1.0217762E-02;  9.9872351E+02;  1.0000203E-01; -1.0575503E+03;3; -4.4999995E+00;  0.0000000E+00; -1.8996618E+00;0; -2.3848679E-02;  3.9883957E+04;  0.0000000E+00; -6.5878168E-02;  4.0000000E+04;  0.0000000E+00;  4.0012816E+04; -4.0388700E-02;  0.0000000E+00;  1.6540021E-02;  1.7141709E+03;
  4.9200130E-01;  9.9999998E-03; -2.1998028E-01;5443;  1.2853795E-02;  0.0000000E+00; -1.0342968E-02;  9.9864783E+02;  1.0000205E-01; -1.1202645E+03;3; -4.4024835E+00;  0.0000000E+00; -1.9401159E+00;0; -2.2183899E-02;  3.9878000E+04;  0.0000000E+00; -7.6017395E-02;  4.0000000E+04;  0.0000000E+00;  4.0012484E+04; -3.7209343E-02;  0.0000000E+00;  1.5025445E-02;  1.6981918E+03;
  4.9197957E-01;  9.9999998E-03; -2.2998622E-01;5442;  1.2492686E-02;  0.0000000E+00; -1.0390972E-02;  9.9855701E+02;  1.0000207E-01; -1.1954723E+03;3; -4.3262897E+00;  0.0000000E+00; -1.9586359E+00;0; -2.0558313E-02;  3.9872051E+04;  0.0000000E+00; -8.5724168E-02;  4.0000000E+04;  0.0000000E+00;  4.0011281E+04; -3.4212060E-02;  0.0000000E+00;  1.3653747E-02;  1.5495555E+03;
  4.9195251E-01;  9.9999998E-03; -2.3998272E-01;5441;  1.2111529E-02;  0.0000000E+00; -1.0408476E-02;  9.9849139E+02;  1.0000210E-01; -1.2498411E+03;3; -4.2620134E+00;  0.0000000E+00; -1.9576281E+00;0; -1.9064520E-02;  3.9866668E+04;  0.0000000E+00; -9.0707421E-02;  4.0000000E+04;  0.0000000E+00;  4.0011289E+04; -3.1427432E-02;  0.0000000E+00;  1.2362911E-02;  1.5472780E+03;
  4.9191764E-01;  9.9999998E-03; -2.4997273E-01;5440;  1.1745480E-02;  0.0000000E+00; -1.0583846E-02;  9.9847107E+02;  1.0000207E-01; -1.2666802E+03;3; -4.1920090E+00;  0.0000000E+00; -1.9744980E+00;0; -1.6673744E-02;  3.9861867E+04;  0.0000000E+00; -8.5031480E-02;  4.0000000E+04;  0.0000000E+00;  4.0014375E+04; -2.8872533E-02;  0.0000000E+00;  1.2198789E-02;  1.9280249E+03;
  4.9188149E-01;  9.9999998E-03; -2.5996709E-01;5439;  1.1356092E-02;  0.0000000E+00; -1.0762224E-02;  9.9844446E+02;  1.0000200E-01; -1.2887535E+03;3; -4.1313844E+00;  0.0000000E+00; -1.9662387E+00;0; -1.3670265E-02;  3.9857645E+04;  0.0000000E+00; -6.2649198E-02;  4.0000000E+04;  0.0000000E+00;  4.0016520E+04; -2.6553147E-02;  0.0000000E+00;  1.2882882E-02;  2.2015088E+03;
  4.9185103E-01;  9.9999998E-03; -2.6996467E-01;5438;  1.0917482E-02;  0.0000000E+00; -1.0772203E-02;  9.9840149E+02;  1.0000207E-01; -1.3243575E+03;3; -4.1026692E+00;  0.0000000E+00; -1.9248182E+00;0; -1.1953164E-02;  3.9853879E+04;  0.0000000E+00; -1.9226015E-02;  4.0000000E+04;  0.0000000E+00;  4.0016664E+04; -2.4471000E-02;  0.0000000E+00;  1.2517836E-02;  2.2164482E+03;
  5.0188714E-01;  9.9999998E-03; -2.6996341E-01;5499;  1.0776140E-02;  0.0000000E+00; -1.1439177E-02;  9.9830341E+02;  1.0000364E-01; -1.4055897E+03;3; -4.0311413E+00;  0.0000000E+00; -1.9173050E+00;0; -1.1314285E-02;  3.9843719E+04;  0.0000000E+00; -5.5782899E-02;  4.0000000E+04;  0.0000000E+00;  4.0017883E+04; -2.4002852E-02;  0.0000000E+00;  1.2688567E-02;  2.3833259E+03;
  5.0191325E-01;  9.9999998E-03; -2.5996575E-01;5500;  1.1173144E-02;  0.0000000E+00; -1.1440355E-02;  9.9835980E+02;  1.0000370E-01; -1.3588750E+03;3; -4.0575767E+00;  0.0000000E+00; -1.9603351E+00;0; -1.3255675E-02;  3.9848301E+04;  0.0000000E+00; -7.3761195E-02;  4.0000000E+04;  0.0000000E+00;  4.0017719E+04; -2.6275789E-02;  0.0000000E+00;  1.3020114E-02;  2.3621560E+03;
  5.0194144E-01;  9.9999998E-03; -2.4997161E-01;5501;  1.1523985E-02;  0.0000000E+00; -1.1268387E-02;  9.9839569E+02;  1.0000373E-01; -1.3291475E+03;3; -4.1112304E+00;  0.0000000E+00; -1.9718853E+00;0; -1.6484076E-02;  3.9853758E+04;  0.0000000E+00; -7.5353749E-02;  4.0000000E+04;  0.0000000E+00;  4.0015172E+04; -2.8806394E-02;  0.0000000E+00;  1.2322318E-02;  2.0554829E+03;
  5.0196308E-01;  9.9999998E-03; -2.3998159E-01;5502;  1.1857995E-02;  0.0000000E+00; -1.1113772E-02;  9.9843164E+02;  1.0000383E-01; -1.2993706E+03;3; -4.1778269E+00;  0.0000000E+00; -1.9660366E+00;0; -1.8979877E-02;  3.9859828E+04;  0.0000000E+00; -6.4764686E-02;  4.0000000E+04;  0.0000000E+00;  4.0012125E+04; -3.1592123E-02;  0.0000000E+00;  1.2612245E-02;  1.6563542E+03;
  5.0198036E-01;  9.9999998E-03; -2.2998454E-01;5503;  1.2201049E-02;  0.0000000E+00; -1.1098766E-02;  9.9851514E+02;  1.0000373E-01; -1.2301874E+03;3; -4.2406511E+00;  0.0000000E+00; -1.9703608E+00;0; -2.0637602E-02;  3.9866648E+04;  0.0000000E+00; -4.8606087E-02;  4.0000000E+04;  0.0000000E+00;  4.0012254E+04; -3.4625884E-02;  0.0000000E+00;  1.3988282E-02;  1.6548230E+03;
  5.0199741E-01;  9.9999998E-03; -2.1997851E-01;5504;  1.2520168E-02;  0.0000000E+00; -1.1039796E-02;  9.9861884E+02;  1.0000384E-01; -1.1442638E+03;3; -4.3208947E+00;  0.0000000E+00; -1.9530106E+00;0; -2.2406530E-02;  3.9873957E+04;  0.0000000E+00; -3.2393523E-02;  4.0000000E+04;  0.0000000E+00;  4.0013074E+04; -3.7888121E-02;  0.0000000E+00;  1.5481592E-02;  1.7771301E+03;
  5.0201100E-01;  9.9999998E-03; -2.0997024E-01;5505;  1.2805259E-02;  0.0000000E+00; -1.0901867E-02;  9.9871259E+02;  1.0000365E-01; -1.0665870E+03;3; -4.4189954E+00;  0.0000000E+00; -1.9164078E+00;0; -2.4162976E-02;  3.9881531E+04;  0.0000000E+00; -1.9882161E-02;  4.0000000E+04;  0.0000000E+00;  4.0013266E+04; -4.1344166E-02;  0.0000000E+00;  1.7181190E-02;  1.7604215E+03;
  5.0202143E-01;  9.9999998E-03; -1.9996308E-01;5506;  1.3061951E-02;  0.0000000E+00; -1.0720659E-02;  9.9879480E+02;  1.0000372E-01; -9.9849017E+02;3; -4.5335817E+00;  0.0000000E+00; -1.8519597E+00;0; -2.5732694E-02;  3.9888730E+04;  0.0000000E+00; -1.3835129E-02;  4.0000000E+04;  0.0000000E+00;  4.0012270E+04; -4.4948902E-02;  0.0000000E+00;  1.9216208E-02;  1.6349910E+03;
  5.0202876E-01;  9.9999998E-03; -1.8995771E-01;5507;  1.3293114E-02;  0.0000000E+00; -1.0505870E-02;  9.9886865E+02;  1.0000368E-01; -9.3730676E+02;3; -4.6692781E+00;  0.0000000E+00; -1.7602937E+00;0; -2.7069835E-02;  3.9895934E+04;  0.0000000E+00; -1.5494270E-02;  4.0000000E+04;  0.0000000E+00;  4.0010910E+04; -4.8649248E-02;  0.0000000E+00;  2.1579413E-02;  1.4768933E+03;
  5.0203288E-01;  9.9999998E-03; -1.7995398E-01;5508;  1.3500798E-02;  0.0000000E+00; -1.0257900E-02;  9.9893622E+02;  1.0000376E-01; -8.8130835E+02;3; -4.8171349E+00;  0.0000000E+00; -1.6484538E+00;0; -2.8148744E-02;  3.9902441E+04;  0.0000000E+00; -2.4633463E-02;  4.0000000E+04;  0.0000000E+00;  4.0009883E+04; -5.2388404E-02;  0.0000000E+00;  2.4239659E-02;  1.3317122E+03;
  5.0203288E-01;  9.9999998E-03; -1.6995198E-01;5509;  1.3687438E-02;  0.0000000E+00; -9.9822003E-03;  9.9899530E+02;  1.0000373E-01; -8.3237146E+02;3; -4.9750023E+00;  0.0000000E+00; -1.5277084E+00;0; -2.8949611E-02;  3.9908098E+04;  0.0000000E+00; -3.9666496E-02;  4.0000000E+04;  0.0000000E+00;  4.0008961E+04; -5.6110676E-02;  0.0000000E+00;  2.7161065E-02;  1.2179087E+03;
  5.0203103E-01;  9.9999998E-03; -1.5995181E-01;5510;  1.3855316E-02;  0.0000000E+00; -9.6780863E-03;  9.9904669E+02;  1.0000366E-01; -7.8980475E+02;3; -5.1421328E+00;  0.0000000E+00; -1.3987736E+00;0; -2.9466355E-02;  3.9912895E+04;  0.0000000E+00; -5.8018595E-02;  4.0000000E+04;  0.0000000E+00;  4.0008488E+04; -5.9768230E-02;  0.0000000E+00;  3.0301875E-02;  1.1389915E+03;
  5.0202888E-01;  9.9999998E-03; -1.4995314E-01;5511;  1.4006678E-02;  0.0000000E+00; -9.3493722E-03;  9.9909454E+02;  1.0000379E-01; -7.5015155E+02;3; -5.3142982E+00;  0.0000000E+00; -1.2711464E+00;0; -2.9706106E-02;  3.9916879E+04;  0.0000000E+00; -7.6716863E-02;  4.0000000E+04;  0.0000000E+00;  4.0007738E+04; -6.3323505E-02;  0.0000000E+00;  3.3617400E-02;  1.0908470E+03;
  5.0202775E-01;  9.9999998E-03; -1.3995539E-01;5512;  1.4143337E-02;  0.0000000E+00; -8.9938398E-03;  9.9913251E+02;  1.0000389E-01; -7.1869568E+02;3; -5.4899979E+00;  0.0000000E+00; -1.1430818E+00;0; -2.9684532E-02;  3.9919938E+04;  0.0000000E+00; -9.3036860E-02;  4.0000000E+04;  0.0000000E+00;  4.0007730E+04; -6.6750765E-02;  0.0000000E+00;  3.7066232E-02;  1.0670031E+03;
  5.0202811E-01;  9.9999998E-03; -1.2995791E-01;5513;  1.4266135E-02;  0.0000000E+00; -8.6119706E-03;  9.9916156E+02;  1.0000376E-01; -6.9464697E+02;3; -5.6692910E+00;  0.0000000E+00; -1.0257022E+00;0; -2.9412221E-02;  3.9922531E+04;  0.0000000E+00; -1.0494345E-01;  4.0000000E+04;  0.0000000E+00;  4.0007711E+04; -7.0032537E-02;  0.0000000E+00;  4.0620316E-02;  1.0619065E+03;
  5.0203055E-01;  9.9999998E-03; -1.1996032E-01;5514;  1.4376149E-02;  0.0000000E+00; -8.2001016E-03;  9.9918518E+02;  1.0000389E-01; -6.7504260E+02;3; -5.8511882E+00;  0.0000000E+00; -9.0827328E-01;0; -2.8893158E-02;  3.9924277E+04;  0.0000000E+00; -1.1131494E-01;  4.0000000E+04;  0.0000000E+00;  4.0007754E+04; -7.3155671E-02;  0.0000000E+00;  4.4262514E-02;  1.0719227E+03;
  5.0203532E-01;  9.9999998E-03; -1.0996232E-01;5515;  1.4473886E-02;  0.0000000E+00; -7.7534979E-03;  9.9920660E+02;  1.0000384E-01; -6.5731470E+02;3; -6.0342183E+00;  0.0000000E+00; -7.9657269E-01;0; -2.8141517E-02;  3.9925625E+04;  0.0000000E+00; -1.1178228E-01;  4.0000000E+04;  0.0000000E+00;  4.0007895E+04; -7.6108344E-02;  0.0000000E+00;  4.7966827E-02;  1.0948226E+03;
  5.1183581E-01;  9.9999998E-03; -2.6996124E-01;5560;  1.0630037E-02;  0.0000000E+00; -1.2059153E-02;  9.9811926E+02;  1.0000632E-01; -1.5581780E+03;3; -3.9619536E+00;  0.0000000E+00; -1.8988264E+00;0; -1.0812649E-02;  3.9824992E+04;  0.0000000E+00; -8.3651543E-02;  4.0000000E+04;  0.0000000E+00;  4.0020059E+04; -2.3507312E-02;  0.0000000E+00;  1.2694663E-02;  2.6706997E+03;
  5.1186752E-01;  9.9999998E-03; -2.5996366E-01;5561;  1.0981632E-02;  0.0000000E+00; -1.2051178E-02;  9.9818433E+02;  1.0000619E-01; -1.5042537E+03;3; -3.9852037E+00;  0.0000000E+00; -1.9427519E+00;0; -1.3167510E-02;  3.9830836E+04;  0.0000000E+00; -8.4416397E-02;  4.0000000E+04;  0.0000000E+00;  4.0019719E+04; -2.5970422E-02;  0.0000000E+00;  1.2802912E-02;  2.6128333E+03;
  5.1189709E-01;  9.9999998E-03; -2.4997002E-01;5562;  1.1291342E-02;  0.0000000E+00; -1.1880891E-02;  9.9823389E+02;  1.0000618E-01; -1.4631683E+03;3; -4.0331225E+00;  0.0000000E+00; -1.9625595E+00;0; -1.6600564E-02;  3.9837742E+04;  0.0000000E+00; -6.9801807E-02;  4.0000000E+04;  0.0000000E+00;  4.0016543E+04; -2.8711345E-02;  0.0000000E+00;  1.2110782E-02;  2.2476853E+03;
  5.1192176E-01;  9.9999998E-03; -2.3997933E-01;5563;  1.1593214E-02;  0.0000000E+00; -1.1767156E-02;  9.9829266E+02;  1.0000615E-01; -1.4144784E+03;3; -4.0922856E+00;  0.0000000E+00; -1.9645311E+00;0; -1.9055348E-02;  3.9845371E+04;  0.0000000E+00; -4.5936499E-02;  4.0000000E+04;  0.0000000E+00;  4.0013785E+04; -3.1727631E-02;  0.0000000E+00;  1.2672283E-02;  1.8660198E+03;
  5.1194245E-01;  9.9999998E-03; -2.2998179E-01;5564;  1.1897494E-02;  0.0000000E+00; -1.1762268E-02;  9.9839777E+02;  1.0000625E-01; -1.3274192E+03;3; -4.1546068E+00;  0.0000000E+00; -1.9711331E+00;0; -2.0840146E-02;  3.9853840E+04;  0.0000000E+00; -1.9598046E-02;  4.0000000E+04;  0.0000000E+00;  4.0013633E+04; -3.5010658E-02;  0.0000000E+00;  1.4170513E-02;  1.8541561E+03;
  5.1196033E-01;  9.9999998E-03; -2.1997745E-01;5565;  1.2173520E-02;  0.0000000E+00; -1.1698591E-02;  9.9851959E+02;  1.0000622E-01; -1.2264838E+03;3; -4.2338433E+00;  0.0000000E+00; -1.9595048E+00;0; -2.2737972E-02;  3.9862984E+04;  0.0000000E+00;  3.8697312E-03;  4.0000000E+04;  0.0000000E+00;  4.0014180E+04; -3.8537063E-02;  0.0000000E+00;  1.5799090E-02;  1.9144004E+03;
  5.1197577E-01;  9.9999998E-03; -2.0997129E-01;5566;  1.2413659E-02;  0.0000000E+00; -1.1554774E-02;  9.9863281E+02;  1.0000617E-01; -1.1327086E+03;3; -4.3329554E+00;  0.0000000E+00; -1.9260737E+00;0; -2.4581844E-02;  3.9872203E+04;  0.0000000E+00;  2.0481611E-02;  4.0000000E+04;  0.0000000E+00;  4.0013781E+04; -4.2268831E-02;  0.0000000E+00;  1.7686987E-02;  1.8551044E+03;
  5.1198798E-01;  9.9999998E-03; -1.9996539E-01;5567;  1.2623918E-02;  0.0000000E+00; -1.1360530E-02;  9.9872961E+02;  1.0000618E-01; -1.0525133E+03;3; -4.4509683E+00;  0.0000000E+00; -1.8608831E+00;0; -2.6215069E-02;  3.9881371E+04;  0.0000000E+00;  2.7469300E-02;  4.0000000E+04;  0.0000000E+00;  4.0012656E+04; -4.6156961E-02;  0.0000000E+00;  1.9941892E-02;  1.7069696E+03;
  5.1199734E-01;  9.9999998E-03; -1.8996039E-01;5568;  1.2808830E-02;  0.0000000E+00; -1.1127094E-02;  9.9882294E+02;  1.0000610E-01; -9.7518225E+02;3; -4.5891008E+00;  0.0000000E+00; -1.7684666E+00;0; -2.7595295E-02;  3.9889934E+04;  0.0000000E+00;  2.3560986E-02;  4.0000000E+04;  0.0000000E+00;  4.0011348E+04; -5.0143916E-02;  0.0000000E+00;  2.2548622E-02;  1.5271318E+03;
  5.1200420E-01;  9.9999998E-03; -1.7995647E-01;5569;  1.2971324E-02;  0.0000000E+00; -1.0854930E-02;  9.9890491E+02;  1.0000620E-01; -9.0728290E+02;3; -4.7394581E+00;  0.0000000E+00; -1.6577970E+00;0; -2.8704312E-02;  3.9897672E+04;  0.0000000E+00;  9.1532152E-03;  4.0000000E+04;  0.0000000E+00;  4.0009934E+04; -5.4169029E-02;  0.0000000E+00;  2.5464717E-02;  1.3547738E+03;
  5.1200849E-01;  9.9999998E-03; -1.6995379E-01;5570;  1.3114921E-02;  0.0000000E+00; -1.0554189E-02;  9.9897217E+02;  1.0000616E-01; -8.5153143E+02;3; -4.8997302E+00;  0.0000000E+00; -1.5363582E+00;0; -2.9529706E-02;  3.9904262E+04;  0.0000000E+00; -1.3670142E-02;  4.0000000E+04;  0.0000000E+00;  4.0008930E+04; -5.8173884E-02;  0.0000000E+00;  2.8644178E-02;  1.2101881E+03;
  5.1201022E-01;  9.9999998E-03; -1.5995260E-01;5571;  1.3242351E-02;  0.0000000E+00; -1.0223627E-02;  9.9902924E+02;  1.0000635E-01; -8.0427350E+02;3; -5.0668969E+00;  0.0000000E+00; -1.4055824E+00;0; -3.0072484E-02;  3.9909516E+04;  0.0000000E+00; -4.1475363E-02;  4.0000000E+04;  0.0000000E+00;  4.0008047E+04; -6.2108029E-02;  0.0000000E+00;  3.2035545E-02;  1.1014381E+03;
  5.1201081E-01;  9.9999998E-03; -1.4995275E-01;5572;  1.3356068E-02;  0.0000000E+00; -9.8684886E-03;  9.9907520E+02;  1.0000607E-01; -7.6620050E+02;3; -5.2392554E+00;  0.0000000E+00; -1.2722685E+00;0; -3.0344967E-02;  3.9913820E+04;  0.0000000E+00; -7.0212528E-02;  4.0000000E+04;  0.0000000E+00;  4.0007500E+04; -6.5933034E-02;  0.0000000E+00;  3.5588067E-02;  1.0289830E+03;
  5.1201111E-01;  9.9999998E-03; -1.3995387E-01;5573;  1.3457607E-02;  0.0000000E+00; -9.4876308E-03;  9.9910883E+02;  1.0000619E-01; -7.3830005E+02;3; -5.4160018E+00;  0.0000000E+00; -1.1420922E+00;0; -3.0364964E-02;  3.9916688E+04;  0.0000000E+00; -9.6110024E-02;  4.0000000E+04;  0.0000000E+00;  4.0007145E+04; -6.9622658E-02;  0.0000000E+00;  3.9257694E-02;  9.8949512E+02;
  5.1201147E-01;  9.9999998E-03; -1.2995552E-01;5574;  1.3547710E-02;  0.0000000E+00; -9.0811448E-03;  9.9913239E+02;  1.0000630E-01; -7.1879443E+02;3; -5.5966201E+00;  0.0000000E+00; -1.0135707E+00;0; -3.0142490E-02;  3.9918645E+04;  0.0000000E+00; -1.1640194E-01;  4.0000000E+04;  0.0000000E+00;  4.0006984E+04; -7.3159926E-02;  0.0000000E+00;  4.3017436E-02;  9.7838470E+02;
  5.1201206E-01;  9.9999998E-03; -1.1995735E-01;5575;  1.3626730E-02;  0.0000000E+00; -8.6462554E-03;  9.9914893E+02;  1.0000610E-01; -7.0511578E+02;3; -5.7795830E+00;  0.0000000E+00; -8.9155781E-01;0; -2.9678125E-02;  3.9920008E+04;  0.0000000E+00; -1.2950481E-01;  4.0000000E+04;  0.0000000E+00;  4.0007199E+04; -7.6531440E-02;  0.0000000E+00;  4.6853315E-02;  9.9141986E+02;
  5.1201290E-01;  9.9999998E-03; -1.0995930E-01;5576;  1.3694876E-02;  0.0000000E+00; -8.1781130E-03;  9.9916010E+02;  1.0000629E-01; -6.9583209E+02;3; -5.9641805E+00;  0.0000000E+00; -7.7664578E-01;0; -2.8982643E-02;  3.9920555E+04;  0.0000000E+00; -1.3475594E-01;  4.0000000E+04;  0.0000000E+00;  4.0007293E+04; -7.9725087E-02;  0.0000000E+00;  5.0742444E-02;  1.0247058E+03;
  5.2180731E-01;  9.9999998E-03; -2.6995865E-01;5621;  1.0469863E-02;  0.0000000E+00; -1.2611023E-02;  9.9788745E+02;  1.0001041E-01; -1.7502219E+03;3; -3.8873787E+00;  0.0000000E+00; -1.8816528E+00;0; -1.0694937E-02;  3.9800465E+04;  0.0000000E+00; -1.0510658E-01;  4.0000000E+04;  0.0000000E+00;  4.0022363E+04; -2.2940712E-02;  0.0000000E+00;  1.2245775E-02;  2.9979368E+03;
  5.2184331E-01;  9.9999998E-03; -2.5996113E-01;5622;  1.0777417E-02;  0.0000000E+00; -1.2606780E-02;  9.9796631E+02;  1.0001060E-01; -1.6848905E+03;3; -3.9077156E+00;  0.0000000E+00; -1.9261316E+00;0; -1.3282871E-02;  3.9807492E+04;  0.0000000E+00; -9.9069059E-02;  4.0000000E+04;  0.0000000E+00;  4.0021711E+04; -2.5599577E-02;  0.0000000E+00;  1.2316706E-02;  2.9015076E+03;
  5.2187455E-01;  9.9999998E-03; -2.4996744E-01;5623;  1.1048767E-02;  0.0000000E+00; -1.2460369E-02;  9.9803180E+02;  1.0001060E-01; -1.6306205E+03;3; -3.9497085E+00;  0.0000000E+00; -1.9489715E+00;0; -1.6746286E-02;  3.9815672E+04;  0.0000000E+00; -7.4115440E-02;  4.0000000E+04;  0.0000000E+00;  4.0018676E+04; -2.8556120E-02;  0.0000000E+00;  1.1809834E-02;  2.5158906E+03;
  5.2189827E-01;  9.9999998E-03; -2.3997551E-01;5624;  1.1316758E-02;  0.0000000E+00; -1.2388520E-02;  9.9811334E+02;  1.0001048E-01; -1.5630668E+03;3; -4.0011301E+00;  0.0000000E+00; -1.9587237E+00;0; -1.9178115E-02;  3.9824984E+04;  0.0000000E+00; -3.9690852E-02;  4.0000000E+04;  0.0000000E+00;  4.0016137E+04; -3.1808209E-02;  0.0000000E+00;  1.2630095E-02;  2.1727095E+03;
  5.2191609E-01;  9.9999998E-03; -2.2997859E-01;5625;  1.1577996E-02;  0.0000000E+00; -1.2381466E-02;  9.9823627E+02;  1.0001051E-01; -1.4612426E+03;3; -4.0584350E+00;  0.0000000E+00; -1.9746007E+00;0; -2.1147355E-02;  3.9835199E+04;  0.0000000E+00; -4.1353307E-03;  4.0000000E+04;  0.0000000E+00;  4.0015535E+04; -3.5344500E-02;  0.0000000E+00;  1.4197144E-02;  2.1090696E+03;
  5.2193099E-01;  9.9999998E-03; -2.1997739E-01;5626;  1.1807838E-02;  0.0000000E+00; -1.2312063E-02;  9.9836926E+02;  1.0001040E-01; -1.3510234E+03;3; -4.1398292E+00;  0.0000000E+00; -1.9624679E+00;0; -2.3178736E-02;  3.9846094E+04;  0.0000000E+00;  2.6670666E-02;  4.0000000E+04;  0.0000000E+00;  4.0015332E+04; -3.9138068E-02;  0.0000000E+00;  1.5959332E-02;  2.0864207E+03;
  5.2194369E-01;  9.9999998E-03; -2.0997480E-01;5627;  1.2002073E-02;  0.0000000E+00; -1.2170803E-02;  9.9849933E+02;  1.0001054E-01; -1.2432734E+03;3; -4.2415223E+00;  0.0000000E+00; -1.9322884E+00;0; -2.5104726E-02;  3.9857039E+04;  0.0000000E+00;  4.8604283E-02;  4.0000000E+04;  0.0000000E+00;  4.0014824E+04; -4.3147881E-02;  0.0000000E+00;  1.8043155E-02;  1.9841665E+03;
  5.2195436E-01;  9.9999998E-03; -1.9997148E-01;5628;  1.2164740E-02;  0.0000000E+00; -1.1970617E-02;  9.9861963E+02;  1.0001054E-01; -1.1436219E+03;3; -4.3627334E+00;  0.0000000E+00; -1.8653886E+00;0; -2.6806064E-02;  3.9867875E+04;  0.0000000E+00;  5.8786862E-02;  4.0000000E+04;  0.0000000E+00;  4.0013383E+04; -4.7321163E-02;  0.0000000E+00;  2.0515099E-02;  1.8209905E+03;
  5.2196300E-01;  9.9999998E-03; -1.8996808E-01;5629;  1.2301696E-02;  0.0000000E+00; -1.1721862E-02;  9.9872992E+02;  1.0001057E-01; -1.0522170E+03;3; -4.5047193E+00;  0.0000000E+00; -1.7705209E+00;0; -2.8237673E-02;  3.9877879E+04;  0.0000000E+00;  5.5849068E-02;  4.0000000E+04;  0.0000000E+00;  4.0011980E+04; -5.1596586E-02;  0.0000000E+00;  2.3358913E-02;  1.6277499E+03;
  5.2196997E-01;  9.9999998E-03; -1.7996494E-01;5630;  1.2417632E-02;  0.0000000E+00; -1.1428392E-02;  9.9882263E+02;  1.0001040E-01; -9.7542914E+02;3; -4.6569009E+00;  0.0000000E+00; -1.6605507E+00;0; -2.9382514E-02;  3.9886984E+04;  0.0000000E+00;  4.0141825E-02;  4.0000000E+04;  0.0000000E+00;  4.0010457E+04; -5.5909742E-02;  0.0000000E+00;  2.6527228E-02;  1.4330079E+03;
  5.2197504E-01;  9.9999998E-03; -1.6996257E-01;5631;  1.2517100E-02;  0.0000000E+00; -1.1103572E-02;  9.9890240E+02;  1.0001042E-01; -9.0935693E+02;3; -4.8189521E+00;  0.0000000E+00; -1.5381846E+00;0; -3.0234080E-02;  3.9894527E+04;  0.0000000E+00;  1.3897526E-02;  4.0000000E+04;  0.0000000E+00;  4.0009164E+04; -6.0199004E-02;  0.0000000E+00;  2.9964924E-02;  1.2571188E+03;
  5.2197808E-01;  9.9999998E-03; -1.5996109E-01;5632;  1.2603235E-02;  0.0000000E+00; -1.0747576E-02;  9.9896478E+02;  1.0001034E-01; -8.5765466E+02;3; -4.9858441E+00;  0.0000000E+00; -1.4064989E+00;0; -3.0800514E-02;  3.9900402E+04;  0.0000000E+00; -1.9020757E-02;  4.0000000E+04;  0.0000000E+00;  4.0008016E+04; -6.4412124E-02;  0.0000000E+00;  3.3611611E-02;  1.1132834E+03;
  5.2197921E-01;  9.9999998E-03; -1.4996043E-01;5633;  1.2678293E-02;  0.0000000E+00; -1.0367310E-02;  9.9900812E+02;  1.0001054E-01; -8.2175446E+02;3; -5.1591249E+00;  0.0000000E+00; -1.2717797E+00;0; -3.1099394E-02;  3.9904758E+04;  0.0000000E+00; -5.3885616E-02;  4.0000000E+04;  0.0000000E+00;  4.0007242E+04; -6.8509385E-02;  0.0000000E+00;  3.7409991E-02;  1.0081722E+03;
  5.2197927E-01;  9.9999998E-03; -1.3996048E-01;5634;  1.2743597E-02;  0.0000000E+00; -9.9619571E-03;  9.9903772E+02;  1.0001052E-01; -7.9721198E+02;3; -5.3355303E+00;  0.0000000E+00; -1.1347810E+00;0; -3.1151962E-02;  3.9907488E+04;  0.0000000E+00; -8.6219460E-02;  4.0000000E+04;  0.0000000E+00;  4.0006695E+04; -7.2464079E-02;  0.0000000E+00;  4.1312117E-02;  9.4343756E+02;
  5.2197850E-01;  9.9999998E-03; -1.2996115E-01;5635;  1.2799239E-02;  0.0000000E+00; -9.5313974E-03;  9.9905365E+02;  1.0001041E-01; -7.8402716E+02;3; -5.5177536E+00;  0.0000000E+00; -1.0046227E+00;0; -3.0968275E-02;  3.9909031E+04;  0.0000000E+00; -1.1277049E-01;  4.0000000E+04;  0.0000000E+00;  4.0006559E+04; -7.6258458E-02;  0.0000000E+00;  4.5290183E-02;  9.1689062E+02;
  5.2197695E-01;  9.9999998E-03; -1.1996234E-01;5636;  1.2845290E-02;  0.0000000E+00; -9.0728067E-03;  9.9905969E+02;  1.0001054E-01; -7.7903961E+02;3; -5.7018967E+00;  0.0000000E+00; -8.7482429E-01;0; -3.0547727E-02;  3.9909453E+04;  0.0000000E+00; -1.3158122E-01;  4.0000000E+04;  0.0000000E+00;  4.0006516E+04; -7.9879180E-02;  0.0000000E+00;  4.9331453E-02;  9.2412451E+02;
  5.2197474E-01;  9.9999998E-03; -1.0996394E-01;5637;  1.2881293E-02;  0.0000000E+00; -8.5815974E-03;  9.9906061E+02;  1.0001040E-01; -7.7824951E+02;3; -5.8879256E+00;  0.0000000E+00; -7.5621969E-01;0; -2.9898647E-02;  3.9909043E+04;  0.0000000E+00; -1.4165349E-01;  4.0000000E+04;  0.0000000E+00;  4.0006672E+04; -8.3312906E-02;  0.0000000E+00;  5.3414259E-02;  9.5964008E+02;
  5.3181857E-01;  9.9999998E-03; -2.6995614E-01;5682;  1.0296144E-02;  0.0000000E+00; -1.3090814E-02;  9.9766113E+02;  1.0001741E-01; -1.9377228E+03;3; -3.8196993E+00;  0.0000000E+00; -1.8602785E+00;0; -1.0918599E-02;  3.9774453E+04;  0.0000000E+00; -1.1003881E-01;  4.0000000E+04;  0.0000000E+00;  4.0024523E+04; -2.2259498E-02;  0.0000000E+00;  1.1340899E-02;  3.2813169E+03;
  5.3185463E-01;  9.9999998E-03; -2.5995889E-01;5683;  1.0559529E-02;  0.0000000E+00; -1.3086034E-02;  9.9774585E+02;  1.0001738E-01; -1.8675026E+03;3; -3.8278604E+00;  0.0000000E+00; -1.9071802E+00;0; -1.3719395E-02;  3.9782785E+04;  0.0000000E+00; -1.1003416E-01;  4.0000000E+04;  0.0000000E+00;  4.0023320E+04; -2.5123766E-02;  0.0000000E+00;  1.1404371E-02;  3.1325527E+03;
  5.3188235E-01;  9.9999998E-03; -2.4996483E-01;5684;  1.0796309E-02;  0.0000000E+00; -1.2990176E-02;  9.9782684E+02;  1.0001735E-01; -1.8004427E+03;3; -3.8630314E+00;  0.0000000E+00; -1.9305929E+00;0; -1.6969286E-02;  3.9791887E+04;  0.0000000E+00; -8.3173603E-02;  4.0000000E+04;  0.0000000E+00;  4.0020547E+04; -2.8305233E-02;  0.0000000E+00;  1.1335946E-02;  2.7625457E+03;
  5.3189921E-01;  9.9999998E-03; -2.3997152E-01;5685;  1.1027131E-02;  0.0000000E+00; -1.2963256E-02;  9.9793195E+02;  1.0001748E-01; -1.7133341E+03;3; -3.9036796E+00;  0.0000000E+00; -1.9543294E+00;0; -1.9366734E-02;  3.9802367E+04;  0.0000000E+00; -4.3746859E-02;  4.0000000E+04;  0.0000000E+00;  4.0018297E+04; -3.1801816E-02;  0.0000000E+00;  1.2435083E-02;  2.4771638E+03;
  5.3190893E-01;  9.9999998E-03; -2.2997624E-01;5686;  1.1240913E-02;  0.0000000E+00; -1.2948914E-02;  9.9806494E+02;  1.0001731E-01; -1.6031644E+03;3; -3.9568622E+00;  0.0000000E+00; -1.9744182E+00;0; -2.1545541E-02;  3.9813828E+04;  0.0000000E+00; -2.5968996E-03;  4.0000000E+04;  0.0000000E+00;  4.0017207E+04; -3.5598494E-02;  0.0000000E+00;  1.4052954E-02;  2.3435583E+03;
  5.3191566E-01;  9.9999998E-03; -2.1997972E-01;5687;  1.1422899E-02;  0.0000000E+00; -1.2879376E-02;  9.9820746E+02;  1.0001730E-01; -1.4850936E+03;3; -4.0363336E+00;  0.0000000E+00; -1.9632069E+00;0; -2.3705991E-02;  3.9826008E+04;  0.0000000E+00;  3.3664145E-02;  4.0000000E+04;  0.0000000E+00;  4.0016496E+04; -3.9665043E-02;  0.0000000E+00;  1.5959052E-02;  2.2324021E+03;
  5.3192145E-01;  9.9999998E-03; -2.0998167E-01;5688;  1.1568428E-02;  0.0000000E+00; -1.2744273E-02;  9.9835071E+02;  1.0001735E-01; -1.3664304E+03;3; -4.1457338E+00;  0.0000000E+00; -1.9304248E+00;0; -2.5722433E-02;  3.9838395E+04;  0.0000000E+00;  6.0617253E-02;  4.0000000E+04;  0.0000000E+00;  4.0015480E+04; -4.3957904E-02;  0.0000000E+00;  1.8235471E-02;  2.1060549E+03;
  5.3192729E-01;  9.9999998E-03; -1.9998156E-01;5689;  1.1681948E-02;  0.0000000E+00; -1.2545501E-02;  9.9848865E+02;  1.0001750E-01; -1.2521127E+03;3; -4.2693315E+00;  0.0000000E+00; -1.8650452E+00;0; -2.7501868E-02;  3.9850469E+04;  0.0000000E+00;  7.5239599E-02;  4.0000000E+04;  0.0000000E+00;  4.0014473E+04; -4.8421308E-02;  0.0000000E+00;  2.0919440E-02;  1.9501459E+03;
  5.3193307E-01;  9.9999998E-03; -1.8998022E-01;5690;  1.1768973E-02;  0.0000000E+00; -1.2286734E-02;  9.9861200E+02;  1.0001754E-01; -1.1499427E+03;3; -4.4143996E+00;  0.0000000E+00; -1.7700688E+00;0; -2.8997328E-02;  3.9861582E+04;  0.0000000E+00;  7.5985283E-02;  4.0000000E+04;  0.0000000E+00;  4.0012816E+04; -5.2990012E-02;  0.0000000E+00;  2.3992684E-02;  1.7606886E+03;
  5.3193837E-01;  9.9999998E-03; -1.7997847E-01;5691;  1.1836774E-02;  0.0000000E+00; -1.1976667E-02;  9.9871790E+02;  1.0001744E-01; -1.0621921E+03;3; -4.5686507E+00;  0.0000000E+00; -1.6592308E+00;0; -3.0187814E-02;  3.9871441E+04;  0.0000000E+00;  6.2980987E-02;  4.0000000E+04;  0.0000000E+00;  4.0011289E+04; -5.7595886E-02;  0.0000000E+00;  2.7408073E-02;  1.5544363E+03;
  5.3194273E-01;  9.9999998E-03; -1.6997677E-01;5692;  1.1890783E-02;  0.0000000E+00; -1.1631308E-02;  9.9880286E+02;  1.0001736E-01; -9.9182373E+02;3; -4.7310367E+00;  0.0000000E+00; -1.5385641E+00;0; -3.1071071E-02;  3.9879809E+04;  0.0000000E+00;  3.8282908E-02;  4.0000000E+04;  0.0000000E+00;  4.0009758E+04; -6.2174555E-02;  0.0000000E+00;  3.1103484E-02;  1.3528827E+03;
  5.3194582E-01;  9.9999998E-03; -1.5997531E-01;5693;  1.1934459E-02;  0.0000000E+00; -1.1252793E-02;  9.9886603E+02;  1.0001750E-01; -9.3947955E+02;3; -4.8974824E+00;  0.0000000E+00; -1.4081979E+00;0; -3.1661030E-02;  3.9886176E+04;  0.0000000E+00;  5.7149413E-03;  4.0000000E+04;  0.0000000E+00;  4.0008410E+04; -6.6671751E-02;  0.0000000E+00;  3.5010722E-02;  1.1745100E+03;
  5.3194755E-01;  9.9999998E-03; -1.4997420E-01;5694;  1.1969512E-02;  0.0000000E+00; -1.0849167E-02;  9.9890894E+02;  1.0001726E-01; -9.0392499E+02;3; -5.0708804E+00;  0.0000000E+00; -1.2720844E+00;0; -3.1981092E-02;  3.9890461E+04;  0.0000000E+00; -2.9874545E-02;  4.0000000E+04;  0.0000000E+00;  4.0007254E+04; -7.1046166E-02;  0.0000000E+00;  3.9065074E-02;  1.0329045E+03;
  5.3194767E-01;  9.9999998E-03; -1.3997358E-01;5695;  1.1996960E-02;  0.0000000E+00; -1.0419807E-02;  9.9893085E+02;  1.0001726E-01; -8.8575269E+02;3; -5.2487454E+00;  0.0000000E+00; -1.1288868E+00;0; -3.2056611E-02;  3.9892898E+04;  0.0000000E+00; -6.3882627E-02;  4.0000000E+04;  0.0000000E+00;  4.0006402E+04; -7.5270005E-02;  0.0000000E+00;  4.3213394E-02;  9.3595905E+02;
  5.3194630E-01;  9.9999998E-03; -1.2997346E-01;5696;  1.2016220E-02;  0.0000000E+00; -9.9652149E-03;  9.9893408E+02;  1.0001732E-01; -8.8308606E+02;3; -5.4314194E+00;  0.0000000E+00; -9.9169707E-01;0; -3.1899594E-02;  3.9893652E+04;  0.0000000E+00; -9.2991516E-02;  4.0000000E+04;  0.0000000E+00;  4.0006031E+04; -7.9324588E-02;  0.0000000E+00;  4.7424994E-02;  8.8542737E+02;
  5.3194356E-01;  9.9999998E-03; -1.1997374E-01;5697;  1.2026888E-02;  0.0000000E+00; -9.4820019E-03;  9.9892804E+02;  1.0001743E-01; -8.8812299E+02;3; -5.6171784E+00;  0.0000000E+00; -8.5665923E-01;0; -3.1509131E-02;  3.9893230E+04;  0.0000000E+00; -1.1511178E-01;  4.0000000E+04;  0.0000000E+00;  4.0006008E+04; -8.3195299E-02;  0.0000000E+00;  5.1686168E-02;  8.7783014E+02;
  5.3193974E-01;  9.9999998E-03; -1.0997447E-01;5698;  1.2027967E-02;  0.0000000E+00; -8.9655723E-03;  9.9891437E+02;  1.0001746E-01; -8.9943127E+02;3; -5.8042550E+00;  0.0000000E+00; -7.3409343E-01;0; -3.0893680E-02;  3.9891730E+04;  0.0000000E+00; -1.2898684E-01;  4.0000000E+04;  0.0000000E+00;  4.0006070E+04; -8.6867854E-02;  0.0000000E+00;  5.5974174E-02;  9.0678418E+02;
  5.4186803E-01;  9.9999998E-03; -2.6995435E-01;5743;  1.0116721E-02;  0.0000000E+00; -1.3500590E-02;  9.9751001E+02;  1.0002949E-01; -2.0629045E+03;3; -3.7436540E+00;  0.0000000E+00; -1.8430212E+00;0; -1.1369864E-02;  3.9751949E+04;  0.0000000E+00; -9.4516262E-02;  4.0000000E+04;  0.0000000E+00;  4.0025414E+04; -2.1429511E-02;  0.0000000E+00;  1.0059646E-02;  3.4216453E+03;
  5.4190129E-01;  9.9999998E-03; -2.5995743E-01;5744;  1.0338334E-02;  0.0000000E+00; -1.3506756E-02;  9.9759814E+02;  1.0002950E-01; -1.9898695E+03;3; -3.7521684E+00;  0.0000000E+00; -1.8806520E+00;0; -1.4233289E-02;  3.9760340E+04;  0.0000000E+00; -1.1065544E-01;  4.0000000E+04;  0.0000000E+00;  4.0023777E+04; -2.4511496E-02;  0.0000000E+00;  1.0278206E-02;  3.2230554E+03;
  5.4192340E-01;  9.9999998E-03; -2.4996272E-01;5745;  1.0539269E-02;  0.0000000E+00; -1.3478798E-02;  9.9769269E+02;  1.0002951E-01; -1.9115508E+03;3; -3.7704179E+00;  0.0000000E+00; -1.9161721E+00;0; -1.7153036E-02;  3.9770188E+04;  0.0000000E+00; -9.0462700E-02;  4.0000000E+04;  0.0000000E+00;  4.0021543E+04; -2.7929714E-02;  0.0000000E+00;  1.0776677E-02;  2.9111304E+03;
  5.4192930E-01;  9.9999998E-03; -2.3996818E-01;5746;  1.0728654E-02;  0.0000000E+00; -1.3492528E-02;  9.9781586E+02;  1.0002956E-01; -1.8095289E+03;3; -3.8030970E+00;  0.0000000E+00; -1.9455187E+00;0; -1.9568132E-02;  3.9781379E+04;  0.0000000E+00; -5.2881040E-02;  4.0000000E+04;  0.0000000E+00;  4.0019812E+04; -3.1681348E-02;  0.0000000E+00;  1.2113215E-02;  2.6956545E+03;
  5.4192603E-01;  9.9999998E-03; -2.2997525E-01;5747;  1.0892149E-02;  0.0000000E+00; -1.3471185E-02;  9.9794708E+02;  1.0002951E-01; -1.7007913E+03;3; -3.8534913E+00;  0.0000000E+00; -1.9686235E+00;0; -2.1979390E-02;  3.9793266E+04;  0.0000000E+00; -1.1681898E-02;  4.0000000E+04;  0.0000000E+00;  4.0018309E+04; -3.5747003E-02;  0.0000000E+00;  1.3767613E-02;  2.4947185E+03;
  5.4192019E-01;  9.9999998E-03; -2.1998407E-01;5748;  1.1021471E-02;  0.0000000E+00; -1.3401392E-02;  9.9809033E+02;  1.0002942E-01; -1.5821279E+03;3; -3.9334207E+00;  0.0000000E+00; -1.9575896E+00;0; -2.4292395E-02;  3.9805930E+04;  0.0000000E+00;  2.6142025E-02;  4.0000000E+04;  0.0000000E+00;  4.0016836E+04; -4.0093806E-02;  0.0000000E+00;  1.5801411E-02;  2.3136023E+03;
  5.4191566E-01;  9.9999998E-03; -2.0999078E-01;5749;  1.1115409E-02;  0.0000000E+00; -1.3275224E-02;  9.9824341E+02;  1.0002949E-01; -1.4553168E+03;3; -4.0423050E+00;  0.0000000E+00; -1.9251939E+00;0; -2.6418861E-02;  3.9818879E+04;  0.0000000E+00;  5.6109414E-02;  4.0000000E+04;  0.0000000E+00;  4.0015992E+04; -4.4676598E-02;  0.0000000E+00;  1.8257737E-02;  2.1913262E+03;
  5.4191399E-01;  9.9999998E-03; -1.9999386E-01;5750;  1.1176413E-02;  0.0000000E+00; -1.3082019E-02;  9.9838873E+02;  1.0002949E-01; -1.3349250E+03;3; -4.1709280E+00;  0.0000000E+00; -1.8621805E+00;0; -2.8295361E-02;  3.9831355E+04;  0.0000000E+00;  7.5063400E-02;  4.0000000E+04;  0.0000000E+00;  4.0015168E+04; -4.9436726E-02;  0.0000000E+00;  2.1141365E-02;  2.0677893E+03;
  5.4191506E-01;  9.9999998E-03; -1.8999463E-01;5751;  1.1210967E-02;  0.0000000E+00; -1.2818336E-02;  9.9852051E+02;  1.0002939E-01; -1.2257430E+03;3; -4.3189006E+00;  0.0000000E+00; -1.7654067E+00;0; -2.9872270E-02;  3.9842984E+04;  0.0000000E+00;  8.1193082E-02;  4.0000000E+04;  0.0000000E+00;  4.0013859E+04; -5.4305173E-02;  0.0000000E+00;  2.4432903E-02;  1.9010607E+03;
  5.4191810E-01;  9.9999998E-03; -1.7999424E-01;5752;  1.1228389E-02;  0.0000000E+00; -1.2497640E-02;  9.9863397E+02;  1.0002954E-01; -1.1317209E+03;3; -4.4742775E+00;  0.0000000E+00; -1.6550664E+00;0; -3.1122919E-02;  3.9853195E+04;  0.0000000E+00;  7.4297488E-02;  4.0000000E+04;  0.0000000E+00;  4.0012414E+04; -5.9210833E-02;  0.0000000E+00;  2.8087914E-02;  1.6975592E+03;
  5.4192191E-01;  9.9999998E-03; -1.6999327E-01;5753;  1.1235151E-02;  0.0000000E+00; -1.2136866E-02;  9.9871735E+02;  1.0002955E-01; -1.0626365E+03;3; -4.6341681E+00;  0.0000000E+00; -1.5387380E+00;0; -3.2047130E-02;  3.9861805E+04;  0.0000000E+00;  5.6016564E-02;  4.0000000E+04;  0.0000000E+00;  4.0010578E+04; -6.4086176E-02;  0.0000000E+00;  3.2039046E-02;  1.4805308E+03;
  5.4192531E-01;  9.9999998E-03; -1.5999210E-01;5754;  1.1234413E-02;  0.0000000E+00; -1.1740712E-02;  9.9877917E+02;  1.0002933E-01; -1.0114281E+03;3; -4.8022361E+00;  0.0000000E+00; -1.4085662E+00;0; -3.2663561E-02;  3.9868062E+04;  0.0000000E+00;  2.9668601E-02;  4.0000000E+04;  0.0000000E+00;  4.0008961E+04; -6.8874381E-02;  0.0000000E+00;  3.6210820E-02;  1.2742998E+03;
  5.4192775E-01;  9.9999998E-03; -1.4999092E-01;5755;  1.1227538E-02;  0.0000000E+00; -1.1317068E-02;  9.9881348E+02;  1.0002962E-01; -9.8303387E+02;3; -4.9758530E+00;  0.0000000E+00; -1.2726510E+00;0; -3.3001319E-02;  3.9872422E+04;  0.0000000E+00; -4.6401756E-04;  4.0000000E+04;  0.0000000E+00;  4.0007598E+04; -7.3532529E-02;  0.0000000E+00;  4.0531211E-02;  1.0991322E+03;
  5.4192865E-01;  9.9999998E-03; -1.3998996E-01;5756;  1.1214883E-02;  0.0000000E+00; -1.0865531E-02;  9.9883075E+02;  1.0002943E-01; -9.6871326E+02;3; -5.1551042E+00;  0.0000000E+00; -1.1253681E+00;0; -3.3090785E-02;  3.9874383E+04;  0.0000000E+00; -3.0361906E-02;  4.0000000E+04;  0.0000000E+00;  4.0006500E+04; -7.8030922E-02;  0.0000000E+00;  4.4940136E-02;  9.6898248E+02;
  5.4192787E-01;  9.9999998E-03; -1.2998936E-01;5757;  1.1195372E-02;  0.0000000E+00; -1.0386597E-02;  9.9882367E+02;  1.0002955E-01; -9.7458966E+02;3; -5.3387847E+00;  0.0000000E+00; -9.8121434E-01;0; -3.2947607E-02;  3.9874430E+04;  0.0000000E+00; -5.7203684E-02;  4.0000000E+04;  0.0000000E+00;  4.0006043E+04; -8.2349330E-02;  0.0000000E+00;  4.9401723E-02;  8.8987653E+02;
  5.4192519E-01;  9.9999998E-03; -1.1998907E-01;5758;  1.1168038E-02;  0.0000000E+00; -9.8771881E-03;  9.9880133E+02;  1.0002952E-01; -9.9305829E+02;3; -5.5259495E+00;  0.0000000E+00; -8.3979297E-01;0; -3.2572761E-02;  3.9872918E+04;  0.0000000E+00; -7.9132326E-02;  4.0000000E+04;  0.0000000E+00;  4.0005672E+04; -8.6471453E-02;  0.0000000E+00;  5.3898692E-02;  8.6070325E+02;
  5.4192078E-01;  9.9999998E-03; -1.0998911E-01;5759;  1.1131358E-02;  0.0000000E+00; -9.3325041E-03;  9.9876776E+02;  1.0002936E-01; -1.0209093E+03;3; -5.7135353E+00;  0.0000000E+00; -7.1058148E-01;0; -3.1975847E-02;  3.9870070E+04;  0.0000000E+00; -9.4822444E-02;  4.0000000E+04;  0.0000000E+00;  4.0005832E+04; -9.0380691E-02;  0.0000000E+00;  5.8404844E-02;  8.7565588E+02;
  5.5196035E-01;  9.9999998E-03; -2.6995370E-01;5804;  9.9430485E-03;  0.0000000E+00; -1.3859740E-02;  9.9748895E+02;  1.0004872E-01; -2.0803362E+03;3; -3.6700120E+00;  0.0000000E+00; -1.8302271E+00;0; -1.1739778E-02;  3.9734848E+04;  0.0000000E+00; -7.6253213E-02;  4.0000000E+04;  0.0000000E+00;  4.0024613E+04; -2.0435294E-02;  0.0000000E+00;  8.6955158E-03;  3.3531030E+03;
  5.5198920E-01;  9.9999998E-03; -2.5995696E-01;5805;  1.0124219E-02;  0.0000000E+00; -1.3887845E-02;  9.9756934E+02;  1.0004855E-01; -2.0137700E+03;3; -3.6681368E+00;  0.0000000E+00; -1.8649497E+00;0; -1.4594841E-02;  3.9743094E+04;  0.0000000E+00; -1.0546158E-01;  4.0000000E+04;  0.0000000E+00;  4.0023035E+04; -2.3748627E-02;  0.0000000E+00;  9.1537861E-03;  3.1321921E+03;
  5.5200315E-01;  9.9999998E-03; -2.4996130E-01;5806;  1.0286057E-02;  0.0000000E+00; -1.3926543E-02;  9.9767090E+02;  1.0004877E-01; -1.9296243E+03;3; -3.6785767E+00;  0.0000000E+00; -1.8966736E+00;0; -1.7242461E-02;  3.9752863E+04;  0.0000000E+00; -9.2787765E-02;  4.0000000E+04;  0.0000000E+00;  4.0021273E+04; -2.7416039E-02;  0.0000000E+00;  1.0173578E-02;  2.9086411E+03;
  5.5199474E-01;  9.9999998E-03; -2.3996541E-01;5807;  1.0428981E-02;  0.0000000E+00; -1.3974823E-02;  9.9780151E+02;  1.0004855E-01; -1.8213805E+03;3; -3.6996884E+00;  0.0000000E+00; -1.9327600E+00;0; -1.9750960E-02;  3.9763738E+04;  0.0000000E+00; -6.0725324E-02;  4.0000000E+04;  0.0000000E+00;  4.0020422E+04; -3.1433124E-02;  0.0000000E+00;  1.1682163E-02;  2.7877529E+03;
  5.5197388E-01;  9.9999998E-03; -2.2997476E-01;5808;  1.0537427E-02;  0.0000000E+00; -1.3948209E-02;  9.9792474E+02;  1.0004845E-01; -1.7193093E+03;3; -3.7458827E+00;  0.0000000E+00; -1.9531195E+00;0; -2.2421002E-02;  3.9775320E+04;  0.0000000E+00; -2.4712440E-02;  4.0000000E+04;  0.0000000E+00;  4.0018527E+04; -3.5775941E-02;  0.0000000E+00;  1.3354938E-02;  2.5406865E+03;
  5.5195248E-01;  9.9999998E-03; -2.1998842E-01;5809;  1.0609709E-02;  0.0000000E+00; -1.3881719E-02;  9.9806006E+02;  1.0004871E-01; -1.6072136E+03;3; -3.8251367E+00;  0.0000000E+00; -1.9498018E+00;0; -2.4912387E-02;  3.9787570E+04;  0.0000000E+00;  9.5558586E-03;  4.0000000E+04;  0.0000000E+00;  4.0016930E+04; -4.0409837E-02;  0.0000000E+00;  1.5497451E-02;  2.3196841E+03;
  5.5193502E-01;  9.9999998E-03; -2.0999946E-01;5810;  1.0646962E-02;  0.0000000E+00; -1.3761368E-02;  9.9821051E+02;  1.0004860E-01; -1.4825752E+03;3; -3.9344041E+00;  0.0000000E+00; -1.9139395E+00;0; -2.7183810E-02;  3.9800055E+04;  0.0000000E+00;  3.8922258E-02;  4.0000000E+04;  0.0000000E+00;  4.0016258E+04; -4.5288648E-02;  0.0000000E+00;  1.8104838E-02;  2.2237029E+03;
  5.5192339E-01;  9.9999998E-03; -2.0000544E-01;5811;  1.0651298E-02;  0.0000000E+00; -1.3575180E-02;  9.9835846E+02;  1.0004871E-01; -1.3599614E+03;3; -4.0714450E+00;  0.0000000E+00; -1.8495467E+00;0; -2.9182263E-02;  3.9812145E+04;  0.0000000E+00;  6.0468912E-02;  4.0000000E+04;  0.0000000E+00;  4.0015684E+04; -5.0351370E-02;  0.0000000E+00;  2.1169107E-02;  2.1498792E+03;
  5.5191797E-01;  9.9999998E-03; -1.9000785E-01;5812;  1.0630456E-02;  0.0000000E+00; -1.3312521E-02;  9.9849054E+02;  1.0004846E-01; -1.2505818E+03;3; -4.2182202E+00;  0.0000000E+00; -1.7543575E+00;0; -3.0861592E-02;  3.9823738E+04;  0.0000000E+00;  7.2201945E-02;  4.0000000E+04;  0.0000000E+00;  4.0014660E+04; -5.5526212E-02;  0.0000000E+00;  2.4664620E-02;  2.0221434E+03;
  5.5191702E-01;  9.9999998E-03; -1.8000850E-01;5813;  1.0595020E-02;  0.0000000E+00; -1.2988467E-02;  9.9859656E+02;  1.0004858E-01; -1.1627324E+03;3; -4.3720536E+00;  0.0000000E+00; -1.6489666E+00;0; -3.2189988E-02;  3.9833520E+04;  0.0000000E+00;  7.3545389E-02;  4.0000000E+04;  0.0000000E+00;  4.0013367E+04; -6.0738556E-02;  0.0000000E+00;  2.8548570E-02;  1.8355829E+03;
  5.5191910E-01;  9.9999998E-03; -1.7000817E-01;5814;  1.0552099E-02;  0.0000000E+00; -1.2619481E-02;  9.9867877E+02;  1.0004850E-01; -1.0946356E+03;3; -4.5317421E+00;  0.0000000E+00; -1.5346559E+00;0; -3.3167943E-02;  3.9841648E+04;  0.0000000E+00;  6.5548614E-02;  4.0000000E+04;  0.0000000E+00;  4.0011477E+04; -6.5918088E-02;  0.0000000E+00;  3.2750145E-02;  1.6161466E+03;
  5.5192244E-01;  9.9999998E-03; -1.6000731E-01;5815;  1.0504575E-02;  0.0000000E+00; -1.2211759E-02;  9.9873413E+02;  1.0004857E-01; -1.0487604E+03;3; -4.6989570E+00;  0.0000000E+00; -1.4076450E+00;0; -3.3816848E-02;  3.9847805E+04;  0.0000000E+00;  5.0621815E-02;  4.0000000E+04;  0.0000000E+00;  4.0009809E+04; -7.1005017E-02;  0.0000000E+00;  3.7188169E-02;  1.3938325E+03;
  5.5192560E-01;  9.9999998E-03; -1.5000628E-01;5816;  1.0453059E-02;  0.0000000E+00; -1.1772336E-02;  9.9876160E+02;  1.0004828E-01; -1.0259956E+03;3; -4.8741107E+00;  0.0000000E+00; -1.2741168E+00;0; -3.4171320E-02;  3.9851539E+04;  0.0000000E+00;  3.1828936E-02;  4.0000000E+04;  0.0000000E+00;  4.0008270E+04; -7.5953960E-02;  0.0000000E+00;  4.1782640E-02;  1.1949862E+03;
  5.5192786E-01;  9.9999998E-03; -1.4000529E-01;5817;  1.0397428E-02;  0.0000000E+00; -1.1301522E-02;  9.9876648E+02;  1.0004857E-01; -1.0219464E+03;3; -5.0541945E+00;  0.0000000E+00; -1.1256723E+00;0; -3.4267686E-02;  3.9852797E+04;  0.0000000E+00;  1.1872181E-02;  4.0000000E+04;  0.0000000E+00;  4.0007094E+04; -8.0732889E-02;  0.0000000E+00;  4.6465203E-02;  1.0383939E+03;
  5.5192870E-01;  9.9999998E-03; -1.3000453E-01;5818;  1.0336183E-02;  0.0000000E+00; -1.0799046E-02;  9.9874432E+02;  1.0004845E-01; -1.0403162E+03;3; -5.2387710E+00;  0.0000000E+00; -9.7655118E-01;0; -3.4126714E-02;  3.9852141E+04;  0.0000000E+00; -7.4951844E-03;  4.0000000E+04;  0.0000000E+00;  4.0006184E+04; -8.5319482E-02;  0.0000000E+00;  5.1192768E-02;  9.3369220E+02;
  5.5192757E-01;  9.9999998E-03; -1.2000402E-01;5819;  1.0267866E-02;  0.0000000E+00; -1.0261932E-02;  9.9870892E+02;  1.0004851E-01; -1.0696487E+03;3; -5.4268665E+00;  0.0000000E+00; -8.2789838E-01;0; -3.3752989E-02;  3.9849492E+04;  0.0000000E+00; -2.5108194E-02;  4.0000000E+04;  0.0000000E+00;  4.0005629E+04; -8.9694574E-02;  0.0000000E+00;  5.5941585E-02;  8.8196045E+02;
  5.5192482E-01;  9.9999998E-03; -1.1000364E-01;5820;  1.0190425E-02;  0.0000000E+00; -9.6858963E-03;  9.9866364E+02;  1.0004858E-01; -1.1071292E+03;3; -5.6153035E+00;  0.0000000E+00; -6.9122523E-01;0; -3.3159319E-02;  3.9845621E+04;  0.0000000E+00; -3.9894395E-02;  4.0000000E+04;  0.0000000E+00;  4.0005633E+04; -9.3839221E-02;  0.0000000E+00;  6.0679901E-02;  8.7900226E+02;
  5.6209874E-01;  9.9999998E-03; -2.6995412E-01;5865;  9.7871358E-03;  0.0000000E+00; -1.4181873E-02;  9.9761023E+02;  1.0007987E-01; -1.9798945E+03;3; -3.6041126E+00;  0.0000000E+00; -1.8112514E+00;0; -1.1804825E-02;  3.9721699E+04;  0.0000000E+00; -1.0056937E-01;  4.0000000E+04;  0.0000000E+00;  4.0022309E+04; -1.9285748E-02;  0.0000000E+00;  7.4809231E-03;  3.0849548E+03;
  5.6212533E-01;  9.9999998E-03; -2.5995728E-01;5866;  9.9275382E-03;  0.0000000E+00; -1.4238560E-02;  9.9768243E+02;  1.0007985E-01; -1.9200443E+03;3; -3.5800202E+00;  0.0000000E+00; -1.8481381E+00;0; -1.4668422E-02;  3.9729191E+04;  0.0000000E+00; -1.1802059E-01;  4.0000000E+04;  0.0000000E+00;  4.0020527E+04; -2.2842675E-02;  0.0000000E+00;  8.1742536E-03;  2.8579395E+03;
  5.6212574E-01;  9.9999998E-03; -2.4996081E-01;5867;  1.0044320E-02;  0.0000000E+00; -1.4327955E-02;  9.9778296E+02;  1.0007981E-01; -1.8367875E+03;3; -3.5796287E+00;  0.0000000E+00; -1.8833091E+00;0; -1.7239375E-02;  3.9738148E+04;  0.0000000E+00; -9.5495917E-02;  4.0000000E+04;  0.0000000E+00;  4.0019602E+04; -2.6769789E-02;  0.0000000E+00;  9.5304139E-03;  2.7174241E+03;
  5.6209981E-01;  9.9999998E-03; -2.3996340E-01;5868;  1.0135141E-02;  0.0000000E+00; -1.4407915E-02;  9.9790881E+02;  1.0007977E-01; -1.7324941E+03;3; -3.5897226E+00;  0.0000000E+00; -1.9253135E+00;0; -1.9900668E-02;  3.9747781E+04;  0.0000000E+00; -6.3641950E-02;  4.0000000E+04;  0.0000000E+00;  4.0019520E+04; -3.1060372E-02;  0.0000000E+00;  1.1159703E-02;  2.7103745E+03;
  5.6206197E-01;  9.9999998E-03; -2.2997360E-01;5869;  1.0183757E-02;  0.0000000E+00; -1.4383908E-02;  9.9802240E+02;  1.0007978E-01; -1.6384227E+03;3; -3.6360538E+00;  0.0000000E+00; -1.9445682E+00;0; -2.2843216E-02;  3.9758344E+04;  0.0000000E+00; -3.4535378E-02;  4.0000000E+04;  0.0000000E+00;  4.0017738E+04; -3.5686411E-02;  0.0000000E+00;  1.2843194E-02;  2.4770850E+03;
  5.6202507E-01;  9.9999998E-03; -2.1999024E-01;5870;  1.0193563E-02;  0.0000000E+00; -1.4318136E-02;  9.9814172E+02;  1.0008001E-01; -1.5395613E+03;3; -3.7144148E+00;  0.0000000E+00; -1.9420493E+00;0; -2.5560435E-02;  3.9769418E+04;  0.0000000E+00; -8.0282232E-03;  4.0000000E+04;  0.0000000E+00;  4.0016301E+04; -4.0612020E-02;  0.0000000E+00;  1.5051584E-02;  2.2574512E+03;
  5.6199324E-01;  9.9999998E-03; -2.1000439E-01;5871;  1.0168922E-02;  0.0000000E+00; -1.4205246E-02;  9.9828204E+02;  1.0007975E-01; -1.4233176E+03;3; -3.8229446E+00;  0.0000000E+00; -1.9040262E+00;0; -2.8010085E-02;  3.9780602E+04;  0.0000000E+00;  1.6417416E-02;  4.0000000E+04;  0.0000000E+00;  4.0015844E+04; -4.5790728E-02;  0.0000000E+00;  1.7780643E-02;  2.1998413E+03;
  5.6196934E-01;  9.9999998E-03; -2.0001255E-01;5872;  1.0111312E-02;  0.0000000E+00; -1.4021019E-02;  9.9841833E+02;  1.0007975E-01; -1.3103826E+03;3; -3.9677541E+00;  0.0000000E+00; -1.8309765E+00;0; -3.0164624E-02;  3.9791473E+04;  0.0000000E+00;  3.7299968E-02;  4.0000000E+04;  0.0000000E+00;  4.0015750E+04; -5.1159628E-02;  0.0000000E+00;  2.0995004E-02;  2.1811963E+03;
  5.6195390E-01;  9.9999998E-03; -1.9001617E-01;5873;  1.0032070E-02;  0.0000000E+00; -1.3766281E-02;  9.9853723E+02;  1.0007992E-01; -1.2118668E+03;3; -4.1105661E+00;  0.0000000E+00; -1.7451131E+00;0; -3.1968959E-02;  3.9801516E+04;  0.0000000E+00;  5.3059187E-02;  4.0000000E+04;  0.0000000E+00;  4.0015188E+04; -5.6645155E-02;  0.0000000E+00;  2.4676198E-02;  2.0999377E+03;
  5.6194532E-01;  9.9999998E-03; -1.8001735E-01;5874;  9.9411616E-03;  0.0000000E+00; -1.3446118E-02;  9.9863544E+02;  1.0007997E-01; -1.1305359E+03;3; -4.2621155E+00;  0.0000000E+00; -1.6459376E+00;0; -3.3395261E-02;  3.9810488E+04;  0.0000000E+00;  6.2880285E-02;  4.0000000E+04;  0.0000000E+00;  4.0013945E+04; -6.2169511E-02;  0.0000000E+00;  2.8774252E-02;  1.9419302E+03;
  5.6194258E-01;  9.9999998E-03; -1.7001721E-01;5875;  9.8456033E-03;  0.0000000E+00; -1.3076602E-02;  9.9870483E+02;  1.0007987E-01; -1.0730066E+03;3; -4.4223099E+00;  0.0000000E+00; -1.5349069E+00;0; -3.4442339E-02;  3.9817578E+04;  0.0000000E+00;  6.7126766E-02;  4.0000000E+04;  0.0000000E+00;  4.0012312E+04; -6.7659490E-02;  0.0000000E+00;  3.3217151E-02;  1.7341097E+03;
  5.6194407E-01;  9.9999998E-03; -1.6001627E-01;5876;  9.7480128E-03;  0.0000000E+00; -1.2664433E-02;  9.9875043E+02;  1.0007964E-01; -1.0352299E+03;3; -4.5900040E+00;  0.0000000E+00; -1.4112982E+00;0; -3.5133015E-02;  3.9822801E+04;  0.0000000E+00;  6.6970609E-02;  4.0000000E+04;  0.0000000E+00;  4.0010570E+04; -7.3052175E-02;  0.0000000E+00;  3.7919160E-02;  1.5111340E+03;
  5.6194848E-01;  9.9999998E-03; -1.5001498E-01;5877;  9.6485000E-03;  0.0000000E+00; -1.2214446E-02;  9.9876733E+02;  1.0007985E-01; -1.0212550E+03;3; -4.7650723E+00;  0.0000000E+00; -1.2781889E+00;0; -3.5506662E-02;  3.9825988E+04;  0.0000000E+00;  6.3765824E-02;  4.0000000E+04;  0.0000000E+00;  4.0008859E+04; -7.8299016E-02;  0.0000000E+00;  4.2792354E-02;  1.3039027E+03;
  5.6195390E-01;  9.9999998E-03; -1.4001381E-01;5878;  9.5462343E-03;  0.0000000E+00; -1.1727975E-02;  9.9876276E+02;  1.0007970E-01; -1.0250574E+03;3; -4.9464149E+00;  0.0000000E+00; -1.1315794E+00;0; -3.5605963E-02;  3.9826590E+04;  0.0000000E+00;  5.8399908E-02;  4.0000000E+04;  0.0000000E+00;  4.0007383E+04; -8.3365060E-02;  0.0000000E+00;  4.7759097E-02;  1.1348341E+03;
  5.6195855E-01;  9.9999998E-03; -1.3001296E-01;5879;  9.4396276E-03;  0.0000000E+00; -1.1203863E-02;  9.9873590E+02;  1.0007964E-01; -1.0472789E+03;3; -5.1312666E+00;  0.0000000E+00; -9.7925264E-01;0; -3.5458326E-02;  3.9825293E+04;  0.0000000E+00;  5.1087491E-02;  4.0000000E+04;  0.0000000E+00;  4.0006688E+04; -8.8224791E-02;  0.0000000E+00;  5.2766465E-02;  1.0155531E+03;
  5.6196165E-01;  9.9999998E-03; -1.2001234E-01;5880;  9.3269311E-03;  0.0000000E+00; -1.0638332E-02;  9.9868817E+02;  1.0007966E-01; -1.0868334E+03;3; -5.3198791E+00;  0.0000000E+00; -8.2430828E-01;0; -3.5073176E-02;  3.9822016E+04;  0.0000000E+00;  4.1809741E-02;  4.0000000E+04;  0.0000000E+00;  4.0005984E+04; -9.2855573E-02;  0.0000000E+00;  5.7782397E-02;  9.4839813E+02;
  5.6196320E-01;  9.9999998E-03; -1.1001164E-01;5881;  9.2056552E-03;  0.0000000E+00; -1.0028521E-02;  9.9862836E+02;  1.0007960E-01; -1.1363628E+03;3; -5.5085497E+00;  0.0000000E+00; -6.7992795E-01;0; -3.4469187E-02;  3.9817598E+04;  0.0000000E+00;  3.0999105E-02;  4.0000000E+04;  0.0000000E+00;  4.0005691E+04; -9.7235568E-02;  0.0000000E+00;  6.2766381E-02;  9.3003668E+02;
  5.7226425E-01;  9.9999998E-03; -2.6995555E-01;5926;  9.6596191E-03;  0.0000000E+00; -1.4473606E-02;  9.9785895E+02;  1.0013127E-01; -1.7738260E+03;3; -3.5270984E+00;  0.0000000E+00; -1.8050830E+00;0; -1.1448860E-02;  3.9704258E+04;  0.0000000E+00; -1.9793415E-01;  4.0000000E+04;  0.0000000E+00;  4.0018840E+04; -1.8017747E-02;  0.0000000E+00;  6.5688863E-03;  2.6630491E+03;
  5.7228822E-01;  9.9999998E-03; -2.5995827E-01;5927;  9.7539015E-03;  0.0000000E+00; -1.4550628E-02;  9.9791541E+02;  1.0013119E-01; -1.7270620E+03;3; -3.4950390E+00;  0.0000000E+00; -1.8366073E+00;0; -1.4494861E-02;  3.9710324E+04;  0.0000000E+00; -1.6411553E-01;  4.0000000E+04;  0.0000000E+00;  4.0017188E+04; -2.1825530E-02;  0.0000000E+00;  7.3306696E-03;  2.4385977E+03;
  5.7227796E-01;  9.9999998E-03; -2.4996102E-01;5928;  9.8207584E-03;  0.0000000E+00; -1.4674279E-02;  9.9800378E+02;  1.0013124E-01; -1.6538295E+03;3; -3.4679835E+00;  0.0000000E+00; -1.8825325E+00;0; -1.7179117E-02;  3.9717695E+04;  0.0000000E+00; -1.0678671E-01;  4.0000000E+04;  0.0000000E+00;  4.0016465E+04; -2.6017133E-02;  0.0000000E+00;  8.8380175E-03;  2.3561807E+03;
  5.7224143E-01;  9.9999998E-03; -2.3996130E-01;5929;  9.8551949E-03;  0.0000000E+00; -1.4793252E-02;  9.9812506E+02;  1.0013139E-01; -1.5533385E+03;3; -3.4738467E+00;  0.0000000E+00; -1.9242994E+00;0; -1.9996919E-02;  3.9725750E+04;  0.0000000E+00; -6.3480757E-02;  4.0000000E+04;  0.0000000E+00;  4.0017695E+04; -3.0584317E-02;  0.0000000E+00;  1.0587398E-02;  2.4944001E+03;
  5.7219201E-01;  9.9999998E-03; -2.2996922E-01;5930;  9.8392731E-03;  0.0000000E+00; -1.4780553E-02;  9.9822504E+02;  1.0013141E-01; -1.4705261E+03;3; -3.5171611E+00;  0.0000000E+00; -1.9440961E+00;0; -2.3233688E-02;  3.9734516E+04;  0.0000000E+00; -3.7315376E-02;  4.0000000E+04;  0.0000000E+00;  4.0016676E+04; -3.5495747E-02;  0.0000000E+00;  1.2262059E-02;  2.3647161E+03;
  5.7214159E-01;  9.9999998E-03; -2.1998569E-01;5931;  9.7806407E-03;  0.0000000E+00; -1.4712679E-02;  9.9832623E+02;  1.0013144E-01; -1.3866766E+03;3; -3.5961058E+00;  0.0000000E+00; -1.9394783E+00;0; -2.6232924E-02;  3.9743629E+04;  0.0000000E+00; -1.9505298E-02;  4.0000000E+04;  0.0000000E+00;  4.0015363E+04; -4.0714148E-02;  0.0000000E+00;  1.4481223E-02;  2.1774729E+03;
  5.7209581E-01;  9.9999998E-03; -2.1000113E-01;5932;  9.6861366E-03;  0.0000000E+00; -1.4598578E-02;  9.9844348E+02;  1.0013153E-01; -1.2895436E+03;3; -3.7158883E+00;  0.0000000E+00; -1.8828281E+00;0; -2.8909950E-02;  3.9753047E+04;  0.0000000E+00; -3.3939402E-03;  4.0000000E+04;  0.0000000E+00;  4.0015059E+04; -4.6192430E-02;  0.0000000E+00;  1.7282480E-02;  2.1442620E+03;
  5.7205850E-01;  9.9999998E-03; -2.0001043E-01;5933;  9.5622642E-03;  0.0000000E+00; -1.4416650E-02;  9.9856122E+02;  1.0013146E-01; -1.1920155E+03;3; -3.8562074E+00;  0.0000000E+00; -1.8143797E+00;0; -3.1250969E-02;  3.9762074E+04;  0.0000000E+00;  1.2953246E-02;  4.0000000E+04;  0.0000000E+00;  4.0015508E+04; -5.1867876E-02;  0.0000000E+00;  2.0616908E-02;  2.1640847E+03;
  5.7203084E-01;  9.9999998E-03; -1.9001471E-01;5934;  9.4211940E-03;  0.0000000E+00; -1.4173856E-02;  9.9866571E+02;  1.0013139E-01; -1.1054501E+03;3; -3.9962599E+00;  0.0000000E+00; -1.7374673E+00;0; -3.3205327E-02;  3.9770465E+04;  0.0000000E+00;  2.9527616E-02;  4.0000000E+04;  0.0000000E+00;  4.0015148E+04; -5.7665363E-02;  0.0000000E+00;  2.4460036E-02;  2.1224004E+03;
  5.7201284E-01;  9.9999998E-03; -1.8001612E-01;5935;  9.2714420E-03;  0.0000000E+00; -1.3863326E-02;  9.9874274E+02;  1.0013138E-01; -1.0416000E+03;3; -4.1451526E+00;  0.0000000E+00; -1.6431234E+00;0; -3.4752123E-02;  3.9777566E+04;  0.0000000E+00;  4.5817643E-02;  4.0000000E+04;  0.0000000E+00;  4.0014027E+04; -6.3504763E-02;  0.0000000E+00;  2.8752642E-02;  1.9967712E+03;
  5.7200325E-01;  9.9999998E-03; -1.7001586E-01;5936;  9.1198077E-03;  0.0000000E+00; -1.3502772E-02;  9.9879999E+02;  1.0013123E-01; -9.9419397E+02;3; -4.3046136E+00;  0.0000000E+00; -1.5381894E+00;0; -3.5886433E-02;  3.9783301E+04;  0.0000000E+00;  6.1592422E-02;  4.0000000E+04;  0.0000000E+00;  4.0012598E+04; -6.9309704E-02;  0.0000000E+00;  3.3423271E-02;  1.8123966E+03;
  5.7200128E-01;  9.9999998E-03; -1.6001461E-01;5937;  8.9682927E-03;  0.0000000E+00; -1.3093267E-02;  9.9882770E+02;  1.0013103E-01; -9.7123163E+02;3; -4.4725060E+00;  0.0000000E+00; -1.4194611E+00;0; -3.6631599E-02;  3.9787312E+04;  0.0000000E+00;  7.6662682E-02;  4.0000000E+04;  0.0000000E+00;  4.0011094E+04; -7.5013570E-02;  0.0000000E+00;  3.8381971E-02;  1.6051354E+03;
  5.7200521E-01;  9.9999998E-03; -1.5001309E-01;5938;  8.8167572E-03;  0.0000000E+00; -1.2639314E-02;  9.9883685E+02;  1.0013118E-01; -9.6362689E+02;3; -4.6490769E+00;  0.0000000E+00; -1.2836643E+00;0; -3.7030641E-02;  3.9789301E+04;  0.0000000E+00;  9.0458967E-02;  4.0000000E+04;  0.0000000E+00;  4.0009391E+04; -8.0564037E-02;  0.0000000E+00;  4.3533396E-02;  1.4079382E+03;
  5.7201332E-01;  9.9999998E-03; -1.4001176E-01;5939;  8.6639514E-03;  0.0000000E+00; -1.2141578E-02;  9.9882239E+02;  1.0013114E-01; -9.7562659E+02;3; -4.8310318E+00;  0.0000000E+00; -1.1393175E+00;0; -3.7134077E-02;  3.9789570E+04;  0.0000000E+00;  1.0187491E-01;  4.0000000E+04;  0.0000000E+00;  4.0008000E+04; -8.5923359E-02;  0.0000000E+00;  4.8789281E-02;  1.2446357E+03;
  5.7202417E-01;  9.9999998E-03; -1.3001069E-01;5940;  8.5079083E-03;  0.0000000E+00; -1.1598713E-02;  9.9878760E+02;  1.0013101E-01; -1.0044653E+03;3; -5.0172443E+00;  0.0000000E+00; -9.9043679E-01;0; -3.6975823E-02;  3.9788086E+04;  0.0000000E+00;  1.0936266E-01;  4.0000000E+04;  0.0000000E+00;  4.0007070E+04; -9.1061816E-02;  0.0000000E+00;  5.4085992E-02;  1.1274354E+03;
  5.7203555E-01;  9.9999998E-03; -1.2000981E-01;5941;  8.3468417E-03;  0.0000000E+00; -1.1006071E-02;  9.9873920E+02;  1.0013115E-01; -1.0445629E+03;3; -5.2047019E+00;  0.0000000E+00; -8.3265793E-01;0; -3.6572065E-02;  3.9784715E+04;  0.0000000E+00;  1.1143211E-01;  4.0000000E+04;  0.0000000E+00;  4.0006445E+04; -9.5953055E-02;  0.0000000E+00;  5.9380990E-02;  1.0584540E+03;
  5.7204610E-01;  9.9999998E-03; -1.1000868E-01;5942;  8.1783449E-03;  0.0000000E+00; -1.0361159E-02;  9.9867981E+02;  1.0013121E-01; -1.0937467E+03;3; -5.3940005E+00;  0.0000000E+00; -6.8051428E-01;0; -3.5948321E-02;  3.9780113E+04;  0.0000000E+00;  1.0745339E-01;  4.0000000E+04;  0.0000000E+00;  4.0006215E+04; -1.0057146E-01;  0.0000000E+00;  6.4623140E-02;  1.0336266E+03;
  5.8242130E-01;  9.9999998E-03; -2.6995707E-01;5987;  9.5714675E-03;  0.0000000E+00; -1.4757265E-02;  9.9815533E+02;  1.0021430E-01; -1.5282528E+03;3; -3.4441440E+00;  0.0000000E+00; -1.7993488E+00;0; -1.0388276E-02;  3.9665762E+04;  0.0000000E+00; -3.3114830E-01;  4.0000000E+04;  0.0000000E+00;  4.0014945E+04; -1.6697202E-02;  0.0000000E+00;  6.3089258E-03;  2.2747009E+03;
  5.8244646E-01;  9.9999998E-03; -2.5995842E-01;5988;  9.6142245E-03;  0.0000000E+00; -1.4848586E-02;  9.9819727E+02;  1.0021447E-01; -1.4935378E+03;3; -3.3991835E+00;  0.0000000E+00; -1.8372645E+00;0; -1.3844326E-02;  3.9670238E+04;  0.0000000E+00; -2.2790223E-01;  4.0000000E+04;  0.0000000E+00;  4.0013598E+04; -2.0753920E-02;  0.0000000E+00;  6.9095935E-03;  2.0593750E+03;
  5.8243823E-01;  9.9999998E-03; -2.4995925E-01;5989;  9.6241729E-03;  0.0000000E+00; -1.4992546E-02;  9.9826886E+02;  1.0021477E-01; -1.4342308E+03;3; -3.3616014E+00;  0.0000000E+00; -1.8853662E+00;0; -1.6878042E-02;  3.9675789E+04;  0.0000000E+00; -1.2699503E-01;  4.0000000E+04;  0.0000000E+00;  4.0013582E+04; -2.5205582E-02;  0.0000000E+00;  8.3275409E-03;  2.0393046E+03;
  5.8239734E-01;  9.9999998E-03; -2.3995636E-01;5990;  9.5958272E-03;  0.0000000E+00; -1.5130334E-02;  9.9837866E+02;  1.0021478E-01; -1.3432705E+03;3; -3.3455670E+00;  0.0000000E+00; -1.9392358E+00;0; -2.0044189E-02;  3.9682102E+04;  0.0000000E+00; -6.2129755E-02;  4.0000000E+04;  0.0000000E+00;  4.0015832E+04; -3.0043667E-02;  0.0000000E+00;  9.9994792E-03;  2.2889006E+03;
  5.8233905E-01;  9.9999998E-03; -2.2996007E-01;5991;  9.5090233E-03;  0.0000000E+00; -1.5123761E-02;  9.9846545E+02;  1.0021497E-01; -1.2713219E+03;3; -3.3902123E+00;  0.0000000E+00; -1.9549631E+00;0; -2.3639370E-02;  3.9688844E+04;  0.0000000E+00; -3.3084523E-02;  4.0000000E+04;  0.0000000E+00;  4.0015477E+04; -3.5234708E-02;  0.0000000E+00;  1.1595340E-02;  2.2629646E+03;
  5.8227831E-01;  9.9999998E-03; -2.1997435E-01;5992;  9.3741938E-03;  0.0000000E+00; -1.5048100E-02;  9.9854089E+02;  1.0021490E-01; -1.2088545E+03;3; -3.4841475E+00;  0.0000000E+00; -1.9259781E+00;0; -2.6966536E-02;  3.9695941E+04;  0.0000000E+00; -2.2496596E-02;  4.0000000E+04;  0.0000000E+00;  4.0014152E+04; -4.0739492E-02;  0.0000000E+00;  1.3772955E-02;  2.0907283E+03;
  5.8222157E-01;  9.9999998E-03; -2.0999010E-01;5993;  9.2038447E-03;  0.0000000E+00; -1.4929730E-02;  9.9862946E+02;  1.0021475E-01; -1.1354739E+03;3; -3.6045840E+00;  0.0000000E+00; -1.8691938E+00;0; -2.9904533E-02;  3.9703262E+04;  0.0000000E+00; -1.6036315E-02;  4.0000000E+04;  0.0000000E+00;  4.0013902E+04; -4.6511281E-02;  0.0000000E+00;  1.6606748E-02;  2.0479418E+03;
  5.8217251E-01;  9.9999998E-03; -2.0000058E-01;5994;  9.0101995E-03;  0.0000000E+00; -1.4754121E-02;  9.9872089E+02;  1.0021470E-01; -1.0597229E+03;3; -3.7369096E+00;  0.0000000E+00; -1.8022749E+00;0; -3.2455251E-02;  3.9709988E+04;  0.0000000E+00; -7.1179392E-03;  4.0000000E+04;  0.0000000E+00;  4.0014359E+04; -5.2488331E-02;  0.0000000E+00;  2.0033080E-02;  2.0797439E+03;
  5.8213365E-01;  9.9999998E-03; -1.9000582E-01;5995;  8.8035883E-03;  0.0000000E+00; -1.4524392E-02;  9.9879974E+02;  1.0021468E-01; -9.9439148E+02;3; -3.8745422E+00;  0.0000000E+00; -1.7342881E+00;0; -3.4585487E-02;  3.9716059E+04;  0.0000000E+00;  6.6413544E-03;  4.0000000E+04;  0.0000000E+00;  4.0014203E+04; -5.8594804E-02;  0.0000000E+00;  2.4009317E-02;  2.0687939E+03;
  5.8210564E-01;  9.9999998E-03; -1.8000789E-01;5996;  8.5916454E-03;  0.0000000E+00; -1.4233085E-02;  9.9885919E+02;  1.0021465E-01; -9.4515833E+02;3; -4.0229321E+00;  0.0000000E+00; -1.6448497E+00;0; -3.6275283E-02;  3.9721398E+04;  0.0000000E+00;  2.5655216E-02;  4.0000000E+04;  0.0000000E+00;  4.0013445E+04; -6.4748392E-02;  0.0000000E+00;  2.8473111E-02;  1.9801511E+03;
  5.8208829E-01;  9.9999998E-03; -1.7000814E-01;5997;  8.3801020E-03;  0.0000000E+00; -1.3888990E-02;  9.9889636E+02;  1.0021455E-01; -9.1434436E+02;3; -4.1803865E+00;  0.0000000E+00; -1.5435504E+00;0; -3.7518051E-02;  3.9725496E+04;  0.0000000E+00;  4.9451817E-02;  4.0000000E+04;  0.0000000E+00;  4.0012340E+04; -7.0869461E-02;  0.0000000E+00;  3.3351410E-02;  1.8321960E+03;
  5.8208078E-01;  9.9999998E-03; -1.6000731E-01;5998;  8.1705051E-03;  0.0000000E+00; -1.3488723E-02;  9.9891315E+02;  1.0021445E-01; -9.0041882E+02;3; -4.3494439E+00;  0.0000000E+00; -1.4218098E+00;0; -3.8335189E-02;  3.9728219E+04;  0.0000000E+00;  7.6771617E-02;  4.0000000E+04;  0.0000000E+00;  4.0010992E+04; -7.6887570E-02;  0.0000000E+00;  3.8552381E-02;  1.6581333E+03;
  5.8208197E-01;  9.9999998E-03; -1.5000607E-01;5999;  7.9627475E-03;  0.0000000E+00; -1.3038768E-02;  9.9891034E+02;  1.0021443E-01; -9.0273975E+02;3; -4.5259299E+00;  0.0000000E+00; -1.2912710E+00;0; -3.8772769E-02;  3.9729559E+04;  0.0000000E+00;  1.0539697E-01;  4.0000000E+04;  0.0000000E+00;  4.0009648E+04; -8.2746550E-02;  0.0000000E+00;  4.3973781E-02;  1.4900286E+03;
  5.8209032E-01;  9.9999998E-03; -1.4000487E-01;6000;  7.7551915E-03;  0.0000000E+00; -1.2534618E-02;  9.9889221E+02;  1.0021447E-01; -9.1780109E+02;3; -4.7084274E+00;  0.0000000E+00; -1.1544201E+00;0; -3.8887259E-02;  3.9729336E+04;  0.0000000E+00;  1.3239329E-01;  4.0000000E+04;  0.0000000E+00;  4.0008332E+04; -8.8403732E-02;  0.0000000E+00;  4.9516473E-02;  1.3513422E+03;
  5.8210438E-01;  9.9999998E-03; -1.3000372E-01;6001;  7.5459946E-03;  0.0000000E+00; -1.1976993E-02;  9.9886127E+02;  1.0021418E-01; -9.4342999E+02;3; -4.8942952E+00;  0.0000000E+00; -1.0057482E+00;0; -3.8721297E-02;  3.9727793E+04;  0.0000000E+00;  1.5455522E-01;  4.0000000E+04;  0.0000000E+00;  4.0007531E+04; -9.3826197E-02;  0.0000000E+00;  5.5104900E-02;  1.2539565E+03;
  5.8212328E-01;  9.9999998E-03; -1.2000231E-01;6002;  7.3330714E-03;  0.0000000E+00; -1.1360076E-02;  9.9881757E+02;  1.0021426E-01; -9.7962646E+02;3; -5.0822420E+00;  0.0000000E+00; -8.5076427E-01;0; -3.8298856E-02;  3.9724848E+04;  0.0000000E+00;  1.6893530E-01;  4.0000000E+04;  0.0000000E+00;  4.0006922E+04; -9.8983489E-02;  0.0000000E+00;  6.0684633E-02;  1.1987648E+03;
  5.8214492E-01;  9.9999998E-03; -1.1000055E-01;6003;  7.1143974E-03;  0.0000000E+00; -1.0680920E-02;  9.9876703E+02;  1.0021417E-01; -1.0215018E+03;3; -5.2714086E+00;  0.0000000E+00; -6.9346189E-01;0; -3.7653066E-02;  3.9721168E+04;  0.0000000E+00;  1.7365208E-01;  4.0000000E+04;  0.0000000E+00;  4.0006734E+04; -1.0384546E-01;  0.0000000E+00;  6.6192396E-02;  1.1799337E+03;
  5.9251934E-01;  9.9999998E-03; -2.6995876E-01;6048;  9.5262500E-03;  0.0000000E+00; -1.4980224E-02;  9.9838495E+02;  1.0034879E-01; -1.3380360E+03;3; -3.3492298E+00;  0.0000000E+00; -1.8075109E+00;0; -9.2674773E-03;  3.9581941E+04;  0.0000000E+00; -3.7179199E-01;  4.0000000E+04;  0.0000000E+00;  4.0011914E+04; -1.5409919E-02;  0.0000000E+00;  6.1424407E-03;  1.9797982E+03;
  5.9254682E-01;  9.9999998E-03; -2.5995806E-01;6049;  9.5077045E-03;  0.0000000E+00; -1.5075853E-02;  9.9841132E+02;  1.0034929E-01; -1.3162095E+03;3; -3.2944357E+00;  0.0000000E+00; -1.8420318E+00;0; -1.3244821E-02;  3.9584977E+04;  0.0000000E+00; -2.3256911E-01;  4.0000000E+04;  0.0000000E+00;  4.0010547E+04; -1.9700631E-02;  0.0000000E+00;  6.4558112E-03;  1.7698766E+03;
  5.9254140E-01;  9.9999998E-03; -2.4995562E-01;6050;  9.4560301E-03;  0.0000000E+00; -1.5242040E-02;  9.9846979E+02;  1.0034923E-01; -1.2677665E+03;3; -3.2395916E+00;  0.0000000E+00; -1.9022644E+00;0; -1.6620418E-02;  3.9588824E+04;  0.0000000E+00; -1.1327396E-01;  4.0000000E+04;  0.0000000E+00;  4.0011016E+04; -2.4397295E-02;  0.0000000E+00;  7.7768769E-03;  1.8266075E+03;
  5.9250259E-01;  9.9999998E-03; -2.3994890E-01;6051;  9.3564987E-03;  0.0000000E+00; -1.5383750E-02;  9.9856482E+02;  1.0034949E-01; -1.1890032E+03;3; -3.2257681E+00;  0.0000000E+00; -1.9515864E+00;0; -2.0211354E-02;  3.9593180E+04;  0.0000000E+00; -4.3201417E-02;  4.0000000E+04;  0.0000000E+00;  4.0013730E+04; -2.9488921E-02;  0.0000000E+00;  9.2775663E-03;  2.1389954E+03;
  5.9244311E-01;  9.9999998E-03; -2.2994912E-01;6052;  9.1908975E-03;  0.0000000E+00; -1.5369177E-02;  9.9862708E+02;  1.0034961E-01; -1.1374491E+03;3; -3.2683718E+00;  0.0000000E+00; -1.9633896E+00;0; -2.4200639E-02;  3.9598066E+04;  0.0000000E+00; -1.8478764E-02;  4.0000000E+04;  0.0000000E+00;  4.0013695E+04; -3.4941219E-02;  0.0000000E+00;  1.0740580E-02;  2.1260574E+03;
  5.9237897E-01;  9.9999998E-03; -2.1996324E-01;6053;  8.9723505E-03;  0.0000000E+00; -1.5283855E-02;  9.9867426E+02;  1.0034963E-01; -1.0983391E+03;3; -3.3696301E+00;  0.0000000E+00; -1.9162817E+00;0; -2.7845412E-02;  3.9603406E+04;  0.0000000E+00; -1.7792450E-02;  4.0000000E+04;  0.0000000E+00;  4.0011672E+04; -4.0714189E-02;  0.0000000E+00;  1.2868778E-02;  1.8960382E+03;
  5.9231770E-01;  9.9999998E-03; -2.0998134E-01;6054;  8.7249847E-03;  0.0000000E+00; -1.5172023E-02;  9.9873718E+02;  1.0034940E-01; -1.0462418E+03;3; -3.4861181E+00;  0.0000000E+00; -1.8618377E+00;0; -3.1029105E-02;  3.9608477E+04;  0.0000000E+00; -2.2537898E-02;  4.0000000E+04;  0.0000000E+00;  4.0011219E+04; -4.6764854E-02;  0.0000000E+00;  1.5735749E-02;  1.8179530E+03;
  5.9226286E-01;  9.9999998E-03; -1.9999421E-01;6055;  8.4604006E-03;  0.0000000E+00; -1.5016153E-02;  9.9880414E+02;  1.0034940E-01; -9.9073724E+02;3; -3.6124318E+00;  0.0000000E+00; -1.7953924E+00;0; -3.3793990E-02;  3.9613492E+04;  0.0000000E+00; -2.3015218E-02;  4.0000000E+04;  0.0000000E+00;  4.0011820E+04; -5.3032707E-02;  0.0000000E+00;  1.9238718E-02;  1.8694482E+03;
  5.9221709E-01;  9.9999998E-03; -1.9000098E-01;6056;  8.1860013E-03;  0.0000000E+00; -1.4808496E-02;  9.9886395E+02;  1.0034945E-01; -9.4120782E+02;3; -3.7456510E+00;  0.0000000E+00; -1.7344494E+00;0; -3.6119059E-02;  3.9617738E+04;  0.0000000E+00; -1.5111881E-02;  4.0000000E+04;  0.0000000E+00;  4.0012043E+04; -5.9440516E-02;  0.0000000E+00;  2.3321457E-02;  1.9078669E+03;
  5.9218174E-01;  9.9999998E-03; -1.8000403E-01;6057;  7.9085790E-03;  0.0000000E+00; -1.4543473E-02;  9.9890289E+02;  1.0034906E-01; -9.0891241E+02;3; -3.8924351E+00;  0.0000000E+00; -1.6471354E+00;0; -3.7975647E-02;  3.9621004E+04;  0.0000000E+00;  2.3189629E-03;  4.0000000E+04;  0.0000000E+00;  4.0011719E+04; -6.5903723E-02;  0.0000000E+00;  2.7928079E-02;  1.8761401E+03;
  5.9215808E-01;  9.9999998E-03; -1.7000476E-01;6058;  7.6329485E-03;  0.0000000E+00; -1.4221294E-02;  9.9892212E+02;  1.0034908E-01; -8.9301166E+02;3; -4.0508699E+00;  0.0000000E+00; -1.5487276E+00;0; -3.9351273E-02;  3.9623602E+04;  0.0000000E+00;  2.8847009E-02;  4.0000000E+04;  0.0000000E+00;  4.0011223E+04; -7.2339416E-02;  0.0000000E+00;  3.2988142E-02;  1.7837876E+03;
  5.9214592E-01;  9.9999998E-03; -1.6000392E-01;6059;  7.3610893E-03;  0.0000000E+00; -1.3840494E-02;  9.9892786E+02;  1.0034893E-01; -8.8827106E+02;3; -4.2186775E+00;  0.0000000E+00; -1.4317113E+00;0; -4.0263373E-02;  3.9625137E+04;  0.0000000E+00;  6.2688790E-02;  4.0000000E+04;  0.0000000E+00;  4.0010102E+04; -7.8673467E-02;  0.0000000E+00;  3.8410094E-02;  1.6609014E+03;
  5.9214455E-01;  9.9999998E-03; -1.5000224E-01;6060;  7.0922133E-03;  0.0000000E+00; -1.3400014E-02;  9.9892206E+02;  1.0034863E-01; -8.9306104E+02;3; -4.3939514E+00;  0.0000000E+00; -1.3126891E+00;0; -4.0759448E-02;  3.9625855E+04;  0.0000000E+00;  1.0067205E-01;  4.0000000E+04;  0.0000000E+00;  4.0009039E+04; -8.4844977E-02;  0.0000000E+00;  4.4085529E-02;  1.5387225E+03;
  5.9215361E-01;  9.9999998E-03; -1.4000000E-01;6061;  6.8254624E-03;  0.0000000E+00; -1.2894947E-02;  9.9890735E+02;  1.0034855E-01; -9.0525824E+02;3; -4.5768943E+00;  0.0000000E+00; -1.1744875E+00;0; -4.0902138E-02;  3.9625547E+04;  0.0000000E+00;  1.3868821E-01;  4.0000000E+04;  0.0000000E+00;  4.0008238E+04; -9.0806983E-02;  0.0000000E+00;  4.9904846E-02;  1.4404832E+03;
  5.9217203E-01;  9.9999998E-03; -1.2999727E-01;6062;  6.5588434E-03;  0.0000000E+00; -1.2328158E-02;  9.9888538E+02;  1.0034847E-01; -9.2343054E+02;3; -4.7639041E+00;  0.0000000E+00; -1.0325332E+00;0; -4.0742025E-02;  3.9624543E+04;  0.0000000E+00;  1.7236498E-01;  4.0000000E+04;  0.0000000E+00;  4.0007496E+04; -9.6522011E-02;  0.0000000E+00;  5.5779986E-02;  1.3774613E+03;
  5.9219891E-01;  9.9999998E-03; -1.1999410E-01;6063;  6.2906872E-03;  0.0000000E+00; -1.1691020E-02;  9.9885565E+02;  1.0034828E-01; -9.4807184E+02;3; -4.9514723E+00;  0.0000000E+00; -8.7710446E-01;0; -4.0311504E-02;  3.9622723E+04;  0.0000000E+00;  1.9758530E-01;  4.0000000E+04;  0.0000000E+00;  4.0007332E+04; -1.0195509E-01;  0.0000000E+00;  6.1643582E-02;  1.3492905E+03;
  5.9223127E-01;  9.9999998E-03; -1.0999103E-01;6064;  6.0191494E-03;  0.0000000E+00; -1.0980936E-02;  9.9882202E+02;  1.0034831E-01; -9.7592285E+02;3; -5.1416793E+00;  0.0000000E+00; -7.1882188E-01;0; -3.9651088E-02;  3.9620309E+04;  0.0000000E+00;  2.1133414E-01;  4.0000000E+04;  0.0000000E+00;  4.0007164E+04; -1.0707000E-01;  0.0000000E+00;  6.7418911E-02;  1.3482635E+03;
  6.0252696E-01;  9.9999998E-03; -2.6996157E-01;6109;  9.5103066E-03;  0.0000000E+00; -1.5055731E-02;  9.9844324E+02;  1.0056274E-01; -1.2897411E+03;3; -3.2503707E+00;  0.0000000E+00; -1.8165557E+00;0; -9.1526471E-03;  3.9422465E+04;  0.0000000E+00; -2.0474473E-01;  4.0000000E+04;  0.0000000E+00;  4.0008953E+04; -1.4238655E-02;  0.0000000E+00;  5.0860075E-03;  1.7473440E+03;
  6.0255527E-01;  9.9999998E-03; -2.5995797E-01;6110;  9.4280122E-03;  0.0000000E+00; -1.5181514E-02;  9.9845715E+02;  1.0056362E-01; -1.2782352E+03;3; -3.1774099E+00;  0.0000000E+00; -1.8568252E+00;0; -1.3200741E-02;  3.9424039E+04;  0.0000000E+00; -1.0435139E-01;  4.0000000E+04;  0.0000000E+00;  4.0007844E+04; -1.8737888E-02;  0.0000000E+00;  5.5371472E-03;  1.5975623E+03;
  6.0255450E-01;  9.9999998E-03; -2.4995075E-01;6111;  9.3125673E-03;  0.0000000E+00; -1.5393898E-02;  9.9851422E+02;  1.0056366E-01; -1.2309280E+03;3; -3.1113529E+00;  0.0000000E+00; -1.9221442E+00;0; -1.6628815E-02;  3.9426285E+04;  0.0000000E+00; -2.5540303E-02;  4.0000000E+04;  0.0000000E+00;  4.0009406E+04; -2.3653733E-02;  0.0000000E+00;  7.0249178E-03;  1.7827115E+03;
  6.0252130E-01;  9.9999998E-03; -2.3993911E-01;6112;  9.1365194E-03;  0.0000000E+00; -1.5536914E-02;  9.9859515E+02;  1.0056426E-01; -1.1638682E+03;3; -3.0907230E+00;  0.0000000E+00; -1.9737501E+00;0; -2.0605125E-02;  3.9429582E+04;  0.0000000E+00;  1.1955095E-02;  4.0000000E+04;  0.0000000E+00;  4.0012293E+04; -2.8971445E-02;  0.0000000E+00;  8.3663203E-03;  2.1244375E+03;
  6.0246801E-01;  9.9999998E-03; -2.2993694E-01;6113;  8.8811293E-03;  0.0000000E+00; -1.5498792E-02;  9.9863098E+02;  1.0056435E-01; -1.1341899E+03;3; -3.1591194E+00;  0.0000000E+00; -1.9514434E+00;0; -2.4990907E-02;  3.9433035E+04;  0.0000000E+00;  1.1770627E-02;  4.0000000E+04;  0.0000000E+00;  4.0011465E+04; -3.4656238E-02;  0.0000000E+00;  9.6653309E-03;  2.0098257E+03;
  6.0240859E-01;  9.9999998E-03; -2.1995281E-01;6114;  8.5761258E-03;  0.0000000E+00; -1.5403667E-02;  9.9864490E+02;  1.0056438E-01; -1.1226841E+03;3; -3.2576640E+00;  0.0000000E+00; -1.9033118E+00;0; -2.8915618E-02;  3.9436957E+04;  0.0000000E+00; -6.4892136E-03;  4.0000000E+04;  0.0000000E+00;  4.0008363E+04; -4.0672384E-02;  0.0000000E+00;  1.1756766E-02;  1.6412358E+03;
  6.0234982E-01;  9.9999998E-03; -2.0997447E-01;6115;  8.2522221E-03;  0.0000000E+00; -1.5310712E-02;  9.9868243E+02;  1.0056417E-01; -1.0915739E+03;3; -3.3618274E+00;  0.0000000E+00; -1.8534031E+00;0; -3.2312348E-02;  3.9440906E+04;  0.0000000E+00; -2.6189176E-02;  4.0000000E+04;  0.0000000E+00;  4.0007250E+04; -4.6981256E-02;  0.0000000E+00;  1.4668907E-02;  1.5023583E+03;
  6.0229516E-01;  9.9999998E-03; -1.9999020E-01;6116;  7.9163592E-03;  0.0000000E+00; -1.5189010E-02;  9.9873315E+02;  1.0056413E-01; -1.0495504E+03;3; -3.4809206E+00;  0.0000000E+00; -1.7981611E+00;0; -3.5284713E-02;  3.9444348E+04;  0.0000000E+00; -3.8256314E-02;  4.0000000E+04;  0.0000000E+00;  4.0007848E+04; -5.3523611E-02;  0.0000000E+00;  1.8238898E-02;  1.5734473E+03;
  6.0224819E-01;  9.9999998E-03; -1.8999857E-01;6117;  7.5725680E-03;  0.0000000E+00; -1.5014069E-02;  9.9878149E+02;  1.0056392E-01; -1.0095021E+03;3; -3.6108675E+00;  0.0000000E+00; -1.7367315E+00;0; -3.7817210E-02;  3.9447359E+04;  0.0000000E+00; -3.8962185E-02;  4.0000000E+04;  0.0000000E+00;  4.0008676E+04; -6.0220920E-02;  0.0000000E+00;  2.2403711E-02;  1.6692493E+03;
  6.0221124E-01;  9.9999998E-03; -1.8000190E-01;6118;  7.2265510E-03;  0.0000000E+00; -1.4783183E-02;  9.9880963E+02;  1.0056404E-01; -9.8619415E+02;3; -3.7558780E+00;  0.0000000E+00; -1.6558177E+00;0; -3.9862551E-02;  3.9449465E+04;  0.0000000E+00; -2.7364906E-02;  4.0000000E+04;  0.0000000E+00;  4.0009008E+04; -6.6986091E-02;  0.0000000E+00;  2.7123543E-02;  1.7055421E+03;
  6.0218650E-01;  9.9999998E-03; -1.7000194E-01;6119;  6.8826396E-03;  0.0000000E+00; -1.4490128E-02;  9.9882275E+02;  1.0056351E-01; -9.7533032E+02;3; -3.9101110E+00;  0.0000000E+00; -1.5698234E+00;0; -4.1397553E-02;  3.9450793E+04;  0.0000000E+00; -4.1157822E-03;  4.0000000E+04;  0.0000000E+00;  4.0008750E+04; -7.3733091E-02;  0.0000000E+00;  3.2335538E-02;  1.6799819E+03;
  6.0217524E-01;  9.9999998E-03; -1.5999961E-01;6120;  6.5430040E-03;  0.0000000E+00; -1.4132245E-02;  9.9882495E+02;  1.0056325E-01; -9.7350317E+02;3; -4.0755267E+00;  0.0000000E+00; -1.4596583E+00;0; -4.2432897E-02;  3.9451695E+04;  0.0000000E+00;  2.8952090E-02;  4.0000000E+04;  0.0000000E+00;  4.0008355E+04; -8.0383867E-02;  0.0000000E+00;  3.7950970E-02;  1.6192009E+03;
  6.0217756E-01;  9.9999998E-03; -1.4999557E-01;6121;  6.2076808E-03;  0.0000000E+00; -1.3704654E-02;  9.9881903E+02;  1.0056295E-01; -9.7839191E+02;3; -4.2513576E+00;  0.0000000E+00; -1.3424231E+00;0; -4.3015968E-02;  3.9452066E+04;  0.0000000E+00;  6.8595424E-02;  4.0000000E+04;  0.0000000E+00;  4.0007566E+04; -8.6873159E-02;  0.0000000E+00;  4.3857191E-02;  1.5534117E+03;
  6.0219258E-01;  9.9999998E-03; -1.3999087E-01;6122;  5.8767176E-03;  0.0000000E+00; -1.3207423E-02;  9.9880981E+02;  1.0056274E-01; -9.8604602E+02;3; -4.4349356E+00;  0.0000000E+00; -1.2060826E+00;0; -4.3214198E-02;  3.9452129E+04;  0.0000000E+00;  1.1051823E-01;  4.0000000E+04;  0.0000000E+00;  4.0007219E+04; -9.3148850E-02;  0.0000000E+00;  4.9934652E-02;  1.5053324E+03;
  6.0221756E-01;  9.9999998E-03; -1.2998655E-01;6123;  5.5482783E-03;  0.0000000E+00; -1.2636784E-02;  9.9880200E+02;  1.0056226E-01; -9.9251501E+02;3; -4.6219144E+00;  0.0000000E+00; -1.0677345E+00;0; -4.3084241E-02;  3.9452027E+04;  0.0000000E+00;  1.5008813E-01;  4.0000000E+04;  0.0000000E+00;  4.0006961E+04; -9.9166594E-02;  0.0000000E+00;  5.6082353E-02;  1.4854343E+03;
  6.0224891E-01;  9.9999998E-03; -1.1998349E-01;6124;  5.2218051E-03;  0.0000000E+00; -1.1985726E-02;  9.9879260E+02;  1.0056242E-01; -1.0003173E+03;3; -4.8121142E+00;  0.0000000E+00; -9.1543740E-01;0; -4.2665731E-02;  3.9451691E+04;  0.0000000E+00;  1.8267901E-01;  4.0000000E+04;  0.0000000E+00;  4.0006816E+04; -1.0488530E-01;  0.0000000E+00;  6.2219571E-02;  1.4925347E+03;
  6.0228330E-01;  9.9999998E-03; -1.0998207E-01;6125;  4.8959279E-03;  0.0000000E+00; -1.1251097E-02;  9.9878790E+02;  1.0056213E-01; -1.0042184E+03;3; -5.0038943E+00;  0.0000000E+00; -7.5182027E-01;0; -4.2008013E-02;  3.9451414E+04;  0.0000000E+00;  2.0449431E-01;  4.0000000E+04;  0.0000000E+00;  4.0007164E+04; -1.1026384E-01;  0.0000000E+00;  6.8255827E-02;  1.5172679E+03;
  6.1247420E-01;  9.9999998E-03; -2.6996598E-01;6170;  9.5271468E-03;  0.0000000E+00; -1.5024882E-02;  9.9831366E+02;  1.0089727E-01; -1.3970961E+03;3; -3.1326029E+00;  0.0000000E+00; -1.8345580E+00;0; -9.6124820E-03;  3.9155043E+04;  0.0000000E+00;  8.6314984E-02;  4.0000000E+04;  0.0000000E+00;  4.0006824E+04; -1.3251339E-02;  0.0000000E+00;  3.6388570E-03;  1.7584440E+03;
  6.1250305E-01;  9.9999998E-03; -2.5995848E-01;6171;  9.3780626E-03;  0.0000000E+00; -1.5208432E-02;  9.9832880E+02;  1.0089819E-01; -1.3845532E+03;3; -3.0460050E+00;  0.0000000E+00; -1.8844774E+00;0; -1.3369802E-02;  3.9155754E+04;  0.0000000E+00;  1.0318587E-01;  4.0000000E+04;  0.0000000E+00;  4.0006410E+04; -1.7923562E-02;  0.0000000E+00;  4.5537595E-03;  1.7018799E+03;
  6.1250448E-01;  9.9999998E-03; -2.4994487E-01;6172;  9.1945725E-03;  0.0000000E+00; -1.5477750E-02;  9.9838910E+02;  1.0089882E-01; -1.3345793E+03;3; -2.9773996E+00;  0.0000000E+00; -1.9532944E+00;0; -1.6748760E-02;  3.9157215E+04;  0.0000000E+00;  1.1050168E-01;  4.0000000E+04;  0.0000000E+00;  4.0009062E+04; -2.3023527E-02;  0.0000000E+00;  6.2747672E-03;  2.0341813E+03;
  6.1247969E-01;  9.9999998E-03; -2.3992623E-01;6173;  8.9335479E-03;  0.0000000E+00; -1.5616221E-02;  9.9846503E+02;  1.0089970E-01; -1.2717169E+03;3; -2.9618731E+00;  0.0000000E+00; -1.9985322E+00;0; -2.1136725E-02;  3.9159605E+04;  0.0000000E+00;  9.1279864E-02;  4.0000000E+04;  0.0000000E+00;  4.0011922E+04; -2.8532377E-02;  0.0000000E+00;  7.3956507E-03;  2.3915115E+03;
  6.1243796E-01;  9.9999998E-03; -2.2991887E-01;6174;  8.5839173E-03;  0.0000000E+00; -1.5545231E-02;  9.9848260E+02;  1.0089993E-01; -1.2571494E+03;3; -3.0381234E+00;  0.0000000E+00; -1.9575137E+00;0; -2.5947252E-02;  3.9162613E+04;  0.0000000E+00;  5.1973134E-02;  4.0000000E+04;  0.0000000E+00;  4.0010117E+04; -3.4418758E-02;  0.0000000E+00;  8.4715057E-03;  2.1467163E+03;
  6.1238927E-01;  9.9999998E-03; -2.1993363E-01;6175;  8.1909737E-03;  0.0000000E+00; -1.5434358E-02;  9.9846710E+02;  1.0089993E-01; -1.2699885E+03;3; -3.1327331E+00;  0.0000000E+00; -1.9013369E+00;0; -3.0155845E-02;  3.9165949E+04;  0.0000000E+00;  7.4165449E-03;  4.0000000E+04;  0.0000000E+00;  4.0005410E+04; -4.0651426E-02;  0.0000000E+00;  1.0495580E-02;  1.5796622E+03;
  6.1233902E-01;  9.9999998E-03; -2.0995703E-01;6176;  7.7883196E-03;  0.0000000E+00; -1.5357465E-02;  9.9848560E+02;  1.0090019E-01; -1.2546310E+03;3; -3.2344463E+00;  0.0000000E+00; -1.8478311E+00;0; -3.3763863E-02;  3.9169402E+04;  0.0000000E+00; -3.0904820E-02;  4.0000000E+04;  0.0000000E+00;  4.0003230E+04; -4.7194842E-02;  0.0000000E+00;  1.3430978E-02;  1.3011512E+03;
  6.1229050E-01;  9.9999998E-03; -1.9997501E-01;6177;  7.3783942E-03;  0.0000000E+00; -1.5267569E-02;  9.9852582E+02;  1.0089987E-01; -1.2213480E+03;3; -3.3452978E+00;  0.0000000E+00; -1.8041089E+00;0; -3.6947414E-02;  3.9172477E+04;  0.0000000E+00; -5.6932382E-02;  4.0000000E+04;  0.0000000E+00;  4.0003430E+04; -5.3991277E-02;  0.0000000E+00;  1.7043862E-02;  1.3239630E+03;
  6.1224747E-01;  9.9999998E-03; -1.8998462E-01;6178;  6.9622826E-03;  0.0000000E+00; -1.5130423E-02;  9.9856390E+02;  1.0089956E-01; -1.1897933E+03;3; -3.4689088E+00;  0.0000000E+00; -1.7454263E+00;0; -3.9695688E-02;  3.9174742E+04;  0.0000000E+00; -6.8898618E-02;  4.0000000E+04;  0.0000000E+00;  4.0004352E+04; -6.0962424E-02;  0.0000000E+00;  2.1266734E-02;  1.4346248E+03;
  6.1221302E-01;  9.9999998E-03; -1.7998828E-01;6179;  6.5437299E-03;  0.0000000E+00; -1.4936042E-02;  9.9859137E+02;  1.0089894E-01; -1.1670286E+03;3; -3.5980487E+00;  0.0000000E+00; -1.6900244E+00;0; -4.1948386E-02;  3.9176465E+04;  0.0000000E+00; -6.7149885E-02;  4.0000000E+04;  0.0000000E+00;  4.0005062E+04; -6.8018623E-02;  0.0000000E+00;  2.6070239E-02;  1.5163250E+03;
  6.1219007E-01;  9.9999998E-03; -1.6998804E-01;6180;  6.1263698E-03;  0.0000000E+00; -1.4676674E-02;  9.9859937E+02;  1.0089874E-01; -1.1604115E+03;3; -3.7542398E+00;  0.0000000E+00; -1.5936234E+00;0; -4.3667834E-02;  3.9177387E+04;  0.0000000E+00; -5.3004105E-02;  4.0000000E+04;  0.0000000E+00;  4.0005270E+04; -7.5070456E-02;  0.0000000E+00;  3.1402621E-02;  1.5491074E+03;
  6.1218005E-01;  9.9999998E-03; -1.5998565E-01;6181;  5.7144100E-03;  0.0000000E+00; -1.4347523E-02;  9.9860205E+02;  1.0089814E-01; -1.1581893E+03;3; -3.9197080E+00;  0.0000000E+00; -1.4892486E+00;0; -4.4856530E-02;  3.9178047E+04;  0.0000000E+00; -2.8223734E-02;  4.0000000E+04;  0.0000000E+00;  4.0005273E+04; -8.2035288E-02;  0.0000000E+00;  3.7178759E-02;  1.5500684E+03;
  6.1218274E-01;  9.9999998E-03; -1.4998260E-01;6182;  5.3082453E-03;  0.0000000E+00; -1.3938677E-02;  9.9860126E+02;  1.0089783E-01; -1.1588313E+03;3; -4.0973234E+00;  0.0000000E+00; -1.3735609E+00;0; -4.5558933E-02;  3.9178426E+04;  0.0000000E+00;  4.7264984E-03;  4.0000000E+04;  0.0000000E+00;  4.0005109E+04; -8.8842362E-02;  0.0000000E+00;  4.3283429E-02;  1.5437914E+03;
  6.1219615E-01;  9.9999998E-03; -1.3998027E-01;6183;  4.9090623E-03;  0.0000000E+00; -1.3454290E-02;  9.9860596E+02;  1.0089713E-01; -1.1549302E+03;3; -4.2799797E+00;  0.0000000E+00; -1.2457972E+00;0; -4.5844737E-02;  3.9179156E+04;  0.0000000E+00;  4.2487185E-02;  4.0000000E+04;  0.0000000E+00;  4.0005289E+04; -9.5433772E-02;  0.0000000E+00;  4.9589034E-02;  1.5491633E+03;
  6.1221743E-01;  9.9999998E-03; -1.2997960E-01;6184;  4.5160353E-03;  0.0000000E+00; -1.2886447E-02;  9.9861169E+02;  1.0089687E-01; -1.1501896E+03;3; -4.4704447E+00;  0.0000000E+00; -1.1088167E+00;0; -4.5776218E-02;  3.9179859E+04;  0.0000000E+00;  8.1215061E-02;  4.0000000E+04;  0.0000000E+00;  4.0005492E+04; -1.0176015E-01;  0.0000000E+00;  5.5983931E-02;  1.5749242E+03;
  6.1224371E-01;  9.9999998E-03; -1.1998077E-01;6185;  4.1291872E-03;  0.0000000E+00; -1.2229823E-02;  9.9862384E+02;  1.0089651E-01; -1.1401157E+03;3; -4.6630697E+00;  0.0000000E+00; -9.5770651E-01;0; -4.5399748E-02;  3.9180965E+04;  0.0000000E+00;  1.1662149E-01;  4.0000000E+04;  0.0000000E+00;  4.0005746E+04; -1.0777507E-01;  0.0000000E+00;  6.2375322E-02;  1.6196108E+03;
  6.1227250E-01;  9.9999998E-03; -1.0998340E-01;6186;  3.7476926E-03;  0.0000000E+00; -1.1480705E-02;  9.9863739E+02;  1.0089607E-01; -1.1289061E+03;3; -4.8567867E+00;  0.0000000E+00; -7.9434717E-01;0; -4.4771753E-02;  3.9182352E+04;  0.0000000E+00;  1.4464620E-01;  4.0000000E+04;  0.0000000E+00;  4.0006133E+04; -1.1343252E-01;  0.0000000E+00;  6.8660766E-02;  1.6731161E+03;
  6.2237287E-01;  9.9999998E-03; -2.6997334E-01;6231;  9.5761344E-03;  0.0000000E+00; -1.4944715E-02;  9.9807550E+02;  1.0140579E-01; -1.5944237E+03;3; -2.9829035E+00;  0.0000000E+00; -1.8552883E+00;0; -9.9895662E-03;  3.8748473E+04;  0.0000000E+00;  3.5922825E-01;  4.0000000E+04;  0.0000000E+00;  4.0005145E+04; -1.2481284E-02;  0.0000000E+00;  2.4917179E-03;  2.0621753E+03;
  6.2240434E-01;  9.9999998E-03; -2.5996116E-01;6232;  9.3565071E-03;  0.0000000E+00; -1.5205113E-02;  9.9810718E+02;  1.0140748E-01; -1.5681528E+03;3; -2.9088485E+00;  0.0000000E+00; -1.9100902E+00;0; -1.3321672E-02;  3.8748910E+04;  0.0000000E+00;  3.0227941E-01;  4.0000000E+04;  0.0000000E+00;  4.0005598E+04; -1.7283041E-02;  0.0000000E+00;  3.9613694E-03;  2.1021326E+03;
  6.2241077E-01;  9.9999998E-03; -2.4994071E-01;6233;  9.0965303E-03;  0.0000000E+00; -1.5516548E-02;  9.9818439E+02;  1.0140868E-01; -1.5042040E+03;3; -2.8179276E+00;  0.0000000E+00; -2.0075898E+00;0; -1.6845975E-02;  3.8750445E+04;  0.0000000E+00;  2.4244840E-01;  4.0000000E+04;  0.0000000E+00;  4.0009332E+04; -2.2523604E-02;  0.0000000E+00;  5.6776297E-03;  2.5331516E+03;
  6.2239784E-01;  9.9999998E-03; -2.3991440E-01;6234;  8.7396568E-03;  0.0000000E+00; -1.5628384E-02;  9.9826221E+02;  1.0140960E-01; -1.4397120E+03;3; -2.8132510E+00;  0.0000000E+00; -2.0429981E+00;0; -2.1792408E-02;  3.8753023E+04;  0.0000000E+00;  1.6955058E-01;  4.0000000E+04;  0.0000000E+00;  4.0012297E+04; -2.8184453E-02;  0.0000000E+00;  6.3920449E-03;  2.8697593E+03;
  6.2237167E-01;  9.9999998E-03; -2.2989915E-01;6235;  8.2956636E-03;  0.0000000E+00; -1.5524925E-02;  9.9827606E+02;  1.0141005E-01; -1.4282556E+03;3; -2.9001064E+00;  0.0000000E+00; -1.9797325E+00;0; -2.7033413E-02;  3.8756457E+04;  0.0000000E+00;  9.1596015E-02;  4.0000000E+04;  0.0000000E+00;  4.0009355E+04; -3.4241281E-02;  0.0000000E+00;  7.2078686E-03;  2.5088909E+03;
  6.2233669E-01;  9.9999998E-03; -2.1990865E-01;6236;  7.8150472E-03;  0.0000000E+00; -1.5393783E-02;  9.9824951E+02;  1.0141039E-01; -1.4502302E+03;3; -3.0009999E+00;  0.0000000E+00; -1.9070444E+00;0; -3.1542964E-02;  3.8760066E+04;  0.0000000E+00;  1.9358521E-02;  4.0000000E+04;  0.0000000E+00;  4.0003133E+04; -4.0663097E-02;  0.0000000E+00;  9.1201346E-03;  1.7392900E+03;
  6.2229788E-01;  9.9999998E-03; -2.0993070E-01;6237;  7.3323851E-03;  0.0000000E+00; -1.5324868E-02;  9.9825232E+02;  1.0141014E-01; -1.4479093E+03;3; -3.1063371E+00;  0.0000000E+00; -1.8474790E+00;0; -3.5375915E-02;  3.8763785E+04;  0.0000000E+00; -3.9323192E-02;  4.0000000E+04;  0.0000000E+00;  3.9999559E+04; -4.7415420E-02;  0.0000000E+00;  1.2039507E-02;  1.2648311E+03;
  6.2225759E-01;  9.9999998E-03; -1.9995013E-01;6238;  6.8464288E-03;  0.0000000E+00; -1.5260095E-02;  9.9828229E+02;  1.0140969E-01; -1.4230706E+03;3; -3.2114449E+00;  0.0000000E+00; -1.7987059E+00;0; -3.8777601E-02;  3.8767168E+04;  0.0000000E+00; -8.1367411E-02;  4.0000000E+04;  0.0000000E+00;  3.9998625E+04; -5.4442953E-02;  0.0000000E+00;  1.5665352E-02;  1.1688492E+03;
  6.2221992E-01;  9.9999998E-03; -1.8996221E-01;6239;  6.3540693E-03;  0.0000000E+00; -1.5155850E-02;  9.9831738E+02;  1.0140939E-01; -1.3940343E+03;3; -3.3187795E+00;  0.0000000E+00; -1.7588207E+00;0; -4.1750573E-02;  3.8769730E+04;  0.0000000E+00; -1.0702571E-01;  4.0000000E+04;  0.0000000E+00;  3.9999242E+04; -6.1667964E-02;  0.0000000E+00;  1.9917389E-02;  1.2418279E+03;
  6.2218755E-01;  9.9999998E-03; -1.7996855E-01;6240;  5.8578788E-03;  0.0000000E+00; -1.4992842E-02;  9.9834473E+02;  1.0140860E-01; -1.3713683E+03;3; -3.4582913E+00;  0.0000000E+00; -1.6821119E+00;0; -4.4225827E-02;  3.8771559E+04;  0.0000000E+00; -1.1850505E-01;  4.0000000E+04;  0.0000000E+00;  4.0000070E+04; -6.8999685E-02;  0.0000000E+00;  2.4773858E-02;  1.3400945E+03;
  6.2216359E-01;  9.9999998E-03; -1.6997133E-01;6241;  5.3635584E-03;  0.0000000E+00; -1.4769102E-02;  9.9835553E+02;  1.0140774E-01; -1.3624303E+03;3; -3.6066999E+00;  0.0000000E+00; -1.6042870E+00;0; -4.6152875E-02;  3.8772812E+04;  0.0000000E+00; -1.1829683E-01;  4.0000000E+04;  0.0000000E+00;  4.0000531E+04; -7.6345377E-02;  0.0000000E+00;  3.0192504E-02;  1.4184624E+03;
  6.2214988E-01;  9.9999998E-03; -1.5997250E-01;6242;  4.8744986E-03;  0.0000000E+00; -1.4469138E-02;  9.9836420E+02;  1.0140680E-01; -1.3552206E+03;3; -3.7684972E+00;  0.0000000E+00; -1.5084919E+00;0; -4.7525551E-02;  3.8773582E+04;  0.0000000E+00; -1.0822146E-01;  4.0000000E+04;  0.0000000E+00;  4.0001102E+04; -8.3617814E-02;  0.0000000E+00;  3.6092263E-02;  1.4766467E+03;
  6.2214673E-01;  9.9999998E-03; -1.4997360E-01;6243;  4.3936251E-03;  0.0000000E+00; -1.4086043E-02;  9.9837073E+02;  1.0140602E-01; -1.3498380E+03;3; -3.9413054E+00;  0.0000000E+00; -1.3937519E+00;0; -4.8383467E-02;  3.8774262E+04;  0.0000000E+00; -8.9440361E-02;  4.0000000E+04;  0.0000000E+00;  4.0001457E+04; -9.0741530E-02;  0.0000000E+00;  4.2358063E-02;  1.5275923E+03;
  6.2215281E-01;  9.9999998E-03; -1.3997573E-01;6244;  3.9220331E-03;  0.0000000E+00; -1.3620326E-02;  9.9838184E+02;  1.0140539E-01; -1.3406038E+03;3; -4.1229753E+00;  0.0000000E+00; -1.2784625E+00;0; -4.8796408E-02;  3.8775473E+04;  0.0000000E+00; -6.3288450E-02;  4.0000000E+04;  0.0000000E+00;  4.0002016E+04; -9.7653739E-02;  0.0000000E+00;  4.8857331E-02;  1.5838275E+03;
  6.2216640E-01;  9.9999998E-03; -1.2997898E-01;6245;  3.4607628E-03;  0.0000000E+00; -1.3063376E-02;  9.9840149E+02;  1.0140461E-01; -1.3243573E+03;3; -4.3126626E+00;  0.0000000E+00; -1.1469896E+00;0; -4.8830152E-02;  3.8777145E+04;  0.0000000E+00; -3.1842493E-02;  4.0000000E+04;  0.0000000E+00;  4.0002523E+04; -1.0430031E-01;  0.0000000E+00;  5.5470161E-02;  1.6522904E+03;
  6.2218481E-01;  9.9999998E-03; -1.1998332E-01;6246;  3.0102779E-03;  0.0000000E+00; -1.2410297E-02;  9.9842786E+02;  1.0140344E-01; -1.3024814E+03;3; -4.5055566E+00;  0.0000000E+00; -9.9802327E-01;0; -4.8535272E-02;  3.8779332E+04;  0.0000000E+00;  1.7129980E-03;  4.0000000E+04;  0.0000000E+00;  4.0003277E+04; -1.1062913E-01;  0.0000000E+00;  6.2093861E-02;  1.7316443E+03;
  6.2220538E-01;  9.9999998E-03; -1.0998850E-01;6247;  2.5708126E-03;  0.0000000E+00; -1.1655816E-02;  9.9846106E+02;  1.0140334E-01; -1.2749760E+03;3; -4.7006216E+00;  0.0000000E+00; -8.4175783E-01;0; -4.7974236E-02;  3.8782273E+04;  0.0000000E+00;  3.3599310E-02;  4.0000000E+04;  0.0000000E+00;  4.0003883E+04; -1.1658829E-01;  0.0000000E+00;  6.8614058E-02;  1.8119253E+03;
  6.3222051E-01;  9.9999998E-03; -2.6998606E-01;6292;  9.6602375E-03;  0.0000000E+00; -1.4848278E-02;  9.9787994E+02;  1.0214782E-01; -1.7564437E+03;3; -2.7705586E+00;  0.0000000E+00; -1.8773490E+00;0; -9.8365135E-03;  3.8176172E+04;  0.0000000E+00;  3.9838177E-01;  4.0000000E+04;  0.0000000E+00;  4.0002652E+04; -1.1880831E-02;  0.0000000E+00;  2.0443175E-03;  2.3737175E+03;
  6.3225681E-01;  9.9999998E-03; -2.5996950E-01;6293;  9.3559790E-03;  0.0000000E+00; -1.5184209E-02;  9.9794409E+02;  1.0215039E-01; -1.7032601E+03;3; -2.7331870E+00;  0.0000000E+00; -1.9589931E+00;0; -1.2901688E-02;  3.8177520E+04;  0.0000000E+00;  3.6290842E-01;  4.0000000E+04;  0.0000000E+00;  4.0004066E+04; -1.6768644E-02;  0.0000000E+00;  3.8669552E-03;  2.5511609E+03;
  6.3227415E-01;  9.9999998E-03; -2.4994363E-01;6294;  9.0022152E-03;  0.0000000E+00; -1.5495653E-02;  9.9804462E+02;  1.0215224E-01; -1.6200032E+03;3; -2.6387150E+00;  0.0000000E+00; -2.0817356E+00;0; -1.6972572E-02;  3.8179688E+04;  0.0000000E+00;  3.0052668E-01;  4.0000000E+04;  0.0000000E+00;  4.0008238E+04; -2.2109522E-02;  0.0000000E+00;  5.1369490E-03;  3.0354731E+03;
  6.3227761E-01;  9.9999998E-03; -2.3991244E-01;6295;  8.5384846E-03;  0.0000000E+00; -1.5546914E-02;  9.9813318E+02;  1.0215345E-01; -1.5466226E+03;3; -2.6530986E+00;  0.0000000E+00; -2.0981238E+00;0; -2.2657540E-02;  3.8183324E+04;  0.0000000E+00;  2.1384721E-01;  4.0000000E+04;  0.0000000E+00;  4.0010270E+04; -2.7888104E-02;  0.0000000E+00;  5.2305637E-03;  3.2701584E+03;
  6.3226801E-01;  9.9999998E-03; -2.2989140E-01;6296;  8.0033960E-03;  0.0000000E+00; -1.5412936E-02;  9.9815204E+02;  1.0215431E-01; -1.5310181E+03;3; -2.7644484E+00;  0.0000000E+00; -2.0043228E+00;0; -2.8293330E-02;  3.8187848E+04;  0.0000000E+00;  1.1780648E-01;  4.0000000E+04;  0.0000000E+00;  4.0006559E+04; -3.4086578E-02;  0.0000000E+00;  5.7932483E-03;  2.7895378E+03;
  6.3224792E-01;  9.9999998E-03; -2.1989438E-01;6297;  7.4422294E-03;  0.0000000E+00; -1.5277935E-02;  9.9813135E+02;  1.0215443E-01; -1.5481534E+03;3; -2.8686812E+00;  0.0000000E+00; -1.9197718E+00;0; -3.3057246E-02;  3.8192883E+04;  0.0000000E+00;  2.6559740E-02;  4.0000000E+04;  0.0000000E+00;  3.9999387E+04; -4.0673401E-02;  0.0000000E+00;  7.6161558E-03;  1.8953248E+03;
  6.3222218E-01;  9.9999998E-03; -2.0991243E-01;6298;  6.8827346E-03;  0.0000000E+00; -1.5218939E-02;  9.9813239E+02;  1.0215411E-01; -1.5472645E+03;3; -2.9718580E+00;  0.0000000E+00; -1.8490996E+00;0; -3.7114970E-02;  3.8197781E+04;  0.0000000E+00; -5.0360382E-02;  4.0000000E+04;  0.0000000E+00;  3.9994426E+04; -4.7612712E-02;  0.0000000E+00;  1.0497742E-02;  1.2750598E+03;
  6.3219213E-01;  9.9999998E-03; -1.9993196E-01;6299;  6.3199755E-03;  0.0000000E+00; -1.5175433E-02;  9.9816132E+02;  1.0215338E-01; -1.5233146E+03;3; -3.0644097E+00;  0.0000000E+00; -1.8113123E+00;0; -4.0742233E-02;  3.8202121E+04;  0.0000000E+00; -1.0933027E-01;  4.0000000E+04;  0.0000000E+00;  3.9992754E+04; -5.4850172E-02;  0.0000000E+00;  1.4107938E-02;  1.0667445E+03;
  6.3216114E-01;  9.9999998E-03; -1.8994647E-01;6300;  5.7474398E-03;  0.0000000E+00; -1.5094715E-02;  9.9820441E+02;  1.0215213E-01; -1.4876119E+03;3; -3.1844938E+00;  0.0000000E+00; -1.7485722E+00;0; -4.3951143E-02;  3.8205648E+04;  0.0000000E+00; -1.5075834E-01;  4.0000000E+04;  0.0000000E+00;  3.9993000E+04; -6.2310785E-02;  0.0000000E+00;  1.8359642E-02;  1.0952286E+03;
  6.3213217E-01;  9.9999998E-03; -1.7995612E-01;6301;  5.1712384E-03;  0.0000000E+00; -1.4960190E-02;  9.9823560E+02;  1.0215112E-01; -1.4617855E+03;3; -3.3133347E+00;  0.0000000E+00; -1.6782894E+00;0; -4.6665527E-02;  3.8208332E+04;  0.0000000E+00; -1.7811961E-01;  4.0000000E+04;  0.0000000E+00;  3.9993770E+04; -6.9904111E-02;  0.0000000E+00;  2.3238583E-02;  1.2018799E+03;
  6.3210833E-01;  9.9999998E-03; -1.6996266E-01;6302;  4.5948620E-03;  0.0000000E+00; -1.4764005E-02;  9.9825842E+02;  1.0214944E-01; -1.4428724E+03;3; -3.4604065E+00;  0.0000000E+00; -1.6027563E+00;0; -4.8825838E-02;  3.8209914E+04;  0.0000000E+00; -1.9512336E-01;  4.0000000E+04;  0.0000000E+00;  3.9994457E+04; -7.7534795E-02;  0.0000000E+00;  2.8708959E-02;  1.3181827E+03;
  6.3209206E-01;  9.9999998E-03; -1.5996763E-01;6303;  4.0239594E-03;  0.0000000E+00; -1.4493732E-02;  9.9827161E+02;  1.0214797E-01; -1.4319592E+03;3; -3.6182573E+00;  0.0000000E+00; -1.5057907E+00;0; -5.0416958E-02;  3.8211145E+04;  0.0000000E+00; -2.0384276E-01;  4.0000000E+04;  0.0000000E+00;  3.9995480E+04; -8.5111894E-02;  0.0000000E+00;  3.4694936E-02;  1.4258738E+03;
  6.3208455E-01;  9.9999998E-03; -1.4997225E-01;6304;  3.4626059E-03;  0.0000000E+00; -1.4138957E-02;  9.9828491E+02;  1.0214671E-01; -1.4208977E+03;3; -3.7868230E+00;  0.0000000E+00; -1.4033530E+00;0; -5.1473066E-02;  3.8212527E+04;  0.0000000E+00; -2.0409507E-01;  4.0000000E+04;  0.0000000E+00;  3.9996336E+04; -9.2556171E-02;  0.0000000E+00;  4.1083105E-02;  1.5262047E+03;
  6.3208592E-01;  9.9999998E-03; -1.3997710E-01;6305;  2.9133600E-03;  0.0000000E+00; -1.3694789E-02;  9.9829944E+02;  1.0214566E-01; -1.4088981E+03;3; -3.9671316E+00;  0.0000000E+00; -1.2964890E+00;0; -5.2060813E-02;  3.8214398E+04;  0.0000000E+00; -1.9465905E-01;  4.0000000E+04;  0.0000000E+00;  3.9997180E+04; -9.9799745E-02;  0.0000000E+00;  4.7738932E-02;  1.6254475E+03;
  6.3209605E-01;  9.9999998E-03; -1.2998234E-01;6306;  2.3783129E-03;  0.0000000E+00; -1.3156211E-02;  9.9832623E+02;  1.0214410E-01; -1.3866765E+03;3; -4.1525364E+00;  0.0000000E+00; -1.1686592E+00;0; -5.2247316E-02;  3.8216613E+04;  0.0000000E+00; -1.7519745E-01;  4.0000000E+04;  0.0000000E+00;  3.9998051E+04; -1.0678396E-01;  0.0000000E+00;  5.4536641E-02;  1.7286281E+03;
  6.3211447E-01;  9.9999998E-03; -1.1998766E-01;6307;  1.8583874E-03;  0.0000000E+00; -1.2516932E-02;  9.9836060E+02;  1.0214268E-01; -1.3582329E+03;3; -4.3442574E+00;  0.0000000E+00; -1.0351030E+00;0; -5.2085482E-02;  3.8219730E+04;  0.0000000E+00; -1.4724617E-01;  4.0000000E+04;  0.0000000E+00;  3.9999059E+04; -1.1345079E-01;  0.0000000E+00;  6.1365306E-02;  1.8349087E+03;
  6.3214034E-01;  9.9999998E-03; -1.0999259E-01;6308;  1.3556459E-03;  0.0000000E+00; -1.1766056E-02;  9.9841241E+02;  1.0214174E-01; -1.3152711E+03;3; -4.5421591E+00;  0.0000000E+00; -8.8276958E-01;0; -5.1642388E-02;  3.8223930E+04;  0.0000000E+00; -1.1390677E-01;  4.0000000E+04;  0.0000000E+00;  3.9999844E+04; -1.1974397E-01;  0.0000000E+00;  6.8101577E-02;  1.9349521E+03;
  6.4204389E-01;  9.9999998E-03; -2.7000719E-01;6353;  9.7779268E-03;  0.0000000E+00; -1.4712455E-02;  9.9788013E+02;  1.0317664E-01; -1.7562957E+03;3; -2.4516015E+00;  0.0000000E+00; -1.9145346E+00;0; -9.2792353E-03;  3.7422590E+04;  0.0000000E+00; -1.1476032E-01;  4.0000000E+04;  0.0000000E+00;  3.9996723E+04; -1.1295739E-02;  0.0000000E+00;  2.0165031E-03;  2.4347588E+03;
  6.4208621E-01;  9.9999998E-03; -2.5998768E-01;6354;  9.3600499E-03;  0.0000000E+00; -1.5108550E-02;  9.9798547E+02;  1.0317994E-01; -1.6689895E+03;3; -2.5226696E+00;  0.0000000E+00; -2.0387652E+00;0; -1.2312191E-02;  3.7425164E+04;  0.0000000E+00;  9.4383501E-02;  4.0000000E+04;  0.0000000E+00;  3.9999328E+04; -1.6239814E-02;  0.0000000E+00;  3.9276243E-03;  2.7460410E+03;
  6.4211571E-01;  9.9999998E-03; -2.4995935E-01;6355;  8.8859722E-03;  0.0000000E+00; -1.5364816E-02;  9.9811346E+02;  1.0318225E-01; -1.5629678E+03;3; -2.4731014E+00;  0.0000000E+00; -2.1268797E+00;0; -1.7339166E-02;  3.7429195E+04;  0.0000000E+00;  1.8274194E-01;  4.0000000E+04;  0.0000000E+00;  4.0003434E+04; -2.1656316E-02;  0.0000000E+00;  4.3171505E-03;  3.2516782E+03;
  6.4213628E-01;  9.9999998E-03; -2.3992884E-01;6356;  8.3205057E-03;  0.0000000E+00; -1.5338609E-02;  9.9820673E+02;  1.0318413E-01; -1.4856860E+03;3; -2.5403972E+00;  0.0000000E+00; -2.0792000E+00;0; -2.3775989E-02;  3.7434367E+04;  0.0000000E+00;  1.7539103E-01;  4.0000000E+04;  0.0000000E+00;  4.0003953E+04; -2.7535345E-02;  0.0000000E+00;  3.7593564E-03;  3.2978147E+03;
  6.4214528E-01;  9.9999998E-03; -2.2990707E-01;6357;  7.7052102E-03;  0.0000000E+00; -1.5198792E-02;  9.9824731E+02;  1.0318504E-01; -1.4520574E+03;3; -2.6423929E+00;  0.0000000E+00; -1.9934033E+00;0; -2.9674511E-02;  3.7440730E+04;  0.0000000E+00;  1.1141008E-01;  4.0000000E+04;  0.0000000E+00;  3.9999352E+04; -3.3860411E-02;  0.0000000E+00;  4.1859010E-03;  2.7324771E+03;
  6.4214236E-01;  9.9999998E-03; -2.1990414E-01;6358;  7.0726913E-03;  0.0000000E+00; -1.5088015E-02;  9.9825592E+02;  1.0318518E-01; -1.4449464E+03;3; -2.7372713E+00;  0.0000000E+00; -1.9147013E+00;0; -3.4624636E-02;  3.7447551E+04;  0.0000000E+00;  2.5254799E-02;  4.0000000E+04;  0.0000000E+00;  3.9992434E+04; -4.0600624E-02;  0.0000000E+00;  5.9759896E-03;  1.8736796E+03;
  6.4213210E-01;  9.9999998E-03; -2.0991583E-01;6359;  6.4399638E-03;  0.0000000E+00; -1.5046593E-02;  9.9827588E+02;  1.0318411E-01; -1.4284037E+03;3; -2.8306656E+00;  0.0000000E+00; -1.8563461E+00;0; -3.8910408E-02;  3.7453961E+04;  0.0000000E+00; -6.0037594E-02;  4.0000000E+04;  0.0000000E+00;  3.9987457E+04; -4.7716435E-02;  0.0000000E+00;  8.8060265E-03;  1.2460833E+03;
  6.4211577E-01;  9.9999998E-03; -1.9993186E-01;6360;  5.7969848E-03;  0.0000000E+00; -1.5015320E-02;  9.9831927E+02;  1.0318274E-01; -1.3924541E+03;3; -2.9330618E+00;  0.0000000E+00; -1.7971989E+00;0; -4.2784169E-02;  3.7459988E+04;  0.0000000E+00; -1.3270701E-01;  4.0000000E+04;  0.0000000E+00;  3.9985438E+04; -5.5154793E-02;  0.0000000E+00;  1.2370626E-02;  1.0022833E+03;
  6.4209771E-01;  9.9999998E-03; -1.8994658E-01;6361;  5.1437356E-03;  0.0000000E+00; -1.4952850E-02;  9.9837177E+02;  1.0318115E-01; -1.3489492E+03;3; -3.0438962E+00;  0.0000000E+00; -1.7404590E+00;0; -4.6247274E-02;  3.7464820E+04;  0.0000000E+00; -1.9007820E-01;  4.0000000E+04;  0.0000000E+00;  3.9985258E+04; -6.2842607E-02;  0.0000000E+00;  1.6595336E-02;  1.0112166E+03;
  6.4208466E-01;  9.9999998E-03; -1.7995732E-01;6362;  4.4824737E-03;  0.0000000E+00; -1.4841322E-02;  9.9841504E+02;  1.0317864E-01; -1.3130984E+03;3; -3.1677067E+00;  0.0000000E+00; -1.6738303E+00;0; -4.9225353E-02;  3.7468676E+04;  0.0000000E+00; -2.3433281E-01;  4.0000000E+04;  0.0000000E+00;  3.9986164E+04; -7.0692383E-02;  0.0000000E+00;  2.1467028E-02;  1.1292191E+03;
  6.4208519E-01;  9.9999998E-03; -1.6996226E-01;6363;  3.8180675E-03;  0.0000000E+00; -1.4665009E-02;  9.9844342E+02;  1.0317668E-01; -1.2895929E+03;3; -3.3124352E+00;  0.0000000E+00; -1.5968552E+00;0; -5.1656567E-02;  3.7471301E+04;  0.0000000E+00; -2.6965806E-01;  4.0000000E+04;  0.0000000E+00;  3.9987344E+04; -7.8611054E-02;  0.0000000E+00;  2.6954489E-02;  1.2758351E+03;
  6.4209795E-01;  9.9999998E-03; -1.5996246E-01;6364;  3.1570096E-03;  0.0000000E+00; -1.4422917E-02;  9.9846289E+02;  1.0317381E-01; -1.2734452E+03;3; -3.4663515E+00;  0.0000000E+00; -1.5045880E+00;0; -5.3516515E-02;  3.7473363E+04;  0.0000000E+00; -2.9835048E-01;  4.0000000E+04;  0.0000000E+00;  3.9988547E+04; -8.6505726E-02;  0.0000000E+00;  3.2989211E-02;  1.4189929E+03;
  6.4211488E-01;  9.9999998E-03; -1.4996195E-01;6365;  2.5061599E-03;  0.0000000E+00; -1.4095175E-02;  9.9847766E+02;  1.0317156E-01; -1.2612480E+03;3; -3.6296911E+00;  0.0000000E+00; -1.4108660E+00;0; -5.4828942E-02;  3.7475250E+04;  0.0000000E+00; -3.1928858E-01;  4.0000000E+04;  0.0000000E+00;  3.9989578E+04; -9.4289504E-02;  0.0000000E+00;  3.9460562E-02;  1.5536438E+03;
  6.4213341E-01;  9.9999998E-03; -1.3996251E-01;6366;  1.8701048E-03;  0.0000000E+00; -1.3676437E-02;  9.9849316E+02;  1.0316910E-01; -1.2484088E+03;3; -3.8104155E+00;  0.0000000E+00; -1.2984581E+00;0; -5.5653870E-02;  3.7477211E+04;  0.0000000E+00; -3.2889155E-01;  4.0000000E+04;  0.0000000E+00;  3.9990590E+04; -1.0188822E-01;  0.0000000E+00;  4.6234347E-02;  1.6824872E+03;
  6.4215398E-01;  9.9999998E-03; -1.2996428E-01;6367;  1.2521704E-03;  0.0000000E+00; -1.3162377E-02;  9.9851575E+02;  1.0316669E-01; -1.2296934E+03;3; -3.9940555E+00;  0.0000000E+00; -1.1846317E+00;0; -5.6055039E-02;  3.7479848E+04;  0.0000000E+00; -3.2418260E-01;  4.0000000E+04;  0.0000000E+00;  3.9991578E+04; -1.0923667E-01;  0.0000000E+00;  5.3181626E-02;  1.8083170E+03;
  6.4217633E-01;  9.9999998E-03; -1.1996724E-01;6368;  6.5593212E-04;  0.0000000E+00; -1.2541186E-02;  9.9855255E+02;  1.0316452E-01; -1.1991757E+03;3; -4.1838527E+00;  0.0000000E+00; -1.0548273E+00;0; -5.6085303E-02;  3.7482992E+04;  0.0000000E+00; -3.0467546E-01;  4.0000000E+04;  0.0000000E+00;  3.9992883E+04; -1.1627088E-01;  0.0000000E+00;  6.0185574E-02;  1.9303252E+03;
  6.4219928E-01;  9.9999998E-03; -1.0997146E-01;6369;  8.4331397E-05;  0.0000000E+00; -1.1808901E-02;  9.9859839E+02;  1.0316254E-01; -1.1612014E+03;3; -4.3803239E+00;  0.0000000E+00; -9.0389204E-01;0; -5.5812135E-02;  3.7487570E+04;  0.0000000E+00; -2.7239704E-01;  4.0000000E+04;  0.0000000E+00;  3.9993754E+04; -1.2292664E-01;  0.0000000E+00;  6.7114502E-02;  2.0404374E+03;
  6.5215194E-01;  9.9999998E-03; -1.0996521E-01;6430; -1.2114390E-03;  0.0000000E+00; -1.1784073E-02;  9.9892792E+02;  1.0449031E-01; -8.8822144E+02;3; -4.2188683E+00;  0.0000000E+00; -9.2516071E-01;0; -6.0342491E-02;  3.6564102E+04;  0.0000000E+00; -4.0922427E-01;  4.0000000E+04;  0.0000000E+00;  3.9985340E+04; -1.2599088E-01;  0.0000000E+00;  6.5648392E-02;  2.1173611E+03;
  6.5214056E-01;  9.9999998E-03; -1.1996050E-01;6429; -5.6677527E-04;  0.0000000E+00; -1.2489925E-02;  9.9890009E+02;  1.0449348E-01; -9.1128253E+02;3; -4.0242801E+00;  0.0000000E+00; -1.0670006E+00;0; -6.0394041E-02;  3.6560473E+04;  0.0000000E+00; -4.3733266E-01;  4.0000000E+04;  0.0000000E+00;  3.9984316E+04; -1.1895388E-01;  0.0000000E+00;  5.8559842E-02;  2.0074232E+03;
  6.5213197E-01;  9.9999998E-03; -1.2995698E-01;6428;  1.0997373E-04;  0.0000000E+00; -1.3081948E-02;  9.9888641E+02;  1.0449724E-01; -9.2259082E+02;3; -3.8330426E+00;  0.0000000E+00; -1.1905621E+00;0; -6.0120665E-02;  3.6557992E+04;  0.0000000E+00; -4.4607285E-01;  4.0000000E+04;  0.0000000E+00;  3.9983344E+04; -1.1154135E-01;  0.0000000E+00;  5.1420681E-02;  1.8818113E+03;
  6.5212703E-01;  9.9999998E-03; -1.3995467E-01;6427;  8.1311126E-04;  0.0000000E+00; -1.3570207E-02;  9.9888098E+02;  1.0450092E-01; -9.2708453E+02;3; -3.6494274E+00;  0.0000000E+00; -1.3021165E+00;0; -5.9456110E-02;  3.6555816E+04;  0.0000000E+00; -4.3481016E-01;  4.0000000E+04;  0.0000000E+00;  3.9982156E+04; -1.0382261E-01;  0.0000000E+00;  4.4366501E-02;  1.7474280E+03;
  6.5212625E-01;  9.9999998E-03; -1.4995335E-01;6426;  1.5380462E-03;  0.0000000E+00; -1.3961328E-02;  9.9888281E+02;  1.0450477E-01; -9.2555371E+02;3; -3.4715729E+00;  0.0000000E+00; -1.4090384E+00;0; -5.8350962E-02;  3.6554137E+04;  0.0000000E+00; -4.0615907E-01;  4.0000000E+04;  0.0000000E+00;  3.9981164E+04; -9.5867559E-02;  0.0000000E+00;  3.7516598E-02;  1.6054880E+03;
  6.5212977E-01;  9.9999998E-03; -1.5995243E-01;6425;  2.2789228E-03;  0.0000000E+00; -1.4260521E-02;  9.9887756E+02;  1.0450931E-01; -9.2989929E+02;3; -3.3061945E+00;  0.0000000E+00; -1.5166090E+00;0; -5.6746911E-02;  3.6552137E+04;  0.0000000E+00; -3.6555260E-01;  4.0000000E+04;  0.0000000E+00;  3.9979844E+04; -8.7746426E-02;  0.0000000E+00;  3.0999515E-02;  1.4566818E+03;
  6.5188187E-01;  9.9999998E-03; -2.7003771E-01;6414;  9.9121500E-03;  0.0000000E+00; -1.4499418E-02;  9.9808075E+02;  1.0452000E-01; -1.5900779E+03;3; -2.0895698E+00;  0.0000000E+00; -1.9808527E+00;0; -8.4637040E-03;  3.6485945E+04;  0.0000000E+00; -1.3978378E+00;  4.0000000E+04;  0.0000000E+00;  3.9987062E+04; -1.0427061E-02;  0.0000000E+00;  1.9633574E-03;  3.2001526E+03;
  6.5213650E-01;  9.9999998E-03; -1.6995166E-01;6424;  3.0307677E-03;  0.0000000E+00; -1.4478605E-02;  9.9886310E+02;  1.0451332E-01; -9.4189893E+02;3; -3.1543846E+00;  0.0000000E+00; -1.5914240E+00;0; -5.4588690E-02;  3.6549645E+04;  0.0000000E+00; -3.1822813E-01;  4.0000000E+04;  0.0000000E+00;  3.9978805E+04; -7.9535164E-02;  0.0000000E+00;  2.4946472E-02;  1.3053788E+03;
  6.5192956E-01;  9.9999998E-03; -2.6001713E-01;6415;  9.3366681E-03;  0.0000000E+00; -1.4906513E-02;  9.9822522E+02;  1.0452384E-01; -1.4703776E+03;3; -2.3104217E+00;  0.0000000E+00; -2.0988247E+00;0; -1.1934748E-02;  3.6490293E+04;  0.0000000E+00; -6.4156896E-01;  4.0000000E+04;  0.0000000E+00;  3.9990656E+04; -1.5432358E-02;  0.0000000E+00;  3.4976103E-03;  2.9221794E+03;
  6.5214455E-01;  9.9999998E-03; -1.7995036E-01;6423;  3.7849506E-03;  0.0000000E+00; -1.4633367E-02;  9.9883429E+02;  1.0451690E-01; -9.6575012E+02;3; -3.0179679E+00;  0.0000000E+00; -1.6758956E+00;0; -5.1856685E-02;  3.6546207E+04;  0.0000000E+00; -2.6579335E-01;  4.0000000E+04;  0.0000000E+00;  3.9977930E+04; -7.1320772E-02;  0.0000000E+00;  1.9464087E-02;  1.1630835E+03;
  6.5197432E-01;  9.9999998E-03; -2.4999017E-01;6416;  8.7513225E-03;  0.0000000E+00; -1.5091150E-02;  9.9838116E+02;  1.0452656E-01; -1.3411962E+03;3; -2.3701324E+00;  0.0000000E+00; -2.0829778E+00;0; -1.7928712E-02;  3.6495949E+04;  0.0000000E+00; -1.8861166E-01;  4.0000000E+04;  0.0000000E+00;  3.9993883E+04; -2.0933524E-02;  0.0000000E+00;  3.0048112E-03;  3.1494385E+03;
  6.5215063E-01;  9.9999998E-03; -1.8994795E-01;6422;  4.5353030E-03;  0.0000000E+00; -1.4729579E-02;  9.9878790E+02;  1.0452082E-01; -1.0042181E+03;3; -2.8939464E+00;  0.0000000E+00; -1.7344234E+00;0; -4.8579156E-02;  3.6541477E+04;  0.0000000E+00; -2.0596933E-01;  4.0000000E+04;  0.0000000E+00;  3.9977301E+04; -6.3198097E-02;  0.0000000E+00;  1.4618940E-02;  1.0573328E+03;
  6.5214771E-01;  9.9999998E-03; -1.9994541E-01;6421;  5.2747717E-03;  0.0000000E+00; -1.4778612E-02;  9.9872528E+02;  1.0452387E-01; -1.0560685E+03;3; -2.7881722E+00;  0.0000000E+00; -1.7883729E+00;0; -4.4822097E-02;  3.6535133E+04;  0.0000000E+00; -1.3609621E-01;  4.0000000E+04;  0.0000000E+00;  3.9977273E+04; -5.5261832E-02;  0.0000000E+00;  1.0439736E-02;  1.0415557E+03;
  6.5201819E-01;  9.9999998E-03; -2.3996775E-01;6417;  8.0929175E-03;  0.0000000E+00; -1.4975604E-02;  9.9846985E+02;  1.0452791E-01; -1.2677168E+03;3; -2.4517953E+00;  0.0000000E+00; -2.0177729E+00;0; -2.5090221E-02;  3.6502980E+04;  0.0000000E+00;  1.6426932E-02;  4.0000000E+04;  0.0000000E+00;  3.9991504E+04; -2.6923167E-02;  0.0000000E+00;  1.8329459E-03;  2.8309636E+03;
  6.5212631E-01;  9.9999998E-03; -2.0994569E-01;6420;  5.9990152E-03;  0.0000000E+00; -1.4793854E-02;  9.9865192E+02;  1.0452623E-01; -1.1168569E+03;3; -2.6977103E+00;  0.0000000E+00; -1.8347723E+00;0; -4.0664330E-02;  3.6527828E+04;  0.0000000E+00; -5.7652012E-02;  4.0000000E+04;  0.0000000E+00;  3.9978340E+04; -4.7599319E-02;  0.0000000E+00;  6.9349902E-03;  1.1768257E+03;
  6.5205687E-01;  9.9999998E-03; -2.2995411E-01;6418;  7.4049258E-03;  0.0000000E+00; -1.4851500E-02;  9.9852740E+02;  1.0452833E-01; -1.2200144E+03;3; -2.5298274E+00;  0.0000000E+00; -1.9507294E+00;0; -3.1105094E-02;  3.6511184E+04;  0.0000000E+00;  5.9355535E-02;  4.0000000E+04;  0.0000000E+00;  3.9986113E+04; -3.3383276E-02;  0.0000000E+00;  2.2781824E-03;  2.1587388E+03;
  6.5208894E-01;  9.9999998E-03; -2.1994877E-01;6419;  6.7074238E-03;  0.0000000E+00; -1.4801031E-02;  9.9858264E+02;  1.0452799E-01; -1.1742379E+03;3; -2.6143689E+00;  0.0000000E+00; -1.8874259E+00;0; -3.6144517E-02;  3.6519492E+04;  0.0000000E+00;  1.7086668E-02;  4.0000000E+04;  0.0000000E+00;  3.9981262E+04; -4.0287346E-02;  0.0000000E+00;  4.1428274E-03;  1.5287827E+03;
  6.6214603E-01;  9.9999998E-03; -1.0995788E-01;6491; -2.5543591E-03;  0.0000000E+00; -1.1693773E-02;  9.9914441E+02;  1.0611613E-01; -7.0881921E+02;3; -4.0559993E+00;  0.0000000E+00; -9.2738664E-01;0; -6.5219119E-02;  3.5463676E+04;  0.0000000E+00; -4.9170658E-01;  4.0000000E+04;  0.0000000E+00;  3.9974676E+04; -1.2892543E-01;  0.0000000E+00;  6.3706309E-02;  2.1409258E+03;
  6.6213864E-01;  9.9999998E-03; -1.1995515E-01;6490; -1.8281726E-03;  0.0000000E+00; -1.2365934E-02;  9.9915900E+02;  1.0612210E-01; -6.9677014E+02;3; -3.8647900E+00;  0.0000000E+00; -1.0710831E+00;0; -6.4985834E-02;  3.5461805E+04;  0.0000000E+00; -5.1149917E-01;  4.0000000E+04;  0.0000000E+00;  3.9973703E+04; -1.2148207E-01;  0.0000000E+00;  5.6496233E-02;  2.0380311E+03;
  6.6213286E-01;  9.9999998E-03; -1.2995401E-01;6489; -1.0624501E-03;  0.0000000E+00; -1.2923852E-02;  9.9918591E+02;  1.0612801E-01; -6.7444983E+02;3; -3.6718583E+00;  0.0000000E+00; -1.2016045E+00;0; -6.4401403E-02;  3.5460633E+04;  0.0000000E+00; -5.0696039E-01;  4.0000000E+04;  0.0000000E+00;  3.9972570E+04; -1.1366723E-01;  0.0000000E+00;  4.9265824E-02;  1.9188754E+03;
  6.6212916E-01;  9.9999998E-03; -1.3995430E-01;6488; -2.6602627E-04;  0.0000000E+00; -1.3385936E-02;  9.9922040E+02;  1.0613424E-01; -6.4590741E+02;3; -3.4799230E+00;  0.0000000E+00; -1.3208266E+00;0; -6.3404888E-02;  3.5459836E+04;  0.0000000E+00; -4.7914174E-01;  4.0000000E+04;  0.0000000E+00;  3.9971742E+04; -1.0555667E-01;  0.0000000E+00;  4.2151786E-02;  1.7903928E+03;
  6.6212767E-01;  9.9999998E-03; -1.4995568E-01;6487;  5.5527897E-04;  0.0000000E+00; -1.3746696E-02;  9.9925146E+02;  1.0614074E-01; -6.2013037E+02;3; -3.3052866E+00;  0.0000000E+00; -1.4318880E+00;0; -6.1951637E-02;  3.5458895E+04;  0.0000000E+00; -4.3281335E-01;  4.0000000E+04;  0.0000000E+00;  3.9970797E+04; -9.7224064E-02;  0.0000000E+00;  3.5272427E-02;  1.6553663E+03;
  6.6212845E-01;  9.9999998E-03; -1.5995798E-01;6486;  1.3940410E-03;  0.0000000E+00; -1.4013948E-02;  9.9926904E+02;  1.0614753E-01; -6.0556287E+02;3; -3.1369774E+00;  0.0000000E+00; -1.5289159E+00;0; -5.9989911E-02;  3.5457555E+04;  0.0000000E+00; -3.7516639E-01;  4.0000000E+04;  0.0000000E+00;  3.9969934E+04; -8.8742815E-02;  0.0000000E+00;  2.8752904E-02;  1.5170736E+03;
  6.6213113E-01;  9.9999998E-03; -1.6996105E-01;6485;  2.2411321E-03;  0.0000000E+00; -1.4209034E-02;  9.9927448E+02;  1.0615339E-01; -6.0106921E+02;3; -2.9866643E+00;  0.0000000E+00; -1.6090958E+00;0; -5.7472177E-02;  3.5454918E+04;  0.0000000E+00; -3.1205651E-01;  4.0000000E+04;  0.0000000E+00;  3.9969059E+04; -8.0191545E-02;  0.0000000E+00;  2.2719366E-02;  1.3825861E+03;
  6.6213566E-01;  9.9999998E-03; -1.7996451E-01;6484;  3.0892158E-03;  0.0000000E+00; -1.4341057E-02;  9.9925842E+02;  1.0615946E-01; -6.1440216E+02;3; -2.8538411E+00;  0.0000000E+00; -1.6746473E+00;0; -5.4385036E-02;  3.5451008E+04;  0.0000000E+00; -2.4519099E-01;  4.0000000E+04;  0.0000000E+00;  3.9968379E+04; -7.1657449E-02;  0.0000000E+00;  1.7272415E-02;  1.2657161E+03;
  6.6214067E-01;  9.9999998E-03; -1.8996921E-01;6483;  3.9297319E-03;  0.0000000E+00; -1.4418990E-02;  9.9921442E+02;  1.0616510E-01; -6.5084552E+02;3; -2.7386060E+00;  0.0000000E+00; -1.7307696E+00;0; -5.0760478E-02;  3.5445469E+04;  0.0000000E+00; -1.7362268E-01;  4.0000000E+04;  0.0000000E+00;  3.9968016E+04; -6.3233390E-02;  0.0000000E+00;  1.2472911E-02;  1.1898696E+03;
  6.6214377E-01;  9.9999998E-03; -1.9997674E-01;6482;  4.7554392E-03;  0.0000000E+00; -1.4452620E-02;  9.9914288E+02;  1.0617015E-01; -7.1010309E+02;3; -2.6377764E+00;  0.0000000E+00; -1.7822896E+00;0; -4.6665415E-02;  3.5438215E+04;  0.0000000E+00; -9.8014347E-02;  4.0000000E+04;  0.0000000E+00;  3.9968117E+04; -5.5011440E-02;  0.0000000E+00;  8.3460268E-03;  1.1812964E+03;
  6.6214246E-01;  9.9999998E-03; -2.0998862E-01;6481;  5.5611152E-03;  0.0000000E+00; -1.4453675E-02;  9.9904620E+02;  1.0617392E-01; -7.9019958E+02;3; -2.5556653E+00;  0.0000000E+00; -1.8144770E+00;0; -4.2178962E-02;  3.5429051E+04;  0.0000000E+00; -2.6818374E-02;  4.0000000E+04;  0.0000000E+00;  3.9968516E+04; -4.7079146E-02;  0.0000000E+00;  4.9001840E-03;  1.2427174E+03;
  6.6213423E-01;  9.9999998E-03; -2.2000469E-01;6480;  6.3451612E-03;  0.0000000E+00; -1.4430075E-02;  9.9892578E+02;  1.0617704E-01; -8.8994983E+02;3; -2.4859455E+00;  0.0000000E+00; -1.8442234E+00;0; -3.7367165E-02;  3.5419027E+04;  0.0000000E+00;  1.5938425E-02;  4.0000000E+04;  0.0000000E+00;  3.9968953E+04; -3.9512601E-02;  0.0000000E+00;  2.1454343E-03;  1.3310151E+03;
  6.6211581E-01;  9.9999998E-03; -2.3001896E-01;6479;  7.1084676E-03;  0.0000000E+00; -1.4393619E-02;  9.9879901E+02;  1.0617916E-01; -9.9498383E+02;3; -2.4231639E+00;  0.0000000E+00; -1.8753806E+00;0; -3.2247588E-02;  3.5408621E+04;  0.0000000E+00; -1.9438153E-02;  4.0000000E+04;  0.0000000E+00;  3.9970465E+04; -3.2378290E-02;  0.0000000E+00;  1.3070015E-04;  1.5054941E+03;
  6.6208279E-01;  9.9999998E-03; -2.4002478E-01;6478;  7.8579430E-03;  0.0000000E+00; -1.4436011E-02;  9.9870624E+02;  1.0617968E-01; -1.0718705E+03;3; -2.3493342E+00;  0.0000000E+00; -1.9369147E+00;0; -2.6384715E-02;  3.5398742E+04;  0.0000000E+00; -2.2099416E-01;  4.0000000E+04;  0.0000000E+00;  3.9975215E+04; -2.5723759E-02;  0.0000000E+00; -6.6095608E-04;  2.1471809E+03;
  6.6202486E-01;  9.9999998E-03; -2.5003392E-01;6477;  8.6000850E-03;  0.0000000E+00; -1.4626899E-02;  9.9863062E+02;  1.0617909E-01; -1.1344860E+03;3; -2.2713306E+00;  0.0000000E+00; -2.0066411E+00;0; -1.8690675E-02;  3.5389875E+04;  0.0000000E+00; -7.2782159E-01;  4.0000000E+04;  0.0000000E+00;  3.9981000E+04; -1.9570356E-02;  0.0000000E+00;  8.7968144E-04;  3.1021704E+03;
  6.6187203E-01;  9.9999998E-03; -2.7007598E-01;6475;  1.0001792E-02;  0.0000000E+00; -1.4149077E-02;  9.9830365E+02;  1.0617355E-01; -1.4053918E+03;3; -1.8184372E+00;  0.0000000E+00; -2.0146449E+00;0; -7.5732814E-03;  3.5377223E+04;  0.0000000E+00; -3.2529385E+00;  4.0000000E+04;  0.0000000E+00;  3.9975496E+04; -8.8274274E-03;  0.0000000E+00;  1.2541462E-03;  5.7081313E+03;
  6.6194212E-01;  9.9999998E-03; -2.6005581E-01;6476;  9.2809973E-03;  0.0000000E+00; -1.4544955E-02;  9.9848303E+02;  1.0617708E-01; -1.2567542E+03;3; -2.2098227E+00;  0.0000000E+00; -2.0269446E+00;0; -1.1600828E-02;  3.5383160E+04;  0.0000000E+00; -1.7119366E+00;  4.0000000E+04;  0.0000000E+00;  3.9979586E+04; -1.3940681E-02;  0.0000000E+00;  2.3398530E-03;  3.8835203E+03;
  6.7201585E-01;  9.9999998E-03; -2.7011901E-01;6536;  1.0007057E-02;  0.0000000E+00; -1.3628449E-02;  9.9832550E+02;  1.0811607E-01; -1.3872688E+03;3; -1.7634465E+00;  0.0000000E+00; -1.9165285E+00;0; -6.3711707E-03;  3.4120348E+04;  0.0000000E+00; -5.2342286E+00;  4.0000000E+04;  0.0000000E+00;  3.9964359E+04; -5.9428993E-03;  0.0000000E+00; -4.2827154E-04;  9.0853389E+03;
  6.7201835E-01;  9.9999998E-03; -2.6009956E-01;6537;  9.2054792E-03;  0.0000000E+00; -1.4034441E-02;  9.9853082E+02;  1.0811608E-01; -1.2171996E+03;3; -2.1188214E+00;  0.0000000E+00; -1.9228473E+00;0; -1.0759886E-02;  3.4129902E+04;  0.0000000E+00; -3.0081005E+00;  4.0000000E+04;  0.0000000E+00;  3.9968590E+04; -1.1274062E-02;  0.0000000E+00;  5.1417609E-04;  5.8637749E+03;
  6.7204821E-01;  9.9999998E-03; -2.5008324E-01;6538;  8.4354552E-03;  0.0000000E+00; -1.4031640E-02;  9.9868378E+02;  1.0811627E-01; -1.0904872E+03;3; -2.1824386E+00;  0.0000000E+00; -1.9002597E+00;0; -1.8831974E-02;  3.4139316E+04;  0.0000000E+00; -1.4754605E+00;  4.0000000E+04;  0.0000000E+00;  3.9968141E+04; -1.7150035E-02;  0.0000000E+00; -1.6819382E-03;  3.7884075E+03;
  6.7208815E-01;  9.9999998E-03; -2.4008258E-01;6539;  7.6271356E-03;  0.0000000E+00; -1.3849541E-02;  9.9875397E+02;  1.0811513E-01; -1.0323160E+03;3; -2.2576497E+00;  0.0000000E+00; -1.8374130E+00;0; -2.6696762E-02;  3.4149020E+04;  0.0000000E+00; -5.8248430E-01;  4.0000000E+04;  0.0000000E+00;  3.9960562E+04; -2.3574831E-02;  0.0000000E+00; -3.1219318E-03;  2.1300513E+03;
  6.7212379E-01;  9.9999998E-03; -2.3008232E-01;6540;  6.8143024E-03;  0.0000000E+00; -1.3866767E-02;  9.9886194E+02;  1.0811218E-01; -9.4288647E+02;3; -2.3056085E+00;  0.0000000E+00; -1.8114818E+00;0; -3.2636601E-02;  3.4160266E+04;  0.0000000E+00; -1.4564794E-01;  4.0000000E+04;  0.0000000E+00;  3.9956359E+04; -3.0529359E-02;  0.0000000E+00; -2.1072414E-03;  1.3406656E+03;
  6.7215085E-01;  9.9999998E-03; -2.2006388E-01;6541;  5.9785629E-03;  0.0000000E+00; -1.3956975E-02;  9.9902942E+02;  1.0810775E-01; -8.0412506E+02;3; -2.3551869E+00;  0.0000000E+00; -1.7927964E+00;0; -3.8013786E-02;  3.4171684E+04;  0.0000000E+00;  1.7442578E-02;  4.0000000E+04;  0.0000000E+00;  3.9957535E+04; -3.7996452E-02;  0.0000000E+00; -1.7335415E-05;  1.4064541E+03;
  6.7217386E-01;  9.9999998E-03; -2.1003525E-01;6542;  5.1132008E-03;  0.0000000E+00; -1.4006991E-02;  9.9917712E+02;  1.0810217E-01; -6.8175818E+02;3; -2.4131904E+00;  0.0000000E+00; -1.7744418E+00;0; -4.3213934E-02;  3.4182773E+04;  0.0000000E+00;  3.7876111E-02;  4.0000000E+04;  0.0000000E+00;  3.9958582E+04; -4.5918912E-02;  0.0000000E+00;  2.7049780E-03;  1.5427469E+03;
  6.7219192E-01;  9.9999998E-03; -2.0000951E-01;6543;  4.2213788E-03;  0.0000000E+00; -1.4021583E-02;  9.9928204E+02;  1.0809516E-01; -5.9479773E+02;3; -2.4854064E+00;  0.0000000E+00; -1.7541152E+00;0; -4.8122741E-02;  3.4192766E+04;  0.0000000E+00; -6.6223717E-03;  4.0000000E+04;  0.0000000E+00;  3.9958703E+04; -5.4218031E-02;  0.0000000E+00;  6.0952883E-03;  1.5311526E+03;
  6.7220283E-01;  9.9999998E-03; -1.8999043E-01;6544;  3.3062580E-03;  0.0000000E+00; -1.4007443E-02;  9.9934515E+02;  1.0808740E-01; -5.4250293E+02;3; -2.5738022E+00;  0.0000000E+00; -1.7238334E+00;0; -5.2644804E-02;  3.4200961E+04;  0.0000000E+00; -7.5789526E-02;  4.0000000E+04;  0.0000000E+00;  3.9958430E+04; -6.2809028E-02;  0.0000000E+00;  1.0164223E-02;  1.4805017E+03;
  6.7220765E-01;  9.9999998E-03; -1.7997715E-01;6545;  2.3731801E-03;  0.0000000E+00; -1.3956639E-02;  9.9937341E+02;  1.0807878E-01; -5.1909619E+02;3; -2.6817303E+00;  0.0000000E+00; -1.6799059E+00;0; -5.6699328E-02;  3.4207109E+04;  0.0000000E+00; -1.5153946E-01;  4.0000000E+04;  0.0000000E+00;  3.9958105E+04; -7.1603037E-02;  0.0000000E+00;  1.4903710E-02;  1.4671746E+03;
  6.7220795E-01;  9.9999998E-03; -1.6996820E-01;6546;  1.4286813E-03;  0.0000000E+00; -1.3853824E-02;  9.9937146E+02;  1.0807087E-01; -5.2072577E+02;3; -2.8101087E+00;  0.0000000E+00; -1.6243262E+00;0; -6.0218446E-02;  3.4211262E+04;  0.0000000E+00; -2.2779949E-01;  4.0000000E+04;  0.0000000E+00;  3.9958188E+04; -8.0509201E-02;  0.0000000E+00;  2.0290753E-02;  1.5033218E+03;
  6.7220569E-01;  9.9999998E-03; -1.5996179E-01;6547;  4.8179584E-04;  0.0000000E+00; -1.3686726E-02;  9.9933899E+02;  1.0806111E-01; -5.4763861E+02;3; -2.9579756E+00;  0.0000000E+00; -1.5480591E+00;0; -6.3167341E-02;  3.4213504E+04;  0.0000000E+00; -3.0277759E-01;  4.0000000E+04;  0.0000000E+00;  3.9958594E+04; -8.9438803E-02;  0.0000000E+00;  2.6271462E-02;  1.5754547E+03;
  6.7220205E-01;  9.9999998E-03; -1.4995673E-01;6548; -4.5812456E-04;  0.0000000E+00; -1.3450054E-02;  9.9927893E+02;  1.0805163E-01; -5.9741492E+02;3; -3.1231885E+00;  0.0000000E+00; -1.4676826E+00;0; -6.5555528E-02;  3.4214266E+04;  0.0000000E+00; -3.7394047E-01;  4.0000000E+04;  0.0000000E+00;  3.9959004E+04; -9.8308444E-02;  0.0000000E+00;  3.2752912E-02;  1.6679742E+03;
  6.7219728E-01;  9.9999998E-03; -1.3995269E-01;6549; -1.3814986E-03;  0.0000000E+00; -1.3122489E-02;  9.9920374E+02;  1.0804205E-01; -6.5968475E+02;3; -3.3092537E+00;  0.0000000E+00; -1.3414276E+00;0; -6.7423970E-02;  3.4213680E+04;  0.0000000E+00; -4.3541229E-01;  4.0000000E+04;  0.0000000E+00;  3.9959344E+04; -1.0703988E-01;  0.0000000E+00;  3.9615911E-02;  1.7705962E+03;
  6.7219162E-01;  9.9999998E-03; -1.2994985E-01;6550; -2.2782565E-03;  0.0000000E+00; -1.2701772E-02;  9.9911609E+02;  1.0803253E-01; -7.3232465E+02;3; -3.5023875E+00;  0.0000000E+00; -1.2136518E+00;0; -6.8817973E-02;  3.4212859E+04;  0.0000000E+00; -4.7915280E-01;  4.0000000E+04;  0.0000000E+00;  3.9959992E+04; -1.1555931E-01;  0.0000000E+00;  4.6741337E-02;  1.8769388E+03;
  6.7218530E-01;  9.9999998E-03; -1.1994880E-01;6551; -3.1371231E-03;  0.0000000E+00; -1.2170646E-02;  9.9903473E+02;  1.0802379E-01; -7.9973010E+02;3; -3.6979597E+00;  0.0000000E+00; -1.0687040E+00;0; -6.9774359E-02;  3.4212008E+04;  0.0000000E+00; -4.9886385E-01;  4.0000000E+04;  0.0000000E+00;  3.9960781E+04; -1.2378908E-01;  0.0000000E+00;  5.4014724E-02;  1.9813892E+03;
  6.7217845E-01;  9.9999998E-03; -1.0994995E-01;6552; -3.9519817E-03;  0.0000000E+00; -1.1541388E-02;  9.9896326E+02;  1.0801467E-01; -8.5893829E+02;3; -3.8997207E+00;  0.0000000E+00; -9.3861628E-01;0; -7.0349678E-02;  3.4211723E+04;  0.0000000E+00; -4.9190879E-01;  4.0000000E+04;  0.0000000E+00;  3.9961672E+04; -1.3165121E-01;  0.0000000E+00;  6.1301526E-02;  2.0749146E+03;
  6.8236959E-01;  9.9999998E-03; -2.7016559E-01;6597;  9.9678198E-03;  0.0000000E+00; -1.2968594E-02;  9.9808264E+02;  1.1035354E-01; -1.5884974E+03;3; -1.7760843E+00;  0.0000000E+00; -1.7977856E+00;0; -3.7900549E-03;  3.2738566E+04;  0.0000000E+00; -6.9261770E+00;  4.0000000E+04;  0.0000000E+00;  3.9954289E+04; -1.1267072E-03;  0.0000000E+00; -2.6633476E-03;  1.2441088E+04;
  6.8230224E-01;  9.9999998E-03; -2.6014653E-01;6598;  9.0980930E-03;  0.0000000E+00; -1.3371769E-02;  9.9828864E+02;  1.1034176E-01; -1.4178357E+03;3; -2.0206063E+00;  0.0000000E+00; -1.8223453E+00;0; -8.7887291E-03;  3.2754018E+04;  0.0000000E+00; -4.1897650E+00;  4.0000000E+04;  0.0000000E+00;  3.9958395E+04; -6.8465522E-03;  0.0000000E+00; -1.9421768E-03;  8.1705386E+03;
  6.8228483E-01;  9.9999998E-03; -2.5013497E-01;6599;  8.2443273E-03;  0.0000000E+00; -1.3292885E-02;  9.9840845E+02;  1.1033082E-01; -1.3185793E+03;3; -2.0887225E+00;  0.0000000E+00; -1.7914606E+00;0; -1.7847128E-02;  3.2768750E+04;  0.0000000E+00; -2.1909621E+00;  4.0000000E+04;  0.0000000E+00;  3.9955992E+04; -1.3136881E-02;  0.0000000E+00; -4.7102463E-03;  5.0263833E+03;
  6.8232512E-01;  9.9999998E-03; -2.4014100E-01;6600;  7.3792008E-03;  0.0000000E+00; -1.3145071E-02;  9.9844592E+02;  1.1032353E-01; -1.2875184E+03;3; -2.1488433E+00;  0.0000000E+00; -1.7432460E+00;0; -2.5832716E-02;  3.2780457E+04;  0.0000000E+00; -9.3051010E-01;  4.0000000E+04;  0.0000000E+00;  3.9947281E+04; -1.9985192E-02;  0.0000000E+00; -5.8475258E-03;  2.6524714E+03;
  6.8235457E-01;  9.9999998E-03; -2.3014417E-01;6601;  6.5003093E-03;  0.0000000E+00; -1.3226318E-02;  9.9855646E+02;  1.1031590E-01; -1.1959656E+03;3; -2.1852379E+00;  0.0000000E+00; -1.7287647E+00;0; -3.1965453E-02;  3.2792664E+04;  0.0000000E+00; -2.6516819E-01;  4.0000000E+04;  0.0000000E+00;  3.9943789E+04; -2.7407845E-02;  0.0000000E+00; -4.5576091E-03;  1.6031893E+03;
  6.8236560E-01;  9.9999998E-03; -2.2012101E-01;6602;  5.5876444E-03;  0.0000000E+00; -1.3367673E-02;  9.9874432E+02;  1.1030684E-01; -1.0403157E+03;3; -2.2151368E+00;  0.0000000E+00; -1.7335865E+00;0; -3.7751239E-02;  3.2805895E+04;  0.0000000E+00;  3.5501886E-02;  4.0000000E+04;  0.0000000E+00;  3.9946738E+04; -3.5380892E-02;  0.0000000E+00; -2.3703447E-03;  1.7989790E+03;
  6.8236727E-01;  9.9999998E-03; -2.1008170E-01;6603;  4.6395650E-03;  0.0000000E+00; -1.3447645E-02;  9.9890961E+02;  1.1029662E-01; -9.0338141E+02;3; -2.2619457E+00;  0.0000000E+00; -1.7240932E+00;0; -4.3475620E-02;  3.2818602E+04;  0.0000000E+00;  1.3687921E-01;  4.0000000E+04;  0.0000000E+00;  3.9948914E+04; -4.3826256E-02;  0.0000000E+00;  3.5063579E-04;  2.0758452E+03;
  6.8236518E-01;  9.9999998E-03; -2.0004648E-01;6604;  3.6613487E-03;  0.0000000E+00; -1.3484641E-02;  9.9901385E+02;  1.1028607E-01; -8.1701349E+02;3; -2.3227990E+00;  0.0000000E+00; -1.7125151E+00;0; -4.8936240E-02;  3.2830184E+04;  0.0000000E+00;  1.3732690E-01;  4.0000000E+04;  0.0000000E+00;  3.9948996E+04; -5.2642312E-02;  0.0000000E+00;  3.7060701E-03;  2.0472108E+03;
  6.8235922E-01;  9.9999998E-03; -1.9002095E-01;6605;  2.6567169E-03;  0.0000000E+00; -1.3496895E-02;  9.9906812E+02;  1.1027415E-01; -7.7202716E+02;3; -2.4015365E+00;  0.0000000E+00; -1.6971183E+00;0; -5.4008670E-02;  3.2839902E+04;  0.0000000E+00;  8.9714430E-02;  4.0000000E+04;  0.0000000E+00;  3.9947773E+04; -6.1731052E-02;  0.0000000E+00;  7.7223824E-03;  1.8928470E+03;
  6.8235070E-01;  9.9999998E-03; -1.8000314E-01;6606;  1.6301059E-03;  0.0000000E+00; -1.3477365E-02;  9.9908197E+02;  1.1026178E-01; -7.6057068E+02;3; -2.4986281E+00;  0.0000000E+00; -1.6783395E+00;0; -5.8606740E-02;  3.2847383E+04;  0.0000000E+00;  2.0433271E-02;  4.0000000E+04;  0.0000000E+00;  3.9946887E+04; -7.0999332E-02;  0.0000000E+00;  1.2392592E-02;  1.7510688E+03;
  6.8234009E-01;  9.9999998E-03; -1.6999108E-01;6607;  5.8900513E-04;  0.0000000E+00; -1.3412501E-02;  9.9905811E+02;  1.1024835E-01; -7.8032318E+02;3; -2.6190333E+00;  0.0000000E+00; -1.6360563E+00;0; -6.2659353E-02;  3.2852332E+04;  0.0000000E+00; -5.7948861E-02;  4.0000000E+04;  0.0000000E+00;  3.9946062E+04; -8.0358081E-02;  0.0000000E+00;  1.7698728E-02;  1.6619163E+03;
  6.8232828E-01;  9.9999998E-03; -1.5998246E-01;6608; -4.5920131E-04;  0.0000000E+00; -1.3283276E-02;  9.9899323E+02;  1.1023516E-01; -8.3409943E+02;3; -2.7684367E+00;  0.0000000E+00; -1.5727420E+00;0; -6.6130579E-02;  3.2855164E+04;  0.0000000E+00; -1.3929357E-01;  4.0000000E+04;  0.0000000E+00;  3.9945453E+04; -8.9724757E-02;  0.0000000E+00;  2.3594180E-02;  1.6245234E+03;
  6.8231541E-01;  9.9999998E-03; -1.4997487E-01;6609; -1.5043073E-03;  0.0000000E+00; -1.3075538E-02;  9.9889154E+02;  1.1022166E-01; -9.1834393E+02;3; -2.9369054E+00;  0.0000000E+00; -1.4877187E+00;0; -6.9028310E-02;  3.2855469E+04;  0.0000000E+00; -2.1916139E-01;  4.0000000E+04;  0.0000000E+00;  3.9945258E+04; -9.9024154E-02;  0.0000000E+00;  2.9995844E-02;  1.6281688E+03;
  6.8230093E-01;  9.9999998E-03; -1.3996778E-01;6610; -2.5339930E-03;  0.0000000E+00; -1.2788884E-02;  9.9876312E+02;  1.1020774E-01; -1.0247112E+03;3; -3.1264906E+00;  0.0000000E+00; -1.3754612E+00;0; -7.1389899E-02;  3.2854262E+04;  0.0000000E+00; -2.9169002E-01;  4.0000000E+04;  0.0000000E+00;  3.9945184E+04; -1.0818322E-01;  0.0000000E+00;  3.6793318E-02;  1.6645649E+03;
  6.8228453E-01;  9.9999998E-03; -1.2996180E-01;6611; -3.5355026E-03;  0.0000000E+00; -1.2404276E-02;  9.9861938E+02;  1.1019445E-01; -1.1438188E+03;3; -3.3252335E+00;  0.0000000E+00; -1.2440674E+00;0; -7.3253565E-02;  3.2851766E+04;  0.0000000E+00; -3.4910360E-01;  4.0000000E+04;  0.0000000E+00;  3.9945484E+04; -1.1712909E-01;  0.0000000E+00;  4.3875530E-02;  1.7271201E+03;
  6.8226629E-01;  9.9999998E-03; -1.1995767E-01;6612; -4.4957469E-03;  0.0000000E+00; -1.1924296E-02;  9.9846906E+02;  1.1018089E-01; -1.2683585E+03;3; -3.5284863E+00;  0.0000000E+00; -1.1026045E+00;0; -7.4650407E-02;  3.2848973E+04;  0.0000000E+00; -3.8460690E-01;  4.0000000E+04;  0.0000000E+00;  3.9945918E+04; -1.2578547E-01;  0.0000000E+00;  5.1135063E-02;  1.8071211E+03;
  6.8224603E-01;  9.9999998E-03; -1.0995602E-01;6613; -5.4048831E-03;  0.0000000E+00; -1.1343433E-02;  9.9832715E+02;  1.1016810E-01; -1.3859354E+03;3; -3.7359300E+00;  0.0000000E+00; -9.5653772E-01;0; -7.5630128E-02;  3.2846480E+04;  0.0000000E+00; -3.9458963E-01;  4.0000000E+04;  0.0000000E+00;  3.9946629E+04; -1.3407296E-01;  0.0000000E+00;  5.8442835E-02;  1.8914266E+03;
  6.9379342E-01;  9.9999998E-03; -2.7021891E-01;6658;  9.8748514E-03;  0.0000000E+00; -1.2122650E-02;  9.9765405E+02;  1.1302149E-01; -1.9435488E+03;3; -1.7790852E+00;  0.0000000E+00; -1.6979052E+00;0;  1.6487343E-03;  3.1193764E+04;  0.0000000E+00; -6.1587825E+00;  4.0000000E+04;  0.0000000E+00;  3.9943352E+04;  6.9760964E-03;  0.0000000E+00; -5.3273621E-03;  1.2064944E+04;
  6.9358313E-01;  9.9999998E-03; -2.6019928E-01;6659;  8.9396648E-03;  0.0000000E+00; -1.2478109E-02;  9.9780426E+02;  1.1297819E-01; -1.8191079E+03;3; -1.9344178E+00;  0.0000000E+00; -1.7179291E+00;0; -4.7946284E-03;  3.1222172E+04;  0.0000000E+00; -3.9223046E+00;  4.0000000E+04;  0.0000000E+00;  3.9947555E+04;  5.0496217E-04;  0.0000000E+00; -5.2995905E-03;  8.5299795E+03;
  6.9343883E-01;  9.9999998E-03; -2.5019008E-01;6660;  8.0233868E-03;  0.0000000E+00; -1.2395107E-02;  9.9786707E+02;  1.1294331E-01; -1.7671095E+03;3; -1.9963832E+00;  0.0000000E+00; -1.6807780E+00;0; -1.4596323E-02;  3.1246701E+04;  0.0000000E+00; -2.1407936E+00;  4.0000000E+04;  0.0000000E+00;  3.9943734E+04; -6.5412507E-03;  0.0000000E+00; -8.0550723E-03;  5.5571660E+03;
  6.9333595E-01;  9.9999998E-03; -2.4019720E-01;6661;  7.1019079E-03;  0.0000000E+00; -1.2330144E-02;  9.9789349E+02;  1.1291521E-01; -1.7451842E+03;3; -2.0246146E+00;  0.0000000E+00; -1.6600515E+00;0; -2.2855779E-02;  3.1268492E+04;  0.0000000E+00; -9.4951445E-01;  4.0000000E+04;  0.0000000E+00;  3.9935309E+04; -1.4171432E-02;  0.0000000E+00; -8.6843474E-03;  3.2194902E+03;
  6.9325209E-01;  9.9999998E-03; -2.3020592E-01;6662;  6.1539933E-03;  0.0000000E+00; -1.2447945E-02;  9.9798022E+02;  1.1288901E-01; -1.6733344E+03;3; -2.0450120E+00;  0.0000000E+00; -1.6559966E+00;0; -2.9626198E-02;  3.1289447E+04;  0.0000000E+00; -2.4760291E-01;  4.0000000E+04;  0.0000000E+00;  3.9930918E+04; -2.2378458E-02;  0.0000000E+00; -7.2477404E-03;  2.0288992E+03;
  6.9317925E-01;  9.9999998E-03; -2.2019322E-01;6663;  5.1648756E-03;  0.0000000E+00; -1.2623756E-02;  9.9815057E+02;  1.1286337E-01; -1.5322026E+03;3; -2.0661330E+00;  0.0000000E+00; -1.6592103E+00;0; -3.6107417E-02;  3.1309600E+04;  0.0000000E+00;  1.2074374E-01;  4.0000000E+04;  0.0000000E+00;  3.9932918E+04; -3.1128535E-02;  0.0000000E+00; -4.9788821E-03;  2.0800464E+03;
  6.9312352E-01;  9.9999998E-03; -2.1015546E-01;6664;  4.1325497E-03;  0.0000000E+00; -1.2751401E-02;  9.9831470E+02;  1.1284046E-01; -1.3962560E+03;3; -2.1007328E+00;  0.0000000E+00; -1.6550668E+00;0; -4.2555362E-02;  3.1327768E+04;  0.0000000E+00;  2.8408390E-01;  4.0000000E+04;  0.0000000E+00;  3.9935863E+04; -4.0342696E-02;  0.0000000E+00; -2.2126667E-03;  2.4430842E+03;
  6.9308627E-01;  9.9999998E-03; -2.0011671E-01;6665;  3.0644762E-03;  0.0000000E+00; -1.2828418E-02;  9.9842242E+02;  1.1282057E-01; -1.3069746E+03;3; -2.1377091E+00;  0.0000000E+00; -1.6679217E+00;0; -4.8775449E-02;  3.1343232E+04;  0.0000000E+00;  3.3047119E-01;  4.0000000E+04;  0.0000000E+00;  3.9936137E+04; -4.9899362E-02;  0.0000000E+00;  1.1239144E-03;  2.4710051E+03;
  6.9306147E-01;  9.9999998E-03; -1.9008832E-01;6666;  1.9645155E-03;  0.0000000E+00; -1.2874972E-02;  9.9846875E+02;  1.1280186E-01; -1.2686053E+03;3; -2.2016866E+00;  0.0000000E+00; -1.6706805E+00;0; -5.4605659E-02;  3.1355758E+04;  0.0000000E+00;  3.1278357E-01;  4.0000000E+04;  0.0000000E+00;  3.9934734E+04; -5.9684157E-02;  0.0000000E+00;  5.0784983E-03;  2.2828069E+03;
  6.9304299E-01;  9.9999998E-03; -1.8006977E-01;6667;  8.3754904E-04;  0.0000000E+00; -1.2890637E-02;  9.9846918E+02;  1.1278380E-01; -1.2682596E+03;3; -2.2903261E+00;  0.0000000E+00; -1.6652970E+00;0; -5.9940018E-02;  3.1365150E+04;  0.0000000E+00;  2.6024371E-01;  4.0000000E+04;  0.0000000E+00;  3.9933039E+04; -6.9595739E-02;  0.0000000E+00;  9.6557206E-03;  2.0494041E+03;
  6.9302726E-01;  9.9999998E-03; -1.7005736E-01;6668; -3.0914124E-04;  0.0000000E+00; -1.2863504E-02;  9.9841931E+02;  1.1276562E-01; -1.3095918E+03;3; -2.4088025E+00;  0.0000000E+00; -1.6447742E+00;0; -6.4700775E-02;  3.1371283E+04;  0.0000000E+00;  1.8920617E-01;  4.0000000E+04;  0.0000000E+00;  3.9931543E+04; -7.9545975E-02;  0.0000000E+00;  1.4845202E-02;  1.8399783E+03;
  6.9301248E-01;  9.9999998E-03; -1.6004804E-01;6669; -1.4665436E-03;  0.0000000E+00; -1.2775552E-02;  9.9832324E+02;  1.1274809E-01; -1.3891450E+03;3; -2.5499170E+00;  0.0000000E+00; -1.6090125E+00;0; -6.8850249E-02;  3.1374369E+04;  0.0000000E+00;  1.0972983E-01;  4.0000000E+04;  0.0000000E+00;  3.9930301E+04; -8.9459233E-02;  0.0000000E+00;  2.0608988E-02;  1.6714575E+03;
  6.9299829E-01;  9.9999998E-03; -1.5003958E-01;6670; -2.6251827E-03;  0.0000000E+00; -1.2606191E-02;  9.9818390E+02;  1.1273090E-01; -1.5045985E+03;3; -2.7286313E+00;  0.0000000E+00; -1.5241545E+00;0; -7.2396725E-02;  3.1374420E+04;  0.0000000E+00;  2.8616929E-02;  4.0000000E+04;  0.0000000E+00;  3.9929234E+04; -9.9269919E-02;  0.0000000E+00;  2.6873196E-02;  1.5498326E+03;
  6.9298309E-01;  9.9999998E-03; -1.4003083E-01;6671; -3.7714285E-03;  0.0000000E+00; -1.2356946E-02;  9.9800452E+02;  1.1271386E-01; -1.6532362E+03;3; -2.9250093E+00;  0.0000000E+00; -1.4150391E+00;0; -7.5377300E-02;  3.1371928E+04;  0.0000000E+00; -4.8413359E-02;  4.0000000E+04;  0.0000000E+00;  3.9928711E+04; -1.0891572E-01;  0.0000000E+00;  3.3538427E-02;  1.4819692E+03;
  6.9296455E-01;  9.9999998E-03; -1.3002214E-01;6672; -4.8874742E-03;  0.0000000E+00; -1.2021860E-02;  9.9780157E+02;  1.1269723E-01; -1.8213301E+03;3; -3.1326220E+00;  0.0000000E+00; -1.2850846E+00;0; -7.7825539E-02;  3.1367918E+04;  0.0000000E+00; -1.1496929E-01;  4.0000000E+04;  0.0000000E+00;  3.9928227E+04; -1.1833045E-01;  0.0000000E+00;  4.0504910E-02;  1.4715518E+03;
  6.9294024E-01;  9.9999998E-03; -1.2001427E-01;6673; -5.9595075E-03;  0.0000000E+00; -1.1595286E-02;  9.9758417E+02;  1.1267979E-01; -2.0014730E+03;3; -3.3387101E+00;  0.0000000E+00; -1.1609092E+00;0; -7.9767182E-02;  3.1363084E+04;  0.0000000E+00; -1.6502438E-01;  4.0000000E+04;  0.0000000E+00;  3.9928473E+04; -1.2744391E-01;  0.0000000E+00;  4.7676731E-02;  1.5122502E+03;
  6.9290882E-01;  9.9999998E-03; -1.1000802E-01;6674; -6.9737439E-03;  0.0000000E+00; -1.1072704E-02;  9.9737671E+02;  1.1266281E-01; -2.1733694E+03;3; -3.5413101E+00;  0.0000000E+00; -1.0117357E+00;0; -8.1244603E-02;  3.1358725E+04;  0.0000000E+00; -1.9481240E-01;  4.0000000E+04;  0.0000000E+00;  3.9929031E+04; -1.3617885E-01;  0.0000000E+00;  5.4934248E-02;  1.5871124E+03;
  7.0629704E-01;  9.9999998E-03; -2.7028644E-01;6719;  9.7556105E-03;  0.0000000E+00; -1.1067077E-02;  9.9756012E+02;  1.1626185E-01; -2.0213734E+03;3; -1.7470361E+00;  0.0000000E+00; -1.6463215E+00;0;  1.1440978E-02;  2.9492512E+04;  0.0000000E+00; -4.6053801E+00;  4.0000000E+04;  0.0000000E+00;  3.9925562E+04;  1.9685764E-02;  0.0000000E+00; -8.2447855E-03;  1.0293293E+04;
  7.0600593E-01;  9.9999998E-03; -2.6026601E-01;6720;  8.7661557E-03;  0.0000000E+00; -1.1394875E-02;  9.9760492E+02;  1.1619013E-01; -1.9842881E+03;3; -1.8520242E+00;  0.0000000E+00; -1.6342665E+00;0;  3.2736072E-03;  2.9527027E+04;  0.0000000E+00; -2.9298966E+00;  4.0000000E+04;  0.0000000E+00;  3.9930211E+04;  1.2040273E-02;  0.0000000E+00; -8.7666661E-03;  7.6414614E+03;
  7.0576680E-01;  9.9999998E-03; -2.5025606E-01;6721;  7.7907424E-03;  0.0000000E+00; -1.1366687E-02;  9.9757654E+02;  1.1612611E-01; -2.0077936E+03;3; -1.8949811E+00;  0.0000000E+00; -1.6102697E+00;0; -7.4118064E-03;  2.9559379E+04;  0.0000000E+00; -1.5501868E+00;  4.0000000E+04;  0.0000000E+00;  3.9926859E+04;  3.7985328E-03;  0.0000000E+00; -1.1210339E-02;  5.2777505E+03;
  7.0559907E-01;  9.9999998E-03; -2.4026050E-01;6722;  6.8008215E-03;  0.0000000E+00; -1.1368778E-02;  9.9753473E+02;  1.1607354E-01; -2.0424098E+03;3; -1.8933406E+00;  0.0000000E+00; -1.5944314E+00;0; -1.6575161E-02;  2.9587008E+04;  0.0000000E+00; -5.7676482E-01;  4.0000000E+04;  0.0000000E+00;  3.9919898E+04; -5.0128028E-03;  0.0000000E+00; -1.1562358E-02;  3.3588010E+03;
  7.0545405E-01;  9.9999998E-03; -2.3028190E-01;6723;  5.7778112E-03;  0.0000000E+00; -1.1474933E-02;  9.9751801E+02;  1.1602541E-01; -2.0562859E+03;3; -1.8783534E+00;  0.0000000E+00; -1.5975200E+00;0; -2.4617378E-02;  2.9613883E+04;  0.0000000E+00;  1.4756843E-02;  4.0000000E+04;  0.0000000E+00;  3.9912926E+04; -1.4395154E-02;  0.0000000E+00; -1.0222225E-02;  2.0254564E+03;
  7.0532984E-01;  9.9999998E-03; -2.2030894E-01;6724;  4.7117732E-03;  0.0000000E+00; -1.1658641E-02;  9.9756958E+02;  1.1598013E-01; -2.0135712E+03;3; -1.8841323E+00;  0.0000000E+00; -1.5962129E+00;0; -3.2223605E-02;  2.9639818E+04;  0.0000000E+00;  3.4262058E-01;  4.0000000E+04;  0.0000000E+00;  3.9910066E+04; -2.4282355E-02;  0.0000000E+00; -7.9412507E-03;  1.5760393E+03;
  7.0521820E-01;  9.9999998E-03; -2.1030810E-01;6725;  3.5944048E-03;  0.0000000E+00; -1.1856229E-02;  9.9770264E+02;  1.1593700E-01; -1.9033027E+03;3; -1.9035527E+00;  0.0000000E+00; -1.6081613E+00;0; -3.9714903E-02;  2.9664912E+04;  0.0000000E+00;  5.0304013E-01;  4.0000000E+04;  0.0000000E+00;  3.9912793E+04; -3.4611635E-02;  0.0000000E+00; -5.1032659E-03;  1.9495911E+03;
  7.0513970E-01;  9.9999998E-03; -2.0028584E-01;6726;  2.4268036E-03;  0.0000000E+00; -1.1999878E-02;  9.9782709E+02;  1.1590143E-01; -1.8001947E+03;3; -1.9365078E+00;  0.0000000E+00; -1.6149597E+00;0; -4.7031756E-02;  2.9686107E+04;  0.0000000E+00;  5.6461436E-01;  4.0000000E+04;  0.0000000E+00;  3.9915227E+04; -4.5247104E-02;  0.0000000E+00; -1.7846519E-03;  2.2750010E+03;
  7.0509082E-01;  9.9999998E-03; -1.9026288E-01;6727;  1.2166303E-03;  0.0000000E+00; -1.2094853E-02;  9.9789001E+02;  1.1587207E-01; -1.7480974E+03;3; -1.9828798E+00;  0.0000000E+00; -1.6300564E+00;0; -5.3964794E-02;  2.9702768E+04;  0.0000000E+00;  5.6744039E-01;  4.0000000E+04;  0.0000000E+00;  3.9915488E+04; -5.6046244E-02;  0.0000000E+00;  2.0814503E-03;  2.3117339E+03;
  7.0505661E-01;  9.9999998E-03; -1.8024680E-01;6728; -2.6227814E-05;  0.0000000E+00; -1.2151607E-02;  9.9790216E+02;  1.1584578E-01; -1.7380236E+03;3; -2.0463133E+00;  0.0000000E+00; -1.6546013E+00;0; -6.0361329E-02;  2.9715807E+04;  0.0000000E+00;  5.3449798E-01;  4.0000000E+04;  0.0000000E+00;  3.9914488E+04; -6.6886328E-02;  0.0000000E+00;  6.5249973E-03;  2.1660374E+03;
  7.0503801E-01;  9.9999998E-03; -1.7023666E-01;6729; -1.2945487E-03;  0.0000000E+00; -1.2162516E-02;  9.9785938E+02;  1.1582267E-01; -1.7734794E+03;3; -2.1503534E+00;  0.0000000E+00; -1.6598653E+00;0; -6.6126049E-02;  2.9724232E+04;  0.0000000E+00;  4.7996542E-01;  4.0000000E+04;  0.0000000E+00;  3.9912945E+04; -7.7667572E-02;  0.0000000E+00;  1.1541523E-02;  1.9413545E+03;
  7.0503122E-01;  9.9999998E-03; -1.6022995E-01;6730; -2.5799125E-03;  0.0000000E+00; -1.2114109E-02;  9.9775299E+02;  1.1580241E-01; -1.8616250E+03;3; -2.3044457E+00;  0.0000000E+00; -1.6268640E+00;0; -7.1218908E-02;  2.9727932E+04;  0.0000000E+00;  4.1398183E-01;  4.0000000E+04;  0.0000000E+00;  3.9911195E+04; -8.8318422E-02;  0.0000000E+00;  1.7099518E-02;  1.6967023E+03;
  7.0503443E-01;  9.9999998E-03; -1.5022375E-01;6731; -3.8716409E-03;  0.0000000E+00; -1.1986488E-02;  9.9759125E+02;  1.1578504E-01; -1.9955964E+03;3; -2.4882021E+00;  0.0000000E+00; -1.5542393E+00;0; -7.5652875E-02;  2.9726902E+04;  0.0000000E+00;  3.4417224E-01;  4.0000000E+04;  0.0000000E+00;  3.9909578E+04; -9.8787479E-02;  0.0000000E+00;  2.3134606E-02;  1.4722478E+03;
  7.0504618E-01;  9.9999998E-03; -1.4021581E-01;6732; -5.1513086E-03;  0.0000000E+00; -1.1778193E-02;  9.9738013E+02;  1.1577030E-01; -2.1705049E+03;3; -2.6803377E+00;  0.0000000E+00; -1.4673507E+00;0; -7.9469368E-02;  2.9721684E+04;  0.0000000E+00;  2.7535796E-01;  4.0000000E+04;  0.0000000E+00;  3.9908371E+04; -1.0902914E-01;  0.0000000E+00;  2.9559765E-02;  1.2999117E+03;
  7.0506132E-01;  9.9999998E-03; -1.3020578E-01;6733; -6.4025396E-03;  0.0000000E+00; -1.1496458E-02;  9.9713440E+02;  1.1575778E-01; -2.3741040E+03;3; -2.8876958E+00;  0.0000000E+00; -1.3676819E+00;0; -8.2704753E-02;  2.9713230E+04;  0.0000000E+00;  2.1093813E-01;  4.0000000E+04;  0.0000000E+00;  3.9907605E+04; -1.1899456E-01;  0.0000000E+00;  3.6289811E-02;  1.2012257E+03;
  7.0507509E-01;  9.9999998E-03; -1.2019391E-01;6734; -7.6085678E-03;  0.0000000E+00; -1.1136912E-02;  9.9687164E+02;  1.1574624E-01; -2.5917766E+03;3; -3.0974045E+00;  0.0000000E+00; -1.2484744E+00;0; -8.5382909E-02;  2.9702889E+04;  0.0000000E+00;  1.5419056E-01;  4.0000000E+04;  0.0000000E+00;  3.9907445E+04; -1.2862709E-01;  0.0000000E+00;  4.3244187E-02;  1.1832867E+03;
  7.0508236E-01;  9.9999998E-03; -1.1018113E-01;6735; -8.7562501E-03;  0.0000000E+00; -1.0680786E-02;  9.9660132E+02;  1.1573510E-01; -2.8157207E+03;3; -3.3075151E+00;  0.0000000E+00; -1.1151646E+00;0; -8.7542057E-02;  2.9692260E+04;  0.0000000E+00;  1.0739863E-01;  4.0000000E+04;  0.0000000E+00;  3.9907816E+04; -1.3786101E-01;  0.0000000E+00;  5.0318956E-02;  1.2371375E+03;
  7.1842396E-01;  9.9999998E-03; -2.7035964E-01;6780;  9.6386271E-03;  0.0000000E+00; -9.9030500E-03;  9.9773303E+02;  1.1973206E-01; -1.8781180E+03;3; -1.7179427E+00;  0.0000000E+00; -1.6383090E+00;0;  2.4810363E-02;  2.7838592E+04;  0.0000000E+00; -4.7665825E+00;  4.0000000E+04;  0.0000000E+00;  3.9903344E+04;  3.5871420E-02;  0.0000000E+00; -1.1061058E-02;  1.1035609E+04;
  7.1836102E-01;  9.9999998E-03; -2.6034212E-01;6781;  8.6063398E-03;  0.0000000E+00; -1.0157820E-02;  9.9770374E+02;  1.1970442E-01; -1.9024136E+03;3; -1.7863470E+00;  0.0000000E+00; -1.6086457E+00;0;  1.4743459E-02;  2.7847047E+04;  0.0000000E+00; -2.8357236E+00;  4.0000000E+04;  0.0000000E+00;  3.9906426E+04;  2.7100682E-02;  0.0000000E+00; -1.2357223E-02;  7.6242539E+03;
  7.1821547E-01;  9.9999998E-03; -2.5033593E-01;6782;  7.5739347E-03;  0.0000000E+00; -1.0142260E-02;  9.9758752E+02;  1.1964690E-01; -1.9987072E+03;3; -1.8003801E+00;  0.0000000E+00; -1.5775160E+00;0;  2.8353864E-03;  2.7870221E+04;  0.0000000E+00; -1.3832681E+00;  4.0000000E+04;  0.0000000E+00;  3.9902074E+04;  1.7492756E-02;  0.0000000E+00; -1.4657370E-02;  4.8675786E+03;
  7.1808547E-01;  9.9999998E-03; -2.4033552E-01;6783;  6.5172925E-03;  0.0000000E+00; -1.0273746E-02;  9.9752222E+02;  1.1959382E-01; -2.0527795E+03;3; -1.7634355E+00;  0.0000000E+00; -1.5777500E+00;0; -7.1255132E-03;  2.7893252E+04;  0.0000000E+00; -4.2090985E-01;  4.0000000E+04;  0.0000000E+00;  3.9898352E+04;  7.2139329E-03;  0.0000000E+00; -1.4339446E-02;  3.1709397E+03;
  7.1798038E-01;  9.9999998E-03; -2.3035392E-01;6784;  5.4179537E-03;  0.0000000E+00; -1.0431853E-02;  9.9748383E+02;  1.1954912E-01; -2.0845811E+03;3; -1.7549957E+00;  0.0000000E+00; -1.5657721E+00;0; -1.6567890E-02;  2.7914229E+04;  0.0000000E+00;  1.6016282E-01;  4.0000000E+04;  0.0000000E+00;  3.9892711E+04; -3.6483086E-03;  0.0000000E+00; -1.2919581E-02;  2.0215380E+03;
  7.1788692E-01;  9.9999998E-03; -2.2039756E-01;6785;  4.2725722E-03;  0.0000000E+00; -1.0630303E-02;  9.9748657E+02;  1.1950796E-01; -2.0823096E+03;3; -1.7292535E+00;  0.0000000E+00; -1.5619975E+00;0; -2.5701661E-02;  2.7935625E+04;  0.0000000E+00;  4.8531359E-01;  4.0000000E+04;  0.0000000E+00;  3.9887797E+04; -1.4996509E-02;  0.0000000E+00; -1.0705151E-02;  1.3659230E+03;
  7.1780473E-01;  9.9999998E-03; -2.1043108E-01;6786;  3.0673221E-03;  0.0000000E+00; -1.0859569E-02;  9.9758221E+02;  1.1946791E-01; -2.0031021E+03;3; -1.6949047E+00;  0.0000000E+00; -1.5809666E+00;0; -3.4661636E-02;  2.7957160E+04;  0.0000000E+00;  6.5225375E-01;  4.0000000E+04;  0.0000000E+00;  3.9888461E+04; -2.6739616E-02;  0.0000000E+00; -7.9220179E-03;  1.5712406E+03;
  7.1773279E-01;  9.9999998E-03; -2.0043367E-01;6787;  1.7974400E-03;  0.0000000E+00; -1.1054661E-02;  9.9771948E+02;  1.1942969E-01; -1.8893770E+03;3; -1.7108501E+00;  0.0000000E+00; -1.6018405E+00;0; -4.3434251E-02;  2.7978424E+04;  0.0000000E+00;  7.2608513E-01;  4.0000000E+04;  0.0000000E+00;  3.9891770E+04; -3.8754828E-02;  0.0000000E+00; -4.6794228E-03;  1.9922526E+03;
  7.1768034E-01;  9.9999998E-03; -1.9042042E-01;6788;  4.7110094E-04;  0.0000000E+00; -1.1194677E-02;  9.9782202E+02;  1.1939494E-01; -1.8043917E+03;3; -1.7457136E+00;  0.0000000E+00; -1.6220764E+00;0; -5.1804926E-02;  2.7997354E+04;  0.0000000E+00;  7.4552619E-01;  4.0000000E+04;  0.0000000E+00;  3.9893281E+04; -5.0864492E-02;  0.0000000E+00; -9.4043504E-04;  2.1849636E+03;
  7.1765625E-01;  9.9999998E-03; -1.8040352E-01;6789; -9.0156175E-04;  0.0000000E+00; -1.1286865E-02;  9.9786829E+02;  1.1936641E-01; -1.7660719E+03;3; -1.8167206E+00;  0.0000000E+00; -1.6403407E+00;0; -5.9579674E-02;  2.8012088E+04;  0.0000000E+00;  7.3268926E-01;  4.0000000E+04;  0.0000000E+00;  3.9892820E+04; -6.2906392E-02;  0.0000000E+00;  3.3267194E-03;  2.1346592E+03;
  7.1765977E-01;  9.9999998E-03; -1.7038868E-01;6790; -2.3083244E-03;  0.0000000E+00; -1.1329124E-02;  9.9785913E+02;  1.1934421E-01; -1.7736766E+03;3; -1.9238107E+00;  0.0000000E+00; -1.6376961E+00;0; -6.6640511E-02;  2.8021334E+04;  0.0000000E+00;  7.0061898E-01;  4.0000000E+04;  0.0000000E+00;  3.9891039E+04; -7.4758373E-02;  0.0000000E+00;  8.1178639E-03;  1.9404598E+03;
  7.1768683E-01;  9.9999998E-03; -1.6037670E-01;6791; -3.7387714E-03;  0.0000000E+00; -1.1308855E-02;  9.9778436E+02;  1.1932784E-01; -1.8356007E+03;3; -2.0726910E+00;  0.0000000E+00; -1.6062999E+00;0; -7.2940037E-02;  2.8024820E+04;  0.0000000E+00;  6.5871018E-01;  4.0000000E+04;  0.0000000E+00;  3.9888867E+04; -8.6341448E-02;  0.0000000E+00;  1.3401409E-02;  1.6986222E+03;
  7.1773285E-01;  9.9999998E-03; -1.5036699E-01;6792; -5.1738149E-03;  0.0000000E+00; -1.1223643E-02;  9.9764966E+02;  1.1931631E-01; -1.9472024E+03;3; -2.2463288E+00;  0.0000000E+00; -1.5582615E+00;0; -7.8491040E-02;  2.8022484E+04;  0.0000000E+00;  6.1385328E-01;  4.0000000E+04;  0.0000000E+00;  3.9886805E+04; -9.7609363E-02;  0.0000000E+00;  1.9118322E-02;  1.4783239E+03;
  7.1779382E-01;  9.9999998E-03; -1.4035653E-01;6793; -6.5984721E-03;  0.0000000E+00; -1.1068229E-02;  9.9745770E+02;  1.1931024E-01; -2.1062595E+03;3; -2.4328868E+00;  0.0000000E+00; -1.4999173E+00;0; -8.3345026E-02;  2.8014814E+04;  0.0000000E+00;  5.6905735E-01;  4.0000000E+04;  0.0000000E+00;  3.9885242E+04; -1.0853861E-01;  0.0000000E+00;  2.5193589E-02;  1.3166729E+03;
  7.1786338E-01;  9.9999998E-03; -1.3034332E-01;6794; -7.9964940E-03;  0.0000000E+00; -1.0835143E-02;  9.9722784E+02;  1.1930790E-01; -2.2966738E+03;3; -2.6446145E+00;  0.0000000E+00; -1.4081289E+00;0; -8.7547041E-02;  2.8002660E+04;  0.0000000E+00;  5.2361602E-01;  4.0000000E+04;  0.0000000E+00;  3.9884449E+04; -1.1910490E-01;  0.0000000E+00;  3.1557858E-02;  1.2197926E+03;
  7.1793318E-01;  9.9999998E-03; -1.2032747E-01;6795; -9.3510821E-03;  0.0000000E+00; -1.0531631E-02;  9.9697290E+02;  1.1930835E-01; -2.5078774E+03;3; -2.8627586E+00;  0.0000000E+00; -1.2965707E+00;0; -9.1123492E-02;  2.7987961E+04;  0.0000000E+00;  4.7597995E-01;  4.0000000E+04;  0.0000000E+00;  3.9884207E+04; -1.2927184E-01;  0.0000000E+00;  3.8148347E-02;  1.1815028E+03;
  7.1799570E-01;  9.9999998E-03; -1.1030944E-01;6796; -1.0645462E-02;  0.0000000E+00; -1.0153010E-02;  9.9670575E+02;  1.1930906E-01; -2.7292043E+03;3; -3.0730512E+00;  0.0000000E+00; -1.1916962E+00;0; -9.4111770E-02;  2.7972090E+04;  0.0000000E+00;  4.2495289E-01;  4.0000000E+04;  0.0000000E+00;  3.9884766E+04; -1.3899110E-01;  0.0000000E+00;  4.4879332E-02;  1.1996699E+03;
  7.2994435E-01;  9.9999998E-03; -2.7042747E-01;6841;  9.5169973E-03;  0.0000000E+00; -8.6955810E-03;  9.9759473E+02;  1.2324630E-01; -1.9927316E+03;3; -1.7053683E+00;  0.0000000E+00; -1.6568034E+00;0;  4.0924504E-02;  2.6283578E+04;  0.0000000E+00; -4.4373026E+00;  4.0000000E+04;  0.0000000E+00;  3.9884352E+04;  5.4185972E-02;  0.0000000E+00; -1.3261466E-02;  1.0716889E+04;
  7.3001397E-01;  9.9999998E-03; -2.6041266E-01;6842;  8.4657036E-03;  0.0000000E+00; -8.8601252E-03;  9.9754395E+02;  1.2325568E-01; -2.0348043E+03;3; -1.7375482E+00;  0.0000000E+00; -1.6207505E+00;0;  2.8430074E-02;  2.6277023E+04;  0.0000000E+00; -2.7599621E+00;  4.0000000E+04;  0.0000000E+00;  3.9884156E+04;  4.4020735E-02;  0.0000000E+00; -1.5590659E-02;  7.5291118E+03;
  7.3007458E-01;  9.9999998E-03; -2.5040728E-01;6843;  7.3857228E-03;  0.0000000E+00; -8.9012263E-03;  9.9744843E+02;  1.2325750E-01; -2.1139131E+03;3; -1.7010599E+00;  0.0000000E+00; -1.6030424E+00;0;  1.5622273E-02;  2.6275006E+04;  0.0000000E+00; -1.4172994E+00;  4.0000000E+04;  0.0000000E+00;  3.9879055E+04;  3.3024836E-02;  0.0000000E+00; -1.7402563E-02;  4.8116714E+03;
  7.3011833E-01;  9.9999998E-03; -2.4039648E-01;6844;  6.2702158E-03;  0.0000000E+00; -9.1589941E-03;  9.9745551E+02;  1.2325621E-01; -2.1080862E+03;3; -1.6721036E+00;  0.0000000E+00; -1.5823414E+00;0;  4.7204010E-03;  2.6276352E+04;  0.0000000E+00; -4.8563370E-01;  4.0000000E+04;  0.0000000E+00;  3.9878832E+04;  2.1226831E-02;  0.0000000E+00; -1.6506430E-02;  3.3997449E+03;
  7.3014259E-01;  9.9999998E-03; -2.3040122E-01;6845;  5.1053017E-03;  0.0000000E+00; -9.3610194E-03;  9.9746344E+02;  1.2324933E-01; -2.1014690E+03;3; -1.6461612E+00;  0.0000000E+00; -1.5609108E+00;0; -6.3803047E-03;  2.6281787E+04;  0.0000000E+00;  1.0024834E-01;  4.0000000E+04;  0.0000000E+00;  3.9875168E+04;  8.7491702E-03;  0.0000000E+00; -1.5129475E-02;  2.4401277E+03;
  7.3013651E-01;  9.9999998E-03; -2.2043800E-01;6846;  3.8813753E-03;  0.0000000E+00; -9.5656225E-03;  9.9748279E+02;  1.2323223E-01; -2.0854695E+03;3; -1.5927665E+00;  0.0000000E+00; -1.5549805E+00;0; -1.7325761E-02;  2.6293314E+04;  0.0000000E+00;  4.4199714E-01;  4.0000000E+04;  0.0000000E+00;  3.9869055E+04; -4.2528468E-03;  0.0000000E+00; -1.3072914E-02;  1.6068184E+03;
  7.3010767E-01;  9.9999998E-03; -2.1047938E-01;6847;  2.5871277E-03;  0.0000000E+00; -9.8063163E-03;  9.9758698E+02;  1.2320585E-01; -1.9991511E+03;3; -1.5290468E+00;  0.0000000E+00; -1.5626829E+00;0; -2.8045813E-02;  2.6309785E+04;  0.0000000E+00;  6.2638462E-01;  4.0000000E+04;  0.0000000E+00;  3.9867453E+04; -1.7629961E-02;  0.0000000E+00; -1.0415852E-02;  1.4944458E+03;
  7.3005193E-01;  9.9999998E-03; -2.0050082E-01;6848;  1.2151130E-03;  0.0000000E+00; -1.0030756E-02;  9.9773901E+02;  1.2316900E-01; -1.8731794E+03;3; -1.5053191E+00;  0.0000000E+00; -1.5964864E+00;0; -3.8521066E-02;  2.6331074E+04;  0.0000000E+00;  7.1600920E-01;  4.0000000E+04;  0.0000000E+00;  3.9868805E+04; -3.1223854E-02;  0.0000000E+00; -7.2972123E-03;  1.7365712E+03;
  7.2997075E-01;  9.9999998E-03; -1.9049755E-01;6849; -2.2838819E-04;  0.0000000E+00; -1.0206990E-02;  9.9788477E+02;  1.2312219E-01; -1.7524423E+03;3; -1.4937638E+00;  0.0000000E+00; -1.6343570E+00;0; -4.8548661E-02;  2.6356316E+04;  0.0000000E+00;  7.5111216E-01;  4.0000000E+04;  0.0000000E+00;  3.9869953E+04; -4.4838548E-02;  0.0000000E+00; -3.7101142E-03;  1.9084370E+03;
  7.2989714E-01;  9.9999998E-03; -1.8048388E-01;6850; -1.7294652E-03;  0.0000000E+00; -1.0330657E-02;  9.9798572E+02;  1.2307648E-01; -1.6687904E+03;3; -1.5480962E+00;  0.0000000E+00; -1.6591405E+00;0; -5.7894178E-02;  2.6380430E+04;  0.0000000E+00;  7.5635421E-01;  4.0000000E+04;  0.0000000E+00;  3.9869637E+04; -5.8255348E-02;  0.0000000E+00;  3.6116934E-04;  1.8812769E+03;
  7.2985047E-01;  9.9999998E-03; -1.7046402E-01;6851; -3.2703795E-03;  0.0000000E+00; -1.0403197E-02;  9.9803009E+02;  1.2303509E-01; -1.6320508E+03;3; -1.6432023E+00;  0.0000000E+00; -1.6801751E+00;0; -6.6415429E-02;  2.6399898E+04;  0.0000000E+00;  7.4680948E-01;  4.0000000E+04;  0.0000000E+00;  3.9867871E+04; -7.1321815E-02;  0.0000000E+00;  4.9063880E-03;  1.7322637E+03;
  7.2984242E-01;  9.9999998E-03; -1.6044149E-01;6852; -4.8376243E-03;  0.0000000E+00; -1.0419483E-02;  9.9801428E+02;  1.2300442E-01; -1.6451368E+03;3; -1.8004934E+00;  0.0000000E+00; -1.6632000E+00;0; -7.4055843E-02;  2.6412168E+04;  0.0000000E+00;  7.3235774E-01;  4.0000000E+04;  0.0000000E+00;  3.9865645E+04; -8.3943479E-02;  0.0000000E+00;  9.8876376E-03;  1.5646395E+03;
  7.2987086E-01;  9.9999998E-03; -1.5041949E-01;6853; -6.4106244E-03;  0.0000000E+00; -1.0376762E-02;  9.9794202E+02;  1.2298482E-01; -1.7049869E+03;3; -1.9777535E+00;  0.0000000E+00; -1.6278583E+00;0; -8.0831334E-02;  2.6416920E+04;  0.0000000E+00;  7.1900082E-01;  4.0000000E+04;  0.0000000E+00;  3.9863664E+04; -9.6078113E-02;  0.0000000E+00;  1.5246776E-02;  1.4542937E+03;
  7.2992694E-01;  9.9999998E-03; -1.4039719E-01;6854; -7.9733096E-03;  0.0000000E+00; -1.0269258E-02;  9.9781476E+02;  1.2297346E-01; -1.8104159E+03;3; -2.1833861E+00;  0.0000000E+00; -1.5725416E+00;0; -8.6803809E-02;  2.6414822E+04;  0.0000000E+00;  7.0759201E-01;  4.0000000E+04;  0.0000000E+00;  3.9862109E+04; -1.0772227E-01;  0.0000000E+00;  2.0918462E-02;  1.4177570E+03;
  7.2999954E-01;  9.9999998E-03; -1.3037392E-01;6855; -9.5091388E-03;  0.0000000E+00; -1.0094346E-02;  9.9764612E+02;  1.2296856E-01; -1.9501649E+03;3; -2.3843305E+00;  0.0000000E+00; -1.5075407E+00;0; -9.2029132E-02;  2.6407400E+04;  0.0000000E+00;  6.9339854E-01;  4.0000000E+04;  0.0000000E+00;  3.9861680E+04; -1.1887686E-01;  0.0000000E+00;  2.6847728E-02;  1.4248000E+03;
  7.3007625E-01;  9.9999998E-03; -1.2034860E-01;6856; -1.1003128E-02;  0.0000000E+00; -9.8456722E-03;  9.9744684E+02;  1.2296758E-01; -2.1152463E+03;3; -2.6182237E+00;  0.0000000E+00; -1.4040530E+00;0; -9.6543126E-02;  2.6396518E+04;  0.0000000E+00;  6.6944444E-01;  4.0000000E+04;  0.0000000E+00;  3.9861840E+04; -1.2953246E-01;  0.0000000E+00;  3.2989331E-02;  1.4443807E+03;
  7.3014694E-01;  9.9999998E-03; -1.1032192E-01;6857; -1.2436369E-02;  0.0000000E+00; -9.5233470E-03;  9.9723761E+02;  1.2296794E-01; -2.2885747E+03;3; -2.8266671E+00;  0.0000000E+00; -1.3060707E+00;0; -1.0038718E-01;  2.6383916E+04;  0.0000000E+00;  6.3002932E-01;  4.0000000E+04;  0.0000000E+00;  3.9863035E+04; -1.3966231E-01;  0.0000000E+00;  3.9275132E-02;  1.4699963E+03;
  7.4197668E-01;  9.9999998E-03; -2.7049404E-01;6902;  9.4412388E-03;  0.0000000E+00; -7.3325587E-03;  9.9709601E+02;  1.2709929E-01; -2.4059043E+03;3; -1.6988828E+00;  0.0000000E+00; -1.7063282E+00;0;  6.0213145E-02;  2.4705168E+04;  0.0000000E+00; -2.1123748E+00;  4.0000000E+04;  0.0000000E+00;  3.9867117E+04;  7.5019456E-02;  0.0000000E+00; -1.4806312E-02;  6.6647720E+03;
  7.4201721E-01;  9.9999998E-03; -2.6047817E-01;6903;  8.3716856E-03;  0.0000000E+00; -7.4676494E-03;  9.9706952E+02;  1.2709917E-01; -2.4278293E+03;3; -1.6782767E+00;  0.0000000E+00; -1.7057370E+00;0;  4.5047145E-02;  2.4705180E+04;  0.0000000E+00; -1.5673854E+00;  4.0000000E+04;  0.0000000E+00;  3.9864418E+04;  6.2940650E-02;  0.0000000E+00; -1.7893504E-02;  5.5776743E+03;
  7.4206930E-01;  9.9999998E-03; -2.5046447E-01;6904;  7.2541465E-03;  0.0000000E+00; -7.6480294E-03;  9.9704773E+02;  1.2709978E-01; -2.4459031E+03;3; -1.6374593E+00;  0.0000000E+00; -1.6505949E+00;0;  3.1035477E-02;  2.4706814E+04;  0.0000000E+00; -9.5265675E-01;  4.0000000E+04;  0.0000000E+00;  3.9861031E+04;  5.0018806E-02;  0.0000000E+00; -1.8983329E-02;  4.3538770E+03;
  7.4211049E-01;  9.9999998E-03; -2.4043569E-01;6905;  6.0999910E-03;  0.0000000E+00; -8.0175325E-03;  9.9714148E+02;  1.2709661E-01; -2.3682263E+03;3; -1.6056925E+00;  0.0000000E+00; -1.6268960E+00;0;  1.8349363E-02;  2.4711844E+04;  0.0000000E+00; -4.1053525E-01;  4.0000000E+04;  0.0000000E+00;  3.9863957E+04;  3.6272921E-02;  0.0000000E+00; -1.7923558E-02;  4.0192966E+03;
  7.4215382E-01;  9.9999998E-03; -2.3041539E-01;6906;  4.8788632E-03;  0.0000000E+00; -8.2509192E-03;  9.9721680E+02;  1.2709397E-01; -2.3058083E+03;3; -1.5262359E+00;  0.0000000E+00; -1.5924158E+00;0;  5.0613005E-03;  2.4718189E+04;  0.0000000E+00; -4.6112324E-04;  4.0000000E+04;  0.0000000E+00;  3.9862293E+04;  2.1872135E-02;  0.0000000E+00; -1.6810834E-02;  3.4762297E+03;
  7.4218571E-01;  9.9999998E-03; -2.2042511E-01;6907;  3.5759786E-03;  0.0000000E+00; -8.4488792E-03;  9.9727441E+02;  1.2708713E-01; -2.2581060E+03;3; -1.4284004E+00;  0.0000000E+00; -1.5770930E+00;0; -8.0386307E-03;  2.4728041E+04;  0.0000000E+00;  2.7569738E-01;  4.0000000E+04;  0.0000000E+00;  3.9855332E+04;  6.9967024E-03;  0.0000000E+00; -1.5035333E-02;  2.5095496E+03;
  7.4219006E-01;  9.9999998E-03; -2.1045217E-01;6908;  2.1838862E-03;  0.0000000E+00; -8.6838165E-03;  9.9738074E+02;  1.2706958E-01; -2.1700100E+03;3; -1.3463916E+00;  0.0000000E+00; -1.5882007E+00;0; -2.0764437E-02;  2.4742904E+04;  0.0000000E+00;  4.4481230E-01;  4.0000000E+04;  0.0000000E+00;  3.9849973E+04; -8.1802877E-03;  0.0000000E+00; -1.2584150E-02;  1.8370519E+03;
  7.4217999E-01;  9.9999998E-03; -2.0048034E-01;6909;  7.0283690E-04;  0.0000000E+00; -8.9182938E-03;  9.9754504E+02;  1.2704642E-01; -2.0338658E+03;3; -1.2454749E+00;  0.0000000E+00; -1.6424482E+00;0; -3.3093132E-02;  2.4761051E+04;  0.0000000E+00;  5.3730297E-01;  4.0000000E+04;  0.0000000E+00;  3.9847570E+04; -2.3443364E-02;  0.0000000E+00; -9.6497703E-03;  1.5546172E+03;
  7.4214393E-01;  9.9999998E-03; -1.9049464E-01;6910; -8.6587470E-04;  0.0000000E+00; -9.1101434E-03;  9.9772083E+02;  1.2701201E-01; -1.8882405E+03;3; -1.1835539E+00;  0.0000000E+00; -1.7262219E+00;0; -4.4874892E-02;  2.4783348E+04;  0.0000000E+00;  5.8031017E-01;  4.0000000E+04;  0.0000000E+00;  3.9846262E+04; -3.8595002E-02;  0.0000000E+00; -6.2798890E-03;  1.4530568E+03;
  7.4209154E-01;  9.9999998E-03; -1.8049146E-01;6911; -2.5070773E-03;  0.0000000E+00; -9.2506185E-03;  9.9787946E+02;  1.2696826E-01; -1.7568369E+03;3; -1.2643687E+00;  0.0000000E+00; -1.7521631E+00;0; -5.5894691E-02;  2.4807912E+04;  0.0000000E+00;  5.9645194E-01;  4.0000000E+04;  0.0000000E+00;  3.9844949E+04; -5.3422470E-02;  0.0000000E+00; -2.4722230E-03;  1.3493077E+03;
  7.4206007E-01;  9.9999998E-03; -1.7048298E-01;6912; -4.1911984E-03;  0.0000000E+00; -9.3414737E-03;  9.9800391E+02;  1.2692876E-01; -1.6537289E+03;3; -1.3487935E+00;  0.0000000E+00; -1.7718436E+00;0; -6.5983422E-02;  2.4829354E+04;  0.0000000E+00;  6.0319394E-01;  4.0000000E+04;  0.0000000E+00;  3.9843191E+04; -6.7728445E-02;  0.0000000E+00;  1.7450253E-03;  1.2257241E+03;
  7.4204862E-01;  9.9999998E-03; -1.6046916E-01;6913; -5.8992542E-03;  0.0000000E+00; -9.3840212E-03;  9.9807147E+02;  1.2689398E-01; -1.5977306E+03;3; -1.4879291E+00;  0.0000000E+00; -1.7744839E+00;0; -7.5078756E-02;  2.4846527E+04;  0.0000000E+00;  6.1310524E-01;  4.0000000E+04;  0.0000000E+00;  3.9841105E+04; -8.1412695E-02;  0.0000000E+00;  6.3339397E-03;  1.1667123E+03;
  7.4205846E-01;  9.9999998E-03; -1.5045018E-01;6914; -7.6135397E-03;  0.0000000E+00; -9.3749836E-03;  9.9808948E+02;  1.2686396E-01; -1.5828174E+03;3; -1.6694630E+00;  0.0000000E+00; -1.7530204E+00;0; -8.3191827E-02;  2.4858596E+04;  0.0000000E+00;  6.3219047E-01;  4.0000000E+04;  0.0000000E+00;  3.9839582E+04; -9.4432913E-02;  0.0000000E+00;  1.1241089E-02;  1.2156533E+03;
  7.4209213E-01;  9.9999998E-03; -1.4042526E-01;6915; -9.3173468E-03;  0.0000000E+00; -9.3100285E-03;  9.9805756E+02;  1.2684186E-01; -1.6092858E+03;3; -1.9106655E+00;  0.0000000E+00; -1.6818472E+00;0; -9.0385586E-02;  2.4864758E+04;  0.0000000E+00;  6.5880358E-01;  4.0000000E+04;  0.0000000E+00;  3.9838719E+04; -1.0679507E-01;  0.0000000E+00;  1.6409488E-02;  1.3380778E+03;
  7.4214661E-01;  9.9999998E-03; -1.3039388E-01;6916; -1.0994842E-02;  0.0000000E+00; -9.1791432E-03;  9.9798328E+02;  1.2682652E-01; -1.6708148E+03;3; -2.1201069E+00;  0.0000000E+00; -1.6257290E+00;0; -9.6727684E-02;  2.4865309E+04;  0.0000000E+00;  6.8420655E-01;  4.0000000E+04;  0.0000000E+00;  3.9838891E+04; -1.1852434E-01;  0.0000000E+00;  2.1796647E-02;  1.4748311E+03;
  7.4221385E-01;  9.9999998E-03; -1.2035918E-01;6917; -1.2630298E-02;  0.0000000E+00; -8.9805182E-03;  9.9788409E+02;  1.2681894E-01; -1.7529852E+03;3; -2.3600385E+00;  0.0000000E+00; -1.5160556E+00;0; -1.0226391E-01;  2.4861418E+04;  0.0000000E+00;  6.9598299E-01;  4.0000000E+04;  0.0000000E+00;  3.9840008E+04; -1.2963288E-01;  0.0000000E+00;  2.7368965E-02;  1.5913518E+03;
  7.4228561E-01;  9.9999998E-03; -1.1032375E-01;6918; -1.4206957E-02;  0.0000000E+00; -8.7098684E-03;  9.9777295E+02;  1.2681650E-01; -1.8450813E+03;3; -2.5935361E+00;  0.0000000E+00; -1.4092958E+00;0; -1.0704486E-01;  2.4854436E+04;  0.0000000E+00;  6.8350655E-01;  4.0000000E+04;  0.0000000E+00;  3.9841848E+04; -1.4011705E-01;  0.0000000E+00;  3.3072185E-02;  1.6839896E+03;
  7.5476426E-01;  9.9999998E-03; -2.7056605E-01;6963;  9.5929606E-03;  0.0000000E+00; -5.6629097E-03;  9.9667432E+02;  1.3134730E-01; -2.7552756E+03;3; -1.6468557E+00;  0.0000000E+00; -1.8279649E+00;0;  8.0115102E-02;  2.3129631E+04;  0.0000000E+00;  9.9840957E-01;  4.0000000E+04;  0.0000000E+00;  3.9845742E+04;  9.6657790E-02;  0.0000000E+00; -1.6542688E-02;  4.6530708E+03;
  7.5496864E-01;  9.9999998E-03; -2.6055014E-01;6964;  8.4691597E-03;  0.0000000E+00; -5.7780468E-03;  9.9671033E+02;  1.3139151E-01; -2.7254495E+03;3; -1.6552169E+00;  0.0000000E+00; -1.8042206E+00;0;  6.2768325E-02;  2.3119295E+04;  0.0000000E+00;  1.0334466E-01;  4.0000000E+04;  0.0000000E+00;  3.9839930E+04;  8.2790017E-02;  0.0000000E+00; -2.0021696E-02;  3.4833103E+03;
  7.5521940E-01;  9.9999998E-03; -2.5053144E-01;6965;  7.3055956E-03;  0.0000000E+00; -6.0998821E-03;  9.9680157E+02;  1.3144511E-01; -2.6498467E+03;3; -1.5973035E+00;  0.0000000E+00; -1.7470844E+00;0;  4.7742955E-02;  2.3107539E+04;  0.0000000E+00; -2.4234338E-01;  4.0000000E+04;  0.0000000E+00;  3.9836602E+04;  6.8008281E-02;  0.0000000E+00; -2.0265324E-02;  3.2825542E+03;
  7.5536388E-01;  9.9999998E-03; -2.4049273E-01;6966;  6.1217141E-03;  0.0000000E+00; -6.5739998E-03;  9.9698724E+02;  1.3146858E-01; -2.4960242E+03;3; -1.5130665E+00;  0.0000000E+00; -1.7080761E+00;0;  3.3090312E-02;  2.3107174E+04;  0.0000000E+00; -2.3551245E-01;  4.0000000E+04;  0.0000000E+00;  3.9840660E+04;  5.2205294E-02;  0.0000000E+00; -1.9114982E-02;  3.7901133E+03;
  7.5537604E-01;  9.9999998E-03; -2.3045364E-01;6967;  4.8369952E-03;  0.0000000E+00; -6.8812659E-03;  9.9712830E+02;  1.3145687E-01; -2.3791389E+03;3; -1.3641175E+00;  0.0000000E+00; -1.6705240E+00;0;  1.7360641E-02;  2.3119020E+04;  0.0000000E+00; -9.5199533E-02;  4.0000000E+04;  0.0000000E+00;  3.9840391E+04;  3.5598740E-02;  0.0000000E+00; -1.8238099E-02;  3.6623274E+03;
  7.5533611E-01;  9.9999998E-03; -2.2043370E-01;6968;  3.4411133E-03;  0.0000000E+00; -7.1253083E-03;  9.9723077E+02;  1.3142803E-01; -2.2942524E+03;3; -1.1442020E+00;  0.0000000E+00; -1.7291406E+00;0;  1.7710477E-03;  2.3137982E+04;  0.0000000E+00;  6.0102738E-02;  4.0000000E+04;  0.0000000E+00;  3.9834605E+04;  1.8545335E-02;  0.0000000E+00; -1.6774287E-02;  2.8711382E+03;
  7.5526619E-01;  9.9999998E-03; -2.1042986E-01;6969;  1.9203444E-03;  0.0000000E+00; -7.3708585E-03;  9.9735382E+02;  1.3138728E-01; -2.1923296E+03;3; -9.6068412E-01;  0.0000000E+00; -1.8236810E+00;0; -1.3329037E-02;  2.3161910E+04;  0.0000000E+00;  1.8089873E-01;  4.0000000E+04;  0.0000000E+00;  3.9828723E+04;  1.3121216E-03;  0.0000000E+00; -1.4641158E-02;  2.0449424E+03;
  7.5517505E-01;  9.9999998E-03; -2.0043717E-01;6970;  2.9699737E-04;  0.0000000E+00; -7.6121739E-03;  9.9750903E+02;  1.3133949E-01; -2.0636914E+03;3; -8.1526053E-01;  0.0000000E+00; -1.8606755E+00;0; -2.7830601E-02;  2.3189355E+04;  0.0000000E+00;  2.5438133E-01;  4.0000000E+04;  0.0000000E+00;  3.9824254E+04; -1.5844151E-02;  0.0000000E+00; -1.1986449E-02;  1.4078521E+03;
  7.5506306E-01;  9.9999998E-03; -1.9044733E-01;6971; -1.4301714E-03;  0.0000000E+00; -7.8171147E-03;  9.9768787E+02;  1.3128249E-01; -1.9155477E+03;3; -8.5109764E-01;  0.0000000E+00; -1.8739830E+00;0; -4.1588210E-02;  2.3219387E+04;  0.0000000E+00;  2.8811353E-01;  4.0000000E+04;  0.0000000E+00;  3.9821219E+04; -3.2681253E-02;  0.0000000E+00; -8.9069568E-03;  9.7128674E+02;
  7.5494552E-01;  9.9999998E-03; -1.8045118E-01;6972; -3.2258560E-03;  0.0000000E+00; -7.9752496E-03;  9.9785864E+02;  1.3122162E-01; -1.7740704E+03;3; -8.7865067E-01;  0.0000000E+00; -1.9105835E+00;0; -5.4420575E-02;  2.3249932E+04;  0.0000000E+00;  2.9943857E-01;  4.0000000E+04;  0.0000000E+00;  3.9819094E+04; -4.8980094E-02;  0.0000000E+00; -5.4404810E-03;  6.6648236E+02;
  7.5484645E-01;  9.9999998E-03; -1.7045134E-01;6973; -5.0677517E-03;  0.0000000E+00; -8.0837114E-03;  9.9801105E+02;  1.3116391E-01; -1.6478026E+03;3; -1.0057926E+00;  0.0000000E+00; -1.9270711E+00;0; -6.6184670E-02;  2.3277717E+04;  0.0000000E+00;  3.0790558E-01;  4.0000000E+04;  0.0000000E+00;  3.9817328E+04; -6.4554729E-02;  0.0000000E+00; -1.6299430E-03;  4.7143295E+02;
  7.5478470E-01;  9.9999998E-03; -1.6044602E-01;6974; -6.9327704E-03;  0.0000000E+00; -8.1420029E-03;  9.9813385E+02;  1.3111445E-01; -1.5460773E+03;3; -1.1651741E+00;  0.0000000E+00; -1.9306887E+00;0; -7.6826662E-02;  2.3300387E+04;  0.0000000E+00;  3.2899404E-01;  4.0000000E+04;  0.0000000E+00;  3.9815957E+04; -7.9298504E-02;  0.0000000E+00;  2.4718398E-03;  4.8585455E+02;
  7.5480074E-01;  9.9999998E-03; -1.5043241E-01;6975; -8.8069346E-03;  0.0000000E+00; -8.1452141E-03;  9.9823260E+02;  1.3108554E-01; -1.4642526E+03;3; -1.3744576E+00;  0.0000000E+00; -1.8876861E+00;0; -8.6380176E-02;  2.3313869E+04;  0.0000000E+00;  3.6917040E-01;  4.0000000E+04;  0.0000000E+00;  3.9815000E+04; -9.3177602E-02;  0.0000000E+00;  6.7974222E-03;  6.8019281E+02;
  7.5487953E-01;  9.9999998E-03; -1.4041291E-01;6976; -1.0668349E-02;  0.0000000E+00; -8.0985092E-03;  9.9830939E+02;  1.3107625E-01; -1.4006495E+03;3; -1.6053581E+00;  0.0000000E+00; -1.8323690E+00;0; -9.4919629E-02;  2.3319146E+04;  0.0000000E+00;  4.2579964E-01;  4.0000000E+04;  0.0000000E+00;  3.9814902E+04; -1.0621635E-01;  0.0000000E+00;  1.1296719E-02;  9.2731061E+02;
  7.5498110E-01;  9.9999998E-03; -1.3038972E-01;6977; -1.2503366E-02;  0.0000000E+00; -7.9947552E-03;  9.9835968E+02;  1.3107230E-01; -1.3589718E+03;3; -1.8533921E+00;  0.0000000E+00; -1.7468388E+00;0; -1.0251063E-01;  2.3319805E+04;  0.0000000E+00;  4.8773867E-01;  4.0000000E+04;  0.0000000E+00;  3.9815949E+04; -1.1846194E-01;  0.0000000E+00;  1.5951315E-02;  1.1770105E+03;
  7.5509495E-01;  9.9999998E-03; -1.2036457E-01;6978; -1.4294702E-02;  0.0000000E+00; -7.8291697E-03;  9.9838666E+02;  1.3107395E-01; -1.3366021E+03;3; -2.1104453E+00;  0.0000000E+00; -1.6401567E+00;0; -1.0920697E-01;  2.3316861E+04;  0.0000000E+00;  5.3803664E-01;  4.0000000E+04;  0.0000000E+00;  3.9817848E+04; -1.2995201E-01;  0.0000000E+00;  2.0745039E-02;  1.4148722E+03;
  7.5520861E-01;  9.9999998E-03; -1.1033657E-01;6979; -1.6026346E-02;  0.0000000E+00; -7.5994073E-03;  9.9840271E+02;  1.3107868E-01; -1.3233185E+03;3; -2.3621190E+00;  0.0000000E+00; -1.5088249E+00;0; -1.1506505E-01;  2.3311654E+04;  0.0000000E+00;  5.6144017E-01;  4.0000000E+04;  0.0000000E+00;  3.9820570E+04; -1.4071076E-01;  0.0000000E+00;  2.5645699E-02;  1.6388618E+03;
  7.6865166E-01;  9.9999998E-03; -2.7065986E-01;7024;  1.0914331E-02;  0.0000000E+00; -2.9769358E-03;  9.9705707E+02;  1.3612583E-01; -2.4381487E+03;3; -1.0831821E+00;  0.0000000E+00; -1.8447124E+00;0;  9.0117581E-02;  2.1570268E+04;  0.0000000E+00;  2.3712773E+00;  4.0000000E+04;  0.0000000E+00;  3.9807371E+04;  1.1535221E-01;  0.0000000E+00; -2.5234627E-02;  6.9170542E+03;
  7.6886451E-01;  9.9999998E-03; -2.6065075E-01;7025;  9.4088353E-03;  0.0000000E+00; -3.2323243E-03;  9.9710663E+02;  1.3617751E-01; -2.3971128E+03;3; -1.1821513E+00;  0.0000000E+00; -1.7787962E+00;0;  7.3520727E-02;  2.1562180E+04;  0.0000000E+00;  7.5335002E-01;  4.0000000E+04;  0.0000000E+00;  3.9797031E+04;  9.9625751E-02;  0.0000000E+00; -2.6105026E-02;  2.3789338E+03;
  7.6915675E-01;  9.9999998E-03; -2.5063279E-01;7026;  7.9687294E-03;  0.0000000E+00; -4.0473836E-03;  9.9730853E+02;  1.3625185E-01; -2.2298093E+03;3; -1.2398601E+00;  0.0000000E+00; -1.8568786E+00;0;  6.0750455E-02;  2.1549010E+04;  0.0000000E+00; -6.1939999E-02;  4.0000000E+04;  0.0000000E+00;  3.9795445E+04;  8.2882836E-02;  0.0000000E+00; -2.2132380E-02;  1.0005700E+03;
  7.6931506E-01;  9.9999998E-03; -2.4058971E-01;7027;  6.6015702E-03;  0.0000000E+00; -4.8603136E-03;  9.9758600E+02;  1.3629137E-01; -1.9999397E+03;3; -1.0628368E+00;  0.0000000E+00; -2.0477464E+00;0;  4.5437515E-02;  2.1545943E+04;  0.0000000E+00; -2.9833478E-01;  4.0000000E+04;  0.0000000E+00;  3.9803555E+04;  6.5083079E-02;  0.0000000E+00; -1.9645562E-02;  2.2754817E+03;
  7.6931202E-01;  9.9999998E-03; -2.3053817E-01;7028;  5.2131293E-03;  0.0000000E+00; -5.3134500E-03;  9.9778857E+02;  1.3628122E-01; -1.8321422E+03;3; -7.9091811E-01;  0.0000000E+00; -2.1003084E+00;0;  2.7505286E-02;  2.1557336E+04;  0.0000000E+00; -2.7238733E-01;  4.0000000E+04;  0.0000000E+00;  3.9807699E+04;  4.6509232E-02;  0.0000000E+00; -1.9003946E-02;  2.7876284E+03;
  7.6923132E-01;  9.9999998E-03; -2.2048590E-01;7029;  3.6603212E-03;  0.0000000E+00; -5.6348746E-03;  9.9793561E+02;  1.3624436E-01; -1.7103187E+03;3; -6.0810548E-01;  0.0000000E+00; -2.0851717E+00;0;  9.4780680E-03;  2.1577559E+04;  0.0000000E+00; -1.7185740E-01;  4.0000000E+04;  0.0000000E+00;  3.9807297E+04;  2.7538676E-02;  0.0000000E+00; -1.8060608E-02;  2.6522073E+03;
  7.6909524E-01;  9.9999998E-03; -2.1044225E-01;7030;  1.9514977E-03;  0.0000000E+00; -5.9041842E-03;  9.9805219E+02;  1.3618807E-01; -1.6137291E+03;3; -4.1571537E-01;  0.0000000E+00; -2.1273170E+00;0; -7.9966290E-03;  2.1604379E+04;  0.0000000E+00; -8.2722828E-02;  4.0000000E+04;  0.0000000E+00;  3.9803691E+04;  8.4894812E-03;  0.0000000E+00; -1.6486110E-02;  2.1252480E+03;
  7.6895738E-01;  9.9999998E-03; -2.0041345E-01;7031;  1.1600959E-04;  0.0000000E+00; -6.1316956E-03;  9.9816846E+02;  1.3612954E-01; -1.5173864E+03;3; -2.7486029E-01;  0.0000000E+00; -2.1915355E+00;0; -2.4670321E-02;  2.1632562E+04;  0.0000000E+00; -3.4987632E-02;  4.0000000E+04;  0.0000000E+00;  3.9799090E+04; -1.0319812E-02;  0.0000000E+00; -1.4350510E-02;  1.5119883E+03;
  7.6882237E-01;  9.9999998E-03; -1.9039840E-01;7032; -1.8388889E-03;  0.0000000E+00; -6.3107610E-03;  9.9830408E+02;  1.3606837E-01; -1.4050441E+03;3; -2.9788437E-01;  0.0000000E+00; -2.2039020E+00;0; -4.0380780E-02;  2.1661213E+04;  0.0000000E+00; -2.7185664E-02;  4.0000000E+04;  0.0000000E+00;  3.9795176E+04; -2.8617803E-02;  0.0000000E+00; -1.1762976E-02;  1.0285677E+03;
  7.6869953E-01;  9.9999998E-03; -1.8038319E-01;7033; -3.8544794E-03;  0.0000000E+00; -6.4452058E-03;  9.9844708E+02;  1.3600737E-01; -1.2865785E+03;3; -3.7884095E-01;  0.0000000E+00; -2.2210388E+00;0; -5.5005990E-02;  2.1688734E+04;  0.0000000E+00; -4.1654646E-02;  4.0000000E+04;  0.0000000E+00;  3.9792605E+04; -4.6196900E-02;  0.0000000E+00; -8.8090915E-03;  7.3586053E+02;
  7.6861495E-01;  9.9999998E-03; -1.7036490E-01;7034; -5.9080902E-03;  0.0000000E+00; -6.5317615E-03;  9.9858795E+02;  1.3595594E-01; -1.1698413E+03;3; -5.5866021E-01;  0.0000000E+00; -2.2051785E+00;0; -6.8451427E-02;  2.1712170E+04;  0.0000000E+00; -5.5180285E-02;  4.0000000E+04;  0.0000000E+00;  3.9790746E+04; -6.2875405E-02;  0.0000000E+00; -5.5760206E-03;  5.5292493E+02;
  7.6859707E-01;  9.9999998E-03; -1.6033757E-01;7035; -7.9758307E-03;  0.0000000E+00; -6.5704496E-03;  9.9872864E+02;  1.3592215E-01; -1.0533015E+03;3; -7.4116099E-01;  0.0000000E+00; -2.1994376E+00;0; -8.0696546E-02;  2.1728520E+04;  0.0000000E+00; -4.8406154E-02;  4.0000000E+04;  0.0000000E+00;  3.9790074E+04; -7.8551762E-02;  0.0000000E+00; -2.1447812E-03;  3.8609607E+02;
  7.6858777E-01;  9.9999998E-03; -1.5030830E-01;7036; -1.0035353E-02;  0.0000000E+00; -6.5718051E-03;  9.9884302E+02;  1.3588914E-01; -9.5853900E+02;3; -1.0049638E+00;  0.0000000E+00; -2.1322927E+00;0; -9.1737531E-02;  2.1742475E+04;  0.0000000E+00; -1.0692253E-02;  4.0000000E+04;  0.0000000E+00;  3.9790000E+04; -9.3178652E-02;  0.0000000E+00;  1.4411233E-03;  1.6538380E+02;
  7.6858532E-01;  9.9999998E-03; -1.4027549E-01;7037; -1.2069412E-02;  0.0000000E+00; -6.5340362E-03;  9.9893591E+02;  1.3585576E-01; -8.8155365E+02;3; -1.2800654E+00;  0.0000000E+00; -2.0472565E+00;0; -1.0163721E-01;  2.1754240E+04;  0.0000000E+00;  5.5856418E-02;  4.0000000E+04;  0.0000000E+00;  3.9791043E+04; -1.0678433E-01;  0.0000000E+00;  5.1471111E-03;  1.5390201E+02;
  7.6861078E-01;  9.9999998E-03; -1.3023984E-01;7038; -1.4067366E-02;  0.0000000E+00; -6.4486898E-03;  9.9901855E+02;  1.3582963E-01; -8.1311127E+02;3; -1.5687617E+00;  0.0000000E+00; -1.9223828E+00;0; -1.1048344E-01;  2.1761928E+04;  0.0000000E+00;  1.3754837E-01;  4.0000000E+04;  0.0000000E+00;  3.9793098E+04; -1.1943378E-01;  0.0000000E+00;  8.9503368E-03;  5.3576575E+02;
  7.6874971E-01;  9.9999998E-03; -1.2020073E-01;7039; -1.6026970E-02;  0.0000000E+00; -6.3019232E-03;  9.9913434E+02;  1.3584030E-01; -7.1716357E+02;3; -1.8315372E+00;  0.0000000E+00; -1.8129117E+00;0; -1.1841192E-01;  2.1758006E+04;  0.0000000E+00;  2.1290642E-01;  4.0000000E+04;  0.0000000E+00;  3.9796000E+04; -1.3120230E-01;  0.0000000E+00;  1.2790374E-02;  9.6624896E+02;
  7.6894456E-01;  9.9999998E-03; -1.1015907E-01;7040; -1.7931512E-02;  0.0000000E+00; -6.0948823E-03;  9.9925555E+02;  1.3587174E-01; -6.1677155E+02;3; -2.1095405E+00;  0.0000000E+00; -1.6582717E+00;0; -1.2546909E-01;  2.1747592E+04;  0.0000000E+00;  2.6515469E-01;  4.0000000E+04;  0.0000000E+00;  3.9799418E+04; -1.4213003E-01;  0.0000000E+00;  1.6660949E-02;  1.4127288E+03;
  7.8347141E-01;  9.9999998E-03; -2.7077103E-01;7085;  1.6592629E-02;  0.0000000E+00; -4.0527586E-05;  9.9836847E+02;  1.4155322E-01; -1.3517117E+03;3;  3.4825354E+00;  0.0000000E+00; -2.4705660E+00;0;  9.2003629E-02;  2.0014314E+04;  0.0000000E+00;  1.6259630E+00;  4.0000000E+04;  0.0000000E+00;  3.9757121E+04;  1.2284710E-01;  0.0000000E+00; -3.0843476E-02;  6.2500693E+03;
  7.8358805E-01;  9.9999998E-03; -2.6076183E-01;7086;  1.3814956E-02;  0.0000000E+00; -7.3893886E-04;  9.9845282E+02;  1.4157403E-01; -1.2817880E+03;3;  2.9132061E+00;  0.0000000E+00; -2.4258947E+00;0;  7.9291865E-02;  2.0016262E+04;  0.0000000E+00;  2.5644764E-01;  4.0000000E+04;  0.0000000E+00;  3.9749652E+04;  1.0637260E-01;  0.0000000E+00; -2.7080735E-02;  2.3515342E+03;
  7.8381556E-01;  9.9999998E-03; -2.5073794E-01;7087;  1.1754879E-02;  0.0000000E+00; -2.2525426E-03;  9.9873895E+02;  1.4163868E-01; -1.0447582E+03;3;  3.1322825E+00;  0.0000000E+00; -2.7816000E+00;0;  6.9562949E-02;  2.0007699E+04;  0.0000000E+00; -3.8224563E-01;  4.0000000E+04;  0.0000000E+00;  3.9754996E+04;  8.8496163E-02;  0.0000000E+00; -1.8933216E-02;  1.0814369E+03;
  7.8396273E-01;  9.9999998E-03; -2.4069875E-01;7088;  9.7034052E-03;  0.0000000E+00; -3.4145934E-03;  9.9903241E+02;  1.4168164E-01; -8.0160510E+02;3;  3.1664696E+00;  0.0000000E+00; -3.1358166E+00;0;  5.3085096E-02;  2.0004529E+04;  0.0000000E+00; -5.1231092E-01;  4.0000000E+04;  0.0000000E+00;  3.9764180E+04;  6.9659933E-02;  0.0000000E+00; -1.6574839E-02;  1.4667920E+03;
  7.8392518E-01;  9.9999998E-03; -2.3064932E-01;7089;  7.2273319E-03;  0.0000000E+00; -3.9433553E-03;  9.9922845E+02;  1.4166144E-01; -6.3919031E+02;3;  2.4131508E+00;  0.0000000E+00; -3.0770993E+00;0;  3.2624483E-02;  2.0017436E+04;  0.0000000E+00; -4.3092352E-01;  4.0000000E+04;  0.0000000E+00;  3.9770887E+04;  5.0251119E-02;  0.0000000E+00; -1.7626634E-02;  1.8902704E+03;
  7.8377211E-01;  9.9999998E-03; -2.2057776E-01;7090;  4.7856928E-03;  0.0000000E+00; -4.2168587E-03;  9.9937933E+02;  1.4160043E-01; -5.1420648E+02;3;  1.3378625E+00;  0.0000000E+00; -2.9836519E+00;0;  1.2038056E-02;  2.0041336E+04;  0.0000000E+00; -3.1872243E-01;  4.0000000E+04;  0.0000000E+00;  3.9775969E+04;  3.0401232E-02;  0.0000000E+00; -1.8363176E-02;  2.2024099E+03;
  7.8355747E-01;  9.9999998E-03; -2.1050271E-01;7091;  2.4832678E-03;  0.0000000E+00; -4.3448508E-03;  9.9945941E+02;  1.4151695E-01; -4.4788751E+02;3;  9.2533392E-01;  0.0000000E+00; -2.9270713E+00;0; -7.6832883E-03;  2.0071643E+04;  0.0000000E+00; -2.4347359E-01;  4.0000000E+04;  0.0000000E+00;  3.9776141E+04;  1.0444321E-02;  0.0000000E+00; -1.8127609E-02;  2.0892129E+03;
  7.8334224E-01;  9.9999998E-03; -2.0044458E-01;7092;  2.0548943E-04;  0.0000000E+00; -4.4364138E-03;  9.9950305E+02;  1.4143313E-01; -4.1169110E+02;3;  7.2248995E-01;  0.0000000E+00; -2.8784127E+00;0; -2.6185770E-02;  2.0102629E+04;  0.0000000E+00; -2.2410215E-01;  4.0000000E+04;  0.0000000E+00;  3.9772891E+04; -9.2370901E-03;  0.0000000E+00; -1.6948679E-02;  1.6975518E+03;
  7.8316742E-01;  9.9999998E-03; -1.9040191E-01;7093; -2.0895405E-03;  0.0000000E+00; -4.5136334E-03;  9.9955493E+02;  1.4136027E-01; -3.6872946E+02;3;  5.2808946E-01;  0.0000000E+00; -2.8493032E+00;0; -4.3471016E-02;  2.0130035E+04;  0.0000000E+00; -2.5182825E-01;  4.0000000E+04;  0.0000000E+00;  3.9769277E+04; -2.8347347E-02;  0.0000000E+00; -1.5123667E-02;  1.4048843E+03;
  7.8304946E-01;  9.9999998E-03; -1.8035737E-01;7094; -4.4039087E-03;  0.0000000E+00; -4.5629549E-03;  9.9962915E+02;  1.4130555E-01; -3.0724985E+02;3;  2.8020075E-01;  0.0000000E+00; -2.7670505E+00;0; -5.9559707E-02;  2.0152018E+04;  0.0000000E+00; -3.0439755E-01;  4.0000000E+04;  0.0000000E+00;  3.9766684E+04; -4.6664450E-02;  0.0000000E+00; -1.2895257E-02;  1.3048900E+03;
  7.8299814E-01;  9.9999998E-03; -1.7031154E-01;7095; -6.7156516E-03;  0.0000000E+00; -4.5857527E-03;  9.9971796E+02;  1.4127007E-01; -2.3367186E+02;3;  3.1879194E-02;  0.0000000E+00; -2.7063437E+00;0; -7.4425101E-02;  2.0167346E+04;  0.0000000E+00; -3.5541472E-01;  4.0000000E+04;  0.0000000E+00;  3.9765121E+04; -6.3990273E-02;  0.0000000E+00; -1.0434832E-02;  1.2718064E+03;
  7.8299117E-01;  9.9999998E-03; -1.6026975E-01;7096; -9.0150088E-03;  0.0000000E+00; -4.5815348E-03;  9.9980896E+02;  1.4124726E-01; -1.5826675E+02;3; -2.9769579E-01;  0.0000000E+00; -2.5789800E+00;0; -8.8040061E-02;  2.0177635E+04;  0.0000000E+00; -3.8250560E-01;  4.0000000E+04;  0.0000000E+00;  3.9764961E+04; -8.0185711E-02;  0.0000000E+00; -7.8543490E-03;  1.1950677E+03;
  7.8301156E-01;  9.9999998E-03; -1.5023111E-01;7097; -1.1284947E-02;  0.0000000E+00; -4.5550154E-03;  9.9989404E+02;  1.4123185E-01; -8.7799782E+01;3; -6.1911994E-01;  0.0000000E+00; -2.4456613E+00;0; -1.0042476E-01;  2.0184111E+04;  0.0000000E+00; -3.7368476E-01;  4.0000000E+04;  0.0000000E+00;  3.9765988E+04; -9.5204718E-02;  0.0000000E+00; -5.2200411E-03;  1.0405477E+03;
  7.8304619E-01;  9.9999998E-03; -1.4018705E-01;7098; -1.3517085E-02;  0.0000000E+00; -4.5045963E-03;  9.9997479E+02;  1.4121765E-01; -2.0888248E+01;3; -9.4544125E-01;  0.0000000E+00; -2.2937422E+00;0; -1.1163899E-01;  2.0187891E+04;  0.0000000E+00; -3.2962003E-01;  4.0000000E+04;  0.0000000E+00;  3.9767809E+04; -1.0908375E-01;  0.0000000E+00; -2.5552451E-03;  8.7591473E+02;
  7.8308958E-01;  9.9999998E-03; -1.3013823E-01;7099; -1.5702028E-02;  0.0000000E+00; -4.4257245E-03;  1.0000505E+03;  1.4120556E-01;  4.1875259E+01;3; -1.2810926E+00;  0.0000000E+00; -2.1098893E+00;0; -1.2174523E-01;  2.0189762E+04;  0.0000000E+00; -2.6151109E-01;  4.0000000E+04;  0.0000000E+00;  3.9771008E+04; -1.2189072E-01;  0.0000000E+00;  1.4549158E-04;  8.8947180E+02;
  7.8313726E-01;  9.9999998E-03; -1.2008943E-01;7100; -1.7826771E-02;  0.0000000E+00; -4.3157204E-03;  1.0001287E+03;  1.4119275E-01;  1.0666340E+02;3; -1.5927089E+00;  0.0000000E+00; -1.9346981E+00;0; -1.3079724E-01;  2.0190541E+04;  0.0000000E+00; -1.8584056E-01;  4.0000000E+04;  0.0000000E+00;  3.9774523E+04; -1.3369346E-01;  0.0000000E+00;  2.8962139E-03;  1.1927673E+03;
  7.8317213E-01;  9.9999998E-03; -1.1004440E-01;7101; -1.9876117E-02;  0.0000000E+00; -4.1732779E-03;  1.0002084E+03;  1.4117579E-01;  1.7263669E+02;3; -1.8921876E+00;  0.0000000E+00; -1.7629117E+00;0; -1.3884151E-01;  2.0191873E+04;  0.0000000E+00; -1.1811820E-01;  4.0000000E+04;  0.0000000E+00;  3.9778344E+04; -1.4454703E-01;  0.0000000E+00;  5.7055145E-03;  1.6522146E+03;
  7.9892617E-01;  9.9999998E-03; -2.7087796E-01;7146;  2.5757542E-02;  0.0000000E+00;  7.6556118E-04;  9.9956573E+02;  1.4760238E-01; -3.5979120E+02;3;  1.0779715E+01;  0.0000000E+00; -4.6281109E+00;0;  1.0779922E-01;  1.8453359E+04;  0.0000000E+00;  6.8400109E-01;  4.0000000E+04;  0.0000000E+00;  3.9714418E+04;  1.1228526E-01;  0.0000000E+00; -4.4860486E-03;  5.2455981E+03;
  7.9890376E-01;  9.9999998E-03; -2.6086003E-01;7147;  2.2158308E-02;  0.0000000E+00; -3.8134519E-04;  9.9972089E+02;  1.4757411E-01; -2.3125201E+02;3;  1.0151268E+01;  0.0000000E+00; -4.8152556E+00;0;  9.3227968E-02;  1.8466562E+04;  0.0000000E+00; -2.1893170E-01;  4.0000000E+04;  0.0000000E+00;  3.9714609E+04;  9.6653543E-02;  0.0000000E+00; -3.4255760E-03;  2.6223362E+03;
  7.9897207E-01;  9.9999998E-03; -2.5082985E-01;7148;  1.8857481E-02;  0.0000000E+00; -1.8151910E-03;  1.0000094E+03;  1.4758568E-01;  7.8022251E+00;3;  9.4507713E+00;  0.0000000E+00; -5.0559201E+00;0;  7.6594844E-02;  1.8471285E+04;  0.0000000E+00; -5.5064034E-01;  4.0000000E+04;  0.0000000E+00;  3.9723848E+04;  7.9572313E-02;  0.0000000E+00; -2.9774695E-03;  1.5818982E+03;
  7.9895556E-01;  9.9999998E-03; -2.4080956E-01;7149;  1.4777323E-02;  0.0000000E+00; -2.1329650E-03;  1.0001772E+03;  1.4756922E-01;  1.4685960E+02;3;  8.4670038E+00;  0.0000000E+00; -5.1811390E+00;0;  5.1591415E-02;  1.8482289E+04;  0.0000000E+00; -5.4031312E-01;  4.0000000E+04;  0.0000000E+00;  3.9727035E+04;  6.1804980E-02;  0.0000000E+00; -1.0213564E-02;  1.7069606E+03;
  7.9885823E-01;  9.9999998E-03; -2.3079975E-01;7150;  1.0585861E-02;  0.0000000E+00; -2.1186054E-03;  1.0002742E+03;  1.4752494E-01;  2.2715338E+02;3;  7.1620975E+00;  0.0000000E+00; -4.9488192E+00;0;  2.7310368E-02;  1.8499523E+04;  0.0000000E+00; -4.2974296E-01;  4.0000000E+04;  0.0000000E+00;  3.9727711E+04;  4.3367203E-02;  0.0000000E+00; -1.6056836E-02;  1.6828633E+03;
  7.9864556E-01;  9.9999998E-03; -2.2076510E-01;7151;  6.6860807E-03;  0.0000000E+00; -2.1677024E-03;  1.0003936E+03;  1.4744003E-01;  3.2611325E+02;3;  5.5069613E+00;  0.0000000E+00; -4.6132894E+00;0;  5.2766353E-03;  1.8526506E+04;  0.0000000E+00; -3.3215168E-01;  4.0000000E+04;  0.0000000E+00;  3.9734008E+04;  2.4376655E-02;  0.0000000E+00; -1.9100020E-02;  1.3297186E+03;
  7.9833621E-01;  9.9999998E-03; -2.1069884E-01;7152;  3.2529284E-03;  0.0000000E+00; -2.1734063E-03;  1.0004873E+03;  1.4732067E-01;  4.0374051E+02;3;  3.3137579E+00;  0.0000000E+00; -4.1933751E+00;0; -1.5269396E-02;  1.8561564E+04;  0.0000000E+00; -2.8980711E-01;  4.0000000E+04;  0.0000000E+00;  3.9740152E+04;  5.0710673E-03;  0.0000000E+00; -2.0340463E-02;  1.3531793E+03;
  7.9798710E-01;  9.9999998E-03; -2.0062560E-01;7153;  3.4664868E-04;  0.0000000E+00; -2.1337699E-03;  1.0005087E+03;  1.4718778E-01;  4.2141898E+02;3;  2.0318987E+00;  0.0000000E+00; -3.7663999E+00;0; -3.4485251E-02;  1.8599764E+04;  0.0000000E+00; -3.0451322E-01;  4.0000000E+04;  0.0000000E+00;  3.9742707E+04; -1.4200683E-02;  0.0000000E+00; -2.0284569E-02;  1.4772239E+03;
  7.9766732E-01;  9.9999998E-03; -1.9055744E-01;7154; -2.3504288E-03;  0.0000000E+00; -2.1228769E-03;  1.0004995E+03;  1.4706373E-01;  4.1381427E+02;3;  1.4149339E+00;  0.0000000E+00; -3.4697866E+00;0; -5.2417830E-02;  1.8635172E+04;  0.0000000E+00; -3.6228949E-01;  4.0000000E+04;  0.0000000E+00;  3.9742828E+04; -3.3054158E-02;  0.0000000E+00; -1.9363672E-02;  1.5296528E+03;
  7.9741496E-01;  9.9999998E-03; -1.8048637E-01;7155; -4.9764346E-03;  0.0000000E+00; -2.1182727E-03;  1.0004823E+03;  1.4696334E-01;  3.9959250E+02;3;  9.2812097E-01;  0.0000000E+00; -3.2026467E+00;0; -6.9184661E-02;  1.8664230E+04;  0.0000000E+00; -4.4336584E-01;  4.0000000E+04;  0.0000000E+00;  3.9742266E+04; -5.1204350E-02;  0.0000000E+00; -1.7980315E-02;  1.6022046E+03;
  7.9725474E-01;  9.9999998E-03; -1.7041951E-01;7156; -7.5473259E-03;  0.0000000E+00; -2.1131963E-03;  1.0004681E+03;  1.4689262E-01;  3.8783978E+02;3;  5.1316464E-01;  0.0000000E+00; -3.0095811E+00;0; -8.4809013E-02;  1.8684193E+04;  0.0000000E+00; -5.2447218E-01;  4.0000000E+04;  0.0000000E+00;  3.9741996E+04; -6.8411268E-02;  0.0000000E+00; -1.6397746E-02;  1.6904939E+03;
  7.9718620E-01;  9.9999998E-03; -1.6035846E-01;7157; -1.0072892E-02;  0.0000000E+00; -2.0960069E-03;  1.0004536E+03;  1.4685546E-01;  3.7579077E+02;3;  9.7927935E-02;  0.0000000E+00; -2.7965498E+00;0; -9.9292889E-02;  1.8694873E+04;  0.0000000E+00; -5.8524674E-01;  4.0000000E+04;  0.0000000E+00;  3.9742406E+04; -8.4512092E-02;  0.0000000E+00; -1.4780801E-02;  1.7598240E+03;
  7.9718995E-01;  9.9999998E-03; -1.5030479E-01;7158; -1.2549645E-02;  0.0000000E+00; -2.0698262E-03;  1.0004474E+03;  1.4684117E-01;  3.7065512E+02;3; -3.0072731E-01;  0.0000000E+00; -2.6035681E+00;0; -1.1264043E-01;  1.8697439E+04;  0.0000000E+00; -6.1365396E-01;  4.0000000E+04;  0.0000000E+00;  3.9744039E+04; -9.9428877E-02;  0.0000000E+00; -1.3211554E-02;  1.8017375E+03;
  7.9723477E-01;  9.9999998E-03; -1.4025871E-01;7159; -1.4973871E-02;  0.0000000E+00; -2.0333871E-03;  1.0004420E+03;  1.4684063E-01;  3.6621082E+02;3; -6.7385304E-01;  0.0000000E+00; -2.4290776E+00;0; -1.2486496E-01;  1.8695094E+04;  0.0000000E+00; -6.0807145E-01;  4.0000000E+04;  0.0000000E+00;  3.9746285E+04; -1.1316130E-01;  0.0000000E+00; -1.1703652E-02;  1.8570328E+03;
  7.9728496E-01;  9.9999998E-03; -1.3021272E-01;7160; -1.7338259E-02;  0.0000000E+00; -1.9889523E-03;  1.0004297E+03;  1.4684007E-01;  3.5593954E+02;3; -1.0465002E+00;  0.0000000E+00; -2.2187004E+00;0; -1.3598928E-01;  1.8690896E+04;  0.0000000E+00; -5.7452136E-01;  4.0000000E+04;  0.0000000E+00;  3.9749402E+04; -1.2577023E-01;  0.0000000E+00; -1.0219053E-02;  1.9851002E+03;
  7.9730815E-01;  9.9999998E-03; -1.2015816E-01;7161; -1.9630838E-02;  0.0000000E+00; -1.9386755E-03;  1.0004149E+03;  1.4682843E-01;  3.4369299E+02;3; -1.3915428E+00;  0.0000000E+00; -2.0248034E+00;0; -1.4603153E-01;  1.8688322E+04;  0.0000000E+00; -5.2247804E-01;  4.0000000E+04;  0.0000000E+00;  3.9753043E+04; -1.3732907E-01;  0.0000000E+00; -8.7024616E-03;  2.2159277E+03;
  7.9729229E-01;  9.9999998E-03; -1.1011168E-01;7162; -2.1833327E-02;  0.0000000E+00; -1.8798939E-03;  1.0003911E+03;  1.4680028E-01;  3.2394052E+02;3; -1.7089761E+00;  0.0000000E+00; -1.8304070E+00;0; -1.5500751E-01;  1.8688922E+04;  0.0000000E+00; -4.6193913E-01;  4.0000000E+04;  0.0000000E+00;  3.9756492E+04; -1.4788210E-01;  0.0000000E+00; -7.1254098E-03;  2.5115671E+03;
  8.1323463E-01;  9.9999998E-03; -2.7095547E-01;7207;  3.0809604E-02;  0.0000000E+00;  2.3882964E-03;  9.9932507E+02;  1.5345250E-01; -5.5914264E+02;3;  1.3701055E+01;  0.0000000E+00; -5.1542530E+00;0;  1.0579966E-01;  1.7060268E+04;  0.0000000E+00;  1.1910269E+00;  4.0000000E+04;  0.0000000E+00;  3.9694285E+04;  8.9629635E-02;  0.0000000E+00;  1.6170023E-02;  5.2244536E+03;
  8.1342328E-01;  9.9999998E-03; -2.6092616E-01;7208;  2.6498031E-02;  0.0000000E+00;  1.2480612E-03;  9.9958917E+02;  1.5351477E-01; -3.4038422E+02;3;  1.2791485E+01;  0.0000000E+00; -5.4896665E+00;0;  8.7898754E-02;  1.7052689E+04;  0.0000000E+00;  3.6688921E-01;  4.0000000E+04;  0.0000000E+00;  3.9700582E+04;  7.5324051E-02;  0.0000000E+00;  1.2574704E-02;  1.9730287E+03;
  8.1360912E-01;  9.9999998E-03; -2.5088730E-01;7209;  2.2013353E-02;  0.0000000E+00;  4.3129502E-04;  9.9990668E+02;  1.5357728E-01; -7.7330864E+01;3;  1.1791431E+01;  0.0000000E+00; -5.7147517E+00;0;  6.4149804E-02;  1.7045869E+04;  0.0000000E+00;  1.2270093E-02;  4.0000000E+04;  0.0000000E+00;  3.9710836E+04;  5.9869271E-02;  0.0000000E+00;  4.2805364E-03;  6.4629370E+02;
  8.1358308E-01;  9.9999998E-03; -2.4087419E-01;7210;  1.7067749E-02;  0.0000000E+00;  8.3930441E-04;  1.0000025E+03;  1.5356068E-01;  2.0740080E+00;3;  1.0401589E+01;  0.0000000E+00; -5.6161022E+00;0;  3.4573153E-02;  1.7056201E+04;  0.0000000E+00; -8.4497839E-02;  4.0000000E+04;  0.0000000E+00;  3.9707832E+04;  4.3856926E-02;  0.0000000E+00; -9.2837755E-03;  2.8271609E+02;
  8.1343561E-01;  9.9999998E-03; -2.3088405E-01;7211;  1.2279551E-02;  0.0000000E+00;  1.2100117E-03;  1.0000324E+03;  1.5349908E-01;  2.6863340E+01;3;  8.9320679E+00;  0.0000000E+00; -5.3388791E+00;0;  9.4823129E-03;  1.7075883E+04;  0.0000000E+00; -1.1992786E-01;  4.0000000E+04;  0.0000000E+00;  3.9702367E+04;  2.7191769E-02;  0.0000000E+00; -1.7709456E-02;  7.3598315E+02;
  8.1318873E-01;  9.9999998E-03; -2.2087473E-01;7212;  7.7884607E-03;  0.0000000E+00;  1.2719757E-03;  1.0001312E+03;  1.5340240E-01;  1.0863851E+02;3;  7.4112191E+00;  0.0000000E+00; -4.9437375E+00;0; -1.1970937E-02;  1.7103096E+04;  0.0000000E+00; -1.5842064E-01;  4.0000000E+04;  0.0000000E+00;  3.9706070E+04;  9.9533517E-03;  0.0000000E+00; -2.1924289E-02;  6.2308417E+02;
  8.1285870E-01;  9.9999998E-03; -2.1084662E-01;7213;  3.6184399E-03;  0.0000000E+00;  1.2875692E-03;  1.0002159E+03;  1.5327705E-01;  1.7885849E+02;3;  5.2782521E+00;  0.0000000E+00; -4.2791281E+00;0; -3.1671748E-02;  1.7136404E+04;  0.0000000E+00; -2.1728969E-01;  4.0000000E+04;  0.0000000E+00;  3.9711738E+04; -7.6356474E-03;  0.0000000E+00; -2.4036098E-02;  8.5402539E+02;
  8.1247467E-01;  9.9999998E-03; -2.0080906E-01;7214;  1.6852489E-04;  0.0000000E+00;  1.2389990E-03;  1.0002465E+03;  1.5313268E-01;  2.0424040E+02;3;  2.8326237E+00;  0.0000000E+00; -3.7982275E+00;0; -5.0117731E-02;  1.7173002E+04;  0.0000000E+00; -2.9527384E-01;  4.0000000E+04;  0.0000000E+00;  3.9716137E+04; -2.5327343E-02;  0.0000000E+00; -2.4790389E-02;  1.2803342E+03;
  8.1207263E-01;  9.9999998E-03; -1.9076125E-01;7215; -2.8270187E-03;  0.0000000E+00;  1.1530742E-03;  1.0002227E+03;  1.5298338E-01;  1.8448796E+02;3;  1.9854865E+00;  0.0000000E+00; -3.4519851E+00;0; -6.7552678E-02;  1.7209811E+04;  0.0000000E+00; -3.8633683E-01;  4.0000000E+04;  0.0000000E+00;  3.9719035E+04; -4.2802524E-02;  0.0000000E+00; -2.4750154E-02;  1.6175656E+03;
  8.1170470E-01;  9.9999998E-03; -1.8068902E-01;7216; -5.7141469E-03;  0.0000000E+00;  1.0642767E-03;  1.0001579E+03;  1.5284629E-01;  1.3086003E+02;3;  1.3982960E+00;  0.0000000E+00; -3.2226062E+00;0; -8.4102280E-02;  1.7242521E+04;  0.0000000E+00; -4.8258963E-01;  4.0000000E+04;  0.0000000E+00;  3.9720883E+04; -5.9801258E-02;  0.0000000E+00; -2.4301022E-02;  1.8734708E+03;
  8.1140000E-01;  9.9999998E-03; -1.7060702E-01;7217; -8.5210390E-03;  0.0000000E+00;  9.8409364E-04;  1.0000645E+03;  1.5273058E-01;  5.3430397E+01;3;  8.8258463E-01;  0.0000000E+00; -3.0289607E+00;0; -9.9749446E-02;  1.7268982E+04;  0.0000000E+00; -5.7537347E-01;  4.0000000E+04;  0.0000000E+00;  3.9721875E+04; -7.6048121E-02;  0.0000000E+00; -2.3701327E-02;  2.0702622E+03;
  8.1120455E-01;  9.9999998E-03; -1.6052231E-01;7218; -1.1260001E-02;  0.0000000E+00;  9.2341169E-04;  9.9995715E+02;  1.5265413E-01; -3.5505043E+01;3;  3.9918363E-01;  0.0000000E+00; -2.8399556E+00;0; -1.1450157E-01;  1.7285283E+04;  0.0000000E+00; -6.5473002E-01;  4.0000000E+04;  0.0000000E+00;  3.9722820E+04; -9.1363795E-02;  0.0000000E+00; -2.3137772E-02;  2.2663274E+03;
  8.1113565E-01;  9.9999998E-03; -1.5044461E-01;7219; -1.3935862E-02;  0.0000000E+00;  8.8399334E-04;  9.9984729E+02;  1.5262179E-01; -1.2651449E+02;3; -6.0311384E-02;  0.0000000E+00; -2.6243393E+00;0; -1.2834713E-01;  1.7289898E+04;  0.0000000E+00; -7.1278381E-01;  4.0000000E+04;  0.0000000E+00;  3.9724195E+04; -1.0562925E-01;  0.0000000E+00; -2.2717878E-02;  2.4880166E+03;
  8.1117272E-01;  9.9999998E-03; -1.4037661E-01;7220; -1.6549708E-02;  0.0000000E+00;  8.6042809E-04;  9.9974603E+02;  1.5262680E-01; -2.1041306E+02;3; -4.8893824E-01;  0.0000000E+00; -2.4236183E+00;0; -1.4126529E-01;  1.7284785E+04;  0.0000000E+00; -7.4581295E-01;  4.0000000E+04;  0.0000000E+00;  3.9726367E+04; -1.1880221E-01;  0.0000000E+00; -2.2463074E-02;  2.7400615E+03;
  8.1124955E-01;  9.9999998E-03; -1.3031816E-01;7221; -1.9092416E-02;  0.0000000E+00;  8.3736196E-04;  9.9964618E+02;  1.5264073E-01; -2.9312646E+02;3; -8.8553971E-01;  0.0000000E+00; -2.2253182E+00;0; -1.5319310E-01;  1.7276201E+04;  0.0000000E+00; -7.5320959E-01;  4.0000000E+04;  0.0000000E+00;  3.9729086E+04; -1.3088574E-01;  0.0000000E+00; -2.2307361E-02;  3.0103220E+03;
  8.1131959E-01;  9.9999998E-03; -1.2027017E-01;7222; -2.1551099E-02;  0.0000000E+00;  8.0666941E-04;  9.9954517E+02;  1.5264729E-01; -3.7682751E+02;3; -1.2529504E+00;  0.0000000E+00; -2.0233552E+00;0; -1.6409416E-01;  1.7268455E+04;  0.0000000E+00; -7.3588008E-01;  4.0000000E+04;  0.0000000E+00;  3.9731695E+04; -1.4191748E-01;  0.0000000E+00; -2.2176683E-02;  3.2659695E+03;
  8.1139511E-01;  9.9999998E-03; -1.1024281E-01;7223; -2.3913946E-02;  0.0000000E+00;  7.7268371E-04;  9.9944965E+02;  1.5265225E-01; -4.5593610E+02;3; -1.5869787E+00;  0.0000000E+00; -1.8232446E+00;0; -1.7400900E-01;  1.7260670E+04;  0.0000000E+00; -6.9653088E-01;  4.0000000E+04;  0.0000000E+00;  3.9734020E+04; -1.5194917E-01;  0.0000000E+00; -2.2059834E-02;  3.4556365E+03;
  8.2603830E-01;  9.9999998E-03; -1.3034688E-01;7282; -2.1188540E-02;  0.0000000E+00;  4.2044125E-03;  9.9812207E+02;  1.5894093E-01; -1.5558010E+03;3; -7.5222129E-01;  0.0000000E+00; -2.0248303E+00;0; -1.7437263E-01;  1.5894772E+04;  0.0000000E+00; -8.1406832E-01;  4.0000000E+04;  0.0000000E+00;  3.9707070E+04; -1.3699670E-01;  0.0000000E+00; -3.7375931E-02;  3.8081538E+03;
  8.2607937E-01;  9.9999998E-03; -1.2030009E-01;7283; -2.3800988E-02;  0.0000000E+00;  4.0113768E-03;  9.9794598E+02;  1.5894169E-01; -1.7017222E+03;3; -1.1440367E+00;  0.0000000E+00; -1.8338710E+00;0; -1.8587346E-01;  1.5889136E+04;  0.0000000E+00; -8.2752246E-01;  4.0000000E+04;  0.0000000E+00;  3.9708559E+04; -1.4713746E-01;  0.0000000E+00; -3.8736001E-02;  4.0422788E+03;
  8.2608932E-01;  9.9999998E-03; -1.4042349E-01;7281; -1.8483780E-02;  0.0000000E+00;  4.4019134E-03;  9.9830438E+02;  1.5897273E-01; -1.4047936E+03;3; -3.1895038E-01;  0.0000000E+00; -2.2208433E+00;0; -1.6206196E-01;  1.5893789E+04;  0.0000000E+00; -7.7718633E-01;  4.0000000E+04;  0.0000000E+00;  3.9705285E+04; -1.2591526E-01;  0.0000000E+00; -3.6146704E-02;  3.5118557E+03;
  8.2616311E-01;  9.9999998E-03; -1.5051332E-01;7280; -1.5685409E-02;  0.0000000E+00;  4.5893770E-03;  9.9848096E+02;  1.5900527E-01; -1.2584774E+03;3;  1.5389095E-01;  0.0000000E+00; -2.4210806E+00;0; -1.4886674E-01;  1.5891183E+04;  0.0000000E+00; -7.2531563E-01;  4.0000000E+04;  0.0000000E+00;  3.9703855E+04; -1.1385985E-01;  0.0000000E+00; -3.5006884E-02;  3.2295557E+03;
  8.2623130E-01;  9.9999998E-03; -1.1028687E-01;7284; -2.6316527E-02;  0.0000000E+00;  3.8222966E-03;  9.9777942E+02;  1.5898263E-01; -1.8396930E+03;3; -1.4937944E+00;  0.0000000E+00; -1.6489730E+00;0; -1.9660513E-01;  1.5875406E+04;  0.0000000E+00; -8.1173939E-01;  4.0000000E+04;  0.0000000E+00;  3.9709012E+04; -1.5635960E-01;  0.0000000E+00; -4.0245537E-02;  4.1354502E+03;
  8.2622623E-01;  9.9999998E-03; -1.6059807E-01;7279; -1.2796796E-02;  0.0000000E+00;  4.7592805E-03;  9.9864130E+02;  1.5903015E-01; -1.1256422E+03;3;  6.6522074E-01;  0.0000000E+00; -2.6148903E+00;0; -1.3479884E-01;  1.5888750E+04;  0.0000000E+00; -6.6478270E-01;  4.0000000E+04;  0.0000000E+00;  3.9702848E+04; -1.0082204E-01;  0.0000000E+00; -3.3976804E-02;  3.0071899E+03;
  8.2632583E-01;  9.9999998E-03; -1.7066856E-01;7278; -9.8252967E-03;  0.0000000E+00;  4.9256920E-03;  9.9878802E+02;  1.5906219E-01; -1.0041152E+03;3;  1.2168745E+00;  0.0000000E+00; -2.8005233E+00;0; -1.1999346E-01;  1.5882828E+04;  0.0000000E+00; -5.9781188E-01;  4.0000000E+04;  0.0000000E+00;  3.9702367E+04; -8.6882547E-02;  0.0000000E+00; -3.3110913E-02;  2.8452524E+03;
  8.2647336E-01;  9.9999998E-03; -1.8072820E-01;7277; -6.7653339E-03;  0.0000000E+00;  5.0966656E-03;  9.9889972E+02;  1.5911195E-01; -9.1157501E+02;3;  1.8146824E+00;  0.0000000E+00; -2.9545627E+00;0; -1.0452763E-01;  1.5872319E+04;  0.0000000E+00; -5.2004975E-01;  4.0000000E+04;  0.0000000E+00;  3.9701785E+04; -7.2168812E-02;  0.0000000E+00; -3.2358818E-02;  2.7053987E+03;
  9.3987137E-01;  9.9999998E-03; -2.7184477E-01;7634;  2.1774694E-02;  0.0000000E+00;  5.8374930E-02;  9.9335266E+02;  2.1186268E-01; -5.5070679E+03;3;  1.6793989E+01;  0.0000000E+00;  5.1878762E+00;0;  1.3793738E-01;  8.9264658E+03;  0.0000000E+00; -3.5149857E-01;  4.0000000E+04;  0.0000000E+00;  3.9547840E+04;  1.9785264E-01;  0.0000000E+00; -5.9915263E-02;  9.5372109E+03;
  8.2667822E-01;  9.9999998E-03; -1.9077872E-01;7276; -3.6060510E-03;  0.0000000E+00;  5.2809287E-03;  9.9897034E+02;  1.5918218E-01; -8.5305841E+02;3;  2.4784622E+00;  0.0000000E+00; -3.0853446E+00;0; -8.8483229E-02;  1.5856089E+04;  0.0000000E+00; -4.2096654E-01;  4.0000000E+04;  0.0000000E+00;  3.9700625E+04; -5.6893110E-02;  0.0000000E+00; -3.1590119E-02;  2.5336802E+03;
  8.2678944E-01;  9.9999998E-03; -2.7101547E-01;7268;  3.2241661E-02;  0.0000000E+00;  6.1084130E-03;  9.9800513E+02;  1.5923452E-01; -1.6526865E+03;3;  1.4567773E+01;  0.0000000E+00; -4.6852574E+00;0;  7.6539531E-02;  1.5802979E+04;  0.0000000E+00;  1.4664696E+00;  4.0000000E+04;  0.0000000E+00;  3.9690020E+04;  6.0438309E-02;  0.0000000E+00;  1.6101221E-02;  3.8060195E+03;
  8.2695198E-01;  9.9999998E-03; -2.0080462E-01;7275; -3.3431809E-04;  0.0000000E+00;  5.5021024E-03;  9.9899640E+02;  1.5928110E-01; -8.3147888E+02;3;  3.2523141E+00;  0.0000000E+00; -3.0632482E+00;0; -7.1975254E-02;  1.5832679E+04;  0.0000000E+00; -2.8848386E-01;  4.0000000E+04;  0.0000000E+00;  3.9699535E+04; -4.1370232E-02;  0.0000000E+00; -3.0605022E-02;  2.3937026E+03;
  8.2695109E-01;  9.9999998E-03; -2.6097256E-01;7269;  2.7357679E-02;  0.0000000E+00;  5.1903282E-03;  9.9835120E+02;  1.5928477E-01; -1.3659799E+03;3;  1.3507548E+01;  0.0000000E+00; -4.9545574E+00;0;  5.8348853E-02;  1.5798693E+04;  0.0000000E+00;  1.1429653E+00;  4.0000000E+04;  0.0000000E+00;  3.9700504E+04;  4.8046466E-02;  0.0000000E+00;  1.0302387E-02;  3.8551907E+03;
  8.2718295E-01;  9.9999998E-03; -2.5092292E-01;7270;  2.2393908E-02;  0.0000000E+00;  4.9128630E-03;  9.9867505E+02;  1.5936680E-01; -1.0976924E+03;3;  1.2323067E+01;  0.0000000E+00; -5.1001067E+00;0;  3.3135243E-02;  1.5788476E+04;  0.0000000E+00;  8.7713796E-01;  4.0000000E+04;  0.0000000E+00;  3.9709887E+04;  3.4459487E-02;  0.0000000E+00; -1.3242422E-03;  4.4235728E+03;
  8.2720166E-01;  9.9999998E-03; -2.1082604E-01;7274;  3.3035544E-03;  0.0000000E+00;  5.7888702E-03;  9.9898077E+02;  1.5937324E-01; -8.4441675E+02;3;  5.3669472E+00;  0.0000000E+00; -3.1175771E+00;0; -5.4907702E-02;  1.5809609E+04;  0.0000000E+00; -1.1135397E-01;  4.0000000E+04;  0.0000000E+00;  3.9699062E+04; -2.5744623E-02;  0.0000000E+00; -2.9163079E-02;  2.3680376E+03;
  8.2732439E-01;  9.9999998E-03; -2.4090302E-01;7271;  1.7292682E-02;  0.0000000E+00;  5.5394769E-03;  9.9875024E+02;  1.5941361E-01; -1.0353734E+03;3;  1.0964567E+01;  0.0000000E+00; -4.8647079E+00;0;  5.3027812E-03;  1.5784644E+04;  0.0000000E+00;  6.3181049E-01;  4.0000000E+04;  0.0000000E+00;  3.9702340E+04;  2.0175353E-02;  0.0000000E+00; -1.4872571E-02;  3.3833982E+03;
  8.2738042E-01;  9.9999998E-03; -2.2085808E-01;7273;  7.6605789E-03;  0.0000000E+00;  5.9001385E-03;  9.9891504E+02;  1.5943718E-01; -8.9888409E+02;3;  7.8456702E+00;  0.0000000E+00; -4.0217052E+00;0; -3.6865607E-02;  1.5791118E+04;  0.0000000E+00;  1.1275183E-01;  4.0000000E+04;  0.0000000E+00;  3.9698109E+04; -1.0159038E-02;  0.0000000E+00; -2.6706571E-02;  2.3871245E+03;
  8.2740968E-01;  9.9999998E-03; -2.3089419E-01;7272;  1.2354269E-02;  0.0000000E+00;  5.8767358E-03;  9.9880017E+02;  1.5944472E-01; -9.9404144E+02;3;  9.4659090E+00;  0.0000000E+00; -4.4392023E+00;0; -1.7290663E-02;  1.5783870E+04;  0.0000000E+00;  3.7073356E-01;  4.0000000E+04;  0.0000000E+00;  3.9695973E+04;  5.2378741E-03;  0.0000000E+00; -2.2528537E-02;  2.4185151E+03;
  8.4246832E-01;  9.9999998E-03; -2.7108577E-01;7329;  3.1842958E-02;  0.0000000E+00;  1.2048720E-02;  9.9625928E+02;  1.6587625E-01; -3.0991047E+03;3;  1.4858068E+01;  0.0000000E+00; -3.5878832E+00;0;  2.5802286E-02;  1.4522854E+04;  0.0000000E+00;  1.3749151E+00;  4.0000000E+04;  0.0000000E+00;  3.9689695E+04;  2.1542292E-02;  0.0000000E+00;  4.2599947E-03;  5.0026523E+03;
  8.4268218E-01;  9.9999998E-03; -1.1054307E-01;7345; -2.9181881E-02;  0.0000000E+00;  7.6021315E-03;  9.9601520E+02;  1.6608387E-01; -3.3013198E+03;3; -1.3877991E+00;  0.0000000E+00; -1.4444002E+00;0; -2.2299223E-01;  1.4516165E+04;  0.0000000E+00; -8.0920577E-01;  4.0000000E+04;  0.0000000E+00;  3.9679051E+04; -1.5954266E-01;  0.0000000E+00; -6.3449562E-02;  4.2634453E+03;
  8.4258842E-01;  9.9999998E-03; -2.6103169E-01;7330;  2.6801854E-02;  0.0000000E+00;  1.1268473E-02;  9.9669275E+02;  1.6590774E-01; -2.7399563E+03;3;  1.3806823E+01;  0.0000000E+00; -3.8051496E+00;0;  1.1352296E-02;  1.4523378E+04;  0.0000000E+00;  1.6231616E+00;  4.0000000E+04;  0.0000000E+00;  3.9701574E+04;  1.1755680E-02;  0.0000000E+00; -4.0338375E-04;  7.1215791E+03;
  8.4263700E-01;  9.9999998E-03; -1.2054440E-01;7344; -2.6546163E-02;  0.0000000E+00;  8.0544138E-03;  9.9616559E+02;  1.6608697E-01; -3.1767314E+03;3; -1.0060065E+00;  0.0000000E+00; -1.5920280E+00;0; -2.1180734E-01;  1.4517267E+04;  0.0000000E+00; -8.1990987E-01;  4.0000000E+04;  0.0000000E+00;  3.9679984E+04; -1.5151857E-01;  0.0000000E+00; -6.0288768E-02;  4.2958569E+03;
  8.4274679E-01;  9.9999998E-03; -2.5097615E-01;7331;  2.1650948E-02;  0.0000000E+00;  1.1357687E-02;  9.9701416E+02;  1.6595963E-01; -2.4736936E+03;3;  1.2553201E+01;  0.0000000E+00; -3.7478769E+00;0; -1.1399351E-02;  1.4520012E+04;  0.0000000E+00;  1.4800347E+00;  4.0000000E+04;  0.0000000E+00;  3.9706266E+04;  9.8282436E-04;  0.0000000E+00; -1.2382176E-02;  8.0280454E+03;
  8.4275758E-01;  9.9999998E-03; -2.4095663E-01;7332;  1.6495369E-02;  0.0000000E+00;  1.1956788E-02;  9.9706671E+02;  1.6596037E-01; -2.4301396E+03;3;  1.0989065E+01;  0.0000000E+00; -3.2632277E+00;0; -3.4167804E-02;  1.4525348E+04;  0.0000000E+00;  1.1026753E+00;  4.0000000E+04;  0.0000000E+00;  3.9691902E+04; -1.0273570E-02;  0.0000000E+00; -2.3894232E-02;  6.3536621E+03;
  8.4247613E-01;  9.9999998E-03; -1.3055752E-01;7343; -2.3761621E-02;  0.0000000E+00;  8.4407935E-03;  9.9633368E+02;  1.6604318E-01; -3.0374771E+03;3; -5.7659113E-01;  0.0000000E+00; -1.7401173E+00;0; -1.9961688E-01;  1.4527201E+04;  0.0000000E+00; -8.0471128E-01;  4.0000000E+04;  0.0000000E+00;  3.9680234E+04; -1.4264466E-01;  0.0000000E+00; -5.6972213E-02;  4.1825381E+03;
  8.4169543E-01;  9.9999998E-03; -1.7063788E-01;7339; -1.1497640E-02;  0.0000000E+00;  9.6536763E-03;  9.9704736E+02;  1.6573662E-01; -2.4461885E+03;3;  1.6205274E+00;  0.0000000E+00; -2.2685912E+00;0; -1.4365596E-01;  1.4588010E+04;  0.0000000E+00; -7.1374035E-01;  4.0000000E+04;  0.0000000E+00;  3.9680648E+04; -9.8794296E-02;  0.0000000E+00; -4.4861659E-02;  3.6847537E+03;
  8.4170419E-01;  9.9999998E-03; -1.6062623E-01;7340; -1.4694567E-02;  0.0000000E+00;  9.3280235E-03;  9.9688831E+02;  1.6575316E-01; -2.5779866E+03;3;  9.9264574E-01;  0.0000000E+00; -2.1587346E+00;0; -1.5823546E-01;  1.4584480E+04;  0.0000000E+00; -7.2506732E-01;  4.0000000E+04;  0.0000000E+00;  3.9680559E+04; -1.1083687E-01;  0.0000000E+00; -4.7398582E-02;  3.7395193E+03;
  8.4188259E-01;  9.9999998E-03; -1.5060771E-01;7341; -1.7808169E-02;  0.0000000E+00;  9.0370262E-03;  9.9670801E+02;  1.6582888E-01; -2.7273149E+03;3;  4.2116874E-01;  0.0000000E+00; -2.0293486E+00;0; -1.7255512E-01;  1.4569562E+04;  0.0000000E+00; -7.4465895E-01;  4.0000000E+04;  0.0000000E+00;  3.9680520E+04; -1.2224197E-01;  0.0000000E+00; -5.0313152E-02;  3.8500740E+03;
  8.4217054E-01;  9.9999998E-03; -1.4057951E-01;7342; -2.0837015E-02;  0.0000000E+00;  8.7524690E-03;  9.9651398E+02;  1.6593829E-01; -2.8880996E+03;3; -1.0112694E-01;  0.0000000E+00; -1.8876904E+00;0; -1.8642867E-01;  1.4548222E+04;  0.0000000E+00; -7.7472007E-01;  4.0000000E+04;  0.0000000E+00;  3.9680559E+04; -1.3287458E-01;  0.0000000E+00; -5.3554080E-02;  4.0099541E+03;
  8.4270334E-01;  9.9999998E-03; -2.3094088E-01;7333;  1.1590719E-02;  0.0000000E+00;  1.1963140E-02;  9.9713586E+02;  1.6595013E-01; -2.3728577E+03;3;  9.2830524E+00;  0.0000000E+00; -2.7686946E+00;0; -5.1652260E-02;  1.4532023E+04;  0.0000000E+00;  6.2861806E-01;  4.0000000E+04;  0.0000000E+00;  3.9682473E+04; -2.2111855E-02;  0.0000000E+00; -2.9540403E-02;  4.8960381E+03;
  8.4182525E-01;  9.9999998E-03; -1.8065064E-01;7338; -8.2000000E-03;  0.0000000E+00;  1.0014010E-02;  9.9717676E+02;  1.6576773E-01; -2.3389824E+03;3;  2.3153455E+00;  0.0000000E+00; -2.3537073E+00;0; -1.2886599E-01;  1.4581899E+04;  0.0000000E+00; -6.9084936E-01;  4.0000000E+04;  0.0000000E+00;  3.9680996E+04; -8.6259753E-02;  0.0000000E+00; -4.2606235E-02;  3.7092988E+03;
  8.4258240E-01;  9.9999998E-03; -2.2084872E-01;7334;  6.9209859E-03;  0.0000000E+00;  1.1578491E-02;  9.9734644E+02;  1.6593154E-01; -2.1983945E+03;3;  7.3666344E+00;  0.0000000E+00; -2.3693130E+00;0; -6.7491949E-02;  1.4539882E+04;  0.0000000E+00;  1.6903310E-01;  4.0000000E+04;  0.0000000E+00;  3.9689020E+04; -3.4550998E-02;  0.0000000E+00; -3.2940950E-02;  5.1131519E+03;
  8.4202754E-01;  9.9999998E-03; -1.9067417E-01;7337; -4.7775339E-03;  0.0000000E+00;  1.0393875E-02;  9.9727692E+02;  1.6582055E-01; -2.2560222E+03;3;  3.0946271E+00;  0.0000000E+00; -2.4101808E+00;0; -1.1385937E-01;  1.4570726E+04;  0.0000000E+00; -6.2219119E-01;  4.0000000E+04;  0.0000000E+00;  3.9682246E+04; -7.3393188E-02;  0.0000000E+00; -4.0466182E-02;  3.8665022E+03;
  8.4223992E-01;  9.9999998E-03; -2.0070158E-01;7336; -1.1948211E-03;  0.0000000E+00;  1.0781851E-02;  9.9735767E+02;  1.6587244E-01; -2.1891108E+03;3;  4.0625362E+00;  0.0000000E+00; -2.3886027E+00;0; -9.8642528E-02;  1.4558860E+04;  0.0000000E+00; -4.7015736E-01;  4.0000000E+04;  0.0000000E+00;  3.9685504E+04; -6.0385000E-02;  0.0000000E+00; -3.8257532E-02;  4.2791904E+03;
  8.4242123E-01;  9.9999998E-03; -2.1075410E-01;7335;  2.6519834E-03;  0.0000000E+00;  1.1175162E-02;  9.9740649E+02;  1.6590640E-01; -2.1486677E+03;3;  5.4283571E+00;  0.0000000E+00; -2.3208771E+00;0; -8.3177313E-02;  1.4549009E+04;  0.0000000E+00; -2.0688398E-01;  4.0000000E+04;  0.0000000E+00;  3.9689633E+04; -4.7379147E-02;  0.0000000E+00; -3.5798162E-02;  4.8946357E+03;
  8.6097169E-01;  9.9999998E-03; -1.1075467E-01;7406; -3.2622784E-02;  0.0000000E+00;  1.2270704E-02;  9.9479193E+02;  1.7429204E-01; -4.3147588E+03;3; -1.3223058E+00;  0.0000000E+00; -1.1307435E+00;0; -2.4528751E-01;  1.3169965E+04;  0.0000000E+00; -7.1983993E-01;  4.0000000E+04;  0.0000000E+00;  3.9642121E+04; -1.5240468E-01;  0.0000000E+00; -9.2882834E-02;  3.7316260E+03;
  8.6094546E-01;  9.9999998E-03; -1.2079489E-01;7405; -2.9840225E-02;  0.0000000E+00;  1.3043757E-02;  9.9492139E+02;  1.7427671E-01; -4.2075034E+03;3; -8.7821048E-01;  0.0000000E+00; -1.2210479E+00;0; -2.3396821E-01;  1.3171002E+04;  0.0000000E+00; -7.5704241E-01;  4.0000000E+04;  0.0000000E+00;  3.9643832E+04; -1.4627649E-01;  0.0000000E+00; -8.7691724E-02;  3.8490593E+03;
  8.6075962E-01;  9.9999998E-03; -1.3082877E-01;7404; -2.6878078E-02;  0.0000000E+00;  1.3719264E-02;  9.9507849E+02;  1.7419714E-01; -4.0773359E+03;3; -3.7928829E-01;  0.0000000E+00; -1.3039131E+00;0; -2.2186509E-01;  1.3182896E+04;  0.0000000E+00; -7.8475523E-01;  4.0000000E+04;  0.0000000E+00;  3.9645023E+04; -1.3962819E-01;  0.0000000E+00; -8.2236901E-02;  3.8400461E+03;
  8.6058450E-01;  9.9999998E-03; -1.4087401E-01;7403; -2.3774212E-02;  0.0000000E+00;  1.4351454E-02;  9.9524976E+02;  1.7411891E-01; -3.9354646E+03;3;  1.7540725E-01;  0.0000000E+00; -1.3722670E+00;0; -2.0914891E-01;  1.3195220E+04;  0.0000000E+00; -8.2005626E-01;  4.0000000E+04;  0.0000000E+00;  3.9646000E+04; -1.3229749E-01;  0.0000000E+00; -7.6851420E-02;  3.8000002E+03;
  8.6045849E-01;  9.9999998E-03; -1.5090862E-01;7402; -2.0547729E-02;  0.0000000E+00;  1.4958813E-02;  9.9542712E+02;  1.7405631E-01; -3.7885068E+03;3;  7.8619260E-01;  0.0000000E+00; -1.4218601E+00;0; -1.9598931E-01;  1.3205526E+04;  0.0000000E+00; -8.8132721E-01;  4.0000000E+04;  0.0000000E+00;  3.9646629E+04; -1.2434275E-01;  0.0000000E+00; -7.1646564E-02;  3.7941145E+03;
  8.6039412E-01;  9.9999998E-03; -1.6092776E-01;7401; -1.7204454E-02;  0.0000000E+00;  1.5553989E-02;  9.9559467E+02;  1.7401268E-01; -3.6496970E+03;3;  1.4558638E+00;  0.0000000E+00; -1.4501716E+00;0; -1.8254668E-01;  1.3212705E+04;  0.0000000E+00; -9.7823381E-01;  4.0000000E+04;  0.0000000E+00;  3.9647332E+04; -1.1585812E-01;  0.0000000E+00; -6.6688552E-02;  3.8278928E+03;
  8.6038089E-01;  9.9999998E-03; -1.7093182E-01;7400; -1.3741616E-02;  0.0000000E+00;  1.6141461E-02;  9.9573615E+02;  1.7398581E-01; -3.5325159E+03;3;  2.1896439E+00;  0.0000000E+00; -1.4561658E+00;0; -1.6896200E-01;  1.3217067E+04;  0.0000000E+00; -1.1008786E+00;  4.0000000E+04;  0.0000000E+00;  3.9647750E+04; -1.0696016E-01;  0.0000000E+00; -6.2001850E-02;  3.8687595E+03;
  8.6036760E-01;  9.9999998E-03; -1.8093008E-01;7399; -1.0145923E-02;  0.0000000E+00;  1.6708696E-02;  9.9584021E+02;  1.7395473E-01; -3.4462969E+03;3;  2.9949439E+00;  0.0000000E+00; -1.4426419E+00;0; -1.5529837E-01;  1.3221566E+04;  0.0000000E+00; -1.2154237E+00;  4.0000000E+04;  0.0000000E+00;  3.9648168E+04; -9.7762987E-02;  0.0000000E+00; -5.7535384E-02;  3.9048721E+03;
  8.6030674E-01;  9.9999998E-03; -1.9093511E-01;7398; -6.4025046E-03;  0.0000000E+00;  1.7241009E-02;  9.9590204E+02;  1.7389660E-01; -3.3950393E+03;3;  3.8869326E+00;  0.0000000E+00; -1.4109427E+00;0; -1.4157882E-01;  1.3228928E+04;  0.0000000E+00; -1.2697148E+00;  4.0000000E+04;  0.0000000E+00;  3.9648660E+04; -8.8353612E-02;  0.0000000E+00; -5.3225219E-02;  3.9471375E+03;
  8.6012650E-01;  9.9999998E-03; -2.0094009E-01;7397; -2.4917861E-03;  0.0000000E+00;  1.7713215E-02;  9.9593170E+02;  1.7379610E-01; -3.3704971E+03;3;  4.9123888E+00;  0.0000000E+00; -1.3544010E+00;0; -1.2778637E-01;  1.3242442E+04;  0.0000000E+00; -1.1975425E+00;  4.0000000E+04;  0.0000000E+00;  3.9650414E+04; -7.8791328E-02;  0.0000000E+00; -4.8995037E-02;  4.0743499E+03;
  8.5988861E-01;  9.9999998E-03; -2.1095410E-01;7396;  1.6089821E-03;  0.0000000E+00;  1.8143950E-02;  9.9593622E+02;  1.7367822E-01; -3.3667444E+03;3;  6.1191235E+00;  0.0000000E+00; -1.2956127E+00;0; -1.1404387E-01;  1.3258042E+04;  0.0000000E+00; -9.5279509E-01;  4.0000000E+04;  0.0000000E+00;  3.9653566E+04; -6.9185421E-02;  0.0000000E+00; -4.4858448E-02;  4.4167529E+03;
  8.5964209E-01;  9.9999998E-03; -2.2100089E-01;7395;  5.9660375E-03;  0.0000000E+00;  1.8563600E-02;  9.9585980E+02;  1.7356068E-01; -3.4300508E+03;3;  7.5740318E+00;  0.0000000E+00; -1.2640430E+00;0; -1.0048908E-01;  1.3272616E+04;  0.0000000E+00; -5.2455896E-01;  4.0000000E+04;  0.0000000E+00;  3.9655348E+04; -5.9662472E-02;  0.0000000E+00; -4.0826604E-02;  4.7370928E+03;
  8.5941297E-01;  9.9999998E-03; -2.3104052E-01;7394;  1.0557312E-02;  0.0000000E+00;  1.8947002E-02;  9.9574146E+02;  1.7346156E-01; -3.5281213E+03;3;  9.1357594E+00;  0.0000000E+00; -1.3232443E+00;0; -8.7313831E-02;  1.3284164E+04;  0.0000000E+00;  4.4452764E-02;  4.0000000E+04;  0.0000000E+00;  3.9658312E+04; -5.0434671E-02;  0.0000000E+00; -3.6879156E-02;  5.4241260E+03;
  8.5920322E-01;  9.9999998E-03; -2.4105640E-01;7393;  1.5340667E-02;  0.0000000E+00;  1.9121937E-02;  9.9566626E+02;  1.7338492E-01; -3.5903909E+03;3;  1.0722891E+01;  0.0000000E+00; -1.4761392E+00;0; -7.3912412E-02;  1.3292398E+04;  0.0000000E+00;  6.4787239E-01;  4.0000000E+04;  0.0000000E+00;  3.9670051E+04; -4.1659754E-02;  0.0000000E+00; -3.2252662E-02;  7.0693882E+03;
  8.5906082E-01;  9.9999998E-03; -2.5107393E-01;7392;  2.0308161E-02;  0.0000000E+00;  1.8821016E-02;  9.9561401E+02;  1.7334852E-01; -3.6336980E+03;3;  1.2410381E+01;  0.0000000E+00; -1.8277352E+00;0; -5.7595547E-02;  1.3293803E+04;  0.0000000E+00;  1.0878361E+00;  4.0000000E+04;  0.0000000E+00;  3.9688367E+04; -3.3509042E-02;  0.0000000E+00; -2.4086505E-02;  9.1076377E+03;
  8.5898942E-01;  9.9999998E-03; -2.6112396E-01;7391;  2.5443852E-02;  0.0000000E+00;  1.8567888E-02;  9.9531238E+02;  1.7334847E-01; -3.8835657E+03;3;  1.3873174E+01;  0.0000000E+00; -2.2150412E+00;0; -3.9459873E-02;  1.3288555E+04;  0.0000000E+00;  1.1110784E+00;  4.0000000E+04;  0.0000000E+00;  3.9691758E+04; -2.6055140E-02;  0.0000000E+00; -1.3404733E-02;  9.1520146E+03;
  8.5912544E-01;  9.9999998E-03; -2.7118304E-01;7390;  3.0517105E-02;  0.0000000E+00;  1.9171266E-02;  9.9480054E+02;  1.7344405E-01; -4.3076494E+03;3;  1.5002999E+01;  0.0000000E+00; -2.1372278E+00;0; -2.8833739E-02;  1.3267004E+04;  0.0000000E+00;  5.6275868E-01;  4.0000000E+04;  0.0000000E+00;  3.9682645E+04; -1.9804867E-02;  0.0000000E+00; -9.0288725E-03;  9.0328438E+03;
  8.7853903E-01;  9.9999998E-03; -1.1076587E-01;7467; -3.6109969E-02;  0.0000000E+00;  1.7132785E-02;  9.9367493E+02;  1.8264727E-01; -5.2401470E+03;3; -1.3550082E+00;  0.0000000E+00; -7.7187979E-01;0; -2.3039694E-01;  1.1982618E+04;  0.0000000E+00; -5.7083017E-01;  4.0000000E+04;  0.0000000E+00;  3.9602520E+04; -1.0600795E-01;  0.0000000E+00; -1.2438899E-01;  2.6678052E+03;
  8.7863648E-01;  9.9999998E-03; -1.2081646E-01;7466; -3.3232212E-02;  0.0000000E+00;  1.8279336E-02;  9.9379675E+02;  1.8267810E-01; -5.1392114E+03;3; -8.1922621E-01;  0.0000000E+00; -7.8051323E-01;0; -2.2117062E-01;  1.1976313E+04;  0.0000000E+00; -6.4997411E-01;  4.0000000E+04;  0.0000000E+00;  3.9603781E+04; -1.0373603E-01;  0.0000000E+00; -1.1743459E-01;  2.7939131E+03;
  8.7864971E-01;  9.9999998E-03; -1.3086897E-01;7465; -3.0158162E-02;  0.0000000E+00;  1.9339850E-02;  9.9394971E+02;  1.8266878E-01; -5.0125005E+03;3; -2.1940750E-01;  0.0000000E+00; -7.6924396E-01;0; -2.1171364E-01;  1.1976795E+04;  0.0000000E+00; -7.3861295E-01;  4.0000000E+04;  0.0000000E+00;  3.9604324E+04; -1.0145639E-01;  0.0000000E+00; -1.1025725E-01;  2.8031721E+03;
  8.7859017E-01;  9.9999998E-03; -1.4092065E-01;7464; -2.6901606E-02;  0.0000000E+00;  2.0321488E-02;  9.9413898E+02;  1.8262447E-01; -4.8557168E+03;3;  4.3659726E-01;  0.0000000E+00; -7.4014640E-01;0; -2.0206451E-01;  1.1983188E+04;  0.0000000E+00; -8.5207623E-01;  4.0000000E+04;  0.0000000E+00;  3.9604641E+04; -9.9109337E-02;  0.0000000E+00; -1.0295518E-01;  2.7886929E+03;
  8.7848723E-01;  9.9999998E-03; -1.5096533E-01;7463; -2.3480155E-02;  0.0000000E+00;  2.1236895E-02;  9.9434637E+02;  1.8255654E-01; -4.6838716E+03;3;  1.1457769E+00;  0.0000000E+00; -6.9166160E-01;0; -1.9222955E-01;  1.1993491E+04;  0.0000000E+00; -1.0043583E+00;  4.0000000E+04;  0.0000000E+00;  3.9605320E+04; -9.6592046E-02;  0.0000000E+00; -9.5637508E-02;  2.8182480E+03;
  8.7838185E-01;  9.9999998E-03; -1.6099672E-01;7462; -1.9910298E-02;  0.0000000E+00;  2.2103883E-02;  9.9455304E+02;  1.8248627E-01; -4.5126685E+03;3;  1.9107141E+00;  0.0000000E+00; -6.2595272E-01;0; -1.8223345E-01;  1.2004506E+04;  0.0000000E+00; -1.1996534E+00;  4.0000000E+04;  0.0000000E+00;  3.9606445E+04; -9.3811274E-02;  0.0000000E+00; -8.8422187E-02;  2.9073499E+03;
  8.7833267E-01;  9.9999998E-03; -1.7101541E-01;7461; -1.6205449E-02;  0.0000000E+00;  2.2949260E-02;  9.9472888E+02;  1.8244186E-01; -4.3669946E+03;3;  2.7385678E+00;  0.0000000E+00; -5.4355794E-01;0; -1.7211887E-01;  1.2012202E+04;  0.0000000E+00; -1.4245744E+00;  4.0000000E+04;  0.0000000E+00;  3.9607512E+04; -9.0688586E-02;  0.0000000E+00; -8.1430294E-02;  3.0457581E+03;
  8.7832814E-01;  9.9999998E-03; -1.8102659E-01;7460; -1.2363626E-02;  0.0000000E+00;  2.3773538E-02;  9.9486389E+02;  1.8241827E-01; -4.2551470E+03;3;  3.6371431E+00;  0.0000000E+00; -4.4927636E-01;0; -1.6203143E-01;  1.2016721E+04;  0.0000000E+00; -1.6423262E+00;  4.0000000E+04;  0.0000000E+00;  3.9608664E+04; -8.7364063E-02;  0.0000000E+00; -7.4667364E-02;  3.2380090E+03;
  8.7832212E-01;  9.9999998E-03; -1.9103956E-01;7459; -8.3768358E-03;  0.0000000E+00;  2.4560736E-02;  9.9493945E+02;  1.8239380E-01; -4.1925322E+03;3;  4.6155901E+00;  0.0000000E+00; -3.5007611E-01;0; -1.5209600E-01;  1.2020710E+04;  0.0000000E+00; -1.7981166E+00;  4.0000000E+04;  0.0000000E+00;  3.9610496E+04; -8.3995156E-02;  0.0000000E+00; -6.8100840E-02;  3.4880015E+03;
  8.7829256E-01;  9.9999998E-03; -2.0106001E-01;7458; -4.2392644E-03;  0.0000000E+00;  2.5301361E-02;  9.9496027E+02;  1.8235843E-01; -4.1752983E+03;3;  5.6902609E+00;  0.0000000E+00; -2.5031003E-01;0; -1.4237663E-01;  1.2025148E+04;  0.0000000E+00; -1.8332893E+00;  4.0000000E+04;  0.0000000E+00;  3.9612961E+04; -8.0632828E-02;  0.0000000E+00; -6.1743800E-02;  3.7875837E+03;
  8.7822717E-01;  9.9999998E-03; -2.1108487E-01;7457;  5.1782765E-05;  0.0000000E+00;  2.5983274E-02;  9.9492511E+02;  1.8230790E-01; -4.2044331E+03;3;  6.8699718E+00;  0.0000000E+00; -1.6148230E-01;0; -1.3293305E-01;  1.2030355E+04;  0.0000000E+00; -1.7019901E+00;  4.0000000E+04;  0.0000000E+00;  3.9617023E+04; -7.7289514E-02;  0.0000000E+00; -5.5643536E-02;  4.2087861E+03;
  8.7812883E-01;  9.9999998E-03; -2.2113834E-01;7456;  4.5265821E-03;  0.0000000E+00;  2.6622195E-02;  9.9480219E+02;  1.8224598E-01; -4.3062563E+03;3;  8.2019339E+00;  0.0000000E+00; -8.5479155E-02;0; -1.2385833E-01;  1.2035900E+04;  0.0000000E+00; -1.3853753E+00;  4.0000000E+04;  0.0000000E+00;  3.9619531E+04; -7.3943250E-02;  0.0000000E+00; -4.9915086E-02;  4.4525571E+03;
  8.7795544E-01;  9.9999998E-03; -2.3120327E-01;7455;  9.1863573E-03;  0.0000000E+00;  2.7247304E-02;  9.9456812E+02;  1.8216059E-01; -4.5001753E+03;3;  9.5844145E+00;  0.0000000E+00; -6.1926983E-02;0; -1.1552456E-01;  1.2044175E+04;  0.0000000E+00; -9.0069264E-01;  4.0000000E+04;  0.0000000E+00;  3.9618508E+04; -7.0587657E-02;  0.0000000E+00; -4.4936899E-02;  4.3073804E+03;
  8.7769121E-01;  9.9999998E-03; -2.4122779E-01;7454;  1.3963198E-02;  0.0000000E+00;  2.7714573E-02;  9.9439331E+02;  1.8205272E-01; -4.6450093E+03;3;  1.0994946E+01;  0.0000000E+00; -8.9126058E-02;0; -1.0797944E-01;  1.2055616E+04;  0.0000000E+00; -3.2610366E-01;  4.0000000E+04;  0.0000000E+00;  3.9626430E+04; -6.7223489E-02;  0.0000000E+00; -4.0755950E-02;  5.2971333E+03;
  8.7746829E-01;  9.9999998E-03; -2.5122684E-01;7453;  1.8788107E-02;  0.0000000E+00;  2.7577100E-02;  9.9437170E+02;  1.8198490E-01; -4.6628853E+03;3;  1.2401385E+01;  0.0000000E+00; -1.5559404E-01;0; -9.8183393E-02;  1.2061690E+04;  0.0000000E+00;  1.3073803E-01;  4.0000000E+04;  0.0000000E+00;  3.9651012E+04; -6.4000607E-02;  0.0000000E+00; -3.4182787E-02;  8.3333281E+03;
  8.7766457E-01;  9.9999998E-03; -2.6126009E-01;7452;  2.3687109E-02;  0.0000000E+00;  2.7333856E-02;  9.9413599E+02;  1.8213058E-01; -4.8581865E+03;3;  1.3825666E+01;  0.0000000E+00; -2.1001412E-01;0; -8.5919656E-02;  1.2037740E+04;  0.0000000E+00;  2.2015399E-01;  4.0000000E+04;  0.0000000E+00;  3.9666910E+04; -6.1518744E-02;  0.0000000E+00; -2.4400912E-02;  1.0739842E+04;
  8.7802249E-01;  9.9999998E-03; -2.7131549E-01;7451;  2.8638974E-02;  0.0000000E+00;  2.7672950E-02;  9.9365881E+02;  1.8236820E-01; -5.2534795E+03;3;  1.5098320E+01;  0.0000000E+00; -2.3452622E-01;0; -7.8291923E-02;  1.2000834E+04;  0.0000000E+00; -1.6564379E-02;  4.0000000E+04;  0.0000000E+00;  3.9664840E+04; -5.9708543E-02;  0.0000000E+00; -1.8583376E-02;  1.2571558E+04;
  8.9702290E-01;  9.9999998E-03; -2.7147287E-01;7512;  2.6640028E-02;  0.0000000E+00;  3.6694769E-02;  9.9330756E+02;  1.9169551E-01; -5.5445132E+03;3;  1.5502945E+01;  0.0000000E+00;  1.2860708E+00;0; -1.0305779E-01;  1.0877215E+04;  0.0000000E+00; -5.5654132E-01;  4.0000000E+04;  0.0000000E+00;  3.9631375E+04; -7.8220852E-02;  0.0000000E+00; -2.4836937E-02;  1.3946270E+04;
  8.9661986E-01;  9.9999998E-03; -2.6142961E-01;7513;  2.1898067E-02;  0.0000000E+00;  3.6710087E-02;  9.9366260E+02;  1.9144396E-01; -5.2503530E+03;3;  1.4273385E+01;  0.0000000E+00;  1.2438997E+00;0; -1.0592397E-01;  1.0910788E+04;  0.0000000E+00; -2.5123274E-01;  4.0000000E+04;  0.0000000E+00;  3.9623574E+04; -7.3118418E-02;  0.0000000E+00; -3.2805543E-02;  1.0237715E+04;
  8.9614552E-01;  9.9999998E-03; -2.5140461E-01;7514;  1.7141603E-02;  0.0000000E+00;  3.6721107E-02;  9.9386237E+02;  1.9115172E-01; -5.0848291E+03;3;  1.2912586E+01;  0.0000000E+00;  1.2544299E+00;0; -1.0910838E-01;  1.0947424E+04;  0.0000000E+00; -2.6423550E-01;  4.0000000E+04;  0.0000000E+00;  3.9603621E+04; -6.8046637E-02;  0.0000000E+00; -4.1061744E-02;  6.7986665E+03;
  8.9624065E-01;  9.9999998E-03; -2.4139799E-01;7515;  1.2339167E-02;  0.0000000E+00;  3.6499958E-02;  9.9392010E+02;  1.9113550E-01; -5.0370283E+03;3;  1.1558331E+01;  0.0000000E+00;  1.2895991E+00;0; -1.0878800E-01;  1.0949556E+04;  0.0000000E+00; -5.9262276E-01;  4.0000000E+04;  0.0000000E+00;  3.9583066E+04; -6.2053602E-02;  0.0000000E+00; -4.6734396E-02;  4.1385415E+03;
  8.9651257E-01;  9.9999998E-03; -2.3134679E-01;7516;  7.5331661E-03;  0.0000000E+00;  3.5828114E-02;  9.9412982E+02;  1.9122332E-01; -4.8632578E+03;3;  1.0205509E+01;  0.0000000E+00;  1.2884672E+00;0; -1.0696871E-01;  1.0939189E+04;  0.0000000E+00; -1.0923449E+00;  4.0000000E+04;  0.0000000E+00;  3.9581297E+04; -5.4922543E-02;  0.0000000E+00; -5.2046165E-02;  3.9575154E+03;
  8.9670318E-01;  9.9999998E-03; -2.2124580E-01;7517;  2.8059846E-03;  0.0000000E+00;  3.5072263E-02;  9.9434991E+02;  1.9129241E-01; -4.6809438E+03;3;  8.8745747E+00;  0.0000000E+00;  1.2401390E+00;0; -1.0624368E-01;  1.0931468E+04;  0.0000000E+00; -1.5526979E+00;  4.0000000E+04;  0.0000000E+00;  3.9585387E+04; -4.7041580E-02;  0.0000000E+00; -5.9202105E-02;  4.5046382E+03;
  8.9679003E-01;  9.9999998E-03; -2.1116486E-01;7518; -1.7728521E-03;  0.0000000E+00;  3.4306172E-02;  9.9439502E+02;  1.9132189E-01; -4.6435625E+03;3;  7.5926905E+00;  0.0000000E+00;  1.1546381E+00;0; -1.0624956E-01;  1.0927670E+04;  0.0000000E+00; -1.8661351E+00;  4.0000000E+04;  0.0000000E+00;  3.9581348E+04; -3.8758989E-02;  0.0000000E+00; -6.7490563E-02;  4.0931611E+03;
  8.9684713E-01;  9.9999998E-03; -2.0111935E-01;7519; -6.2143803E-03;  0.0000000E+00;  3.3462729E-02;  9.9433325E+02;  1.9134375E-01; -4.6947207E+03;3;  6.3988557E+00;  0.0000000E+00;  1.0460216E+00;0; -1.0633352E-01;  1.0923865E+04;  0.0000000E+00; -2.0048809E+00;  4.0000000E+04;  0.0000000E+00;  3.9574211E+04; -3.0062022E-02;  0.0000000E+00; -7.6271497E-02;  3.3306860E+03;
  8.9688689E-01;  9.9999998E-03; -1.9108813E-01;7520; -1.0533489E-02;  0.0000000E+00;  3.2531042E-02;  9.9420892E+02;  1.9135822E-01; -4.7977290E+03;3;  5.2843728E+00;  0.0000000E+00;  9.1174442E-01;0; -1.0641851E-01;  1.0919414E+04;  0.0000000E+00; -1.9802405E+00;  4.0000000E+04;  0.0000000E+00;  3.9568250E+04; -2.1056376E-02;  0.0000000E+00; -8.5362129E-02;  2.6527532E+03;
  8.9692974E-01;  9.9999998E-03; -1.8107086E-01;7521; -1.4724272E-02;  0.0000000E+00;  3.1531263E-02;  9.9402936E+02;  1.9137836E-01; -4.9465132E+03;3;  4.2478638E+00;  0.0000000E+00;  7.5576681E-01;0; -1.0644970E-01;  1.0913438E+04;  0.0000000E+00; -1.8299581E+00;  4.0000000E+04;  0.0000000E+00;  3.9564012E+04; -1.1785711E-02;  0.0000000E+00; -9.4663993E-02;  2.0555249E+03;
  8.9698732E-01;  9.9999998E-03; -1.7104830E-01;7522; -1.8784981E-02;  0.0000000E+00;  3.0471398E-02;  9.9380359E+02;  1.9141066E-01; -5.1335669E+03;3;  3.2794166E+00;  0.0000000E+00;  5.8715403E-01;0; -1.0638744E-01;  1.0905629E+04;  0.0000000E+00; -1.6053425E+00;  4.0000000E+04;  0.0000000E+00;  3.9561012E+04; -2.2756706E-03;  0.0000000E+00; -1.0411178E-01;  1.5999825E+03;
  8.9701593E-01;  9.9999998E-03; -1.6099522E-01;7523; -2.2706373E-02;  0.0000000E+00;  2.9332589E-02;  9.9353955E+02;  1.9143800E-01; -5.3522744E+03;3;  2.3679836E+00;  0.0000000E+00;  4.0629172E-01;0; -1.0655557E-01;  1.0898224E+04;  0.0000000E+00; -1.3544246E+00;  4.0000000E+04;  0.0000000E+00;  3.9559445E+04;  7.0306803E-03;  0.0000000E+00; -1.1358625E-01;  1.3462050E+03;
  8.9711720E-01;  9.9999998E-03; -1.5093064E-01;7524; -2.6482452E-02;  0.0000000E+00;  2.8156690E-02;  9.9326971E+02;  1.9150434E-01; -5.5758208E+03;3;  1.5090408E+00;  0.0000000E+00;  2.2690928E-01;0; -1.0618729E-01;  1.0887047E+04;  0.0000000E+00; -1.1130290E+00;  4.0000000E+04;  0.0000000E+00;  3.9558379E+04;  1.6960524E-02;  0.0000000E+00; -1.2314782E-01;  1.2700184E+03;
  8.9727539E-01;  9.9999998E-03; -1.4085561E-01;7525; -3.0099746E-02;  0.0000000E+00;  2.6933203E-02;  9.9301715E+02;  1.9159663E-01; -5.7850952E+03;3;  6.9422734E-01;  0.0000000E+00;  5.3621251E-02;0; -1.0522408E-01;  1.0873822E+04;  0.0000000E+00; -8.9839441E-01;  4.0000000E+04;  0.0000000E+00;  3.9558082E+04;  2.7544701E-02;  0.0000000E+00; -1.3276878E-01;  1.3007157E+03;
  8.9743853E-01;  9.9999998E-03; -1.3077784E-01;7526; -3.3534929E-02;  0.0000000E+00;  2.5639381E-02;  9.9280176E+02;  1.9168977E-01; -5.9635073E+03;3; -8.2738854E-02;  0.0000000E+00; -1.0759880E-01;0; -1.0400739E-01;  1.0861757E+04;  0.0000000E+00; -7.1492523E-01;  4.0000000E+04;  0.0000000E+00;  3.9558102E+04;  3.8372375E-02;  0.0000000E+00; -1.4237976E-01;  1.3531943E+03;
  8.9756072E-01;  9.9999998E-03; -1.2071170E-01;7527; -3.6762465E-02;  0.0000000E+00;  2.4256907E-02;  9.9262524E+02;  1.9176441E-01; -6.1097729E+03;3; -8.2677460E-01;  0.0000000E+00; -2.4849677E-01;0; -1.0297166E-01;  1.0853556E+04;  0.0000000E+00; -5.5975139E-01;  4.0000000E+04;  0.0000000E+00;  3.9557906E+04;  4.8919994E-02;  0.0000000E+00; -1.5189165E-01;  1.3507755E+03;
  8.9759701E-01;  9.9999998E-03; -1.1066668E-01;7528; -3.9757904E-02;  0.0000000E+00;  2.2766724E-02;  9.9249719E+02;  1.9180013E-01; -6.2158423E+03;3; -1.5155802E+00;  0.0000000E+00; -3.7310776E-01;0; -1.0265310E-01;  1.0851427E+04;  0.0000000E+00; -4.2731783E-01;  4.0000000E+04;  0.0000000E+00;  3.9556988E+04;  5.8506161E-02;  0.0000000E+00; -1.6115926E-01;  1.2240370E+03;
  9.1759527E-01;  9.9999998E-03; -2.7165416E-01;7573;  2.4424529E-02;  0.0000000E+00;  4.7118958E-02;  9.9299066E+02;  2.0169857E-01; -5.8069937E+03;3;  1.6159325E+01;  0.0000000E+00;  2.9678099E+00;0; -6.6234052E-02;  9.8336240E+03;  0.0000000E+00; -3.6711442E-01;  4.0000000E+04;  0.0000000E+00;  3.9589516E+04; -3.0723047E-02;  0.0000000E+00; -3.5511002E-02;  1.0937760E+04;
  9.1725528E-01;  9.9999998E-03; -2.6162323E-01;7574;  1.9806009E-02;  0.0000000E+00;  4.7474340E-02;  9.9329401E+02;  2.0146245E-01; -5.5556973E+03;3;  1.4845911E+01;  0.0000000E+00;  3.1022897E+00;0; -5.5101734E-02;  9.8620752E+03;  0.0000000E+00; -3.1741276E-01;  4.0000000E+04;  0.0000000E+00;  3.9574145E+04; -1.1513256E-02;  0.0000000E+00; -4.3588478E-02;  8.1723042E+03;
  9.1692322E-01;  9.9999998E-03; -2.5160414E-01;7575;  1.5127994E-02;  0.0000000E+00;  4.7302932E-02;  9.9348682E+02;  2.0122124E-01; -5.3959517E+03;3;  1.3551270E+01;  0.0000000E+00;  3.1117265E+00;0; -3.9680645E-02;  9.8887764E+03;  0.0000000E+00; -4.0955690E-01;  4.0000000E+04;  0.0000000E+00;  3.9553754E+04;  9.1556646E-03;  0.0000000E+00; -4.8836309E-02;  5.2131626E+03;
  9.1694641E-01;  9.9999998E-03; -2.4158831E-01;7576;  1.0415722E-02;  0.0000000E+00;  4.6686873E-02;  9.9365192E+02;  2.0114893E-01; -5.2591680E+03;3;  1.2256647E+01;  0.0000000E+00;  3.0895896E+00;0; -1.9401364E-02;  9.8964443E+03;  0.0000000E+00; -6.2195814E-01;  4.0000000E+04;  0.0000000E+00;  3.9538055E+04;  3.4206931E-02;  0.0000000E+00; -5.3608295E-02;  3.0955117E+03;
  9.1713238E-01;  9.9999998E-03; -2.3152217E-01;7577;  5.6826188E-03;  0.0000000E+00;  4.5729309E-02;  9.9393573E+02;  2.0117038E-01; -5.0240674E+03;3;  1.0896825E+01;  0.0000000E+00;  3.0956204E+00;0;  2.7886704E-03;  9.8936562E+03;  0.0000000E+00; -9.0002066E-01;  4.0000000E+04;  0.0000000E+00;  3.9539406E+04;  6.3239180E-02;  0.0000000E+00; -6.0450509E-02;  3.2679163E+03;
  9.1716808E-01;  9.9999998E-03; -2.2139105E-01;7578;  9.7411114E-04;  0.0000000E+00;  4.4724345E-02;  9.9420050E+02;  2.0114541E-01; -4.8046699E+03;3;  9.5701962E+00;  0.0000000E+00;  3.0342324E+00;0;  2.3247890E-02;  9.8956719E+03;  0.0000000E+00; -1.1691529E+00;  4.0000000E+04;  0.0000000E+00;  3.9546219E+04;  9.3482248E-02;  0.0000000E+00; -7.0234358E-02;  4.1347393E+03;
  9.1705787E-01;  9.9999998E-03; -2.1128550E-01;7579; -3.6416932E-03;  0.0000000E+00;  4.3725040E-02;  9.9422687E+02;  2.0106868E-01; -4.7828438E+03;3;  8.2529621E+00;  0.0000000E+00;  2.9512577E+00;0;  4.2380728E-02;  9.9022646E+03;  0.0000000E+00; -1.3778921E+00;  4.0000000E+04;  0.0000000E+00;  3.9541168E+04;  1.2388444E-01;  0.0000000E+00; -8.1503712E-02;  3.5167285E+03;
  9.1678911E-01;  9.9999998E-03; -2.0121898E-01;7580; -8.1566870E-03;  0.0000000E+00;  4.2566024E-02;  9.9408392E+02;  2.0093307E-01; -4.9012588E+03;3;  7.0256686E+00;  0.0000000E+00;  2.7884915E+00;0;  6.0003407E-02;  9.9127988E+03;  0.0000000E+00; -1.5079361E+00;  4.0000000E+04;  0.0000000E+00;  3.9532070E+04;  1.5317564E-01;  0.0000000E+00; -9.3172230E-02;  2.3814216E+03;
  9.1643226E-01;  9.9999998E-03; -1.9115584E-01;7581; -1.2586914E-02;  0.0000000E+00;  4.1258581E-02;  9.9386163E+02;  2.0077026E-01; -5.0854482E+03;3;  5.8793583E+00;  0.0000000E+00;  2.5655172E+00;0;  7.6386750E-02;  9.9245137E+03;  0.0000000E+00; -1.5583529E+00;  4.0000000E+04;  0.0000000E+00;  3.9524402E+04;  1.8135992E-01;  0.0000000E+00; -1.0497317E-01;  1.4738896E+03;
  9.1620183E-01;  9.9999998E-03; -1.8109961E-01;7582; -1.6927948E-02;  0.0000000E+00;  3.9912097E-02;  9.9358807E+02;  2.0066996E-01; -5.3120557E+03;3;  4.8018656E+00;  0.0000000E+00;  2.3267460E+00;0;  9.4225936E-02;  9.9293867E+03;  0.0000000E+00; -1.5267079E+00;  4.0000000E+04;  0.0000000E+00;  3.9518484E+04;  2.1115601E-01;  0.0000000E+00; -1.1693007E-01;  7.9062787E+02;
  9.1610926E-01;  9.9999998E-03; -1.7103694E-01;7583; -2.1164056E-02;  0.0000000E+00;  3.8532414E-02;  9.9328717E+02;  2.0063734E-01; -5.5613774E+03;3;  3.7915504E+00;  0.0000000E+00;  2.0549798E+00;0;  1.1394809E-01;  9.9272529E+03;  0.0000000E+00; -1.4256557E+00;  4.0000000E+04;  0.0000000E+00;  3.9514559E+04;  2.4292162E-01;  0.0000000E+00; -1.2897353E-01;  3.4400949E+02;
  9.1613775E-01;  9.9999998E-03; -1.6096260E-01;7584; -2.5274109E-02;  0.0000000E+00;  3.7110835E-02;  9.9297534E+02;  2.0066582E-01; -5.8196870E+03;3;  2.8316996E+00;  0.0000000E+00;  1.7555850E+00;0;  1.3560145E-01;  9.9192539E+03;  0.0000000E+00; -1.2744950E+00;  4.0000000E+04;  0.0000000E+00;  3.9512102E+04;  2.7661490E-01;  0.0000000E+00; -1.4101346E-01;  3.1499503E+02;
  9.1626847E-01;  9.9999998E-03; -1.5088002E-01;7585; -2.9233623E-02;  0.0000000E+00;  3.5635624E-02;  9.9266876E+02;  2.0074530E-01; -6.0736997E+03;3;  1.9057221E+00;  0.0000000E+00;  1.4321195E+00;0;  1.5916035E-01;  9.9067539E+03;  0.0000000E+00; -1.0919416E+00;  4.0000000E+04;  0.0000000E+00;  3.9510961E+04;  3.1213459E-01;  0.0000000E+00; -1.5297425E-01;  5.4673572E+02;
  9.1647726E-01;  9.9999998E-03; -1.4079566E-01;7586; -3.3016294E-02;  0.0000000E+00;  3.4094065E-02;  9.9239325E+02;  2.0086534E-01; -6.3019360E+03;3;  9.9316448E-01;  0.0000000E+00;  1.0949644E+00;0;  1.8440455E-01;  9.8914238E+03;  0.0000000E+00; -8.9454335E-01;  4.0000000E+04;  0.0000000E+00;  3.9510672E+04;  3.4922940E-01;  0.0000000E+00; -1.6482484E-01;  7.8648431E+02;
  9.1671604E-01;  9.9999998E-03; -1.3071439E-01;7587; -3.6593910E-02;  0.0000000E+00;  3.2466192E-02;  9.9216260E+02;  2.0100243E-01; -6.4930381E+03;3;  8.7987892E-02;  0.0000000E+00;  7.4281758E-01;0;  2.1038088E-01;  9.8759385E+03;  0.0000000E+00; -6.9705504E-01;  4.0000000E+04;  0.0000000E+00;  3.9510645E+04;  3.8694850E-01;  0.0000000E+00; -1.7656761E-01;  1.0112704E+03;
  9.1693473E-01;  9.9999998E-03; -1.2064289E-01;7588; -3.9937589E-02;  0.0000000E+00;  3.0732460E-02;  9.9197699E+02;  2.0112953E-01; -6.6468081E+03;3; -8.2856137E-01;  0.0000000E+00;  3.9829314E-01;0;  2.3577838E-01;  9.8629424E+03;  0.0000000E+00; -5.1229566E-01;  4.0000000E+04;  0.0000000E+00;  3.9510230E+04;  4.2396346E-01;  0.0000000E+00; -1.8818508E-01;  1.1953844E+03;
  9.1709083E-01;  9.9999998E-03; -1.1058854E-01;7589; -4.3019444E-02;  0.0000000E+00;  2.8873222E-02;  9.9183960E+02;  2.0122837E-01; -6.7606304E+03;3; -1.7262819E+00;  0.0000000E+00;  6.4594634E-02;0;  2.5925916E-01;  9.8545342E+03;  0.0000000E+00; -3.5004833E-01;  4.0000000E+04;  0.0000000E+00;  3.9508848E+04;  4.5883036E-01;  0.0000000E+00; -1.9957119E-01;  1.3314510E+03;
  9.3944287E-01;  9.9999998E-03; -2.6182246E-01;7635;  1.7456401E-02;  0.0000000E+00;  5.8918271E-02;  9.9376239E+02;  2.1160790E-01; -5.1676299E+03;3;  1.5613605E+01;  0.0000000E+00;  5.4441743E+00;0;  1.7571013E-01;  8.9563467E+03;  0.0000000E+00; -5.2022773E-01;  4.0000000E+04;  0.0000000E+00;  3.9527680E+04;  2.4022932E-01;  0.0000000E+00; -6.4519197E-02;  6.3971709E+03;
  9.3918228E-01;  9.9999998E-03; -2.5180620E-01;7636;  1.3031915E-02;  0.0000000E+00;  5.8506265E-02;  9.9413763E+02;  2.1141455E-01; -4.8567334E+03;3;  1.4462053E+01;  0.0000000E+00;  5.4382153E+00;0;  2.2473651E-01;  8.9790518E+03;  0.0000000E+00; -4.5707786E-01;  4.0000000E+04;  0.0000000E+00;  3.9509176E+04;  2.8931221E-01;  0.0000000E+00; -6.4575702E-02;  4.0080901E+03;
  9.3944395E-01;  9.9999998E-03; -2.4178152E-01;7637;  8.4842211E-03;  0.0000000E+00;  5.7665408E-02;  9.9459949E+02;  2.1143655E-01; -4.4741353E+03;3;  1.3051445E+01;  0.0000000E+00;  5.5146766E+00;0;  2.8618762E-01;  8.9818691E+03;  0.0000000E+00; -2.4809976E-01;  4.0000000E+04;  0.0000000E+00;  3.9499059E+04;  3.5353956E-01;  0.0000000E+00; -6.7351945E-02;  2.6717549E+03;
  9.3954146E-01;  9.9999998E-03; -2.3169835E-01;7638;  3.9185788E-03;  0.0000000E+00;  5.6494106E-02;  9.9510596E+02;  2.1139635E-01; -4.0545032E+03;3;  1.1515772E+01;  0.0000000E+00;  5.5998001E+00;0;  3.4572750E-01;  8.9878076E+03;  0.0000000E+00; -4.4073291E-02;  4.0000000E+04;  0.0000000E+00;  3.9504117E+04;  4.2049348E-01;  0.0000000E+00; -7.4765988E-02;  3.3027627E+03;
  9.3936807E-01;  9.9999998E-03; -2.2154288E-01;7639; -6.6801772E-04;  0.0000000E+00;  5.5294942E-02;  9.9548578E+02;  2.1126407E-01; -3.7398530E+03;3;  1.0074542E+01;  0.0000000E+00;  5.5620561E+00;0;  4.0037277E-01;  9.0003838E+03;  0.0000000E+00;  6.5295987E-02;  4.0000000E+04;  0.0000000E+00;  3.9512340E+04;  4.8652965E-01;  0.0000000E+00; -8.6156867E-02;  4.4080518E+03;
  9.3900782E-01;  9.9999998E-03; -2.1140318E-01;7640; -5.2422169E-03;  0.0000000E+00;  5.4082718E-02;  9.9553613E+02;  2.1107981E-01; -3.6981277E+03;3;  8.7534971E+00;  0.0000000E+00;  5.4658527E+00;0;  4.5174903E-01;  9.0163584E+03;  0.0000000E+00;  5.9213307E-02;  4.0000000E+04;  0.0000000E+00;  3.9506879E+04;  5.5120057E-01;  0.0000000E+00; -9.9451542E-02;  3.8497024E+03;
  9.3859172E-01;  9.9999998E-03; -2.0131569E-01;7641; -9.7927051E-03;  0.0000000E+00;  5.2726582E-02;  9.9536847E+02;  2.1088752E-01; -3.8370342E+03;3;  7.5646777E+00;  0.0000000E+00;  5.2775993E+00;0;  5.0258696E-01;  9.0312295E+03;  0.0000000E+00; -4.4281330E-02;  4.0000000E+04;  0.0000000E+00;  3.9494453E+04;  6.1602139E-01;  0.0000000E+00; -1.1343442E-01;  2.5551699E+03;
  9.3819976E-01;  9.9999998E-03; -1.9124115E-01;7642; -1.4317729E-02;  0.0000000E+00;  5.1224519E-02;  9.9511230E+02;  2.1071546E-01; -4.0492710E+03;3;  6.4330726E+00;  0.0000000E+00;  5.0122318E+00;0;  5.5448693E-01;  9.0427578E+03;  0.0000000E+00; -2.1355295E-01;  4.0000000E+04;  0.0000000E+00;  3.9483320E+04;  6.8227845E-01;  0.0000000E+00; -1.2779154E-01;  1.6705392E+03;
  9.3793064E-01;  9.9999998E-03; -1.8117157E-01;7643; -1.8793862E-02;  0.0000000E+00;  4.9643077E-02;  9.9481995E+02;  2.1060552E-01; -4.2914810E+03;3;  5.3796611E+00;  0.0000000E+00;  4.6747718E+00;0;  6.0990804E-01;  9.0482910E+03;  0.0000000E+00; -4.0310773E-01;  4.0000000E+04;  0.0000000E+00;  3.9474516E+04;  7.5227624E-01;  0.0000000E+00; -1.4236820E-01;  1.5392620E+03;
  9.3780839E-01;  9.9999998E-03; -1.7110334E-01;7644; -2.3185961E-02;  0.0000000E+00;  4.7995362E-02;  9.9451227E+02;  2.1056259E-01; -4.5463813E+03;3;  4.3844247E+00;  0.0000000E+00;  4.2724595E+00;0;  6.6959172E-01;  9.0476318E+03;  0.0000000E+00; -5.7202315E-01;  4.0000000E+04;  0.0000000E+00;  3.9468188E+04;  8.2656348E-01;  0.0000000E+00; -1.5697177E-01;  1.8914609E+03;
  9.3780857E-01;  9.9999998E-03; -1.6103518E-01;7645; -2.7453749E-02;  0.0000000E+00;  4.6266716E-02;  9.9420996E+02;  2.1057622E-01; -4.7968374E+03;3;  3.4034708E+00;  0.0000000E+00;  3.8331373E+00;0;  7.3285854E-01;  9.0419385E+03;  0.0000000E+00; -6.8753606E-01;  4.0000000E+04;  0.0000000E+00;  3.9463883E+04;  9.0424514E-01;  0.0000000E+00; -1.7138657E-01;  2.2697517E+03;
  9.3792003E-01;  9.9999998E-03; -1.5096882E-01;7646; -3.1561483E-02;  0.0000000E+00;  4.4447668E-02;  9.9392975E+02;  2.1064571E-01; -5.0289736E+03;3;  2.4444990E+00;  0.0000000E+00;  3.3339658E+00;0;  7.9950082E-01;  9.0321797E+03;  0.0000000E+00; -7.3006892E-01;  4.0000000E+04;  0.0000000E+00;  3.9461387E+04;  9.8496586E-01;  0.0000000E+00; -1.8546501E-01;  2.5335669E+03;
  9.3814945E-01;  9.9999998E-03; -1.4090896E-01;7647; -3.5476014E-02;  0.0000000E+00;  4.2540208E-02;  9.9368524E+02;  2.1076785E-01; -5.2315308E+03;3;  1.4932125E+00;  0.0000000E+00;  2.7672427E+00;0;  8.7004119E-01;  9.0185439E+03;  0.0000000E+00; -6.9811225E-01;  4.0000000E+04;  0.0000000E+00;  3.9460332E+04;  1.0692348E+00;  0.0000000E+00; -1.9919364E-01;  2.7319221E+03;
  9.3848276E-01;  9.9999998E-03; -1.3086374E-01;7648; -3.9161634E-02;  0.0000000E+00;  4.0537871E-02;  9.9348883E+02;  2.1093810E-01; -5.3942373E+03;3;  5.0115138E-01;  0.0000000E+00;  2.1601772E+00;0;  9.4411701E-01;  9.0022080E+03;  0.0000000E+00; -6.0704255E-01;  4.0000000E+04;  0.0000000E+00;  3.9459301E+04;  1.1567765E+00;  0.0000000E+00; -2.1265954E-01;  2.9715425E+03;
  9.3884403E-01;  9.9999998E-03; -1.2083316E-01;7649; -4.2586673E-02;  0.0000000E+00;  3.8416490E-02;  9.9334088E+02;  2.1112068E-01; -5.5167979E+03;3; -5.8889610E-01;  0.0000000E+00;  1.5498532E+00;0;  1.0183718E+00;  8.9860674E+03;  0.0000000E+00; -4.8261809E-01;  4.0000000E+04;  0.0000000E+00;  3.9457508E+04;  1.2442633E+00;  0.0000000E+00; -2.2589147E-01;  3.3036880E+03;
  9.3915385E-01;  9.9999998E-03; -1.1081570E-01;7650; -4.5713075E-02;  0.0000000E+00;  3.6141038E-02;  9.9323615E+02;  2.1128200E-01; -5.6036079E+03;3; -1.7106971E+00;  0.0000000E+00;  8.4318280E-01;0;  1.0886490E+00;  8.9730771E+03;  0.0000000E+00; -3.5158193E-01;  4.0000000E+04;  0.0000000E+00;  3.9454324E+04;  1.3274289E+00;  0.0000000E+00; -2.3877992E-01;  3.7185063E+03;
  9.6330518E-01;  9.9999998E-03; -2.6199463E-01;7696;  1.4775654E-02;  0.0000000E+00;  7.0268437E-02;  9.9426202E+02;  2.2030680E-01; -4.7536274E+03;3;  1.7086359E+01;  0.0000000E+00;  8.3519526E+00;0;  7.5768226E-01;  8.2717041E+03;  0.0000000E+00; -9.0318525E-01;  4.0000000E+04;  0.0000000E+00;  3.9500922E+04;  8.8043225E-01;  0.0000000E+00; -1.2274999E-01;  7.1924146E+03;
  9.6308970E-01;  9.9999998E-03; -2.5198334E-01;7697;  1.0717317E-02;  0.0000000E+00;  7.0068806E-02;  9.9491406E+02;  2.2016816E-01; -4.2134639E+03;3;  1.5554293E+01;  0.0000000E+00;  8.7647867E+00;0;  8.5651839E-01;  8.2936338E+03;  0.0000000E+00; -3.0737340E-01;  4.0000000E+04;  0.0000000E+00;  3.9480039E+04;  9.7028184E-01;  0.0000000E+00; -1.1376347E-01;  4.1511685E+03;
  9.6339631E-01;  9.9999998E-03; -2.4194670E-01;7698;  6.5166391E-03;  0.0000000E+00;  6.9067463E-02;  9.9574792E+02;  2.2017166E-01; -3.5226426E+03;3;  1.3673851E+01;  0.0000000E+00;  8.8963900E+00;0;  9.8143876E-01;  8.3032217E+03;  0.0000000E+00;  5.4931992E-01;  4.0000000E+04;  0.0000000E+00;  3.9475238E+04;  1.0896684E+00;  0.0000000E+00; -1.0822964E-01;  3.9126838E+03;
  9.6347231E-01;  9.9999998E-03; -2.3185156E-01;7699;  2.2932272E-03;  0.0000000E+00;  6.7866012E-02;  9.9654321E+02;  2.2011933E-01; -2.8637705E+03;3;  1.1892833E+01;  0.0000000E+00;  8.9885540E+00;0;  1.1001608E+00;  8.3147832E+03;  0.0000000E+00;  1.3313984E+00;  4.0000000E+04;  0.0000000E+00;  3.9482344E+04;  1.2099211E+00;  0.0000000E+00; -1.0976022E-01;  5.9421982E+03;
  9.6317542E-01;  9.9999998E-03; -2.2169502E-01;7700; -1.9957745E-03;  0.0000000E+00;  6.6652477E-02;  9.9709399E+02;  2.1997862E-01; -2.4075029E+03;3;  1.0340994E+01;  0.0000000E+00;  9.0612497E+00;0;  1.2062119E+00;  8.3308906E+03;  0.0000000E+00;  1.8475498E+00;  4.0000000E+04;  0.0000000E+00;  3.9487926E+04;  1.3228661E+00;  0.0000000E+00; -1.1665419E-01;  7.7678706E+03;
  9.6253788E-01;  9.9999998E-03; -2.1154730E-01;7701; -6.3868682E-03;  0.0000000E+00;  6.5283135E-02;  9.9723529E+02;  2.1976128E-01; -2.2904248E+03;3;  9.0794811E+00;  0.0000000E+00;  9.0006866E+00;0;  1.2993350E+00;  8.3507861E+03;  0.0000000E+00;  2.0350506E+00;  4.0000000E+04;  0.0000000E+00;  3.9480086E+04;  1.4259855E+00;  0.0000000E+00; -1.2665042E-01;  7.9909585E+03;
  9.6182919E-01;  9.9999998E-03; -2.0143563E-01;7702; -1.0884766E-02;  0.0000000E+00;  6.3698858E-02;  9.9715967E+02;  2.1953610E-01; -2.3530884E+03;3;  8.0497065E+00;  0.0000000E+00;  8.8038063E+00;0;  1.3898915E+00;  8.3698232E+03;  0.0000000E+00;  1.9458338E+00;  4.0000000E+04;  0.0000000E+00;  3.9465504E+04;  1.5286834E+00;  0.0000000E+00; -1.3879189E-01;  7.4021465E+03;
  9.6124178E-01;  9.9999998E-03; -1.9133820E-01;7703; -1.5434967E-02;  0.0000000E+00;  6.1968662E-02;  9.9699188E+02;  2.1935341E-01; -2.4920930E+03;3;  7.0639286E+00;  0.0000000E+00;  8.4490290E+00;0;  1.4861468E+00;  8.3841885E+03;  0.0000000E+00;  1.6413739E+00;  4.0000000E+04;  0.0000000E+00;  3.9450734E+04;  1.6387043E+00;  0.0000000E+00; -1.5255751E-01;  6.5432988E+03;
  9.6082121E-01;  9.9999998E-03; -1.8125516E-01;7704; -1.9970998E-02;  0.0000000E+00;  6.0131300E-02;  9.9676312E+02;  2.1922962E-01; -2.6816125E+03;3;  6.0581880E+00;  0.0000000E+00;  8.0046129E+00;0;  1.5897382E+00;  8.3927617E+03;  0.0000000E+00;  1.1914649E+00;  4.0000000E+04;  0.0000000E+00;  3.9438457E+04;  1.7570462E+00;  0.0000000E+00; -1.6730800E-01;  5.6302319E+03;
  9.6059555E-01;  9.9999998E-03; -1.7118026E-01;7705; -2.4439091E-02;  0.0000000E+00;  5.8197845E-02;  9.9650366E+02;  2.1917439E-01; -2.8965627E+03;3;  5.0653281E+00;  0.0000000E+00;  7.5063114E+00;0;  1.7018541E+00;  8.3951230E+03;  0.0000000E+00;  6.8835765E-01;  4.0000000E+04;  0.0000000E+00;  3.9428766E+04;  1.8843485E+00;  0.0000000E+00; -1.8249436E-01;  4.9888062E+03;
  9.6055228E-01;  9.9999998E-03; -1.6111378E-01;7706; -2.8790699E-02;  0.0000000E+00;  5.6159206E-02;  9.9623004E+02;  2.1918069E-01; -3.1232153E+03;3;  4.1662574E+00;  0.0000000E+00;  6.8638549E+00;0;  1.8217236E+00;  8.3920303E+03;  0.0000000E+00;  2.2305419E-01;  4.0000000E+04;  0.0000000E+00;  3.9421168E+04;  2.0193422E+00;  0.0000000E+00; -1.9761859E-01;  4.8195117E+03;
  9.6065336E-01;  9.9999998E-03; -1.5105568E-01;7707; -3.2969959E-02;  0.0000000E+00;  5.3978432E-02;  9.9596625E+02;  2.1923572E-01; -3.3417698E+03;3;  3.2439747E+00;  0.0000000E+00;  6.2112870E+00;0;  1.9472513E+00;  8.3848623E+03;  0.0000000E+00; -1.3824542E-01;  4.0000000E+04;  0.0000000E+00;  3.9415844E+04;  2.1595373E+00;  0.0000000E+00; -2.1228598E-01;  5.0061079E+03;
  9.6086144E-01;  9.9999998E-03; -1.4101323E-01;7708; -3.6933750E-02;  0.0000000E+00;  5.1642150E-02;  9.9572638E+02;  2.1932663E-01; -3.5404731E+03;3;  2.3398428E+00;  0.0000000E+00;  5.4525566E+00;0;  2.0761352E+00;  8.3752158E+03;  0.0000000E+00; -3.6525676E-01;  4.0000000E+04;  0.0000000E+00;  3.9411840E+04;  2.3024137E+00;  0.0000000E+00; -2.2627862E-01;  5.3561323E+03;
  9.6115845E-01;  9.9999998E-03; -1.3098882E-01;7709; -4.0646572E-02;  0.0000000E+00;  4.9151380E-02;  9.9553149E+02;  2.1944574E-01; -3.7019441E+03;3;  1.3016722E+00;  0.0000000E+00;  4.7287750E+00;0;  2.2070649E+00;  8.3641113E+03;  0.0000000E+00; -4.6225545E-01;  4.0000000E+04;  0.0000000E+00;  3.9407977E+04;  2.4466925E+00;  0.0000000E+00; -2.3962754E-01;  5.8251626E+03;
  9.6147615E-01;  9.9999998E-03; -1.2097479E-01;7710; -4.4077091E-02;  0.0000000E+00;  4.6486799E-02;  9.9538452E+02;  2.1957016E-01; -3.8237141E+03;3;  2.0573239E-01;  0.0000000E+00;  3.8919027E+00;0;  2.3352165E+00;  8.3535244E+03;  0.0000000E+00; -4.5951384E-01;  4.0000000E+04;  0.0000000E+00;  3.9403379E+04;  2.5876262E+00;  0.0000000E+00; -2.5240961E-01;  6.4425835E+03;
  9.6174639E-01;  9.9999998E-03; -1.1095764E-01;7711; -4.7189489E-02;  0.0000000E+00;  4.3629248E-02;  9.9526495E+02;  2.1967565E-01; -3.9227688E+03;3; -9.2231888E-01;  0.0000000E+00;  2.7941635E+00;0;  2.4553087E+00;  8.3451787E+03;  0.0000000E+00; -3.9850026E-01;  4.0000000E+04;  0.0000000E+00;  3.9397559E+04;  2.7198982E+00;  0.0000000E+00; -2.6458961E-01;  7.2051133E+03;
  9.8773283E-01;  9.9999998E-03; -2.6212192E-01;7757;  1.0955712E-02;  0.0000000E+00;  8.1282116E-02;  9.9290173E+02;  2.2514926E-01; -5.8804785E+03;3;  2.0287752E+01;  0.0000000E+00;  1.4214701E+01;0;  1.8076231E+00;  7.8941655E+03;  0.0000000E+00; -1.3028586E+00;  4.0000000E+04;  0.0000000E+00;  3.9492543E+04;  2.0786440E+00;  0.0000000E+00; -2.7102092E-01;  8.4764902E+03;
  9.8738581E-01;  9.9999998E-03; -2.5211233E-01;7758;  7.4800258E-03;  0.0000000E+00;  8.1463069E-02;  9.9367145E+02;  2.2503993E-01; -5.2428013E+03;3;  1.8324968E+01;  0.0000000E+00;  1.2350657E+01;0;  1.9602156E+00;  7.9160127E+03;  0.0000000E+00; -8.5044689E-02;  4.0000000E+04;  0.0000000E+00;  3.9468062E+04;  2.1966338E+00;  0.0000000E+00; -2.3641829E-01;  5.5710884E+03;
  9.8731387E-01;  9.9999998E-03; -2.4206249E-01;7759;  3.8715038E-03;  0.0000000E+00;  8.0376044E-02;  9.9467212E+02;  2.2496399E-01; -4.4138296E+03;3;  1.4723164E+01;  0.0000000E+00;  1.2228202E+01;0;  2.1386051E+00;  7.9344028E+03;  0.0000000E+00;  1.1030899E+00;  4.0000000E+04;  0.0000000E+00;  3.9465996E+04;  2.3429153E+00;  0.0000000E+00; -2.0431027E-01;  6.7828608E+03;
  9.8699778E-01;  9.9999998E-03; -2.3197502E-01;7760;  3.4453179E-04;  0.0000000E+00;  7.9234950E-02;  9.9554303E+02;  2.2486740E-01; -3.6923555E+03;3;  1.2110931E+01;  0.0000000E+00;  1.3196243E+01;0;  2.3015549E+00;  7.9524185E+03;  0.0000000E+00;  2.0199215E+00;  4.0000000E+04;  0.0000000E+00;  3.9468691E+04;  2.4846385E+00;  0.0000000E+00; -1.8308362E-01;  9.0750791E+03;
  9.8647332E-01;  9.9999998E-03; -2.2187924E-01;7761; -3.3749898E-03;  0.0000000E+00;  7.7968352E-02;  9.9614001E+02;  2.2475837E-01; -3.1977776E+03;3;  1.0562869E+01;  0.0000000E+00;  1.3958755E+01;0;  2.4511499E+00;  7.9696992E+03;  0.0000000E+00;  2.6031179E+00;  4.0000000E+04;  0.0000000E+00;  3.9463473E+04;  2.6224523E+00;  0.0000000E+00; -1.7130239E-01;  1.0598020E+04;
  9.8578322E-01;  9.9999998E-03; -2.1181701E-01;7762; -7.4368319E-03;  0.0000000E+00;  7.6477170E-02;  9.9644489E+02;  2.2465067E-01; -2.9452063E+03;3;  1.0698173E+01;  0.0000000E+00;  1.3728858E+01;0;  2.5895472E+00;  7.9856245E+03;  0.0000000E+00;  2.8484755E+00;  4.0000000E+04;  0.0000000E+00;  3.9449641E+04;  2.7567117E+00;  0.0000000E+00; -1.6716453E-01;  1.1126338E+04;
  9.8514330E-01;  9.9999998E-03; -2.0178159E-01;7763; -1.1752962E-02;  0.0000000E+00;  7.4861228E-02;  9.9659125E+02;  2.2455938E-01; -2.8239329E+03;3;  9.7271738E+00;  0.0000000E+00;  1.3176417E+01;0;  2.7301064E+00;  7.9985000E+03;  0.0000000E+00;  2.7911651E+00;  4.0000000E+04;  0.0000000E+00;  3.9434188E+04;  2.8994222E+00;  0.0000000E+00; -1.6931571E-01;  1.1001472E+04;
  9.8446840E-01;  9.9999998E-03; -1.9171919E-01;7764; -1.6122775E-02;  0.0000000E+00;  7.3038697E-02;  9.9662701E+02;  2.2446705E-01; -2.7943069E+03;3;  8.6253996E+00;  0.0000000E+00;  1.2585348E+01;0;  2.8673842E+00;  8.0094478E+03;  0.0000000E+00;  2.4588709E+00;  4.0000000E+04;  0.0000000E+00;  3.9421055E+04;  3.0432889E+00;  0.0000000E+00; -1.7590472E-01;  1.0171612E+04;
  9.8384887E-01;  9.9999998E-03; -1.8163140E-01;7765; -2.0495553E-02;  0.0000000E+00;  7.1004041E-02;  9.9654333E+02;  2.2438842E-01; -2.8636360E+03;3;  7.5472875E+00;  0.0000000E+00;  1.1873060E+01;0;  3.0060372E+00;  8.0175703E+03;  0.0000000E+00;  1.9245626E+00;  4.0000000E+04;  0.0000000E+00;  3.9408242E+04;  3.1916525E+00;  0.0000000E+00; -1.8561524E-01;  8.9250518E+03;
  9.8339182E-01;  9.9999998E-03; -1.7152967E-01;7766; -2.4822230E-02;  0.0000000E+00;  6.8790078E-02;  9.9636737E+02;  2.2434184E-01; -3.0094041E+03;3;  6.3469758E+00;  0.0000000E+00;  1.1450867E+01;0;  3.1519854E+00;  8.0217769E+03;  0.0000000E+00;  1.2900245E+00;  4.0000000E+04;  0.0000000E+00;  3.9396137E+04;  3.3491840E+00;  0.0000000E+00; -1.9719853E-01;  7.8648193E+03;
  9.8312664E-01;  9.9999998E-03; -1.6142613E-01;7767; -2.9035214E-02;  0.0000000E+00;  6.6371322E-02;  9.9613232E+02;  2.2432743E-01; -3.2041555E+03;3;  5.2767453E+00;  0.0000000E+00;  1.0816738E+01;0;  3.3063190E+00;  8.0221211E+03;  0.0000000E+00;  6.6778129E-01;  4.0000000E+04;  0.0000000E+00;  3.9385336E+04;  3.5158191E+00;  0.0000000E+00; -2.0949998E-01;  7.4893984E+03;
  9.8305804E-01;  9.9999998E-03; -1.5133089E-01;7768; -3.3077724E-02;  0.0000000E+00;  6.3735172E-02;  9.9588129E+02;  2.2434586E-01; -3.4121399E+03;3;  4.3155942E+00;  0.0000000E+00;  1.0033050E+01;0;  3.4688604E+00;  8.0190684E+03;  0.0000000E+00;  1.5186821E-01;  4.0000000E+04;  0.0000000E+00;  3.9376230E+04;  3.6904743E+00;  0.0000000E+00; -2.2161399E-01;  7.7895581E+03;
  9.8319316E-01;  9.9999998E-03; -1.4124592E-01;7769; -3.6905080E-02;  0.0000000E+00;  6.0884677E-02;  9.9564722E+02;  2.2439902E-01; -3.6060508E+03;3;  3.3154140E+00;  0.0000000E+00;  9.4096699E+00;0;  3.6400723E+00;  8.0131938E+03;  0.0000000E+00; -2.0531701E-01;  4.0000000E+04;  0.0000000E+00;  3.9368430E+04;  3.8730433E+00;  0.0000000E+00; -2.3297094E-01;  8.4456230E+03;
  9.8352224E-01;  9.9999998E-03; -1.3116454E-01;7770; -4.0472876E-02;  0.0000000E+00;  5.7816442E-02;  9.9545142E+02;  2.2447948E-01; -3.7682603E+03;3;  2.3504517E+00;  0.0000000E+00;  8.7632275E+00;0;  3.8193040E+00;  8.0052861E+03;  0.0000000E+00; -3.9744937E-01;  4.0000000E+04;  0.0000000E+00;  3.9361055E+04;  4.0626583E+00;  0.0000000E+00; -2.4335431E-01;  9.2705312E+03;
  9.8393315E-01;  9.9999998E-03; -1.2109379E-01;7771; -4.3742046E-02;  0.0000000E+00;  5.4492209E-02;  9.9529944E+02;  2.2456990E-01; -3.8941262E+03;3;  1.3990797E+00;  0.0000000E+00;  8.1006737E+00;0;  3.9977176E+00;  7.9972554E+03;  0.0000000E+00; -4.5371851E-01;  4.0000000E+04;  0.0000000E+00;  3.9353430E+04;  4.2504625E+00;  0.0000000E+00; -2.5274491E-01;  1.0234312E+04;
  9.8436487E-01;  9.9999998E-03; -1.1103773E-01;7772; -4.6698980E-02;  0.0000000E+00;  5.0919693E-02;  9.9519238E+02;  2.2465618E-01; -3.9828096E+03;3;  4.2542028E-01;  0.0000000E+00;  7.3846798E+00;0;  4.1699886E+00;  7.9900176E+03;  0.0000000E+00; -4.2333105E-01;  4.0000000E+04;  0.0000000E+00;  3.9344539E+04;  4.4310327E+00;  0.0000000E+00; -2.6104382E-01;  1.1338095E+04;
  1.0070689E+00;  9.9999998E-03; -1.4131516E-01;7830;  1.1692604E-01;  0.0000000E+00;  6.3868374E-02;  9.9453851E+02;  2.2635648E-01; -4.5244590E+03;3; -9.6201126E+01;  0.0000000E+00;  3.9763535E+01;0;  5.2660975E+00;  7.8711870E+03;  0.0000000E+00; -3.2333177E-01;  4.0000000E+04;  0.0000000E+00;  3.9330387E+04;  5.4713287E+00;  0.0000000E+00; -2.0523109E-01;  1.1758694E+04;
  1.0070496E+00;  9.9999998E-03; -1.5146159E-01;7829;  1.0232162E-01;  0.0000000E+00;  6.7137107E-02;  9.9472290E+02;  2.2631617E-01; -4.3716836E+03;3; -9.3052818E+01;  0.0000000E+00;  4.0885742E+01;0;  5.1045303E+00;  7.8746504E+03;  0.0000000E+00; -1.2919222E-01;  4.0000000E+04;  0.0000000E+00;  3.9342027E+04;  5.3057547E+00;  0.0000000E+00; -2.0122421E-01;  1.0536370E+04;
  1.0071452E+00;  9.9999998E-03; -1.3117477E-01;7831;  1.3018399E-01;  0.0000000E+00;  6.0286596E-02;  9.9440576E+02;  2.2638483E-01; -4.6344238E+03;3; -9.9032272E+01;  0.0000000E+00;  3.8401657E+01;0;  5.4229679E+00;  7.8680732E+03;  0.0000000E+00; -4.0171266E-01;  4.0000000E+04;  0.0000000E+00;  3.9320285E+04;  5.6313906E+00;  0.0000000E+00; -2.0842251E-01;  1.2947758E+04;
  1.0070820E+00;  9.9999998E-03; -1.6159253E-01;7828;  8.6135514E-02;  0.0000000E+00;  7.0040613E-02;  9.9493176E+02;  2.2626740E-01; -4.1986631E+03;3; -8.9682587E+01;  0.0000000E+00;  4.1504734E+01;0;  4.9395456E+00;  7.8778394E+03;  0.0000000E+00;  1.8648280E-01;  4.0000000E+04;  0.0000000E+00;  3.9355344E+04;  5.1363940E+00;  0.0000000E+00; -1.9684823E-01;  9.4151602E+03;
  1.0074064E+00;  9.9999998E-03; -1.2106169E-01;7832;  1.4423603E-01;  0.0000000E+00;  5.6234848E-02;  9.9434631E+02;  2.2641057E-01; -4.6836528E+03;3; -1.0108264E+02;  0.0000000E+00;  3.6780010E+01;0;  5.5805326E+00;  7.8652119E+03;  0.0000000E+00; -3.9165151E-01;  4.0000000E+04;  0.0000000E+00;  3.9310539E+04;  5.7906866E+00;  0.0000000E+00; -2.1015394E-01;  1.4139063E+04;
  1.0072480E+00;  9.9999998E-03; -1.7169626E-01;7827;  6.9783621E-02;  0.0000000E+00;  7.2433196E-02;  9.9512421E+02;  2.2621855E-01; -4.0392207E+03;3; -8.6111755E+01;  0.0000000E+00;  4.1850780E+01;0;  4.7774210E+00;  7.8795400E+03;  0.0000000E+00;  5.9226686E-01;  4.0000000E+04;  0.0000000E+00;  3.9370621E+04;  4.9703326E+00;  0.0000000E+00; -1.9291149E-01;  8.7071816E+03;
  1.0076340E+00;  9.9999998E-03; -1.8179061E-01;7826;  5.4442581E-02;  0.0000000E+00;  7.4249908E-02;  9.9524567E+02;  2.2618505E-01; -3.9385869E+03;3; -8.2420441E+01;  0.0000000E+00;  4.1928234E+01;0;  4.6246519E+00;  7.8786006E+03;  0.0000000E+00;  1.0205292E+00;  4.0000000E+04;  0.0000000E+00;  3.9386238E+04;  4.8154144E+00;  0.0000000E+00; -1.9076258E-01;  8.6321592E+03;
  1.0079386E+00;  9.9999998E-03; -1.1098947E-01;7833;  1.6070661E-01;  0.0000000E+00;  5.1555570E-02;  9.9434833E+02;  2.2644487E-01; -4.6819712E+03;3; -1.0190480E+02;  0.0000000E+00;  3.5009773E+01;0;  5.7413511E+00;  7.8625498E+03;  0.0000000E+00; -3.3041656E-01;  4.0000000E+04;  0.0000000E+00;  3.9300391E+04;  5.9509544E+00;  0.0000000E+00; -2.0960324E-01;  1.5399226E+04;
  1.0080653E+00;  9.9999998E-03; -1.9185717E-01;7825;  3.7792508E-02;  0.0000000E+00;  7.5690910E-02;  9.9524896E+02;  2.2615512E-01; -3.9358696E+03;3; -7.8998917E+01;  0.0000000E+00;  4.1843796E+01;0;  4.4724197E+00;  7.8752061E+03;  0.0000000E+00;  1.4030453E+00;  4.0000000E+04;  0.0000000E+00;  3.9401758E+04;  4.6645174E+00;  0.0000000E+00; -1.9209747E-01;  9.0325273E+03;
  1.0085571E+00;  9.9999998E-03; -2.0190912E-01;7824;  2.0042734E-02;  0.0000000E+00;  7.6788805E-02;  9.9510052E+02;  2.2613822E-01; -4.0588677E+03;3; -7.5654228E+01;  0.0000000E+00;  4.1102272E+01;0;  4.3227210E+00;  7.8689072E+03;  0.0000000E+00;  1.6716107E+00;  4.0000000E+04;  0.0000000E+00;  3.9416945E+04;  4.5212998E+00;  0.0000000E+00; -1.9857883E-01;  9.4897354E+03;
  1.0091151E+00;  9.9999998E-03; -2.1195082E-01;7823;  2.3153636E-03;  0.0000000E+00;  7.8044139E-02;  9.9480615E+02;  2.2613586E-01; -4.3026938E+03;3; -6.8803642E+01;  0.0000000E+00;  4.1501175E+01;0;  4.1759796E+00;  7.8594619E+03;  0.0000000E+00;  1.7734561E+00;  4.0000000E+04;  0.0000000E+00;  3.9431945E+04;  4.3883333E+00;  0.0000000E+00; -2.1235366E-01;  9.6981660E+03;
  1.0097196E+00;  9.9999998E-03; -2.2200795E-01;7822; -6.1195530E-03;  0.0000000E+00;  8.0527537E-02;  9.9434473E+02;  2.2615293E-01; -4.6849746E+03;3; -1.2458147E+01;  0.0000000E+00;  3.8993378E+01;0;  4.0229764E+00;  7.8471147E+03;  0.0000000E+00;  1.6751238E+00;  4.0000000E+04;  0.0000000E+00;  3.9445090E+04;  4.2611976E+00;  0.0000000E+00; -2.3822103E-01;  9.5504668E+03;
  1.0103776E+00;  9.9999998E-03; -2.3208392E-01;7821; -4.7399909E-03;  0.0000000E+00;  8.2078338E-02;  9.9367834E+02;  2.2619058E-01; -5.2370161E+03;3;  1.0918240E+01;  0.0000000E+00;  3.4115864E+01;0;  3.8613462E+00;  7.8322344E+03;  0.0000000E+00;  1.3462455E+00;  4.0000000E+04;  0.0000000E+00;  3.9451945E+04;  4.1385179E+00;  0.0000000E+00; -2.7717161E-01;  8.8225645E+03;
  1.0109198E+00;  9.9999998E-03; -2.4216735E-01;7820; -2.1540141E-03;  0.0000000E+00;  8.3850034E-02;  9.9275818E+02;  2.2623953E-01; -5.9993081E+03;3;  1.7823292E+01;  0.0000000E+00;  3.3165958E+01;0;  3.6813200E+00;  7.8156216E+03;  0.0000000E+00;  7.3795736E-01;  4.0000000E+04;  0.0000000E+00;  3.9449516E+04;  4.0144300E+00;  0.0000000E+00; -3.3311003E-01;  7.0924917E+03;
  1.0113058E+00;  9.9999998E-03; -2.5223461E-01;7819;  6.5585849E-04;  0.0000000E+00;  8.6652689E-02;  9.9164612E+02;  2.2629669E-01; -6.9205474E+03;3;  2.2167505E+01;  0.0000000E+00;  3.2891781E+01;0;  3.4737155E+00;  7.7978076E+03;  0.0000000E+00; -2.0374195E-01;  4.0000000E+04;  0.0000000E+00;  3.9442035E+04;  3.8876667E+00;  0.0000000E+00; -4.1395107E-01;  4.5638647E+03;
  1.0116979E+00;  9.9999998E-03; -2.6226324E-01;7818;  3.6767486E-03;  0.0000000E+00;  8.9921840E-02;  9.9065778E+02;  2.2635609E-01; -7.7393271E+03;3;  2.6033461E+01;  0.0000000E+00;  3.1658241E+01;0;  3.2486219E+00;  7.7791494E+03;  0.0000000E+00; -1.4419742E+00;  4.0000000E+04;  0.0000000E+00;  3.9449551E+04;  3.7715299E+00;  0.0000000E+00; -5.2290803E-01;  4.1582754E+03;
  1.0314095E+00;  9.9999998E-03; -1.1096812E-01;7894;  4.1309685E-01;  0.0000000E+00;  2.1109598E-02;  9.9588306E+02;  2.2593173E-01; -3.4104897E+03;3; -9.0154587E+01;  0.0000000E+00;  4.9963531E+01;0;  6.5104561E+00;  7.9293750E+03;  0.0000000E+00; -2.8179908E-01;  4.0000000E+04;  0.0000000E+00;  3.9274355E+04;  6.6080604E+00;  0.0000000E+00; -9.7604208E-02;  1.8094018E+04;
  1.0309390E+00;  9.9999998E-03; -1.6152330E-01;7889;  3.2138658E-01;  0.0000000E+00;  3.4963395E-02;  9.9568494E+02;  2.2580066E-01; -3.5746201E+03;3; -1.0028997E+02;  0.0000000E+00;  5.9019833E+01;0;  6.0622725E+00;  7.9306714E+03;  0.0000000E+00; -3.6465520E-01;  4.0000000E+04;  0.0000000E+00;  3.9329664E+04;  6.2165189E+00;  0.0000000E+00; -1.5424632E-01;  1.1672004E+04;
  1.0311214E+00;  9.9999998E-03; -1.5143049E-01;7890;  3.4390616E-01;  0.0000000E+00;  3.1971075E-02;  9.9564032E+02;  2.2586083E-01; -3.6115527E+03;3; -9.8035919E+01;  0.0000000E+00;  5.7724373E+01;0;  6.1677279E+00;  7.9296646E+03;  0.0000000E+00; -4.0344205E-01;  4.0000000E+04;  0.0000000E+00;  3.9314867E+04;  6.3103352E+00;  0.0000000E+00; -1.4260741E-01;  1.3304729E+04;
  1.0308827E+00;  9.9999998E-03; -1.7162994E-01;7888;  2.9833934E-01;  0.0000000E+00;  3.7664603E-02;  9.9573645E+02;  2.2572656E-01; -3.5319094E+03;3; -1.0246513E+02;  0.0000000E+00;  6.0193474E+01;0;  5.9539208E+00;  7.9311533E+03;  0.0000000E+00; -2.8309616E-01;  4.0000000E+04;  0.0000000E+00;  3.9346582E+04;  6.1198769E+00;  0.0000000E+00; -1.6595587E-01;  9.9144912E+03;
  1.0314165E+00;  9.9999998E-03; -1.4133555E-01;7891;  3.6588451E-01;  0.0000000E+00;  2.8783251E-02;  9.9563934E+02;  2.2590664E-01; -3.6123904E+03;3; -9.5581039E+01;  0.0000000E+00;  5.6049107E+01;0;  6.2683740E+00;  7.9289292E+03;  0.0000000E+00; -4.0065706E-01;  4.0000000E+04;  0.0000000E+00;  3.9302227E+04;  6.3988905E+00;  0.0000000E+00; -1.3051637E-01;  1.4744984E+04;
  1.0316298E+00;  9.9999998E-03; -1.2109718E-01;7893;  4.0105337E-01;  0.0000000E+00;  2.3303503E-02;  9.9578217E+02;  2.2593705E-01; -3.4940830E+03;3; -9.1449707E+01;  0.0000000E+00;  5.2210072E+01;0;  6.4393210E+00;  7.9288623E+03;  0.0000000E+00; -3.2743385E-01;  4.0000000E+04;  0.0000000E+00;  3.9282625E+04;  6.5468669E+00;  0.0000000E+00; -1.0754572E-01;  1.7080051E+04;
  1.0308337E+00;  9.9999998E-03; -1.8173870E-01;7887;  2.7346230E-01;  0.0000000E+00;  4.0377129E-02;  9.9572577E+02;  2.2564669E-01; -3.5407974E+03;3; -1.0484029E+02;  0.0000000E+00;  6.1022701E+01;0;  5.8398418E+00;  7.9299722E+03;  0.0000000E+00; -1.7000185E-01;  4.0000000E+04;  0.0000000E+00;  3.9364520E+04;  6.0185308E+00;  0.0000000E+00; -1.7868914E-01;  8.1926260E+03;
  1.0307826E+00;  9.9999998E-03; -1.9184667E-01;7886;  2.4683142E-01;  0.0000000E+00;  4.3025501E-02;  9.9559125E+02;  2.2557291E-01; -3.6522405E+03;3; -1.0733447E+02;  0.0000000E+00;  6.1485802E+01;0;  5.7196770E+00;  7.9264028E+03;  0.0000000E+00; -4.5499634E-02;  4.0000000E+04;  0.0000000E+00;  3.9382445E+04;  5.9130926E+00;  0.0000000E+00; -1.9341572E-01;  6.7490859E+03;
  1.0316318E+00;  9.9999998E-03; -1.3122271E-01;7892;  3.8535425E-01;  0.0000000E+00;  2.5828332E-02;  9.9569391E+02;  2.2593072E-01; -3.5671604E+03;3; -9.3284271E+01;  0.0000000E+00;  5.4260567E+01;0;  6.3593087E+00;  7.9286841E+03;  0.0000000E+00; -3.7035406E-01;  4.0000000E+04;  0.0000000E+00;  3.9291707E+04;  6.4778733E+00;  0.0000000E+00; -1.1856474E-01;  1.5988011E+04;
  1.0308964E+00;  9.9999998E-03; -2.0194267E-01;7885;  2.2079001E-01;  0.0000000E+00;  4.5294568E-02;  9.9532227E+02;  2.2551519E-01; -3.8750273E+03;3; -1.1004473E+02;  0.0000000E+00;  6.1835445E+01;0;  5.6011353E+00;  7.9202236E+03;  0.0000000E+00;  5.9281867E-02;  4.0000000E+04;  0.0000000E+00;  3.9398621E+04;  5.8125510E+00;  0.0000000E+00; -2.1141575E-01;  5.7660752E+03;
  1.0311245E+00;  9.9999998E-03; -2.1200486E-01;7884;  1.9522300E-01;  0.0000000E+00;  4.7289640E-02;  9.9491620E+02;  2.2547483E-01; -4.2114287E+03;3; -1.1280083E+02;  0.0000000E+00;  6.1611618E+01;0;  5.4834085E+00;  7.9113140E+03;  0.0000000E+00;  1.2012850E-01;  4.0000000E+04;  0.0000000E+00;  3.9413672E+04;  5.7177949E+00;  0.0000000E+00; -2.3438625E-01;  5.2072358E+03;
  1.0315411E+00;  9.9999998E-03; -2.2204857E-01;7883;  1.7156567E-01;  0.0000000E+00;  4.8972383E-02;  9.9440515E+02;  2.2545046E-01; -4.6347812E+03;3; -1.1568606E+02;  0.0000000E+00;  6.1130386E+01;0;  5.3708482E+00;  7.8999375E+03;  0.0000000E+00;  1.0705865E-01;  4.0000000E+04;  0.0000000E+00;  3.9429000E+04;  5.6350970E+00;  0.0000000E+00; -2.6424891E-01;  5.1164478E+03;
  1.0320988E+00;  9.9999998E-03; -2.3211238E-01;7882;  1.4956568E-01;  0.0000000E+00;  5.0729036E-02;  9.9374365E+02;  2.2544217E-01; -5.1827578E+03;3; -1.1888798E+02;  0.0000000E+00;  6.0167297E+01;0;  5.2606683E+00;  7.8864541E+03;  0.0000000E+00; -8.5654417E-03;  4.0000000E+04;  0.0000000E+00;  3.9440305E+04;  5.5643344E+00;  0.0000000E+00; -3.0366609E-01;  5.2739009E+03;
  1.0326433E+00;  9.9999998E-03; -2.4219869E-01;7881;  1.2764172E-01;  0.0000000E+00;  5.3470962E-02;  9.9283368E+02;  2.2545332E-01; -5.9365850E+03;3; -1.2233294E+02;  0.0000000E+00;  5.8400372E+01;0;  5.1405988E+00;  7.8712280E+03;  0.0000000E+00; -2.6664293E-01;  4.0000000E+04;  0.0000000E+00;  3.9440113E+04;  5.4984775E+00;  0.0000000E+00; -3.5787883E-01;  4.6253926E+03;
  1.0331060E+00;  9.9999998E-03; -2.5227278E-01;7880;  1.0563698E-01;  0.0000000E+00;  5.7980128E-02;  9.9175891E+02;  2.2548260E-01; -6.8269370E+03;3; -1.2605795E+02;  0.0000000E+00;  5.6192131E+01;0;  4.9970369E+00;  7.8549727E+03;  0.0000000E+00; -7.0951754E-01;  4.0000000E+04;  0.0000000E+00;  3.9433547E+04;  5.4341602E+00;  0.0000000E+00; -4.3712321E-01;  3.2286663E+03;
  1.0334073E+00;  9.9999998E-03; -2.6232666E-01;7879;  7.6615751E-02;  0.0000000E+00;  6.4443849E-02;  9.9063458E+02;  2.2551624E-01; -7.7583223E+03;3; -1.2969402E+02;  0.0000000E+00;  5.2819324E+01;0;  4.8147593E+00;  7.8381753E+03;  0.0000000E+00; -1.3264554E+00;  4.0000000E+04;  0.0000000E+00;  3.9427996E+04;  5.3684340E+00;  0.0000000E+00; -5.5367470E-01;  1.9458040E+03;
  1.0535181E+00;  9.9999998E-03; -2.5231054E-01;7941;  2.6166171E-01;  0.0000000E+00;  1.7087501E-02;  9.9411932E+02;  2.2363578E-01; -4.8713589E+03;3; -1.6756717E+02;  0.0000000E+00;  6.2663731E+01;0;  6.1406512E+00;  8.0276880E+03;  0.0000000E+00; -1.0959133E+00;  4.0000000E+04;  0.0000000E+00;  3.9401254E+04;  6.5496683E+00;  0.0000000E+00; -4.0901688E-01;  1.8027230E+03;
  1.0531733E+00;  9.9999998E-03; -2.4224135E-01;7942;  2.8677273E-01;  0.0000000E+00;  1.1621796E-02;  9.9518646E+02;  2.2361374E-01; -3.9874060E+03;3; -1.5992345E+02;  0.0000000E+00;  6.3755096E+01;0;  6.2006197E+00;  8.0437705E+03;  0.0000000E+00; -7.9630804E-01;  4.0000000E+04;  0.0000000E+00;  3.9408344E+04;  6.5478730E+00;  0.0000000E+00; -3.4725347E-01;  1.1911871E+03;
  1.0528352E+00;  9.9999998E-03; -2.3215666E-01;7943;  3.1297094E-01;  0.0000000E+00;  7.8620175E-03;  9.9613055E+02;  2.2361037E-01; -3.2053613E+03;3; -1.5179120E+02;  0.0000000E+00;  6.4313080E+01;0;  6.2431512E+00;  8.0590425E+03;  0.0000000E+00; -5.4639322E-01;  4.0000000E+04;  0.0000000E+00;  3.9411070E+04;  6.5453854E+00;  0.0000000E+00; -3.0223411E-01;  1.5641249E+03;
  1.0539322E+00;  9.9999998E-03; -2.6236647E-01;7940;  2.3764655E-01;  0.0000000E+00;  2.4622144E-02;  9.9303021E+02;  2.2366095E-01; -5.7735781E+03;3; -1.7429750E+02;  0.0000000E+00;  6.0699604E+01;0;  6.0511923E+00;  8.0120132E+03;  0.0000000E+00; -1.3820806E+00;  4.0000000E+04;  0.0000000E+00;  3.9392801E+04;  6.5543518E+00;  0.0000000E+00; -5.0315976E-01;  2.7756895E+03;
  1.0525303E+00;  9.9999998E-03; -2.2210571E-01;7944;  3.3925059E-01;  0.0000000E+00;  5.2297781E-03;  9.9681689E+02;  2.2362471E-01; -2.6368127E+03;3; -1.4344484E+02;  0.0000000E+00;  6.4620049E+01;0;  6.2768216E+00;  8.0728335E+03;  0.0000000E+00; -3.5372326E-01;  4.0000000E+04;  0.0000000E+00;  3.9400625E+04;  6.5418220E+00;  0.0000000E+00; -2.6500043E-01;  2.9851328E+03;
  1.0523636E+00;  9.9999998E-03; -2.1208782E-01;7945;  3.6603838E-01;  0.0000000E+00;  2.8192238E-03;  9.9734906E+02;  2.2365002E-01; -2.1959456E+03;3; -1.3520644E+02;  0.0000000E+00;  6.4474648E+01;0;  6.3074274E+00;  8.0847715E+03;  0.0000000E+00; -2.0288058E-01;  4.0000000E+04;  0.0000000E+00;  3.9385773E+04;  6.5385714E+00;  0.0000000E+00; -2.3114415E-01;  4.8997319E+03;
  1.0523150E+00;  9.9999998E-03; -2.0205186E-01;7946;  3.9315549E-01;  0.0000000E+00;  3.5169607E-04;  9.9779224E+02;  2.2368200E-01; -1.8288439E+03;3; -1.2701073E+02;  0.0000000E+00;  6.4052589E+01;0;  6.3337522E+00;  8.0946646E+03;  0.0000000E+00; -7.3450029E-02;  4.0000000E+04;  0.0000000E+00;  3.9372520E+04;  6.5328569E+00;  0.0000000E+00; -1.9910471E-01;  6.6951460E+03;
  1.0523515E+00;  9.9999998E-03; -1.9198172E-01;7947;  4.2037433E-01;  0.0000000E+00; -2.1338668E-03;  9.9810486E+02;  2.2372966E-01; -1.5698728E+03;3; -1.1888540E+02;  0.0000000E+00;  6.3100136E+01;0;  6.3543186E+00;  8.1021416E+03;  0.0000000E+00;  3.5989799E-02;  4.0000000E+04;  0.0000000E+00;  3.9358379E+04;  6.5224681E+00;  0.0000000E+00; -1.6814934E-01;  8.5386309E+03;
  1.0524815E+00;  9.9999998E-03; -1.8188560E-01;7948;  4.4775814E-01;  0.0000000E+00; -4.6772966E-03;  9.9829608E+02;  2.2378775E-01; -1.4114779E+03;3; -1.1098828E+02;  0.0000000E+00;  6.1957085E+01;0;  6.3689637E+00;  8.1074590E+03;  0.0000000E+00;  1.1418735E-01;  4.0000000E+04;  0.0000000E+00;  3.9342527E+04;  6.5066018E+00;  0.0000000E+00; -1.3763808E-01;  1.0500623E+04;
  1.0528221E+00;  9.9999998E-03; -1.7177610E-01;7949;  4.7619754E-01;  0.0000000E+00; -7.6729725E-03;  9.9842847E+02;  2.2384651E-01; -1.3018156E+03;3; -1.0294650E+02;  0.0000000E+00;  6.0469513E+01;0;  6.3777719E+00;  8.1116841E+03;  0.0000000E+00;  1.5148501E-01;  4.0000000E+04;  0.0000000E+00;  3.9325992E+04;  6.4845028E+00;  0.0000000E+00; -1.0673109E-01;  1.2434880E+04;
  1.0533782E+00;  9.9999998E-03; -1.6165689E-01;7950;  5.0527525E-01;  0.0000000E+00; -1.1104698E-02;  9.9856549E+02;  2.2389306E-01; -1.1883016E+03;3; -9.4763969E+01;  0.0000000E+00;  5.8751717E+01;0;  6.3784790E+00;  8.1157583E+03;  0.0000000E+00;  1.3655876E-01;  4.0000000E+04;  0.0000000E+00;  3.9310914E+04;  6.4534054E+00;  0.0000000E+00; -7.4926220E-02;  1.4147640E+04;
  1.0547215E+00;  9.9999998E-03; -1.1098786E-01;7955;  6.1728060E-01;  0.0000000E+00; -2.2069713E-02;  9.9972607E+02;  2.2399646E-01; -2.2692564E+02;3; -5.9718460E+01;  0.0000000E+00;  5.4027210E+01;0;  6.3123531E+00;  8.1293130E+03;  0.0000000E+00; -4.2367664E-01;  4.0000000E+04;  0.0000000E+00;  3.9270781E+04;  6.2480216E+00;  0.0000000E+00;  6.4331323E-02;  1.8598072E+04;
  1.0539091E+00;  9.9999998E-03; -1.5151651E-01;7951;  5.3260672E-01;  0.0000000E+00; -1.4261532E-02;  9.9871942E+02;  2.2393279E-01; -1.0608151E+03;3; -8.6842438E+01;  0.0000000E+00;  5.7159328E+01;0;  6.3706961E+00;  8.1191821E+03;  0.0000000E+00;  5.8805771E-02;  4.0000000E+04;  0.0000000E+00;  3.9298316E+04;  6.4139900E+00;  0.0000000E+00; -4.3294042E-02;  1.5519664E+04;
  1.0543470E+00;  9.9999998E-03; -1.4137311E-01;7952;  5.5766433E-01;  0.0000000E+00; -1.6946450E-02;  9.9892041E+02;  2.2396010E-01; -8.9432269E+02;3; -7.9307381E+01;  0.0000000E+00;  5.5773540E+01;0;  6.3568125E+00;  8.1221460E+03;  0.0000000E+00; -6.6603854E-02;  4.0000000E+04;  0.0000000E+00;  3.9288574E+04;  6.3697281E+00;  0.0000000E+00; -1.2915459E-02;  1.6548021E+04;
  1.0547769E+00;  9.9999998E-03; -1.2110775E-01;7954;  6.0014623E-01;  0.0000000E+00; -2.0796726E-02;  9.9944147E+02;  2.2398975E-01; -4.6268930E+02;3; -6.5674774E+01;  0.0000000E+00;  5.4527275E+01;0;  6.3241367E+00;  8.1273105E+03;  0.0000000E+00; -3.3772567E-01;  4.0000000E+04;  0.0000000E+00;  3.9275836E+04;  6.2830062E+00;  0.0000000E+00;  4.1130610E-02;  1.7977670E+04;
  1.0546396E+00;  9.9999998E-03; -1.3123703E-01;7953;  5.8016986E-01;  0.0000000E+00; -1.9091545E-02;  9.9916333E+02;  2.2397989E-01; -6.9307135E+02;3; -7.2247795E+01;  0.0000000E+00;  5.4930634E+01;0;  6.3401995E+00;  8.1248218E+03;  0.0000000E+00; -2.1007179E-01;  4.0000000E+04;  0.0000000E+00;  3.9281355E+04;  6.3249011E+00;  0.0000000E+00;  1.5298472E-02;  1.7326578E+04;
  1.0750000E+00;  9.9999998E-03; -2.5232500E-01;8002;  4.7588626E-01;  0.0000000E+00; -3.3021167E-02;  9.9804572E+02;  2.2098804E-01; -1.6187666E+03;3; -1.7046393E+02;  0.0000000E+00;  6.3044281E+01;0;  6.7441807E+00;  8.2928604E+03;  0.0000000E+00; -1.3226155E+00;  4.0000000E+04;  0.0000000E+00;  3.9358719E+04;  7.0689931E+00;  0.0000000E+00; -3.2481262E-01;  8.0525625E+03;
  1.0753362E+00;  9.9999998E-03; -2.6238275E-01;8001;  4.5896798E-01;  0.0000000E+00; -2.4228418E-02;  9.9695032E+02;  2.2101833E-01; -2.5261265E+03;3; -1.7863216E+02;  0.0000000E+00;  6.2852085E+01;0;  6.7556067E+00;  8.2772529E+03;  0.0000000E+00; -1.9075457E+00;  4.0000000E+04;  0.0000000E+00;  3.9346238E+04;  7.1492271E+00;  0.0000000E+00; -3.9362028E-01;  9.2642070E+03;
  1.0747151E+00;  9.9999998E-03; -2.4226056E-01;8003;  4.9475536E-01;  0.0000000E+00; -3.9158728E-02;  9.9907562E+02;  2.2095196E-01; -7.6566486E+02;3; -1.6095842E+02;  0.0000000E+00;  6.2801205E+01;0;  6.6986713E+00;  8.3089180E+03;  0.0000000E+00; -6.2874746E-01;  4.0000000E+04;  0.0000000E+00;  3.9367883E+04;  6.9821014E+00;  0.0000000E+00; -2.8343028E-01;  6.7422700E+03;
  1.0744509E+00;  9.9999998E-03; -2.3217489E-01;8004;  5.1444715E-01;  0.0000000E+00; -4.3465678E-02;  1.0000008E+03;  2.2092924E-01;  6.9121194E-01;3; -1.5061140E+02;  0.0000000E+00;  6.2264576E+01;0;  6.6370611E+00;  8.3241641E+03;  0.0000000E+00;  2.9638734E-02;  4.0000000E+04;  0.0000000E+00;  3.9375582E+04;  6.8868275E+00;  0.0000000E+00; -2.4976644E-01;  5.5710166E+03;
  1.0742552E+00;  9.9999998E-03; -2.2211134E-01;8005;  5.3489864E-01;  0.0000000E+00; -4.6408266E-02;  1.0006482E+03;  2.2092266E-01;  5.3687445E+02;3; -1.3933958E+02;  0.0000000E+00;  6.1549026E+01;0;  6.5665174E+00;  8.3377080E+03;  0.0000000E+00;  5.8103937E-01;  4.0000000E+04;  0.0000000E+00;  3.9371305E+04;  6.7824125E+00;  0.0000000E+00; -2.1589527E-01;  6.2946211E+03;
  1.0741514E+00;  9.9999998E-03; -2.1209362E-01;8006;  5.5558532E-01;  0.0000000E+00; -4.8791479E-02;  1.0010765E+03;  2.2092561E-01;  8.9166412E+02;3; -1.2762952E+02;  0.0000000E+00;  6.0526932E+01;0;  6.4894381E+00;  8.3491826E+03;  0.0000000E+00;  1.0119048E+00;  4.0000000E+04;  0.0000000E+00;  3.9359602E+04;  6.6679349E+00;  0.0000000E+00; -1.7849697E-01;  8.1566465E+03;
  1.0741466E+00;  9.9999998E-03; -2.0207420E-01;8007;  5.7649136E-01;  0.0000000E+00; -5.0922852E-02;  1.0014050E+03;  2.2093464E-01;  1.1638044E+03;3; -1.1573030E+02;  0.0000000E+00;  5.9181221E+01;0;  6.4047694E+00;  8.3587148E+03;  0.0000000E+00;  1.3326942E+00;  4.0000000E+04;  0.0000000E+00;  3.9348617E+04;  6.5423288E+00;  0.0000000E+00; -1.3755921E-01;  9.9463398E+03;
  1.0743544E+00;  9.9999998E-03; -1.9202055E-01;8008;  5.9905237E-01;  0.0000000E+00; -5.3187542E-02;  1.0016432E+03;  2.2094499E-01;  1.3611941E+03;3; -1.0344554E+02;  0.0000000E+00;  5.8145782E+01;0;  6.3098574E+00;  8.3670664E+03;  0.0000000E+00;  1.5416820E+00;  4.0000000E+04;  0.0000000E+00;  3.9337453E+04;  6.4029751E+00;  0.0000000E+00; -9.3117684E-02;  1.1641243E+04;
  1.0746907E+00;  9.9999998E-03; -1.8193571E-01;8009;  6.2262326E-01;  0.0000000E+00; -5.5588070E-02;  1.0017984E+03;  2.2096136E-01;  1.4896594E+03;3; -9.1116562E+01;  0.0000000E+00;  5.7277122E+01;0;  6.2049766E+00;  8.3738516E+03;  0.0000000E+00;  1.6092314E+00;  4.0000000E+04;  0.0000000E+00;  3.9325113E+04;  6.2512045E+00;  0.0000000E+00; -4.6227835E-02;  1.3276626E+04;
  1.0751562E+00;  9.9999998E-03; -1.7181975E-01;8010;  6.4705426E-01;  0.0000000E+00; -5.8217611E-02;  1.0019152E+03;  2.2098026E-01;  1.5864271E+03;3; -7.8806534E+01;  0.0000000E+00;  5.6354969E+01;0;  6.0900340E+00;  8.3797090E+03;  0.0000000E+00;  1.5117415E+00;  4.0000000E+04;  0.0000000E+00;  3.9312797E+04;  6.0878186E+00;  0.0000000E+00;  2.2152422E-03;  1.4690246E+04;
  1.0757114E+00;  9.9999998E-03; -1.6167372E-01;8011;  6.7165279E-01;  0.0000000E+00; -6.1064996E-02;  1.0020515E+03;  2.2099370E-01;  1.6992892E+03;3; -6.6504807E+01;  0.0000000E+00;  5.5827171E+01;0;  5.9664273E+00;  8.3852783E+03;  0.0000000E+00;  1.2458892E+00;  4.0000000E+04;  0.0000000E+00;  3.9302199E+04;  5.9155712E+00;  0.0000000E+00;  5.0856080E-02;  1.5728031E+04;
  1.0762246E+00;  9.9999998E-03; -1.5151457E-01;8012;  6.9504720E-01;  0.0000000E+00; -6.3791752E-02;  1.0022276E+03;  2.2100487E-01;  1.8451318E+03;3; -5.4574532E+01;  0.0000000E+00;  5.4825954E+01;0;  5.8398743E+00;  8.3900332E+03;  0.0000000E+00;  8.4338379E-01;  4.0000000E+04;  0.0000000E+00;  3.9294562E+04;  5.7424707E+00;  0.0000000E+00;  9.7403556E-02;  1.6340318E+04;
  1.0767373E+00;  9.9999998E-03; -1.1104237E-01;8016;  7.6596898E-01;  0.0000000E+00; -5.9746489E-02;  1.0034190E+03;  2.2110233E-01;  2.8320750E+03;3; -1.3962033E+01;  0.0000000E+00;  2.0044432E+01;0;  5.4108605E+00;  8.3992637E+03;  0.0000000E+00; -6.5398538E-01;  4.0000000E+04;  0.0000000E+00;  3.9286449E+04;  5.1726656E+00;  0.0000000E+00;  2.3819475E-01;  1.6936268E+04;
  1.0765982E+00;  9.9999998E-03; -1.4136283E-01;8013;  7.1640283E-01;  0.0000000E+00; -6.5576293E-02;  1.0024724E+03;  2.2102353E-01;  2.0479501E+03;3; -4.3393948E+01;  0.0000000E+00;  4.9192162E+01;0;  5.7169609E+00;  8.3935537E+03;  0.0000000E+00;  3.7607762E-01;  4.0000000E+04;  0.0000000E+00;  3.9290328E+04;  5.5771332E+00;  0.0000000E+00;  1.3982782E-01;  1.6615906E+04;
  1.0768559E+00;  9.9999998E-03; -1.2112475E-01;8015;  7.5203288E-01;  0.0000000E+00; -6.3137300E-02;  1.0030905E+03;  2.2107482E-01;  2.5599355E+03;3; -2.3209192E+01;  0.0000000E+00;  2.6773132E+01;0;  5.4991360E+00;  8.3979346E+03;  0.0000000E+00; -4.2619303E-01;  4.0000000E+04;  0.0000000E+00;  3.9287660E+04;  5.2892084E+00;  0.0000000E+00;  2.0992737E-01;  1.6795219E+04;
  1.0768012E+00;  9.9999998E-03; -1.3122942E-01;8014;  7.3541594E-01;  0.0000000E+00; -6.5334246E-02;  1.0027632E+03;  2.2104795E-01;  2.2888840E+03;3; -3.3030476E+01;  0.0000000E+00;  3.7801971E+01;0;  5.6025248E+00;  8.3960400E+03;  0.0000000E+00; -7.0394054E-02;  4.0000000E+04;  0.0000000E+00;  3.9288395E+04;  5.4252820E+00;  0.0000000E+00;  1.7724261E-01;  1.6719486E+04;
  1.0972646E+00;  9.9999998E-03; -2.4222521E-01;8064;  7.1938640E-01;  0.0000000E+00; -9.3751512E-02;  1.0034052E+03;  2.1734370E-01;  2.8204280E+03;3; -1.2287754E+02;  0.0000000E+00;  5.3752266E+01;0;  6.4335957E+00;  8.6673574E+03;  0.0000000E+00; -1.6279848E-01;  4.0000000E+04;  0.0000000E+00;  3.9331566E+04;  6.5724583E+00;  0.0000000E+00; -1.3886259E-01;  1.2390538E+04;
  1.0975757E+00;  9.9999998E-03; -2.5228816E-01;8063;  7.1043003E-01;  0.0000000E+00; -8.7906100E-02;  1.0025120E+03;  2.1739005E-01;  2.0805876E+03;3; -1.3183591E+02;  0.0000000E+00;  5.4791210E+01;0;  6.5716105E+00;  8.6533467E+03;  0.0000000E+00; -1.3644339E+00;  4.0000000E+04;  0.0000000E+00;  3.9319836E+04;  6.7264361E+00;  0.0000000E+00; -1.5482554E-01;  1.4358594E+04;
  1.0969963E+00;  9.9999998E-03; -2.3213890E-01;8065;  7.2934449E-01;  0.0000000E+00; -9.7801074E-02;  1.0041855E+03;  2.1729717E-01;  3.4666665E+03;3; -1.1266344E+02;  0.0000000E+00;  5.2892365E+01;0;  6.2831292E+00;  8.6806885E+03;  0.0000000E+00;  8.9517343E-01;  4.0000000E+04;  0.0000000E+00;  3.9344098E+04;  6.4035897E+00;  0.0000000E+00; -1.2046040E-01;  1.0288861E+04;
  1.0967882E+00;  9.9999998E-03; -2.2206771E-01;8066;  7.3952305E-01;  0.0000000E+00; -1.0017603E-01;  1.0046748E+03;  2.1726876E-01;  3.8719861E+03;3; -1.0093351E+02;  0.0000000E+00;  5.1183426E+01;0;  6.1253724E+00;  8.6918789E+03;  0.0000000E+00;  1.7182810E+00;  4.0000000E+04;  0.0000000E+00;  3.9346000E+04;  6.2192764E+00;  0.0000000E+00; -9.3904018E-02;  9.9312236E+03;
  1.0979038E+00;  9.9999998E-03; -2.6235071E-01;8062;  7.0270383E-01;  0.0000000E+00; -7.9287596E-02;  1.0014817E+03;  2.1742240E-01;  1.2272015E+03;3; -1.3997870E+02;  0.0000000E+00;  5.5847260E+01;0;  6.6793532E+00;  8.6398682E+03;  0.0000000E+00; -2.5144238E+00;  4.0000000E+04;  0.0000000E+00;  3.9302789E+04;  6.8676434E+00;  0.0000000E+00; -1.8828996E-01;  1.6239954E+04;
  1.0966580E+00;  9.9999998E-03; -2.1204697E-01;8067;  7.4940145E-01;  0.0000000E+00; -1.0170159E-01;  1.0049037E+03;  2.1725160E-01;  4.0615640E+03;3; -8.8072525E+01;  0.0000000E+00;  4.9944473E+01;0;  5.9627995E+00;  8.7002354E+03;  0.0000000E+00;  2.2919838E+00;  4.0000000E+04;  0.0000000E+00;  3.9338996E+04;  6.0198579E+00;  0.0000000E+00; -5.7058465E-02;  1.1057134E+04;
  1.0966434E+00;  9.9999998E-03; -2.0203513E-01;8068;  7.5951105E-01;  0.0000000E+00; -1.0312240E-01;  1.0050111E+03;  2.1723975E-01;  4.1505264E+03;3; -7.4815781E+01;  0.0000000E+00;  4.9382107E+01;0;  5.7930231E+00;  8.7063477E+03;  0.0000000E+00;  2.6394243E+00;  4.0000000E+04;  0.0000000E+00;  3.9332457E+04;  5.8043561E+00;  0.0000000E+00; -1.1333046E-02;  1.2272804E+04;
  1.0985658E+00;  9.9999998E-03; -1.1105442E-01;8077;  8.6151034E-01;  0.0000000E+00; -7.8087084E-02;  1.0058272E+03;  2.1730380E-01;  4.8264473E+03;3;  4.1041340E+01;  0.0000000E+00;  6.6305046E+00;0;  4.1644220E+00;  8.7258506E+03;  0.0000000E+00; -8.3082801E-01;  4.0000000E+04;  0.0000000E+00;  3.9317582E+04;  3.7668307E+00;  0.0000000E+00;  3.9759150E-01;  1.3431671E+04;
  1.0968379E+00;  9.9999998E-03; -1.9198374E-01;8069;  7.7130759E-01;  0.0000000E+00; -1.0478073E-01;  1.0050571E+03;  2.1721992E-01;  4.1886357E+03;3; -6.1182560E+01;  0.0000000E+00;  4.8804546E+01;0;  5.6104455E+00;  8.7121602E+03;  0.0000000E+00;  2.7699811E+00;  4.0000000E+04;  0.0000000E+00;  3.9326570E+04;  5.5691657E+00;  0.0000000E+00;  4.1280016E-02;  1.3305545E+04;
  1.0971452E+00;  9.9999998E-03; -1.8188123E-01;8070;  7.8440690E-01;  0.0000000E+00; -1.0671201E-01;  1.0050341E+03;  2.1720216E-01;  4.1695752E+03;3; -4.7373180E+01;  0.0000000E+00;  4.7619099E+01;0;  5.4186907E+00;  8.7170527E+03;  0.0000000E+00;  2.6727948E+00;  4.0000000E+04;  0.0000000E+00;  3.9320328E+04;  5.3210163E+00;  0.0000000E+00;  9.7674549E-02;  1.4211828E+04;
  1.0989522E+00;  9.9999998E-03; -1.2111332E-01;8076;  8.5704839E-01;  0.0000000E+00; -8.3372556E-02;  1.0056304E+03;  2.1723063E-01;  4.6634258E+03;3;  3.0801537E+01;  0.0000000E+00;  8.0366459E+00;0;  4.2880249E+00;  8.7297734E+03;  0.0000000E+00; -5.5509186E-01;  4.0000000E+04;  0.0000000E+00;  3.9315336E+04;  3.9152210E+00;  0.0000000E+00;  3.7280411E-01;  1.3693163E+04;
  1.0975490E+00;  9.9999998E-03; -1.7173578E-01;8071;  7.9862565E-01;  0.0000000E+00; -1.0830892E-01;  1.0049991E+03;  2.1718702E-01;  4.1406382E+03;3; -3.3541611E+01;  0.0000000E+00;  4.2577827E+01;0;  5.2194281E+00;  8.7212754E+03;  0.0000000E+00;  2.3460722E+00;  4.0000000E+04;  0.0000000E+00;  3.9313820E+04;  5.0642967E+00;  0.0000000E+00;  1.5513118E-01;  1.4870870E+04;
  1.0980191E+00;  9.9999998E-03; -1.6157150E-01;8072;  8.1329000E-01;  0.0000000E+00; -1.0707360E-01;  1.0050024E+03;  2.1717322E-01;  4.1432969E+03;3; -1.9990557E+01;  0.0000000E+00;  2.7738297E+01;0;  5.0157523E+00;  8.7251289E+03;  0.0000000E+00;  1.8212910E+00;  4.0000000E+04;  0.0000000E+00;  3.9309242E+04;  4.8049545E+00;  0.0000000E+00;  2.1079773E-01;  1.5138036E+04;
  1.0990503E+00;  9.9999998E-03; -1.3118672E-01;8075;  8.4992313E-01;  0.0000000E+00; -8.8614389E-02;  1.0054234E+03;  2.1718454E-01;  4.4920176E+03;3;  1.9309145E+01;  0.0000000E+00;  9.6189985E+00;0;  4.4403934E+00;  8.7314590E+03;  0.0000000E+00; -1.0246613E-01;  4.0000000E+04;  0.0000000E+00;  3.9312316E+04;  4.0977945E+00;  0.0000000E+00;  3.4259906E-01;  1.4114768E+04;
  1.0984951E+00;  9.9999998E-03; -1.5141511E-01;8073;  8.2746899E-01;  0.0000000E+00; -1.0119113E-01;  1.0050749E+03;  2.1716297E-01;  4.2033213E+03;3; -6.5374174E+00;  0.0000000E+00;  1.5729468E+01;0;  4.8126044E+00;  8.7285840E+03;  0.0000000E+00;  1.1712893E+00;  4.0000000E+04;  0.0000000E+00;  3.9307742E+04;  4.5508528E+00;  0.0000000E+00;  2.6175147E-01;  1.5002239E+04;
  1.0988477E+00;  9.9999998E-03; -1.4128533E-01;8074;  8.3984137E-01;  0.0000000E+00; -9.4423622E-02;  1.0052228E+03;  2.1716644E-01;  4.3258472E+03;3;  6.6807332E+00;  0.0000000E+00;  1.1713958E+01;0;  4.6192389E+00;  8.7306807E+03;  0.0000000E+00;  4.9703580E-01;  4.0000000E+04;  0.0000000E+00;  3.9308977E+04;  4.3135929E+00;  0.0000000E+00;  3.0564606E-01;  1.4603940E+04;
  1.1199410E+00;  9.9999998E-03; -2.4212281E-01;8125;  9.0444988E-01;  0.0000000E+00; -1.4344853E-01;  1.0070948E+03;  2.1253805E-01;  5.8757314E+03;3; -6.3863033E+01;  0.0000000E+00;  3.7060070E+01;0;  5.4657469E+00;  9.1348506E+03;  0.0000000E+00;  1.4990756E-01;  4.0000000E+04;  0.0000000E+00;  3.9311809E+04;  5.3839927E+00;  0.0000000E+00;  8.1754014E-02;  1.5503708E+04;
  1.1196167E+00;  9.9999998E-03; -2.3203689E-01;8126;  9.0711325E-01;  0.0000000E+00; -1.4591368E-01;  1.0076271E+03;  2.1251266E-01;  6.3166562E+03;3; -5.2250362E+01;  0.0000000E+00;  3.5917454E+01;0;  5.2701859E+00;  9.1407559E+03;  0.0000000E+00;  1.1036716E+00;  4.0000000E+04;  0.0000000E+00;  3.9328242E+04;  5.1947751E+00;  0.0000000E+00;  7.5410843E-02;  1.3120124E+04;
  1.1205930E+00;  9.9999998E-03; -2.5218424E-01;8124;  9.0348375E-01;  0.0000000E+00; -1.3894290E-01;  1.0064697E+03;  2.1252292E-01;  5.3580869E+03;3; -7.1406555E+01;  0.0000000E+00;  3.8836098E+01;0;  5.6362562E+00;  9.1313613E+03;  0.0000000E+00; -1.0635635E+00;  4.0000000E+04;  0.0000000E+00;  3.9298008E+04;  5.5362291E+00;  0.0000000E+00;  1.0002699E-01;  1.7705250E+04;
  1.1193583E+00;  9.9999998E-03; -2.2194298E-01;8127;  9.0792125E-01;  0.0000000E+00; -1.4716034E-01;  1.0079294E+03;  2.1249153E-01;  6.5670376E+03;3; -3.9969601E+01;  0.0000000E+00;  3.5158886E+01;0;  5.0740976E+00;  9.1452119E+03;  0.0000000E+00;  1.7951893E+00;  4.0000000E+04;  0.0000000E+00;  3.9338023E+04;  4.9865336E+00;  0.0000000E+00;  8.7563753E-02;  1.1679630E+04;
  1.1191900E+00;  9.9999998E-03; -2.1187693E-01;8128;  9.0759730E-01;  0.0000000E+00; -1.4785774E-01;  1.0079684E+03;  2.1247359E-01;  6.5993271E+03;3; -2.7728571E+01;  0.0000000E+00;  3.3448776E+01;0;  4.8770232E+00;  9.1477842E+03;  0.0000000E+00;  2.2389271E+00;  4.0000000E+04;  0.0000000E+00;  3.9338980E+04;  4.7604885E+00;  0.0000000E+00;  1.1653480E-01;  1.1557395E+04;
  1.1215414E+00;  9.9999998E-03; -2.6224729E-01;8123;  9.0821844E-01;  0.0000000E+00; -1.3129202E-01;  1.0056867E+03;  2.1246561E-01;  4.7096260E+03;3; -7.5388756E+01;  0.0000000E+00;  3.9825169E+01;0;  5.7589788E+00;  9.1300674E+03;  0.0000000E+00; -2.3986120E+00;  4.0000000E+04;  0.0000000E+00;  3.9278621E+04;  5.6542616E+00;  0.0000000E+00;  1.0471740E-01;  2.0362398E+04;
  1.1191288E+00;  9.9999998E-03; -2.0182595E-01;8129;  9.0722543E-01;  0.0000000E+00; -1.4826384E-01;  1.0078528E+03;  2.1245661E-01;  6.5035635E+03;3; -1.5461056E+01;  0.0000000E+00;  3.0017620E+01;0;  4.6760330E+00;  9.1484941E+03;  0.0000000E+00;  2.4617262E+00;  4.0000000E+04;  0.0000000E+00;  3.9337379E+04;  4.5181284E+00;  0.0000000E+00;  1.5790462E-01;  1.1892421E+04;
  1.1204488E+00;  9.9999998E-03; -1.1101884E-01;8138;  8.9961553E-01;  0.0000000E+00; -8.7961115E-02;  1.0066638E+03;  2.1248023E-01;  5.5188179E+03;3;  8.5158165E+01;  0.0000000E+00; -3.6476164E+00;0;  2.9034994E+00;  9.1263359E+03;  0.0000000E+00; -7.7076715E-01;  4.0000000E+04;  0.0000000E+00;  3.9360434E+04;  2.3897974E+00;  0.0000000E+00;  5.1370186E-01;  8.6201318E+03;
  1.1191614E+00;  9.9999998E-03; -1.9175482E-01;8130;  9.0738332E-01;  0.0000000E+00; -1.4718182E-01;  1.0076500E+03;  2.1244545E-01;  6.3356274E+03;3; -3.0614896E+00;  0.0000000E+00;  2.1506737E+01;0;  4.4697266E+00;  9.1477070E+03;  0.0000000E+00;  2.4840467E+00;  4.0000000E+04;  0.0000000E+00;  3.9335637E+04;  4.2630973E+00;  0.0000000E+00;  2.0662913E-01;  1.2228637E+04;
  1.1192926E+00;  9.9999998E-03; -1.8165088E-01;8131;  9.0824282E-01;  0.0000000E+00; -1.4251715E-01;  1.0074003E+03;  2.1243483E-01;  6.1287896E+03;3;  9.1924458E+00;  0.0000000E+00;  1.0700912E+01;0;  4.2579322E+00;  9.1461455E+03;  0.0000000E+00;  2.3135369E+00;  4.0000000E+04;  0.0000000E+00;  3.9333863E+04;  3.9989507E+00;  0.0000000E+00;  2.5898159E-01;  1.2486298E+04;
  1.1207861E+00;  9.9999998E-03; -1.2106656E-01;8137;  9.0465528E-01;  0.0000000E+00; -9.4530590E-02;  1.0066984E+03;  2.1240073E-01;  5.5474390E+03;3;  7.9745499E+01;  0.0000000E+00; -2.5167971E+00;0;  3.0410836E+00;  9.1346221E+03;  0.0000000E+00; -5.4859775E-01;  4.0000000E+04;  0.0000000E+00;  3.9355805E+04;  2.5466475E+00;  0.0000000E+00;  4.9443603E-01;  9.1883594E+03;
  1.1195613E+00;  9.9999998E-03; -1.7152332E-01;8132;  9.0996772E-01;  0.0000000E+00; -1.3386096E-01;  1.0071591E+03;  2.1241759E-01;  5.9290562E+03;3;  2.1838278E+01;  0.0000000E+00;  3.0388119E+00;0;  4.0399876E+00;  9.1450566E+03;  0.0000000E+00;  1.9624704E+00;  4.0000000E+04;  0.0000000E+00;  3.9332980E+04;  3.7280998E+00;  0.0000000E+00;  3.1188771E-01;  1.2535613E+04;
  1.1209303E+00;  9.9999998E-03; -1.3112105E-01;8136;  9.0902454E-01;  0.0000000E+00; -1.0082124E-01;  1.0067316E+03;  2.1234819E-01;  5.5748799E+03;3;  7.2111397E+01;  0.0000000E+00; -1.4912547E+00;0;  3.2015841E+00;  9.1409951E+03;  0.0000000E+00; -1.7919022E-01;  4.0000000E+04;  0.0000000E+00;  3.9349715E+04;  2.7303615E+00;  0.0000000E+00;  4.7122258E-01;  9.9273018E+03;
  1.1199629E+00;  9.9999998E-03; -1.6139387E-01;8133;  9.1188186E-01;  0.0000000E+00; -1.2379136E-01;  1.0069626E+03;  2.1238780E-01;  5.7663408E+03;3;  3.5112095E+01;  0.0000000E+00; -9.5183097E-02;0;  3.8177710E+00;  9.1448682E+03;  0.0000000E+00;  1.4666711E+00;  4.0000000E+04;  0.0000000E+00;  3.9333965E+04;  3.4559195E+00;  0.0000000E+00;  3.6185157E-01;  1.2246821E+04;
  1.1203952E+00;  9.9999998E-03; -1.5128504E-01;8134;  9.1277289E-01;  0.0000000E+00; -1.1474669E-01;  1.0068361E+03;  2.1235900E-01;  5.6615786E+03;3;  4.8578094E+01;  0.0000000E+00; -6.6795224E-01;0;  3.5987947E+00;  9.1448115E+03;  0.0000000E+00;  8.9190352E-01;  4.0000000E+04;  0.0000000E+00;  3.9337363E+04;  3.1931639E+00;  0.0000000E+00;  4.0563086E-01;  1.1622066E+04;
  1.1207457E+00;  9.9999998E-03; -1.4119586E-01;8135;  9.1186553E-01;  0.0000000E+00; -1.0727858E-01;  1.0067665E+03;  2.1234290E-01;  5.6038125E+03;3;  6.1427086E+01;  0.0000000E+00; -8.6189044E-01;0;  3.3911493E+00;  9.1438008E+03;  0.0000000E+00;  3.1827435E-01;  4.0000000E+04;  0.0000000E+00;  3.9343188E+04;  2.9492323E+00;  0.0000000E+00;  4.4191694E-01;  1.0792536E+04;
  1.1415952E+00;  9.9999998E-03; -1.1088679E-01;8199;  9.0614522E-01;  0.0000000E+00; -8.5879929E-02;  1.0057915E+03;  2.0665672E-01;  4.7957827E+03;3;  9.5112305E+01;  0.0000000E+00; -1.2212921E+01;0;  1.8883796E+00;  9.6138359E+03;  0.0000000E+00; -4.1238242E-01;  4.0000000E+04;  0.0000000E+00;  3.9408750E+04;  1.3238142E+00;  0.0000000E+00;  5.6456536E-01;  3.6506804E+03;
  1.1418581E+00;  9.9999998E-03; -1.2093107E-01;8198;  9.1397250E-01;  0.0000000E+00; -9.3552127E-02;  1.0060822E+03;  2.0658191E-01;  5.0364355E+03;3;  9.2470245E+01;  0.0000000E+00; -1.2223488E+01;0;  2.0087137E+00;  9.6267422E+03;  0.0000000E+00; -3.1855458E-01;  4.0000000E+04;  0.0000000E+00;  3.9402859E+04;  1.4568564E+00;  0.0000000E+00;  5.5185729E-01;  4.2726504E+03;
  1.1421019E+00;  9.9999998E-03; -1.3096997E-01;8197;  9.2229569E-01;  0.0000000E+00; -1.0104464E-01;  1.0063757E+03;  2.0651697E-01;  5.2794575E+03;3;  8.9388252E+01;  0.0000000E+00; -1.2172925E+01;0;  2.1402740E+00;  9.6393105E+03;  0.0000000E+00; -1.4798936E-01;  4.0000000E+04;  0.0000000E+00;  3.9395742E+04;  1.6034192E+00;  0.0000000E+00;  5.3685492E-01;  5.0265410E+03;
  1.1413292E+00;  9.9999998E-03; -2.3183198E-01;8187;  1.0121546E+00;  0.0000000E+00; -1.7050418E-01;  1.0090293E+03;  2.0662861E-01;  7.4768481E+03;3;  1.8233030E+01;  0.0000000E+00;  1.1414022E+01;0;  3.9422626E+00;  9.6923584E+03;  0.0000000E+00;  5.6101340E-01;  4.0000000E+04;  0.0000000E+00;  3.9344488E+04;  3.6865387E+00;  0.0000000E+00;  2.5572404E-01;  1.1819999E+04;
  1.1410151E+00;  9.9999998E-03; -2.2171156E-01;8188;  1.0031801E+00;  0.0000000E+00; -1.7041060E-01;  1.0091915E+03;  2.0664963E-01;  7.6112144E+03;3;  2.8582411E+01;  0.0000000E+00;  9.2610693E+00;0;  3.7620752E+00;  9.6886641E+03;  0.0000000E+00;  9.0737331E-01;  4.0000000E+04;  0.0000000E+00;  3.9357707E+04;  3.5054696E+00;  0.0000000E+00;  2.5660563E-01;  1.0080446E+04;
  1.1418953E+00;  9.9999998E-03; -2.4192725E-01;8186;  1.0198196E+00;  0.0000000E+00; -1.6919681E-01;  1.0086832E+03;  2.0657264E-01;  7.1902524E+03;3;  8.5368662E+00;  0.0000000E+00;  1.3081198E+01;0;  4.1125197E+00;  9.6979697E+03;  0.0000000E+00;  1.4736334E-02;  4.0000000E+04;  0.0000000E+00;  3.9328727E+04;  3.8367805E+00;  0.0000000E+00;  2.7573925E-01;  1.3954260E+04;
  1.1408342E+00;  9.9999998E-03; -2.1160527E-01;8189;  9.9364746E-01;  0.0000000E+00; -1.6822924E-01;  1.0091046E+03;  2.0665850E-01;  7.5392632E+03;3;  3.7920574E+01;  0.0000000E+00;  3.5841296E+00;0;  3.5794723E+00;  9.6846514E+03;  0.0000000E+00;  1.1005216E+00;  4.0000000E+04;  0.0000000E+00;  3.9362414E+04;  3.3054993E+00;  0.0000000E+00;  2.7397305E-01;  9.4190508E+03;
  1.1407743E+00;  9.9999998E-03; -2.0151372E-01;8190;  9.8439592E-01;  0.0000000E+00; -1.6335329E-01;  1.0088524E+03;  2.0665985E-01;  7.3303877E+03;3;  4.6789486E+01;  0.0000000E+00; -3.3511534E+00;0;  3.3948598E+00;  9.6795645E+03;  0.0000000E+00;  1.1752893E+00;  4.0000000E+04;  0.0000000E+00;  3.9363738E+04;  3.0909309E+00;  0.0000000E+00;  3.0392888E-01;  9.2303281E+03;
  1.1421397E+00;  9.9999998E-03; -1.4101702E-01;8196;  9.3105489E-01;  0.0000000E+00; -1.0861545E-01;  1.0066740E+03;  2.0649375E-01;  5.5264355E+03;3;  8.6118172E+01;  0.0000000E+00; -1.2020826E+01;0;  2.2903535E+00;  9.6489268E+03;  0.0000000E+00;  8.4703669E-02;  4.0000000E+04;  0.0000000E+00;  3.9388188E+04;  1.7722604E+00;  0.0000000E+00;  5.1809311E-01;  5.9306602E+03;
  1.1428994E+00;  9.9999998E-03; -2.5199595E-01;8185;  1.0270350E+00;  0.0000000E+00; -1.6664705E-01;  1.0082509E+03;  2.0644060E-01;  6.8321685E+03;3;  3.9181921E-01;  0.0000000E+00;  1.4486814E+01;0;  4.2567019E+00;  9.7089209E+03;  0.0000000E+00; -7.5426644E-01;  4.0000000E+04;  0.0000000E+00;  3.9316043E+04;  3.9400294E+00;  0.0000000E+00;  3.1667271E-01;  1.5821807E+04;
  1.1408286E+00;  9.9999998E-03; -1.9142286E-01;8191;  9.7577417E-01;  0.0000000E+00; -1.5522267E-01;  1.0085088E+03;  2.0665266E-01;  7.0458916E+03;3;  5.5344254E+01;  0.0000000E+00; -1.0050671E+01;0;  3.2081470E+00;  9.6738223E+03;  0.0000000E+00;  1.1531048E+00;  4.0000000E+04;  0.0000000E+00;  3.9364352E+04;  2.8660717E+00;  0.0000000E+00;  3.4207547E-01;  9.0957285E+03;
  1.1409686E+00;  9.9999998E-03; -1.8132877E-01;8192;  9.6726805E-01;  0.0000000E+00; -1.4504015E-01;  1.0081166E+03;  2.0663932E-01;  6.7211162E+03;3;  6.3616962E+01;  0.0000000E+00; -1.3228715E+01;0;  3.0212655E+00;  9.6677471E+03;  0.0000000E+00;  1.0474738E+00;  4.0000000E+04;  0.0000000E+00;  3.9365664E+04;  2.6371422E+00;  0.0000000E+00;  3.8412327E-01;  8.8741777E+03;
  1.1418908E+00;  9.9999998E-03; -1.5107834E-01;8195;  9.4013810E-01;  0.0000000E+00; -1.1654183E-01;  1.0069910E+03;  2.0652008E-01;  5.7889238E+03;3;  8.2176750E+01;  0.0000000E+00; -1.2031098E+01;0;  2.4619553E+00;  9.6544102E+03;  0.0000000E+00;  3.5438544E-01;  4.0000000E+04;  0.0000000E+00;  3.9379980E+04;  1.9682246E+00;  0.0000000E+00;  4.9373069E-01;  6.9131924E+03;
  1.1411672E+00;  9.9999998E-03; -1.7123225E-01;8193;  9.5841444E-01;  0.0000000E+00; -1.3467613E-01;  1.0077106E+03;  2.0661777E-01;  6.3848887E+03;3;  7.1024857E+01;  0.0000000E+00; -1.3046068E+01;0;  2.8355203E+00;  9.6618457E+03;  0.0000000E+00;  8.6872369E-01;  4.0000000E+04;  0.0000000E+00;  3.9368387E+04;  2.4100738E+00;  0.0000000E+00;  4.2544657E-01;  8.4689258E+03;
  1.1415174E+00;  9.9999998E-03; -1.6114667E-01;8194;  9.4931114E-01;  0.0000000E+00; -1.2512106E-01;  1.0073337E+03;  2.0656894E-01;  6.0728394E+03;3;  7.7196045E+01;  0.0000000E+00; -1.2366650E+01;0;  2.6464517E+00;  9.6580879E+03;  0.0000000E+00;  6.2717950E-01;  4.0000000E+04;  0.0000000E+00;  3.9373258E+04;  2.1837080E+00;  0.0000000E+00;  4.6274367E-01;  7.8030098E+03;
  1.1442692E+00;  9.9999998E-03; -2.6206544E-01;8184;  1.0344996E+00;  0.0000000E+00; -1.6149698E-01;  1.0076544E+03;  2.0624149E-01;  6.3381455E+03;3; -5.4098535E+00;  0.0000000E+00;  1.6257505E+01;0;  4.3569193E+00;  9.7240703E+03;  0.0000000E+00; -1.6951025E+00;  4.0000000E+04;  0.0000000E+00;  3.9297805E+04;  3.9997485E+00;  0.0000000E+00;  3.5717070E-01;  1.8502920E+04;
  1.1621464E+00;  9.9999998E-03; -1.1072735E-01;8260;  9.0507650E-01;  0.0000000E+00; -7.5514711E-02;  1.0038947E+03;  2.0004804E-01;  3.2244763E+03;3;  9.7504974E+01;  0.0000000E+00; -1.5912764E+01;0;  1.1546857E+00;  1.0202138E+04;  0.0000000E+00;  8.5735463E-02;  4.0000000E+04;  0.0000000E+00;  3.9457598E+04;  6.0281992E-01;  0.0000000E+00;  5.5186582E-01;  2.7501880E+03;
  1.1621000E+00;  9.9999998E-03; -2.3158377E-01;8248;  1.0387832E+00;  0.0000000E+00; -1.6598557E-01;  1.0083948E+03;  1.9995998E-01;  6.9501309E+03;3;  5.8426769E+01;  0.0000000E+00; -1.0667802E+01;0;  2.6625524E+00;  1.0327151E+04;  0.0000000E+00; -7.9220928E-02;  4.0000000E+04;  0.0000000E+00;  3.9381582E+04;  2.2967227E+00;  0.0000000E+00;  3.6582962E-01;  7.9950493E+03;
  1.1615809E+00;  9.9999998E-03; -2.2143954E-01;8249;  1.0252501E+00;  0.0000000E+00; -1.6410810E-01;  1.0084609E+03;  2.0005316E-01;  7.0049438E+03;3;  6.2756008E+01;  0.0000000E+00; -1.4100215E+01;0;  2.5378537E+00;  1.0313579E+04;  0.0000000E+00; -2.2584282E-02;  4.0000000E+04;  0.0000000E+00;  3.9394758E+04;  2.1752517E+00;  0.0000000E+00;  3.6260200E-01;  6.3111626E+03;
  1.1612684E+00;  9.9999998E-03; -2.1131185E-01;8250;  1.0116001E+00;  0.0000000E+00; -1.5739237E-01;  1.0082830E+03;  2.0011167E-01;  6.8576123E+03;3;  6.6080086E+01;  0.0000000E+00; -2.1467901E+01;0;  2.4036765E+00;  1.0302181E+04;  0.0000000E+00; -4.7873504E-02;  4.0000000E+04;  0.0000000E+00;  3.9399410E+04;  2.0340517E+00;  0.0000000E+00;  3.6962476E-01;  5.7046172E+03;
  1.1621286E+00;  9.9999998E-03; -1.2078366E-01;8259;  9.1368842E-01;  0.0000000E+00; -8.2737982E-02;  1.0043579E+03;  2.0002447E-01;  3.6080068E+03;3;  9.5148277E+01;  0.0000000E+00; -1.6378698E+01;0;  1.2499772E+00;  1.0214705E+04;  0.0000000E+00;  2.5661059E-02;  4.0000000E+04;  0.0000000E+00;  3.9450992E+04;  7.0456767E-01;  0.0000000E+00;  5.4540956E-01;  2.3094038E+03;
  1.1611151E+00;  9.9999998E-03; -2.0122056E-01;8251;  9.9889135E-01;  0.0000000E+00; -1.4609611E-01;  1.0079518E+03;  2.0014827E-01;  6.5835430E+03;3;  6.9181297E+01;  0.0000000E+00; -2.6273333E+01;0;  2.2672679E+00;  1.0291338E+04;  0.0000000E+00; -1.0407919E-01;  4.0000000E+04;  0.0000000E+00;  3.9400105E+04;  1.8796124E+00;  0.0000000E+00;  3.8765556E-01;  5.5994897E+03;
  1.1628647E+00;  9.9999998E-03; -2.4169050E-01;8247;  1.0516832E+00;  0.0000000E+00; -1.6563959E-01;  1.0082026E+03;  1.9982304E-01;  6.7910786E+03;3;  5.4798096E+01;  0.0000000E+00; -9.0776443E+00;0;  2.7753198E+00;  1.0343804E+04;  0.0000000E+00; -2.7863872E-01;  4.0000000E+04;  0.0000000E+00;  3.9368449E+04;  2.3921685E+00;  0.0000000E+00;  3.8315129E-01;  9.6788936E+03;
  1.1611185E+00;  9.9999998E-03; -1.9115075E-01;8252;  9.8699069E-01;  0.0000000E+00; -1.3466036E-01;  1.0075460E+03;  2.0015588E-01;  6.2474814E+03;3;  7.2858833E+01;  0.0000000E+00; -2.4818285E+01;0;  2.1309834E+00;  1.0281469E+04;  0.0000000E+00; -1.5919007E-01;  4.0000000E+04;  0.0000000E+00;  3.9401648E+04;  1.7160101E+00;  0.0000000E+00;  4.1497323E-01;  5.3984756E+03;
  1.1620924E+00;  9.9999998E-03; -1.3082884E-01;8258;  9.2289448E-01;  0.0000000E+00; -8.9827165E-02;  1.0048122E+03;  2.0001245E-01;  3.9841365E+03;3;  9.2621284E+01;  0.0000000E+00; -1.6602427E+01;0;  1.3545141E+00;  1.0226933E+04;  0.0000000E+00; -3.2064229E-02;  4.0000000E+04;  0.0000000E+00;  3.9443480E+04;  8.1703550E-01;  0.0000000E+00;  5.3747857E-01;  2.0759080E+03;
  1.1612357E+00;  9.9999998E-03; -1.8108711E-01;8253;  9.7542322E-01;  0.0000000E+00; -1.2508798E-01;  1.0071051E+03;  2.0014295E-01;  5.8824956E+03;3;  7.6690514E+01;  0.0000000E+00; -2.1754492E+01;0;  1.9941953E+00;  1.0272364E+04;  0.0000000E+00; -1.9472398E-01;  4.0000000E+04;  0.0000000E+00;  3.9405344E+04;  1.5492798E+00;  0.0000000E+00;  4.4491556E-01;  4.9737979E+03;
  1.1620123E+00;  9.9999998E-03; -1.4086190E-01;8257;  9.3262279E-01;  0.0000000E+00; -9.6711293E-02;  1.0052607E+03;  2.0001468E-01;  4.3554321E+03;3;  8.9745392E+01;  0.0000000E+00; -1.6714989E+01;0;  1.4682298E+00;  1.0238118E+04;  0.0000000E+00; -8.6248584E-02;  4.0000000E+04;  0.0000000E+00;  3.9434664E+04;  9.4090563E-01;  0.0000000E+00;  5.2732420E-01;  2.2743308E+03;
  1.1614270E+00;  9.9999998E-03; -1.7102386E-01;8254;  9.6419436E-01;  0.0000000E+00; -1.1713444E-01;  1.0066403E+03;  2.0011324E-01;  5.4976680E+03;3;  8.0032333E+01;  0.0000000E+00; -1.9253469E+01;0;  1.8571161E+00;  1.0264022E+04;  0.0000000E+00; -2.0161082E-01;  4.0000000E+04;  0.0000000E+00;  3.9410793E+04;  1.3845277E+00;  0.0000000E+00;  4.7258839E-01;  4.3643467E+03;
  1.1617913E+00;  9.9999998E-03; -1.5090714E-01;8256;  9.4278729E-01;  0.0000000E+00; -1.0347099E-01;  1.0057152E+03;  2.0005235E-01;  4.7317686E+03;3;  8.6702660E+01;  0.0000000E+00; -1.6864338E+01;0;  1.5938776E+00;  1.0246300E+04;  0.0000000E+00; -1.3647695E-01;  4.0000000E+04;  0.0000000E+00;  3.9425773E+04;  1.0800495E+00;  0.0000000E+00;  5.1382798E-01;  2.8813213E+03;
  1.1615993E+00;  9.9999998E-03; -1.6095990E-01;8255;  9.5331341E-01;  0.0000000E+00; -1.1014300E-01;  1.0061771E+03;  2.0008472E-01;  5.1141265E+03;3;  8.3382980E+01;  0.0000000E+00; -1.7658520E+01;0;  1.7238770E+00;  1.0254994E+04;  0.0000000E+00; -1.7834687E-01;  4.0000000E+04;  0.0000000E+00;  3.9417840E+04;  1.2281469E+00;  0.0000000E+00;  4.9573004E-01;  3.6382166E+03;
  1.1638721E+00;  9.9999998E-03; -2.5177658E-01;8246;  1.0637441E+00;  0.0000000E+00; -1.6429974E-01;  1.0078987E+03;  1.9963293E-01;  6.5393394E+03;3;  5.1197208E+01;  0.0000000E+00; -8.0821362E+00;0;  2.8768396E+00;  1.0363838E+04;  0.0000000E+00; -6.8857956E-01;  4.0000000E+04;  0.0000000E+00;  3.9356355E+04;  2.4596200E+00;  0.0000000E+00;  4.1721976E-01;  1.1407823E+04;
  1.1651626E+00;  9.9999998E-03; -2.6185864E-01;8245;  1.0753076E+00;  0.0000000E+00; -1.6117050E-01;  1.0074570E+03;  1.9937983E-01;  6.1735952E+03;3;  4.7443626E+01;  0.0000000E+00; -6.9342761E+00;0;  2.9507730E+00;  1.0388108E+04;  0.0000000E+00; -1.3766180E+00;  4.0000000E+04;  0.0000000E+00;  3.9340281E+04;  2.4949348E+00;  0.0000000E+00;  4.5583820E-01;  1.4064471E+04;
  1.3276486E+00;  9.9999998E-03; -2.7140459E-01;8854;  1.0283898E+00;  0.0000000E+00;  4.5613017E-02;  9.9254218E+02;  1.3991861E-01; -6.1290527E+03;3;  6.8063889E+01;  0.0000000E+00; -5.9028870E+01;0; -1.0443753E-01;  2.0310777E+04;  0.0000000E+00; -2.6041925E+01;  4.0000000E+04;  0.0000000E+00;  3.9610469E+04; -4.7913915E-01;  0.0000000E+00;  3.7470162E-01;  4.3775703E+04;
  1.3140981E+00;  9.9999998E-03; -2.7135539E-01;8793;  1.0393864E+00;  0.0000000E+00;  2.6908718E-02;  9.9331934E+02;  1.4404330E-01; -5.4984126E+03;3;  6.8255669E+01;  0.0000000E+00; -5.7987972E+01;0; -2.5300980E-02;  1.9192115E+04;  0.0000000E+00; -2.7938208E+01;  4.0000000E+04;  0.0000000E+00;  3.9605047E+04; -5.0055289E-01;  0.0000000E+00;  4.7525191E-01;  5.3635461E+04;
  1.2999380E+00;  9.9999998E-03; -2.7132389E-01;8732;  1.0505779E+00;  0.0000000E+00;  5.4055830E-03;  9.9436633E+02;  1.4868431E-01; -4.6424937E+03;3;  6.7408287E+01;  0.0000000E+00; -5.5829773E+01;0;  6.8227440E-02;  1.8049635E+04;  0.0000000E+00; -2.5125479E+01;  4.0000000E+04;  0.0000000E+00;  3.9591086E+04; -4.9390480E-01;  0.0000000E+00;  5.6213224E-01;  5.4561141E+04;
  1.2852001E+00;  9.9999998E-03; -2.7130979E-01;8671;  1.0610582E+00;  0.0000000E+00; -1.7254105E-02;  9.9554553E+02;  1.5380071E-01; -3.6746587E+03;3;  6.5475525E+01;  0.0000000E+00; -4.7304489E+01;0;  1.6211405E-01;  1.6911574E+04;  0.0000000E+00; -2.0040154E+01;  4.0000000E+04;  0.0000000E+00;  3.9572180E+04; -4.6140370E-01;  0.0000000E+00;  6.2351775E-01;  4.7894605E+04;
  1.2697277E+00;  9.9999998E-03; -2.7131617E-01;8610;  1.0699700E+00;  0.0000000E+00; -3.8584355E-02;  9.9692883E+02;  1.5939696E-01; -2.5357666E+03;3;  6.2595371E+01;  0.0000000E+00; -3.7030182E+01;0;  2.3304689E-01;  1.5795193E+04;  0.0000000E+00; -1.4603373E+01;  4.0000000E+04;  0.0000000E+00;  3.9549297E+04; -4.0055925E-01;  0.0000000E+00;  6.3360614E-01;  3.7046121E+04;
  1.2537436E+00;  9.9999998E-03; -2.7134559E-01;8549;  1.0772911E+00;  0.0000000E+00; -5.9133597E-02;  9.9845148E+02;  1.6537936E-01; -1.2794879E+03;3;  6.0424656E+01;  0.0000000E+00; -3.3045856E+01;0;  3.0702621E-01;  1.4728925E+04;  0.0000000E+00; -1.0975672E+01;  4.0000000E+04;  0.0000000E+00;  3.9522289E+04; -3.0123061E-01;  0.0000000E+00;  6.0825682E-01;  2.8145369E+04;
  1.2373196E+00;  9.9999998E-03; -2.7140346E-01;8488;  1.0831202E+00;  0.0000000E+00; -8.0131210E-02;  1.0001376E+03;  1.7171219E-01;  1.1383157E+02;3;  5.8258526E+01;  0.0000000E+00; -3.0808205E+01;0;  4.3840936E-01;  1.3723649E+04;  0.0000000E+00; -8.8126545E+00;  4.0000000E+04;  0.0000000E+00;  3.9489918E+04; -1.3482144E-01;  0.0000000E+00;  5.7323080E-01;  2.2494186E+04;
  1.2202045E+00;  9.9999998E-03; -2.7149418E-01;8427;  1.0876975E+00;  0.0000000E+00; -1.0159238E-01;  1.0020880E+03;  1.7844829E-01;  1.7271166E+03;3;  5.7378716E+01;  0.0000000E+00; -2.7186157E+01;0;  6.9254768E-01;  1.2775286E+04;  0.0000000E+00; -6.4057417E+00;  4.0000000E+04;  0.0000000E+00;  3.9450738E+04;  1.5695742E-01;  0.0000000E+00;  5.3559029E-01;  1.7277336E+04;
  1.2031715E+00;  9.9999998E-03; -2.7161351E-01;8366;  1.0908462E+00;  0.0000000E+00; -1.2186334E-01;  1.0039810E+03;  1.8522511E-01;  3.2940259E+03;3;  5.5423531E+01;  0.0000000E+00; -2.3036072E+01;0;  1.1358497E+00;  1.1922254E+04;  0.0000000E+00; -4.8036170E+00;  4.0000000E+04;  0.0000000E+00;  3.9409535E+04;  6.3292462E-01;  0.0000000E+00;  5.0292510E-01;  1.5654812E+04;
  1.1855226E+00;  9.9999998E-03; -2.7176136E-01;8305;  1.0916318E+00;  0.0000000E+00; -1.4082778E-01;  1.0056807E+03;  1.9210209E-01;  4.7017861E+03;3;  5.3271992E+01;  0.0000000E+00; -1.6600864E+01;0;  1.8690654E+00;  1.1140683E+04;  0.0000000E+00; -3.2583029E+00;  4.0000000E+04;  0.0000000E+00;  3.9366047E+04;  1.3852433E+00;  0.0000000E+00;  4.8382211E-01;  1.5616051E+04;
  1.1804674E+00;  9.9999998E-03; -1.9098203E-01;8313;  9.8731524E-01;  0.0000000E+00; -1.0588111E-01;  1.0055162E+03;  1.9324964E-01;  4.5660464E+03;3;  7.6604721E+01;  0.0000000E+00; -2.6363270E+01;0;  1.3203045E+00;  1.0974013E+04;  0.0000000E+00; -9.6205848E-01;  4.0000000E+04;  0.0000000E+00;  3.9440453E+04;  8.8436443E-01;  0.0000000E+00;  4.3594012E-01;  2.9840847E+03;
  1.1804985E+00;  9.9999998E-03; -2.0102721E-01;8312;  9.9997878E-01;  0.0000000E+00; -1.1418563E-01;  1.0059182E+03;  1.9322757E-01;  4.8986748E+03;3;  7.3524094E+01;  0.0000000E+00; -3.0849144E+01;0;  1.4072148E+00;  1.0986950E+04;  0.0000000E+00; -8.4128952E-01;  4.0000000E+04;  0.0000000E+00;  3.9437109E+04;  9.8863328E-01;  0.0000000E+00;  4.1858149E-01;  2.5618196E+03;
  1.1805937E+00;  9.9999998E-03; -1.8094431E-01;8314;  9.7510701E-01;  0.0000000E+00; -9.9439271E-02;  1.0050925E+03;  1.9323650E-01;  4.2152529E+03;3;  7.9425941E+01;  0.0000000E+00; -2.3347111E+01;0;  1.2291307E+00;  1.0963556E+04;  0.0000000E+00; -9.9035519E-01;  4.0000000E+04;  0.0000000E+00;  3.9446488E+04;  7.7688992E-01;  0.0000000E+00;  4.5224077E-01;  3.3504153E+03;
  1.1807384E+00;  9.9999998E-03; -2.1110164E-01;8311;  1.0130689E+00;  0.0000000E+00; -1.2535967E-01;  1.0062855E+03;  1.9316159E-01;  5.2027715E+03;3;  7.0360985E+01;  0.0000000E+00; -3.5657501E+01;0;  1.4913187E+00;  1.1003112E+04;  0.0000000E+00; -6.6462624E-01;  4.0000000E+04;  0.0000000E+00;  3.9436117E+04;  1.0848811E+00;  0.0000000E+00;  4.0643761E-01;  2.2015601E+03;
  1.1807688E+00;  9.9999998E-03; -1.7090060E-01;8315;  9.6330124E-01;  0.0000000E+00; -9.4070844E-02;  1.0046511E+03;  1.9321200E-01;  3.8498542E+03;3;  8.2395554E+01;  0.0000000E+00; -2.1176023E+01;0;  1.1373699E+00;  1.0953354E+04;  0.0000000E+00; -9.1103560E-01;  4.0000000E+04;  0.0000000E+00;  3.9454113E+04;  6.7207181E-01;  0.0000000E+00;  4.6529812E-01;  3.6693267E+03;
  1.1809021E+00;  9.9999998E-03; -1.6083983E-01;8316;  9.5187557E-01;  0.0000000E+00; -8.9253537E-02;  1.0042030E+03;  1.9319582E-01;  3.4789333E+03;3;  8.5398178E+01;  0.0000000E+00; -1.9748480E+01;0;  1.0486016E+00;  1.0941603E+04;  0.0000000E+00; -7.3074746E-01;  4.0000000E+04;  0.0000000E+00;  3.9462469E+04;  5.7369345E-01;  0.0000000E+00;  4.7490823E-01;  3.9530283E+03;
  1.1811818E+00;  9.9999998E-03; -2.2121865E-01;8310;  1.0266740E+00;  0.0000000E+00; -1.3812190E-01;  1.0065477E+03;  1.9305360E-01;  5.4197227E+03;3;  6.7103828E+01;  0.0000000E+00; -3.4608055E+01;0;  1.5794111E+00;  1.1022069E+04;  0.0000000E+00; -4.9045089E-01;  4.0000000E+04;  0.0000000E+00;  3.9433090E+04;  1.1699889E+00;  0.0000000E+00;  4.0942231E-01;  2.4532214E+03;
  1.1810976E+00;  9.9999998E-03; -1.5076363E-01;8317;  9.4081479E-01;  0.0000000E+00; -8.4424369E-02;  1.0037446E+03;  1.9316359E-01;  3.0995251E+03;3;  8.8302132E+01;  0.0000000E+00; -1.8991274E+01;0;  9.6081471E-01;  1.0931277E+04;  0.0000000E+00; -4.8090494E-01;  4.0000000E+04;  0.0000000E+00;  3.9471340E+04;  4.7958755E-01;  0.0000000E+00;  4.8122716E-01;  4.3005688E+03;
  1.1813688E+00;  9.9999998E-03; -1.4069855E-01;8318;  9.3021727E-01;  0.0000000E+00; -7.9253979E-02;  1.0032781E+03;  1.9311443E-01;  2.7133079E+03;3;  9.0717102E+01;  0.0000000E+00; -1.8744560E+01;0;  8.7538522E-01;  1.0922889E+04;  0.0000000E+00; -2.0552948E-01;  4.0000000E+04;  0.0000000E+00;  3.9480445E+04;  3.9057282E-01;  0.0000000E+00;  4.8481241E-01;  4.8196045E+03;
  1.1818000E+00;  9.9999998E-03; -2.3135963E-01;8309;  1.0405949E+00;  0.0000000E+00; -1.4506662E-01;  1.0066326E+03;  1.9291708E-01;  5.4900308E+03;3;  6.4035690E+01;  0.0000000E+00; -2.3130049E+01;0;  1.6650820E+00;  1.1043348E+04;  0.0000000E+00; -4.0293348E-01;  4.0000000E+04;  0.0000000E+00;  3.9423000E+04;  1.2420046E+00;  0.0000000E+00;  4.2307737E-01;  3.7454175E+03;
  1.1816047E+00;  9.9999998E-03; -1.3065818E-01;8319;  9.2013848E-01;  0.0000000E+00; -7.3739894E-02;  1.0028058E+03;  1.9307561E-01;  2.3224570E+03;3;  9.3614265E+01;  0.0000000E+00; -1.8439602E+01;0;  7.9661596E-01;  1.0913733E+04;  0.0000000E+00;  5.7988897E-02;  4.0000000E+04;  0.0000000E+00;  3.9489285E+04;  3.0976206E-01;  0.0000000E+00;  4.8685387E-01;  5.4935303E+03;
  1.1817777E+00;  9.9999998E-03; -1.2062258E-01;8320;  9.1054845E-01;  0.0000000E+00; -6.7940131E-02;  1.0023193E+03;  1.9305059E-01;  1.9196710E+03;3;  9.6143227E+01;  0.0000000E+00; -1.8041143E+01;0;  7.2565567E-01;  1.0903419E+04;  0.0000000E+00;  2.8515261E-01;  4.0000000E+04;  0.0000000E+00;  3.9496973E+04;  2.3741867E-01;  0.0000000E+00;  4.8823699E-01;  6.2397637E+03;
  1.1818764E+00;  9.9999998E-03; -1.1059643E-01;8321;  9.0159088E-01;  0.0000000E+00; -6.1960872E-02;  1.0018254E+03;  1.9304693E-01;  1.5109679E+03;3;  9.8369888E+01;  0.0000000E+00; -1.7291159E+01;0;  6.6289175E-01;  1.0891663E+04;  0.0000000E+00;  4.5939171E-01;  4.0000000E+04;  0.0000000E+00;  3.9503457E+04;  1.7343618E-01;  0.0000000E+00;  4.8945555E-01;  6.9731777E+03;
  1.1825620E+00;  9.9999998E-03; -2.4147364E-01;8308;  1.0540493E+00;  0.0000000E+00; -1.4624637E-01;  1.0066113E+03;  1.9275327E-01;  5.4722119E+03;3;  6.0706032E+01;  0.0000000E+00; -2.0030586E+01;0;  1.7375680E+00;  1.1066344E+04;  0.0000000E+00; -5.1718998E-01;  4.0000000E+04;  0.0000000E+00;  3.9412648E+04;  1.2997907E+00;  0.0000000E+00;  4.3777731E-01;  5.0754917E+03;
  1.1834866E+00;  9.9999998E-03; -2.5157425E-01;8307;  1.0668144E+00;  0.0000000E+00; -1.4613371E-01;  1.0064677E+03;  1.9255546E-01;  5.3533428E+03;3;  5.7738285E+01;  0.0000000E+00; -1.8997950E+01;0;  1.8021368E+00;  1.1091448E+04;  0.0000000E+00; -9.7423172E-01;  4.0000000E+04;  0.0000000E+00;  3.9401094E+04;  1.3410535E+00;  0.0000000E+00;  4.6108326E-01;  6.9354575E+03;
  1.1846243E+00;  9.9999998E-03; -2.6166922E-01;8306;  1.0793562E+00;  0.0000000E+00; -1.4439170E-01;  1.0061614E+03;  1.9230160E-01;  5.0996782E+03;3;  5.5662708E+01;  0.0000000E+00; -1.7351595E+01;0;  1.8464934E+00;  1.1120376E+04;  0.0000000E+00; -1.9354229E+00;  4.0000000E+04;  0.0000000E+00;  3.9385758E+04;  1.3620565E+00;  0.0000000E+00;  4.8443687E-01;  1.0450403E+04;
  1.1990829E+00;  9.9999998E-03; -2.0097472E-01;8373;  9.9765652E-01;  0.0000000E+00; -8.4425040E-02;  1.0033650E+03;  1.8616916E-01;  2.7845706E+03;3;  7.5165245E+01;  0.0000000E+00; -3.0627954E+01;0;  8.2084322E-01;  1.1766340E+04;  0.0000000E+00; -1.1318656E+00;  4.0000000E+04;  0.0000000E+00;  3.9469410E+04;  4.0515313E-01;  0.0000000E+00;  4.1569006E-01;  3.2051768E+03;
  1.1990813E+00;  9.9999998E-03; -1.9094588E-01;8374;  9.8482710E-01;  0.0000000E+00; -7.9177886E-02;  1.0029995E+03;  1.8619376E-01;  2.4820242E+03;3;  7.7923561E+01;  0.0000000E+00; -2.7477768E+01;0;  7.6646471E-01;  1.1752146E+04;  0.0000000E+00; -1.2925390E+00;  4.0000000E+04;  0.0000000E+00;  3.9476117E+04;  3.4631914E-01;  0.0000000E+00;  4.2014560E-01;  4.4717993E+03;
  1.1992977E+00;  9.9999998E-03; -2.1101284E-01;8372;  1.0109409E+00;  0.0000000E+00; -9.1489218E-02;  1.0037390E+03;  1.8609971E-01;  3.0940100E+03;3;  7.2218643E+01;  0.0000000E+00; -3.5124321E+01;0;  8.6944866E-01;  1.1784761E+04;  0.0000000E+00; -9.1651356E-01;  4.0000000E+04;  0.0000000E+00;  3.9466406E+04;  4.5881367E-01;  0.0000000E+00;  4.1063502E-01;  2.0495195E+03;
  1.1992357E+00;  9.9999998E-03; -1.8090636E-01;8375;  9.7238302E-01;  0.0000000E+00; -7.4895471E-02;  1.0026409E+03;  1.8618502E-01;  2.1853904E+03;3;  8.0575851E+01;  0.0000000E+00; -2.5165709E+01;0;  7.0729113E-01;  1.1740883E+04;  0.0000000E+00; -1.3332930E+00;  4.0000000E+04;  0.0000000E+00;  3.9484715E+04;  2.8560877E-01;  0.0000000E+00;  4.2168233E-01;  5.6235464E+03;
  1.1997081E+00;  9.9999998E-03; -2.2108731E-01;8371;  1.0245646E+00;  0.0000000E+00; -1.0144628E-01;  1.0040856E+03;  1.8599287E-01;  3.3808457E+03;3;  6.8945290E+01;  0.0000000E+00; -4.0610703E+01;0;  9.1802502E-01;  1.1806401E+04;  0.0000000E+00; -7.4127042E-01;  4.0000000E+04;  0.0000000E+00;  3.9464648E+04;  5.0570524E-01;  0.0000000E+00;  4.1231981E-01;  1.1856447E+03;
  1.1994480E+00;  9.9999998E-03; -1.7084458E-01;8376;  9.6033221E-01;  0.0000000E+00; -7.1159020E-02;  1.0022724E+03;  1.8616661E-01;  1.8803718E+03;3;  8.3171799E+01;  0.0000000E+00; -2.3461710E+01;0;  6.4674079E-01;  1.1730119E+04;  0.0000000E+00; -1.2264754E+00;  4.0000000E+04;  0.0000000E+00;  3.9494133E+04;  2.2638562E-01;  0.0000000E+00;  4.2035517E-01;  6.5281582E+03;
  1.1996586E+00;  9.9999998E-03; -1.6076456E-01;8377;  9.4868034E-01;  0.0000000E+00; -6.7721277E-02;  1.0018973E+03;  1.8614547E-01;  1.5700287E+03;3;  8.5769760E+01;  0.0000000E+00; -2.2122253E+01;0;  5.8745742E-01;  1.1719157E+04;  0.0000000E+00; -9.8445809E-01;  4.0000000E+04;  0.0000000E+00;  3.9503293E+04;  1.7043613E-01;  0.0000000E+00;  4.1702127E-01;  7.2090542E+03;
  1.2003059E+00;  9.9999998E-03; -2.3119469E-01;8370;  1.0382867E+00;  0.0000000E+00; -1.1427584E-01;  1.0043377E+03;  1.8584801E-01;  3.5893418E+03;3;  6.5602234E+01;  0.0000000E+00; -4.2461807E+01;0;  9.7918594E-01;  1.1831753E+04;  0.0000000E+00; -7.2740662E-01;  4.0000000E+04;  0.0000000E+00;  3.9459758E+04;  5.4411578E-01;  0.0000000E+00;  4.3507016E-01;  8.5598645E+02;
  1.1998779E+00;  9.9999998E-03; -1.5067881E-01;8378;  9.3744373E-01;  0.0000000E+00; -6.4259358E-02;  1.0015151E+03;  1.8611428E-01;  1.2537689E+03;3;  8.8527138E+01;  0.0000000E+00; -2.1282463E+01;0;  5.3046143E-01;  1.1709289E+04;  0.0000000E+00; -6.4765358E-01;  4.0000000E+04;  0.0000000E+00;  3.9512305E+04;  1.1793125E-01;  0.0000000E+00;  4.1253021E-01;  7.8096382E+03;
  1.2001293E+00;  9.9999998E-03; -1.4060840E-01;8379;  9.2663497E-01;  0.0000000E+00; -6.0514379E-02;  1.0011188E+03;  1.8606892E-01;  9.2577246E+02;3;  9.1168846E+01;  0.0000000E+00; -2.0727352E+01;0;  4.7647980E-01;  1.1701127E+04;  0.0000000E+00; -2.7339461E-01;  4.0000000E+04;  0.0000000E+00;  3.9521242E+04;  6.8891935E-02;  0.0000000E+00;  4.0758786E-01;  8.4727266E+03;
  1.2010010E+00;  9.9999998E-03; -2.4130157E-01;8369;  1.0519809E+00;  0.0000000E+00; -1.2243944E-01;  1.0045003E+03;  1.8568997E-01;  3.7238445E+03;3;  6.3001152E+01;  0.0000000E+00; -2.8402102E+01;0;  1.0460809E+00;  1.1857889E+04;  0.0000000E+00; -1.0317402E+00;  4.0000000E+04;  0.0000000E+00;  3.9453621E+04;  5.7503957E-01;  0.0000000E+00;  4.7104141E-01;  2.0040190E+03;
  1.2003990E+00;  9.9999998E-03; -1.3057697E-01;8380;  9.1631800E-01;  0.0000000E+00; -5.6430224E-02;  1.0007222E+03;  1.8601431E-01;  5.9758142E+02;3;  9.4004181E+01;  0.0000000E+00; -2.0143183E+01;0;  4.2670384E-01;  1.1694260E+04;  0.0000000E+00;  8.4050231E-02;  4.0000000E+04;  0.0000000E+00;  3.9529516E+04;  2.3833999E-02;  0.0000000E+00;  4.0286985E-01;  9.2384141E+03;
  1.2017812E+00;  9.9999998E-03; -2.5140744E-01;8368;  1.0653950E+00;  0.0000000E+00; -1.2375695E-01;  1.0045213E+03;  1.8551810E-01;  3.7411519E+03;3;  6.0332668E+01;  0.0000000E+00; -2.5096573E+01;0;  1.0914845E+00;  1.1883804E+04;  0.0000000E+00; -1.8160580E+00;  4.0000000E+04;  0.0000000E+00;  3.9444430E+04;  5.9798396E-01;  0.0000000E+00;  4.9350059E-01;  4.8302119E+03;
  1.2006593E+00;  9.9999998E-03; -1.2056041E-01;8381;  9.0650094E-01;  0.0000000E+00; -5.2036256E-02;  1.0002986E+03;  1.8595834E-01;  2.4710045E+02;3;  9.6429817E+01;  0.0000000E+00; -1.9477734E+01;0;  3.8189718E-01;  1.1687892E+04;  0.0000000E+00;  3.8616434E-01;  4.0000000E+04;  0.0000000E+00;  3.9536953E+04; -1.6938267E-02;  0.0000000E+00;  3.9883545E-01;  1.0059906E+04;
  1.2008456E+00;  9.9999998E-03; -1.1053690E-01;8382;  8.9734495E-01;  0.0000000E+00; -4.7460001E-02;  9.9985773E+02;  1.8592046E-01; -1.1772990E+02;3;  9.8340492E+01;  0.0000000E+00; -1.8510717E+01;0;  3.4284255E-01;  1.1679858E+04;  0.0000000E+00;  6.0743451E-01;  4.0000000E+04;  0.0000000E+00;  3.9543242E+04; -5.3019594E-02;  0.0000000E+00;  3.9586213E-01;  1.0848369E+04;
  1.2025429E+00;  9.9999998E-03; -2.6151183E-01;8367;  1.0782260E+00;  0.0000000E+00; -1.2381016E-01;  1.0043615E+03;  1.8535686E-01;  3.6088235E+03;3;  5.7789829E+01;  0.0000000E+00; -2.4051441E+01;0;  1.1276088E+00;  1.1906177E+04;  0.0000000E+00; -3.1620095E+00;  4.0000000E+04;  0.0000000E+00;  3.9429922E+04;  6.1599088E-01;  0.0000000E+00;  5.1161796E-01;  9.6301230E+03;
  1.2172307E+00;  9.9999998E-03; -1.9092886E-01;8435;  9.8120630E-01;  0.0000000E+00; -5.4554153E-02;  1.0004238E+03;  1.7915280E-01;  3.5055573E+02;3;  7.7872467E+01;  0.0000000E+00; -2.9207851E+01;0;  4.1135383E-01;  1.2617828E+04;  0.0000000E+00; -1.3227063E+00;  4.0000000E+04;  0.0000000E+00;  3.9509801E+04;  3.2121040E-02;  0.0000000E+00;  3.7923279E-01;  7.0863130E+03;
  1.2172202E+00;  9.9999998E-03; -2.0096543E-01;8434;  9.9390697E-01;  0.0000000E+00; -5.7892334E-02;  1.0007309E+03;  1.7911623E-01;  6.0457318E+02;3;  7.5493813E+01;  0.0000000E+00; -3.1902819E+01;0;  4.4656217E-01;  1.2634142E+04;  0.0000000E+00; -1.2064196E+00;  4.0000000E+04;  0.0000000E+00;  3.9500273E+04;  5.7966154E-02;  0.0000000E+00;  3.8859603E-01;  5.7062700E+03;
  1.2173461E+00;  9.9999998E-03; -2.1099757E-01;8433;  1.0070546E+00;  0.0000000E+00; -6.2185727E-02;  1.0010732E+03;  1.7905910E-01;  8.8777631E+02;3;  7.3371727E+01;  0.0000000E+00; -3.5250969E+01;0;  4.7665682E-01;  1.2652730E+04;  0.0000000E+00; -1.0823220E+00;  4.0000000E+04;  0.0000000E+00;  3.9493195E+04;  8.1891946E-02;  0.0000000E+00;  3.9476487E-01;  4.5046187E+03;
  1.2173703E+00;  9.9999998E-03; -1.8087980E-01;8436;  9.6885061E-01;  0.0000000E+00; -5.1811304E-02;  1.0001293E+03;  1.7916507E-01;  1.0699064E+02;3;  8.0582329E+01;  0.0000000E+00; -2.7258068E+01;0;  3.7226796E-01;  1.2604529E+04;  0.0000000E+00; -1.3406808E+00;  4.0000000E+04;  0.0000000E+00;  3.9519727E+04;  5.3637475E-03;  0.0000000E+00;  3.6690423E-01;  8.3170732E+03;
  1.2176453E+00;  9.9999998E-03; -2.2103913E-01;8432;  1.0207026E+00;  0.0000000E+00; -6.8457253E-02;  1.0014515E+03;  1.7897463E-01;  1.2006542E+03;3;  7.0545891E+01;  0.0000000E+00; -3.9565437E+01;0;  5.0276786E-01;  1.2674153E+04;  0.0000000E+00; -1.0719947E+00;  4.0000000E+04;  0.0000000E+00;  3.9489277E+04;  1.0234471E-01;  0.0000000E+00;  4.0042317E-01;  3.8615317E+03;
  1.2176375E+00;  9.9999998E-03; -1.7081894E-01;8437;  9.5678335E-01;  0.0000000E+00; -4.9324077E-02;  9.9983795E+02;  1.7914547E-01; -1.3405794E+02;3;  8.3037086E+01;  0.0000000E+00; -2.5890017E+01;0;  3.3100620E-01;  1.2595366E+04;  0.0000000E+00; -1.2167240E+00;  4.0000000E+04;  0.0000000E+00;  3.9529180E+04; -2.1523319E-02;  0.0000000E+00;  3.5252953E-01;  9.2701582E+03;
  1.2180250E+00;  9.9999998E-03; -2.3110230E-01;8431;  1.0346129E+00;  0.0000000E+00; -7.7896252E-02;  1.0018422E+03;  1.7888744E-01;  1.5237797E+03;3;  6.7455101E+01;  0.0000000E+00; -4.5128628E+01;0;  5.3489584E-01;  1.2695224E+04;  0.0000000E+00; -1.3139262E+00;  4.0000000E+04;  0.0000000E+00;  3.9488148E+04;  1.2006602E-01;  0.0000000E+00;  4.1482979E-01;  3.9960986E+03;
  1.2179637E+00;  9.9999998E-03; -1.6074359E-01;8438;  9.4507337E-01;  0.0000000E+00; -4.6897411E-02;  9.9954785E+02;  1.7910348E-01; -3.7401828E+02;3;  8.5842323E+01;  0.0000000E+00; -2.4564615E+01;0;  2.9016083E-01;  1.2589062E+04;  0.0000000E+00; -9.6020031E-01;  4.0000000E+04;  0.0000000E+00;  3.9538188E+04; -4.7343031E-02;  0.0000000E+00;  3.3750388E-01;  1.0010688E+04;
  1.2184142E+00;  9.9999998E-03; -2.4118486E-01;8430;  1.0481758E+00;  0.0000000E+00; -9.1924384E-02;  1.0021957E+03;  1.7881501E-01;  1.8162324E+03;3;  6.4033157E+01;  0.0000000E+00; -4.6718361E+01;0;  5.9736896E-01;  1.2713580E+04;  0.0000000E+00; -1.9240373E+00;  4.0000000E+04;  0.0000000E+00;  3.9487461E+04;  1.3593611E-01;  0.0000000E+00;  4.6143284E-01;  5.1666772E+03;
  1.2182572E+00;  9.9999998E-03; -1.5065938E-01;8439;  9.3367690E-01;  0.0000000E+00; -4.4496525E-02;  9.9926251E+02;  1.7905527E-01; -6.1003119E+02;3;  8.8675453E+01;  0.0000000E+00; -2.3620493E+01;0;  2.5218540E-01;  1.2583193E+04;  0.0000000E+00; -6.1835837E-01;  4.0000000E+04;  0.0000000E+00;  3.9546562E+04; -7.1193859E-02;  0.0000000E+00;  3.2337928E-01;  1.0680799E+04;
  1.2188363E+00;  9.9999998E-03; -2.5128487E-01;8429;  1.0618724E+00;  0.0000000E+00; -1.0037486E-01;  1.0024090E+03;  1.7874269E-01;  1.9926193E+03;3;  6.1322739E+01;  0.0000000E+00; -3.1615856E+01;0;  6.6397721E-01;  1.2730225E+04;  0.0000000E+00; -2.9726183E+00;  4.0000000E+04;  0.0000000E+00;  3.9482035E+04;  1.4904809E-01;  0.0000000E+00;  5.1492912E-01;  7.6054639E+03;
  1.2183987E+00;  9.9999998E-03; -1.4058684E-01;8440;  9.2271733E-01;  0.0000000E+00; -4.2086501E-02;  9.9898291E+02;  1.7903550E-01; -8.4131061E+02;3;  9.1424782E+01;  0.0000000E+00; -2.2832973E+01;0;  2.1924002E-01;  1.2573733E+04;  0.0000000E+00; -2.4761125E-01;  4.0000000E+04;  0.0000000E+00;  3.9554199E+04; -9.2493281E-02;  0.0000000E+00;  3.1173331E-01;  1.1373003E+04;
  1.2184758E+00;  9.9999998E-03; -1.3054568E-01;8441;  9.1223419E-01;  0.0000000E+00; -3.9470967E-02;  9.9868323E+02;  1.7902286E-01; -1.0892054E+03;3;  9.4084015E+01;  0.0000000E+00; -2.1957523E+01;0;  1.9056819E-01;  1.2563327E+04;  0.0000000E+00;  1.0140586E-01;  4.0000000E+04;  0.0000000E+00;  3.9561535E+04; -1.1204670E-01;  0.0000000E+00;  3.0261490E-01;  1.2124004E+04;
  1.2185920E+00;  9.9999998E-03; -1.2052917E-01;8442;  9.0230197E-01;  0.0000000E+00; -3.6574237E-02;  9.9835242E+02;  1.7899181E-01; -1.3628341E+03;3;  9.6182869E+01;  0.0000000E+00; -2.1078266E+01;0;  1.6505840E-01;  1.2555061E+04;  0.0000000E+00;  3.8946328E-01;  4.0000000E+04;  0.0000000E+00;  3.9568004E+04; -1.3032141E-01;  0.0000000E+00;  2.9537982E-01;  1.2902672E+04;
  1.2194953E+00;  9.9999998E-03; -2.6138863E-01;8428;  1.0749450E+00;  0.0000000E+00; -1.0209786E-01;  1.0023876E+03;  1.7860258E-01;  1.9749379E+03;3;  5.8728447E+01;  0.0000000E+00; -2.8827141E+01;0;  6.9386327E-01;  1.2753248E+04;  0.0000000E+00; -4.5797911E+00;  4.0000000E+04;  0.0000000E+00;  3.9471211E+04;  1.5490115E-01;  0.0000000E+00;  5.3896213E-01;  1.1921473E+04;
  1.2187359E+00;  9.9999998E-03; -1.1050618E-01;8443;  8.9300132E-01;  0.0000000E+00; -3.3436496E-02;  9.9798218E+02;  1.7895313E-01; -1.6690497E+03;3;  9.8313087E+01;  0.0000000E+00; -1.9965033E+01;0;  1.4258425E-01;  1.2548152E+04;  0.0000000E+00;  5.9110594E-01;  4.0000000E+04;  0.0000000E+00;  3.9573648E+04; -1.4712547E-01;  0.0000000E+00;  2.8970972E-01;  1.3638568E+04;
  1.2344621E+00;  9.9999998E-03; -2.0097914E-01;8495;  9.8986506E-01;  0.0000000E+00; -3.4104660E-02;  9.9831854E+02;  1.7240013E-01; -1.3902471E+03;3;  7.5272041E+01;  0.0000000E+00; -3.3340946E+01;0;  2.2461998E-01;  1.3562197E+04;  0.0000000E+00; -1.1672157E+00;  4.0000000E+04;  0.0000000E+00;  3.9527500E+04; -1.2164839E-01;  0.0000000E+00;  3.4626839E-01;  7.9427715E+03;
  1.2345667E+00;  9.9999998E-03; -1.9094162E-01;8496;  9.7735614E-01;  0.0000000E+00; -3.2051925E-02;  9.9803680E+02;  1.7241468E-01; -1.6231984E+03;3;  7.7427795E+01;  0.0000000E+00; -3.1261564E+01;0;  1.9886020E-01;  1.3549142E+04;  0.0000000E+00; -1.1699407E+00;  4.0000000E+04;  0.0000000E+00;  3.9538598E+04; -1.2549239E-01;  0.0000000E+00;  3.2435259E-01;  9.2627803E+03;
  1.2345352E+00;  9.9999998E-03; -2.1100251E-01;8494;  1.0026621E+00;  0.0000000E+00; -3.6723636E-02;  9.9864142E+02;  1.7235120E-01; -1.1232837E+03;3;  7.2951439E+01;  0.0000000E+00; -3.5895409E+01;0;  2.4512720E-01;  1.3580705E+04;  0.0000000E+00; -1.2104456E+00;  4.0000000E+04;  0.0000000E+00;  3.9517891E+04; -1.1905254E-01;  0.0000000E+00;  3.6417973E-01;  6.8116738E+03;
  1.2348468E+00;  9.9999998E-03; -1.8089269E-01;8497;  9.6513319E-01;  0.0000000E+00; -3.0233271E-02;  9.9777899E+02;  1.7238830E-01; -1.8363270E+03;3;  8.0035591E+01;  0.0000000E+00; -2.9411055E+01;0;  1.6972575E-01;  1.3542450E+04;  0.0000000E+00; -1.1160929E+00;  4.0000000E+04;  0.0000000E+00;  3.9548492E+04; -1.3004220E-01;  0.0000000E+00;  2.9976794E-01;  1.0417219E+04;
  1.2347652E+00;  9.9999998E-03; -2.2102357E-01;8493;  1.0158768E+00;  0.0000000E+00; -4.0531445E-02;  9.9903442E+02;  1.7227688E-01; -7.9836218E+02;3;  7.0894463E+01;  0.0000000E+00; -4.0031063E+01;0;  2.5991404E-01;  1.3602873E+04;  0.0000000E+00; -1.4444444E+00;  4.0000000E+04;  0.0000000E+00;  3.9512238E+04; -1.1799932E-01;  0.0000000E+00;  3.7791336E-01;  6.3953076E+03;
  1.2351573E+00;  9.9999998E-03; -2.3105770E-01;8492;  1.0294322E+00;  0.0000000E+00; -4.6546400E-02;  9.9947797E+02;  1.7217642E-01; -4.3160324E+02;3;  6.8668465E+01;  0.0000000E+00; -4.4321587E+01;0;  2.7258039E-01;  1.3628466E+04;  0.0000000E+00; -2.0319219E+00;  4.0000000E+04;  0.0000000E+00;  3.9512184E+04; -1.1893483E-01;  0.0000000E+00;  3.9151523E-01;  7.1926196E+03;
  1.2352993E+00;  9.9999998E-03; -1.7083685E-01;8498;  9.5308012E-01;  0.0000000E+00; -2.8494054E-02;  9.9754321E+02;  1.7231555E-01; -2.0312566E+03;3;  8.2702042E+01;  0.0000000E+00; -2.8139948E+01;0;  1.3925545E-01;  1.3543131E+04;  0.0000000E+00; -9.6025693E-01;  4.0000000E+04;  0.0000000E+00;  3.9557477E+04; -1.3473372E-01;  0.0000000E+00;  2.7398917E-01;  1.1324115E+04;
  1.2356415E+00;  9.9999998E-03; -2.4111621E-01;8491;  1.0432036E+00;  0.0000000E+00; -5.7129648E-02;  9.9992688E+02;  1.7206758E-01; -6.0466930E+01;3;  6.5907082E+01;  0.0000000E+00; -5.0409393E+01;0;  3.0174941E-01;  1.3654083E+04;  0.0000000E+00; -3.1096675E+00;  4.0000000E+04;  0.0000000E+00;  3.9515266E+04; -1.2143275E-01;  0.0000000E+00;  4.2318216E-01;  9.4178525E+03;
  1.2357484E+00;  9.9999998E-03; -1.6077779E-01;8499;  9.4132590E-01;  0.0000000E+00; -2.6857065E-02;  9.9732355E+02;  1.7223193E-01; -2.2128262E+03;3;  8.5313713E+01;  0.0000000E+00; -2.7104145E+01;0;  1.1057816E-01;  1.3545590E+04;  0.0000000E+00; -7.1294290E-01;  4.0000000E+04;  0.0000000E+00;  3.9565176E+04; -1.3864888E-01;  0.0000000E+00;  2.4922705E-01;  1.2041898E+04;
  1.2359917E+00;  9.9999998E-03; -1.5071471E-01;8500;  9.2990482E-01;  0.0000000E+00; -2.5486564E-02;  9.9712427E+02;  1.7218943E-01; -2.3776011E+03;3;  8.8219391E+01;  0.0000000E+00; -2.6055714E+01;0;  8.6235985E-02;  1.3542312E+04;  0.0000000E+00; -4.1690996E-01;  4.0000000E+04;  0.0000000E+00;  3.9572090E+04; -1.4162056E-01;  0.0000000E+00;  2.2785655E-01;  1.2674371E+04;
  1.2361336E+00;  9.9999998E-03; -2.5119871E-01;8490;  1.0568421E+00;  0.0000000E+00; -7.1713842E-02;  1.0002639E+03;  1.7196812E-01;  2.1811131E+02;3;  6.3129620E+01;  0.0000000E+00; -4.6433723E+01;0;  3.7565741E-01;  1.3676829E+04;  0.0000000E+00; -4.7131901E+00;  4.0000000E+04;  0.0000000E+00;  3.9516086E+04; -1.2459026E-01;  0.0000000E+00;  5.0024766E-01;  1.3001363E+04;
  1.2360679E+00;  9.9999998E-03; -1.2053057E-01;8503;  8.9815813E-01;  0.0000000E+00; -2.1206502E-02;  9.9642773E+02;  1.7216353E-01; -2.9534775E+03;3;  9.5916389E+01;  0.0000000E+00; -2.2875994E+01;0;  3.7203118E-02;  1.3512914E+04;  0.0000000E+00;  3.5676825E-01;  4.0000000E+04;  0.0000000E+00;  3.9589430E+04; -1.5011089E-01;  0.0000000E+00;  1.8731400E-01;  1.4680959E+04;
  1.2360836E+00;  9.9999998E-03; -1.3057259E-01;8502;  9.0823346E-01;  0.0000000E+00; -2.2771748E-02;  9.9669635E+02;  1.7216641E-01; -2.7313730E+03;3;  9.3560493E+01;  0.0000000E+00; -2.3971834E+01;0;  5.0115049E-02;  1.3524265E+04;  0.0000000E+00;  1.4978270E-01;  4.0000000E+04;  0.0000000E+00;  3.9584070E+04; -1.4716084E-01;  0.0000000E+00;  1.9727589E-01;  1.3999813E+04;
  1.2360780E+00;  9.9999998E-03; -1.4064339E-01;8501;  9.1885072E-01;  0.0000000E+00; -2.4162909E-02;  9.9692065E+02;  1.7217162E-01; -2.5459338E+03;3;  9.0977623E+01;  0.0000000E+00; -2.5037638E+01;0;  6.6242903E-02;  1.3534517E+04;  0.0000000E+00; -1.1716764E-01;  4.0000000E+04;  0.0000000E+00;  3.9578242E+04; -1.4434065E-01;  0.0000000E+00;  2.1058355E-01;  1.3318436E+04;
  1.2361027E+00;  9.9999998E-03; -1.1049137E-01;8504;  8.8866496E-01;  0.0000000E+00; -1.9434307E-02;  9.9611487E+02;  1.7214951E-01; -3.2121428E+03;3;  9.8050804E+01;  0.0000000E+00; -2.1566000E+01;0;  2.6599482E-02;  1.3502778E+04;  0.0000000E+00;  4.8907989E-01;  4.0000000E+04;  0.0000000E+00;  3.9594418E+04; -1.5299876E-01;  0.0000000E+00;  1.7959824E-01;  1.5313473E+04;
  1.2367177E+00;  9.9999998E-03; -2.6129720E-01;8489;  1.0702639E+00;  0.0000000E+00; -7.8754455E-02;  1.0003628E+03;  1.7184310E-01;  2.9990994E+02;3;  6.0391853E+01;  0.0000000E+00; -3.3406849E+01;0;  4.3255830E-01;  1.3701224E+04;  0.0000000E+00; -6.8082733E+00;  4.0000000E+04;  0.0000000E+00;  3.9509234E+04; -1.2935869E-01;  0.0000000E+00;  5.6191701E-01;  1.7806365E+04;
  1.2512678E+00;  9.9999998E-03; -2.1101880E-01;8555;  9.9815995E-01;  0.0000000E+00; -1.3599145E-02;  9.9649536E+02;  1.6595249E-01; -2.8960225E+03;3;  7.2176987E+01;  0.0000000E+00; -3.7049812E+01;0;  1.0923237E-01;  1.4577101E+04;  0.0000000E+00; -1.2846831E+00;  4.0000000E+04;  0.0000000E+00;  3.9539363E+04; -2.1447992E-01;  0.0000000E+00;  3.2371229E-01;  8.6614453E+03;
  1.2514428E+00;  9.9999998E-03; -2.2102587E-01;8554;  1.0107775E+00;  0.0000000E+00; -1.5707877E-02;  9.9690784E+02;  1.6590044E-01; -2.5551689E+03;3;  7.0294449E+01;  0.0000000E+00; -4.0220345E+01;0;  1.1729704E-01;  1.4597918E+04;  0.0000000E+00; -1.8125718E+00;  4.0000000E+04;  0.0000000E+00;  3.9532828E+04; -2.2925101E-01;  0.0000000E+00;  3.4654805E-01;  8.5233525E+03;
  1.2513179E+00;  9.9999998E-03; -2.0099859E-01;8556;  9.8574144E-01;  0.0000000E+00; -1.2098770E-02;  9.9616199E+02;  1.6595496E-01; -3.1714924E+03;3;  7.4290489E+01;  0.0000000E+00; -3.4666664E+01;0;  9.4748512E-02;  1.4564922E+04;  0.0000000E+00; -1.0117972E+00;  4.0000000E+04;  0.0000000E+00;  3.9550582E+04; -2.0018508E-01;  0.0000000E+00;  2.9493359E-01;  9.7053057E+03;
  1.2517780E+00;  9.9999998E-03; -2.3104209E-01;8553;  1.0237008E+00;  0.0000000E+00; -1.9495739E-02;  9.9740771E+02;  1.6581745E-01; -2.1420527E+03;3;  6.8491699E+01;  0.0000000E+00; -4.4008995E+01;0;  1.2003937E-01;  1.4623681E+04;  0.0000000E+00; -2.7568638E+00;  4.0000000E+04;  0.0000000E+00;  3.9532820E+04; -2.4443516E-01;  0.0000000E+00;  3.6447453E-01;  9.9338477E+03;
  1.2515453E+00;  9.9999998E-03; -1.9096127E-01;8557;  9.7348022E-01;  0.0000000E+00; -1.0910431E-02;  9.9589014E+02;  1.6592002E-01; -3.3961086E+03;3;  7.6747192E+01;  0.0000000E+00; -3.3239483E+01;0;  7.6225907E-02;  1.4559966E+04;  0.0000000E+00; -8.5613257E-01;  4.0000000E+04;  0.0000000E+00;  3.9561707E+04; -1.8595818E-01;  0.0000000E+00;  2.6218408E-01;  1.0925945E+04;
  1.2522364E+00;  9.9999998E-03; -2.4108548E-01;8552;  1.0370061E+00;  0.0000000E+00; -2.6536589E-02;  9.9791882E+02;  1.6571407E-01; -1.7196793E+03;3;  6.6961929E+01;  0.0000000E+00; -4.9936451E+01;0;  1.2714830E-01;  1.4651689E+04;  0.0000000E+00; -4.2757673E+00;  4.0000000E+04;  0.0000000E+00;  3.9537113E+04; -2.5982431E-01;  0.0000000E+00;  3.8697261E-01;  1.3119748E+04;
  1.2518736E+00;  9.9999998E-03; -1.8091115E-01;8558;  9.6140820E-01;  0.0000000E+00; -9.8752389E-03;  9.9566278E+02;  1.6586436E-01; -3.5839146E+03;3;  7.9083183E+01;  0.0000000E+00; -3.2060402E+01;0;  5.6313828E-02;  1.4560068E+04;  0.0000000E+00; -7.1913880E-01;  4.0000000E+04;  0.0000000E+00;  3.9570957E+04; -1.7154002E-01;  0.0000000E+00;  2.2785385E-01;  1.1959984E+04;
  1.2527208E+00;  9.9999998E-03; -2.5115359E-01;8551;  1.0506392E+00;  0.0000000E+00; -3.9616246E-02;  9.9835962E+02;  1.6561210E-01; -1.3554357E+03;3;  6.4832382E+01;  0.0000000E+00; -5.4436398E+01;0;  1.7372933E-01;  1.4678358E+04;  0.0000000E+00; -6.3920693E+00;  4.0000000E+04;  0.0000000E+00;  3.9541938E+04; -2.7462661E-01;  0.0000000E+00;  4.4835594E-01;  1.7981066E+04;
  1.2522426E+00;  9.9999998E-03; -1.7085895E-01;8559;  9.4950366E-01;  0.0000000E+00; -9.0241861E-03;  9.9547528E+02;  1.6579379E-01; -3.7388096E+03;3;  8.1828194E+01;  0.0000000E+00; -3.0745209E+01;0;  3.7215456E-02;  1.4563612E+04;  0.0000000E+00; -5.4872078E-01;  4.0000000E+04;  0.0000000E+00;  3.9578207E+04; -1.5692452E-01;  0.0000000E+00;  1.9413997E-01;  1.2735513E+04;
  1.2526050E+00;  9.9999998E-03; -1.6081031E-01;8560;  9.3779933E-01;  0.0000000E+00; -8.2592145E-03;  9.9530994E+02;  1.6571729E-01; -3.8753789E+03;3;  8.4462524E+01;  0.0000000E+00; -2.9890177E+01;0;  2.0591736E-02;  1.4568887E+04;  0.0000000E+00; -3.4245875E-01;  4.0000000E+04;  0.0000000E+00;  3.9583777E+04; -1.4225219E-01;  0.0000000E+00;  1.6284393E-01;  1.3328787E+04;
  1.2531955E+00;  9.9999998E-03; -2.6124239E-01;8550;  1.0642396E+00;  0.0000000E+00; -5.4427672E-02;  9.9859418E+02;  1.6550617E-01; -1.1616113E+03;3;  6.2663963E+01;  0.0000000E+00; -4.3326893E+01;0;  2.7299634E-01;  1.4703350E+04;  0.0000000E+00; -8.8414688E+00;  4.0000000E+04;  0.0000000E+00;  3.9539672E+04; -2.8829005E-01;  0.0000000E+00;  5.6128639E-01;  2.3584514E+04;
  1.2529411E+00;  9.9999998E-03; -1.5075283E-01;8561;  9.2632574E-01;  0.0000000E+00; -7.5414167E-03;  9.9515363E+02;  1.6563848E-01; -4.0045117E+03;3;  8.7443840E+01;  0.0000000E+00; -2.8717022E+01;0;  7.5260401E-03;  1.4574127E+04;  0.0000000E+00; -1.3008164E-01;  4.0000000E+04;  0.0000000E+00;  3.9588559E+04; -1.2768322E-01;  0.0000000E+00;  1.3520926E-01;  1.3842600E+04;
  1.2531152E+00;  9.9999998E-03; -1.1047382E-01;8565;  8.8450050E-01;  0.0000000E+00; -5.4574930E-03;  9.9426147E+02;  1.6560215E-01; -4.7416118E+03;3;  9.7615898E+01;  0.0000000E+00; -2.3845572E+01;0; -7.8830421E-03;  1.4536590E+04;  0.0000000E+00;  3.3256170E-01;  4.0000000E+04;  0.0000000E+00;  3.9605707E+04; -7.9472519E-02;  0.0000000E+00;  7.1589477E-02;  1.5954511E+04;
  1.2531918E+00;  9.9999998E-03; -1.2053167E-01;8564;  8.9415663E-01;  0.0000000E+00; -5.9575429E-03;  9.9455365E+02;  1.6557950E-01; -4.5002227E+03;3;  9.5455597E+01;  0.0000000E+00; -2.5238169E+01;0; -8.1032664E-03;  1.4553358E+04;  0.0000000E+00;  2.8980047E-01;  4.0000000E+04;  0.0000000E+00;  3.9601570E+04; -8.9607313E-02;  0.0000000E+00;  8.1504047E-02;  1.5423199E+04;
  1.2531792E+00;  9.9999998E-03; -1.4068456E-01;8562;  9.1516548E-01;  0.0000000E+00; -6.9130198E-03;  9.9498627E+02;  1.6557989E-01; -4.1427188E+03;3;  9.0257538E+01;  0.0000000E+00; -2.7623562E+01;0; -1.3570786E-03;  1.4575073E+04;  0.0000000E+00;  5.6101605E-02;  4.0000000E+04;  0.0000000E+00;  3.9593027E+04; -1.1365794E-01;  0.0000000E+00;  1.1230086E-01;  1.4348010E+04;
  1.2532407E+00;  9.9999998E-03; -1.3061240E-01;8563;  9.0440768E-01;  0.0000000E+00; -6.4200461E-03;  9.9479120E+02;  1.6556482E-01; -4.3039038E+03;3;  9.2922783E+01;  0.0000000E+00; -2.6530682E+01;0; -6.2509626E-03;  1.4567317E+04;  0.0000000E+00;  1.9794030E-01;  4.0000000E+04;  0.0000000E+00;  3.9597336E+04; -1.0092510E-01;  0.0000000E+00;  9.4674133E-02;  1.4875598E+04;
  1.2677662E+00;  9.9999998E-03; -2.2100753E-01;8615;  1.0055881E+00;  0.0000000E+00;  6.6079851E-03;  9.9514752E+02;  1.5983036E-01; -4.0069014E+03;3;  6.9335976E+01;  0.0000000E+00; -4.0392067E+01;0;  3.6567211E-02;  1.5663402E+04;  0.0000000E+00; -2.1584129E+00;  4.0000000E+04;  0.0000000E+00;  3.9554945E+04; -2.7254957E-01;  0.0000000E+00;  3.0911678E-01;  1.0665600E+04;
  1.2680527E+00;  9.9999998E-03; -2.3103420E-01;8614;  1.0178103E+00;  0.0000000E+00;  4.3999576E-03;  9.9565479E+02;  1.5977325E-01; -3.5880037E+03;3;  6.7846977E+01;  0.0000000E+00; -4.4128025E+01;0;  3.1103164E-02;  1.5687194E+04;  0.0000000E+00; -3.6015372E+00;  4.0000000E+04;  0.0000000E+00;  3.9553348E+04; -3.0222708E-01;  0.0000000E+00;  3.3333024E-01;  1.2601455E+04;
  1.2676083E+00;  9.9999998E-03; -2.1099596E-01;8616;  9.9361980E-01;  0.0000000E+00;  7.6298974E-03;  9.9470886E+02;  1.5986221E-01; -4.3691812E+03;3;  7.1077202E+01;  0.0000000E+00; -3.8148453E+01;0;  3.5684019E-02;  1.5644436E+04;  0.0000000E+00; -1.2570060E+00;  4.0000000E+04;  0.0000000E+00;  3.9560688E+04; -2.4180567E-01;  0.0000000E+00;  2.7748969E-01;  1.0452525E+04;
  1.2675928E+00;  9.9999998E-03; -2.0098455E-01;8617;  9.8170555E-01;  0.0000000E+00;  8.1343548E-03;  9.9436053E+02;  1.5986697E-01; -4.6568179E+03;3;  7.3002739E+01;  0.0000000E+00; -3.6483334E+01;0;  2.9956684E-02;  1.5631821E+04;  0.0000000E+00; -7.2226346E-01;  4.0000000E+04;  0.0000000E+00;  3.9569520E+04; -2.1017335E-01;  0.0000000E+00;  2.4013004E-01;  1.1181865E+04;
  1.2684366E+00;  9.9999998E-03; -2.4108225E-01;8613;  1.0302628E+00;  0.0000000E+00;  1.6905137E-04;  9.9616705E+02;  1.5969682E-01; -3.1649187E+03;3;  6.6803413E+01;  0.0000000E+00; -4.8698387E+01;0;  2.1880895E-02;  1.5713604E+04;  0.0000000E+00; -5.7620807E+00;  4.0000000E+04;  0.0000000E+00;  3.9554812E+04; -3.3048356E-01;  0.0000000E+00;  3.5236445E-01;  1.6835363E+04;
  1.2677279E+00;  9.9999998E-03; -1.9096170E-01;8618;  9.6986169E-01;  0.0000000E+00;  8.4824665E-03;  9.9408923E+02;  1.5983818E-01; -4.8807793E+03;3;  7.5314171E+01;  0.0000000E+00; -3.5123314E+01;0;  2.1946236E-02;  1.5626976E+04;  0.0000000E+00; -4.1197425E-01;  4.0000000E+04;  0.0000000E+00;  3.9578660E+04; -1.7770882E-01;  0.0000000E+00;  1.9965506E-01;  1.2165417E+04;
  1.2688366E+00;  9.9999998E-03; -2.5114331E-01;8612;  1.0433295E+00;  0.0000000E+00; -9.4263954E-03;  9.9665656E+02;  1.5961544E-01; -2.7606973E+03;3;  6.5825500E+01;  0.0000000E+00; -5.5231205E+01;0;  3.5975397E-02;  1.5740052E+04;  0.0000000E+00; -8.6370726E+00;  4.0000000E+04;  0.0000000E+00;  3.9560023E+04; -3.5658181E-01;  0.0000000E+00;  3.9255720E-01;  2.3435576E+04;
  1.2692322E+00;  9.9999998E-03; -2.6121992E-01;8611;  1.0567594E+00;  0.0000000E+00; -2.6284100E-02;  9.9699908E+02;  1.5952240E-01; -2.4778062E+03;3;  6.4751060E+01;  0.0000000E+00; -5.4832653E+01;0;  1.2941700E-01;  1.5766529E+04;  0.0000000E+00; -1.1859527E+01;  4.0000000E+04;  0.0000000E+00;  3.9562727E+04; -3.7990063E-01;  0.0000000E+00;  5.0931764E-01;  3.1053828E+04;
  1.2680312E+00;  9.9999998E-03; -1.8092319E-01;8619;  9.5802397E-01;  0.0000000E+00;  8.7978384E-03;  9.9386652E+02;  1.5976845E-01; -5.0646318E+03;3;  7.7854279E+01;  0.0000000E+00; -3.4211506E+01;0;  1.4049575E-02;  1.5631487E+04;  0.0000000E+00; -2.1884376E-01;  4.0000000E+04;  0.0000000E+00;  3.9586148E+04; -1.4429502E-01;  0.0000000E+00;  1.5834460E-01;  1.3020591E+04;
  1.2684379E+00;  9.9999998E-03; -1.7087145E-01;8620;  9.4624615E-01;  0.0000000E+00;  9.1101257E-03;  9.9369110E+02;  1.5967512E-01; -5.2093735E+03;3;  8.0552635E+01;  0.0000000E+00; -3.3346138E+01;0;  8.3091781E-03;  1.5642198E+04;  0.0000000E+00; -7.7034086E-02;  4.0000000E+04;  0.0000000E+00;  3.9591227E+04; -1.1000887E-01;  0.0000000E+00;  1.1831805E-01;  1.3626112E+04;
  1.2688746E+00;  9.9999998E-03; -1.6081735E-01;8621;  9.3458903E-01;  0.0000000E+00;  9.3866875E-03;  9.9354266E+02;  1.5957214E-01; -5.3318062E+03;3;  8.3276428E+01;  0.0000000E+00; -3.2688000E+01;0;  6.2136427E-03;  1.5654957E+04;  0.0000000E+00;  4.0644873E-02;  4.0000000E+04;  0.0000000E+00;  3.9594633E+04; -7.5202942E-02;  0.0000000E+00;  8.1416585E-02;  1.4019863E+04;
  1.2695084E+00;  9.9999998E-03; -1.1048666E-01;8626;  8.8090652E-01;  0.0000000E+00;  8.4554441E-03;  9.9256763E+02;  1.5947700E-01; -6.1367256E+03;3;  9.6400337E+01;  0.0000000E+00; -2.5941668E+01;0;  5.1204331E-02;  1.5624881E+04;  0.0000000E+00;  1.3713478E-01;  4.0000000E+04;  0.0000000E+00;  3.9608125E+04;  7.9549357E-02;  0.0000000E+00; -2.8345024E-02;  1.5723091E+04;
  1.2696052E+00;  9.9999998E-03; -1.2052585E-01;8625;  8.9067262E-01;  0.0000000E+00;  8.9585911E-03;  9.9284875E+02;  1.5943420E-01; -5.9045552E+03;3;  9.4352592E+01;  0.0000000E+00; -2.7522331E+01;0;  3.7804440E-02;  1.5646124E+04;  0.0000000E+00;  1.7185776E-01;  4.0000000E+04;  0.0000000E+00;  3.9604590E+04;  5.3358868E-02;  0.0000000E+00; -1.5554427E-02;  1.5286255E+04;
  1.2692852E+00;  9.9999998E-03; -1.5075512E-01;8622;  9.2309928E-01;  0.0000000E+00;  9.5810834E-03;  9.9340833E+02;  1.5947782E-01; -5.4426260E+03;3;  8.5986259E+01;  0.0000000E+00; -3.1822405E+01;0;  8.6226203E-03;  1.5666471E+04;  0.0000000E+00;  1.3104291E-01;  4.0000000E+04;  0.0000000E+00;  3.9596945E+04; -4.0330749E-02;  0.0000000E+00;  4.8953369E-02;  1.4303318E+04;
  1.2696416E+00;  9.9999998E-03; -1.3059327E-01;8624;  9.0104270E-01;  0.0000000E+00;  9.3596010E-03;  9.9307892E+02;  1.5940847E-01; -5.7144810E+03;3;  9.1979683E+01;  0.0000000E+00; -2.9058683E+01;0;  2.5517967E-02;  1.5662284E+04;  0.0000000E+00;  1.9055675E-01;  4.0000000E+04;  0.0000000E+00;  3.9601609E+04;  2.4678290E-02;  0.0000000E+00;  8.3967665E-04;  1.4893279E+04;
  1.2695467E+00;  9.9999998E-03; -1.4067768E-01;8623;  9.1188586E-01;  0.0000000E+00;  9.5836995E-03;  9.9325958E+02;  1.5942055E-01; -5.5653413E+03;3;  8.9207603E+01;  0.0000000E+00; -3.0342741E+01;0;  1.5369466E-02;  1.5669537E+04;  0.0000000E+00;  1.8086894E-01;  4.0000000E+04;  0.0000000E+00;  3.9599164E+04; -6.7128539E-03;  0.0000000E+00;  2.2082319E-02;  1.4571935E+04;
  1.2838142E+00;  9.9999998E-03; -2.3103574E-01;8675;  1.0119791E+00;  0.0000000E+00;  2.5541512E-02;  9.9425177E+02;  1.5413488E-01; -4.7423066E+03;3;  6.6776741E+01;  0.0000000E+00; -4.3494793E+01;0; -1.5704453E-02;  1.6801443E+04;  0.0000000E+00; -4.3979397E+00;  4.0000000E+04;  0.0000000E+00;  3.9571527E+04; -3.1383386E-01;  0.0000000E+00;  2.9812941E-01;  1.4615041E+04;
  1.2841694E+00;  9.9999998E-03; -2.4109377E-01;8674;  1.0234224E+00;  0.0000000E+00;  2.3085313E-02;  9.9471204E+02;  1.5407315E-01; -4.3624863E+03;3;  6.6108337E+01;  0.0000000E+00; -4.7274799E+01;0; -3.9221138E-02;  1.6827092E+04;  0.0000000E+00; -7.4711986E+00;  4.0000000E+04;  0.0000000E+00;  3.9570688E+04; -3.5742402E-01;  0.0000000E+00;  3.1820288E-01;  2.0096371E+04;
  1.2835052E+00;  9.9999998E-03; -2.2099946E-01;8676;  1.0006759E+00;  0.0000000E+00;  2.6450699E-02;  9.9376483E+02;  1.5418415E-01; -5.1441587E+03;3;  6.7644775E+01;  0.0000000E+00; -4.1220596E+01;0;  8.9097023E-04;  1.6777926E+04;  0.0000000E+00; -2.3486683E+00;  4.0000000E+04;  0.0000000E+00;  3.9572645E+04; -2.6724255E-01;  0.0000000E+00;  2.6813352E-01;  1.2168931E+04;
  1.2845106E+00;  9.9999998E-03; -2.5115451E-01;8673;  1.0353453E+00;  0.0000000E+00;  1.6600687E-02;  9.9516840E+02;  1.5400411E-01; -3.9859312E+03;3;  6.5932961E+01;  0.0000000E+00; -5.3715038E+01;0; -5.3391695E-02;  1.6853193E+04;  0.0000000E+00; -1.1585875E+01;  4.0000000E+04;  0.0000000E+00;  3.9574500E+04; -3.9710686E-01;  0.0000000E+00;  3.4371516E-01;  2.9069984E+04;
  1.2833225E+00;  9.9999998E-03; -2.1099266E-01;8677;  9.8940593E-01;  0.0000000E+00;  2.6716707E-02;  9.9330225E+02;  1.5420714E-01; -5.5258691E+03;3;  6.9261559E+01;  0.0000000E+00; -3.9779125E+01;0;  1.1215538E-02;  1.6760150E+04;  0.0000000E+00; -1.0757258E+00;  4.0000000E+04;  0.0000000E+00;  3.9575598E+04; -2.1814914E-01;  0.0000000E+00;  2.2936468E-01;  1.1640979E+04;
  1.2833073E+00;  9.9999998E-03; -2.0099382E-01;8678;  9.7810411E-01;  0.0000000E+00;  2.6684146E-02;  9.9292511E+02;  1.5419519E-01; -5.8370093E+03;3;  7.1348694E+01;  0.0000000E+00; -3.8581516E+01;0;  1.8632814E-02;  1.6750375E+04;  0.0000000E+00; -3.2318130E-01;  4.0000000E+04;  0.0000000E+00;  3.9581758E+04; -1.6662423E-01;  0.0000000E+00;  1.8525705E-01;  1.2169214E+04;
  1.2848282E+00;  9.9999998E-03; -2.6122227E-01;8672;  1.0479118E+00;  0.0000000E+00;  1.8231276E-03;  9.9554242E+02;  1.5391630E-01; -3.6773027E+03;3;  6.6004707E+01;  0.0000000E+00; -5.8858395E+01;0;  4.5587420E-03;  1.6881250E+04;  0.0000000E+00; -1.6235846E+01;  4.0000000E+04;  0.0000000E+00;  3.9580594E+04; -4.3196607E-01;  0.0000000E+00;  4.3652481E-01;  3.9722875E+04;
  1.2834734E+00;  9.9999998E-03; -1.9098161E-01;8679;  9.6666831E-01;  0.0000000E+00;  2.6554417E-02;  9.9263544E+02;  1.5414560E-01; -6.0759404E+03;3;  7.3762398E+01;  0.0000000E+00; -3.7617775E+01;0;  2.6156105E-02;  1.6750117E+04;  0.0000000E+00;  8.6975202E-02;  4.0000000E+04;  0.0000000E+00;  3.9589090E+04; -1.1256067E-01;  0.0000000E+00;  1.3871677E-01;  1.3004555E+04;
  1.2837830E+00;  9.9999998E-03; -1.8095244E-01;8680;  9.5512104E-01;  0.0000000E+00;  2.6408534E-02;  9.9241040E+02;  1.5406865E-01; -6.2614561E+03;3;  7.6332298E+01;  0.0000000E+00; -3.6739933E+01;0;  3.6106650E-02;  1.6757826E+04;  0.0000000E+00;  2.7774709E-01;  4.0000000E+04;  0.0000000E+00;  3.9594707E+04; -5.6116421E-02;  0.0000000E+00;  9.2223071E-02;  1.3674905E+04;
  1.2851714E+00;  9.9999998E-03; -1.1050502E-01;8687;  8.7823820E-01;  0.0000000E+00;  2.1453168E-02;  9.9117432E+02;  1.5385658E-01; -7.2805918E+03;3;  9.5151024E+01;  0.0000000E+00; -2.8104666E+01;0;  2.1336117E-01;  1.6746389E+04;  0.0000000E+00; -6.9720440E-02;  4.0000000E+04;  0.0000000E+00;  3.9602988E+04;  3.3066744E-01;  0.0000000E+00; -1.1730625E-01;  1.4860561E+04;
  1.2841791E+00;  9.9999998E-03; -1.7090197E-01;8681;  9.4352245E-01;  0.0000000E+00;  2.6241602E-02;  9.9223810E+02;  1.5397665E-01; -6.4034585E+03;3;  7.9135696E+01;  0.0000000E+00; -3.5999229E+01;0;  5.0081410E-02;  1.6770564E+04;  0.0000000E+00;  3.3984300E-01;  4.0000000E+04;  0.0000000E+00;  3.9597633E+04;  2.2872726E-03;  0.0000000E+00;  4.7794137E-02;  1.4048271E+04;
  1.2852101E+00;  9.9999998E-03; -1.2053780E-01;8686;  8.8807499E-01;  0.0000000E+00;  2.2785388E-02;  9.9144928E+02;  1.5381734E-01; -7.0537534E+03;3;  9.3328613E+01;  0.0000000E+00; -2.9691576E+01;0;  1.8169664E-01;  1.6767539E+04;  0.0000000E+00;  1.3177234E-02;  4.0000000E+04;  0.0000000E+00;  3.9600469E+04;  2.8301120E-01;  0.0000000E+00; -1.0131456E-01;  1.4525749E+04;
  1.2845858E+00;  9.9999998E-03; -1.6082849E-01;8682;  9.3193549E-01;  0.0000000E+00;  2.5983231E-02;  9.9209973E+02;  1.5388621E-01; -6.5174712E+03;3;  8.1806168E+01;  0.0000000E+00; -3.5389660E+01;0;  6.8908699E-02;  1.6784133E+04;  0.0000000E+00;  3.3337334E-01;  4.0000000E+04;  0.0000000E+00;  3.9598453E+04;  6.1768815E-02;  0.0000000E+00;  7.1398872E-03;  1.4168831E+04;
  1.2852076E+00;  9.9999998E-03; -1.3058442E-01;8685;  8.9845711E-01;  0.0000000E+00;  2.3952674E-02;  9.9167517E+02;  1.5378989E-01; -6.8674009E+03;3;  9.0742203E+01;  0.0000000E+00; -3.1221508E+01;0;  1.5020475E-01;  1.6784109E+04;  0.0000000E+00;  1.1156598E-01;  4.0000000E+04;  0.0000000E+00;  3.9598973E+04;  2.3212683E-01;  0.0000000E+00; -8.1922077E-02;  1.4289856E+04;
  1.2849144E+00;  9.9999998E-03; -1.5074307E-01;8683;  9.2047805E-01;  0.0000000E+00;  2.5550134E-02;  9.9197180E+02;  1.5381913E-01; -6.6228555E+03;3;  8.4306694E+01;  0.0000000E+00; -3.4661522E+01;0;  9.2469648E-02;  1.6792801E+04;  0.0000000E+00;  2.8710479E-01;  4.0000000E+04;  0.0000000E+00;  3.9598285E+04;  1.2079409E-01;  0.0000000E+00; -2.8324442E-02;  1.4167646E+04;
  1.2851214E+00;  9.9999998E-03; -1.4065444E-01;8684;  9.0929377E-01;  0.0000000E+00;  2.4887174E-02;  9.9184052E+02;  1.5378676E-01; -6.7310410E+03;3;  8.7569649E+01;  0.0000000E+00; -3.2992638E+01;0;  1.2000396E-01;  1.6793170E+04;  0.0000000E+00;  2.0947132E-01;  4.0000000E+04;  0.0000000E+00;  3.9598230E+04;  1.7793779E-01;  0.0000000E+00; -5.7933830E-02;  1.4178930E+04;
  1.2997661E+00;  9.9999998E-03; -2.5117648E-01;8734;  1.0271297E+00;  0.0000000E+00;  3.8332917E-02;  9.9383130E+02;  1.4880589E-01; -5.0834961E+03;3;  6.5307121E+01;  0.0000000E+00; -5.1453487E+01;0; -1.0528877E-01;  1.8000100E+04;  0.0000000E+00; -1.5181794E+01;  4.0000000E+04;  0.0000000E+00;  3.9589359E+04; -4.0424874E-01;  0.0000000E+00;  2.9895997E-01;  3.4194898E+04;
  1.2996665E+00;  9.9999998E-03; -2.4111186E-01;8735;  1.0165473E+00;  0.0000000E+00;  4.2968445E-02;  9.9343445E+02;  1.4882596E-01; -5.4105713E+03;3;  6.4722923E+01;  0.0000000E+00; -4.6458668E+01;0; -6.7339212E-02;  1.7984311E+04;  0.0000000E+00; -9.8094606E+00;  4.0000000E+04;  0.0000000E+00;  3.9586555E+04; -3.4754407E-01;  0.0000000E+00;  2.8020486E-01;  2.3423775E+04;
  1.2998115E+00;  9.9999998E-03; -2.6124278E-01;8733;  1.0383438E+00;  0.0000000E+00;  2.6203595E-02;  9.9424225E+02;  1.4876401E-01; -4.7448052E+03;3;  6.6100800E+01;  0.0000000E+00; -5.7993835E+01;0; -8.6100072E-02;  1.8021490E+04;  0.0000000E+00; -2.0836281E+01;  4.0000000E+04;  0.0000000E+00;  3.9595527E+04; -4.5340595E-01;  0.0000000E+00;  3.6730587E-01;  4.6120512E+04;
  1.2994528E+00;  9.9999998E-03; -2.3104317E-01;8736;  1.0062480E+00;  0.0000000E+00;  4.4701502E-02;  9.9308148E+02;  1.4885440E-01; -5.7015024E+03;3;  6.5115341E+01;  0.0000000E+00; -4.4745705E+01;0; -2.8124899E-02;  1.7967121E+04;  0.0000000E+00; -5.5464020E+00;  4.0000000E+04;  0.0000000E+00;  3.9587980E+04; -2.8464532E-01;  0.0000000E+00;  2.5652042E-01;  1.6566051E+04;
  1.2991316E+00;  9.9999998E-03; -2.2099248E-01;8737;  9.9596882E-01;  0.0000000E+00;  4.5040891E-02;  9.9270160E+02;  1.4889880E-01; -6.0147451E+03;3;  6.5821068E+01;  0.0000000E+00; -4.3362934E+01;0;  4.5571476E-03;  1.7946037E+04;  0.0000000E+00; -2.6414461E+00;  4.0000000E+04;  0.0000000E+00;  3.9587828E+04; -2.1708594E-01;  0.0000000E+00;  2.2164309E-01;  1.3554036E+04;
  1.2988576E+00;  9.9999998E-03; -2.1097681E-01;8738;  9.8555470E-01;  0.0000000E+00;  4.4808190E-02;  9.9228760E+02;  1.4893273E-01; -6.3560776E+03;3;  6.7320618E+01;  0.0000000E+00; -4.1944180E+01;0;  3.2723650E-02;  1.7926473E+04;  0.0000000E+00; -9.2033452E-01;  4.0000000E+04;  0.0000000E+00;  3.9587395E+04; -1.4553893E-01;  0.0000000E+00;  1.7826258E-01;  1.2777350E+04;
  1.2987221E+00;  9.9999998E-03; -2.0097549E-01;8739;  9.7489357E-01;  0.0000000E+00;  4.4250052E-02;  9.9192731E+02;  1.4894035E-01; -6.6530430E+03;3;  6.9320229E+01;  0.0000000E+00; -4.0986317E+01;0;  6.0220070E-02;  1.7912871E+04;  0.0000000E+00;  2.6937414E-02;  4.0000000E+04;  0.0000000E+00;  3.9590098E+04; -6.9990985E-02;  0.0000000E+00;  1.3021106E-01;  1.3039146E+04;
  1.2987595E+00;  9.9999998E-03; -1.9097094E-01;8740;  9.6395415E-01;  0.0000000E+00;  4.3606177E-02;  9.9162421E+02;  1.4891644E-01; -6.9028125E+03;3;  7.2016998E+01;  0.0000000E+00; -3.9873085E+01;0;  9.0053037E-02;  1.7907672E+04;  0.0000000E+00;  4.9123991E-01;  4.0000000E+04;  0.0000000E+00;  3.9593941E+04;  9.6495077E-03;  0.0000000E+00;  8.0403529E-02;  1.3559217E+04;
  1.2989604E+00;  9.9999998E-03; -1.8095182E-01;8741;  9.5275587E-01;  0.0000000E+00;  4.2969085E-02;  9.9138721E+02;  1.4886434E-01; -7.0980615E+03;3;  7.4905647E+01;  0.0000000E+00; -3.8992359E+01;0;  1.2437764E-01;  1.7911148E+04;  0.0000000E+00;  6.4718944E-01;  4.0000000E+04;  0.0000000E+00;  3.9597039E+04;  9.3261480E-02;  0.0000000E+00;  3.1116156E-02;  1.3935152E+04;
  1.3002321E+00;  9.9999998E-03; -1.1050437E-01;8748;  8.7614149E-01;  0.0000000E+00;  3.4060713E-02;  9.9016534E+02;  1.4873330E-01; -8.1041948E+03;3;  9.4084007E+01;  0.0000000E+00; -3.0600565E+01;0;  4.8016006E-01;  1.7891635E+04;  0.0000000E+00; -2.5096408E-01;  4.0000000E+04;  0.0000000E+00;  3.9592500E+04;  6.7506093E-01;  0.0000000E+00; -1.9490089E-01;  1.3610591E+04;
  1.2992700E+00;  9.9999998E-03; -1.7090948E-01;8742;  9.4134319E-01;  0.0000000E+00;  4.2302214E-02;  9.9119824E+02;  1.4879568E-01; -7.2536011E+03;3;  7.8142258E+01;  0.0000000E+00; -3.8429417E+01;0;  1.6434529E-01;  1.7920422E+04;  0.0000000E+00;  6.1432052E-01;  4.0000000E+04;  0.0000000E+00;  3.9597746E+04;  1.8010278E-01;  0.0000000E+00; -1.5757490E-02;  1.4028874E+04;
  1.3001574E+00;  9.9999998E-03; -1.2053903E-01;8747;  8.8602632E-01;  0.0000000E+00;  3.6065105E-02;  9.9042792E+02;  1.4871360E-01; -7.8878823E+03;3;  9.2368279E+01;  0.0000000E+00; -3.2352314E+01;0;  4.2426422E-01;  1.7907746E+04;  0.0000000E+00; -1.5597738E-01;  4.0000000E+04;  0.0000000E+00;  3.9591086E+04;  6.0014206E-01;  0.0000000E+00; -1.7587784E-01;  1.3403837E+04;
  1.3000585E+00;  9.9999998E-03; -1.3058753E-01;8746;  8.9646268E-01;  0.0000000E+00;  3.7831653E-02;  9.9063501E+02;  1.4870167E-01; -7.7172607E+03;3;  8.9705879E+01;  0.0000000E+00; -3.4046803E+01;0;  3.6759260E-01;  1.7919969E+04;  0.0000000E+00; -1.8609526E-02;  4.0000000E+04;  0.0000000E+00;  3.9590914E+04;  5.2129483E-01;  0.0000000E+00; -1.5370223E-01;  1.3332240E+04;
  1.2995834E+00;  9.9999998E-03; -1.6083480E-01;8743;  9.2981875E-01;  0.0000000E+00;  4.1515935E-02;  9.9105017E+02;  1.4873445E-01; -7.3754346E+03;3;  8.0927582E+01;  0.0000000E+00; -3.8077042E+01;0;  2.0975228E-01;  1.7929576E+04;  0.0000000E+00;  4.8479766E-01;  4.0000000E+04;  0.0000000E+00;  3.9596391E+04;  2.6829192E-01;  0.0000000E+00; -5.8539644E-02;  1.3880210E+04;
  1.2999439E+00;  9.9999998E-03; -1.4065240E-01;8745;  9.0723413E-01;  0.0000000E+00;  3.9280780E-02;  9.9079742E+02;  1.4869691E-01; -7.5835332E+03;3;  8.5600327E+01;  0.0000000E+00; -3.6700180E+01;0;  3.1208369E-01;  1.7928367E+04;  0.0000000E+00;  1.4636858E-01;  4.0000000E+04;  0.0000000E+00;  3.9591914E+04;  4.3947032E-01;  0.0000000E+00; -1.2738663E-01;  1.3415596E+04;
  1.2997994E+00;  9.9999998E-03; -1.5073584E-01;8744;  9.1839439E-01;  0.0000000E+00;  4.0507887E-02;  9.9092590E+02;  1.4870380E-01; -7.4777212E+03;3;  8.3327904E+01;  0.0000000E+00; -3.7593971E+01;0;  2.5923753E-01;  1.7932107E+04;  0.0000000E+00;  3.1926584E-01;  4.0000000E+04;  0.0000000E+00;  3.9594016E+04;  3.5510656E-01;  0.0000000E+00; -9.5869042E-02;  1.3626489E+04;
  1.3145136E+00;  9.9999998E-03; -2.5120857E-01;8795;  1.0189308E+00;  0.0000000E+00;  5.6583267E-02;  9.9257361E+02;  1.4407302E-01; -6.1119097E+03;3;  6.4175194E+01;  0.0000000E+00; -5.0092583E+01;0; -1.3014728E-01;  1.9153287E+04;  0.0000000E+00; -1.8812044E+01;  4.0000000E+04;  0.0000000E+00;  3.9603422E+04; -3.7771595E-01;  0.0000000E+00;  2.4756867E-01;  3.7327828E+04;
  1.3142551E+00;  9.9999998E-03; -2.6127693E-01;8794;  1.0286276E+00;  0.0000000E+00;  4.6364177E-02;  9.9300513E+02;  1.4407517E-01; -5.7569009E+03;3;  6.5791618E+01;  0.0000000E+00; -5.6349144E+01;0; -1.4502969E-01;  1.9167254E+04;  0.0000000E+00; -2.4545595E+01;  4.0000000E+04;  0.0000000E+00;  3.9608648E+04; -4.4531217E-01;  0.0000000E+00;  3.0028248E-01;  4.7938742E+04;
  1.3145965E+00;  9.9999998E-03; -2.4114218E-01;8796;  1.0098693E+00;  0.0000000E+00;  6.0494889E-02;  9.9231042E+02;  1.4407171E-01; -6.3284834E+03;3;  6.3152271E+01;  0.0000000E+00; -4.7024315E+01;0; -6.9421336E-02;  1.9145967E+04;  0.0000000E+00; -1.2181835E+01;  4.0000000E+04;  0.0000000E+00;  3.9598984E+04; -2.9995501E-01;  0.0000000E+00;  2.3053367E-01;  2.5473602E+04;
  1.3144587E+00;  9.9999998E-03; -2.3106873E-01;8797;  1.0008740E+00;  0.0000000E+00;  6.1994232E-02;  9.9217566E+02;  1.4409192E-01; -6.4394824E+03;3;  6.3113045E+01;  0.0000000E+00; -4.5457890E+01;0; -8.5406005E-03;  1.9136486E+04;  0.0000000E+00; -6.6180139E+00;  4.0000000E+04;  0.0000000E+00;  3.9598703E+04; -2.1407863E-01;  0.0000000E+00;  2.0553803E-01;  1.7540299E+04;
  1.3141226E+00;  9.9999998E-03; -2.2099872E-01;8798;  9.9174029E-01;  0.0000000E+00;  6.2024280E-02;  9.9201392E+02;  1.4413631E-01; -6.5727856E+03;3;  6.3703403E+01;  0.0000000E+00; -4.4273098E+01;0;  4.7587760E-02;  1.9120025E+04;  0.0000000E+00; -2.8702087E+00;  4.0000000E+04;  0.0000000E+00;  3.9598387E+04; -1.2201227E-01;  0.0000000E+00;  1.6960002E-01;  1.4499992E+04;
  1.3137705E+00;  9.9999998E-03; -2.1096119E-01;8799;  9.8222202E-01;  0.0000000E+00;  6.1364200E-02;  9.9173212E+02;  1.4417987E-01; -6.8049590E+03;3;  6.5406845E+01;  0.0000000E+00; -4.3079327E+01;0;  1.0081499E-01;  1.9101062E+04;  0.0000000E+00; -7.9161584E-01;  4.0000000E+04;  0.0000000E+00;  3.9595145E+04; -2.4449548E-02;  0.0000000E+00;  1.2526454E-01;  1.3731923E+04;
  1.3135278E+00;  9.9999998E-03; -2.0095505E-01;8800;  9.7221589E-01;  0.0000000E+00;  6.0378026E-02;  9.9139691E+02;  1.4420433E-01; -7.0810288E+03;3;  6.7514229E+01;  0.0000000E+00; -4.2390190E+01;0;  1.5491959E-01;  1.9084959E+04;  0.0000000E+00;  2.5275841E-01;  4.0000000E+04;  0.0000000E+00;  3.9593062E+04;  7.8650661E-02;  0.0000000E+00;  7.6268926E-02;  1.3611813E+04;
  1.3134533E+00;  9.9999998E-03; -1.9095536E-01;8801;  9.6173584E-01;  0.0000000E+00;  5.9337541E-02;  9.9109607E+02;  1.4420134E-01; -7.3286851E+03;3;  7.0266083E+01;  0.0000000E+00; -4.2100067E+01;0;  2.1307445E-01;  1.9075264E+04;  0.0000000E+00;  7.1526968E-01;  4.0000000E+04;  0.0000000E+00;  3.9593465E+04;  1.8752974E-01;  0.0000000E+00;  2.5544699E-02;  1.3724160E+04;
  1.3135456E+00;  9.9999998E-03; -1.8094422E-01;8802;  9.5082307E-01;  0.0000000E+00;  5.8365453E-02;  9.9083624E+02;  1.4417435E-01; -7.5424683E+03;3;  7.3646004E+01;  0.0000000E+00; -4.1541805E+01;0;  2.7726412E-01;  1.9073133E+04;  0.0000000E+00;  8.2527196E-01;  4.0000000E+04;  0.0000000E+00;  3.9593961E+04;  3.0186358E-01;  0.0000000E+00; -2.4599463E-02;  1.3782554E+04;
  1.3147254E+00;  9.9999998E-03; -1.1048958E-01;8809;  8.7455648E-01;  0.0000000E+00;  4.6273194E-02;  9.8958636E+02;  1.4409938E-01; -8.5702500E+03;3;  9.2787033E+01;  0.0000000E+00; -3.2867958E+01;0;  8.3773261E-01;  1.9047297E+04;  0.0000000E+00; -3.7525600E-01;  4.0000000E+04;  0.0000000E+00;  3.9578375E+04;  1.0982082E+00;  0.0000000E+00; -2.6047558E-01;  1.2201921E+04;
  1.3137282E+00;  9.9999998E-03; -1.7090997E-01;8803;  9.3955624E-01;  0.0000000E+00;  5.7341069E-02;  9.9062262E+02;  1.4413799E-01; -7.7181597E+03;3;  7.7626930E+01;  0.0000000E+00; -4.0555969E+01;0;  3.4767330E-01;  1.9075223E+04;  0.0000000E+00;  7.1478838E-01;  4.0000000E+04;  0.0000000E+00;  3.9592723E+04;  4.1987118E-01;  0.0000000E+00; -7.2197892E-02;  1.3636327E+04;
  1.3145775E+00;  9.9999998E-03; -1.2053455E-01;8808;  8.8439500E-01;  0.0000000E+00;  4.8936225E-02;  9.8980859E+02;  1.4409333E-01; -8.3874521E+03;3;  9.1492058E+01;  0.0000000E+00; -3.4860043E+01;0;  7.5518280E-01;  1.9058584E+04;  0.0000000E+00; -3.0500543E-01;  4.0000000E+04;  0.0000000E+00;  3.9578312E+04;  9.9454004E-01;  0.0000000E+00; -2.3935725E-01;  1.2141998E+04;
  1.3144035E+00;  9.9999998E-03; -1.3059048E-01;8807;  8.9478344E-01;  0.0000000E+00;  5.1219895E-02;  9.8999866E+02;  1.4409302E-01; -8.2312070E+03;3;  8.8731377E+01;  0.0000000E+00; -3.7171890E+01;0;  6.7014819E-01;  1.9066119E+04;  0.0000000E+00; -1.7185575E-01;  4.0000000E+04;  0.0000000E+00;  3.9579590E+04;  8.8537019E-01;  0.0000000E+00; -2.1522202E-01;  1.2236646E+04;
  1.3139100E+00;  9.9999998E-03; -1.6084406E-01;8804;  9.2807651E-01;  0.0000000E+00;  5.6116663E-02;  9.9044354E+02;  1.4411229E-01; -7.8654404E+03;3;  8.1054520E+01;  0.0000000E+00; -4.0329964E+01;0;  4.2308015E-01;  1.9076215E+04;  0.0000000E+00;  4.9197885E-01;  4.0000000E+04;  0.0000000E+00;  3.9589855E+04;  5.3877240E-01;  0.0000000E+00; -1.1569227E-01;  1.3296217E+04;
  1.3142234E+00;  9.9999998E-03; -1.4066628E-01;8806;  9.0548754E-01;  0.0000000E+00;  5.3076111E-02;  9.9014868E+02;  1.4409788E-01; -8.1078789E+03;3;  8.4937805E+01;  0.0000000E+00; -3.9573921E+01;0;  5.8504760E-01;  1.9070803E+04;  0.0000000E+00;  1.6012520E-02;  4.0000000E+04;  0.0000000E+00;  3.9582199E+04;  7.7214450E-01;  0.0000000E+00; -1.8709686E-01;  1.2492211E+04;
  1.3140621E+00;  9.9999998E-03; -1.5075673E-01;8805;  9.1663784E-01;  0.0000000E+00;  5.4695036E-02;  9.9029242E+02;  1.4410260E-01; -7.9896821E+03;3;  8.3215126E+01;  0.0000000E+00; -4.0212578E+01;0;  5.0230467E-01;  1.9074096E+04;  0.0000000E+00;  2.4340896E-01;  4.0000000E+04;  0.0000000E+00;  3.9585816E+04;  6.5636963E-01;  0.0000000E+00; -1.5406494E-01;  1.2872921E+04;
  1.3287474E+00;  9.9999998E-03; -1.1048898E-01;8870;  8.7348902E-01;  0.0000000E+00;  5.7705138E-02;  9.8941681E+02;  1.3992430E-01; -8.6963604E+03;3;  8.8737450E+01;  0.0000000E+00; -3.3183071E+01;0;  1.2574533E+00;  2.0204016E+04;  0.0000000E+00; -4.3059453E-01;  4.0000000E+04;  0.0000000E+00;  3.9561980E+04;  1.5710514E+00;  0.0000000E+00; -3.1359801E-01;  1.0815299E+04;
  1.3285583E+00;  9.9999998E-03; -1.2054392E-01;8869;  8.8302886E-01;  0.0000000E+00;  6.1024513E-02;  9.8958447E+02;  1.3992326E-01; -8.5588311E+03;3;  8.9077744E+01;  0.0000000E+00; -3.6094463E+01;0;  1.1500313E+00;  2.0210818E+04;  0.0000000E+00; -4.1162804E-01;  4.0000000E+04;  0.0000000E+00;  3.9563184E+04;  1.4414800E+00;  0.0000000E+00; -2.9144865E-01;  1.0910054E+04;
  1.3283508E+00;  9.9999998E-03; -1.3060878E-01;8868;  8.9317405E-01;  0.0000000E+00;  6.3825384E-02;  9.8974274E+02;  1.3992754E-01; -8.4289531E+03;3;  8.7354767E+01;  0.0000000E+00; -3.8858082E+01;0;  1.0380602E+00;  2.0214977E+04;  0.0000000E+00; -3.1837595E-01;  4.0000000E+04;  0.0000000E+00;  3.9565828E+04;  1.3044389E+00;  0.0000000E+00; -2.6637882E-01;  1.1157138E+04;
  1.3284532E+00;  9.9999998E-03; -2.5125942E-01;8856;  1.0110973E+00;  0.0000000E+00;  7.2110683E-02;  9.9151862E+02;  1.3989612E-01; -6.9695430E+03;3;  6.2898418E+01;  0.0000000E+00; -4.8641754E+01;0; -1.3711825E-01;  2.0273756E+04;  0.0000000E+00; -1.9608786E+01;  4.0000000E+04;  0.0000000E+00;  3.9608500E+04; -3.1668270E-01;  0.0000000E+00;  1.7956445E-01;  3.4288938E+04;
  1.3287678E+00;  9.9999998E-03; -2.4119399E-01;8857;  1.0035584E+00;  0.0000000E+00;  7.5815462E-02;  9.9133240E+02;  1.3986284E-01; -7.1222847E+03;3;  6.1142086E+01;  0.0000000E+00; -4.6690025E+01;0; -4.9203262E-02;  2.0278918E+04;  0.0000000E+00; -1.3214571E+01;  4.0000000E+04;  0.0000000E+00;  3.9601773E+04; -2.1445458E-01;  0.0000000E+00;  1.6525131E-01;  2.4279516E+04;
  1.3281420E+00;  9.9999998E-03; -1.4069267E-01;8867;  9.0382391E-01;  0.0000000E+00;  6.6172749E-02;  9.8989069E+02;  1.3993433E-01; -8.3075928E+03;3;  8.5321121E+01;  0.0000000E+00; -4.0633335E+01;0;  9.2389959E-01;  2.0217559E+04;  0.0000000E+00; -1.4922309E-01;  4.0000000E+04;  0.0000000E+00;  3.9569629E+04;  1.1613318E+00;  0.0000000E+00; -2.3743220E-01;  1.1544965E+04;
  1.3279637E+00;  9.9999998E-03; -2.6132870E-01;8855;  1.0192343E+00;  0.0000000E+00;  6.3243710E-02;  9.9204211E+02;  1.3992566E-01; -6.5397378E+03;3;  6.5096474E+01;  0.0000000E+00; -5.3996025E+01;0; -1.8513900E-01;  2.0284309E+04;  0.0000000E+00; -2.3990156E+01;  4.0000000E+04;  0.0000000E+00;  3.9613328E+04; -4.0601903E-01;  0.0000000E+00;  2.2088003E-01;  4.1041465E+04;
  1.3287833E+00;  9.9999998E-03; -2.3112614E-01;8858;  9.9596989E-01;  0.0000000E+00;  7.7210270E-02;  9.9140613E+02;  1.3985409E-01; -7.0616855E+03;3;  6.0742828E+01;  0.0000000E+00; -4.5235847E+01;0;  4.1017607E-02;  2.0285482E+04;  0.0000000E+00; -7.1140432E+00;  4.0000000E+04;  0.0000000E+00;  3.9597875E+04; -1.0245200E-01;  0.0000000E+00;  1.4346960E-01;  1.6770303E+04;
  1.3285357E+00;  9.9999998E-03; -2.2105205E-01;8859;  9.8805267E-01;  0.0000000E+00;  7.7110089E-02;  9.9151074E+02;  1.3987382E-01; -6.9759380E+03;3;  6.1547180E+01;  0.0000000E+00; -4.4244781E+01;0;  1.2813619E-01;  2.0283914E+04;  0.0000000E+00; -2.8914447E+00;  4.0000000E+04;  0.0000000E+00;  3.9596355E+04;  1.7285051E-02;  0.0000000E+00;  1.1085114E-01;  1.4338761E+04;
  1.3281753E+00;  9.9999998E-03; -2.1099494E-01;8860;  9.7949219E-01;  0.0000000E+00;  7.6250486E-02;  9.9145544E+02;  1.3991061E-01; -7.0216968E+03;3;  6.3287270E+01;  0.0000000E+00; -4.3015408E+01;0;  2.1313056E-01;  2.0273092E+04;  0.0000000E+00; -6.2689167E-01;  4.0000000E+04;  0.0000000E+00;  3.9593000E+04;  1.4376473E-01;  0.0000000E+00;  6.9365822E-02;  1.3939849E+04;
  1.3278680E+00;  9.9999998E-03; -2.0096976E-01;8861;  9.7010428E-01;  0.0000000E+00;  7.4973434E-02;  9.9125195E+02;  1.3994184E-01; -7.1891851E+03;3;  6.6480888E+01;  0.0000000E+00; -4.2247372E+01;0;  2.9973093E-01;  2.0258637E+04;  0.0000000E+00;  3.8624546E-01;  4.0000000E+04;  0.0000000E+00;  3.9589102E+04;  2.7709883E-01;  0.0000000E+00;  2.2632098E-02;  1.3663528E+04;
  1.3276864E+00;  9.9999998E-03; -1.9096141E-01;8862;  9.5985949E-01;  0.0000000E+00;  7.3622674E-02;  9.9098877E+02;  1.3995828E-01; -7.4056074E+03;3;  7.0514870E+01;  0.0000000E+00; -4.2553703E+01;0;  3.9080468E-01;  2.0245396E+04;  0.0000000E+00;  7.6943493E-01;  4.0000000E+04;  0.0000000E+00;  3.9587043E+04;  4.1719460E-01;  0.0000000E+00; -2.6389936E-02;  1.3449930E+04;
  1.3279556E+00;  9.9999998E-03; -1.5078728E-01;8866;  9.1493446E-01;  0.0000000E+00;  6.8174265E-02;  9.9005634E+02;  1.3994078E-01; -8.1716558E+03;3;  8.4097801E+01;  0.0000000E+00; -4.1347214E+01;0;  8.1013656E-01;  2.0219988E+04;  0.0000000E+00;  8.9312501E-02;  4.0000000E+04;  0.0000000E+00;  3.9574551E+04;  1.0138927E+00;  0.0000000E+00; -2.0375606E-01;  1.2028901E+04;
  1.3276386E+00;  9.9999998E-03; -1.8095067E-01;8863;  9.4898206E-01;  0.0000000E+00;  7.2414421E-02;  9.9072534E+02;  1.3995989E-01; -7.6221621E+03;3;  7.4115524E+01;  0.0000000E+00; -4.3680527E+01;0;  4.8786724E-01;  2.0235457E+04;  0.0000000E+00;  8.1278014E-01;  4.0000000E+04;  0.0000000E+00;  3.9585625E+04;  5.6310362E-01;  0.0000000E+00; -7.5236388E-02;  1.3254479E+04;
  1.3278066E+00;  9.9999998E-03; -1.6086794E-01;8865;  9.2637849E-01;  0.0000000E+00;  6.9875471E-02;  9.9025073E+02;  1.3994676E-01; -8.0120659E+03;3;  8.2312630E+01;  0.0000000E+00; -4.1902832E+01;0;  6.9876981E-01;  2.0223758E+04;  0.0000000E+00;  3.7461486E-01;  4.0000000E+04;  0.0000000E+00;  3.9579305E+04;  8.6389351E-01;  0.0000000E+00; -1.6512369E-01;  1.2531663E+04;
  1.3276975E+00;  9.9999998E-03; -1.7092246E-01;8864;  9.3779725E-01;  0.0000000E+00;  7.1290918E-02;  9.9047546E+02;  1.3995202E-01; -7.8274512E+03;3;  7.7434471E+01;  0.0000000E+00; -4.3197247E+01;0;  5.9097612E-01;  2.0228979E+04;  0.0000000E+00;  6.4697909E-01;  4.0000000E+04;  0.0000000E+00;  3.9583281E+04;  7.1295071E-01;  0.0000000E+00; -1.2197462E-01;  1.2959812E+04;
  1.3910946E+00;  9.9999998E-03; -2.7186751E-01;9149;  9.7602588E-01;  0.0000000E+00;  9.7196989E-02;  9.8954950E+02;  1.2505415E-01; -8.4824014E+03;3;  6.1191921E+01;  0.0000000E+00; -3.0529949E+01;0; -2.2195277E-01;  2.5345684E+04;  0.0000000E+00; -2.5744028E+00;  4.0000000E+04;  0.0000000E+00;  3.9524852E+04;  4.9209811E-02;  0.0000000E+00; -2.7116257E-01;  1.4183771E+04;
  1.3789918E+00;  9.9999998E-03; -2.7174109E-01;9091;  9.8609877E-01;  0.0000000E+00;  9.3708850E-02;  9.8967737E+02;  1.2736651E-01; -8.4064375E+03;3;  6.3494396E+01;  0.0000000E+00; -4.0964622E+01;0; -2.5484258E-01;  2.4413678E+04;  0.0000000E+00; -7.8118577E+00;  4.0000000E+04;  0.0000000E+00;  3.9564125E+04; -9.6297316E-02;  0.0000000E+00; -1.5854527E-01;  1.5301609E+04;
  1.3666154E+00;  9.9999998E-03; -2.7163383E-01;9032;  9.9637407E-01;  0.0000000E+00;  8.6153232E-02;  9.9014954E+02;  1.2998104E-01; -8.0447769E+03;3;  6.5491119E+01;  0.0000000E+00; -4.9204384E+01;0; -2.4958314E-01;  2.3445887E+04;  0.0000000E+00; -1.3244665E+01;  4.0000000E+04;  0.0000000E+00;  3.9589430E+04; -2.3012255E-01;  0.0000000E+00; -1.9460587E-02;  1.8749529E+04;
  1.3539222E+00;  9.9999998E-03; -2.7154505E-01;8973;  1.0069625E+00;  0.0000000E+00;  7.5877272E-02;  9.9087689E+02;  1.3292783E-01; -7.4689536E+03;3;  6.6580788E+01;  0.0000000E+00; -5.4984554E+01;0; -2.2577420E-01;  2.2440432E+04;  0.0000000E+00; -1.8143221E+01;  4.0000000E+04;  0.0000000E+00;  3.9601535E+04; -3.4236333E-01;  0.0000000E+00;  1.1658914E-01;  2.4973260E+04;
  1.3409246E+00;  9.9999998E-03; -2.7147007E-01;8914;  1.0176483E+00;  0.0000000E+00;  6.2841214E-02;  9.9170538E+02;  1.3623226E-01; -6.8048232E+03;3;  6.7165512E+01;  0.0000000E+00; -5.7832970E+01;0; -1.8324237E-01;  2.1394248E+04;  0.0000000E+00; -2.2473211E+01;  4.0000000E+04;  0.0000000E+00;  3.9607105E+04; -4.2647889E-01;  0.0000000E+00;  2.4323653E-01;  3.3553266E+04;
  1.3412670E+00;  9.9999998E-03; -1.8097842E-01;8923;  9.4670200E-01;  0.0000000E+00;  8.5029215E-02;  9.9096246E+02;  1.3620387E-01; -7.4139302E+03;3;  7.6798233E+01;  0.0000000E+00; -4.3877548E+01;0;  7.4131286E-01;  2.1381219E+04;  0.0000000E+00;  6.8863571E-01;  4.0000000E+04;  0.0000000E+00;  3.9572523E+04;  8.6231232E-01;  0.0000000E+00; -1.2099947E-01;  1.2433346E+04;
  1.3412836E+00;  9.9999998E-03; -1.7095569E-01;8924;  9.3553537E-01;  0.0000000E+00;  8.3802707E-02;  9.9069476E+02;  1.3620712E-01; -7.6335054E+03;3;  7.8604340E+01;  0.0000000E+00; -4.3547558E+01;0;  8.7790769E-01;  2.1370848E+04;  0.0000000E+00;  4.6539313E-01;  4.0000000E+04;  0.0000000E+00;  3.9569512E+04;  1.0431652E+00;  0.0000000E+00; -1.6525753E-01;  1.2071873E+04;
  1.3413833E+00;  9.9999998E-03; -1.6091247E-01;8925;  9.2436630E-01;  0.0000000E+00;  8.2271405E-02;  9.9043610E+02;  1.3620472E-01; -7.8456016E+03;3;  8.0754646E+01;  0.0000000E+00; -4.0878635E+01;0;  1.0178022E+00;  2.1363314E+04;  0.0000000E+00;  1.7692052E-01;  4.0000000E+04;  0.0000000E+00;  3.9565637E+04;  1.2245871E+00;  0.0000000E+00; -2.0678486E-01;  1.1649524E+04;
  1.3415411E+00;  9.9999998E-03; -1.5084007E-01;8926;  9.1335189E-01;  0.0000000E+00;  8.0225930E-02;  9.9019507E+02;  1.3619706E-01; -8.0431011E+03;3;  8.0203545E+01;  0.0000000E+00; -3.8188553E+01;0;  1.1592033E+00;  2.1358777E+04;  0.0000000E+00; -1.0295286E-01;  4.0000000E+04;  0.0000000E+00;  3.9560496E+04;  1.4037060E+00;  0.0000000E+00; -2.4450263E-01;  1.1157599E+04;
  1.3413658E+00;  9.9999998E-03; -1.9099434E-01;8922;  9.5781958E-01;  0.0000000E+00;  8.6176686E-02;  9.9121228E+02;  1.3618986E-01; -7.2088516E+03;3;  7.4690643E+01;  0.0000000E+00; -4.2840851E+01;0;  6.0961884E-01;  2.1394168E+04;  0.0000000E+00;  7.9214853E-01;  4.0000000E+04;  0.0000000E+00;  3.9575074E+04;  6.8508428E-01;  0.0000000E+00; -7.5465418E-02;  1.2825749E+04;
  1.3417386E+00;  9.9999998E-03; -1.4074960E-01;8927;  9.0291047E-01;  0.0000000E+00;  7.7618398E-02;  9.9000342E+02;  1.3618959E-01; -8.2001084E+03;3;  7.4868553E+01;  0.0000000E+00; -3.5107605E+01;0;  1.3001354E+00;  2.1356465E+04;  0.0000000E+00; -3.1202874E-01;  4.0000000E+04;  0.0000000E+00;  3.9555184E+04;  1.5778848E+00;  0.0000000E+00; -2.7774939E-01;  1.0646153E+04;
  1.3419557E+00;  9.9999998E-03; -1.3066162E-01;8928;  8.9365649E-01;  0.0000000E+00;  7.4431255E-02;  9.8984467E+02;  1.3618147E-01; -8.3300459E+03;3;  5.9061985E+01;  0.0000000E+00; -3.0263287E+01;0;  1.4382594E+00;  2.1355029E+04;  0.0000000E+00; -4.3141225E-01;  4.0000000E+04;  0.0000000E+00;  3.9550270E+04;  1.7447999E+00;  0.0000000E+00; -3.0654055E-01;  1.0179903E+04;
  1.3415934E+00;  9.9999998E-03; -2.0101433E-01;8921;  9.6810353E-01;  0.0000000E+00;  8.7355293E-02;  9.9138385E+02;  1.3616481E-01; -7.0678940E+03;3;  6.7321747E+01;  0.0000000E+00; -4.2351269E+01;0;  4.8343608E-01;  2.1407158E+04;  0.0000000E+00;  6.7616856E-01;  4.0000000E+04;  0.0000000E+00;  3.9578555E+04;  5.1406437E-01;  0.0000000E+00; -3.0628305E-02;  1.3374384E+04;
  1.3412611E+00;  9.9999998E-03; -2.6139709E-01;8915;  1.0101044E+00;  0.0000000E+00;  7.7698573E-02;  9.9116364E+02;  1.3623737E-01; -7.2489102E+03;3;  6.3902294E+01;  0.0000000E+00; -5.1269627E+01;0; -2.1263418E-01;  2.1365752E+04;  0.0000000E+00; -2.0636854E+01;  4.0000000E+04;  0.0000000E+00;  3.9608605E+04; -3.3361635E-01;  0.0000000E+00;  1.2098218E-01;  3.1088732E+04;
  1.3421777E+00;  9.9999998E-03; -1.2058591E-01;8929;  8.8651556E-01;  0.0000000E+00;  7.0542753E-02;  9.8972333E+02;  1.3617720E-01; -8.4293115E+03;3;  2.7185349E+01;  0.0000000E+00; -2.3892960E+01;0;  1.5712616E+00;  2.1353521E+04;  0.0000000E+00; -4.6473953E-01;  4.0000000E+04;  0.0000000E+00;  3.9546723E+04;  1.9028261E+00;  0.0000000E+00; -3.3156449E-01;  9.8101709E+03;
  1.3423921E+00;  9.9999998E-03; -1.1051326E-01;8930;  8.8236880E-01;  0.0000000E+00;  6.5959252E-02;  9.8961255E+02;  1.3617383E-01; -8.5199277E+03;3; -7.8479481E+00;  0.0000000E+00; -1.8351677E+01;0;  1.6971622E+00;  2.1351295E+04;  0.0000000E+00; -4.2297375E-01;  4.0000000E+04;  0.0000000E+00;  3.9544379E+04;  2.0508707E+00;  0.0000000E+00; -3.5370848E-01;  9.5671807E+03;
  1.3419187E+00;  9.9999998E-03; -2.1105643E-01;8920;  9.7712320E-01;  0.0000000E+00;  8.8586390E-02;  9.9140015E+02;  1.3613416E-01; -7.0542095E+03;3;  6.2392082E+01;  0.0000000E+00; -4.1091835E+01;0;  3.6147130E-01;  2.1415924E+04;  0.0000000E+00; -1.2096677E-02;  4.0000000E+04;  0.0000000E+00;  3.9582926E+04;  3.5052848E-01;  0.0000000E+00;  1.0942807E-02;  1.3887496E+04;
  1.3417923E+00;  9.9999998E-03; -2.5132474E-01;8916;  1.0035840E+00;  0.0000000E+00;  8.5116081E-02;  9.9066571E+02;  1.3619898E-01; -7.6567476E+03;3;  6.1240364E+01;  0.0000000E+00; -4.6484734E+01;0; -1.2777662E-01;  2.1358375E+04;  0.0000000E+00; -1.7097185E+01;  4.0000000E+04;  0.0000000E+00;  3.9605645E+04; -2.2112451E-01;  0.0000000E+00;  9.3347885E-02;  2.6460004E+04;
  1.3422325E+00;  9.9999998E-03; -2.2112180E-01;8919;  9.8490286E-01;  0.0000000E+00;  8.9659892E-02;  9.9118750E+02;  1.3611026E-01; -7.2282725E+03;3;  6.0230156E+01;  0.0000000E+00; -4.1320961E+01;0;  2.4025448E-01;  2.1413869E+04;  0.0000000E+00; -2.0229895E+00;  4.0000000E+04;  0.0000000E+00;  3.9586641E+04;  1.9460480E-01;  0.0000000E+00;  4.5649681E-02;  1.3940459E+04;
  1.3422297E+00;  9.9999998E-03; -2.4125428E-01;8917;  9.9765760E-01;  0.0000000E+00;  8.8580057E-02;  9.9057721E+02;  1.3614412E-01; -7.7288555E+03;3;  5.9318623E+01;  0.0000000E+00; -4.4259842E+01;0; -7.8418404E-03;  2.1374867E+04;  0.0000000E+00; -1.1742551E+01;  4.0000000E+04;  0.0000000E+00;  3.9599703E+04; -9.2954710E-02;  0.0000000E+00;  8.5112870E-02;  1.9764916E+04;
  1.3423865E+00;  9.9999998E-03; -2.3118924E-01;8918;  9.9157703E-01;  0.0000000E+00;  8.9905933E-02;  9.9082208E+02;  1.3610905E-01; -7.5278423E+03;3;  5.8422543E+01;  0.0000000E+00; -4.2775131E+01;0;  1.1703832E-01;  2.1398545E+04;  0.0000000E+00; -6.1067257E+00;  4.0000000E+04;  0.0000000E+00;  3.9591844E+04;  4.6580601E-02;  0.0000000E+00;  7.0457719E-02;  1.4923123E+04;
  1.3542589E+00;  9.9999998E-03; -2.6147088E-01;8974;  1.0010779E+00;  0.0000000E+00;  8.8598140E-02;  9.9036737E+02;  1.3293269E-01; -7.8856582E+03;3;  6.2731609E+01;  0.0000000E+00; -4.6786228E+01;0; -2.1385355E-01;  2.2411020E+04;  0.0000000E+00; -1.6078087E+01;  4.0000000E+04;  0.0000000E+00;  3.9604281E+04; -2.2822158E-01;  0.0000000E+00;  1.4368031E-02;  2.2370666E+04;
  1.3545524E+00;  9.9999998E-03; -1.7102090E-01;8983;  9.3492121E-01;  0.0000000E+00;  9.3033098E-02;  9.9119879E+02;  1.3286620E-01; -7.2046479E+03;3;  5.4185558E+01;  0.0000000E+00; -2.6696112E+01;0;  1.1848009E+00;  2.2490039E+04;  0.0000000E+00;  2.7480692E-01;  4.0000000E+04;  0.0000000E+00;  3.9551098E+04;  1.3865812E+00;  0.0000000E+00; -2.0178036E-01;  1.0975982E+04;
  1.3545554E+00;  9.9999998E-03; -1.8103516E-01;8982;  9.4461817E-01;  0.0000000E+00;  9.5069997E-02;  9.9145459E+02;  1.3285793E-01; -6.9952285E+03;3;  6.8120972E+01;  0.0000000E+00; -3.3124310E+01;0;  1.0186509E+00;  2.2501908E+04;  0.0000000E+00;  6.1082745E-01;  4.0000000E+04;  0.0000000E+00;  3.9553930E+04;  1.1807116E+00;  0.0000000E+00; -1.6206072E-01;  1.1361413E+04;
  1.3546454E+00;  9.9999998E-03; -1.6099000E-01;8984;  9.2723501E-01;  0.0000000E+00;  9.0123415E-02;  9.9092865E+02;  1.3286501E-01; -7.4256519E+03;3;  2.3423143E+01;  0.0000000E+00; -1.6885851E+01;0;  1.3508735E+00;  2.2481016E+04;  0.0000000E+00; -2.6918516E-02;  4.0000000E+04;  0.0000000E+00;  3.9547797E+04;  1.5909145E+00;  0.0000000E+00; -2.4004100E-01;  1.0640666E+04;
  1.3546735E+00;  9.9999998E-03; -1.9104806E-01;8981;  9.5491701E-01;  0.0000000E+00;  9.6453823E-02;  9.9163220E+02;  1.3283955E-01; -6.8496846E+03;3;  7.1420898E+01;  0.0000000E+00; -3.7240772E+01;0;  8.5452187E-01;  2.2514244E+04;  0.0000000E+00;  1.0067799E+00;  4.0000000E+04;  0.0000000E+00;  3.9557086E+04;  9.7693717E-01;  0.0000000E+00; -1.2241533E-01;  1.2040061E+04;
  1.3548063E+00;  9.9999998E-03; -1.5093100E-01;8985;  9.2322129E-01;  0.0000000E+00;  8.6228833E-02;  9.9066333E+02;  1.3285728E-01; -7.6426040E+03;3; -1.3478958E+01;  0.0000000E+00; -1.1590688E+01;0;  1.5146513E+00;  2.2475555E+04;  0.0000000E+00; -2.7937359E-01;  4.0000000E+04;  0.0000000E+00;  3.9543285E+04;  1.7901783E+00;  0.0000000E+00; -2.7552694E-01;  1.0245031E+04;
  1.3547814E+00;  9.9999998E-03; -2.5139356E-01;8975;  9.9629021E-01;  0.0000000E+00;  9.5135696E-02;  9.8993597E+02;  1.3289900E-01; -8.2380244E+03;3;  5.9363190E+01;  0.0000000E+00; -4.2048515E+01;0; -9.7536169E-02;  2.2403809E+04;  0.0000000E+00; -1.2749885E+01;  4.0000000E+04;  0.0000000E+00;  3.9603484E+04; -9.1740087E-02;  0.0000000E+00; -5.7960805E-03;  1.9356881E+04;
  1.3549007E+00;  9.9999998E-03; -2.0107070E-01;8980;  9.6504718E-01;  0.0000000E+00;  9.7280338E-02;  9.9166846E+02;  1.3281529E-01; -6.8197451E+03;3;  7.0700897E+01;  0.0000000E+00; -3.9201874E+01;0;  6.9392639E-01;  2.2521957E+04;  0.0000000E+00;  1.4006233E+00;  4.0000000E+04;  0.0000000E+00;  3.9561898E+04;  7.7840221E-01;  0.0000000E+00; -8.4475830E-02;  1.3265319E+04;
  1.3550081E+00;  9.9999998E-03; -1.4084838E-01;8986;  9.2287397E-01;  0.0000000E+00;  8.1798136E-02;  9.9044684E+02;  1.3284755E-01; -7.8195288E+03;3; -3.8721134E+01;  0.0000000E+00; -1.1597750E+01;0;  1.6740866E+00;  2.2473170E+04;  0.0000000E+00; -4.4044158E-01;  4.0000000E+04;  0.0000000E+00;  3.9538484E+04;  1.9813465E+00;  0.0000000E+00; -3.0725986E-01;  9.7851797E+03;
  1.3552370E+00;  9.9999998E-03; -1.3075438E-01;8987;  9.2490858E-01;  0.0000000E+00;  7.7196576E-02;  9.9028333E+02;  1.3283683E-01; -7.9530786E+03;3; -5.3233696E+01;  0.0000000E+00; -1.0756834E+01;0;  1.8273439E+00;  2.2473330E+04;  0.0000000E+00; -4.9535879E-01;  4.0000000E+04;  0.0000000E+00;  3.9533375E+04;  2.1623130E+00;  0.0000000E+00; -3.3496901E-01;  9.3067764E+03;
  1.3551822E+00;  9.9999998E-03; -2.1111582E-01;8979;  9.7457707E-01;  0.0000000E+00;  9.8093532E-02;  9.9147119E+02;  1.3279276E-01; -6.9808872E+03;3;  6.7073799E+01;  0.0000000E+00; -3.6304279E+01;0;  5.3643882E-01;  2.2518785E+04;  0.0000000E+00;  1.3789767E+00;  4.0000000E+04;  0.0000000E+00;  3.9568605E+04;  5.8705729E-01;  0.0000000E+00; -5.0618447E-02;  1.4741866E+04;
  1.3552376E+00;  9.9999998E-03; -2.4131493E-01;8976;  9.9203598E-01;  0.0000000E+00;  9.8142706E-02;  9.8999335E+02;  1.3284628E-01; -8.1904233E+03;3;  5.7744324E+01;  0.0000000E+00; -3.9840458E+01;0;  5.6625329E-02;  2.2426998E+04;  0.0000000E+00; -8.0657997E+00;  4.0000000E+04;  0.0000000E+00;  3.9597902E+04;  6.2018488E-02;  0.0000000E+00; -5.3931572E-03;  1.6357481E+04;
  1.3554214E+00;  9.9999998E-03; -2.2117800E-01;8978;  9.8195010E-01;  0.0000000E+00;  9.9127457E-02;  9.9100433E+02;  1.3278326E-01; -7.3626694E+03;3;  5.9391136E+01;  0.0000000E+00; -3.6152161E+01;0;  3.7824076E-01;  2.2499678E+04;  0.0000000E+00;  4.9763940E-02;  4.0000000E+04;  0.0000000E+00;  3.9576508E+04;  4.0373605E-01;  0.0000000E+00; -2.5495294E-02;  1.5476991E+04;
  1.3554766E+00;  9.9999998E-03; -1.2065860E-01;8988;  9.2821264E-01;  0.0000000E+00;  7.2300576E-02;  9.9018127E+02;  1.3282749E-01; -8.0362563E+03;3; -6.3074059E+01;  0.0000000E+00; -9.7445679E+00;0;  1.9724869E+00;  2.2474986E+04;  0.0000000E+00; -4.6471313E-01;  4.0000000E+04;  0.0000000E+00;  3.9528961E+04;  2.3315303E+00;  0.0000000E+00; -3.5904348E-01;  8.8646260E+03;
  1.3554778E+00;  9.9999998E-03; -2.3124290E-01;8977;  9.8747343E-01;  0.0000000E+00;  9.9370681E-02;  9.9041943E+02;  1.3279918E-01; -7.8413140E+03;3;  5.6715881E+01;  0.0000000E+00; -3.7968887E+01;0;  2.1771371E-01;  2.2465617E+04;  0.0000000E+00; -3.3316083E+00;  4.0000000E+04;  0.0000000E+00;  3.9587344E+04;  2.2848034E-01;  0.0000000E+00; -1.0766631E-02;  1.5356720E+04;
  1.3556973E+00;  9.9999998E-03; -1.1057422E-01;8989;  9.3186623E-01;  0.0000000E+00;  6.7158990E-02;  9.9011688E+02;  1.3282250E-01; -8.0886235E+03;3; -7.0327026E+01;  0.0000000E+00; -8.1797552E+00;0;  2.1073048E+00;  2.2476574E+04;  0.0000000E+00; -3.6965120E-01;  4.0000000E+04;  0.0000000E+00;  3.9525488E+04;  2.4874601E+00;  0.0000000E+00; -3.8015532E-01;  8.5083408E+03;
  1.3675426E+00;  9.9999998E-03; -1.7109363E-01;9042;  9.5696533E-01;  0.0000000E+00;  9.1942690E-02;  9.9189850E+02;  1.2989573E-01; -6.6151504E+03;3; -3.6962761E+01;  0.0000000E+00; -6.9690070E+00;0;  1.4856943E+00;  2.3576098E+04;  0.0000000E+00;  2.2703981E-01;  4.0000000E+04;  0.0000000E+00;  3.9527566E+04;  1.7161940E+00;  0.0000000E+00; -2.3049973E-01;  9.6740352E+03;
  1.3676306E+00;  9.9999998E-03; -1.6107821E-01;9043;  9.6146935E-01;  0.0000000E+00;  8.8271089E-02;  9.9164697E+02;  1.2989525E-01; -6.8204058E+03;3; -5.1567822E+01;  0.0000000E+00; -8.1047945E+00;0;  1.6672225E+00;  2.3566961E+04;  0.0000000E+00; -1.4627977E-01;  4.0000000E+04;  0.0000000E+00;  3.9525289E+04;  1.9317603E+00;  0.0000000E+00; -2.6453775E-01;  9.4382764E+03;
  1.3669713E+00;  9.9999998E-03; -2.6155737E-01;9033;  9.9228179E-01;  0.0000000E+00;  9.6416764E-02;  9.8963782E+02;  1.2998115E-01; -8.4620967E+03;3;  6.0807362E+01;  0.0000000E+00; -4.0654095E+01;0; -1.9310856E-01;  2.3414666E+04;  0.0000000E+00; -1.1158524E+01;  4.0000000E+04;  0.0000000E+00;  3.9594707E+04; -9.3207009E-02;  0.0000000E+00; -9.9901550E-02;  1.7445480E+04;
  1.3675483E+00;  9.9999998E-03; -1.8109635E-01;9041;  9.5481092E-01;  0.0000000E+00;  9.5850468E-02;  9.9208630E+02;  1.2988737E-01; -6.4617861E+03;3; -8.7230577E+00;  0.0000000E+00; -5.3182406E+00;0;  1.2996689E+00;  2.3586459E+04;  0.0000000E+00;  8.1451613E-01;  4.0000000E+04;  0.0000000E+00;  3.9529922E+04;  1.4957916E+00;  0.0000000E+00; -1.9612265E-01;  1.0210821E+04;
  1.3677889E+00;  9.9999998E-03; -1.5103604E-01;9044;  9.6654463E-01;  0.0000000E+00;  8.4391713E-02;  9.9138867E+02;  1.2988791E-01; -7.0310464E+03;3; -6.0995502E+01;  0.0000000E+00; -7.1215501E+00;0;  1.8428420E+00;  2.3561002E+04;  0.0000000E+00; -3.8636118E-01;  4.0000000E+04;  0.0000000E+00;  3.9522230E+04;  2.1394284E+00;  0.0000000E+00; -2.9658636E-01;  9.2024072E+03;
  1.3676641E+00;  9.9999998E-03; -1.9110033E-01;9040;  9.5732778E-01;  0.0000000E+00;  9.9498726E-02;  9.9215906E+02;  1.2986854E-01; -6.4022026E+03;3;  2.6544607E+01;  0.0000000E+00; -8.4267101E+00;0;  1.1105289E+00;  2.3593977E+04;  0.0000000E+00;  1.7321795E+00;  4.0000000E+04;  0.0000000E+00;  3.9534203E+04;  1.2742306E+00;  0.0000000E+00; -1.6370165E-01;  1.1606122E+04;
  1.3679950E+00;  9.9999998E-03; -1.4096048E-01;9045;  9.7191226E-01;  0.0000000E+00;  8.0108449E-02;  9.9116351E+02;  1.2987624E-01; -7.2145903E+03;3; -6.8392044E+01;  0.0000000E+00; -5.2650003E+00;0;  2.0107849E+00;  2.3558611E+04;  0.0000000E+00; -5.0579470E-01;  4.0000000E+04;  0.0000000E+00;  3.9518246E+04;  2.3364608E+00;  0.0000000E+00; -3.2567602E-01;  8.8725059E+03;
  1.3675228E+00;  9.9999998E-03; -2.5147536E-01;9034;  9.8928446E-01;  0.0000000E+00;  1.0185360E-01;  9.8916907E+02;  1.2994999E-01; -8.8438408E+03;3;  5.7442055E+01;  0.0000000E+00; -3.5362720E+01;0; -4.3912522E-02;  2.3403252E+04;  0.0000000E+00; -8.2007904E+00;  4.0000000E+04;  0.0000000E+00;  3.9596258E+04;  6.7886904E-02;  0.0000000E+00; -1.1179943E-01;  1.7150977E+04;
  1.3678746E+00;  9.9999998E-03; -2.0112073E-01;9039;  9.6360928E-01;  0.0000000E+00;  1.0206640E-01;  9.9201324E+02;  1.2984653E-01; -6.5209995E+03;3;  5.0475685E+01;  0.0000000E+00; -1.6099178E+01;0;  9.2000216E-01;  2.3591963E+04;  0.0000000E+00;  2.9135396E+00;  4.0000000E+04;  0.0000000E+00;  3.9541730E+04;  1.0553062E+00;  0.0000000E+00; -1.3530403E-01;  1.4254191E+04;
  1.3682245E+00;  9.9999998E-03; -1.3086320E-01;9046;  9.7754943E-01;  0.0000000E+00;  7.5392500E-02;  9.9098712E+02;  1.2986353E-01; -7.3582256E+03;3; -7.4884995E+01;  0.0000000E+00; -3.6165755E+00;0;  2.1689701E+00;  2.3559385E+04;  0.0000000E+00; -5.0744206E-01;  4.0000000E+04;  0.0000000E+00;  3.9513715E+04;  2.5202973E+00;  0.0000000E+00; -3.5132715E-01;  8.4637725E+03;
  1.3681220E+00;  9.9999998E-03; -2.1116564E-01;9038;  9.7142923E-01;  0.0000000E+00;  1.0340666E-01;  9.9156433E+02;  1.2983041E-01; -6.8871348E+03;3;  6.0598217E+01;  0.0000000E+00; -2.3575665E+01;0;  7.2967345E-01;  2.3573482E+04;  0.0000000E+00;  3.7798338E+00;  4.0000000E+04;  0.0000000E+00;  3.9552633E+04;  8.4210360E-01;  0.0000000E+00; -1.1243016E-01;  1.7513816E+04;
  1.3684531E+00;  9.9999998E-03; -1.2076325E-01;9047;  9.8350680E-01;  0.0000000E+00;  7.0340455E-02;  9.9089056E+02;  1.2985298E-01; -7.4366914E+03;3; -8.0699982E+01;  0.0000000E+00; -2.5635152E+00;0;  2.3155034E+00;  2.3562426E+04;  0.0000000E+00; -4.2300770E-01;  4.0000000E+04;  0.0000000E+00;  3.9509328E+04;  2.6890540E+00;  0.0000000E+00; -3.7355071E-01;  8.0307217E+03;
  1.3680160E+00;  9.9999998E-03; -2.4138910E-01;9035;  9.8667866E-01;  0.0000000E+00;  1.0434806E-01;  9.8930957E+02;  1.2990266E-01; -8.7282080E+03;3;  5.5680252E+01;  0.0000000E+00; -3.1058338E+01;0;  1.4392890E-01;  2.3429346E+04;  0.0000000E+00; -3.9871783E+00;  4.0000000E+04;  0.0000000E+00;  3.9591887E+04;  2.4670100E-01;  0.0000000E+00; -1.0277210E-01;  1.7817979E+04;
  1.3686603E+00;  9.9999998E-03; -1.1066872E-01;9048;  9.8944813E-01;  0.0000000E+00;  6.5029949E-02;  9.9085919E+02;  1.2984684E-01; -7.4619521E+03;3; -8.5664482E+01;  0.0000000E+00; -1.4691170E+00;0;  2.4492302E+00;  2.3566605E+04;  0.0000000E+00; -2.9261413E-01;  4.0000000E+04;  0.0000000E+00;  3.9505324E+04;  2.8420506E+00;  0.0000000E+00; -3.9282024E-01;  7.6257480E+03;
  1.3683105E+00;  9.9999998E-03; -2.2122961E-01;9037;  9.7871339E-01;  0.0000000E+00;  1.0403232E-01;  9.9081659E+02;  1.2983023E-01; -7.4973086E+03;3;  6.0362862E+01;  0.0000000E+00; -2.4537958E+01;0;  5.3976583E-01;  2.3534820E+04;  0.0000000E+00;  3.1820083E+00;  4.0000000E+04;  0.0000000E+00;  3.9566238E+04;  6.3645935E-01;  0.0000000E+00; -9.6693508E-02;  1.9615420E+04;
  1.3683046E+00;  9.9999998E-03; -2.3130389E-01;9036;  9.8350155E-01;  0.0000000E+00;  1.0488627E-01;  9.8995905E+02;  1.2985457E-01; -8.1974062E+03;3;  5.6155628E+01;  0.0000000E+00; -2.5461735E+01;0;  3.4299928E-01;  2.3481168E+04;  0.0000000E+00;  3.1157196E-01;  4.0000000E+04;  0.0000000E+00;  3.9581281E+04;  4.3772727E-01;  0.0000000E+00; -9.4727993E-02;  1.9353215E+04;
  1.3793906E+00;  9.9999998E-03; -2.6166409E-01;9092;  9.8390150E-01;  0.0000000E+00;  1.0112147E-01;  9.8903473E+02;  1.2735941E-01; -8.9289014E+03;3;  5.8603931E+01;  0.0000000E+00; -3.2342445E+01;0; -1.4934251E-01;  2.4375990E+04;  0.0000000E+00; -6.1294150E+00;  4.0000000E+04;  0.0000000E+00;  3.9572270E+04;  6.4404041E-02;  0.0000000E+00; -2.1374655E-01;  1.6825914E+04;
  1.3799826E+00;  9.9999998E-03; -2.5157875E-01;9093;  9.8266453E-01;  0.0000000E+00;  1.0503902E-01;  9.8840625E+02;  1.2733048E-01; -9.4392412E+03;3;  5.5086609E+01;  0.0000000E+00; -2.5430628E+01;0;  3.4054771E-02;  2.4353584E+04;  0.0000000E+00; -3.6009588E+00;  4.0000000E+04;  0.0000000E+00;  3.9577586E+04;  2.4946631E-01;  0.0000000E+00; -2.1541154E-01;  1.9056006E+04;
  1.3802986E+00;  9.9999998E-03; -1.8113780E-01;9100;  9.8892963E-01;  0.0000000E+00;  9.1895133E-02;  9.9277509E+02;  1.2724999E-01; -5.8818062E+03;3; -5.7340549E+01;  0.0000000E+00; -5.2787032E+00;0;  1.5660803E+00;  2.4626531E+04;  0.0000000E+00;  1.5885355E+00;  4.0000000E+04;  0.0000000E+00;  3.9500832E+04;  1.7898082E+00;  0.0000000E+00; -2.2372784E-01;  9.5007900E+03;
  1.3803099E+00;  9.9999998E-03; -1.7114566E-01;9101;  9.9892855E-01;  0.0000000E+00;  8.8687554E-02;  9.9269397E+02;  1.2725723E-01; -5.9478301E+03;3; -6.4891220E+01;  0.0000000E+00; -3.5485382E+00;0;  1.7596281E+00;  2.4621795E+04;  0.0000000E+00;  5.1979291E-01;  4.0000000E+04;  0.0000000E+00;  3.9498211E+04;  2.0116200E+00;  0.0000000E+00; -2.5199193E-01;  8.3046016E+03;
  1.3805248E+00;  9.9999998E-03; -2.4148643E-01;9094;  9.8160136E-01;  0.0000000E+00;  1.0618903E-01;  9.8851990E+02;  1.2728955E-01; -9.3454033E+03;3;  5.3056236E+01;  0.0000000E+00; -1.8849792E+01;0;  2.5755590E-01;  2.4375607E+04;  0.0000000E+00;  2.4027197E-01;  4.0000000E+04;  0.0000000E+00;  3.9576094E+04;  4.5117712E-01;  0.0000000E+00; -1.9362122E-01;  2.1875557E+04;
  1.3803815E+00;  9.9999998E-03; -1.9113678E-01;9099;  9.7912115E-01;  0.0000000E+00;  9.4844289E-02;  9.9268744E+02;  1.2723713E-01; -5.9530107E+03;3; -4.4510899E+01;  0.0000000E+00; -4.4225678E+00;0;  1.3648341E+00;  2.4623650E+04;  0.0000000E+00;  3.3246405E+00;  4.0000000E+04;  0.0000000E+00;  3.9507727E+04;  1.5622053E+00;  0.0000000E+00; -1.9737124E-01;  1.2462160E+04;
  1.3804032E+00;  9.9999998E-03; -1.6114490E-01;9102;  1.0082976E+00;  0.0000000E+00;  8.4954403E-02;  9.9251361E+02;  1.2725671E-01; -6.0945186E+03;3; -7.0668999E+01;  0.0000000E+00; -1.4442036E+00;0;  1.9448328E+00;  2.4615111E+04;  0.0000000E+00; -6.8176471E-02;  4.0000000E+04;  0.0000000E+00;  3.9496840E+04;  2.2252975E+00;  0.0000000E+00; -2.8046459E-01;  8.0043721E+03;
  1.3805451E+00;  9.9999998E-03; -2.0116049E-01;9098;  9.7238857E-01;  0.0000000E+00;  9.8421931E-02;  9.9233423E+02;  1.2722287E-01; -6.2402969E+03;3; -7.1210494E+00;  0.0000000E+00;  1.9192564E-01;0;  1.1549952E+00;  2.4606559E+04;  0.0000000E+00;  5.5907907E+00;  4.0000000E+04;  0.0000000E+00;  3.9519750E+04;  1.3313217E+00;  0.0000000E+00; -1.7632653E-01;  1.7285432E+04;
  1.3805553E+00;  9.9999998E-03; -1.5111952E-01;9103;  1.0168098E+00;  0.0000000E+00;  8.0726393E-02;  9.9228851E+02;  1.2725033E-01; -6.2774956E+03;3; -7.5812241E+01;  0.0000000E+00; -3.0286521E-02;0;  2.1204929E+00;  2.4609324E+04;  0.0000000E+00; -3.7063092E-01;  4.0000000E+04;  0.0000000E+00;  3.9495570E+04;  2.4283633E+00;  0.0000000E+00; -3.0787042E-01;  7.9255747E+03;
  1.3807480E+00;  9.9999998E-03; -2.1121715E-01;9097;  9.7212428E-01;  0.0000000E+00;  1.0177954E-01;  9.9162372E+02;  1.2721549E-01; -6.8183608E+03;3;  3.3412392E+01;  0.0000000E+00; -3.9363525E+00;0;  9.3786818E-01;  2.4568623E+04;  0.0000000E+00;  7.5025401E+00;  4.0000000E+04;  0.0000000E+00;  3.9535387E+04;  1.1023107E+00;  0.0000000E+00; -1.6444249E-01;  2.2546838E+04;
  1.3808472E+00;  9.9999998E-03; -2.3139022E-01;9095;  9.7985321E-01;  0.0000000E+00;  1.0538145E-01;  9.8936694E+02;  1.2724726E-01; -8.6551494E+03;3;  5.3410091E+01;  0.0000000E+00; -1.3417165E+01;0;  4.9151638E-01;  2.4436283E+04;  0.0000000E+00;  4.6814227E+00;  4.0000000E+04;  0.0000000E+00;  3.9567191E+04;  6.6281575E-01;  0.0000000E+00; -1.7129937E-01;  2.5007180E+04;
  1.3807429E+00;  9.9999998E-03; -1.4106068E-01;9104;  1.0245850E+00;  0.0000000E+00;  7.6158516E-02;  9.9206915E+02;  1.2723833E-01; -6.4557900E+03;3; -8.0699066E+01;  0.0000000E+00;  1.6023872E+00;0;  2.2851505E+00;  2.4605910E+04;  0.0000000E+00; -4.8914155E-01;  4.0000000E+04;  0.0000000E+00;  3.9493379E+04;  2.6183858E+00;  0.0000000E+00; -3.3323514E-01;  7.7877559E+03;
  1.3808945E+00;  9.9999998E-03; -2.2129795E-01;9096;  9.7604966E-01;  0.0000000E+00;  1.0392970E-01;  9.9054230E+02;  1.2722094E-01; -7.6983423E+03;3;  5.3234055E+01;  0.0000000E+00; -9.6399651E+00;0;  7.1742558E-01;  2.4508445E+04;  0.0000000E+00;  7.4994888E+00;  4.0000000E+04;  0.0000000E+00;  3.9552055E+04;  8.7946391E-01;  0.0000000E+00; -1.6203831E-01;  2.5674822E+04;
  1.3809458E+00;  9.9999998E-03; -1.3097265E-01;9105;  1.0320135E+00;  0.0000000E+00;  7.1251892E-02;  9.9189130E+02;  1.2722678E-01; -6.6001768E+03;3; -8.5264214E+01;  0.0000000E+00;  2.5144234E+00;0;  2.4372880E+00;  2.4605324E+04;  0.0000000E+00; -4.6874878E-01;  4.0000000E+04;  0.0000000E+00;  3.9490258E+04;  2.7932088E+00;  0.0000000E+00; -3.5592079E-01;  7.5362705E+03;
  1.3811445E+00;  9.9999998E-03; -1.2087347E-01;9106;  1.0393568E+00;  0.0000000E+00;  6.6151507E-02;  9.9178363E+02;  1.2721822E-01; -6.6875010E+03;3; -8.9449257E+01;  0.0000000E+00;  2.8994539E+00;0;  2.5755916E+00;  2.4607559E+04;  0.0000000E+00; -3.5710698E-01;  4.0000000E+04;  0.0000000E+00;  3.9486789E+04;  2.9512343E+00;  0.0000000E+00; -3.7564278E-01;  7.2050220E+03;
  1.3813313E+00;  9.9999998E-03; -1.1076566E-01;9107;  1.0466212E+00;  0.0000000E+00;  6.0925983E-02;  9.9176514E+02;  1.2721205E-01; -6.7022158E+03;3; -9.3347130E+01;  0.0000000E+00;  3.2342696E+00;0;  2.6998093E+00;  2.4612617E+04;  0.0000000E+00; -2.1249257E-01;  4.0000000E+04;  0.0000000E+00;  3.9482785E+04;  3.0923507E+00;  0.0000000E+00; -3.9254144E-01;  6.8351953E+03;
  1.3915194E+00;  9.9999998E-03; -2.6179010E-01;9150;  9.7600341E-01;  0.0000000E+00;  1.0228305E-01;  9.8876068E+02;  1.2504350E-01; -9.1215000E+03;3;  5.5346279E+01;  0.0000000E+00; -2.2893953E+01;0; -7.7755123E-02;  2.5297885E+04;  0.0000000E+00; -1.0653075E+00;  4.0000000E+04;  0.0000000E+00;  3.9537312E+04;  2.3436189E-01;  0.0000000E+00; -3.1211701E-01;  1.8796289E+04;
  1.3921163E+00;  9.9999998E-03; -2.5170246E-01;9151;  9.7663075E-01;  0.0000000E+00;  1.0432170E-01;  9.8792816E+02;  1.2501903E-01; -9.7954209E+03;3;  5.1951611E+01;  0.0000000E+00; -1.4548775E+01;0;  1.3864878E-01;  2.5260020E+04;  0.0000000E+00;  1.9257926E+00;  4.0000000E+04;  0.0000000E+00;  3.9547914E+04;  4.4124544E-01;  0.0000000E+00; -3.0259666E-01;  2.3591168E+04;
  1.3928213E+00;  9.9999998E-03; -1.8115059E-01;9158;  1.0308150E+00;  0.0000000E+00;  8.7261625E-02;  9.9343750E+02;  1.2491829E-01; -5.3238252E+03;3; -7.6883255E+01;  0.0000000E+00;  2.1370788E+00;0;  1.8027248E+00;  2.5611441E+04;  0.0000000E+00;  3.2440600E+00;  4.0000000E+04;  0.0000000E+00;  3.9468348E+04;  2.0482609E+00;  0.0000000E+00; -2.4553606E-01;  1.0251470E+04;
  1.3928598E+00;  9.9999998E-03; -1.7116281E-01;9159;  1.0444243E+00;  0.0000000E+00;  8.3630480E-02;  9.9349451E+02;  1.2492031E-01; -5.2775361E+03;3; -7.9352379E+01;  0.0000000E+00;  4.3000908E+00;0;  1.9912047E+00;  2.5616775E+04;  0.0000000E+00;  1.3908012E+00;  4.0000000E+04;  0.0000000E+00;  3.9463336E+04;  2.2574723E+00;  0.0000000E+00; -2.6626757E-01;  7.4405532E+03;
  1.3928635E+00;  9.9999998E-03; -1.9115494E-01;9157;  1.0155603E+00;  0.0000000E+00;  9.0210892E-02;  9.9316278E+02;  1.2491136E-01; -5.5466675E+03;3; -7.3190941E+01;  0.0000000E+00; -8.0862981E-01;0;  1.6018741E+00;  2.5593963E+04;  0.0000000E+00;  6.1093898E+00;  4.0000000E+04;  0.0000000E+00;  3.9479957E+04;  1.8292531E+00;  0.0000000E+00; -2.2737893E-01;  1.5487173E+04;
  1.3927022E+00;  9.9999998E-03; -2.4160543E-01;9152;  9.7715867E-01;  0.0000000E+00;  1.0381080E-01;  9.8785651E+02;  1.2498488E-01; -9.8518027E+03;3;  4.9277996E+01;  0.0000000E+00; -6.6234226E+00;0;  3.9332259E-01;  2.5268596E+04;  0.0000000E+00;  5.4108195E+00;  4.0000000E+04;  0.0000000E+00;  3.9550898E+04;  6.6249686E-01;  0.0000000E+00; -2.6917428E-01;  2.7456121E+04;
  1.3929617E+00;  9.9999998E-03; -1.6117430E-01;9160;  1.0568470E+00;  0.0000000E+00;  7.9464421E-02;  9.9342731E+02;  1.2491968E-01; -5.3318647E+03;3; -8.1768875E+01;  0.0000000E+00;  5.9382639E+00;0;  2.1676750E+00;  2.5615400E+04;  0.0000000E+00;  3.5622454E-01;  4.0000000E+04;  0.0000000E+00;  3.9461992E+04;  2.4558661E+00;  0.0000000E+00; -2.8819102E-01;  6.4945898E+03;
  1.3929788E+00;  9.9999998E-03; -2.0119677E-01;9156;  9.9832040E-01;  0.0000000E+00;  9.2355393E-02;  9.9257263E+02;  1.2490661E-01; -6.0252065E+03;3; -6.7517197E+01;  0.0000000E+00; -2.8069339E+00;0;  1.3871089E+00;  2.5557467E+04;  0.0000000E+00;  9.6425056E+00;  4.0000000E+04;  0.0000000E+00;  3.9497430E+04;  1.5999739E+00;  0.0000000E+00; -2.1286502E-01;  2.2537445E+04;
  1.3931030E+00;  9.9999998E-03; -1.5116920E-01;9161;  1.0677056E+00;  0.0000000E+00;  7.4969746E-02;  9.9327618E+02;  1.2491455E-01; -5.4542505E+03;3; -8.4490479E+01;  0.0000000E+00;  7.0524902E+00;0;  2.3317266E+00;  2.5611441E+04;  0.0000000E+00; -1.5951206E-01;  4.0000000E+04;  0.0000000E+00;  3.9462195E+04;  2.6417806E+00;  0.0000000E+00; -3.1005415E-01;  6.3854443E+03;
  1.3931304E+00;  9.9999998E-03; -2.1128204E-01;9155;  9.8237681E-01;  0.0000000E+00;  9.5012434E-02;  9.9153625E+02;  1.2490682E-01; -6.8655864E+03;3; -2.8163586E+01;  0.0000000E+00;  4.6144266E+00;0;  1.1550450E+00;  2.5496617E+04;  0.0000000E+00;  1.2489856E+01;  4.0000000E+04;  0.0000000E+00;  3.9516488E+04;  1.3605846E+00;  0.0000000E+00; -2.0553952E-01;  2.9235107E+04;
  1.3930953E+00;  9.9999998E-03; -2.3150080E-01;9153;  9.7681904E-01;  0.0000000E+00;  1.0147995E-01;  9.8870239E+02;  1.2494783E-01; -9.1644316E+03;3;  4.9291538E+01;  0.0000000E+00; -8.7424397E-01;0;  6.5573382E-01;  2.5327938E+04;  0.0000000E+00;  9.7232447E+00;  4.0000000E+04;  0.0000000E+00;  3.9545234E+04;  8.9011306E-01;  0.0000000E+00; -2.3437926E-01;  3.1214314E+04;
  1.3932158E+00;  9.9999998E-03; -2.2139128E-01;9154;  9.7642356E-01;  0.0000000E+00;  9.8596632E-02;  9.9011426E+02;  1.2491985E-01; -8.0188599E+03;3;  2.7597677E+01;  0.0000000E+00;  3.3281162E+00;0;  9.0832675E-01;  2.5414188E+04;  0.0000000E+00;  1.2714912E+01;  4.0000000E+04;  0.0000000E+00;  3.9532617E+04;  1.1218400E+00;  0.0000000E+00; -2.1351328E-01;  3.2527881E+04;
  1.3932637E+00;  9.9999998E-03; -1.4113492E-01;9162;  1.0771312E+00;  0.0000000E+00;  7.0208497E-02;  9.9310229E+02;  1.2490700E-01; -5.5950127E+03;3; -8.7266350E+01;  0.0000000E+00;  7.3381104E+00;0;  2.4827132E+00;  2.5607234E+04;  0.0000000E+00; -3.6835647E-01;  4.0000000E+04;  0.0000000E+00;  3.9461977E+04;  2.8135676E+00;  0.0000000E+00; -3.3085445E-01;  6.4349883E+03;
  1.3934257E+00;  9.9999998E-03; -1.3106769E-01;9163;  1.0855949E+00;  0.0000000E+00;  6.5336592E-02;  9.9293622E+02;  1.2489905E-01; -5.7294731E+03;3; -9.0256325E+01;  0.0000000E+00;  7.3287764E+00;0;  2.6197996E+00;  2.5604400E+04;  0.0000000E+00; -3.8466617E-01;  4.0000000E+04;  0.0000000E+00;  3.9460961E+04;  2.9696424E+00;  0.0000000E+00; -3.4984273E-01;  6.4037988E+03;
  1.3935764E+00;  9.9999998E-03; -1.2097578E-01;9164;  1.0935192E+00;  0.0000000E+00;  6.0414378E-02;  9.9282019E+02;  1.2489370E-01; -5.8232827E+03;3; -9.3208237E+01;  0.0000000E+00;  7.1834469E+00;0;  2.7423112E+00;  2.5603809E+04;  0.0000000E+00; -2.8587493E-01;  4.0000000E+04;  0.0000000E+00;  3.9459051E+04;  3.1088526E+00;  0.0000000E+00; -3.6654145E-01;  6.2583687E+03;
  1.3937297E+00;  9.9999998E-03; -1.1086895E-01;9165;  1.1013285E+00;  0.0000000E+00;  5.5460960E-02;  9.9278241E+02;  1.2488854E-01; -5.8536553E+03;3; -9.6048767E+01;  0.0000000E+00;  6.9163923E+00;0;  2.8503854E+00;  2.5607186E+04;  0.0000000E+00; -1.4815113E-01;  4.0000000E+04;  0.0000000E+00;  3.9456566E+04;  3.2310994E+00;  0.0000000E+00; -3.8071385E-01;  6.0185293E+03;
  1.4033989E+00;  9.9999998E-03; -2.6193160E-01;9207;  9.6851623E-01;  0.0000000E+00;  9.9261820E-02;  9.8897443E+02;  1.2300313E-01; -8.9134434E+03;3;  5.2367096E+01;  0.0000000E+00; -1.1216573E+01;0;  2.9988289E-02;  2.6185260E+04;  0.0000000E+00;  3.2307243E+00;  4.0000000E+04;  0.0000000E+00;  3.9493609E+04;  4.0331328E-01;  0.0000000E+00; -3.7332499E-01;  2.0350721E+04;
  1.4039962E+00;  9.9999998E-03; -2.5184360E-01;9208;  9.7114611E-01;  0.0000000E+00;  9.9645637E-02;  9.8783252E+02;  1.2298381E-01; -9.8345137E+03;3;  4.7342087E+01;  0.0000000E+00; -2.3083451E+00;0;  2.7021518E-01;  2.6124766E+04;  0.0000000E+00;  7.2023835E+00;  4.0000000E+04;  0.0000000E+00;  3.9508699E+04;  6.3031548E-01;  0.0000000E+00; -3.6010030E-01;  2.7812732E+04;
  1.4046139E+00;  9.9999998E-03; -2.4174471E-01;9209;  9.7350425E-01;  0.0000000E+00;  9.7259060E-02;  9.8739478E+02;  1.2295619E-01; -1.0186114E+04;3;  4.5215248E+01;  0.0000000E+00;  6.4031949E+00;0;  5.5037951E-01;  2.6110053E+04;  0.0000000E+00;  1.0774487E+01;  4.0000000E+04;  0.0000000E+00;  3.9516707E+04;  8.6714691E-01;  0.0000000E+00; -3.1676742E-01;  3.2717381E+04;
  1.4051275E+00;  9.9999998E-03; -1.8113139E-01;9215;  1.0732479E+00;  0.0000000E+00;  8.0014840E-02;  9.9399506E+02;  1.2286205E-01; -4.8515938E+03;3; -8.8169937E+01;  0.0000000E+00;  1.0315445E+01;0;  2.0024755E+00;  2.6531061E+04;  0.0000000E+00;  6.0965142E+00;  4.0000000E+04;  0.0000000E+00;  3.9435730E+04;  2.2629578E+00;  0.0000000E+00; -2.6048237E-01;  1.3304698E+04;
  1.4051235E+00;  9.9999998E-03; -1.9115919E-01;9214;  1.0540978E+00;  0.0000000E+00;  8.3154939E-02;  9.9352380E+02;  1.2286166E-01; -5.2323765E+03;3; -8.8863388E+01;  0.0000000E+00;  8.4455175E+00;0;  1.8146135E+00;  2.6495107E+04;  0.0000000E+00;  1.0361091E+01;  4.0000000E+04;  0.0000000E+00;  3.9454145E+04;  2.0650611E+00;  0.0000000E+00; -2.5044763E-01;  2.0787891E+04;
  1.4051871E+00;  9.9999998E-03; -1.7113982E-01;9216;  1.0898161E+00;  0.0000000E+00;  7.6118387E-02;  9.9422351E+02;  1.2286163E-01; -4.6669087E+03;3; -8.7314102E+01;  0.0000000E+00;  1.1361985E+01;0;  2.1735783E+00;  2.6549773E+04;  0.0000000E+00;  3.1159115E+00;  4.0000000E+04;  0.0000000E+00;  3.9424961E+04;  2.4471126E+00;  0.0000000E+00; -2.7353427E-01;  8.2464951E+03;
  1.4050826E+00;  9.9999998E-03; -2.3163529E-01;9210;  9.7579324E-01;  0.0000000E+00;  9.3483567E-02;  9.8802722E+02;  1.2292454E-01; -9.6733916E+03;3;  2.9612835E+01;  0.0000000E+00;  1.1515593E+01;0;  8.3338201E-01;  2.6156498E+04;  0.0000000E+00;  1.4949866E+01;  4.0000000E+04;  0.0000000E+00;  3.9514977E+04;  1.1084934E+00;  0.0000000E+00; -2.7511141E-01;  3.6798367E+04;
  1.4051793E+00;  9.9999998E-03; -2.0124488E-01;9213;  1.0321245E+00;  0.0000000E+00;  8.5491501E-02;  9.9265546E+02;  1.2286615E-01; -5.9338042E+03;3; -8.9536957E+01;  0.0000000E+00;  5.3534069E+00;0;  1.6065906E+00;  2.6436062E+04;  0.0000000E+00;  1.5191443E+01;  4.0000000E+04;  0.0000000E+00;  3.9476055E+04;  1.8508828E+00;  0.0000000E+00; -2.4429210E-01;  2.9553451E+04;
  1.4052887E+00;  9.9999998E-03; -1.6116086E-01;9217;  1.1042124E+00;  0.0000000E+00;  7.1867257E-02;  9.9429333E+02;  1.2286013E-01; -4.6103481E+03;3; -8.7832024E+01;  0.0000000E+00;  1.2282304E+01;0;  2.3298917E+00;  2.6557049E+04;  0.0000000E+00;  1.3226469E+00;  4.0000000E+04;  0.0000000E+00;  3.9421348E+04;  2.6184869E+00;  0.0000000E+00; -2.8859508E-01;  5.6156768E+03;
  1.4052680E+00;  9.9999998E-03; -2.1137837E-01;9212;  1.0076019E+00;  0.0000000E+00;  8.6745128E-02;  9.9125574E+02;  1.2287626E-01; -7.0644189E+03;3; -8.5255753E+01;  0.0000000E+00;  1.9948084E+00;0;  1.3754748E+00;  2.6351193E+04;  0.0000000E+00;  1.8618069E+01;  4.0000000E+04;  0.0000000E+00;  3.9493172E+04;  1.6164819E+00;  0.0000000E+00; -2.4100713E-01;  3.6719531E+04;
  1.4052837E+00;  9.9999998E-03; -2.2151567E-01;9211;  9.8498511E-01;  0.0000000E+00;  8.9157045E-02;  9.8951569E+02;  1.2289602E-01; -8.4701855E+03;3; -3.2551056E+01;  0.0000000E+00;  1.3391135E+01;0;  1.1144294E+00;  2.6248754E+04;  0.0000000E+00;  1.8483763E+01;  4.0000000E+04;  0.0000000E+00;  3.9505176E+04;  1.3605871E+00;  0.0000000E+00; -2.4615778E-01;  3.9152598E+04;
  1.4054148E+00;  9.9999998E-03; -1.5117629E-01;9218;  1.1167921E+00;  0.0000000E+00;  6.7331731E-02;  9.9425372E+02;  1.2285681E-01; -4.6421577E+03;3; -8.8472641E+01;  0.0000000E+00;  1.2165717E+01;0;  2.4724166E+00;  2.6557293E+04;  0.0000000E+00;  3.6046520E-01;  4.0000000E+04;  0.0000000E+00;  3.9421625E+04;  2.7768698E+00;  0.0000000E+00; -3.0445307E-01;  4.8016133E+03;
  1.4055489E+00;  9.9999998E-03; -1.4116982E-01;9219;  1.1275879E+00;  0.0000000E+00;  6.2684879E-02;  9.9415240E+02;  1.2285281E-01; -4.7237368E+03;3; -8.9505257E+01;  0.0000000E+00;  1.1606044E+01;0;  2.6013920E+00;  2.6554057E+04;  0.0000000E+00; -9.0702161E-02;  4.0000000E+04;  0.0000000E+00;  3.9423129E+04;  2.9215288E+00;  0.0000000E+00; -3.2013670E-01;  4.8202324E+03;
  1.4056805E+00;  9.9999998E-03; -1.3112919E-01;9220;  1.1367989E+00;  0.0000000E+00;  5.8104172E-02;  9.9402844E+02;  1.2284846E-01; -4.8236558E+03;3; -9.1120857E+01;  0.0000000E+00;  1.0881828E+01;0;  2.7167170E+00;  2.6550027E+04;  0.0000000E+00; -2.3833229E-01;  4.0000000E+04;  0.0000000E+00;  3.9424434E+04;  3.0515747E+00;  0.0000000E+00; -3.3485767E-01;  4.9909082E+03;
  1.4058105E+00;  9.9999998E-03; -1.2105368E-01;9221;  1.1451122E+00;  0.0000000E+00;  5.3499334E-02;  9.9391656E+02;  1.2284419E-01; -4.9137944E+03;3; -9.2999069E+01;  0.0000000E+00;  1.0276594E+01;0;  2.8181820E+00;  2.6547539E+04;  0.0000000E+00; -2.1405129E-01;  4.0000000E+04;  0.0000000E+00;  3.9425082E+04;  3.1661973E+00;  0.0000000E+00; -3.4801540E-01;  5.0794570E+03;
  1.4059355E+00;  9.9999998E-03; -1.1095529E-01;9222;  1.1530365E+00;  0.0000000E+00;  4.8907675E-02;  9.9386365E+02;  1.2284075E-01; -4.9563198E+03;3; -9.4943512E+01;  0.0000000E+00;  9.5482454E+00;0;  2.9058189E+00;  2.6548121E+04;  0.0000000E+00; -1.1620075E-01;  4.0000000E+04;  0.0000000E+00;  3.9424449E+04;  3.2649651E+00;  0.0000000E+00; -3.5914606E-01;  5.0448130E+03;
  1.4150915E+00;  9.9999998E-03; -2.6209086E-01;9264;  9.6137178E-01;  0.0000000E+00;  9.2394739E-02;  9.8960425E+02;  1.2120862E-01; -8.3666572E+03;3;  4.9411343E+01;  0.0000000E+00;  3.2493918E+00;0;  1.6507861E-01;  2.7038893E+04;  0.0000000E+00;  5.4073067E+00;  4.0000000E+04;  0.0000000E+00;  3.9437699E+04;  5.5450910E-01;  0.0000000E+00; -3.8943049E-01;  1.8619643E+04;
  1.4156828E+00;  9.9999998E-03; -2.5200438E-01;9265;  9.6630466E-01;  0.0000000E+00;  9.0984538E-02;  9.8810760E+02;  1.2119300E-01; -9.5687900E+03;3;  4.2654217E+01;  0.0000000E+00;  1.1760598E+01;0;  4.2684862E-01;  2.6952531E+04;  0.0000000E+00;  1.0687846E+01;  4.0000000E+04;  0.0000000E+00;  3.9457570E+04;  8.0030048E-01;  0.0000000E+00; -3.7345186E-01;  2.8949322E+04;
  1.4163126E+00;  9.9999998E-03; -2.4190585E-01;9266;  9.7115350E-01;  0.0000000E+00;  8.6910978E-02;  9.8719543E+02;  1.2117158E-01; -1.0300021E+04;3;  3.3782997E+01;  0.0000000E+00;  1.8938456E+01;0;  7.2395027E-01;  2.6906697E+04;  0.0000000E+00;  1.5208307E+01;  4.0000000E+04;  0.0000000E+00;  3.9471012E+04;  1.0512440E+00;  0.0000000E+00; -3.2729372E-01;  3.5870988E+04;
  1.4168494E+00;  9.9999998E-03; -2.3179510E-01;9267;  9.7999507E-01;  0.0000000E+00;  8.1618495E-02;  9.8740051E+02;  1.2114548E-01; -1.0132730E+04;3; -1.2375774E+01;  0.0000000E+00;  2.4879128E+01;0;  1.0321406E+00;  2.6927439E+04;  0.0000000E+00;  1.9440327E+01;  4.0000000E+04;  0.0000000E+00;  3.9474691E+04;  1.3141613E+00;  0.0000000E+00; -2.8202066E-01;  4.0519176E+04;
  1.4171530E+00;  9.9999998E-03; -2.2167169E-01;9268;  1.0056586E+00;  0.0000000E+00;  7.7614166E-02;  9.8872998E+02;  1.2111932E-01; -9.0624102E+03;3; -9.9377541E+01;  0.0000000E+00;  8.9444504E+00;0;  1.3378932E+00;  2.7012043E+04;  0.0000000E+00;  2.3594816E+01;  4.0000000E+04;  0.0000000E+00;  3.9468410E+04;  1.6017743E+00;  0.0000000E+00; -2.6388112E-01;  4.3894559E+04;
  1.4172012E+00;  9.9999998E-03; -2.1152265E-01;9269;  1.0385662E+00;  0.0000000E+00;  7.6955654E-02;  9.9068512E+02;  1.2109698E-01; -7.4900894E+03;3; -1.0531637E+02;  0.0000000E+00;  1.0051708E+01;0;  1.5947086E+00;  2.7128379E+04;  0.0000000E+00;  2.5094896E+01;  4.0000000E+04;  0.0000000E+00;  3.9459887E+04;  1.8598250E+00;  0.0000000E+00; -2.6511648E-01;  4.3504441E+04;
  1.4171411E+00;  9.9999998E-03; -2.0134410E-01;9270;  1.0658332E+00;  0.0000000E+00;  7.5390384E-02;  9.9250940E+02;  1.2107947E-01; -6.0233130E+03;3; -1.0310232E+02;  0.0000000E+00;  1.2936042E+01;0;  1.8114400E+00;  2.7237025E+04;  0.0000000E+00;  2.2132563E+01;  4.0000000E+04;  0.0000000E+00;  3.9449883E+04;  2.0749471E+00;  0.0000000E+00; -2.6350707E-01;  3.7424531E+04;
  1.4171172E+00;  9.9999998E-03; -1.9119279E-01;9271;  1.0906599E+00;  0.0000000E+00;  7.3086850E-02;  9.9373560E+02;  1.2106828E-01; -5.0373638E+03;3; -9.9111938E+01;  0.0000000E+00;  1.5090046E+01;0;  1.9993725E+00;  2.7319455E+04;  0.0000000E+00;  1.6350826E+01;  4.0000000E+04;  0.0000000E+00;  3.9429312E+04;  2.2634664E+00;  0.0000000E+00; -2.6409391E-01;  2.7881994E+04;
  1.4171710E+00;  9.9999998E-03; -1.8111384E-01;9272;  1.1129106E+00;  0.0000000E+00;  7.0167556E-02;  9.9443292E+02;  1.2106089E-01; -4.4765317E+03;3; -9.4833565E+01;  0.0000000E+00;  1.5521404E+01;0;  2.1631861E+00;  2.7375822E+04;  0.0000000E+00;  1.0488012E+01;  4.0000000E+04;  0.0000000E+00;  3.9404719E+04;  2.4310942E+00;  0.0000000E+00; -2.6790813E-01;  1.8519203E+04;
  1.4172738E+00;  9.9999998E-03; -1.7109717E-01;9273;  1.1323543E+00;  0.0000000E+00;  6.6592030E-02;  9.9482886E+02;  1.2105621E-01; -4.1579590E+03;3; -9.2128136E+01;  0.0000000E+00;  1.5864878E+01;0;  2.3073001E+00;  2.7411252E+04;  0.0000000E+00;  6.0077677E+00;  4.0000000E+04;  0.0000000E+00;  3.9386391E+04;  2.5816681E+00;  0.0000000E+00; -2.7436805E-01;  1.1340178E+04;
  1.4173983E+00;  9.9999998E-03; -1.6111439E-01;9274;  1.1487494E+00;  0.0000000E+00;  6.2587187E-02;  9.9505249E+02;  1.2105339E-01; -3.9779265E+03;3; -9.0142090E+01;  0.0000000E+00;  1.5306986E+01;0;  2.4348960E+00;  2.7431096E+04;  0.0000000E+00;  3.0794740E+00;  4.0000000E+04;  0.0000000E+00;  3.9377062E+04;  2.7178347E+00;  0.0000000E+00; -2.8293872E-01;  6.6338545E+03;
  1.4175297E+00;  9.9999998E-03; -1.5114005E-01;9275;  1.1627976E+00;  0.0000000E+00;  5.8310919E-02;  9.9514368E+02;  1.2105033E-01; -3.9044304E+03;3; -8.9297485E+01;  0.0000000E+00;  1.4907341E+01;0;  2.5484807E+00;  2.7439787E+04;  0.0000000E+00;  1.3599188E+00;  4.0000000E+04;  0.0000000E+00;  3.9374852E+04;  2.8412645E+00;  0.0000000E+00; -2.9278383E-01;  4.0819905E+03;
  1.4176592E+00;  9.9999998E-03; -1.4115410E-01;9276;  1.1747346E+00;  0.0000000E+00;  5.4079954E-02;  9.9514795E+02;  1.2104747E-01; -3.9007629E+03;3; -8.9097893E+01;  0.0000000E+00;  1.3735479E+01;0;  2.6492538E+00;  2.7441061E+04;  0.0000000E+00;  4.4552016E-01;  4.0000000E+04;  0.0000000E+00;  3.9376520E+04;  2.9523478E+00;  0.0000000E+00; -3.0309379E-01;  3.2517959E+03;
  1.4177775E+00;  9.9999998E-03; -1.3113961E-01;9277;  1.1847788E+00;  0.0000000E+00;  4.9873434E-02;  9.9509076E+02;  1.2104478E-01; -3.9465156E+03;3; -8.9093231E+01;  0.0000000E+00;  1.2582363E+01;0;  2.7377679E+00;  2.7438293E+04;  0.0000000E+00;  2.4850735E-02;  4.0000000E+04;  0.0000000E+00;  3.9379879E+04;  3.0508916E+00;  0.0000000E+00; -3.1312367E-01;  3.3422476E+03;
  1.4178830E+00;  9.9999998E-03; -1.2108802E-01;9278;  1.1933137E+00;  0.0000000E+00;  4.5775291E-02;  9.9501312E+02;  1.2104154E-01; -4.0087678E+03;3; -9.0048943E+01;  0.0000000E+00;  1.1751038E+01;0;  2.8141739E+00;  2.7434389E+04;  0.0000000E+00; -1.1317824E-01;  4.0000000E+04;  0.0000000E+00;  3.9382883E+04;  3.1364419E+00;  0.0000000E+00; -3.2226795E-01;  3.6216001E+03;
  1.4179744E+00;  9.9999998E-03; -1.1100920E-01;9279;  1.2010510E+00;  0.0000000E+00;  4.1690595E-02;  9.9495117E+02;  1.2104096E-01; -4.0583901E+03;3; -9.1221687E+01;  0.0000000E+00;  1.0824029E+01;0;  2.8786266E+00;  2.7431404E+04;  0.0000000E+00; -1.0680519E-01;  4.0000000E+04;  0.0000000E+00;  3.9384664E+04;  3.2086024E+00;  0.0000000E+00; -3.2997593E-01;  3.8216589E+03;
  1.4266486E+00;  9.9999998E-03; -2.6226315E-01;9320;  9.5414394E-01;  0.0000000E+00;  8.0622435E-02;  9.9058966E+02;  1.1963501E-01; -7.5342583E+03;3;  4.6731327E+01;  0.0000000E+00;  2.0241684E+01;0;  3.3180019E-01;  2.7854605E+04;  0.0000000E+00;  4.9294271E+00;  4.0000000E+04;  0.0000000E+00;  3.9373992E+04;  6.6513205E-01;  0.0000000E+00; -3.3333185E-01;  1.3003192E+04;
  1.4272003E+00;  9.9999998E-03; -2.5218037E-01;9321;  9.6196306E-01;  0.0000000E+00;  7.7747889E-02;  9.8891809E+02;  1.1962358E-01; -8.8702256E+03;3;  3.6901360E+01;  0.0000000E+00;  2.8654339E+01;0;  6.1003804E-01;  2.7751633E+04;  0.0000000E+00;  1.1727820E+01;  4.0000000E+04;  0.0000000E+00;  3.9397230E+04;  9.3065047E-01;  0.0000000E+00; -3.2061246E-01;  2.6263215E+04;
  1.4278262E+00;  9.9999998E-03; -2.4208488E-01;9322;  9.7162092E-01;  0.0000000E+00;  7.2385885E-02;  9.8746698E+02;  1.1960915E-01; -1.0028609E+04;3;  5.1722126E+00;  0.0000000E+00;  3.4449627E+01;0;  9.2454404E-01;  2.7669008E+04;  0.0000000E+00;  1.7928417E+01;  4.0000000E+04;  0.0000000E+00;  3.9415418E+04;  1.2051840E+00;  0.0000000E+00; -2.8063995E-01;  3.5921207E+04;
  1.4284042E+00;  9.9999998E-03; -2.3197602E-01;9323;  9.9240583E-01;  0.0000000E+00;  6.6352740E-02;  9.8706390E+02;  1.1958809E-01; -1.0348197E+04;3; -7.8949631E+01;  0.0000000E+00;  2.7915522E+01;0;  1.2640387E+00;  2.7652518E+04;  0.0000000E+00;  2.2883192E+01;  4.0000000E+04;  0.0000000E+00;  3.9424434E+04;  1.5114470E+00;  0.0000000E+00; -2.4740829E-01;  4.2031656E+04;
  1.4288093E+00;  9.9999998E-03; -2.2185299E-01;9324;  1.0321534E+00;  0.0000000E+00;  6.5174080E-02;  9.8794897E+02;  1.1956438E-01; -9.6382402E+03;3; -1.2112688E+02;  0.0000000E+00;  1.1372807E+01;0;  1.5683064E+00;  2.7712389E+04;  0.0000000E+00;  2.7555927E+01;  4.0000000E+04;  0.0000000E+00;  3.9422766E+04;  1.8316686E+00;  0.0000000E+00; -2.6336220E-01;  4.6323879E+04;
  1.4289347E+00;  9.9999998E-03; -2.0150717E-01;9326;  1.0989467E+00;  0.0000000E+00;  6.3093841E-02;  9.9201379E+02;  1.1952029E-01; -6.3868286E+03;3; -1.1247450E+02;  0.0000000E+00;  1.5129828E+01;0;  2.0020049E+00;  2.7956627E+04;  0.0000000E+00;  2.9476431E+01;  4.0000000E+04;  0.0000000E+00;  3.9413477E+04;  2.2713888E+00;  0.0000000E+00; -2.6938385E-01;  4.4520332E+04;
  1.4289581E+00;  9.9999998E-03; -2.1170615E-01;9325;  1.0698043E+00;  0.0000000E+00;  6.4846963E-02;  9.8983344E+02;  1.1954092E-01; -8.1304717E+03;3; -1.1866577E+02;  0.0000000E+00;  1.3565117E+01;0;  1.8113070E+00;  2.7828443E+04;  0.0000000E+00;  3.0682402E+01;  4.0000000E+04;  0.0000000E+00;  3.9416402E+04;  2.0827720E+00;  0.0000000E+00; -2.7146506E-01;  4.8062348E+04;
  1.4289178E+00;  9.9999998E-03; -1.9128925E-01;9327;  1.1247040E+00;  0.0000000E+00;  6.1087295E-02;  9.9370392E+02;  1.1950285E-01; -5.0352485E+03;3; -1.0617211E+02;  0.0000000E+00;  1.6148174E+01;0;  2.1575851E+00;  2.8062857E+04;  0.0000000E+00;  2.3826138E+01;  4.0000000E+04;  0.0000000E+00;  3.9402137E+04;  2.4256306E+00;  0.0000000E+00; -2.6804543E-01;  3.5765406E+04;
  1.4290001E+00;  9.9999998E-03; -1.8113345E-01;9328;  1.1491481E+00;  0.0000000E+00;  5.8688574E-02;  9.9470215E+02;  1.1948979E-01; -4.2367251E+03;3; -9.9446213E+01;  0.0000000E+00;  1.6437914E+01;0;  2.2885220E+00;  2.8140371E+04;  0.0000000E+00;  1.6593893E+01;  4.0000000E+04;  0.0000000E+00;  3.9376809E+04;  2.5566759E+00;  0.0000000E+00; -2.6815385E-01;  2.5287199E+04;
  1.4291559E+00;  9.9999998E-03; -1.7106353E-01;9329;  1.1710341E+00;  0.0000000E+00;  5.5900000E-02;  9.9526611E+02;  1.1947961E-01; -3.7854102E+03;3; -9.4675110E+01;  0.0000000E+00;  1.6061411E+01;0;  2.3983924E+00;  2.8194518E+04;  0.0000000E+00;  1.0346111E+01;  4.0000000E+04;  0.0000000E+00;  3.9350285E+04;  2.6682310E+00;  0.0000000E+00; -2.6983851E-01;  1.6260446E+04;
  1.4293216E+00;  9.9999998E-03; -1.6105449E-01;9330;  1.1897534E+00;  0.0000000E+00;  5.2503932E-02;  9.9563159E+02;  1.1947302E-01; -3.4928994E+03;3; -9.0845245E+01;  0.0000000E+00;  1.5538310E+01;0;  2.4914126E+00;  2.8230223E+04;  0.0000000E+00;  5.9023886E+00;  4.0000000E+04;  0.0000000E+00;  3.9332605E+04;  2.7642035E+00;  0.0000000E+00; -2.7279088E-01;  9.7338340E+03;
  1.4294729E+00;  9.9999998E-03; -1.5107468E-01;9331;  1.2051721E+00;  0.0000000E+00;  4.8857536E-02;  9.9587555E+02;  1.1946915E-01; -3.2975808E+03;3; -8.8389961E+01;  0.0000000E+00;  1.4628056E+01;0;  2.5708499E+00;  2.8251018E+04;  0.0000000E+00;  3.0651953E+00;  4.0000000E+04;  0.0000000E+00;  3.9324570E+04;  2.8478444E+00;  0.0000000E+00; -2.7699450E-01;  5.4645938E+03;
  1.4296055E+00;  9.9999998E-03; -1.4109737E-01;9332;  1.2179910E+00;  0.0000000E+00;  4.5010578E-02;  9.9600574E+02;  1.1946648E-01; -3.1932883E+03;3; -8.6750015E+01;  0.0000000E+00;  1.3554855E+01;0;  2.6392064E+00;  2.8260395E+04;  0.0000000E+00;  1.4016274E+00;  4.0000000E+04;  0.0000000E+00;  3.9323777E+04;  2.9211249E+00;  0.0000000E+00; -2.8191850E-01;  2.9590239E+03;
  1.4297148E+00;  9.9999998E-03; -1.3110282E-01;9333;  1.2286404E+00;  0.0000000E+00;  4.1355267E-02;  9.9605206E+02;  1.1946612E-01; -3.1560405E+03;3; -8.5892609E+01;  0.0000000E+00;  1.2662415E+01;0;  2.6976655E+00;  2.8261955E+04;  0.0000000E+00;  5.0750065E-01;  4.0000000E+04;  0.0000000E+00;  3.9327254E+04;  2.9847069E+00;  0.0000000E+00; -2.8704152E-01;  1.9277932E+03;
  1.4298021E+00;  9.9999998E-03; -1.2107804E-01;9334;  1.2374314E+00;  0.0000000E+00;  3.7780438E-02;  9.9603296E+02;  1.1946473E-01; -3.1711956E+03;3; -8.5396255E+01;  0.0000000E+00;  1.1553467E+01;0;  2.7467611E+00;  2.8258803E+04;  0.0000000E+00;  8.1086770E-02;  4.0000000E+04;  0.0000000E+00;  3.9331988E+04;  3.0385361E+00;  0.0000000E+00; -2.9177496E-01;  1.9847823E+03;
  1.4298663E+00;  9.9999998E-03; -1.1102711E-01;9335;  1.2449120E+00;  0.0000000E+00;  3.4304485E-02;  9.9599072E+02;  1.1946537E-01; -3.2048728E+03;3; -8.5721413E+01;  0.0000000E+00;  1.0710556E+01;0;  2.7867777E+00;  2.8253846E+04;  0.0000000E+00; -7.8656308E-02;  4.0000000E+04;  0.0000000E+00;  3.9336551E+04;  3.0823770E+00;  0.0000000E+00; -2.9559922E-01;  2.3434856E+03;
  1.4381274E+00;  9.9999998E-03; -2.6244232E-01;9375;  9.4655800E-01;  0.0000000E+00;  6.3650884E-02;  9.9170239E+02;  1.1826169E-01; -6.6034307E+03;3;  4.2079994E+01;  0.0000000E+00;  3.6012669E+01;0;  5.1701170E-01;  2.8615824E+04;  0.0000000E+00;  2.9176722E+00;  4.0000000E+04;  0.0000000E+00;  3.9308195E+04;  7.0911568E-01;  0.0000000E+00; -1.9210400E-01;  5.6802100E+03;
  1.4386071E+00;  9.9999998E-03; -2.5236776E-01;9376;  9.5855355E-01;  0.0000000E+00;  5.9875660E-02;  9.9016638E+02;  1.1825164E-01; -7.8236895E+03;3;  1.8493120E+01;  0.0000000E+00;  4.3083366E+01;0;  8.1303293E-01;  2.8518641E+04;  0.0000000E+00;  9.2419147E+00;  4.0000000E+04;  0.0000000E+00;  3.9330121E+04;  1.0034721E+00;  0.0000000E+00; -1.9043916E-01;  1.9041127E+04;
  1.4391924E+00;  9.9999998E-03; -2.4227805E-01;9377;  9.7698480E-01;  0.0000000E+00;  5.3972110E-02;  9.8831500E+02;  1.1824203E-01; -9.2935420E+03;3; -4.7311352E+01;  0.0000000E+00;  4.0398308E+01;0;  1.1577159E+00;  2.8406463E+04;  0.0000000E+00;  1.7833225E+01;  4.0000000E+04;  0.0000000E+00;  3.9351434E+04;  1.3269390E+00;  0.0000000E+00; -1.6922311E-01;  3.1922828E+04;
  1.4397753E+00;  9.9999998E-03; -2.3217490E-01;9378;  1.0130519E+00;  0.0000000E+00;  5.0670929E-02;  9.8724310E+02;  1.1822871E-01; -1.0142631E+04;3; -1.3211784E+02;  0.0000000E+00;  8.0296926E+00;0;  1.5059252E+00;  2.8346625E+04;  0.0000000E+00;  2.4631313E+01;  4.0000000E+04;  0.0000000E+00;  3.9364539E+04;  1.7012165E+00;  0.0000000E+00; -1.9529122E-01;  4.0590191E+04;
  1.4402486E+00;  9.9999998E-03; -2.2205773E-01;9379;  1.0586845E+00;  0.0000000E+00;  5.2023984E-02;  9.8744348E+02;  1.1821029E-01; -9.9805615E+03;3; -1.3255103E+02;  0.0000000E+00;  7.8355885E+00;0;  1.7903136E+00;  2.8366936E+04;  0.0000000E+00;  3.0197649E+01;  4.0000000E+04;  0.0000000E+00;  3.9366863E+04;  2.0339003E+00;  0.0000000E+00; -2.4358669E-01;  4.6304836E+04;
  1.4405179E+00;  9.9999998E-03; -2.1192081E-01;9380;  1.0996393E+00;  0.0000000E+00;  5.2190959E-02;  9.8889954E+02;  1.1818837E-01; -8.8218525E+03;3; -1.2683332E+02;  0.0000000E+00;  9.7065296E+00;0;  2.0138204E+00;  2.8461215E+04;  0.0000000E+00;  3.4556667E+01;  4.0000000E+04;  0.0000000E+00;  3.9361844E+04;  2.2776668E+00;  0.0000000E+00; -2.6384643E-01;  4.9623562E+04;
  1.4405670E+00;  9.9999998E-03; -2.0173392E-01;9381;  1.1320697E+00;  0.0000000E+00;  5.0773796E-02;  9.9114374E+02;  1.1816549E-01; -7.0380947E+03;3; -1.1942748E+02;  0.0000000E+00;  1.1731907E+01;0;  2.1762557E+00;  2.8595760E+04;  0.0000000E+00;  3.5831387E+01;  4.0000000E+04;  0.0000000E+00;  3.9361012E+04;  2.4423048E+00;  0.0000000E+00; -2.6604921E-01;  4.9132879E+04;
  1.4405419E+00;  9.9999998E-03; -1.9148198E-01;9382;  1.1577473E+00;  0.0000000E+00;  4.8877455E-02;  9.9331543E+02;  1.1814612E-01; -5.3123164E+03;3; -1.1155740E+02;  0.0000000E+00;  1.2561083E+01;0;  2.2923617E+00;  2.8724391E+04;  0.0000000E+00;  3.2014893E+01;  4.0000000E+04;  0.0000000E+00;  3.9361621E+04;  2.5567811E+00;  0.0000000E+00; -2.6441929E-01;  4.3017539E+04;
  1.4405992E+00;  9.9999998E-03; -1.8124077E-01;9383;  1.1821523E+00;  0.0000000E+00;  4.7081459E-02;  9.9475507E+02;  1.1812804E-01; -4.1680776E+03;3; -1.0353937E+02;  0.0000000E+00;  1.3681405E+01;0;  2.3829436E+00;  2.8824074E+04;  0.0000000E+00;  2.4473700E+01;  4.0000000E+04;  0.0000000E+00;  3.9346133E+04;  2.6459227E+00;  0.0000000E+00; -2.6297906E-01;  3.2933035E+04;
  1.4407704E+00;  9.9999998E-03; -1.7109239E-01;9384;  1.2055154E+00;  0.0000000E+00;  4.5067117E-02;  9.9555811E+02;  1.1811490E-01; -3.5295928E+03;3; -9.5995430E+01;  0.0000000E+00;  1.3615426E+01;0;  2.4544504E+00;  2.8895666E+04;  0.0000000E+00;  1.6497610E+01;  4.0000000E+04;  0.0000000E+00;  3.9316867E+04;  2.7159691E+00;  0.0000000E+00; -2.6151878E-01;  2.2562627E+04;
  1.4409809E+00;  9.9999998E-03; -1.6103381E-01;9385;  1.2261639E+00;  0.0000000E+00;  4.2624995E-02;  9.9606128E+02;  1.1810596E-01; -3.1293718E+03;3; -9.0783630E+01;  0.0000000E+00;  1.3470948E+01;0;  2.5099635E+00;  2.8947383E+04;  0.0000000E+00;  1.0165623E+01;  4.0000000E+04;  0.0000000E+00;  3.9290180E+04;  2.7701325E+00;  0.0000000E+00; -2.6016897E-01;  1.4301104E+04;
  1.4411757E+00;  9.9999998E-03; -1.5102573E-01;9386;  1.2432535E+00;  0.0000000E+00;  3.9659590E-02;  9.9641357E+02;  1.1809862E-01; -2.8491199E+03;3; -8.6386497E+01;  0.0000000E+00;  1.2989297E+01;0;  2.5532188E+00;  2.8982576E+04;  0.0000000E+00;  5.7980208E+00;  4.0000000E+04;  0.0000000E+00;  3.9273938E+04;  2.8124847E+00;  0.0000000E+00; -2.5926599E-01;  8.5306992E+03;
  1.4413385E+00;  9.9999998E-03; -1.4103739E-01;9387;  1.2570025E+00;  0.0000000E+00;  3.6513213E-02;  9.9667310E+02;  1.1809479E-01; -2.6426987E+03;3; -8.3599846E+01;  0.0000000E+00;  1.2401278E+01;0;  2.5873840E+00;  2.9003621E+04;  0.0000000E+00;  3.0254285E+00;  4.0000000E+04;  0.0000000E+00;  3.9267875E+04;  2.8463809E+00;  0.0000000E+00; -2.5899687E-01;  4.7727554E+03;
  1.4414667E+00;  9.9999998E-03; -1.3104589E-01;9388;  1.2680740E+00;  0.0000000E+00;  3.3226050E-02;  9.9683698E+02;  1.1809300E-01; -2.5123523E+03;3; -8.1447205E+01;  0.0000000E+00;  1.1449620E+01;0;  2.6145558E+00;  2.9013316E+04;  0.0000000E+00;  1.3806816E+00;  4.0000000E+04;  0.0000000E+00;  3.9268809E+04;  2.8735952E+00;  0.0000000E+00; -2.5903931E-01;  2.4244421E+03;
  1.4415647E+00;  9.9999998E-03; -1.2103756E-01;9389;  1.2770711E+00;  0.0000000E+00;  3.0121543E-02;  9.9691577E+02;  1.1809249E-01; -2.4496228E+03;3; -8.0069481E+01;  0.0000000E+00;  1.0801980E+01;0;  2.6356239E+00;  2.9014973E+04;  0.0000000E+00;  4.7818670E-01;  4.0000000E+04;  0.0000000E+00;  3.9273465E+04;  2.8946109E+00;  0.0000000E+00; -2.5898698E-01;  1.0710344E+03;
  1.4416349E+00;  9.9999998E-03; -1.1100884E-01;9390;  1.2844112E+00;  0.0000000E+00;  2.7217265E-02;  9.9692450E+02;  1.1809207E-01; -2.4425620E+03;3; -7.9185585E+01;  0.0000000E+00;  9.8890944E+00;0;  2.6509614E+00;  2.9011627E+04;  0.0000000E+00;  3.6416683E-02;  4.0000000E+04;  0.0000000E+00;  3.9279512E+04;  2.9093444E+00;  0.0000000E+00; -2.5838295E-01;  7.7860052E+02;
  1.4495348E+00;  9.9999998E-03; -2.6262477E-01;9429;  9.4009233E-01;  0.0000000E+00;  4.3347750E-02;  9.9277045E+02;  1.1706356E-01; -5.7134824E+03;3;  2.0263050E+01;  0.0000000E+00;  3.7599884E+01;0;  6.7930174E-01;  2.9313053E+04;  0.0000000E+00;  3.7953615E+00;  4.0000000E+04;  0.0000000E+00;  3.9241883E+04;  6.7322946E-01;  0.0000000E+00;  6.0722916E-03;  2.4714060E+03;
  1.4499524E+00;  9.9999998E-03; -2.5255996E-01;9430;  9.5918524E-01;  0.0000000E+00;  3.9320100E-02;  9.9162109E+02;  1.1705618E-01; -6.6199897E+03;3; -3.3676376E+01;  0.0000000E+00;  3.6402390E+01;0;  1.0148678E+00;  2.9238879E+04;  0.0000000E+00;  4.1440244E+00;  4.0000000E+04;  0.0000000E+00;  3.9261836E+04;  1.0239706E+00;  0.0000000E+00; -9.1028064E-03;  9.1334443E+03;
  1.4504504E+00;  9.9999998E-03; -2.4247921E-01;9431;  9.9120051E-01;  0.0000000E+00;  3.5843767E-02;  9.8979572E+02;  1.1704943E-01; -8.0594790E+03;3; -1.2322584E+02;  0.0000000E+00;  9.3120136E+00;0;  1.3880292E+00;  2.9123301E+04;  0.0000000E+00;  1.4137313E+01;  4.0000000E+04;  0.0000000E+00;  3.9282645E+04;  1.4379696E+00;  0.0000000E+00; -4.9940377E-02;  2.3825383E+04;
  1.4510047E+00;  9.9999998E-03; -2.3238501E-01;9432;  1.0385848E+00;  0.0000000E+00;  3.7782948E-02;  9.8812067E+02;  1.1704296E-01; -9.3790029E+03;3; -1.4469223E+02;  0.0000000E+00; -8.5513777E-01;0;  1.7190595E+00;  2.9023592E+04;  0.0000000E+00;  2.3542351E+01;  4.0000000E+04;  0.0000000E+00;  3.9297199E+04;  1.8665144E+00;  0.0000000E+00; -1.4745495E-01;  3.5491102E+04;
  1.4515104E+00;  9.9999998E-03; -2.2227789E-01;9433;  1.0847244E+00;  0.0000000E+00;  3.9617788E-02;  9.8750037E+02;  1.1703188E-01; -9.8653955E+03;3; -1.3833710E+02;  0.0000000E+00;  2.8883550E+00;0;  1.9854965E+00;  2.8993684E+04;  0.0000000E+00;  3.0713425E+01;  4.0000000E+04;  0.0000000E+00;  3.9301703E+04;  2.1984491E+00;  0.0000000E+00; -2.1295263E-01;  4.3227203E+04;
  1.4518795E+00;  9.9999998E-03; -2.1215332E-01;9434;  1.1271340E+00;  0.0000000E+00;  4.0344156E-02;  9.8819427E+02;  1.1701410E-01; -9.3153936E+03;3; -1.3197926E+02;  0.0000000E+00;  5.8571372E+00;0;  2.1879721E+00;  2.9046102E+04;  0.0000000E+00;  3.6201851E+01;  4.0000000E+04;  0.0000000E+00;  3.9298137E+04;  2.4352341E+00;  0.0000000E+00; -2.4726212E-01;  4.8034234E+04;
  1.4520458E+00;  9.9999998E-03; -2.0199411E-01;9435;  1.1631889E+00;  0.0000000E+00;  3.9817404E-02;  9.9005621E+02;  1.1699367E-01; -7.8453374E+03;3; -1.2412370E+02;  0.0000000E+00;  7.7195783E+00;0;  2.3254611E+00;  2.9163602E+04;  0.0000000E+00;  3.9614716E+01;  4.0000000E+04;  0.0000000E+00;  3.9294586E+04;  2.5843458E+00;  0.0000000E+00; -2.5888458E-01;  4.9954660E+04;
  1.4520432E+00;  9.9999998E-03; -1.9175828E-01;9436;  1.1908216E+00;  0.0000000E+00;  3.8061142E-02;  9.9246826E+02;  1.1697242E-01; -5.9423384E+03;3; -1.1518148E+02;  0.0000000E+00;  8.9134159E+00;0;  2.4071271E+00;  2.9305477E+04;  0.0000000E+00;  3.9105179E+01;  4.0000000E+04;  0.0000000E+00;  3.9300895E+04;  2.6649840E+00;  0.0000000E+00; -2.5785676E-01;  4.7635758E+04;
  1.4520383E+00;  9.9999998E-03; -1.8146628E-01;9437;  1.2139953E+00;  0.0000000E+00;  3.6485899E-02;  9.9449915E+02;  1.1695415E-01; -4.3400254E+03;3; -1.0650918E+02;  0.0000000E+00;  9.9928455E+00;0;  2.4542820E+00;  2.9428756E+04;  0.0000000E+00;  3.3395672E+01;  4.0000000E+04;  0.0000000E+00;  3.9301367E+04;  2.7095168E+00;  0.0000000E+00; -2.5523475E-01;  4.0138062E+04;
  1.4521590E+00;  9.9999998E-03; -1.7122346E-01;9438;  1.2365630E+00;  0.0000000E+00;  3.5023008E-02;  9.9569684E+02;  1.1693944E-01; -3.3947971E+03;3; -9.7806122E+01;  0.0000000E+00;  1.1324560E+01;0;  2.4846201E+00;  2.9519381E+04;  0.0000000E+00;  2.4683409E+01;  4.0000000E+04;  0.0000000E+00;  3.9280902E+04;  2.7361951E+00;  0.0000000E+00; -2.5157502E-01;  2.9806582E+04;
  1.4523885E+00;  9.9999998E-03; -1.6108342E-01;9439;  1.2577726E+00;  0.0000000E+00;  3.3354521E-02;  9.9634644E+02;  1.1692600E-01; -2.8818945E+03;3; -9.0085724E+01;  0.0000000E+00;  1.1223961E+01;0;  2.5020692E+00;  2.9585020E+04;  0.0000000E+00;  1.6361235E+01;  4.0000000E+04;  0.0000000E+00;  3.9250586E+04;  2.7490256E+00;  0.0000000E+00; -2.4695638E-01;  2.0118172E+04;
  1.4526421E+00;  9.9999998E-03; -1.5102214E-01;9440;  1.2761757E+00;  0.0000000E+00;  3.1217813E-02;  9.9678461E+02;  1.1691624E-01; -2.5357988E+03;3; -8.4493034E+01;  0.0000000E+00;  1.1623133E+01;0;  2.5095952E+00;  2.9633398E+04;  0.0000000E+00;  1.0023573E+01;  4.0000000E+04;  0.0000000E+00;  3.9225953E+04;  2.7512860E+00;  0.0000000E+00; -2.4169078E-01;  1.2751267E+04;
  1.4528656E+00;  9.9999998E-03; -1.4100039E-01;9441;  1.2911601E+00;  0.0000000E+00;  2.8652636E-02;  9.9714459E+02;  1.1691016E-01; -2.2515781E+03;3; -7.9496567E+01;  0.0000000E+00;  1.1048388E+01;0;  2.5102804E+00;  2.9667422E+04;  0.0000000E+00;  5.6966124E+00;  4.0000000E+04;  0.0000000E+00;  3.9211957E+04;  2.7466753E+00;  0.0000000E+00; -2.3639497E-01;  7.7215845E+03;
  1.4530420E+00;  9.9999998E-03; -1.3099211E-01;9442;  1.3029221E+00;  0.0000000E+00;  2.5973173E-02;  9.9742218E+02;  1.1690604E-01; -2.0324534E+03;3; -7.6297874E+01;  0.0000000E+00;  1.0928515E+01;0;  2.5067832E+00;  2.9688338E+04;  0.0000000E+00;  2.9279544E+00;  4.0000000E+04;  0.0000000E+00;  3.9207613E+04;  2.7380359E+00;  0.0000000E+00; -2.3125277E-01;  4.4860806E+03;
  1.4531730E+00;  9.9999998E-03; -1.2098408E-01;9443;  1.3120416E+00;  0.0000000E+00;  2.3224384E-02;  9.9759680E+02;  1.1690304E-01; -1.8945892E+03;3; -7.3759674E+01;  0.0000000E+00;  1.0099414E+01;0;  2.5006442E+00;  2.9698424E+04;  0.0000000E+00;  1.2669799E+00;  4.0000000E+04;  0.0000000E+00;  3.9209789E+04;  2.7267017E+00;  0.0000000E+00; -2.2605751E-01;  2.4766038E+03;
  1.4532657E+00;  9.9999998E-03; -1.1096820E-01;9444;  1.3192207E+00;  0.0000000E+00;  2.0638514E-02;  9.9769733E+02;  1.1690290E-01; -1.8152014E+03;3; -7.1862366E+01;  0.0000000E+00;  9.0954723E+00;0;  2.4923952E+00;  2.9700092E+04;  0.0000000E+00;  3.4951982E-01;  4.0000000E+04;  0.0000000E+00;  3.9215371E+04;  2.7129340E+00;  0.0000000E+00; -2.2053887E-01;  1.2266605E+03;
  1.4608071E+00;  9.9999998E-03; -2.6280898E-01;9482;  9.4032860E-01;  0.0000000E+00;  2.5257953E-02;  9.9419189E+02;  1.1602201E-01; -4.5536816E+03;3; -4.4702164E+01;  0.0000000E+00;  1.5133612E+01;0;  7.6598549E-01;  2.9972203E+04;  0.0000000E+00;  1.1939510E+01;  4.0000000E+04;  0.0000000E+00;  3.9174059E+04;  5.9787506E-01;  0.0000000E+00;  1.6811045E-01;  2.1883513E+03;
  1.4612677E+00;  9.9999998E-03; -2.5275218E-01;9483;  9.7273862E-01;  0.0000000E+00;  2.3240846E-02;  9.9291254E+02;  1.1601983E-01; -5.5547749E+03;3; -1.2897580E+02;  0.0000000E+00;  9.3539250E-01;0;  1.1732357E+00;  2.9889773E+04;  0.0000000E+00;  1.1334716E+00;  4.0000000E+04;  0.0000000E+00;  3.9195195E+04;  1.0647033E+00;  0.0000000E+00;  1.0853226E-01;  2.8754436E+03;
  1.4616648E+00;  9.9999998E-03; -2.4268436E-01;9484;  1.0166936E+00;  0.0000000E+00;  2.3265019E-02;  9.9156085E+02;  1.1601402E-01; -6.6121191E+03;3; -1.5969011E+02;  0.0000000E+00; -7.7181683E+00;0;  1.5730993E+00;  2.9803012E+04;  0.0000000E+00;  6.7780652E+00;  4.0000000E+04;  0.0000000E+00;  3.9211023E+04;  1.5551175E+00;  0.0000000E+00;  1.7981751E-02;  1.2555577E+04;
  1.4621415E+00;  9.9999998E-03; -2.3260236E-01;9485;  1.0636561E+00;  0.0000000E+00;  2.5477020E-02;  9.8969434E+02;  1.1601094E-01; -8.0715928E+03;3; -1.5196785E+02;  0.0000000E+00; -4.3736701E+00;0;  1.8927500E+00;  2.9688779E+04;  0.0000000E+00;  1.8334139E+01;  4.0000000E+04;  0.0000000E+00;  3.9223488E+04;  1.9789591E+00;  0.0000000E+00; -8.6209022E-02;  2.6316137E+04;
  1.4626335E+00;  9.9999998E-03; -2.2250725E-01;9486;  1.1090810E+00;  0.0000000E+00;  2.7494214E-02;  9.8831866E+02;  1.1600575E-01; -9.1455693E+03;3; -1.4374271E+02;  0.0000000E+00; -4.2690533E-01;0;  2.1420519E+00;  2.9611688E+04;  0.0000000E+00;  2.8135653E+01;  4.0000000E+04;  0.0000000E+00;  3.9228273E+04;  2.3091176E+00;  0.0000000E+00; -1.6706561E-01;  3.6683348E+04;
  1.4630563E+00;  9.9999998E-03; -2.1239671E-01;9487;  1.1510051E+00;  0.0000000E+00;  2.8706096E-02;  9.8809570E+02;  1.1599518E-01; -9.3170801E+03;3; -1.3562100E+02;  0.0000000E+00;  2.4102790E+00;0;  2.3219063E+00;  2.9609350E+04;  0.0000000E+00;  3.5362526E+01;  4.0000000E+04;  0.0000000E+00;  3.9225551E+04;  2.5394380E+00;  0.0000000E+00; -2.1753174E-01;  4.3428160E+04;
  1.4633399E+00;  9.9999998E-03; -2.0226300E-01;9488;  1.1894573E+00;  0.0000000E+00;  2.9149357E-02;  9.8915924E+02;  1.1598016E-01; -8.4828154E+03;3; -1.2762788E+02;  0.0000000E+00;  5.3302822E+00;0;  2.4402966E+00;  2.9683828E+04;  0.0000000E+00;  4.0381207E+01;  4.0000000E+04;  0.0000000E+00;  3.9219246E+04;  2.6833611E+00;  0.0000000E+00; -2.4306433E-01;  4.7145473E+04;
  1.4634311E+00;  9.9999998E-03; -1.9207539E-01;9489;  1.2211084E+00;  0.0000000E+00;  2.8565358E-02;  9.9127594E+02;  1.1596122E-01; -6.8259956E+03;3; -1.1939951E+02;  0.0000000E+00;  7.4467106E+00;0;  2.4980955E+00;  2.9814492E+04;  0.0000000E+00;  4.2980938E+01;  4.0000000E+04;  0.0000000E+00;  3.9220473E+04;  2.7481022E+00;  0.0000000E+00; -2.5000656E-01;  4.8026332E+04;
  1.4634067E+00;  9.9999998E-03; -1.8179582E-01;9490;  1.2450382E+00;  0.0000000E+00;  2.7143974E-02;  9.9372577E+02;  1.1594301E-01; -4.9092705E+03;3; -1.0969760E+02;  0.0000000E+00;  8.3043900E+00;0;  2.5094705E+00;  2.9955762E+04;  0.0000000E+00;  4.1144924E+01;  4.0000000E+04;  0.0000000E+00;  3.9232215E+04;  2.7565558E+00;  0.0000000E+00; -2.4708526E-01;  4.4665184E+04;
  1.4634354E+00;  9.9999998E-03; -1.7148085E-01;9491;  1.2656767E+00;  0.0000000E+00;  2.5962530E-02;  9.9555408E+02;  1.1592774E-01; -3.4786277E+03;3; -1.0028517E+02;  0.0000000E+00;  9.8065033E+00;0;  2.4982381E+00;  3.0069752E+04;  0.0000000E+00;  3.4170452E+01;  4.0000000E+04;  0.0000000E+00;  3.9231434E+04;  2.7400489E+00;  0.0000000E+00; -2.4181081E-01;  3.6749914E+04;
  1.4636135E+00;  9.9999998E-03; -1.6123469E-01;9492;  1.2855650E+00;  0.0000000E+00;  2.4672005E-02;  9.9652362E+02;  1.1591252E-01; -2.7196558E+03;3; -9.0187500E+01;  0.0000000E+00;  1.0583557E+01;0;  2.4781013E+00;  3.0150469E+04;  0.0000000E+00;  2.4832495E+01;  4.0000000E+04;  0.0000000E+00;  3.9209734E+04;  2.7124782E+00;  0.0000000E+00; -2.3437685E-01;  2.6910010E+04;
  1.4638996E+00;  9.9999998E-03; -1.5108688E-01;9493;  1.3040922E+00;  0.0000000E+00;  2.3223093E-02;  9.9705237E+02;  1.1590042E-01; -2.3054807E+03;3; -8.2375221E+01;  0.0000000E+00;  1.0826801E+01;0;  2.4518347E+00;  3.0208658E+04;  0.0000000E+00;  1.6348989E+01;  4.0000000E+04;  0.0000000E+00;  3.9181531E+04;  2.6773791E+00;  0.0000000E+00; -2.2554435E-01;  1.8123887E+04;
  1.4641958E+00;  9.9999998E-03; -1.4100809E-01;9494;  1.3200796E+00;  0.0000000E+00;  2.1302432E-02;  9.9744745E+02;  1.1589008E-01; -1.9960189E+03;3; -7.5917198E+01;  0.0000000E+00;  1.1073391E+01;0;  2.4218194E+00;  3.0253309E+04;  0.0000000E+00;  9.9736061E+00;  4.0000000E+04;  0.0000000E+00;  3.9159539E+04;  2.6374190E+00;  0.0000000E+00; -2.1559952E-01;  1.1580616E+04;
  1.4644468E+00;  9.9999998E-03; -1.3096501E-01;9495;  1.3327456E+00;  0.0000000E+00;  1.9128589E-02;  9.9778473E+02;  1.1588293E-01; -1.7319156E+03;3; -7.0808998E+01;  0.0000000E+00;  1.0566340E+01;0;  2.3902123E+00;  3.0285842E+04;  0.0000000E+00;  5.5971942E+00;  4.0000000E+04;  0.0000000E+00;  3.9147375E+04;  2.5954480E+00;  0.0000000E+00; -2.0523566E-01;  7.1702983E+03;
  1.4646384E+00;  9.9999998E-03; -1.2093930E-01;9496;  1.3423640E+00;  0.0000000E+00;  1.6853973E-02;  9.9805560E+02;  1.1587765E-01; -1.5199363E+03;3; -6.6821358E+01;  0.0000000E+00;  9.9224806E+00;0;  2.3591433E+00;  3.0306711E+04;  0.0000000E+00;  2.7718191E+00;  4.0000000E+04;  0.0000000E+00;  3.9143844E+04;  2.5537481E+00;  0.0000000E+00; -1.9460483E-01;  4.4146724E+03;
  1.4647707E+00;  9.9999998E-03; -1.1092005E-01;9497;  1.3494641E+00;  0.0000000E+00;  1.4642846E-02;  9.9824561E+02;  1.1587541E-01; -1.3712552E+03;3; -6.4091141E+01;  0.0000000E+00;  9.2295361E+00;0;  2.3295505E+00;  3.0316867E+04;  0.0000000E+00;  1.0660998E+00;  4.0000000E+04;  0.0000000E+00;  3.9146438E+04;  2.5132637E+00;  0.0000000E+00; -1.8371320E-01;  2.8015144E+03;
  1.4724960E+00;  9.9999998E-03; -2.5294453E-01;9535;  1.0019145E+00;  0.0000000E+00;  1.4245229E-02;  9.9419806E+02;  1.1512074E-01; -4.5056333E+03;3; -1.7189032E+02;  0.0000000E+00; -1.3192870E+01;0;  1.2990663E+00;  3.0485771E+04;  0.0000000E+00;  7.8011642E+00;  4.0000000E+04;  0.0000000E+00;  3.9126215E+04;  1.1610531E+00;  0.0000000E+00;  1.3801324E-01;  2.1260430E+03;
  1.4728730E+00;  9.9999998E-03; -2.4288835E-01;9536;  1.0471642E+00;  0.0000000E+00;  1.4691653E-02;  9.9314331E+02;  1.1511920E-01; -5.3229771E+03;3; -1.6712685E+02;  0.0000000E+00; -1.1171201E+01;0;  1.6955330E+00;  3.0418197E+04;  0.0000000E+00;  2.7579823E-01;  4.0000000E+04;  0.0000000E+00;  3.9139176E+04;  1.6463392E+00;  0.0000000E+00;  4.9193807E-02;  3.5275403E+03;
  1.4732443E+00;  9.9999998E-03; -2.3281945E-01;9537;  1.0907619E+00;  0.0000000E+00;  1.5142011E-02;  9.9168365E+02;  1.1511633E-01; -6.4540239E+03;3; -1.5785892E+02;  0.0000000E+00; -7.9925313E+00;0;  2.0116141E+00;  3.0328049E+04;  0.0000000E+00;  8.9125719E+00;  4.0000000E+04;  0.0000000E+00;  3.9147355E+04;  2.0456734E+00;  0.0000000E+00; -3.4059379E-02;  1.4102699E+04;
  1.4736742E+00;  9.9999998E-03; -2.2273754E-01;9538;  1.1329787E+00;  0.0000000E+00;  1.6551485E-02;  9.8995953E+02;  1.1511530E-01; -7.7890903E+03;3; -1.4819431E+02;  0.0000000E+00; -4.6208754E+00;0;  2.2425461E+00;  3.0227225E+04;  0.0000000E+00;  2.1111507E+01;  4.0000000E+04;  0.0000000E+00;  3.9149855E+04;  2.3595355E+00;  0.0000000E+00; -1.1698949E-01;  2.6429617E+04;
  1.4740989E+00;  9.9999998E-03; -2.1264203E-01;9539;  1.1736877E+00;  0.0000000E+00;  1.7899623E-02;  9.8888690E+02;  1.1511215E-01; -8.6179551E+03;3; -1.3928590E+02;  0.0000000E+00; -5.2781612E-01;0;  2.4078350E+00;  3.0172018E+04;  0.0000000E+00;  3.1078077E+01;  4.0000000E+04;  0.0000000E+00;  3.9146094E+04;  2.5874355E+00;  0.0000000E+00; -1.7960049E-01;  3.5574582E+04;
  1.4744490E+00;  9.9999998E-03; -2.0252803E-01;9540;  1.2113079E+00;  0.0000000E+00;  1.9122953E-02;  9.8895581E+02;  1.1510319E-01; -8.5618398E+03;3; -1.3141879E+02;  0.0000000E+00;  2.7832377E+00;0;  2.5061433E+00;  3.0189387E+04;  0.0000000E+00;  3.8280716E+01;  4.0000000E+04;  0.0000000E+00;  3.9138645E+04;  2.7267625E+00;  0.0000000E+00; -2.2061926E-01;  4.1442789E+04;
  1.4746634E+00;  9.9999998E-03; -1.9238238E-01;9541;  1.2452179E+00;  0.0000000E+00;  1.9701248E-02;  9.9023907E+02;  1.1508811E-01; -7.5655361E+03;3; -1.2269965E+02;  0.0000000E+00;  5.4258146E+00;0;  2.5496585E+00;  3.0277381E+04;  0.0000000E+00;  4.3068123E+01;  4.0000000E+04;  0.0000000E+00;  3.9132852E+04;  2.7892036E+00;  0.0000000E+00; -2.3954508E-01;  4.4483973E+04;
  1.4747186E+00;  9.9999998E-03; -1.8216352E-01;9542;  1.2731165E+00;  0.0000000E+00;  1.9077860E-02;  9.9247034E+02;  1.1507180E-01; -5.8358462E+03;3; -1.1296342E+02;  0.0000000E+00;  7.6761508E+00;0;  2.5451784E+00;  3.0410623E+04;  0.0000000E+00;  4.5029636E+01;  4.0000000E+04;  0.0000000E+00;  3.9140660E+04;  2.7858238E+00;  0.0000000E+00; -2.4064541E-01;  4.4711473E+04;
  1.4747058E+00;  9.9999998E-03; -1.7184830E-01;9543;  1.2943507E+00;  0.0000000E+00;  1.7925248E-02;  9.9481409E+02;  1.1505550E-01; -4.0193594E+03;3; -1.0258532E+02;  0.0000000E+00;  8.6535044E+00;0;  2.5039263E+00;  3.0544527E+04;  0.0000000E+00;  4.2358624E+01;  4.0000000E+04;  0.0000000E+00;  3.9156195E+04;  2.7377942E+00;  0.0000000E+00; -2.3386781E-01;  4.1013844E+04;
  1.4747818E+00;  9.9999998E-03; -1.6151394E-01;9544;  1.3124149E+00;  0.0000000E+00;  1.6734205E-02;  9.9641278E+02;  1.1504088E-01; -2.7801230E+03;3; -9.1648941E+01;  0.0000000E+00;  1.0098224E+01;0;  2.4486275E+00;  3.0647207E+04;  0.0000000E+00;  3.4753746E+01;  4.0000000E+04;  0.0000000E+00;  3.9155887E+04;  2.6723168E+00;  0.0000000E+00; -2.2368942E-01;  3.3430832E+04;
  1.4750170E+00;  9.9999998E-03; -1.5125403E-01;9545;  1.3290933E+00;  0.0000000E+00;  1.5488775E-02;  9.9722284E+02;  1.1502837E-01; -2.1518477E+03;3; -8.0868187E+01;  0.0000000E+00;  1.0130633E+01;0;  2.3901505E+00;  3.0717020E+04;  0.0000000E+00;  2.5137577E+01;  4.0000000E+04;  0.0000000E+00;  3.9136188E+04;  2.6015041E+00;  0.0000000E+00; -2.1135344E-01;  2.4430002E+04;
  1.4753503E+00;  9.9999998E-03; -1.4108746E-01;9546;  1.3446507E+00;  0.0000000E+00;  1.4029870E-02;  9.9764691E+02;  1.1501619E-01; -1.8226996E+03;3; -7.2627213E+01;  0.0000000E+00;  1.0716287E+01;0;  2.3326497E+00;  3.0768066E+04;  0.0000000E+00;  1.6520327E+01;  4.0000000E+04;  0.0000000E+00;  3.9110734E+04;  2.5297980E+00;  0.0000000E+00; -1.9714829E-01;  1.6513857E+04;
  1.4756862E+00;  9.9999998E-03; -1.3098878E-01;9547;  1.3578978E+00;  0.0000000E+00;  1.2277900E-02;  9.9797852E+02;  1.1500581E-01; -1.5653778E+03;3; -6.5828514E+01;  0.0000000E+00;  1.0320529E+01;0;  2.2769976E+00;  3.0808545E+04;  0.0000000E+00;  1.0006786E+01;  4.0000000E+04;  0.0000000E+00;  3.9090602E+04;  2.4586623E+00;  0.0000000E+00; -1.8166475E-01;  1.0633378E+04;
  1.4759643E+00;  9.9999998E-03; -1.2092956E-01;9548;  1.3681831E+00;  0.0000000E+00;  1.0382943E-02;  9.9830249E+02;  1.1499929E-01; -1.3141411E+03;3; -6.0550793E+01;  0.0000000E+00;  1.0092797E+01;0;  2.2246671E+00;  3.0839684E+04;  0.0000000E+00;  5.4982567E+00;  4.0000000E+04;  0.0000000E+00;  3.9079371E+04;  2.3900928E+00;  0.0000000E+00; -1.6542578E-01;  6.7205503E+03;
  1.4761670E+00;  9.9999998E-03; -1.1089113E-01;9549;  1.3755029E+00;  0.0000000E+00;  8.5625453E-03;  9.9856427E+02;  1.1499340E-01; -1.1113159E+03;3; -5.6672440E+01;  0.0000000E+00;  9.4334612E+00;0;  2.1767056E+00;  3.0860418E+04;  0.0000000E+00;  2.5690861E+00;  4.0000000E+04;  0.0000000E+00;  3.9075934E+04;  2.3255270E+00;  0.0000000E+00; -1.4882128E-01;  4.3799805E+03;
  1.4840416E+00;  9.9999998E-03; -2.4308823E-01;9586;  1.0800431E+00;  0.0000000E+00;  8.3616748E-03;  9.9444446E+02;  1.1434702E-01; -4.2678047E+03;3; -1.7159705E+02;  0.0000000E+00; -1.2923132E+01;0;  1.7625097E+00;  3.0964941E+04;  0.0000000E+00;  4.4175267E+00;  4.0000000E+04;  0.0000000E+00;  3.9066258E+04;  1.7064625E+00;  0.0000000E+00;  5.6047224E-02;  2.2290740E+03;
  1.4843632E+00;  9.9999998E-03; -2.3303087E-01;9587;  1.1200714E+00;  0.0000000E+00;  7.9350164E-03;  9.9348755E+02;  1.1434632E-01; -5.0012739E+03;3; -1.6253922E+02;  0.0000000E+00; -1.0290069E+01;0;  2.0569479E+00;  3.0906123E+04;  0.0000000E+00; -3.5169926E-01;  4.0000000E+04;  0.0000000E+00;  3.9071875E+04;  2.0692122E+00;  0.0000000E+00; -1.2264144E-02;  3.7206377E+03;
  1.4846970E+00;  9.9999998E-03; -2.2296087E-01;9588;  1.1586574E+00;  0.0000000E+00;  7.7645164E-03;  9.9207159E+02;  1.1434548E-01; -6.0866201E+03;3; -1.5249905E+02;  0.0000000E+00; -7.5537791E+00;0;  2.2811196E+00;  3.0823045E+04;  0.0000000E+00;  9.5544958E+00;  4.0000000E+04;  0.0000000E+00;  3.9071809E+04;  2.3590889E+00;  0.0000000E+00; -7.7969328E-02;  1.3582045E+04;
  1.4850706E+00;  9.9999998E-03; -2.1287988E-01;9589;  1.1961583E+00;  0.0000000E+00;  8.8141523E-03;  9.9055121E+02;  1.1434612E-01; -7.2510278E+03;3; -1.4331795E+02;  0.0000000E+00; -3.9321020E+00;0;  2.4308159E+00;  3.0739508E+04;  0.0000000E+00;  2.2124315E+01;  4.0000000E+04;  0.0000000E+00;  3.9064961E+04;  2.5756767E+00;  0.0000000E+00; -1.4486077E-01;  2.4551922E+04;
  1.4854288E+00;  9.9999998E-03; -2.0278382E-01;9590;  1.2316161E+00;  0.0000000E+00;  1.0110565E-02;  9.8972137E+02;  1.1434294E-01; -7.8850010E+03;3; -1.3431735E+02;  0.0000000E+00; -2.9085922E-01;0;  2.5176752E+00;  3.0702703E+04;  0.0000000E+00;  3.2505013E+01;  4.0000000E+04;  0.0000000E+00;  3.9054582E+04;  2.7129865E+00;  0.0000000E+00; -1.9531122E-01;  3.2907984E+04;
  1.4857233E+00;  9.9999998E-03; -1.9266436E-01;9591;  1.2650498E+00;  0.0000000E+00;  1.0981117E-02;  9.8996460E+02;  1.1433642E-01; -7.6960840E+03;3; -1.2514222E+02;  0.0000000E+00;  3.3777475E+00;0;  2.5553050E+00;  3.0730471E+04;  0.0000000E+00;  3.9810753E+01;  4.0000000E+04;  0.0000000E+00;  3.9044895E+04;  2.7787640E+00;  0.0000000E+00; -2.2345908E-01;  3.8159254E+04;
  1.4859055E+00;  9.9999998E-03; -1.8250240E-01;9592;  1.2954552E+00;  0.0000000E+00;  1.1202172E-02;  9.9131464E+02;  1.1432309E-01; -6.6594976E+03;3; -1.1477238E+02;  0.0000000E+00;  5.7916260E+00;0;  2.5482273E+00;  3.0819859E+04;  0.0000000E+00;  4.4360622E+01;  4.0000000E+04;  0.0000000E+00;  3.9042711E+04;  2.7809045E+00;  0.0000000E+00; -2.3267734E-01;  4.0688527E+04;
  1.4859660E+00;  9.9999998E-03; -1.7225356E-01;9593;  1.3203495E+00;  0.0000000E+00;  1.0367537E-02;  9.9348706E+02;  1.1430828E-01; -4.9934912E+03;3; -1.0370148E+02;  0.0000000E+00;  7.5522761E+00;0;  2.5001738E+00;  3.0946410E+04;  0.0000000E+00;  4.5947937E+01;  4.0000000E+04;  0.0000000E+00;  3.9056508E+04;  2.7272565E+00;  0.0000000E+00; -2.2708282E-01;  4.0628336E+04;
  1.4859933E+00;  9.9999998E-03; -1.6191269E-01;9594;  1.3392956E+00;  0.0000000E+00;  9.1811605E-03;  9.9564459E+02;  1.1429328E-01; -3.3392283E+03;3; -9.3019440E+01;  0.0000000E+00;  9.1853800E+00;0;  2.4230430E+00;  3.1069230E+04;  0.0000000E+00;  4.2906261E+01;  4.0000000E+04;  0.0000000E+00;  3.9074648E+04;  2.6377971E+00;  0.0000000E+00; -2.1475416E-01;  3.7080047E+04;
  1.4861203E+00;  9.9999998E-03; -1.5156192E-01;9595;  1.3543321E+00;  0.0000000E+00;  7.8062932E-03;  9.9706604E+02;  1.1428136E-01; -2.2491338E+03;3; -8.0770668E+01;  0.0000000E+00;  9.6884232E+00;0;  2.3364670E+00;  3.1160566E+04;  0.0000000E+00;  3.5154835E+01;  4.0000000E+04;  0.0000000E+00;  3.9076074E+04;  2.5351717E+00;  0.0000000E+00; -1.9870463E-01;  3.0227064E+04;
  1.4863980E+00;  9.9999998E-03; -1.4128470E-01;9596;  1.3673266E+00;  0.0000000E+00;  6.5184832E-03;  9.9774512E+02;  1.1426917E-01; -1.7280726E+03;3; -7.0540306E+01;  0.0000000E+00;  1.0139902E+01;0;  2.2522628E+00;  3.1221238E+04;  0.0000000E+00;  2.5510994E+01;  4.0000000E+04;  0.0000000E+00;  3.9059359E+04;  2.4327300E+00;  0.0000000E+00; -1.8046717E-01;  2.2200922E+04;
  1.4867685E+00;  9.9999998E-03; -1.3109966E-01;9597;  1.3793879E+00;  0.0000000E+00;  5.0333231E-03;  9.9807239E+02;  1.1425728E-01; -1.4766847E+03;3; -6.1846230E+01;  0.0000000E+00;  9.8823013E+00;0;  2.1755583E+00;  3.1265053E+04;  0.0000000E+00;  1.6785164E+01;  4.0000000E+04;  0.0000000E+00;  3.9036477E+04;  2.3356819E+00;  0.0000000E+00; -1.6012366E-01;  1.5095484E+04;
  1.4871354E+00;  9.9999998E-03; -1.2098372E-01;9598;  1.3897588E+00;  0.0000000E+00;  3.3643923E-03;  9.9834845E+02;  1.1424821E-01; -1.2646997E+03;3; -5.5049595E+01;  0.0000000E+00;  9.6978779E+00;0;  2.1061919E+00;  3.1301096E+04;  0.0000000E+00;  1.0099924E+01;  4.0000000E+04;  0.0000000E+00;  3.9017824E+04;  2.2445133E+00;  0.0000000E+00; -1.3832149E-01;  9.7838896E+03;
  1.4874299E+00;  9.9999998E-03; -1.1090983E-01;9599;  1.3974738E+00;  0.0000000E+00;  1.7392044E-03;  9.9862830E+02;  1.1423966E-01; -1.0500796E+03;3; -4.9910702E+01;  0.0000000E+00;  9.3019333E+00;0;  2.0437751E+00;  3.1330801E+04;  0.0000000E+00;  5.4294720E+00;  4.0000000E+04;  0.0000000E+00;  3.9006891E+04;  2.1596539E+00;  0.0000000E+00; -1.1587888E-01;  6.2879785E+03;
  1.4954718E+00;  9.9999998E-03; -2.3323455E-01;9635;  1.1514148E+00;  0.0000000E+00;  2.7062967E-03;  9.9484839E+02;  1.1368714E-01; -3.9092656E+03;3; -1.6573106E+02;  0.0000000E+00; -1.1044976E+01;0;  2.0483930E+00;  3.1409498E+04;  0.0000000E+00;  2.0760107E+00;  4.0000000E+04;  0.0000000E+00;  3.8995812E+04;  2.0598605E+00;  0.0000000E+00; -1.1467561E-02;  2.2653271E+03;
  1.4957502E+00;  9.9999998E-03; -2.2317511E-01;9636;  1.1864051E+00;  0.0000000E+00;  1.8756273E-03;  9.9397113E+02;  1.1368543E-01; -4.5735098E+03;3; -1.5635715E+02;  0.0000000E+00; -8.8626719E+00;0;  2.2506933E+00;  3.1360066E+04;  0.0000000E+00; -1.5682590E+00;  4.0000000E+04;  0.0000000E+00;  3.8994367E+04;  2.3168302E+00;  0.0000000E+00; -6.6136852E-02;  3.1132720E+03;
  1.4960401E+00;  9.9999998E-03; -2.1310440E-01;9637;  1.2195746E+00;  0.0000000E+00;  1.8661534E-03;  9.9269482E+02;  1.1368565E-01; -5.5398745E+03;3; -1.4638449E+02;  0.0000000E+00; -6.2505922E+00;0;  2.3862684E+00;  3.1289713E+04;  0.0000000E+00;  8.6983061E+00;  4.0000000E+04;  0.0000000E+00;  3.8986465E+04;  2.5093584E+00;  0.0000000E+00; -1.2308998E-01;  1.1632327E+04;
  1.4963577E+00;  9.9999998E-03; -2.0302340E-01;9638;  1.2530016E+00;  0.0000000E+00;  2.3787210E-03;  9.9138245E+02;  1.1368634E-01; -6.5327192E+03;3; -1.3614653E+02;  0.0000000E+00; -3.1218989E+00;0;  2.4783750E+00;  3.1223070E+04;  0.0000000E+00;  2.1681494E+01;  4.0000000E+04;  0.0000000E+00;  3.8972117E+04;  2.6503406E+00;  0.0000000E+00; -1.7196557E-01;  2.1551518E+04;
  1.4966629E+00;  9.9999998E-03; -1.9292536E-01;9639;  1.2847661E+00;  0.0000000E+00;  2.8780922E-03;  9.9071002E+02;  1.1368500E-01; -7.0399595E+03;3; -1.2654182E+02;  0.0000000E+00;  1.4343289E-01;0;  2.5196834E+00;  3.1197758E+04;  0.0000000E+00;  3.2524158E+01;  4.0000000E+04;  0.0000000E+00;  3.8957230E+04;  2.7239971E+00;  0.0000000E+00; -2.0431383E-01;  2.9305227E+04;
  1.4969207E+00;  9.9999998E-03; -1.8279809E-01;9640;  1.3144826E+00;  0.0000000E+00;  2.8655468E-03;  9.9100555E+02;  1.1367944E-01; -6.8139761E+03;3; -1.1603914E+02;  0.0000000E+00;  3.4398041E+00;0;  2.5175028E+00;  3.1227836E+04;  0.0000000E+00;  4.0058857E+01;  4.0000000E+04;  0.0000000E+00;  3.8947477E+04;  2.7351472E+00;  0.0000000E+00; -2.1764448E-01;  3.4135086E+04;
  1.4970975E+00;  9.9999998E-03; -1.7261824E-01;9641;  1.3410720E+00;  0.0000000E+00;  2.4531134E-03;  9.9228589E+02;  1.1366741E-01; -5.8428008E+03;3; -1.0509599E+02;  0.0000000E+00;  5.8619409E+00;0;  2.4742832E+00;  3.1310428E+04;  0.0000000E+00;  4.4490288E+01;  4.0000000E+04;  0.0000000E+00;  3.8949371E+04;  2.6911592E+00;  0.0000000E+00; -2.1687606E-01;  3.6331066E+04;
  1.4971888E+00;  9.9999998E-03; -1.6234846E-01;9642;  1.3629203E+00;  0.0000000E+00;  1.3481996E-03;  9.9427094E+02;  1.1365413E-01; -4.3388521E+03;3; -9.3683357E+01;  0.0000000E+00;  7.9033294E+00;0;  2.3974960E+00;  3.1424418E+04;  0.0000000E+00;  4.5792759E+01;  4.0000000E+04;  0.0000000E+00;  3.8966430E+04;  2.6020763E+00;  0.0000000E+00; -2.0458028E-01;  3.6115441E+04;
  1.4972686E+00;  9.9999998E-03; -1.5199664E-01;9643;  1.3791274E+00;  0.0000000E+00; -1.2024168E-04;  9.9619885E+02;  1.1364070E-01; -2.8785027E+03;3; -8.1434746E+01;  0.0000000E+00;  9.1951160E+00;0;  2.2978966E+00;  3.1534057E+04;  0.0000000E+00;  4.2641647E+01;  4.0000000E+04;  0.0000000E+00;  3.8985344E+04;  2.4837184E+00;  0.0000000E+00; -1.8582182E-01;  3.2911090E+04;
  1.4974395E+00;  9.9999998E-03; -1.4163822E-01;9644;  1.3906010E+00;  0.0000000E+00; -1.4765214E-03;  9.9746899E+02;  1.1362992E-01; -1.9162572E+03;3; -6.9435905E+01;  0.0000000E+00;  9.0617380E+00;0;  2.1916931E+00;  3.1615037E+04;  0.0000000E+00;  3.5148937E+01;  4.0000000E+04;  0.0000000E+00;  3.8988926E+04;  2.3555551E+00;  0.0000000E+00; -1.6386202E-01;  2.6996619E+04;
  1.4977394E+00;  9.9999998E-03; -1.3134632E-01;9645;  1.3996689E+00;  0.0000000E+00; -2.7996001E-03;  9.9805841E+02;  1.1361828E-01; -1.4694738E+03;3; -5.9030056E+01;  0.0000000E+00;  9.2284374E+00;0;  2.0935359E+00;  3.1667869E+04;  0.0000000E+00;  2.5785627E+01;  4.0000000E+04;  0.0000000E+00;  3.8976008E+04;  2.2326536E+00;  0.0000000E+00; -1.3911775E-01;  2.0052932E+04;
  1.4981217E+00;  9.9999998E-03; -1.2114414E-01;9646;  1.4079306E+00;  0.0000000E+00; -4.2051785E-03;  9.9832239E+02;  1.1360928E-01; -1.2691483E+03;3; -5.0551418E+01;  0.0000000E+00;  8.5157166E+00;0;  2.0084405E+00;  3.1704986E+04;  0.0000000E+00;  1.7086308E+01;  4.0000000E+04;  0.0000000E+00;  3.8956406E+04;  2.1207111E+00;  0.0000000E+00; -1.1227050E-01;  1.3769378E+04;
  1.4984956E+00;  9.9999998E-03; -1.1101102E-01;9647;  1.4150209E+00;  0.0000000E+00; -5.5558896E-03;  9.9854095E+02;  1.1360119E-01; -1.1033108E+03;3; -4.4054146E+01;  0.0000000E+00;  7.8780074E+00;0;  1.9349028E+00;  3.1736312E+04;  0.0000000E+00;  1.0283206E+01;  4.0000000E+04;  0.0000000E+00;  3.8939270E+04;  2.0191963E+00;  0.0000000E+00; -8.4293440E-02;  9.0020918E+03;
  1.5064383E+00;  9.9999998E-03; -2.3342279E-01;9682;  1.1779313E+00;  0.0000000E+00; -3.9263493E-03;  9.9683655E+02;  1.1311818E-01; -2.3688113E+03;3; -1.6614558E+02;  0.0000000E+00; -1.1698575E+01;0;  1.9785752E+00;  3.1905908E+04;  0.0000000E+00;  2.5151005E+01;  4.0000000E+04;  0.0000000E+00;  3.8922066E+04;  1.9634668E+00;  0.0000000E+00;  1.5108433E-02;  9.9533496E+03;
  1.5068040E+00;  9.9999998E-03; -2.2337887E-01;9683;  1.2151530E+00;  0.0000000E+00; -3.4418146E-03;  9.9536237E+02;  1.1312407E-01; -3.4710632E+03;3; -1.5935199E+02;  0.0000000E+00; -8.3554335E+00;0;  2.1831541E+00;  3.1822109E+04;  0.0000000E+00;  6.1539090E-01;  4.0000000E+04;  0.0000000E+00;  3.8916012E+04;  2.2402000E+00;  0.0000000E+00; -5.7045996E-02;  2.2315413E+03;
  1.5070478E+00;  9.9999998E-03; -2.1331751E-01;9684;  1.2463825E+00;  0.0000000E+00; -4.4016382E-03;  9.9457410E+02;  1.1312313E-01; -4.0597664E+03;3; -1.4964156E+02;  0.0000000E+00; -6.9119883E+00;0;  2.3176572E+00;  3.1781541E+04;  0.0000000E+00; -3.2910540E+00;  4.0000000E+04;  0.0000000E+00;  3.8908465E+04;  2.4206259E+00;  0.0000000E+00; -1.0296878E-01;  2.2171477E+03;
  1.5072955E+00;  9.9999998E-03; -2.0324600E-01;9685;  1.2759904E+00;  0.0000000E+00; -4.7654798E-03;  9.9346283E+02;  1.1312392E-01; -4.8896646E+03;3; -1.3920901E+02;  0.0000000E+00; -5.0531964E+00;0;  2.4005587E+00;  3.1725965E+04;  0.0000000E+00;  6.6959152E+00;  4.0000000E+04;  0.0000000E+00;  3.8893094E+04;  2.5472689E+00;  0.0000000E+00; -1.4671010E-01;  9.0228428E+03;
  1.5075641E+00;  9.9999998E-03; -1.9316415E-01;9686;  1.3058006E+00;  0.0000000E+00; -4.8617157E-03;  9.9232703E+02;  1.1312424E-01; -5.7371870E+03;3; -1.2876691E+02;  0.0000000E+00; -2.0020008E+00;0;  2.4516144E+00;  3.1674014E+04;  0.0000000E+00;  1.9886475E+01;  4.0000000E+04;  0.0000000E+00;  3.8872555E+04;  2.6315629E+00;  0.0000000E+00; -1.7994869E-01;  1.7940135E+04;
  1.5078260E+00;  9.9999998E-03; -1.8306281E-01;9687;  1.3340486E+00;  0.0000000E+00; -5.0525614E-03;  9.9176117E+02;  1.1312325E-01; -6.1582061E+03;3; -1.1839498E+02;  0.0000000E+00;  1.0732404E+00;0;  2.4598343E+00;  3.1657006E+04;  0.0000000E+00;  3.1129978E+01;  4.0000000E+04;  0.0000000E+00;  3.8854512E+04;  2.6579578E+00;  0.0000000E+00; -1.9812354E-01;  2.5102105E+04;
  1.5080566E+00;  9.9999998E-03; -1.7292531E-01;9688;  1.3597430E+00;  0.0000000E+00; -5.8080917E-03;  9.9205231E+02;  1.1311743E-01; -5.9387793E+03;3; -1.0651160E+02;  0.0000000E+00;  3.5150023E+00;0;  2.4275618E+00;  3.1686375E+04;  0.0000000E+00;  3.8974438E+01;  4.0000000E+04;  0.0000000E+00;  3.8845887E+04;  2.6271701E+00;  0.0000000E+00; -1.9960843E-01;  2.9618826E+04;
  1.5082386E+00;  9.9999998E-03; -1.6272794E-01;9689;  1.3821144E+00;  0.0000000E+00; -6.8388386E-03;  9.9319904E+02;  1.1310788E-01; -5.0806899E+03;3; -9.4727188E+01;  0.0000000E+00;  5.8629279E+00;0;  2.3594403E+00;  3.1757885E+04;  0.0000000E+00;  4.3386066E+01;  4.0000000E+04;  0.0000000E+00;  3.8851211E+04;  2.5489454E+00;  0.0000000E+00; -1.8950517E-01;  3.1598939E+04;
  1.5083747E+00;  9.9999998E-03; -1.5244687E-01;9690;  1.3999760E+00;  0.0000000E+00; -8.3567109E-03;  9.9488995E+02;  1.1309581E-01; -3.8167937E+03;3; -8.1863914E+01;  0.0000000E+00;  7.5671301E+00;0;  2.2642517E+00;  3.1853479E+04;  0.0000000E+00;  4.4405155E+01;  4.0000000E+04;  0.0000000E+00;  3.8869266E+04;  2.4340320E+00;  0.0000000E+00; -1.6978019E-01;  3.1283498E+04;
  1.5085121E+00;  9.9999998E-03; -1.4209971E-01;9691;  1.4124951E+00;  0.0000000E+00; -9.8986020E-03;  9.9653516E+02;  1.1308616E-01; -2.5874839E+03;3; -6.8945251E+01;  0.0000000E+00;  8.4791918E+00;0;  2.1521008E+00;  3.1946486E+04;  0.0000000E+00;  4.1300671E+01;  4.0000000E+04;  0.0000000E+00;  3.8887184E+04;  2.2967951E+00;  0.0000000E+00; -1.4469427E-01;  2.8495270E+04;
  1.5087107E+00;  9.9999998E-03; -1.3174672E-01;9692;  1.4203959E+00;  0.0000000E+00; -1.1225292E-02;  9.9767725E+02;  1.1307717E-01; -1.7341356E+03;3; -5.7197880E+01;  0.0000000E+00;  8.1394854E+00;0;  2.0385196E+00;  3.2018172E+04;  0.0000000E+00;  3.4432449E+01;  4.0000000E+04;  0.0000000E+00;  3.8892340E+04;  2.1547422E+00;  0.0000000E+00; -1.1622265E-01;  2.3620607E+04;
  1.5090011E+00;  9.9999998E-03; -1.2144479E-01;9693;  1.4253707E+00;  0.0000000E+00; -1.2250490E-02;  9.9823889E+02;  1.1306709E-01; -1.3143049E+03;3; -4.7430824E+01;  0.0000000E+00;  7.1774526E+00;0;  1.9355638E+00;  3.2065797E+04;  0.0000000E+00;  2.5759279E+01;  4.0000000E+04;  0.0000000E+00;  3.8883664E+04;  2.0209212E+00;  0.0000000E+00; -8.5357487E-02;  1.7867379E+04;
  1.5093577E+00;  9.9999998E-03; -1.1122199E-01;9694;  1.4296347E+00;  0.0000000E+00; -1.3072139E-02;  9.9846808E+02;  1.1305948E-01; -1.1427271E+03;3; -3.9814163E+01;  0.0000000E+00;  5.9197693E+00;0;  1.8496670E+00;  3.2097354E+04;  0.0000000E+00;  1.7393108E+01;  4.0000000E+04;  0.0000000E+00;  3.8868383E+04;  1.9025123E+00;  0.0000000E+00; -5.2845351E-02;  1.2495205E+04;
  1.5177263E+00;  9.9999998E-03; -2.2356065E-01;9729;  1.2380165E+00;  0.0000000E+00; -1.0993643E-02;  9.9737152E+02;  1.1264089E-01; -1.9381689E+03;3; -1.5824736E+02;  0.0000000E+00; -9.6061068E+00;0;  2.0585330E+00;  3.2278732E+04;  0.0000000E+00;  2.6650295E+01;  4.0000000E+04;  0.0000000E+00;  3.8843461E+04;  2.0711246E+00;  0.0000000E+00; -1.2591670E-02;  1.0138878E+04;
  1.5180540E+00;  9.9999998E-03; -2.1351729E-01;9730;  1.2725507E+00;  0.0000000E+00; -1.0677686E-02;  9.9595154E+02;  1.1264695E-01; -2.9837869E+03;3; -1.5114050E+02;  0.0000000E+00; -6.5211778E+00;0;  2.2156038E+00;  3.2203105E+04;  0.0000000E+00;  1.2047304E-01;  4.0000000E+04;  0.0000000E+00;  3.8829012E+04;  2.2927656E+00;  0.0000000E+00; -7.7161893E-02;  2.1544031E+03;
  1.5182694E+00;  9.9999998E-03; -2.0345357E-01;9731;  1.3013126E+00;  0.0000000E+00; -1.1484971E-02;  9.9525073E+02;  1.1264759E-01; -3.4991748E+03;3; -1.4126660E+02;  0.0000000E+00; -4.7189317E+00;0;  2.3066809E+00;  3.2171957E+04;  0.0000000E+00; -5.2032204E+00;  4.0000000E+04;  0.0000000E+00;  3.8815223E+04;  2.4252079E+00;  0.0000000E+00; -1.1852703E-01;  1.7613436E+03;
  1.5184814E+00;  9.9999998E-03; -1.9337863E-01;9732;  1.3279771E+00;  0.0000000E+00; -1.1991995E-02;  9.9432855E+02;  1.1264767E-01; -4.1773564E+03;3; -1.3073700E+02;  0.0000000E+00; -2.8938451E+00;0;  2.3532255E+00;  3.2131406E+04;  0.0000000E+00;  3.7609513E+00;  4.0000000E+04;  0.0000000E+00;  3.8794742E+04;  2.5059299E+00;  0.0000000E+00; -1.5270455E-01;  6.1878848E+03;
  1.5187098E+00;  9.9999998E-03; -1.8329230E-01;9733;  1.3543890E+00;  0.0000000E+00; -1.2564897E-02;  9.9337390E+02;  1.1264791E-01; -4.8788755E+03;3; -1.1920758E+02;  0.0000000E+00; -8.6290687E-01;0;  2.3756108E+00;  3.2093645E+04;  0.0000000E+00;  1.6641836E+01;  4.0000000E+04;  0.0000000E+00;  3.8770066E+04;  2.5488553E+00;  0.0000000E+00; -1.7324451E-01;  1.3942635E+04;
  1.5189377E+00;  9.9999998E-03; -1.7318442E-01;9734;  1.3791424E+00;  0.0000000E+00; -1.3353577E-02;  9.9290491E+02;  1.1264731E-01; -5.2224932E+03;3; -1.0784064E+02;  0.0000000E+00;  1.9579700E+00;0;  2.3631208E+00;  3.2083324E+04;  0.0000000E+00;  2.7915619E+01;  4.0000000E+04;  0.0000000E+00;  3.8749574E+04;  2.5418093E+00;  0.0000000E+00; -1.7868842E-01;  2.0352145E+04;
  1.5191483E+00;  9.9999998E-03; -1.6303498E-01;9735;  1.4007148E+00;  0.0000000E+00; -1.4658405E-02;  9.9317798E+02;  1.1264206E-01; -5.0199653E+03;3; -9.5201981E+01;  0.0000000E+00;  4.2299185E+00;0;  2.3119698E+00;  3.2110449E+04;  0.0000000E+00;  3.5994637E+01;  4.0000000E+04;  0.0000000E+00;  3.8741875E+04;  2.4812686E+00;  0.0000000E+00; -1.6929889E-01;  2.4536439E+04;
  1.5193363E+00;  9.9999998E-03; -1.5282460E-01;9736;  1.4184763E+00;  0.0000000E+00; -1.6517734E-02;  9.9413397E+02;  1.1263563E-01; -4.3153110E+03;3; -8.1843964E+01;  0.0000000E+00;  6.9020495E+00;0;  2.2302828E+00;  3.2169076E+04;  0.0000000E+00;  4.0547741E+01;  4.0000000E+04;  0.0000000E+00;  3.8748668E+04;  2.3782837E+00;  0.0000000E+00; -1.4800096E-01;  2.6426771E+04;
  1.5195050E+00;  9.9999998E-03; -1.4254501E-01;9737;  1.4317393E+00;  0.0000000E+00; -1.8489193E-02;  9.9549042E+02;  1.1262593E-01; -3.3166055E+03;3; -6.8113045E+01;  0.0000000E+00;  7.4198136E+00;0;  2.1257806E+00;  3.2245611E+04;  0.0000000E+00;  4.1530472E+01;  4.0000000E+04;  0.0000000E+00;  3.8764699E+04;  2.2458024E+00;  0.0000000E+00; -1.2002186E-01;  2.6187482E+04;
  1.5196784E+00;  9.9999998E-03; -1.3221385E-01;9738;  1.4400012E+00;  0.0000000E+00; -2.0046396E-02;  9.9683002E+02;  1.1261691E-01; -2.3307798E+03;3; -5.5678135E+01;  0.0000000E+00;  7.4337506E+00;0;  2.0092018E+00;  3.2321707E+04;  0.0000000E+00;  3.8782047E+01;  4.0000000E+04;  0.0000000E+00;  3.8780227E+04;  2.0975816E+00;  0.0000000E+00; -8.8379882E-02;  2.3944746E+04;
  1.5198866E+00;  9.9999998E-03; -1.2187050E-01;9739;  1.4439107E+00;  0.0000000E+00; -2.1116950E-02;  9.9783099E+02;  1.1260851E-01; -1.5943268E+03;3; -4.5007450E+01;  0.0000000E+00;  6.5050564E+00;0;  1.8945868E+00;  3.2383762E+04;  0.0000000E+00;  3.2905525E+01;  4.0000000E+04;  0.0000000E+00;  3.8786992E+04;  1.9486645E+00;  0.0000000E+00; -5.4077685E-02;  2.0158721E+04;
  1.5201496E+00;  9.9999998E-03; -1.1156133E-01;9740;  1.4451807E+00;  0.0000000E+00; -2.1495521E-02;  9.9837817E+02;  1.1260071E-01; -1.1916685E+03;3; -3.6550289E+01;  0.0000000E+00;  3.9458568E+00;0;  1.7930303E+00;  3.2426004E+04;  0.0000000E+00;  2.5294050E+01;  4.0000000E+04;  0.0000000E+00;  3.8783191E+04;  1.8114923E+00;  0.0000000E+00; -1.8462067E-02;  1.5620579E+04;
  1.5289298E+00;  9.9999998E-03; -2.1368657E-01;9774;  1.2919203E+00;  0.0000000E+00; -1.9264044E-02;  9.9804352E+02;  1.1223698E-01; -1.4182334E+03;3; -1.4841273E+02;  0.0000000E+00; -7.4387379E+00;0;  2.0537121E+00;  3.2626830E+04;  0.0000000E+00;  2.9922279E+01;  4.0000000E+04;  0.0000000E+00;  3.8759910E+04;  2.0682893E+00;  0.0000000E+00; -1.4577130E-02;  1.0731294E+04;
  1.5292319E+00;  9.9999998E-03; -2.0364328E-01;9775;  1.3241836E+00;  0.0000000E+00; -1.8813059E-02;  9.9660931E+02;  1.1224327E-01; -2.4566938E+03;3; -1.4050119E+02;  0.0000000E+00; -4.9476399E+00;0;  2.1778305E+00;  3.2555832E+04;  0.0000000E+00;  9.7693330E-01;  4.0000000E+04;  0.0000000E+00;  3.8736812E+04;  2.2541931E+00;  0.0000000E+00; -7.6362692E-02;  2.0727583E+03;
  1.5294285E+00;  9.9999998E-03; -1.9357470E-01;9776;  1.3512447E+00;  0.0000000E+00; -1.9365314E-02;  9.9599976E+02;  1.1224509E-01; -2.8974434E+03;3; -1.3061244E+02;  0.0000000E+00; -3.1064429E+00;0;  2.2466881E+00;  3.2533199E+04;  0.0000000E+00; -6.9133639E+00;  4.0000000E+04;  0.0000000E+00;  3.8718203E+04;  2.3612235E+00;  0.0000000E+00; -1.1453542E-01;  2.0948831E+03;
  1.5296129E+00;  9.9999998E-03; -1.8349138E-01;9777;  1.3753184E+00;  0.0000000E+00; -2.0027414E-02;  9.9528864E+02;  1.1224577E-01; -3.4115220E+03;3; -1.1964360E+02;  0.0000000E+00; -1.1719953E+00;0;  2.2730713E+00;  3.2508070E+04;  0.0000000E+00; -4.2207628E-03;  4.0000000E+04;  0.0000000E+00;  3.8694508E+04;  2.4122081E+00;  0.0000000E+00; -1.3913670E-01;  3.3480566E+03;
  1.5298100E+00;  9.9999998E-03; -1.7339531E-01;9778;  1.3983809E+00;  0.0000000E+00; -2.0952579E-02;  9.9453564E+02;  1.1224440E-01; -3.9555005E+03;3; -1.0777677E+02;  0.0000000E+00;  1.2324587E+00;0;  2.2784514E+00;  3.2484391E+04;  0.0000000E+00;  1.1757749E+01;  4.0000000E+04;  0.0000000E+00;  3.8667562E+04;  2.4263954E+00;  0.0000000E+00; -1.4794387E-01;  9.6867314E+03;
  1.5300113E+00;  9.9999998E-03; -1.6327648E-01;9779;  1.4195875E+00;  0.0000000E+00; -2.2585712E-02;  9.9415527E+02;  1.1224382E-01; -4.2294385E+03;3; -9.4253212E+01;  0.0000000E+00;  3.1291466E+00;0;  2.2581613E+00;  3.2480357E+04;  0.0000000E+00;  2.2646851E+01;  4.0000000E+04;  0.0000000E+00;  3.8646086E+04;  2.3972211E+00;  0.0000000E+00; -1.3905968E-01;  1.5213673E+04;
  1.5302063E+00;  9.9999998E-03; -1.5311845E-01;9780;  1.4375825E+00;  0.0000000E+00; -2.4749143E-02;  9.9436615E+02;  1.1224107E-01; -4.0755496E+03;3; -8.0985367E+01;  0.0000000E+00;  5.7870932E+00;0;  2.2053382E+00;  3.2504117E+04;  0.0000000E+00;  3.0684790E+01;  4.0000000E+04;  0.0000000E+00;  3.8636637E+04;  2.3222320E+00;  0.0000000E+00; -1.1689387E-01;  1.8962709E+04;
  1.5303890E+00;  9.9999998E-03; -1.4290482E-01;9781;  1.4511418E+00;  0.0000000E+00; -2.7015351E-02;  9.9512946E+02;  1.1223536E-01; -3.5223315E+03;3; -6.7143356E+01;  0.0000000E+00;  6.2720847E+00;0;  2.1191278E+00;  3.2552678E+04;  0.0000000E+00;  3.5520454E+01;  4.0000000E+04;  0.0000000E+00;  3.8641324E+04;  2.2061901E+00;  0.0000000E+00; -8.7062366E-02;  2.0846807E+04;
  1.5305654E+00;  9.9999998E-03; -1.3263331E-01;9782;  1.4598113E+00;  0.0000000E+00; -2.8878175E-02;  9.9620245E+02;  1.1222834E-01; -2.7455569E+03;3; -5.4482559E+01;  0.0000000E+00;  6.2330294E+00;0;  2.0099778E+00;  3.2613645E+04;  0.0000000E+00;  3.6941139E+01;  4.0000000E+04;  0.0000000E+00;  3.8653836E+04;  2.0629575E+00;  0.0000000E+00; -5.2979756E-02;  2.0920410E+04;
  1.5307472E+00;  9.9999998E-03; -1.2231568E-01;9783;  1.4634701E+00;  0.0000000E+00; -3.0185053E-02;  9.9727277E+02;  1.1221977E-01; -1.9711486E+03;3; -4.3073658E+01;  0.0000000E+00;  4.7505150E+00;0;  1.8903749E+00;  3.2675006E+04;  0.0000000E+00;  3.5089676E+01;  4.0000000E+04;  0.0000000E+00;  3.8667504E+04;  1.9064424E+00;  0.0000000E+00; -1.6067535E-02;  1.9410307E+04;
  1.5309498E+00;  9.9999998E-03; -1.1198137E-01;9784;  1.4632844E+00;  0.0000000E+00; -3.0396452E-02;  9.9810626E+02;  1.1221249E-01; -1.3683013E+03;3; -3.3697102E+01;  0.0000000E+00;  1.7495403E+00;0;  1.7745843E+00;  3.2725295E+04;  0.0000000E+00;  3.0495342E+01;  4.0000000E+04;  0.0000000E+00;  3.8675852E+04;  1.7531521E+00;  0.0000000E+00;  2.1432178E-02;  1.6684357E+04;
  1.5400594E+00;  9.9999998E-03; -2.0379479E-01;9817;  1.3410020E+00;  0.0000000E+00; -2.8013781E-02;  9.9884454E+02;  1.1189809E-01; -8.2202307E+02;3; -1.3557729E+02;  0.0000000E+00; -5.7677732E+00;0;  2.0001006E+00;  3.2952539E+04;  0.0000000E+00;  3.5732662E+01;  4.0000000E+04;  0.0000000E+00;  3.8672285E+04;  2.0016663E+00;  0.0000000E+00; -1.5657820E-03;  1.1883030E+04;
  1.5403466E+00;  9.9999998E-03; -1.9374952E-01;9818;  1.3705410E+00;  0.0000000E+00; -2.7622404E-02;  9.9735797E+02;  1.1190481E-01; -1.8786954E+03;3; -1.2758614E+02;  0.0000000E+00; -3.4442267E+00;0;  2.1009574E+00;  3.2884082E+04;  0.0000000E+00;  3.9886463E+00;  4.0000000E+04;  0.0000000E+00;  3.8641023E+04;  2.1577659E+00;  0.0000000E+00; -5.6808509E-02;  2.2727231E+03;
  1.5405344E+00;  9.9999998E-03; -1.8367228E-01;9819;  1.3960996E+00;  0.0000000E+00; -2.8220845E-02;  9.9679932E+02;  1.1190627E-01; -2.2752009E+03;3; -1.1739784E+02;  0.0000000E+00; -1.0825777E+00;0;  2.1669767E+00;  3.2867961E+04;  0.0000000E+00; -7.6745052E+00;  4.0000000E+04;  0.0000000E+00;  3.8618676E+04;  2.2540212E+00;  0.0000000E+00; -8.7044507E-02;  2.4931719E+03;
  1.5407017E+00;  9.9999998E-03; -1.7357598E-01;9820;  1.4185005E+00;  0.0000000E+00; -2.9411087E-02;  9.9629004E+02;  1.1190589E-01; -2.6364243E+03;3; -1.0545567E+02;  0.0000000E+00;  8.3490384E-01;0;  2.1983800E+00;  3.2856578E+04;  0.0000000E+00; -4.1915917E+00;  4.0000000E+04;  0.0000000E+00;  3.8594000E+04;  2.2966073E+00;  0.0000000E+00; -9.8227262E-02;  8.8030560E+02;
  1.5408757E+00;  9.9999998E-03; -1.6346531E-01;9821;  1.4380924E+00;  0.0000000E+00; -3.0849472E-02;  9.9576282E+02;  1.1190554E-01; -3.0101416E+03;3; -9.2669861E+01;  0.0000000E+00;  2.0414805E+00;0;  2.1959634E+00;  3.2846590E+04;  0.0000000E+00;  5.4214468E+00;  4.0000000E+04;  0.0000000E+00;  3.8566777E+04;  2.2904844E+00;  0.0000000E+00; -9.4521165E-02;  5.4432476E+03;
  1.5410553E+00;  9.9999998E-03; -1.5333280E-01;9822;  1.4552776E+00;  0.0000000E+00; -3.2744754E-02;  9.9547815E+02;  1.1190362E-01; -3.2113501E+03;3; -7.9600510E+01;  0.0000000E+00;  4.3263764E+00;0;  2.1695991E+00;  3.2849227E+04;  0.0000000E+00;  1.5354476E+01;  4.0000000E+04;  0.0000000E+00;  3.8544379E+04;  2.2452307E+00;  0.0000000E+00; -7.5631686E-02;  9.9670684E+03;
  1.5412347E+00;  9.9999998E-03; -1.4316557E-01;9823;  1.4690192E+00;  0.0000000E+00; -3.4949776E-02;  9.9562384E+02;  1.1190188E-01; -3.1069026E+03;3; -6.6166214E+01;  0.0000000E+00;  5.0220180E+00;0;  2.1133993E+00;  3.2870477E+04;  0.0000000E+00;  2.3190882E+01;  4.0000000E+04;  0.0000000E+00;  3.8532746E+04;  2.1593459E+00;  0.0000000E+00; -4.5946602E-02;  1.3270346E+04;
  1.5414091E+00;  9.9999998E-03; -1.3294944E-01;9824;  1.4783812E+00;  0.0000000E+00; -3.6964342E-02;  9.9619586E+02;  1.1189784E-01; -2.6999485E+03;3; -5.3085693E+01;  0.0000000E+00;  4.7029066E+00;0;  2.0270634E+00;  3.2909172E+04;  0.0000000E+00;  2.8360754E+01;  4.0000000E+04;  0.0000000E+00;  3.8534070E+04;  2.0373058E+00;  0.0000000E+00; -1.0242407E-02;  1.5165194E+04;
  1.5415808E+00;  9.9999998E-03; -1.2268232E-01;9825;  1.4830579E+00;  0.0000000E+00; -3.8473941E-02;  9.9702075E+02;  1.1189230E-01; -2.1138174E+03;3; -4.1233345E+01;  0.0000000E+00;  3.3450515E+00;0;  1.9195158E+00;  3.2957336E+04;  0.0000000E+00;  3.0608238E+01;  4.0000000E+04;  0.0000000E+00;  3.8543590E+04;  1.8908224E+00;  0.0000000E+00;  2.8693473E-02;  1.5659335E+04;
  1.5417565E+00;  9.9999998E-03; -1.1237670E-01;9826;  1.4831038E+00;  0.0000000E+00; -3.8880840E-02;  9.9785284E+02;  1.1188700E-01; -1.5229601E+03;3; -3.0877893E+01;  0.0000000E+00;  2.7088460E-01;0;  1.8002698E+00;  3.3004777E+04;  0.0000000E+00;  2.9927959E+01;  4.0000000E+04;  0.0000000E+00;  3.8554441E+04;  1.7325042E+00;  0.0000000E+00;  6.7765608E-02;  1.4881531E+04;
  1.5514061E+00;  9.9999998E-03; -1.8382762E-01;9858;  1.4116979E+00;  0.0000000E+00; -3.6799531E-02;  9.9818152E+02;  1.1162252E-01; -1.2669187E+03;3; -1.1189089E+02;  0.0000000E+00; -1.7922370E+00;0;  2.0087073E+00;  3.3190586E+04;  0.0000000E+00;  1.0652988E+01;  4.0000000E+04;  0.0000000E+00;  3.8542180E+04;  2.0271997E+00;  0.0000000E+00; -1.8492434E-02;  3.5224893E+03;
  1.5515960E+00;  9.9999998E-03; -1.7374015E-01;9859;  1.4350055E+00;  0.0000000E+00; -3.7432395E-02;  9.9761249E+02;  1.1162487E-01; -1.6627594E+03;3; -1.0142899E+02;  0.0000000E+00;  4.7419104E-03;0;  2.0742607E+00;  3.3176133E+04;  0.0000000E+00; -6.0591168E+00;  4.0000000E+04;  0.0000000E+00;  3.8516430E+04;  2.1135943E+00;  0.0000000E+00; -3.9333507E-02;  2.2957852E+03;
  1.5517546E+00;  9.9999998E-03; -1.6362754E-01;9860;  1.4544777E+00;  0.0000000E+00; -3.8690750E-02;  9.9729028E+02;  1.1162353E-01; -1.8865892E+03;3; -8.9448502E+01;  0.0000000E+00;  1.4310939E+00;0;  2.1051142E+00;  3.3176117E+04;  0.0000000E+00; -7.5355577E+00;  4.0000000E+04;  0.0000000E+00;  3.8492723E+04;  2.1450295E+00;  0.0000000E+00; -3.9915439E-02;  1.3728733E+03;
  1.5519120E+00;  9.9999998E-03; -1.5349680E-01;9861;  1.4707599E+00;  0.0000000E+00; -4.0019590E-02;  9.9699359E+02;  1.1162186E-01; -2.0924890E+03;3; -7.7173759E+01;  0.0000000E+00;  2.9555690E+00;0;  2.1044774E+00;  3.3178777E+04;  0.0000000E+00; -1.2057132E+00;  4.0000000E+04;  0.0000000E+00;  3.8468301E+04;  2.1314609E+00;  0.0000000E+00; -2.6983565E-02;  1.7863186E+03;
  1.5520750E+00;  9.9999998E-03; -1.4334661E-01;9862;  1.4841903E+00;  0.0000000E+00; -4.1903190E-02;  9.9681641E+02;  1.1162064E-01; -2.2151260E+03;3; -6.4143517E+01;  0.0000000E+00;  3.8298247E+00;0;  2.0823543E+00;  3.3187070E+04;  0.0000000E+00;  7.0397887E+00;  4.0000000E+04;  0.0000000E+00;  3.8446750E+04;  2.0812826E+00;  0.0000000E+00;  1.0717352E-03;  5.2173784E+03;
  1.5522397E+00;  9.9999998E-03; -1.3316686E-01;9863;  1.4940064E+00;  0.0000000E+00; -4.3743610E-02;  9.9690979E+02;  1.1161783E-01; -2.1494531E+03;3; -5.1541607E+01;  0.0000000E+00;  4.0740561E+00;0;  2.0308387E+00;  3.3206625E+04;  0.0000000E+00;  1.4312253E+01;  4.0000000E+04;  0.0000000E+00;  3.8433500E+04;  1.9937135E+00;  0.0000000E+00;  3.7125342E-02;  7.9999385E+03;
  1.5524031E+00;  9.9999998E-03; -1.2294633E-01;9864;  1.4994813E+00;  0.0000000E+00; -4.5399509E-02;  9.9730560E+02;  1.1161483E-01; -1.8735289E+03;3; -3.9285885E+01;  0.0000000E+00;  2.6883090E+00;0;  1.9496458E+00;  3.3237008E+04;  0.0000000E+00;  1.9632368E+01;  4.0000000E+04;  0.0000000E+00;  3.8430848E+04;  1.8715665E+00;  0.0000000E+00;  7.8079231E-02;  9.8182852E+03;
  1.5525666E+00;  9.9999998E-03; -1.1268593E-01;9865;  1.5003514E+00;  0.0000000E+00; -4.6117995E-02;  9.9786823E+02;  1.1161090E-01; -1.4818483E+03;3; -2.8445129E+01;  0.0000000E+00; -8.3576858E-01;0;  1.8429978E+00;  3.3272250E+04;  0.0000000E+00;  2.2492399E+01;  4.0000000E+04;  0.0000000E+00;  3.8435281E+04;  1.7240649E+00;  0.0000000E+00;  1.1893285E-01;  1.0577776E+04;
  1.5624099E+00;  9.9999998E-03; -1.7386815E-01;9895;  1.4459256E+00;  0.0000000E+00; -4.5792755E-02;  9.9915057E+02;  1.1138435E-01; -5.7888751E+02;3; -9.3661888E+01;  0.0000000E+00; -1.8539039E+00;0;  1.8935015E+00;  3.3481719E+04;  0.0000000E+00;  2.2640976E+01;  4.0000000E+04;  0.0000000E+00;  3.8443418E+04;  1.8571483E+00;  0.0000000E+00;  3.6353268E-02;  6.2179463E+03;
  1.5626096E+00;  9.9999998E-03; -1.6377187E-01;9896;  1.4654452E+00;  0.0000000E+00; -4.6488240E-02;  9.9846222E+02;  1.1138726E-01; -1.0475826E+03;3; -8.4386223E+01;  0.0000000E+00;  7.0121527E-01;0;  1.9500506E+00;  3.3463633E+04;  0.0000000E+00;  6.8762086E-02;  4.0000000E+04;  0.0000000E+00;  3.8413348E+04;  1.9224777E+00;  0.0000000E+00;  2.7572906E-02;  1.6017438E+03;
  1.5627671E+00;  9.9999998E-03; -1.5364340E-01;9897;  1.4815527E+00;  0.0000000E+00; -4.7594864E-02;  9.9824774E+02;  1.1138652E-01; -1.1932845E+03;3; -7.2932930E+01;  0.0000000E+00;  1.8391752E+00;0;  1.9826806E+00;  3.3469879E+04;  0.0000000E+00; -7.7380652E+00;  4.0000000E+04;  0.0000000E+00;  3.8391223E+04;  1.9461693E+00;  0.0000000E+00;  3.6511257E-02;  1.9675542E+03;
  1.5629165E+00;  9.9999998E-03; -1.4349364E-01;9898;  1.4951031E+00;  0.0000000E+00; -4.8833717E-02;  9.9810260E+02;  1.1138475E-01; -1.2917209E+03;3; -6.1136745E+01;  0.0000000E+00;  3.2136645E+00;0;  1.9994291E+00;  3.3480176E+04;  0.0000000E+00; -6.2039523E+00;  4.0000000E+04;  0.0000000E+00;  3.8369824E+04;  1.9402634E+00;  0.0000000E+00;  5.9165664E-02;  6.7286835E+02;
  1.5630672E+00;  9.9999998E-03; -1.3332389E-01;9899;  1.5053899E+00;  0.0000000E+00; -5.0305426E-02;  9.9802466E+02;  1.1138311E-01; -1.3443745E+03;3; -4.8691544E+01;  0.0000000E+00;  2.9465811E+00;0;  1.9905279E+00;  3.3492855E+04;  0.0000000E+00; -7.8895807E-01;  4.0000000E+04;  0.0000000E+00;  3.8350336E+04;  1.8973688E+00;  0.0000000E+00;  9.3159109E-02;  1.5253630E+03;
  1.5632190E+00;  9.9999998E-03; -1.2313127E-01;9900;  1.5115504E+00;  0.0000000E+00; -5.1568154E-02;  9.9808746E+02;  1.1138153E-01; -1.3012064E+03;3; -3.6494366E+01;  0.0000000E+00;  9.2320663E-01;0;  1.9456080E+00;  3.3510867E+04;  0.0000000E+00;  5.0549498E+00;  4.0000000E+04;  0.0000000E+00;  3.8335809E+04;  1.8128546E+00;  0.0000000E+00;  1.3275339E-01;  3.5966213E+03;
  1.5633701E+00;  9.9999998E-03; -1.1290879E-01;9901;  1.5136873E+00;  0.0000000E+00; -5.1973652E-02;  9.9831842E+02;  1.1137960E-01; -1.1437043E+03;3; -2.5643190E+01;  0.0000000E+00; -3.0241272E+00;0;  1.8688709E+00;  3.3533754E+04;  0.0000000E+00;  9.8128834E+00;  4.0000000E+04;  0.0000000E+00;  3.8328688E+04;  1.6963049E+00;  0.0000000E+00;  1.7256589E-01;  5.1192715E+03;
  1.5733589E+00;  9.9999998E-03; -1.6386339E-01;9930;  1.4720294E+00;  0.0000000E+00; -5.4519758E-02;  1.0003185E+03;  1.1118530E-01;  2.1203401E+02;3; -7.5892944E+01;  0.0000000E+00; -8.2525559E-02;0;  1.7539839E+00;  3.3760766E+04;  0.0000000E+00;  4.0680691E+01;  4.0000000E+04;  0.0000000E+00;  3.8349289E+04;  1.6423776E+00;  0.0000000E+00;  1.1160629E-01;  9.9897764E+03;
  1.5735719E+00;  9.9999998E-03; -1.5376146E-01;9931;  1.4874216E+00;  0.0000000E+00; -5.6179728E-02;  9.9943805E+02;  1.1119036E-01; -3.7389838E+02;3; -6.7140106E+01;  0.0000000E+00;  2.4769354E+00;0;  1.8091177E+00;  3.3734871E+04;  0.0000000E+00;  1.2309392E+01;  4.0000000E+04;  0.0000000E+00;  3.8313105E+04;  1.6852160E+00;  0.0000000E+00;  1.2390178E-01;  3.2517886E+03;
  1.5737393E+00;  9.9999998E-03; -1.4362422E-01;9932;  1.5006000E+00;  0.0000000E+00; -5.7183165E-02;  9.9912372E+02;  1.1119140E-01; -5.8283990E+02;3; -5.6478096E+01;  0.0000000E+00;  1.7554301E+00;0;  1.8513521E+00;  3.3736586E+04;  0.0000000E+00; -2.5493500E+00;  4.0000000E+04;  0.0000000E+00;  3.8288598E+04;  1.7103554E+00;  0.0000000E+00;  1.4099665E-01;  1.3466084E+03;
  1.5738866E+00;  9.9999998E-03; -1.3345803E-01;9933;  1.5104429E+00;  0.0000000E+00; -5.7136845E-02;  9.9905206E+02;  1.1119075E-01; -6.3028534E+02;3; -4.4846741E+01;  0.0000000E+00; -1.4726779E+00;0;  1.8610516E+00;  3.3749176E+04;  0.0000000E+00; -7.1226358E+00;  4.0000000E+04;  0.0000000E+00;  3.8269652E+04;  1.7001561E+00;  0.0000000E+00;  1.6089541E-01;  1.5244116E+03;
  1.5740296E+00;  9.9999998E-03; -1.2327013E-01;9934;  1.5177369E+00;  0.0000000E+00; -5.6585852E-02;  9.9903687E+02;  1.1118963E-01; -6.4018774E+02;3; -3.3822006E+01;  0.0000000E+00; -4.3608499E+00;0;  1.8556119E+00;  3.3763383E+04;  0.0000000E+00; -5.9527960E+00;  4.0000000E+04;  0.0000000E+00;  3.8252832E+04;  1.6673292E+00;  0.0000000E+00;  1.8828274E-01;  7.6699585E+02;
  1.5741687E+00;  9.9999998E-03; -1.1305737E-01;9935;  1.5208290E+00;  0.0000000E+00; -5.4937243E-02;  9.9912256E+02;  1.1118799E-01; -5.8303668E+02;3; -2.3509769E+01;  0.0000000E+00; -6.9585853E+00;0;  1.8091615E+00;  3.3780848E+04;  0.0000000E+00; -2.4120064E+00;  4.0000000E+04;  0.0000000E+00;  3.8240691E+04;  1.5914893E+00;  0.0000000E+00;  2.1767227E-01;  6.4627808E+02;
  1.5743066E+00;  9.9999998E-03; -1.0282258E-01;9936;  1.5205920E+00;  0.0000000E+00; -5.1784128E-02;  9.9926233E+02;  1.1118674E-01; -4.9001077E+02;3; -1.4530161E+01;  0.0000000E+00; -8.5748510E+00;0;  1.7352637E+00;  3.3798094E+04;  0.0000000E+00;  1.3058052E+00;  4.0000000E+04;  0.0000000E+00;  3.8232609E+04;  1.4891458E+00;  0.0000000E+00;  2.4611799E-01;  1.6945846E+03;
  1.5844829E+00;  9.9999998E-03; -1.4369880E-01;9963;  1.5035697E+00;  0.0000000E+00; -6.5158918E-02;  1.0005806E+03;  1.1102528E-01;  3.7678992E+02;3; -5.1327221E+01;  0.0000000E+00; -1.6230007E+00;0;  1.6754280E+00;  3.3991059E+04;  0.0000000E+00;  3.1067312E+01;  4.0000000E+04;  0.0000000E+00;  3.8222250E+04;  1.4407011E+00;  0.0000000E+00;  2.3472695E-01;  6.8908794E+03;
  1.5846611E+00;  9.9999998E-03; -1.3355981E-01;9964;  1.5139183E+00;  0.0000000E+00; -6.3453384E-02;  1.0000518E+03;  1.1102809E-01;  3.3564426E+01;3; -4.1015732E+01;  0.0000000E+00; -4.7635117E+00;0;  1.7027477E+00;  3.3984355E+04;  0.0000000E+00;  9.8656454E+00;  4.0000000E+04;  0.0000000E+00;  3.8190535E+04;  1.4663727E+00;  0.0000000E+00;  2.3637496E-01;  2.4790771E+03;
  1.5848128E+00;  9.9999998E-03; -1.2338576E-01;9965;  1.5212704E+00;  0.0000000E+00; -6.0378861E-02;  9.9987360E+02;  1.1102938E-01; -8.1987244E+01;3; -3.1176178E+01;  0.0000000E+00; -6.7104421E+00;0;  1.7078758E+00;  3.3991812E+04;  0.0000000E+00; -1.3440404E+00;  4.0000000E+04;  0.0000000E+00;  3.8169562E+04;  1.4652637E+00;  0.0000000E+00;  2.4261211E-01;  1.0384395E+03;
  1.5849493E+00;  9.9999998E-03; -1.1318401E-01;9966;  1.5257802E+00;  0.0000000E+00; -5.6915719E-02;  9.9987372E+02;  1.1102896E-01; -8.1883789E+01;3; -2.1491968E+01;  0.0000000E+00; -8.0153370E+00;0;  1.6982501E+00;  3.4005770E+04;  0.0000000E+00; -5.5490437E+00;  4.0000000E+04;  0.0000000E+00;  3.8154270E+04;  1.4388157E+00;  0.0000000E+00;  2.5943440E-01;  1.1666454E+03;
  1.5850772E+00;  9.9999998E-03; -1.0295466E-01;9967;  1.5267538E+00;  0.0000000E+00; -5.3040352E-02;  9.9996973E+02;  1.1102711E-01; -1.9624590E+01;3; -1.2679398E+01;  0.0000000E+00; -9.1328697E+00;0;  1.6597208E+00;  3.4021891E+04;  0.0000000E+00; -5.6868401E+00;  4.0000000E+04;  0.0000000E+00;  3.8144734E+04;  1.3768023E+00;  0.0000000E+00;  2.8291848E-01;  9.1861127E+02;
  1.5955303E+00;  9.9999998E-03; -1.2343769E-01;9992;  1.5225102E+00;  0.0000000E+00; -6.6886045E-02;  1.0011469E+03;  1.1089354E-01;  7.2493518E+02;3; -2.7728697E+01;  0.0000000E+00; -9.9606647E+00;0;  1.5516362E+00;  3.4216605E+04;  0.0000000E+00;  2.9271736E+01;  4.0000000E+04;  0.0000000E+00;  3.8104102E+04;  1.2261680E+00;  0.0000000E+00;  3.2546815E-01;  5.8991538E+03;
  1.5956854E+00;  9.9999998E-03; -1.1326501E-01;9993;  1.5276011E+00;  0.0000000E+00; -6.2155522E-02;  1.0007687E+03;  1.1089542E-01;  4.8571921E+02;3; -1.9145777E+01;  0.0000000E+00; -1.1234253E+01;0;  1.5566623E+00;  3.4216910E+04;  0.0000000E+00;  1.2380819E+01;  4.0000000E+04;  0.0000000E+00;  3.8075824E+04;  1.2307594E+00;  0.0000000E+00;  3.2590291E-01;  2.7189182E+03;
  1.5958188E+00;  9.9999998E-03; -1.0306092E-01;9994;  1.5300575E+00;  0.0000000E+00; -5.7169948E-02;  1.0006535E+03;  1.1089621E-01;  4.1281772E+02;3; -1.0917934E+01;  0.0000000E+00; -1.1751909E+01;0;  1.5493649E+00;  3.4226266E+04;  0.0000000E+00;  2.5229962E+00;  4.0000000E+04;  0.0000000E+00;  3.8057270E+04;  1.2127641E+00;  0.0000000E+00;  3.3660078E-01;  1.1094946E+03;
  1.5635201E+00;  9.9999998E-03; -1.0265421E-01;9902;  1.5119030E+00;  0.0000000E+00; -5.0869901E-02;  9.9866821E+02;  1.1137802E-01; -9.0553387E+02;3; -1.6380699E+01;  0.0000000E+00; -6.8770618E+00;0;  1.7660871E+00;  3.3558762E+04;  0.0000000E+00;  1.2941021E+01;  4.0000000E+04;  0.0000000E+00;  3.8327949E+04;  1.5567670E+00;  0.0000000E+00;  2.0932008E-01;  5.9736562E+03;
  1.5527303E+00;  9.9999998E-03; -1.0239392E-01;9866;  1.4974194E+00;  0.0000000E+00; -4.5275461E-02;  9.9844904E+02;  1.1160795E-01; -1.0777828E+03;3; -1.9363636E+01;  0.0000000E+00; -4.3235736E+00;0;  1.7251077E+00;  3.3306449E+04;  0.0000000E+00;  2.2914099E+01;  4.0000000E+04;  0.0000000E+00;  3.8442039E+04;  1.5678494E+00;  0.0000000E+00;  1.5725821E-01;  1.0381333E+04;
  3.2877726E-03;  9.9999998E-03; -9.9977374E-02;2467;  8.8354414E-03;  0.0000000E+00;  3.9720364E-04;  9.8405084E+02;  1.0000000E-01; -1.3213552E+04;3;  8.7224777E+01;  0.0000000E+00;  5.5880690E-01;0;  3.3853363E-02;  3.8751332E+04;  0.0000000E+00; -1.6997715E-02;  4.0000000E+04;  0.0000000E+00;  3.9998324E+04;  3.5654385E-02;  0.0000000E+00; -1.8010222E-03;  1.1425206E+03;
  3.2795772E-03;  9.9999998E-03; -8.9969948E-02;2468;  8.8550663E-03;  0.0000000E+00;  3.3269342E-04;  9.8406012E+02;  1.0000000E-01; -1.3205898E+04;3;  8.6871872E+01;  0.0000000E+00;  2.4320042E-01;0;  3.4060769E-02;  3.8752277E+04;  0.0000000E+00; -9.8069357E-03;  4.0000000E+04;  0.0000000E+00;  3.9998195E+04;  3.5934146E-02;  0.0000000E+00; -1.8733775E-03;  1.1141075E+03;
  3.2706151E-03;  9.9999998E-03; -7.9964213E-02;2469;  8.8499021E-03;  0.0000000E+00;  2.5942805E-04;  9.8406927E+02;  1.0000000E-01; -1.3198293E+04;3;  8.6849022E+01;  0.0000000E+00;  4.4724133E-02;0;  3.4232341E-02;  3.8752844E+04;  0.0000000E+00; -6.2103779E-03;  4.0000000E+04;  0.0000000E+00;  3.9998531E+04;  3.6158279E-02;  0.0000000E+00; -1.9259395E-03;  1.1265342E+03;
  3.2612621E-03;  9.9999998E-03; -6.9961146E-02;2470;  8.8219857E-03;  0.0000000E+00;  1.8423806E-04;  9.8407703E+02;  1.0000000E-01; -1.3191874E+04;3;  8.7168694E+01;  0.0000000E+00; -6.1699443E-02;0;  3.4356374E-02;  3.8753039E+04;  0.0000000E+00; -4.4818036E-03;  4.0000000E+04;  0.0000000E+00;  3.9998898E+04;  3.6309861E-02;  0.0000000E+00; -1.9534847E-03;  1.1855442E+03;
  3.2517021E-03;  9.9999998E-03; -5.9961028E-02;2471;  8.7764720E-03;  0.0000000E+00;  1.1426325E-04;  9.8408667E+02;  1.0000000E-01; -1.3183874E+04;3;  8.7773552E+01;  0.0000000E+00; -1.0231783E-01;0;  3.4430251E-02;  3.8752898E+04;  0.0000000E+00; -3.5194834E-03;  4.0000000E+04;  0.0000000E+00;  3.9999641E+04;  3.6385011E-02;  0.0000000E+00; -1.9547597E-03;  1.2899484E+03;
  3.2425802E-03;  9.9999998E-03; -4.9963810E-02;2472;  8.7205190E-03;  0.0000000E+00;  5.5832934E-05;  9.8409619E+02;  1.0000000E-01; -1.3176022E+04;3;  8.8600639E+01;  0.0000000E+00; -1.0162893E-01;0;  3.4459461E-02;  3.8752555E+04;  0.0000000E+00; -2.7576662E-03;  4.0000000E+04;  0.0000000E+00;  4.0000535E+04;  3.6392141E-02;  0.0000000E+00; -1.9326799E-03;  1.4302693E+03;
  3.2341129E-03;  9.9999998E-03; -3.9968815E-02;2473;  8.6619165E-03;  0.0000000E+00;  1.3430355E-05;  9.8410425E+02;  1.0000000E-01; -1.3169307E+04;3;  8.9546936E+01;  0.0000000E+00; -8.0663763E-02;0;  3.4455381E-02;  3.8752027E+04;  0.0000000E+00; -1.9962802E-03;  4.0000000E+04;  0.0000000E+00;  4.0001676E+04;  3.6349319E-02;  0.0000000E+00; -1.8939360E-03;  1.5897617E+03;
  3.2268444E-03;  9.9999998E-03; -2.9975507E-02;2474;  8.6078681E-03;  0.0000000E+00; -1.1949882E-05;  9.8411548E+02;  1.0000000E-01; -1.3160022E+04;3;  9.0444923E+01;  0.0000000E+00; -5.8543157E-02;0;  3.4432180E-02;  3.8751504E+04;  0.0000000E+00; -1.2439567E-03;  4.0000000E+04;  0.0000000E+00;  4.0003508E+04;  3.6280133E-02;  0.0000000E+00; -1.8479537E-03;  1.7470167E+03;
  3.2212527E-03;  9.9999998E-03; -1.9983245E-02;2475;  8.5646817E-03;  0.0000000E+00; -2.0456462E-05;  9.8412311E+02;  1.0000000E-01; -1.3153702E+04;3;  9.1208435E+01;  0.0000000E+00; -3.6302000E-02;0;  3.4403790E-02;  3.8751008E+04;  0.0000000E+00; -5.9543928E-04;  4.0000000E+04;  0.0000000E+00;  4.0004648E+04;  3.6208961E-02;  0.0000000E+00; -1.8051730E-03;  1.8796168E+03;
  3.2177563E-03;  9.9999998E-03; -9.9915350E-03;2476;  8.5369432E-03;  0.0000000E+00; -1.4479796E-05;  9.8412598E+02;  1.0000000E-01; -1.3151332E+04;3;  9.1730461E+01;  0.0000000E+00; -1.6825169E-02;0;  3.4381580E-02;  3.8750770E+04;  0.0000000E+00; -1.5561539E-04;  4.0000000E+04;  0.0000000E+00;  4.0005020E+04;  3.6156643E-02;  0.0000000E+00; -1.7750624E-03;  1.9680291E+03;
  3.2165768E-03;  9.9999998E-03;  1.7685099E-10;2477;  8.5273720E-03;  0.0000000E+00;  2.9427794E-09;  9.8412738E+02;  1.0000000E-01; -1.3150146E+04;3;  9.1910172E+01;  0.0000000E+00; -7.3901092E-06;0;  3.4373268E-02;  3.8750672E+04;  0.0000000E+00; -1.9725878E-13;  4.0000000E+04;  0.0000000E+00;  4.0005172E+04;  3.6137510E-02;  0.0000000E+00; -1.7642409E-03;  1.9990507E+03;
  3.2177565E-03;  9.9999998E-03;  9.9915359E-03;2478;  8.5369404E-03;  0.0000000E+00;  1.4488967E-05;  9.8412598E+02;  1.0000000E-01; -1.3151332E+04;3;  9.1730522E+01;  0.0000000E+00;  1.6784642E-02;0;  3.4381527E-02;  3.8750770E+04;  0.0000000E+00; -1.5561093E-04;  4.0000000E+04;  0.0000000E+00;  4.0005020E+04;  3.6156595E-02;  0.0000000E+00; -1.7750680E-03;  1.9680385E+03;
  3.2212536E-03;  9.9999998E-03;  1.9983245E-02;2479;  8.5646864E-03;  0.0000000E+00;  2.0462165E-05;  9.8412311E+02;  1.0000000E-01; -1.3153702E+04;3;  9.1208397E+01;  0.0000000E+00;  3.6250673E-02;0;  3.4403730E-02;  3.8751016E+04;  0.0000000E+00; -5.9544627E-04;  4.0000000E+04;  0.0000000E+00;  4.0004648E+04;  3.6208909E-02;  0.0000000E+00; -1.8051793E-03;  1.8796244E+03;
  3.2268448E-03;  9.9999998E-03;  2.9975507E-02;2480;  8.6078718E-03;  0.0000000E+00;  1.1957151E-05;  9.8411554E+02;  1.0000000E-01; -1.3159974E+04;3;  9.0444534E+01;  0.0000000E+00;  5.8561027E-02;0;  3.4432225E-02;  3.8751508E+04;  0.0000000E+00; -1.2439819E-03;  4.0000000E+04;  0.0000000E+00;  4.0003508E+04;  3.6280189E-02;  0.0000000E+00; -1.8479634E-03;  1.7470234E+03;
  3.2341138E-03;  9.9999998E-03;  3.9968815E-02;2481;  8.6619314E-03;  0.0000000E+00; -1.3426131E-05;  9.8410419E+02;  1.0000000E-01; -1.3169355E+04;3;  8.9547554E+01;  0.0000000E+00;  8.0700524E-02;0;  3.4455355E-02;  3.8752031E+04;  0.0000000E+00; -1.9961451E-03;  4.0000000E+04;  0.0000000E+00;  4.0001676E+04;  3.6349300E-02;  0.0000000E+00; -1.8939448E-03;  1.5897810E+03;
  3.2425812E-03;  9.9999998E-03;  4.9963810E-02;2482;  8.7205255E-03;  0.0000000E+00; -5.5830744E-05;  9.8409619E+02;  1.0000000E-01; -1.3176022E+04;3;  8.8600800E+01;  0.0000000E+00;  1.0160717E-01;0;  3.4459401E-02;  3.8752555E+04;  0.0000000E+00; -2.7577626E-03;  4.0000000E+04;  0.0000000E+00;  4.0000535E+04;  3.6392093E-02;  0.0000000E+00; -1.9326917E-03;  1.4302891E+03;
  3.2517030E-03;  9.9999998E-03;  5.9961028E-02;2483;  8.7764850E-03;  0.0000000E+00; -1.1425691E-04;  9.8408667E+02;  1.0000000E-01; -1.3183874E+04;3;  8.7773605E+01;  0.0000000E+00;  1.0236409E-01;0;  3.4430172E-02;  3.8752887E+04;  0.0000000E+00; -3.5197095E-03;  4.0000000E+04;  0.0000000E+00;  3.9999641E+04;  3.6384940E-02;  0.0000000E+00; -1.9547690E-03;  1.2899652E+03;
  1.2984947E-02;  9.9999998E-03; -9.9988237E-02;2527;  7.4454928E-03;  0.0000000E+00;  3.9076741E-04;  9.8688782E+02;  1.0000000E-01; -1.0863199E+04;3;  5.6454826E+01;  0.0000000E+00;  4.6680918E-01;0;  3.0732343E-02;  3.8968578E+04;  0.0000000E+00; -2.3054274E-02;  4.0000000E+04;  0.0000000E+00;  3.9999191E+04;  3.2755591E-02;  0.0000000E+00; -2.0232482E-03;  9.8270764E+02;
  1.2979309E-02;  9.9999998E-03; -8.9981608E-02;2528;  7.4710343E-03;  0.0000000E+00;  3.3192153E-04;  9.8689374E+02;  1.0000000E-01; -1.0858311E+04;3;  5.6003006E+01;  0.0000000E+00;  2.0070305E-01;0;  3.1050595E-02;  3.8969445E+04;  0.0000000E+00; -1.4012605E-02;  4.0000000E+04;  0.0000000E+00;  3.9998742E+04;  3.3158302E-02;  0.0000000E+00; -2.1077076E-03;  9.3030359E+02;
  1.2973712E-02;  9.9999998E-03; -7.9976313E-02;2529;  7.4664634E-03;  0.0000000E+00;  2.6590144E-04;  9.8690100E+02;  1.0000000E-01; -1.0852286E+04;3;  5.5851982E+01;  0.0000000E+00;  3.3338096E-02;0;  3.1325608E-02;  3.8969875E+04;  0.0000000E+00; -9.4459234E-03;  4.0000000E+04;  0.0000000E+00;  3.9998219E+04;  3.3498384E-02;  0.0000000E+00; -2.1727763E-03;  9.1568610E+02;
  1.2968196E-02;  9.9999998E-03; -6.9973178E-02;2530;  7.4342494E-03;  0.0000000E+00;  1.9803343E-04;  9.8690002E+02;  1.0000000E-01; -1.0853076E+04;3;  5.6094833E+01;  0.0000000E+00; -5.6799449E-02;0;  3.1542595E-02;  3.8969645E+04;  0.0000000E+00; -7.1259546E-03;  4.0000000E+04;  0.0000000E+00;  3.9998332E+04;  3.3755720E-02;  0.0000000E+00; -2.2131235E-03;  9.5005939E+02;
  1.2962510E-02;  9.9999998E-03; -5.9972234E-02;2531;  7.3802653E-03;  0.0000000E+00;  1.3409408E-04;  9.8690063E+02;  1.0000000E-01; -1.0852582E+04;3;  5.6647205E+01;  0.0000000E+00; -9.1458060E-02;0;  3.1697400E-02;  3.8969180E+04;  0.0000000E+00; -5.6782030E-03;  4.0000000E+04;  0.0000000E+00;  3.9999020E+04;  3.3924580E-02;  0.0000000E+00; -2.2271783E-03;  1.0362202E+03;
  1.2956974E-02;  9.9999998E-03; -4.9973626E-02;2532;  7.3130121E-03;  0.0000000E+00;  7.9361082E-05;  9.8690430E+02;  1.0000000E-01; -1.0849521E+04;3;  5.7432438E+01;  0.0000000E+00; -9.1017082E-02;0;  3.1794835E-02;  3.8968348E+04;  0.0000000E+00; -4.4272831E-03;  4.0000000E+04;  0.0000000E+00;  4.0000496E+04;  3.4012146E-02;  0.0000000E+00; -2.2173126E-03;  1.1664760E+03;
  1.2951586E-02;  9.9999998E-03; -3.9976854E-02;2533;  7.2421399E-03;  0.0000000E+00;  3.7668906E-05;  9.8690479E+02;  1.0000000E-01; -1.0849125E+04;3;  5.8381363E+01;  0.0000000E+00; -7.2657801E-02;0;  3.1846073E-02;  3.8967547E+04;  0.0000000E+00; -3.1685689E-03;  4.0000000E+04;  0.0000000E+00;  4.0001766E+04;  3.4035653E-02;  0.0000000E+00; -2.1895804E-03;  1.3236893E+03;
  1.2946738E-02;  9.9999998E-03; -2.9981554E-02;2534;  7.1763638E-03;  0.0000000E+00;  1.0758265E-05;  9.8691162E+02;  1.0000000E-01; -1.0843496E+04;3;  5.9288296E+01;  0.0000000E+00; -4.9167205E-02;0;  3.1865716E-02;  3.8966555E+04;  0.0000000E+00; -1.9519934E-03;  4.0000000E+04;  0.0000000E+00;  4.0003215E+04;  3.4018517E-02;  0.0000000E+00; -2.1528015E-03;  1.4841721E+03;
  1.2942839E-02;  9.9999998E-03; -1.9987239E-02;2535;  7.1235695E-03;  0.0000000E+00; -2.2192394E-06;  9.8691669E+02;  1.0000000E-01; -1.0839299E+04;3;  6.0064598E+01;  0.0000000E+00; -2.9702328E-02;0;  3.1867806E-02;  3.8965793E+04;  0.0000000E+00; -9.2586764E-04;  4.0000000E+04;  0.0000000E+00;  4.0004254E+04;  3.3984773E-02;  0.0000000E+00; -2.1169675E-03;  1.6223844E+03;
  1.2940319E-02;  9.9999998E-03; -9.9935196E-03;2536;  7.0895338E-03;  0.0000000E+00; -4.2726369E-06;  9.8691870E+02;  1.0000000E-01; -1.0837619E+04;3;  6.0593945E+01;  0.0000000E+00; -1.3873863E-02;0;  3.1864069E-02;  3.8965387E+04;  0.0000000E+00; -2.4054774E-04;  4.0000000E+04;  0.0000000E+00;  4.0005195E+04;  3.3955257E-02;  0.0000000E+00; -2.0911878E-03;  1.7156998E+03;
  1.2939442E-02;  9.9999998E-03;  2.1510026E-10;2537;  7.0777265E-03;  0.0000000E+00;  3.7894368E-09;  9.8692145E+02;  1.0000000E-01; -1.0835348E+04;3;  6.0766228E+01;  0.0000000E+00; -2.2043814E-06;0;  3.1862032E-02;  3.8965207E+04;  0.0000000E+00;  2.6358782E-13;  4.0000000E+04;  0.0000000E+00;  4.0005445E+04;  3.3943865E-02;  0.0000000E+00; -2.0818338E-03;  1.7486230E+03;
  1.2940320E-02;  9.9999998E-03;  9.9935196E-03;2538;  7.0895357E-03;  0.0000000E+00;  4.2792121E-06;  9.8691870E+02;  1.0000000E-01; -1.0837619E+04;3;  6.0593952E+01;  0.0000000E+00;  1.3838695E-02;0;  3.1864062E-02;  3.8965391E+04;  0.0000000E+00; -2.4050781E-04;  4.0000000E+04;  0.0000000E+00;  4.0005199E+04;  3.3955254E-02;  0.0000000E+00; -2.0911929E-03;  1.7157074E+03;
  1.2942839E-02;  9.9999998E-03;  1.9987239E-02;2539;  7.1235718E-03;  0.0000000E+00;  2.2280806E-06;  9.8691669E+02;  1.0000000E-01; -1.0839299E+04;3;  6.0064617E+01;  0.0000000E+00;  2.9675292E-02;0;  3.1867769E-02;  3.8965797E+04;  0.0000000E+00; -9.2573947E-04;  4.0000000E+04;  0.0000000E+00;  4.0004254E+04;  3.3984743E-02;  0.0000000E+00; -2.1169735E-03;  1.6223915E+03;
  1.2946739E-02;  9.9999998E-03;  2.9981554E-02;2540;  7.1763708E-03;  0.0000000E+00; -1.0750213E-05;  9.8691162E+02;  1.0000000E-01; -1.0843496E+04;3;  5.9288380E+01;  0.0000000E+00;  4.9152292E-02;0;  3.1865671E-02;  3.8966551E+04;  0.0000000E+00; -1.9518809E-03;  4.0000000E+04;  0.0000000E+00;  4.0003215E+04;  3.4018487E-02;  0.0000000E+00; -2.1528148E-03;  1.4841825E+03;
  1.2951587E-02;  9.9999998E-03;  3.9976854E-02;2541;  7.2421455E-03;  0.0000000E+00; -3.7663252E-05;  9.8690479E+02;  1.0000000E-01; -1.0849125E+04;3;  5.8381413E+01;  0.0000000E+00;  7.2648264E-02;0;  3.1846024E-02;  3.8967547E+04;  0.0000000E+00; -3.1679578E-03;  4.0000000E+04;  0.0000000E+00;  4.0001766E+04;  3.4035616E-02;  0.0000000E+00; -2.1895911E-03;  1.3236943E+03;
  1.2956975E-02;  9.9999998E-03;  4.9973626E-02;2542;  7.3130187E-03;  0.0000000E+00; -7.9353071E-05;  9.8690430E+02;  1.0000000E-01; -1.0849521E+04;3;  5.7432526E+01;  0.0000000E+00;  9.1044702E-02;0;  3.1794783E-02;  3.8968355E+04;  0.0000000E+00; -4.4270968E-03;  4.0000000E+04;  0.0000000E+00;  4.0000496E+04;  3.4012109E-02;  0.0000000E+00; -2.2173251E-03;  1.1664900E+03;
  1.2962510E-02;  9.9999998E-03;  5.9972234E-02;2543;  7.3802755E-03;  0.0000000E+00; -1.3408759E-04;  9.8690063E+02;  1.0000000E-01; -1.0852582E+04;3;  5.6647282E+01;  0.0000000E+00;  9.1490865E-02;0;  3.1697329E-02;  3.8969184E+04;  0.0000000E+00; -5.6789536E-03;  4.0000000E+04;  0.0000000E+00;  3.9999020E+04;  3.3924520E-02;  0.0000000E+00; -2.2271900E-03;  1.0362310E+03;
  2.2654796E-02;  9.9999998E-03; -9.9989794E-02;2588;  6.0703228E-03;  0.0000000E+00;  3.8164138E-04;  9.9028015E+02;  1.0000000E-01; -8.0527104E+03;3;  2.5249157E+01;  0.0000000E+00;  3.6965612E-01;0;  2.8842533E-02;  3.9232023E+04;  0.0000000E+00; -2.8384766E-02;  4.0000000E+04;  0.0000000E+00;  4.0000055E+04;  3.1058779E-02;  0.0000000E+00; -2.2162462E-03;  8.2674469E+02;
  2.2651883E-02;  9.9999998E-03; -8.9986928E-02;2589;  6.0996460E-03;  0.0000000E+00;  3.2960024E-04;  9.9028375E+02;  1.0000000E-01; -8.0497476E+03;3;  2.4704185E+01;  0.0000000E+00;  1.5488720E-01;0;  2.9292077E-02;  3.9232855E+04;  0.0000000E+00; -1.8207097E-02;  4.0000000E+04;  0.0000000E+00;  3.9999336E+04;  3.1602226E-02;  0.0000000E+00; -2.3101484E-03;  7.4480713E+02;
  2.2649607E-02;  9.9999998E-03; -7.9984389E-02;2590;  6.0954364E-03;  0.0000000E+00;  2.7122715E-04;  9.9027936E+02;  1.0000000E-01; -8.0533525E+03;3;  2.4473146E+01;  0.0000000E+00;  2.0022990E-02;0;  2.9686108E-02;  3.9232926E+04;  0.0000000E+00; -1.2867908E-02;  4.0000000E+04;  0.0000000E+00;  3.9999559E+04;  3.2073420E-02;  0.0000000E+00; -2.3873122E-03;  6.9425226E+02;
  2.2647666E-02;  9.9999998E-03; -6.9982491E-02;2591;  6.0597206E-03;  0.0000000E+00;  2.1056479E-04;  9.9027356E+02;  1.0000000E-01; -8.0581919E+03;3;  2.4568119E+01;  0.0000000E+00; -5.2355543E-02;0;  3.0008290E-02;  3.9232547E+04;  0.0000000E+00; -9.8963464E-03;  4.0000000E+04;  0.0000000E+00;  3.9999184E+04;  3.2450605E-02;  0.0000000E+00; -2.4423159E-03;  6.9350732E+02;
  2.2645563E-02;  9.9999998E-03; -5.9981570E-02;2592;  5.9992387E-03;  0.0000000E+00;  1.5228642E-04;  9.9026733E+02;  1.0000000E-01; -8.0633276E+03;3;  2.4989452E+01;  0.0000000E+00; -7.9690449E-02;0;  3.0253340E-02;  3.9231746E+04;  0.0000000E+00; -7.8226076E-03;  4.0000000E+04;  0.0000000E+00;  3.9999523E+04;  3.2726340E-02;  0.0000000E+00; -2.4730011E-03;  7.5088660E+02;
  2.2643270E-02;  9.9999998E-03; -4.9982067E-02;2593;  5.9234034E-03;  0.0000000E+00;  1.0082252E-04;  9.9026562E+02;  1.0000000E-01; -8.0647598E+03;3;  2.5655136E+01;  0.0000000E+00; -7.8581519E-02;0;  3.0425753E-02;  3.9230609E+04;  0.0000000E+00; -5.9718969E-03;  4.0000000E+04;  0.0000000E+00;  4.0000199E+04;  3.2906435E-02;  0.0000000E+00; -2.4806818E-03;  8.6166614E+02;
  2.2640690E-02;  9.9999998E-03; -3.9983876E-02;2594;  5.8430433E-03;  0.0000000E+00;  5.9577418E-05;  9.9026331E+02;  1.0000000E-01; -8.0666855E+03;3;  2.6495399E+01;  0.0000000E+00; -6.2890805E-02;0;  3.0537188E-02;  3.9229445E+04;  0.0000000E+00; -4.1763214E-03;  4.0000000E+04;  0.0000000E+00;  4.0001891E+04;  3.3007234E-02;  0.0000000E+00; -2.4700454E-03;  1.0087887E+03;
  2.2638137E-02;  9.9999998E-03; -2.9986860E-02;2595;  5.7683475E-03;  0.0000000E+00;  3.0244788E-05;  9.9026306E+02;  1.0000000E-01; -8.0668828E+03;3;  2.7356125E+01;  0.0000000E+00; -4.3003626E-02;0;  3.0602645E-02;  3.9228336E+04;  0.0000000E+00; -2.5222886E-03;  4.0000000E+04;  0.0000000E+00;  4.0002637E+04;  3.3051126E-02;  0.0000000E+00; -2.4484813E-03;  1.1666145E+03;
  2.2635907E-02;  9.9999998E-03; -1.9990750E-02;2596;  5.7081059E-03;  0.0000000E+00;  1.2447280E-05;  9.9026709E+02;  1.0000000E-01; -8.0635249E+03;3;  2.8078808E+01;  0.0000000E+00; -2.5000323E-02;0;  3.0637139E-02;  3.9227406E+04;  0.0000000E+00; -1.1789229E-03;  4.0000000E+04;  0.0000000E+00;  4.0004000E+04;  3.3061769E-02;  0.0000000E+00; -2.4246287E-03;  1.3064486E+03;
  2.2634394E-02;  9.9999998E-03; -9.9952295E-03;2597;  5.6691715E-03;  0.0000000E+00;  3.7299592E-06;  9.9026978E+02;  1.0000000E-01; -8.0613027E+03;3;  2.8569031E+01;  0.0000000E+00; -1.1048931E-02;0;  3.0652680E-02;  3.9227027E+04;  0.0000000E+00; -3.0364541E-04;  4.0000000E+04;  0.0000000E+00;  4.0004691E+04;  3.3059202E-02;  0.0000000E+00; -2.4065231E-03;  1.4023292E+03;
  2.2633858E-02;  9.9999998E-03;  1.9610646E-10;2598;  5.6557297E-03;  0.0000000E+00;  5.0304361E-09;  9.9027026E+02;  1.0000000E-01; -8.0609077E+03;3;  2.8745161E+01;  0.0000000E+00;  5.4475122E-06;0;  3.0656986E-02;  3.9226625E+04;  0.0000000E+00; -1.8270601E-13;  4.0000000E+04;  0.0000000E+00;  4.0005172E+04;  3.3056803E-02;  0.0000000E+00; -2.3998178E-03;  1.4363900E+03;
  2.2634394E-02;  9.9999998E-03;  9.9952305E-03;2599;  5.6691719E-03;  0.0000000E+00; -3.7235970E-06;  9.9026978E+02;  1.0000000E-01; -8.0613027E+03;3;  2.8569046E+01;  0.0000000E+00;  1.1031022E-02;0;  3.0652670E-02;  3.9227027E+04;  0.0000000E+00; -3.0361686E-04;  4.0000000E+04;  0.0000000E+00;  4.0004691E+04;  3.3059198E-02;  0.0000000E+00; -2.4065289E-03;  1.4023317E+03;
  2.2635907E-02;  9.9999998E-03;  1.9990750E-02;2600;  5.7081091E-03;  0.0000000E+00; -1.2439325E-05;  9.9026709E+02;  1.0000000E-01; -8.0635249E+03;3;  2.8078901E+01;  0.0000000E+00;  2.4973080E-02;0;  3.0637100E-02;  3.9227406E+04;  0.0000000E+00; -1.1789888E-03;  4.0000000E+04;  0.0000000E+00;  4.0004000E+04;  3.3061735E-02;  0.0000000E+00; -2.4246352E-03;  1.3064558E+03;
  2.2638137E-02;  9.9999998E-03;  2.9986860E-02;2601;  5.7683564E-03;  0.0000000E+00; -3.0237146E-05;  9.9026294E+02;  1.0000000E-01; -8.0669819E+03;3;  2.7356964E+01;  0.0000000E+00;  4.2990785E-02;0;  3.0602610E-02;  3.9228336E+04;  0.0000000E+00; -2.5222478E-03;  4.0000000E+04;  0.0000000E+00;  4.0002637E+04;  3.3051100E-02;  0.0000000E+00; -2.4484906E-03;  1.1666351E+03;
  2.2640690E-02;  9.9999998E-03;  3.9983876E-02;2602;  5.8430475E-03;  0.0000000E+00; -5.9572129E-05;  9.9026331E+02;  1.0000000E-01; -8.0666855E+03;3;  2.6495401E+01;  0.0000000E+00;  6.2895618E-02;0;  3.0537123E-02;  3.9229445E+04;  0.0000000E+00; -4.1761929E-03;  4.0000000E+04;  0.0000000E+00;  4.0001891E+04;  3.3007182E-02;  0.0000000E+00; -2.4700593E-03;  1.0087976E+03;
  2.2643270E-02;  9.9999998E-03;  4.9982067E-02;2603;  5.9234099E-03;  0.0000000E+00; -1.0081653E-04;  9.9026562E+02;  1.0000000E-01; -8.0647598E+03;3;  2.5655191E+01;  0.0000000E+00;  7.8627206E-02;0;  3.0425673E-02;  3.9230617E+04;  0.0000000E+00; -5.9713819E-03;  4.0000000E+04;  0.0000000E+00;  4.0000199E+04;  3.2906365E-02;  0.0000000E+00; -2.4806918E-03;  8.6167902E+02;
  2.2645563E-02;  9.9999998E-03;  5.9981570E-02;2604;  5.9992420E-03;  0.0000000E+00; -1.5227769E-04;  9.9026740E+02;  1.0000000E-01; -8.0632783E+03;3;  2.4989134E+01;  0.0000000E+00;  7.9692639E-02;0;  3.0253269E-02;  3.9231750E+04;  0.0000000E+00; -7.8224493E-03;  4.0000000E+04;  0.0000000E+00;  3.9999523E+04;  3.2726280E-02;  0.0000000E+00; -2.4730107E-03;  7.5089496E+02;
  3.2330319E-02;  9.9999998E-03; -9.9992126E-02;2649;  4.9037021E-03;  0.0000000E+00;  3.7103461E-04;  9.9377966E+02;  1.0000000E-01; -5.1534346E+03;3; -2.8351435E-01;  0.0000000E+00;  2.7781439E-01;0;  2.9144330E-02;  3.9507688E+04;  0.0000000E+00; -3.1626839E-02;  4.0000000E+04;  0.0000000E+00;  4.0001281E+04;  3.1525124E-02;  0.0000000E+00; -2.3807937E-03;  7.1099261E+02;
  3.2329816E-02;  9.9999998E-03; -8.9992329E-02;2650;  4.9363724E-03;  0.0000000E+00;  3.2657973E-04;  9.9377380E+02;  1.0000000E-01; -5.1582739E+03;3; -8.4968168E-01;  0.0000000E+00;  1.1186476E-01;0;  2.9738139E-02;  3.9508379E+04;  0.0000000E+00; -2.1100903E-02;  4.0000000E+04;  0.0000000E+00;  4.0000727E+04;  3.2218348E-02;  0.0000000E+00; -2.4802091E-03;  5.9482336E+02;
  3.2330576E-02;  9.9999998E-03; -7.9992034E-02;2651;  4.9329316E-03;  0.0000000E+00;  2.7612963E-04;  9.9376776E+02;  1.0000000E-01; -5.1633105E+03;3; -1.2064289E+00;  0.0000000E+00;  8.1169177E-03;0;  3.0258417E-02;  3.9508273E+04;  0.0000000E+00; -1.5233052E-02;  4.0000000E+04;  0.0000000E+00;  3.9999758E+04;  3.2826427E-02;  0.0000000E+00; -2.5680102E-03;  5.0162354E+02;
  3.2331910E-02;  9.9999998E-03; -6.9991313E-02;2652;  4.8956843E-03;  0.0000000E+00;  2.2255244E-04;  9.9375568E+02;  1.0000000E-01; -5.1732856E+03;3; -1.2488487E+00;  0.0000000E+00; -4.6864640E-02;0;  3.0688571E-02;  3.9507586E+04;  0.0000000E+00; -1.1636845E-02;  4.0000000E+04;  0.0000000E+00;  3.9999121E+04;  3.3327222E-02;  0.0000000E+00; -2.6386508E-03;  4.5831366E+02;
  3.2333210E-02;  9.9999998E-03; -5.9990488E-02;2653;  4.8315981E-03;  0.0000000E+00;  1.6957246E-04;  9.9374176E+02;  1.0000000E-01; -5.1848408E+03;3; -9.7170663E-01;  0.0000000E+00; -6.6812105E-02;0;  3.1023655E-02;  3.9506559E+04;  0.0000000E+00; -8.9572212E-03;  4.0000000E+04;  0.0000000E+00;  4.0000133E+04;  3.3712622E-02;  0.0000000E+00; -2.6889660E-03;  4.7970108E+02;
  3.2333985E-02;  9.9999998E-03; -4.9990151E-02;2654;  4.7506322E-03;  0.0000000E+00;  1.2100082E-04;  9.9373553E+02;  1.0000000E-01; -5.1899766E+03;3; -4.5807901E-01;  0.0000000E+00; -6.4689457E-02;0;  3.1269174E-02;  3.9505426E+04;  0.0000000E+00; -6.6105537E-03;  4.0000000E+04;  0.0000000E+00;  4.0000328E+04;  3.3987820E-02;  0.0000000E+00; -2.7186463E-03;  5.6461487E+02;
  3.2334041E-02;  9.9999998E-03; -3.9990604E-02;2655;  4.6642977E-03;  0.0000000E+00;  7.9956648E-05;  9.9373401E+02;  1.0000000E-01; -5.1912607E+03;3;  2.1802771E-01;  0.0000000E+00; -5.1402926E-02;0;  3.1437851E-02;  3.9504109E+04;  0.0000000E+00; -4.4740937E-03;  4.0000000E+04;  0.0000000E+00;  4.0001078E+04;  3.4168147E-02;  0.0000000E+00; -2.7302955E-03;  6.9655316E+02;
  3.2333609E-02;  9.9999998E-03; -2.9991958E-02;2656;  4.5838268E-03;  0.0000000E+00;  4.8219044E-05;  9.9373254E+02;  1.0000000E-01; -5.1924458E+03;3;  9.5421445E-01;  0.0000000E+00; -3.5047662E-02;0;  3.1546064E-02;  3.9503105E+04;  0.0000000E+00; -2.6283925E-03;  4.0000000E+04;  0.0000000E+00;  4.0002789E+04;  3.4275115E-02;  0.0000000E+00; -2.7290508E-03;  8.4792468E+02;
  3.2332934E-02;  9.9999998E-03; -1.9994127E-02;2657;  4.5187986E-03;  0.0000000E+00;  2.5784801E-05;  9.9373535E+02;  1.0000000E-01; -5.1901250E+03;3;  1.5893437E+00;  0.0000000E+00; -2.0373965E-02;0;  3.1610049E-02;  3.9502160E+04;  0.0000000E+00; -1.2034430E-03;  4.0000000E+04;  0.0000000E+00;  4.0003391E+04;  3.4331497E-02;  0.0000000E+00; -2.7214461E-03;  9.8673669E+02;
  3.2332357E-02;  9.9999998E-03; -9.9969003E-03;2658;  4.4766818E-03;  0.0000000E+00;  1.0819896E-05;  9.9373846E+02;  1.0000000E-01; -5.1875571E+03;3;  2.0200849E+00;  0.0000000E+00; -9.0002408E-03;0;  3.1642843E-02;  3.9501691E+04;  0.0000000E+00; -3.0599959E-04;  4.0000000E+04;  0.0000000E+00;  4.0004516E+04;  3.4356665E-02;  0.0000000E+00; -2.7138232E-03;  1.0837156E+03;
  3.2332134E-02;  9.9999998E-03;  1.7822537E-10;2659;  4.4621122E-03;  0.0000000E+00;  3.9429233E-09;  9.9373981E+02;  1.0000000E-01; -5.1864707E+03;3;  2.1719472E+00;  0.0000000E+00; -6.9779794E-06;0;  3.1652860E-02;  3.9501336E+04;  0.0000000E+00;  1.4238283E-14;  4.0000000E+04;  0.0000000E+00;  4.0004723E+04;  3.4363594E-02;  0.0000000E+00; -2.7107324E-03;  1.1184760E+03;
  3.2332357E-02;  9.9999998E-03;  9.9969003E-03;2660;  4.4766860E-03;  0.0000000E+00; -1.0811092E-05;  9.9373834E+02;  1.0000000E-01; -5.1876558E+03;3;  2.0207415E+00;  0.0000000E+00;  9.0025514E-03;0;  3.1642828E-02;  3.9501691E+04;  0.0000000E+00; -3.0596377E-04;  4.0000000E+04;  0.0000000E+00;  4.0004516E+04;  3.4356654E-02;  0.0000000E+00; -2.7138242E-03;  1.0837201E+03;
  3.2332934E-02;  9.9999998E-03;  1.9994127E-02;2661;  4.5187995E-03;  0.0000000E+00; -2.5776550E-05;  9.9373547E+02;  1.0000000E-01; -5.1900259E+03;3;  1.5887700E+00;  0.0000000E+00;  2.0358916E-02;0;  3.1609993E-02;  3.9502156E+04;  0.0000000E+00; -1.2033219E-03;  4.0000000E+04;  0.0000000E+00;  4.0003391E+04;  3.4331445E-02;  0.0000000E+00; -2.7214522E-03;  9.8674316E+02;
  3.2333609E-02;  9.9999998E-03;  2.9991958E-02;2662;  4.5838323E-03;  0.0000000E+00; -4.8212220E-05;  9.9373248E+02;  1.0000000E-01; -5.1924951E+03;3;  9.5456189E-01;  0.0000000E+00;  3.5037145E-02;0;  3.1546026E-02;  3.9503102E+04;  0.0000000E+00; -2.6280547E-03;  4.0000000E+04;  0.0000000E+00;  4.0002789E+04;  3.4275085E-02;  0.0000000E+00; -2.7290587E-03;  8.4793170E+02;
  3.2334041E-02;  9.9999998E-03;  3.9990604E-02;2663;  4.6643042E-03;  0.0000000E+00; -7.9949044E-05;  9.9373395E+02;  1.0000000E-01; -5.1913101E+03;3;  2.1840419E-01;  0.0000000E+00;  5.1411036E-02;0;  3.1437803E-02;  3.9504117E+04;  0.0000000E+00; -4.4743950E-03;  4.0000000E+04;  0.0000000E+00;  4.0001074E+04;  3.4168109E-02;  0.0000000E+00; -2.7303062E-03;  6.9656488E+02;
  3.2333985E-02;  9.9999998E-03;  4.9990151E-02;2664;  4.7506369E-03;  0.0000000E+00; -1.2099274E-04;  9.9373553E+02;  1.0000000E-01; -5.1899766E+03;3; -4.5801815E-01;  0.0000000E+00;  6.4670078E-02;0;  3.1269107E-02;  3.9505426E+04;  0.0000000E+00; -6.6105677E-03;  4.0000000E+04;  0.0000000E+00;  4.0000328E+04;  3.3987761E-02;  0.0000000E+00; -2.7186552E-03;  5.6462665E+02;
  3.2333210E-02;  9.9999998E-03;  5.9990488E-02;2665;  4.8316028E-03;  0.0000000E+00; -1.6956682E-04;  9.9374176E+02;  1.0000000E-01; -5.1848408E+03;3; -9.7160244E-01;  0.0000000E+00;  6.6793330E-02;0;  3.1023579E-02;  3.9506559E+04;  0.0000000E+00; -8.9569492E-03;  4.0000000E+04;  0.0000000E+00;  4.0000133E+04;  3.3712558E-02;  0.0000000E+00; -2.6889790E-03;  4.7971719E+02;
  4.2030782E-02;  9.9999998E-03; -9.9997975E-02;2710;  4.0000980E-03;  0.0000000E+00;  3.5791352E-04;  9.9699719E+02;  1.0000000E-01; -2.4877815E+03;3; -1.6849524E+01;  0.0000000E+00;  2.0033725E-01;0;  3.2304525E-02;  3.9764188E+04;  0.0000000E+00; -3.1406626E-02;  4.0000000E+04;  0.0000000E+00;  4.0003188E+04;  3.4826975E-02;  0.0000000E+00; -2.5224506E-03;  6.6226044E+02;
  4.2032026E-02;  9.9999998E-03; -8.9999653E-02;2711;  4.0374603E-03;  0.0000000E+00;  3.2190318E-04;  9.9698749E+02;  1.0000000E-01; -2.4958306E+03;3; -1.7428385E+01;  0.0000000E+00;  7.7266291E-02;0;  3.3041228E-02;  3.9764535E+04;  0.0000000E+00; -2.1216519E-02;  4.0000000E+04;  0.0000000E+00;  4.0002152E+04;  3.5663672E-02;  0.0000000E+00; -2.6224435E-03;  5.0869690E+02;
  4.2035591E-02;  9.9999998E-03; -7.9999968E-02;2712;  4.0363302E-03;  0.0000000E+00;  2.7996223E-04;  9.9696857E+02;  1.0000000E-01; -2.5114846E+03;3; -1.7812092E+01;  0.0000000E+00;  1.2121637E-03;0;  3.3681035E-02;  3.9764434E+04;  0.0000000E+00; -1.5121848E-02;  4.0000000E+04;  0.0000000E+00;  4.0001160E+04;  3.6399469E-02;  0.0000000E+00; -2.7184349E-03;  3.6934015E+02;
  4.2039804E-02;  9.9999998E-03; -6.9999158E-02;2713;  3.9982810E-03;  0.0000000E+00;  2.3386051E-04;  9.9695282E+02;  1.0000000E-01; -2.5245212E+03;3; -1.7967340E+01;  0.0000000E+00; -3.8488600E-02;0;  3.4209255E-02;  3.9763684E+04;  0.0000000E+00; -1.1120905E-02;  4.0000000E+04;  0.0000000E+00;  4.0000332E+04;  3.7013814E-02;  0.0000000E+00; -2.8045604E-03;  2.8027945E+02;
  4.2043816E-02;  9.9999998E-03; -5.9997886E-02;2714;  3.9309543E-03;  0.0000000E+00;  1.8667232E-04;  9.9694012E+02;  1.0000000E-01; -2.5350393E+03;3; -1.7852997E+01;  0.0000000E+00; -5.1902946E-02;0;  3.4622971E-02;  3.9762719E+04;  0.0000000E+00; -8.1180502E-03;  4.0000000E+04;  0.0000000E+00;  3.9999805E+04;  3.7499148E-02;  0.0000000E+00; -2.8761779E-03;  2.6302682E+02;
  4.2046938E-02;  9.9999998E-03; -4.9996734E-02;2715;  3.8450921E-03;  0.0000000E+00;  1.4162934E-04;  9.9693323E+02;  1.0000000E-01; -2.5407676E+03;3; -1.7499630E+01;  0.0000000E+00; -4.9008470E-02;0;  3.4929961E-02;  3.9761730E+04;  0.0000000E+00; -5.6555499E-03;  4.0000000E+04;  0.0000000E+00;  4.0000941E+04;  3.7860692E-02;  0.0000000E+00; -2.9307320E-03;  3.2008441E+02;
  4.2049058E-02;  9.9999998E-03; -3.9996065E-02;2716;  3.7529650E-03;  0.0000000E+00;  1.0149736E-04;  9.9693036E+02;  1.0000000E-01; -2.5431379E+03;3; -1.6973211E+01;  0.0000000E+00; -3.7998427E-02;0;  3.5145435E-02;  3.9760621E+04;  0.0000000E+00; -3.6203046E-03;  4.0000000E+04;  0.0000000E+00;  4.0001395E+04;  3.8113564E-02;  0.0000000E+00; -2.9681304E-03;  4.3540720E+02;
  4.2050362E-02;  9.9999998E-03; -2.9996084E-02;2717;  3.6652300E-03;  0.0000000E+00;  6.7224646E-05;  9.9693188E+02;  1.0000000E-01; -2.5418540E+03;3; -1.6389324E+01;  0.0000000E+00; -2.5096113E-02;0;  3.5288196E-02;  3.9759676E+04;  0.0000000E+00; -2.0247924E-03;  4.0000000E+04;  0.0000000E+00;  4.0002914E+04;  3.8278844E-02;  0.0000000E+00; -2.9906472E-03;  5.7932166E+02;
  4.2051028E-02;  9.9999998E-03; -1.9996818E-02;2718;  3.5938465E-03;  0.0000000E+00;  3.9791477E-05;  9.9693640E+02;  1.0000000E-01; -2.5381504E+03;3; -1.5868285E+01;  0.0000000E+00; -1.4182833E-02;0;  3.5375670E-02;  3.9758953E+04;  0.0000000E+00; -8.9183589E-04;  4.0000000E+04;  0.0000000E+00;  4.0003875E+04;  3.8377821E-02;  0.0000000E+00; -3.0021532E-03;  7.1651129E+02;
  4.2051323E-02;  9.9999998E-03; -9.9981995E-03;2719;  3.5474754E-03;  0.0000000E+00;  1.8247238E-05;  9.9693958E+02;  1.0000000E-01; -2.5354839E+03;3; -1.5504841E+01;  0.0000000E+00; -6.1434451E-03;0;  3.5422076E-02;  3.9758344E+04;  0.0000000E+00; -2.2120892E-04;  4.0000000E+04;  0.0000000E+00;  4.0004672E+04;  3.8428955E-02;  0.0000000E+00; -3.0068781E-03;  8.1422192E+02;
  4.2051394E-02;  9.9999998E-03;  1.2004631E-10;2720;  3.5314255E-03;  0.0000000E+00;  3.4952001E-09;  9.9694232E+02;  1.0000000E-01; -2.5332124E+03;3; -1.5381779E+01;  0.0000000E+00; -1.7399772E-05;0;  3.5436459E-02;  3.9758191E+04;  0.0000000E+00; -5.6236960E-13;  4.0000000E+04;  0.0000000E+00;  4.0004840E+04;  3.8444512E-02;  0.0000000E+00; -3.0080515E-03;  8.4950781E+02;
  4.2051323E-02;  9.9999998E-03;  9.9981995E-03;2721;  3.5474780E-03;  0.0000000E+00; -1.8240064E-05;  9.9693951E+02;  1.0000000E-01; -2.5355332E+03;3; -1.5504546E+01;  0.0000000E+00;  6.1148014E-03;0;  3.5422027E-02;  3.9758340E+04;  0.0000000E+00; -2.2116846E-04;  4.0000000E+04;  0.0000000E+00;  4.0004672E+04;  3.8428910E-02;  0.0000000E+00; -3.0068820E-03;  8.1422583E+02;
  4.2051028E-02;  9.9999998E-03;  1.9996818E-02;2722;  3.5938502E-03;  0.0000000E+00; -3.9783976E-05;  9.9693640E+02;  1.0000000E-01; -2.5381504E+03;3; -1.5868289E+01;  0.0000000E+00;  1.4152348E-02;0;  3.5375617E-02;  3.9758957E+04;  0.0000000E+00; -8.9171308E-04;  4.0000000E+04;  0.0000000E+00;  4.0003875E+04;  3.8377780E-02;  0.0000000E+00; -3.0021612E-03;  7.1651398E+02;
  4.2050362E-02;  9.9999998E-03;  2.9996084E-02;2723;  3.6652351E-03;  0.0000000E+00; -6.7214976E-05;  9.9693188E+02;  1.0000000E-01; -2.5418540E+03;3; -1.6389261E+01;  0.0000000E+00;  2.5108334E-02;0;  3.5288103E-02;  3.9759676E+04;  0.0000000E+00; -2.0246638E-03;  4.0000000E+04;  0.0000000E+00;  4.0002914E+04;  3.8278762E-02;  0.0000000E+00; -2.9906575E-03;  5.7933618E+02;
  4.2049058E-02;  9.9999998E-03;  3.9996065E-02;2724;  3.7529715E-03;  0.0000000E+00; -1.0148777E-04;  9.9693030E+02;  1.0000000E-01; -2.5431873E+03;3; -1.6972891E+01;  0.0000000E+00;  3.7998665E-02;0;  3.5145354E-02;  3.9760621E+04;  0.0000000E+00; -3.6204148E-03;  4.0000000E+04;  0.0000000E+00;  4.0001395E+04;  3.8113497E-02;  0.0000000E+00; -2.9681430E-03;  4.3541608E+02;
  4.2046938E-02;  9.9999998E-03;  4.9996734E-02;2725;  3.8450963E-03;  0.0000000E+00; -1.4161934E-04;  9.9693323E+02;  1.0000000E-01; -2.5407676E+03;3; -1.7499552E+01;  0.0000000E+00;  4.9018491E-02;0;  3.4929879E-02;  3.9761727E+04;  0.0000000E+00; -5.6551206E-03;  4.0000000E+04;  0.0000000E+00;  4.0000945E+04;  3.7860624E-02;  0.0000000E+00; -2.9307436E-03;  3.2010056E+02;
  4.2043816E-02;  9.9999998E-03;  5.9997886E-02;2726;  3.9309580E-03;  0.0000000E+00; -1.8666156E-04;  9.9694012E+02;  1.0000000E-01; -2.5350393E+03;3; -1.7852913E+01;  0.0000000E+00;  5.1936008E-02;0;  3.4622900E-02;  3.9762727E+04;  0.0000000E+00; -8.1181983E-03;  4.0000000E+04;  0.0000000E+00;  3.9999805E+04;  3.7499089E-02;  0.0000000E+00; -2.8761888E-03;  2.6304242E+02;
  5.1769700E-02;  9.9999998E-03; -1.0000847E-01;2771;  3.3343111E-03;  0.0000000E+00;  3.3809512E-04;  9.9964160E+02;  1.0000000E-01; -2.9692987E+02;3; -2.4194611E+01;  0.0000000E+00;  1.4110863E-01;0;  3.8556434E-02;  3.9977121E+04;  0.0000000E+00; -2.7029904E-02;  4.0000000E+04;  0.0000000E+00;  4.0005637E+04;  4.1205972E-02;  0.0000000E+00; -2.6495366E-03;  6.9700604E+02;
  5.1772162E-02;  9.9999998E-03; -9.0010241E-02;2772;  3.3742581E-03;  0.0000000E+00;  3.1191282E-04;  9.9962708E+02;  1.0000000E-01; -3.0897891E+02;3; -2.4737415E+01;  0.0000000E+00;  5.4235063E-02;0;  3.9416149E-02;  3.9977305E+04;  0.0000000E+00; -1.7724644E-02;  4.0000000E+04;  0.0000000E+00;  4.0003633E+04;  4.2160723E-02;  0.0000000E+00; -2.7445727E-03;  5.0496384E+02;
  5.1777121E-02;  9.9999998E-03; -8.0009744E-02;2773;  3.3737719E-03;  0.0000000E+00;  2.8031121E-04;  9.9960309E+02;  1.0000000E-01; -3.2883020E+02;3; -2.5136066E+01;  0.0000000E+00;  1.0656366E-03;0;  4.0150773E-02;  3.9976992E+04;  0.0000000E+00; -1.1808470E-02;  4.0000000E+04;  0.0000000E+00;  4.0002188E+04;  4.2996217E-02;  0.0000000E+00; -2.8454431E-03;  3.1946252E+02;
  5.1782921E-02;  9.9999998E-03; -7.0007592E-02;2774;  3.3348037E-03;  0.0000000E+00;  2.4346184E-04;  9.9958374E+02;  1.0000000E-01; -3.4487912E+02;3; -2.5349419E+01;  0.0000000E+00; -2.5897030E-02;0;  4.0749837E-02;  3.9976551E+04;  0.0000000E+00; -7.8470251E-03;  4.0000000E+04;  0.0000000E+00;  4.0001559E+04;  4.3695524E-02;  0.0000000E+00; -2.9456862E-03;  1.8575061E+02;
  5.1788479E-02;  9.9999998E-03; -6.0004897E-02;2775;  3.2649564E-03;  0.0000000E+00;  2.0289520E-04;  9.9957104E+02;  1.0000000E-01; -3.5539737E+02;3; -2.5338816E+01;  0.0000000E+00; -3.4139473E-02;0;  4.1215446E-02;  3.9975820E+04;  0.0000000E+00; -5.0391611E-03;  4.0000000E+04;  0.0000000E+00;  4.0000852E+04;  4.4254128E-02;  0.0000000E+00; -3.0386811E-03;  1.3184933E+02;
  5.1793154E-02;  9.9999998E-03; -5.0002359E-02;2776;  3.1755196E-03;  0.0000000E+00;  1.6114586E-04;  9.9956592E+02;  1.0000000E-01; -3.5964413E+02;3; -2.5116423E+01;  0.0000000E+00; -3.1222170E-02;0;  4.1559704E-02;  3.9975180E+04;  0.0000000E+00; -3.0170998E-03;  4.0000000E+04;  0.0000000E+00;  4.0001035E+04;  4.4678748E-02;  0.0000000E+00; -3.1190428E-03;  1.6339313E+02;
  5.1796809E-02;  9.9999998E-03; -4.0000368E-02;2777;  3.0793366E-03;  0.0000000E+00;  1.2096209E-04;  9.9956763E+02;  1.0000000E-01; -3.5821210E+02;3; -2.4740582E+01;  0.0000000E+00; -2.3142809E-02;0;  4.1801430E-02;  3.9974445E+04;  0.0000000E+00; -1.6226828E-03;  4.0000000E+04;  0.0000000E+00;  4.0001914E+04;  4.4984944E-02;  0.0000000E+00; -3.1835141E-03;  2.6425842E+02;
  5.1799409E-02;  9.9999998E-03; -2.9999139E-02;2778;  2.9889687E-03;  0.0000000E+00;  8.4501757E-05;  9.9957745E+02;  1.0000000E-01; -3.5006418E+02;3; -2.4311485E+01;  0.0000000E+00; -1.4333857E-02;0;  4.1961659E-02;  3.9974137E+04;  0.0000000E+00; -7.4881397E-04;  4.0000000E+04;  0.0000000E+00;  4.0003352E+04;  4.5192786E-02;  0.0000000E+00; -3.2311259E-03;  4.0251163E+02;
  5.1801093E-02;  9.9999998E-03; -1.9998791E-02;2779;  2.9156276E-03;  0.0000000E+00;  5.2732827E-05;  9.9958734E+02;  1.0000000E-01; -3.4186688E+02;3; -2.3911346E+01;  0.0000000E+00; -7.3473551E-03;0;  4.2060159E-02;  3.9973727E+04;  0.0000000E+00; -2.7228126E-04;  4.0000000E+04;  0.0000000E+00;  4.0004121E+04;  4.5322996E-02;  0.0000000E+00; -3.2628365E-03;  5.3924548E+02;
  5.1802043E-02;  9.9999998E-03; -9.9991858E-03;2780;  2.8679692E-03;  0.0000000E+00;  2.5126612E-05;  9.9959210E+02;  1.0000000E-01; -3.3791638E+02;3; -2.3621304E+01;  0.0000000E+00; -2.8513328E-03;0;  4.2112593E-02;  3.9973457E+04;  0.0000000E+00; -5.8024358E-05;  4.0000000E+04;  0.0000000E+00;  4.0004613E+04;  4.5393214E-02;  0.0000000E+00; -3.2806199E-03;  6.3830878E+02;
  5.1802363E-02;  9.9999998E-03;  8.9848143E-11;2781;  2.8514157E-03;  0.0000000E+00;  4.3984447E-09;  9.9959674E+02;  1.0000000E-01; -3.3411401E+02;3; -2.3526985E+01;  0.0000000E+00; -9.4660991E-06;0;  4.2129017E-02;  3.9973402E+04;  0.0000000E+00; -7.2154267E-13;  4.0000000E+04;  0.0000000E+00;  4.0005223E+04;  4.5415323E-02;  0.0000000E+00; -3.2863060E-03;  6.7436847E+02;
  5.1802043E-02;  9.9999998E-03;  9.9991858E-03;2782;  2.8679676E-03;  0.0000000E+00; -2.5116313E-05;  9.9959216E+02;  1.0000000E-01; -3.3786697E+02;3; -2.3621506E+01;  0.0000000E+00;  2.8442128E-03;0;  4.2112559E-02;  3.9973457E+04;  0.0000000E+00; -5.7954541E-05;  4.0000000E+04;  0.0000000E+00;  4.0004613E+04;  4.5393188E-02;  0.0000000E+00; -3.2806266E-03;  6.3830981E+02;
  5.1801093E-02;  9.9999998E-03;  1.9998791E-02;2783;  2.9156306E-03;  0.0000000E+00; -5.2723492E-05;  9.9958734E+02;  1.0000000E-01; -3.4186688E+02;3; -2.3911299E+01;  0.0000000E+00;  7.3286202E-03;0;  4.2060081E-02;  3.9973727E+04;  0.0000000E+00; -2.7223027E-04;  4.0000000E+04;  0.0000000E+00;  4.0004121E+04;  4.5322925E-02;  0.0000000E+00; -3.2628432E-03;  5.3925391E+02;
  5.1799409E-02;  9.9999998E-03;  2.9999139E-02;2784;  2.9889727E-03;  0.0000000E+00; -8.4491796E-05;  9.9957739E+02;  1.0000000E-01; -3.5011356E+02;3; -2.4311239E+01;  0.0000000E+00;  1.4332986E-02;0;  4.1961569E-02;  3.9974141E+04;  0.0000000E+00; -7.4861391E-04;  4.0000000E+04;  0.0000000E+00;  4.0003352E+04;  4.5192707E-02;  0.0000000E+00; -3.2311389E-03;  4.0251633E+02;
  5.1796809E-02;  9.9999998E-03;  4.0000368E-02;2785;  3.0793403E-03;  0.0000000E+00; -1.2095112E-04;  9.9956763E+02;  1.0000000E-01; -3.5821210E+02;3; -2.4740530E+01;  0.0000000E+00;  2.3150645E-02;0;  4.1801319E-02;  3.9974449E+04;  0.0000000E+00; -1.6223016E-03;  4.0000000E+04;  0.0000000E+00;  4.0001918E+04;  4.4984847E-02;  0.0000000E+00; -3.1835288E-03;  2.6427655E+02;
  5.1793154E-02;  9.9999998E-03;  5.0002363E-02;2786;  3.1755192E-03;  0.0000000E+00; -1.6113407E-04;  9.9956592E+02;  1.0000000E-01; -3.5964413E+02;3; -2.5116405E+01;  0.0000000E+00;  3.1239297E-02;0;  4.1559607E-02;  3.9975180E+04;  0.0000000E+00; -3.0166653E-03;  4.0000000E+04;  0.0000000E+00;  4.0001035E+04;  4.4678666E-02;  0.0000000E+00; -3.1190582E-03;  1.6340303E+02;
  5.1788479E-02;  9.9999998E-03;  6.0004897E-02;2787;  3.2649580E-03;  0.0000000E+00; -2.0288397E-04;  9.9957104E+02;  1.0000000E-01; -3.5539737E+02;3; -2.5338778E+01;  0.0000000E+00;  3.4172796E-02;0;  4.1215349E-02;  3.9975824E+04;  0.0000000E+00; -5.0386959E-03;  4.0000000E+04;  0.0000000E+00;  4.0000852E+04;  4.4254038E-02;  0.0000000E+00; -3.0386897E-03;  1.3186314E+02;
  6.1557859E-02;  9.9999998E-03; -1.0002279E-01;2832;  2.8963774E-03;  0.0000000E+00;  3.1453557E-04;  1.0015454E+03;  1.0000000E-01;  1.2803589E+03;3; -2.4301376E+01;  0.0000000E+00;  1.0318009E-01;0;  4.7593400E-02;  4.0131301E+04;  0.0000000E+00; -1.9214977E-02;  4.0000000E+04;  0.0000000E+00;  4.0007891E+04;  5.0364174E-02;  0.0000000E+00; -2.7707729E-03;  8.2143433E+02;
  6.1559219E-02;  9.9999998E-03; -9.0024441E-02;2833;  2.9428345E-03;  0.0000000E+00;  3.0107491E-04;  1.0015217E+03;  1.0000000E-01;  1.2607051E+03;3; -2.4762060E+01;  0.0000000E+00;  4.4319052E-02;0;  4.8529271E-02;  4.0131383E+04;  0.0000000E+00; -1.1282995E-02;  4.0000000E+04;  0.0000000E+00;  4.0005590E+04;  5.1384415E-02;  0.0000000E+00; -2.8551458E-03;  5.9258514E+02;
  6.1563581E-02;  9.9999998E-03; -8.0022573E-02;2834;  2.9459507E-03;  0.0000000E+00;  2.8169563E-04;  1.0014978E+03;  1.0000000E-01;  1.2408538E+03;3; -2.5142523E+01;  0.0000000E+00;  8.4915673E-03;0;  4.9310036E-02;  4.0131082E+04;  0.0000000E+00; -6.0357256E-03;  4.0000000E+04;  0.0000000E+00;  4.0004422E+04;  5.2267078E-02;  0.0000000E+00; -2.9570418E-03;  3.6432492E+02;
  6.1569452E-02;  9.9999998E-03; -7.0018135E-02;2835;  2.9082748E-03;  0.0000000E+00;  2.5560096E-04;  1.0014799E+03;  1.0000000E-01;  1.2260394E+03;3; -2.5376757E+01;  0.0000000E+00; -9.1915056E-03;0;  4.9933184E-02;  4.0130965E+04;  0.0000000E+00; -2.6434336E-03;  4.0000000E+04;  0.0000000E+00;  4.0002664E+04;  5.3002149E-02;  0.0000000E+00; -3.0689663E-03;  1.9077484E+02;
  6.1575521E-02;  9.9999998E-03; -6.0012799E-02;2836;  2.8375834E-03;  0.0000000E+00;  2.2323924E-04;  1.0014730E+03;  1.0000000E-01;  1.2204099E+03;3; -2.5434029E+01;  0.0000000E+00; -1.4398068E-02;0;  5.0408304E-02;  4.0130691E+04;  0.0000000E+00; -5.5926573E-04;  4.0000000E+04;  0.0000000E+00;  4.0001848E+04;  5.3590070E-02;  0.0000000E+00; -3.1817679E-03;  1.0596251E+02;
  6.1580993E-02;  9.9999998E-03; -5.0007895E-02;2837;  2.7460330E-03;  0.0000000E+00;  1.8648447E-04;  1.0014757E+03;  1.0000000E-01;  1.2225828E+03;3; -2.5315237E+01;  0.0000000E+00; -1.2386826E-02;0;  5.0753627E-02;  4.0130832E+04;  0.0000000E+00;  5.5379776E-04;  4.0000000E+04;  0.0000000E+00;  4.0002035E+04;  5.4040443E-02;  0.0000000E+00; -3.2868164E-03;  1.1764111E+02;
  6.1585419E-02;  9.9999998E-03; -4.0003996E-02;2838;  2.6465622E-03;  0.0000000E+00;  1.4751809E-04;  1.0014878E+03;  1.0000000E-01;  1.2326565E+03;3; -2.5067776E+01;  0.0000000E+00; -7.3166853E-03;0;  5.0992329E-02;  4.0130930E+04;  0.0000000E+00;  9.3453348E-04;  4.0000000E+04;  0.0000000E+00;  4.0002965E+04;  5.4369703E-02;  0.0000000E+00; -3.3773747E-03;  2.0886546E+02;
  6.1588682E-02;  9.9999998E-03; -3.0001445E-02;2839;  2.5524525E-03;  0.0000000E+00;  1.0857800E-04;  1.0015022E+03;  1.0000000E-01;  1.2445081E+03;3; -2.4752697E+01;  0.0000000E+00; -2.4684025E-03;0;  5.1148355E-02;  4.0131188E+04;  0.0000000E+00;  8.1912562E-04;  4.0000000E+04;  0.0000000E+00;  4.0004086E+04;  5.4597542E-02;  0.0000000E+00; -3.4491858E-03;  3.4491916E+02;
  6.1590943E-02;  9.9999998E-03; -2.0000169E-02;2840;  2.4751115E-03;  0.0000000E+00;  7.0748058E-05;  1.0015202E+03;  1.0000000E-01;  1.2594211E+03;3; -2.4462582E+01;  0.0000000E+00;  4.6379920E-04;0;  5.1243193E-02;  4.0131320E+04;  0.0000000E+00;  4.6854265E-04;  4.0000000E+04;  0.0000000E+00;  4.0005090E+04;  5.4743540E-02;  0.0000000E+00; -3.5003445E-03;  4.8348807E+02;
  6.1592270E-02;  9.9999998E-03; -9.9998675E-03;2841;  2.4243381E-03;  0.0000000E+00;  3.4626089E-05;  1.0015336E+03;  1.0000000E-01;  1.2705813E+03;3; -2.4257963E+01;  0.0000000E+00;  1.0080148E-03;0;  5.1293299E-02;  4.0131539E+04;  0.0000000E+00;  1.3406386E-04;  4.0000000E+04;  0.0000000E+00;  4.0006109E+04;  5.4823983E-02;  0.0000000E+00; -3.5306839E-03;  5.8511804E+02;
  6.1592698E-02;  9.9999998E-03;  4.5351344E-11;2842;  2.4067012E-03;  0.0000000E+00;  4.9998627E-09;  1.0015374E+03;  1.0000000E-01;  1.2736429E+03;3; -2.4181036E+01;  0.0000000E+00; -6.2342679E-06;0;  5.1308881E-02;  4.0131426E+04;  0.0000000E+00; -5.6500155E-13;  4.0000000E+04;  0.0000000E+00;  4.0006281E+04;  5.4849580E-02;  0.0000000E+00; -3.5406996E-03;  6.2230176E+02;
  6.1592270E-02;  9.9999998E-03;  9.9998675E-03;2843;  2.4243393E-03;  0.0000000E+00; -3.4615845E-05;  1.0015336E+03;  1.0000000E-01;  1.2705813E+03;3; -2.4257948E+01;  0.0000000E+00; -1.0209323E-03;0;  5.1293306E-02;  4.0131539E+04;  0.0000000E+00;  1.3408501E-04;  4.0000000E+04;  0.0000000E+00;  4.0006109E+04;  5.4823995E-02;  0.0000000E+00; -3.5306870E-03;  5.8511914E+02;
  6.1590943E-02;  9.9999998E-03;  2.0000169E-02;2844;  2.4751113E-03;  0.0000000E+00; -7.0737275E-05;  1.0015202E+03;  1.0000000E-01;  1.2594211E+03;3; -2.4462553E+01;  0.0000000E+00; -4.6150517E-04;0;  5.1243216E-02;  4.0131320E+04;  0.0000000E+00;  4.6871390E-04;  4.0000000E+04;  0.0000000E+00;  4.0005090E+04;  5.4743566E-02;  0.0000000E+00; -3.5003487E-03;  4.8350177E+02;
  6.1588682E-02;  9.9999998E-03;  3.0001445E-02;2845;  2.5524551E-03;  0.0000000E+00; -1.0856636E-04;  1.0015022E+03;  1.0000000E-01;  1.2445081E+03;3; -2.4752674E+01;  0.0000000E+00;  2.4772880E-03;0;  5.1148266E-02;  4.0131188E+04;  0.0000000E+00;  8.1940129E-04;  4.0000000E+04;  0.0000000E+00;  4.0004086E+04;  5.4597460E-02;  0.0000000E+00; -3.4491937E-03;  3.4492966E+02;
  6.1585419E-02;  9.9999998E-03;  4.0003996E-02;2846;  2.6465664E-03;  0.0000000E+00; -1.4750512E-04;  1.0014877E+03;  1.0000000E-01;  1.2325577E+03;3; -2.5067738E+01;  0.0000000E+00;  7.3388424E-03;0;  5.0992198E-02;  4.0130930E+04;  0.0000000E+00;  9.3478098E-04;  4.0000000E+04;  0.0000000E+00;  4.0002965E+04;  5.4369591E-02;  0.0000000E+00; -3.3773910E-03;  2.0887576E+02;
  6.1580997E-02;  9.9999998E-03;  5.0007895E-02;2847;  2.7460370E-03;  0.0000000E+00; -1.8647008E-04;  1.0014757E+03;  1.0000000E-01;  1.2225828E+03;3; -2.5315195E+01;  0.0000000E+00;  1.2422910E-02;0;  5.0753519E-02;  4.0130836E+04;  0.0000000E+00;  5.5406184E-04;  4.0000000E+04;  0.0000000E+00;  4.0002035E+04;  5.4040350E-02;  0.0000000E+00; -3.2868295E-03;  1.1765195E+02;
  6.1575521E-02;  9.9999998E-03;  6.0012799E-02;2848;  2.8375899E-03;  0.0000000E+00; -2.2322459E-04;  1.0014730E+03;  1.0000000E-01;  1.2203112E+03;3; -2.5433994E+01;  0.0000000E+00;  1.4448416E-02;0;  5.0408211E-02;  4.0130695E+04;  0.0000000E+00; -5.5851584E-04;  4.0000000E+04;  0.0000000E+00;  4.0001848E+04;  5.3589988E-02;  0.0000000E+00; -3.1817793E-03;  1.0598389E+02;
  7.1402363E-02;  9.9999998E-03; -1.0003839E-01;2893;  2.6774013E-03;  0.0000000E+00;  2.8752649E-04;  1.0026638E+03;  1.0000000E-01;  2.2069500E+03;3; -2.0121851E+01;  0.0000000E+00;  8.4493354E-02;0;  5.8577847E-02;  4.0221656E+04;  0.0000000E+00; -1.0413425E-02;  4.0000000E+04;  0.0000000E+00;  4.0010301E+04;  6.1470699E-02;  0.0000000E+00; -2.8928530E-03;  1.0308525E+03;
  7.1401216E-02;  9.9999998E-03; -9.0039603E-02;2894;  2.7315554E-03;  0.0000000E+00;  2.9047093E-04;  1.0026364E+03;  1.0000000E-01;  2.1842346E+03;3; -2.0494797E+01;  0.0000000E+00;  4.6284281E-02;0;  5.9518464E-02;  4.0221410E+04;  0.0000000E+00; -4.2624171E-03;  4.0000000E+04;  0.0000000E+00;  4.0007961E+04;  6.2479738E-02;  0.0000000E+00; -2.9612747E-03;  7.6992493E+02;
  7.1403824E-02;  9.9999998E-03; -8.0035895E-02;2895;  2.7426069E-03;  0.0000000E+00;  2.8596207E-04;  1.0026109E+03;  1.0000000E-01;  2.1630994E+03;3; -2.0814165E+01;  0.0000000E+00;  2.3065161E-02;0;  6.0275663E-02;  4.0221340E+04;  0.0000000E+00; -9.3543022E-05;  4.0000000E+04;  0.0000000E+00;  4.0006168E+04;  6.3335881E-02;  0.0000000E+00; -3.0602189E-03;  5.0565417E+02;
  7.1408607E-02;  9.9999998E-03; -7.0028640E-02;2896;  2.7125392E-03;  0.0000000E+00;  2.7175879E-04;  1.0025977E+03;  1.0000000E-01;  2.1521367E+03;3; -2.1031216E+01;  0.0000000E+00;  1.1129606E-02;0;  6.0858466E-02;  4.0221832E+04;  0.0000000E+00;  2.3907588E-03;  4.0000000E+04;  0.0000000E+00;  4.0004469E+04;  6.4039022E-02;  0.0000000E+00; -3.1805569E-03;  3.0033502E+02;
  7.1414217E-02;  9.9999998E-03; -6.0020227E-02;2897;  2.6491126E-03;  0.0000000E+00;  2.4731949E-04;  1.0025996E+03;  1.0000000E-01;  2.1537168E+03;3; -2.1115015E+01;  0.0000000E+00;  6.8814727E-03;0;  6.1286878E-02;  4.0222520E+04;  0.0000000E+00;  3.5251176E-03;  4.0000000E+04;  0.0000000E+00;  4.0003637E+04;  6.4597026E-02;  0.0000000E+00; -3.3101460E-03;  1.9270874E+02;
  7.1419619E-02;  9.9999998E-03; -5.0012656E-02;2898;  2.5637096E-03;  0.0000000E+00;  2.1395196E-04;  1.0026126E+03;  1.0000000E-01;  2.1644819E+03;3; -2.1061052E+01;  0.0000000E+00;  6.8239756E-03;0;  6.1586875E-02;  4.0223555E+04;  0.0000000E+00;  3.6383327E-03;  4.0000000E+04;  0.0000000E+00;  4.0003656E+04;  6.5023690E-02;  0.0000000E+00; -3.4368136E-03;  1.9179395E+02;
  7.1424313E-02;  9.9999998E-03; -4.0006921E-02;2899;  2.4694558E-03;  0.0000000E+00;  1.7441777E-04;  1.0026385E+03;  1.0000000E-01;  2.1860122E+03;3; -2.0909781E+01;  0.0000000E+00;  8.0184573E-03;0;  6.1786469E-02;  4.0224684E+04;  0.0000000E+00;  3.0472423E-03;  4.0000000E+04;  0.0000000E+00;  4.0003777E+04;  6.5336823E-02;  0.0000000E+00; -3.5503558E-03;  2.7906046E+02;
  7.1428023E-02;  9.9999998E-03; -3.0003153E-02;2900;  2.3793329E-03;  0.0000000E+00;  1.3137452E-04;  1.0026664E+03;  1.0000000E-01;  2.2090239E+03;3; -2.0702139E+01;  0.0000000E+00;  8.7712314E-03;0;  6.1911978E-02;  4.0225840E+04;  0.0000000E+00;  2.0725867E-03;  4.0000000E+04;  0.0000000E+00;  4.0005328E+04;  6.5555409E-02;  0.0000000E+00; -3.6434312E-03;  4.1684039E+02;
  7.1430698E-02;  9.9999998E-03; -2.0001093E-02;2901;  2.3049756E-03;  0.0000000E+00;  8.7296692E-05;  1.0026932E+03;  1.0000000E-01;  2.2312456E+03;3; -2.0501740E+01;  0.0000000E+00;  7.7937706E-03;0;  6.1985333E-02;  4.0226703E+04;  0.0000000E+00;  1.0475959E-03;  4.0000000E+04;  0.0000000E+00;  4.0006422E+04;  6.5696970E-02;  0.0000000E+00; -3.7116387E-03;  5.5946033E+02;
  7.1432300E-02;  9.9999998E-03; -1.0000231E-02;2902;  2.2560705E-03;  0.0000000E+00;  4.3422460E-05;  1.0027121E+03;  1.0000000E-01;  2.2469487E+03;3; -2.0358355E+01;  0.0000000E+00;  4.4623925E-03;0;  6.2022794E-02;  4.0227371E+04;  0.0000000E+00;  2.8224030E-04;  4.0000000E+04;  0.0000000E+00;  4.0007449E+04;  6.5775752E-02;  0.0000000E+00; -3.7529578E-03;  6.6471777E+02;
  7.1432821E-02;  9.9999998E-03; -3.2751201E-11;2903;  2.2391460E-03;  0.0000000E+00;  5.4446416E-09;  1.0027192E+03;  1.0000000E-01;  2.2528745E+03;3; -2.0307148E+01;  0.0000000E+00; -4.7009498E-06;0;  6.2034119E-02;  4.0227535E+04;  0.0000000E+00; -7.0004077E-13;  4.0000000E+04;  0.0000000E+00;  4.0007770E+04;  6.5800875E-02;  0.0000000E+00; -3.7667551E-03;  7.0330719E+02;
  7.1432300E-02;  9.9999998E-03;  1.0000231E-02;2904;  2.2560710E-03;  0.0000000E+00; -4.3412270E-05;  1.0027121E+03;  1.0000000E-01;  2.2469487E+03;3; -2.0358339E+01;  0.0000000E+00; -4.4808807E-03;0;  6.2022727E-02;  4.0227375E+04;  0.0000000E+00;  2.8233585E-04;  4.0000000E+04;  0.0000000E+00;  4.0007449E+04;  6.5775685E-02;  0.0000000E+00; -3.7529585E-03;  6.6472412E+02;
  7.1430698E-02;  9.9999998E-03;  2.0001093E-02;2905;  2.3049749E-03;  0.0000000E+00; -8.7284679E-05;  1.0026932E+03;  1.0000000E-01;  2.2312456E+03;3; -2.0501719E+01;  0.0000000E+00; -7.7987695E-03;0;  6.1985292E-02;  4.0226707E+04;  0.0000000E+00;  1.0477498E-03;  4.0000000E+04;  0.0000000E+00;  4.0006422E+04;  6.5696940E-02;  0.0000000E+00; -3.7116488E-03;  5.5947247E+02;
  7.1428023E-02;  9.9999998E-03;  3.0003153E-02;2906;  2.3793336E-03;  0.0000000E+00; -1.3136215E-04;  1.0026664E+03;  1.0000000E-01;  2.2091228E+03;3; -2.0702120E+01;  0.0000000E+00; -8.7767784E-03;0;  6.1911918E-02;  4.0225840E+04;  0.0000000E+00;  2.0728642E-03;  4.0000000E+04;  0.0000000E+00;  4.0005328E+04;  6.5555364E-02;  0.0000000E+00; -3.6434450E-03;  4.1684845E+02;
  7.1424313E-02;  9.9999998E-03;  4.0006921E-02;2907;  2.4694579E-03;  0.0000000E+00; -1.7440217E-04;  1.0026385E+03;  1.0000000E-01;  2.1859136E+03;3; -2.0909758E+01;  0.0000000E+00; -7.9831956E-03;0;  6.1786395E-02;  4.0224684E+04;  0.0000000E+00;  3.0478032E-03;  4.0000000E+04;  0.0000000E+00;  4.0003777E+04;  6.5336764E-02;  0.0000000E+00; -3.5503688E-03;  2.7907870E+02;
  7.1419619E-02;  9.9999998E-03;  5.0012656E-02;2908;  2.5637101E-03;  0.0000000E+00; -2.1393651E-04;  1.0026126E+03;  1.0000000E-01;  2.1644819E+03;3; -2.1061031E+01;  0.0000000E+00; -6.7967582E-03;0;  6.1586849E-02;  4.0223559E+04;  0.0000000E+00;  3.6383676E-03;  4.0000000E+04;  0.0000000E+00;  4.0003656E+04;  6.5023676E-02;  0.0000000E+00; -3.4368245E-03;  1.9180113E+02;
  7.1414217E-02;  9.9999998E-03;  6.0020227E-02;2909;  2.6491154E-03;  0.0000000E+00; -2.4730412E-04;  1.0025997E+03;  1.0000000E-01;  2.1538157E+03;3; -2.1115173E+01;  0.0000000E+00; -6.8557491E-03;0;  6.1286781E-02;  4.0222520E+04;  0.0000000E+00;  3.5247733E-03;  4.0000000E+04;  0.0000000E+00;  4.0003637E+04;  6.4596944E-02;  0.0000000E+00; -3.3101628E-03;  1.9272826E+02;
  8.1310891E-02;  9.9999998E-03; -1.0005146E-01;2954;  2.7112374E-03;  0.0000000E+00;  2.7359495E-04;  1.0030536E+03;  1.0000000E-01;  2.5299038E+03;3; -1.4416007E+01;  0.0000000E+00;  8.0791131E-02;0;  7.0224777E-02;  4.0251863E+04;  0.0000000E+00; -4.2380248E-03;  4.0000000E+04;  0.0000000E+00;  4.0012984E+04;  7.3243454E-02;  0.0000000E+00; -3.0186742E-03;  1.3098961E+03;
  8.1308179E-02;  9.9999998E-03; -9.0051405E-02;2955;  2.7734672E-03;  0.0000000E+00;  2.9310759E-04;  1.0030222E+03;  1.0000000E-01;  2.5038303E+03;3; -1.4691947E+01;  0.0000000E+00;  5.5260263E-02;0;  7.1075238E-02;  4.0251402E+04;  0.0000000E+00; -6.6072491E-05;  4.0000000E+04;  0.0000000E+00;  4.0010418E+04;  7.4141853E-02;  0.0000000E+00; -3.0666173E-03;  1.0247386E+03;
  8.1309363E-02;  9.9999998E-03; -8.0045126E-02;2956;  2.7947146E-03;  0.0000000E+00;  3.0021838E-04;  1.0030031E+03;  1.0000000E-01;  2.4879297E+03;3; -1.4942676E+01;  0.0000000E+00;  3.8627442E-02;0;  7.1721397E-02;  4.0251996E+04;  0.0000000E+00;  2.9307215E-03;  4.0000000E+04;  0.0000000E+00;  4.0008180E+04;  7.4880145E-02;  0.0000000E+00; -3.1587463E-03;  7.3394720E+02;
  8.1313245E-02;  9.9999998E-03; -7.0034534E-02;2957;  2.7760176E-03;  0.0000000E+00;  2.9028702E-04;  1.0030013E+03;  1.0000000E-01;  2.4865469E+03;3; -1.5123894E+01;  0.0000000E+00;  2.9802492E-02;0;  7.2187617E-02;  4.0253227E+04;  0.0000000E+00;  4.6099559E-03;  4.0000000E+04;  0.0000000E+00;  4.0005918E+04;  7.5471304E-02;  0.0000000E+00; -3.2836895E-03;  5.0660944E+02;
  8.1318259E-02;  9.9999998E-03; -6.0022812E-02;2958;  2.7251430E-03;  0.0000000E+00;  2.6595037E-04;  1.0030134E+03;  1.0000000E-01;  2.4965220E+03;3; -1.5204410E+01;  0.0000000E+00;  2.6234247E-02;0;  7.2505675E-02;  4.0255105E+04;  0.0000000E+00;  5.1050028E-03;  4.0000000E+04;  0.0000000E+00;  4.0005270E+04;  7.5931594E-02;  0.0000000E+00; -3.4259190E-03;  3.8517831E+02;
  8.1323549E-02;  9.9999998E-03; -5.0012920E-02;2959;  2.6528081E-03;  0.0000000E+00;  2.3219043E-04;  1.0030449E+03;  1.0000000E-01;  2.5226941E+03;3; -1.5194192E+01;  0.0000000E+00;  2.4757359E-02;0;  7.2710499E-02;  4.0257375E+04;  0.0000000E+00;  4.6896227E-03;  4.0000000E+04;  0.0000000E+00;  4.0005273E+04;  7.6280206E-02;  0.0000000E+00; -3.5697042E-03;  3.7883240E+02;
  8.1328481E-02;  9.9999998E-03; -4.0006097E-02;2960;  2.5696848E-03;  0.0000000E+00;  1.9074407E-04;  1.0030849E+03;  1.0000000E-01;  2.5557795E+03;3; -1.5107389E+01;  0.0000000E+00;  2.2872565E-02;0;  7.2833851E-02;  4.0259859E+04;  0.0000000E+00;  3.6859594E-03;  4.0000000E+04;  0.0000000E+00;  4.0006273E+04;  7.6535471E-02;  0.0000000E+00; -3.7016203E-03;  4.6705453E+02;
  8.1332639E-02;  9.9999998E-03; -3.0002352E-02;2961;  2.4880976E-03;  0.0000000E+00;  1.4495518E-04;  1.0031262E+03;  1.0000000E-01;  2.5899514E+03;3; -1.4978737E+01;  0.0000000E+00;  1.9335141E-02;0;  7.2903112E-02;  4.0261930E+04;  0.0000000E+00;  2.4155183E-03;  4.0000000E+04;  0.0000000E+00;  4.0006965E+04;  7.6714776E-02;  0.0000000E+00; -3.8116635E-03;  6.0926202E+02;
  8.1335731E-02;  9.9999998E-03; -2.0000782E-02;2962;  2.4202904E-03;  0.0000000E+00;  9.6899523E-05;  1.0031619E+03;  1.0000000E-01;  2.6195803E+03;3; -1.4849051E+01;  0.0000000E+00;  1.3881844E-02;0;  7.2938539E-02;  4.0263676E+04;  0.0000000E+00;  1.1957540E-03;  4.0000000E+04;  0.0000000E+00;  4.0008320E+04;  7.6831959E-02;  0.0000000E+00; -3.8934178E-03;  7.5708685E+02;
  8.1337720E-02;  9.9999998E-03; -1.0000276E-02;2963;  2.3759159E-03;  0.0000000E+00;  4.8140912E-05;  1.0031884E+03;  1.0000000E-01;  2.6415056E+03;3; -1.4757160E+01;  0.0000000E+00;  7.4309786E-03;0;  7.2954454E-02;  4.0264691E+04;  0.0000000E+00;  3.1885246E-04;  4.0000000E+04;  0.0000000E+00;  4.0009160E+04;  7.6897882E-02;  0.0000000E+00; -3.9434279E-03;  8.6627423E+02;
  8.1338398E-02;  9.9999998E-03; -3.6948406E-11;2964;  2.3603626E-03;  0.0000000E+00;  5.2544986E-09;  1.0031977E+03;  1.0000000E-01;  2.6492090E+03;3; -1.4723750E+01;  0.0000000E+00; -2.1442738E-06;0;  7.2958983E-02;  4.0265039E+04;  0.0000000E+00;  1.6207763E-13;  4.0000000E+04;  0.0000000E+00;  4.0009789E+04;  7.6919205E-02;  0.0000000E+00; -3.9602253E-03;  9.0625842E+02;
  8.1337720E-02;  9.9999998E-03;  1.0000276E-02;2965;  2.3759156E-03;  0.0000000E+00; -4.8128386E-05;  1.0031884E+03;  1.0000000E-01;  2.6415056E+03;3; -1.4757145E+01;  0.0000000E+00; -7.4536703E-03;0;  7.2954446E-02;  4.0264691E+04;  0.0000000E+00;  3.1902417E-04;  4.0000000E+04;  0.0000000E+00;  4.0009160E+04;  7.6897882E-02;  0.0000000E+00; -3.9434354E-03;  8.6628156E+02;
  8.1335731E-02;  9.9999998E-03;  2.0000782E-02;2966;  2.4202885E-03;  0.0000000E+00; -9.6887350E-05;  1.0031619E+03;  1.0000000E-01;  2.6195803E+03;3; -1.4849055E+01;  0.0000000E+00; -1.3889692E-02;0;  7.2938561E-02;  4.0263676E+04;  0.0000000E+00;  1.1960084E-03;  4.0000000E+04;  0.0000000E+00;  4.0008320E+04;  7.6831982E-02;  0.0000000E+00; -3.8934201E-03;  7.5709625E+02;
  8.1332639E-02;  9.9999998E-03;  3.0002352E-02;2967;  2.4880988E-03;  0.0000000E+00; -1.4494128E-04;  1.0031262E+03;  1.0000000E-01;  2.5899514E+03;3; -1.4978711E+01;  0.0000000E+00; -1.9333670E-02;0;  7.2903067E-02;  4.0261930E+04;  0.0000000E+00;  2.4158307E-03;  4.0000000E+04;  0.0000000E+00;  4.0006965E+04;  7.6714739E-02;  0.0000000E+00; -3.8116742E-03;  6.0927002E+02;
  8.1328474E-02;  9.9999998E-03;  4.0006097E-02;2968;  2.5696857E-03;  0.0000000E+00; -1.9073139E-04;  1.0030850E+03;  1.0000000E-01;  2.5558784E+03;3; -1.5107514E+01;  0.0000000E+00; -2.2877814E-02;0;  7.2833829E-02;  4.0259863E+04;  0.0000000E+00;  3.6861461E-03;  4.0000000E+04;  0.0000000E+00;  4.0006273E+04;  7.6535463E-02;  0.0000000E+00; -3.7016342E-03;  4.6706683E+02;
  8.1323549E-02;  9.9999998E-03;  5.0012920E-02;2969;  2.6528088E-03;  0.0000000E+00; -2.3217373E-04;  1.0030449E+03;  1.0000000E-01;  2.5225952E+03;3; -1.5194001E+01;  0.0000000E+00; -2.4721520E-02;0;  7.2710373E-02;  4.0257367E+04;  0.0000000E+00;  4.6904320E-03;  4.0000000E+04;  0.0000000E+00;  4.0005273E+04;  7.6280095E-02;  0.0000000E+00; -3.5697233E-03;  3.7885181E+02;
  8.1318259E-02;  9.9999998E-03;  6.0022812E-02;2970;  2.7251425E-03;  0.0000000E+00; -2.6593244E-04;  1.0030133E+03;  1.0000000E-01;  2.4964233E+03;3; -1.5204227E+01;  0.0000000E+00; -2.6210802E-02;0;  7.2505690E-02;  4.0255109E+04;  0.0000000E+00;  5.1058964E-03;  4.0000000E+04;  0.0000000E+00;  4.0005270E+04;  7.5931624E-02;  0.0000000E+00; -3.4259353E-03;  3.8518582E+02;
  9.1286108E-02;  9.9999998E-03; -1.0005856E-01;3015;  3.0283660E-03;  0.0000000E+00;  2.9006324E-04;  1.0028537E+03;  1.0000000E-01;  2.3642788E+03;3; -9.1077003E+00;  0.0000000E+00;  8.3765492E-02;0;  8.0943063E-02;  4.0232609E+04;  0.0000000E+00; -4.2219697E-03;  4.0000000E+04;  0.0000000E+00;  4.0015398E+04;  8.4089644E-02;  0.0000000E+00; -3.1465834E-03;  1.6350079E+03;
  9.1287002E-02;  9.9999998E-03; -9.0055756E-02;3016;  3.1132828E-03;  0.0000000E+00;  3.2951642E-04;  1.0028240E+03;  1.0000000E-01;  2.3395881E+03;3; -9.2979050E+00;  0.0000000E+00;  6.3579783E-02;0;  8.1586115E-02;  4.0232414E+04;  0.0000000E+00; -1.8372174E-03;  4.0000000E+04;  0.0000000E+00;  4.0012574E+04;  8.4756471E-02;  0.0000000E+00; -3.1703550E-03;  1.3358323E+03;
  9.1290914E-02;  9.9999998E-03; -8.0045193E-02;3017;  3.1540103E-03;  0.0000000E+00;  3.4481107E-04;  1.0028128E+03;  1.0000000E-01;  2.3304033E+03;3; -9.4761000E+00;  0.0000000E+00;  4.7328975E-02;0;  8.2019605E-02;  4.0233660E+04;  0.0000000E+00;  3.9505499E-04;  4.0000000E+04;  0.0000000E+00;  4.0010262E+04;  8.5271418E-02;  0.0000000E+00; -3.2518159E-03;  1.0293348E+03;
  9.1296725E-02;  9.9999998E-03; -7.0029959E-02;3018;  3.1495076E-03;  0.0000000E+00;  3.2904861E-04;  1.0028192E+03;  1.0000000E-01;  2.3356377E+03;3; -9.6057453E+00;  0.0000000E+00;  3.8986482E-02;0;  8.2285561E-02;  4.0236090E+04;  0.0000000E+00;  1.9381468E-03;  4.0000000E+04;  0.0000000E+00;  4.0008395E+04;  8.5662529E-02;  0.0000000E+00; -3.3769698E-03;  7.8986127E+02;
  9.1303311E-02;  9.9999998E-03; -6.0014240E-02;3019;  3.1081538E-03;  0.0000000E+00;  2.8974962E-04;  1.0028493E+03;  1.0000000E-01;  2.3606245E+03;3; -9.6761446E+00;  0.0000000E+00;  3.2886319E-02;0;  8.2428195E-02;  4.0239383E+04;  0.0000000E+00;  2.6739056E-03;  4.0000000E+04;  0.0000000E+00;  4.0007617E+04;  8.5955173E-02;  0.0000000E+00; -3.5269759E-03;  6.6221399E+02;
  9.1309704E-02;  9.9999998E-03; -5.0002411E-02;3020;  3.0406134E-03;  0.0000000E+00;  2.3474763E-04;  1.0028986E+03;  1.0000000E-01;  2.4014136E+03;3; -9.6855412E+00;  0.0000000E+00;  2.9913735E-02;0;  8.2489230E-02;  4.0242996E+04;  0.0000000E+00;  2.7121946E-03;  4.0000000E+04;  0.0000000E+00;  4.0007359E+04;  8.6171992E-02;  0.0000000E+00; -3.6827603E-03;  6.5515619E+02;
  9.1315351E-02;  9.9999998E-03; -3.9996352E-02;3021;  2.9647520E-03;  0.0000000E+00;  1.8365485E-04;  1.0029552E+03;  1.0000000E-01;  2.4483259E+03;3; -9.6393061E+00;  0.0000000E+00;  3.3277329E-02;0;  8.2503200E-02;  4.0246516E+04;  0.0000000E+00;  2.2589138E-03;  4.0000000E+04;  0.0000000E+00;  4.0008117E+04;  8.6331204E-02;  0.0000000E+00; -3.8280003E-03;  7.4635168E+02;
  9.1319963E-02;  9.9999998E-03; -2.9995067E-02;3022;  2.8920393E-03;  0.0000000E+00;  1.3839446E-04;  1.0030134E+03;  1.0000000E-01;  2.4965220E+03;3; -9.5693846E+00;  0.0000000E+00;  2.9082723E-02;0;  8.2494900E-02;  4.0249980E+04;  0.0000000E+00;  1.5402768E-03;  4.0000000E+04;  0.0000000E+00;  4.0009598E+04;  8.6445376E-02;  0.0000000E+00; -3.9504790E-03;  8.9308350E+02;
  9.1323406E-02;  9.9999998E-03; -1.9996312E-02;3023;  2.8299731E-03;  0.0000000E+00;  9.2485236E-05;  1.0030586E+03;  1.0000000E-01;  2.5339531E+03;3; -9.4931698E+00;  0.0000000E+00;  2.1373149E-02;0;  8.2480311E-02;  4.0252379E+04;  0.0000000E+00;  7.8374863E-04;  4.0000000E+04;  0.0000000E+00;  4.0011074E+04;  8.6522460E-02;  0.0000000E+00; -4.0421486E-03;  1.0452711E+03;
  9.1325648E-02;  9.9999998E-03; -9.9983383E-03;3024;  2.7886333E-03;  0.0000000E+00;  4.6475358E-05;  1.0030914E+03;  1.0000000E-01;  2.5611128E+03;3; -9.4393196E+00;  0.0000000E+00;  1.1172228E-02;0;  8.2468666E-02;  4.0253895E+04;  0.0000000E+00;  2.1248827E-04;  4.0000000E+04;  0.0000000E+00;  4.0011180E+04;  8.6567171E-02;  0.0000000E+00; -4.0985066E-03;  1.1574940E+03;
  9.1326505E-02;  9.9999998E-03;  4.6830893E-11;3025;  2.7742242E-03;  0.0000000E+00;  6.3257675E-09;  1.0031044E+03;  1.0000000E-01;  2.5718779E+03;3; -9.4202051E+00;  0.0000000E+00; -1.2826249E-05;0;  8.2464494E-02;  4.0254531E+04;  0.0000000E+00; -1.0357432E-12;  4.0000000E+04;  0.0000000E+00;  4.0011539E+04;  8.6581975E-02;  0.0000000E+00; -4.1174800E-03;  1.1985569E+03;
  9.1325648E-02;  9.9999998E-03;  9.9983383E-03;3026;  2.7886322E-03;  0.0000000E+00; -4.6461519E-05;  1.0030914E+03;  1.0000000E-01;  2.5611128E+03;3; -9.4392996E+00;  0.0000000E+00; -1.1143842E-02;0;  8.2468681E-02;  4.0253895E+04;  0.0000000E+00;  2.1266445E-04;  4.0000000E+04;  0.0000000E+00;  4.0011180E+04;  8.6567193E-02;  0.0000000E+00; -4.0985150E-03;  1.1574977E+03;
  9.1323406E-02;  9.9999998E-03;  1.9996312E-02;3027;  2.8299701E-03;  0.0000000E+00; -9.2470407E-05;  1.0030585E+03;  1.0000000E-01;  2.5339531E+03;3; -9.4931507E+00;  0.0000000E+00; -2.1357372E-02;0;  8.2480304E-02;  4.0252387E+04;  0.0000000E+00;  7.8410452E-04;  4.0000000E+04;  0.0000000E+00;  4.0011074E+04;  8.6522460E-02;  0.0000000E+00; -4.0421565E-03;  1.0452808E+03;
  9.1319963E-02;  9.9999998E-03;  2.9995067E-02;3028;  2.8920360E-03;  0.0000000E+00; -1.3838045E-04;  1.0030134E+03;  1.0000000E-01;  2.4965220E+03;3; -9.5693598E+00;  0.0000000E+00; -2.9072613E-02;0;  8.2494810E-02;  4.0249977E+04;  0.0000000E+00;  1.5407631E-03;  4.0000000E+04;  0.0000000E+00;  4.0009598E+04;  8.6445302E-02;  0.0000000E+00; -3.9504929E-03;  8.9309302E+02;
  9.1315351E-02;  9.9999998E-03;  3.9996352E-02;3029;  2.9647483E-03;  0.0000000E+00; -1.8364028E-04;  1.0029551E+03;  1.0000000E-01;  2.4483259E+03;3; -9.6391935E+00;  0.0000000E+00; -3.3287279E-02;0;  8.2503237E-02;  4.0246508E+04;  0.0000000E+00;  2.2599634E-03;  4.0000000E+04;  0.0000000E+00;  4.0008117E+04;  8.6331248E-02;  0.0000000E+00; -3.8280133E-03;  7.4636505E+02;
  9.1309704E-02;  9.9999998E-03;  5.0002411E-02;3030;  3.0406120E-03;  0.0000000E+00; -2.3472730E-04;  1.0028986E+03;  1.0000000E-01;  2.4014136E+03;3; -9.6855192E+00;  0.0000000E+00; -2.9894916E-02;0;  8.2489163E-02;  4.0242992E+04;  0.0000000E+00;  2.7120765E-03;  4.0000000E+04;  0.0000000E+00;  4.0007359E+04;  8.6171940E-02;  0.0000000E+00; -3.6827773E-03;  6.5516370E+02;
  9.1303311E-02;  9.9999998E-03;  6.0014240E-02;3031;  3.1081496E-03;  0.0000000E+00; -2.8972639E-04;  1.0028493E+03;  1.0000000E-01;  2.3606245E+03;3; -9.6761312E+00;  0.0000000E+00; -3.2837041E-02;0;  8.2428180E-02;  4.0239383E+04;  0.0000000E+00;  2.6747284E-03;  4.0000000E+04;  0.0000000E+00;  4.0007617E+04;  8.5955173E-02;  0.0000000E+00; -3.5269959E-03;  6.6221533E+02;
  1.0129464E-01;  9.9999998E-03; -1.0005128E-01;3076;  3.9404333E-03;  0.0000000E+00;  3.7268936E-04;  1.0022421E+03;  1.0000000E-01;  1.8575277E+03;3; -5.1376638E+00;  0.0000000E+00;  8.5485034E-02;0;  8.9035153E-02;  4.0179301E+04;  0.0000000E+00; -1.2311704E-02;  4.0000000E+04;  0.0000000E+00;  4.0017543E+04;  9.2305847E-02;  0.0000000E+00; -3.2706922E-03;  1.9768334E+03;
  1.0130474E-01;  9.9999998E-03; -9.0040959E-02;3077;  4.1305958E-03;  0.0000000E+00;  4.8826099E-04;  1.0022209E+03;  1.0000000E-01;  1.8400468E+03;3; -5.2640080E+00;  0.0000000E+00;  5.4677691E-02;0;  8.9333385E-02;  4.0179625E+04;  0.0000000E+00; -1.0948352E-02;  4.0000000E+04;  0.0000000E+00;  4.0015070E+04;  9.2600785E-02;  0.0000000E+00; -3.2673974E-03;  1.6742134E+03;
  1.0131823E-01;  9.9999998E-03; -8.0020577E-02;3078;  4.2576659E-03;  0.0000000E+00;  5.1543227E-04;  1.0022201E+03;  1.0000000E-01;  1.8392566E+03;3; -5.3815546E+00;  0.0000000E+00;  3.8835779E-02;0;  8.9443870E-02;  4.0181613E+04;  0.0000000E+00; -8.5007707E-03;  4.0000000E+04;  0.0000000E+00;  4.0012574E+04;  9.2778042E-02;  0.0000000E+00; -3.3341714E-03;  1.3617417E+03;
  1.0133350E-01;  9.9999998E-03; -6.9995426E-02;3079;  4.3000975E-03;  0.0000000E+00;  4.7857570E-04;  1.0022436E+03;  1.0000000E-01;  1.8588116E+03;3; -5.4724441E+00;  0.0000000E+00;  2.9324491E-02;0;  8.9426488E-02;  4.0185156E+04;  0.0000000E+00; -5.9374222E-03;  4.0000000E+04;  0.0000000E+00;  4.0010816E+04;  9.2881225E-02;  0.0000000E+00; -3.4547360E-03;  1.1174286E+03;
  1.0134769E-01;  9.9999998E-03; -5.9976961E-02;3080;  4.2722006E-03;  0.0000000E+00;  4.0235676E-04;  1.0022902E+03;  1.0000000E-01;  1.8973291E+03;3; -5.5267034E+00;  0.0000000E+00;  2.2880754E-02;0;  8.9336351E-02;  4.0189777E+04;  0.0000000E+00; -3.7372597E-03;  4.0000000E+04;  0.0000000E+00;  4.0009699E+04;  9.2943810E-02;  0.0000000E+00; -3.6074610E-03;  9.8727258E+02;
  1.0136002E-01;  9.9999998E-03; -4.9969859E-02;3081;  4.1942466E-03;  0.0000000E+00;  3.0770089E-04;  1.0023547E+03;  1.0000000E-01;  1.9508584E+03;3; -5.5437846E+00;  0.0000000E+00;  1.9385701E-02;0;  8.9218222E-02;  4.0194945E+04;  0.0000000E+00; -2.0797199E-03;  4.0000000E+04;  0.0000000E+00;  4.0009832E+04;  9.2988640E-02;  0.0000000E+00; -3.7704159E-03;  9.7967438E+02;
  1.0137046E-01;  9.9999998E-03; -3.9970454E-02;3082;  4.0905266E-03;  0.0000000E+00;  2.1131296E-04;  1.0024257E+03;  1.0000000E-01;  2.0096222E+03;3; -5.5266013E+00;  0.0000000E+00;  1.8004235E-02;0;  8.9103013E-02;  4.0199527E+04;  0.0000000E+00; -9.7857171E-04;  4.0000000E+04;  0.0000000E+00;  4.0010430E+04;  9.3027696E-02;  0.0000000E+00; -3.9246851E-03;  1.0715830E+03;
  1.0137866E-01;  9.9999998E-03; -2.9975647E-02;3083;  3.9920951E-03;  0.0000000E+00;  1.3447527E-04;  1.0024957E+03;  1.0000000E-01;  2.0675959E+03;3; -5.4895091E+00;  0.0000000E+00;  2.0303819E-02;0;  8.9008801E-02;  4.0203883E+04;  0.0000000E+00; -3.5574019E-04;  4.0000000E+04;  0.0000000E+00;  4.0011816E+04;  9.3064815E-02;  0.0000000E+00; -4.0560127E-03;  1.2197388E+03;
  1.0138465E-01;  9.9999998E-03; -1.9983362E-02;3084;  3.9087394E-03;  0.0000000E+00;  8.0061334E-05;  1.0025527E+03;  1.0000000E-01;  2.1148044E+03;3; -5.4518938E+00;  0.0000000E+00;  1.5421011E-02;0;  8.8941880E-02;  4.0207109E+04;  0.0000000E+00; -8.3115803E-05;  4.0000000E+04;  0.0000000E+00;  4.0012863E+04;  9.3096800E-02;  0.0000000E+00; -4.1549210E-03;  1.3733785E+03;
  1.0138851E-01;  9.9999998E-03; -9.9921357E-03;3085;  3.8524135E-03;  0.0000000E+00;  3.6158472E-05;  1.0025906E+03;  1.0000000E-01;  2.1462109E+03;3; -5.4236684E+00;  0.0000000E+00;  6.6688210E-03;0;  8.8903084E-02;  4.0209176E+04;  0.0000000E+00; -7.8949461E-06;  4.0000000E+04;  0.0000000E+00;  4.0013676E+04;  9.3119040E-02;  0.0000000E+00; -4.2159571E-03;  1.4865765E+03;
  1.0138977E-01;  9.9999998E-03;  3.0680469E-10;3086;  3.8324662E-03;  0.0000000E+00;  8.0369373E-09;  1.0026028E+03;  1.0000000E-01;  2.1563835E+03;3; -5.4131975E+00;  0.0000000E+00;  7.3129004E-06;0;  8.8890426E-02;  4.0209910E+04;  0.0000000E+00;  2.1848913E-13;  4.0000000E+04;  0.0000000E+00;  4.0014027E+04;  9.3126968E-02;  0.0000000E+00; -4.2365445E-03;  1.5279508E+03;
  1.0138851E-01;  9.9999998E-03;  9.9921357E-03;3087;  3.8524091E-03;  0.0000000E+00; -3.6143174E-05;  1.0025906E+03;  1.0000000E-01;  2.1462109E+03;3; -5.4236755E+00;  0.0000000E+00; -6.6572027E-03;0;  8.8903055E-02;  4.0209176E+04;  0.0000000E+00; -7.7288232E-06;  4.0000000E+04;  0.0000000E+00;  4.0013676E+04;  9.3119010E-02;  0.0000000E+00; -4.2159567E-03;  1.4865762E+03;
  1.0138465E-01;  9.9999998E-03;  1.9983362E-02;3088;  3.9087329E-03;  0.0000000E+00; -8.0043596E-05;  1.0025527E+03;  1.0000000E-01;  2.1148044E+03;3; -5.4518867E+00;  0.0000000E+00; -1.5426043E-02;0;  8.8942014E-02;  4.0207113E+04;  0.0000000E+00; -8.2530496E-05;  4.0000000E+04;  0.0000000E+00;  4.0012863E+04;  9.3096942E-02;  0.0000000E+00; -4.1549294E-03;  1.3733862E+03;
  1.0137866E-01;  9.9999998E-03;  2.9975647E-02;3089;  3.9920849E-03;  0.0000000E+00; -1.3445744E-04;  1.0024957E+03;  1.0000000E-01;  2.0675959E+03;3; -5.4895177E+00;  0.0000000E+00; -2.0271635E-02;0;  8.9008883E-02;  4.0203883E+04;  0.0000000E+00; -3.5526103E-04;  4.0000000E+04;  0.0000000E+00;  4.0011816E+04;  9.3064904E-02;  0.0000000E+00; -4.0560225E-03;  1.2197485E+03;
  1.0137046E-01;  9.9999998E-03;  3.9970454E-02;3090;  4.0905131E-03;  0.0000000E+00; -2.1129509E-04;  1.0024257E+03;  1.0000000E-01;  2.0096222E+03;3; -5.5265999E+00;  0.0000000E+00; -1.7974660E-02;0;  8.9103043E-02;  4.0199523E+04;  0.0000000E+00; -9.7830035E-04;  4.0000000E+04;  0.0000000E+00;  4.0010434E+04;  9.3027748E-02;  0.0000000E+00; -3.9247028E-03;  1.0716006E+03;
  1.0136002E-01;  9.9999998E-03;  4.9969859E-02;3091;  4.1942312E-03;  0.0000000E+00; -3.0768351E-04;  1.0023547E+03;  1.0000000E-01;  1.9508584E+03;3; -5.5437822E+00;  0.0000000E+00; -1.9367771E-02;0;  8.9218333E-02;  4.0194949E+04;  0.0000000E+00; -2.0794170E-03;  4.0000000E+04;  0.0000000E+00;  4.0009832E+04;  9.2988767E-02;  0.0000000E+00; -3.7704334E-03;  9.7968628E+02;
  1.0134769E-01;  9.9999998E-03;  5.9976961E-02;3092;  4.2721801E-03;  0.0000000E+00; -4.0233842E-04;  1.0022900E+03;  1.0000000E-01;  1.8972303E+03;3; -5.5266595E+00;  0.0000000E+00; -2.2845533E-02;0;  8.9336447E-02;  4.0189777E+04;  0.0000000E+00; -3.7364806E-03;  4.0000000E+04;  0.0000000E+00;  4.0009699E+04;  9.2943929E-02;  0.0000000E+00; -3.6074813E-03;  9.8728540E+02;
  1.1155195E-01;  9.9999998E-03; -1.0000405E-01;3137;  9.4437972E-03;  0.0000000E+00;  9.0852578E-04;  1.0014088E+03;  1.0000000E-01;  1.1671769E+03;3; -1.7586950E+00;  0.0000000E+00;  1.6519468E-01;0;  9.3408152E-02;  4.0106984E+04;  0.0000000E+00; -2.7678812E-02;  4.0000000E+04;  0.0000000E+00;  4.0019383E+04;  9.6791796E-02;  0.0000000E+00; -3.3836428E-03;  2.3008372E+03;
  1.1165328E-01;  9.9999998E-03; -8.9986540E-02;3138;  1.0868209E-02;  0.0000000E+00;  9.4802439E-04;  1.0013904E+03;  1.0000000E-01;  1.1519674E+03;3; -1.1957383E+00;  0.0000000E+00;  1.7202926E-01;0;  9.3295880E-02;  4.0107340E+04;  0.0000000E+00; -2.5978262E-02;  4.0000000E+04;  0.0000000E+00;  4.0017457E+04;  9.6648373E-02;  0.0000000E+00; -3.3524919E-03;  2.0019182E+03;
  1.1173713E-01;  9.9999998E-03; -7.9966791E-02;3139;  1.1745567E-02;  0.0000000E+00;  8.9369412E-04;  1.0013940E+03;  1.0000000E-01;  1.1549303E+03;3; -8.3834159E-01;  0.0000000E+00;  1.5665080E-01;0;  9.3008153E-02;  4.0110012E+04;  0.0000000E+00; -2.1945240E-02;  4.0000000E+04;  0.0000000E+00;  4.0014730E+04;  9.6408837E-02;  0.0000000E+00; -3.4006850E-03;  1.6888684E+03;
  1.1178304E-01;  9.9999998E-03; -6.9958933E-02;3140;  1.2178380E-02;  0.0000000E+00;  7.9486100E-04;  1.0014305E+03;  1.0000000E-01;  1.1851516E+03;3; -6.6415888E-01;  0.0000000E+00;  1.3487159E-01;0;  9.2641793E-02;  4.0114688E+04;  0.0000000E+00; -1.7053429E-02;  4.0000000E+04;  0.0000000E+00;  4.0012605E+04;  9.6153297E-02;  0.0000000E+00; -3.5115040E-03;  1.4417164E+03;
  1.1179743E-01;  9.9999998E-03; -5.9958041E-02;3141;  1.2293812E-02;  0.0000000E+00;  6.7404186E-04;  1.0014900E+03;  1.0000000E-01;  1.2344342E+03;3; -6.2949121E-01;  0.0000000E+00;  1.1254656E-01;0;  9.2273355E-02;  4.0120457E+04;  0.0000000E+00; -1.2271485E-02;  4.0000000E+04;  0.0000000E+00;  4.0011656E+04;  9.5935687E-02;  0.0000000E+00; -3.6623345E-03;  1.3068815E+03;
  1.1179812E-01;  9.9999998E-03; -4.9960557E-02;3142;  1.2183912E-02;  0.0000000E+00;  5.3979352E-04;  1.0015686E+03;  1.0000000E-01;  1.2995188E+03;3; -6.9379526E-01;  0.0000000E+00;  8.8311665E-02;0;  9.1948502E-02;  4.0126570E+04;  0.0000000E+00; -8.1518302E-03;  4.0000000E+04;  0.0000000E+00;  4.0011551E+04;  9.5777698E-02;  0.0000000E+00; -3.8291931E-03;  1.2942620E+03;
  1.1179731E-01;  9.9999998E-03; -3.9965909E-02;3143;  1.1917284E-02;  0.0000000E+00;  3.9937301E-04;  1.0016507E+03;  1.0000000E-01;  1.3675663E+03;3; -8.1404823E-01;  0.0000000E+00;  6.5077789E-02;0;  9.1687478E-02;  4.0132332E+04;  0.0000000E+00; -4.9240245E-03;  4.0000000E+04;  0.0000000E+00;  4.0012074E+04;  9.5677920E-02;  0.0000000E+00; -3.9904416E-03;  1.3820494E+03;
  1.1179640E-01;  9.9999998E-03; -2.9973259E-02;3144;  1.1572621E-02;  0.0000000E+00;  2.6751755E-04;  1.0017289E+03;  1.0000000E-01;  1.4323545E+03;3; -9.5323706E-01;  0.0000000E+00;  4.8461117E-02;0;  9.1494821E-02;  4.0137277E+04;  0.0000000E+00; -2.6031446E-03;  4.0000000E+04;  0.0000000E+00;  4.0013582E+04;  9.5624104E-02;  0.0000000E+00; -4.1292864E-03;  1.5272748E+03;
  1.1179556E-01;  9.9999998E-03; -1.9981947E-02;3145;  1.1246801E-02;  0.0000000E+00;  1.5806186E-04;  1.0017955E+03;  1.0000000E-01;  1.4875629E+03;3; -1.0764921E+00;  0.0000000E+00;  3.2118641E-02;0;  9.1367006E-02;  4.0141301E+04;  0.0000000E+00; -1.0929648E-03;  4.0000000E+04;  0.0000000E+00;  4.0014953E+04;  9.5601529E-02;  0.0000000E+00; -4.2345249E-03;  1.6789818E+03;
  1.1179509E-01;  9.9999998E-03; -9.9914279E-03;3146;  1.1018476E-02;  0.0000000E+00;  7.1718277E-05;  1.0018377E+03;  1.0000000E-01;  1.5225248E+03;3; -1.1592964E+00;  0.0000000E+00;  1.5709672E-02;0;  9.1295451E-02;  4.0143875E+04;  0.0000000E+00; -2.6217147E-04;  4.0000000E+04;  0.0000000E+00;  4.0015797E+04;  9.5595174E-02;  0.0000000E+00; -4.2997240E-03;  1.7910487E+03;
  1.1179494E-01;  9.9999998E-03; -8.5763910E-11;3147;  1.0936900E-02;  0.0000000E+00;  2.0456539E-09;  1.0018527E+03;  1.0000000E-01;  1.5349690E+03;3; -1.1884899E+00;  0.0000000E+00;  9.6207714E-07;0;  9.1272697E-02;  4.0144680E+04;  0.0000000E+00;  4.4726644E-13;  4.0000000E+04;  0.0000000E+00;  4.0016312E+04;  9.5594443E-02;  0.0000000E+00; -4.3217475E-03;  1.8320338E+03;
  1.1179509E-01;  9.9999998E-03;  9.9914270E-03;3148;  1.1018449E-02;  0.0000000E+00; -7.1715716E-05;  1.0018377E+03;  1.0000000E-01;  1.5225248E+03;3; -1.1592971E+00;  0.0000000E+00; -1.5724296E-02;0;  9.1295570E-02;  4.0143871E+04;  0.0000000E+00; -2.6187469E-04;  4.0000000E+04;  0.0000000E+00;  4.0015797E+04;  9.5595300E-02;  0.0000000E+00; -4.2997273E-03;  1.7910471E+03;
  1.1179556E-01;  9.9999998E-03;  1.9981947E-02;3149;  1.1246757E-02;  0.0000000E+00; -1.5805768E-04;  1.0017955E+03;  1.0000000E-01;  1.4875629E+03;3; -1.0765170E+00;  0.0000000E+00; -3.2108519E-02;0;  9.1367088E-02;  4.0141297E+04;  0.0000000E+00; -1.0926583E-03;  4.0000000E+04;  0.0000000E+00;  4.0014953E+04;  9.5601626E-02;  0.0000000E+00; -4.2345375E-03;  1.6789919E+03;
  1.1179640E-01;  9.9999998E-03;  2.9973259E-02;3150;  1.1572561E-02;  0.0000000E+00; -2.6751339E-04;  1.0017289E+03;  1.0000000E-01;  1.4323545E+03;3; -9.5326805E-01;  0.0000000E+00; -4.8443478E-02;0;  9.1494843E-02;  4.0137277E+04;  0.0000000E+00; -2.6027143E-03;  4.0000000E+04;  0.0000000E+00;  4.0013582E+04;  9.5624134E-02;  0.0000000E+00; -4.1292929E-03;  1.5272792E+03;
  1.1179731E-01;  9.9999998E-03;  3.9965909E-02;3151;  1.1917190E-02;  0.0000000E+00; -3.9937077E-04;  1.0016507E+03;  1.0000000E-01;  1.3675663E+03;3; -8.1410378E-01;  0.0000000E+00; -6.5050252E-02;0;  9.1687486E-02;  4.0132336E+04;  0.0000000E+00; -4.9229665E-03;  4.0000000E+04;  0.0000000E+00;  4.0012074E+04;  9.5677942E-02;  0.0000000E+00; -3.9904546E-03;  1.3820669E+03;
  1.1179811E-01;  9.9999998E-03;  4.9960557E-02;3152;  1.2183810E-02;  0.0000000E+00; -5.3979340E-04;  1.0015686E+03;  1.0000000E-01;  1.2995188E+03;3; -6.9385540E-01;  0.0000000E+00; -8.8273257E-02;0;  9.1948614E-02;  4.0126566E+04;  0.0000000E+00; -8.1508625E-03;  4.0000000E+04;  0.0000000E+00;  4.0011551E+04;  9.5777825E-02;  0.0000000E+00; -3.8292077E-03;  1.2942776E+03;
  1.1179743E-01;  9.9999998E-03;  5.9958041E-02;3153;  1.2293704E-02;  0.0000000E+00; -6.7404809E-04;  1.0014901E+03;  1.0000000E-01;  1.2344342E+03;3; -6.2956566E-01;  0.0000000E+00; -1.1251166E-01;0;  9.2273451E-02;  4.0120457E+04;  0.0000000E+00; -1.2270139E-02;  4.0000000E+04;  0.0000000E+00;  4.0011656E+04;  9.5935799E-02;  0.0000000E+00; -3.6623508E-03;  1.3068868E+03;
  1.2181570E-01;  9.9999998E-03; -9.9957898E-02;3198;  1.5034720E-02;  0.0000000E+00;  5.1871216E-04;  1.0005359E+03;  1.0000000E-01;  4.4393805E+02;3;  1.7130172E+00;  0.0000000E+00;  2.3416801E-01;0;  9.2653967E-02;  4.0032102E+04;  0.0000000E+00; -4.6180993E-02;  4.0000000E+04;  0.0000000E+00;  4.0020973E+04;  9.6124418E-02;  0.0000000E+00; -3.4704499E-03;  2.5685601E+03;
  1.2179615E-01;  9.9999998E-03; -8.9960508E-02;3199;  1.5057582E-02;  0.0000000E+00;  4.5054493E-04;  1.0005307E+03;  1.0000000E-01;  4.3969125E+02;3;  1.7332960E+00;  0.0000000E+00;  2.0052315E-01;0;  9.1893598E-02;  4.0033383E+04;  0.0000000E+00; -4.2124882E-02;  4.0000000E+04;  0.0000000E+00;  4.0018172E+04;  9.5303588E-02;  0.0000000E+00; -3.4099875E-03;  2.2778569E+03;
  1.2177484E-01;  9.9999998E-03; -7.9959236E-02;3200;  1.5046743E-02;  0.0000000E+00;  3.8774166E-04;  1.0005518E+03;  1.0000000E-01;  4.5707349E+02;3;  1.7455276E+00;  0.0000000E+00;  1.6894360E-01;0;  9.1103613E-02;  4.0037418E+04;  0.0000000E+00; -3.5016391E-02;  4.0000000E+04;  0.0000000E+00;  4.0016414E+04;  9.4540693E-02;  0.0000000E+00; -3.4370781E-03;  1.9652428E+03;
  1.2175635E-01;  9.9999998E-03; -6.9957256E-02;3201;  1.5017362E-02;  0.0000000E+00;  3.2373198E-04;  1.0005963E+03;  1.0000000E-01;  4.9401071E+02;3;  1.7561237E+00;  0.0000000E+00;  1.4068802E-01;0;  9.0372764E-02;  4.0042824E+04;  0.0000000E+00; -2.6961155E-02;  4.0000000E+04;  0.0000000E+00;  4.0014129E+04;  9.3908936E-02;  0.0000000E+00; -3.5361720E-03;  1.7124331E+03;
  1.2174191E-01;  9.9999998E-03; -5.9956651E-02;3202;  1.4981438E-02;  0.0000000E+00;  2.5509388E-04;  1.0006638E+03;  1.0000000E-01;  5.5000916E+02;3;  1.7678331E+00;  0.0000000E+00;  1.1386243E-01;0;  8.9758590E-02;  4.0049340E+04;  0.0000000E+00; -1.9339960E-02;  4.0000000E+04;  0.0000000E+00;  4.0013094E+04;  9.3442455E-02;  0.0000000E+00; -3.6838686E-03;  1.5687528E+03;
  1.2173128E-01;  9.9999998E-03; -4.9958263E-02;3203;  1.4943182E-02;  0.0000000E+00;  1.8677497E-04;  1.0007448E+03;  1.0000000E-01;  6.1697021E+02;3;  1.7805904E+00;  0.0000000E+00;  9.1346249E-02;0;  8.9286447E-02;  4.0055934E+04;  0.0000000E+00; -1.2895815E-02;  4.0000000E+04;  0.0000000E+00;  4.0013133E+04;  9.3140677E-02;  0.0000000E+00; -3.8542291E-03;  1.5463977E+03;
  1.2172382E-01;  9.9999998E-03; -3.9962426E-02;3204;  1.4905029E-02;  0.0000000E+00;  1.2494283E-04;  1.0008324E+03;  1.0000000E-01;  6.8965948E+02;3;  1.7943342E+00;  0.0000000E+00;  6.7326203E-02;0;  8.8954888E-02;  4.0062086E+04;  0.0000000E+00; -7.8790085E-03;  4.0000000E+04;  0.0000000E+00;  4.0013699E+04;  9.2977934E-02;  0.0000000E+00; -4.0230486E-03;  1.6250719E+03;
  1.2171854E-01;  9.9999998E-03; -2.9969253E-02;3205;  1.4872058E-02;  0.0000000E+00;  8.0076527E-05;  1.0009140E+03;  1.0000000E-01;  7.5721313E+02;3;  1.8083566E+00;  0.0000000E+00;  4.8624262E-02;0;  8.8743545E-02;  4.0067570E+04;  0.0000000E+00; -4.2433785E-03;  4.0000000E+04;  0.0000000E+00;  4.0014930E+04;  9.2914388E-02;  0.0000000E+00; -4.1708392E-03;  1.7626027E+03;
  1.2171451E-01;  9.9999998E-03; -1.9978588E-02;3206;  1.4844521E-02;  0.0000000E+00;  4.6743953E-05;  1.0009827E+03;  1.0000000E-01;  8.1419922E+02;3;  1.8203754E+00;  0.0000000E+00;  3.6124017E-02;0;  8.8623233E-02;  4.0071520E+04;  0.0000000E+00; -1.8209280E-03;  4.0000000E+04;  0.0000000E+00;  4.0016105E+04;  9.2907213E-02;  0.0000000E+00; -4.2839786E-03;  1.9083900E+03;
  1.2171207E-01;  9.9999998E-03; -9.9895308E-03;3207;  1.4827213E-02;  0.0000000E+00;  2.1385566E-05;  1.0010266E+03;  1.0000000E-01;  8.5054382E+02;3;  1.8318522E+00;  0.0000000E+00;  1.9374005E-02;0;  8.8565148E-02;  4.0074293E+04;  0.0000000E+00; -4.4468281E-04;  4.0000000E+04;  0.0000000E+00;  4.0017082E+04;  9.2919558E-02;  0.0000000E+00; -4.3544122E-03;  2.0165741E+03;
  1.2171126E-01;  9.9999998E-03; -1.0063681E-10;3208;  1.4821092E-02;  0.0000000E+00; -4.2315620E-10;  1.0010414E+03;  1.0000000E-01;  8.6279041E+02;3;  1.8350135E+00;  0.0000000E+00; -7.7597997E-06;0;  8.8548623E-02;  4.0075113E+04;  0.0000000E+00; -6.4066314E-13;  4.0000000E+04;  0.0000000E+00;  4.0017387E+04;  9.2926890E-02;  0.0000000E+00; -4.3782676E-03;  2.0561907E+03;
  1.2171207E-01;  9.9999998E-03;  9.9895308E-03;3209;  1.4827213E-02;  0.0000000E+00; -2.1388782E-05;  1.0010266E+03;  1.0000000E-01;  8.5054382E+02;3;  1.8318546E+00;  0.0000000E+00; -1.9398265E-02;0;  8.8565290E-02;  4.0074293E+04;  0.0000000E+00; -4.4449518E-04;  4.0000000E+04;  0.0000000E+00;  4.0017082E+04;  9.2919707E-02;  0.0000000E+00; -4.3544187E-03;  2.0165739E+03;
  1.2171451E-01;  9.9999998E-03;  1.9978588E-02;3210;  1.4844520E-02;  0.0000000E+00; -4.6744324E-05;  1.0009827E+03;  1.0000000E-01;  8.1419922E+02;3;  1.8203652E+00;  0.0000000E+00; -3.6126871E-02;0;  8.8623345E-02;  4.0071516E+04;  0.0000000E+00; -1.8203446E-03;  4.0000000E+04;  0.0000000E+00;  4.0016105E+04;  9.2907332E-02;  0.0000000E+00; -4.2839879E-03;  1.9083979E+03;
  1.2171854E-01;  9.9999998E-03;  2.9969253E-02;3211;  1.4872058E-02;  0.0000000E+00; -8.0078142E-05;  1.0009140E+03;  1.0000000E-01;  7.5721313E+02;3;  1.8083451E+00;  0.0000000E+00; -4.8611593E-02;0;  8.8743553E-02;  4.0067570E+04;  0.0000000E+00; -4.2426866E-03;  4.0000000E+04;  0.0000000E+00;  4.0014930E+04;  9.2914402E-02;  0.0000000E+00; -4.1708490E-03;  1.7626173E+03;
  1.2172382E-01;  9.9999998E-03;  3.9962426E-02;3212;  1.4905031E-02;  0.0000000E+00; -1.2494554E-04;  1.0008324E+03;  1.0000000E-01;  6.8965948E+02;3;  1.7943261E+00;  0.0000000E+00; -6.7320146E-02;0;  8.8954970E-02;  4.0062082E+04;  0.0000000E+00; -7.8780400E-03;  4.0000000E+04;  0.0000000E+00;  4.0013699E+04;  9.2978038E-02;  0.0000000E+00; -4.0230677E-03;  1.6250806E+03;
  1.2173128E-01;  9.9999998E-03;  4.9958263E-02;3213;  1.4943185E-02;  0.0000000E+00; -1.8677753E-04;  1.0007446E+03;  1.0000000E-01;  6.1687146E+02;3;  1.7805837E+00;  0.0000000E+00; -9.1340460E-02;0;  8.9286625E-02;  4.0055930E+04;  0.0000000E+00; -1.2894669E-02;  4.0000000E+04;  0.0000000E+00;  4.0013133E+04;  9.3140870E-02;  0.0000000E+00; -3.8542477E-03;  1.5464031E+03;
  1.2174191E-01;  9.9999998E-03;  5.9956651E-02;3214;  1.4981443E-02;  0.0000000E+00; -2.5509883E-04;  1.0006638E+03;  1.0000000E-01;  5.5000916E+02;3;  1.7678308E+00;  0.0000000E+00; -1.1383823E-01;0;  8.9758806E-02;  4.0049340E+04;  0.0000000E+00; -1.9339850E-02;  4.0000000E+04;  0.0000000E+00;  4.0013094E+04;  9.3442693E-02;  0.0000000E+00; -3.6838879E-03;  1.5687640E+03;
  1.3175486E-01;  9.9999998E-03; -9.9951185E-02;3259;  1.5486712E-02;  0.0000000E+00;  3.4270590E-04;  9.9975964E+02;  1.0000000E-01; -1.9915486E+02;3;  2.3033805E+00;  0.0000000E+00;  2.3456374E-01;0;  8.7214410E-02;  3.9965629E+04;  0.0000000E+00; -6.0331982E-02;  4.0000000E+04;  0.0000000E+00;  4.0021930E+04;  9.0730302E-02;  0.0000000E+00; -3.5158931E-03;  2.7419075E+03;
  1.3171980E-01;  9.9999998E-03; -8.9952603E-02;3260;  1.5430456E-02;  0.0000000E+00;  3.1098924E-04;  9.9974500E+02;  1.0000000E-01; -2.1125328E+02;3;  2.3394296E+00;  0.0000000E+00;  2.0441824E-01;0;  8.6031795E-02;  3.9966559E+04;  0.0000000E+00; -5.2628323E-02;  4.0000000E+04;  0.0000000E+00;  4.0019766E+04;  8.9471251E-02;  0.0000000E+00; -3.4394586E-03;  2.4560293E+03;
  1.3168672E-01;  9.9999998E-03; -7.9950228E-02;3261;  1.5364076E-02;  0.0000000E+00;  2.8306039E-04;  9.9975989E+02;  1.0000000E-01; -1.9890796E+02;3;  2.3709843E+00;  0.0000000E+00;  1.7351432E-01;0;  8.4905431E-02;  3.9969852E+04;  0.0000000E+00; -4.2295076E-02;  4.0000000E+04;  0.0000000E+00;  4.0017098E+04;  8.8361196E-02;  0.0000000E+00; -3.4557669E-03;  2.1406899E+03;
  1.3165972E-01;  9.9999998E-03; -6.9947049E-02;3262;  1.5298683E-02;  0.0000000E+00;  2.5011622E-04;  9.9979907E+02;  1.0000000E-01; -1.6646443E+02;3;  2.3935046E+00;  0.0000000E+00;  1.4845853E-01;0;  8.3923467E-02;  3.9975062E+04;  0.0000000E+00; -3.1705234E-02;  4.0000000E+04;  0.0000000E+00;  4.0014961E+04;  8.7473549E-02;  0.0000000E+00; -3.5500792E-03;  1.8792347E+03;
  1.3163896E-01;  9.9999998E-03; -5.9945274E-02;3263;  1.5240002E-02;  0.0000000E+00;  2.1082214E-04;  9.9986218E+02;  1.0000000E-01; -1.1416961E+02;3;  2.4116211E+00;  0.0000000E+00;  1.2640332E-01;0;  8.3137557E-02;  3.9981051E+04;  0.0000000E+00; -2.2295414E-02;  4.0000000E+04;  0.0000000E+00;  4.0013715E+04;  8.6836301E-02;  0.0000000E+00; -3.6987471E-03;  1.7233314E+03;
  1.3162294E-01;  9.9999998E-03; -4.9946129E-02;3264;  1.5189230E-02;  0.0000000E+00;  1.6986525E-04;  9.9994025E+02;  1.0000000E-01; -4.9480083E+01;3;  2.4252706E+00;  0.0000000E+00;  1.0963511E-01;0;  8.2563072E-02;  3.9987316E+04;  0.0000000E+00; -1.4692901E-02;  4.0000000E+04;  0.0000000E+00;  4.0013523E+04;  8.6437747E-02;  0.0000000E+00; -3.8746737E-03;  1.6873878E+03;
  1.3161060E-01;  9.9999998E-03; -3.9950281E-02;3265;  1.5148788E-02;  0.0000000E+00;  1.2901437E-04;  1.0000245E+03;  1.0000000E-01;  2.0345104E+01;3;  2.4396565E+00;  0.0000000E+00;  8.9708187E-02;0;  8.2184270E-02;  3.9993500E+04;  0.0000000E+00; -8.9545650E-03;  4.0000000E+04;  0.0000000E+00;  4.0014367E+04;  8.6236127E-02;  0.0000000E+00; -4.0518558E-03;  1.7527352E+03;
  1.3160105E-01;  9.9999998E-03; -2.9958928E-02;3266;  1.5119144E-02;  0.0000000E+00;  9.0232104E-05;  1.0001049E+03;  1.0000000E-01;  8.6911125E+01;3;  2.4530382E+00;  0.0000000E+00;  6.7399971E-02;0;  8.1963107E-02;  3.9998637E+04;  0.0000000E+00; -4.8494735E-03;  4.0000000E+04;  0.0000000E+00;  4.0015168E+04;  8.6171784E-02;  0.0000000E+00; -4.2086747E-03;  1.8782888E+03;
  1.3159367E-01;  9.9999998E-03; -1.9971553E-02;3267;  1.5099500E-02;  0.0000000E+00;  5.6101799E-05;  1.0001689E+03;  1.0000000E-01;  1.3994666E+02;3;  2.4627657E+00;  0.0000000E+00;  4.6065748E-02;0;  8.1851833E-02;  4.0002559E+04;  0.0000000E+00; -2.1020605E-03;  4.0000000E+04;  0.0000000E+00;  4.0016309E+04;  8.6181477E-02;  0.0000000E+00; -4.3296418E-03;  2.0142915E+03;
  1.3158877E-01;  9.9999998E-03; -9.9860439E-03;3268;  1.5088271E-02;  0.0000000E+00;  2.6354724E-05;  1.0002120E+03;  1.0000000E-01;  1.7569873E+02;3;  2.4692822E+00;  0.0000000E+00;  2.3899630E-02;0;  8.1806116E-02;  4.0005039E+04;  0.0000000E+00; -5.1818776E-04;  4.0000000E+04;  0.0000000E+00;  4.0017297E+04;  8.6211443E-02;  0.0000000E+00; -4.4053276E-03;  2.1158813E+03;
  1.3158697E-01;  9.9999998E-03; -1.1202400E-10;3269;  1.5084498E-02;  0.0000000E+00; -3.2893011E-09;  1.0002258E+03;  1.0000000E-01;  1.8705644E+02;3;  2.4711940E+00;  0.0000000E+00; -6.3381149E-06;0;  8.1794545E-02;  4.0006004E+04;  0.0000000E+00;  9.1637982E-13;  4.0000000E+04;  0.0000000E+00;  4.0017434E+04;  8.6225569E-02;  0.0000000E+00; -4.4310214E-03;  2.1531438E+03;
  1.3158877E-01;  9.9999998E-03;  9.9860439E-03;3270;  1.5088271E-02;  0.0000000E+00; -2.6361211E-05;  1.0002120E+03;  1.0000000E-01;  1.7569873E+02;3;  2.4692681E+00;  0.0000000E+00; -2.3906758E-02;0;  8.1806161E-02;  4.0005039E+04;  0.0000000E+00; -5.1799667E-04;  4.0000000E+04;  0.0000000E+00;  4.0017297E+04;  8.6211488E-02;  0.0000000E+00; -4.4053304E-03;  2.1158835E+03;
  1.3159367E-01;  9.9999998E-03;  1.9971553E-02;3271;  1.5099500E-02;  0.0000000E+00; -5.6108212E-05;  1.0001689E+03;  1.0000000E-01;  1.3994666E+02;3;  2.4627490E+00;  0.0000000E+00; -4.6070863E-02;0;  8.1851982E-02;  4.0002555E+04;  0.0000000E+00; -2.1018609E-03;  4.0000000E+04;  0.0000000E+00;  4.0016309E+04;  8.6181633E-02;  0.0000000E+00; -4.3296507E-03;  2.0142972E+03;
  1.3160105E-01;  9.9999998E-03;  2.9958928E-02;3272;  1.5119147E-02;  0.0000000E+00; -9.0236499E-05;  1.0001049E+03;  1.0000000E-01;  8.6911125E+01;3;  2.4530430E+00;  0.0000000E+00; -6.7381643E-02;0;  8.1963189E-02;  3.9998641E+04;  0.0000000E+00; -4.8488895E-03;  4.0000000E+04;  0.0000000E+00;  4.0015168E+04;  8.6171880E-02;  0.0000000E+00; -4.2086896E-03;  1.8783008E+03;
  1.3161060E-01;  9.9999998E-03;  3.9950281E-02;3273;  1.5148792E-02;  0.0000000E+00; -1.2901932E-04;  1.0000246E+03;  1.0000000E-01;  2.0345104E+01;3;  2.4396505E+00;  0.0000000E+00; -8.9674078E-02;0;  8.2184277E-02;  3.9993500E+04;  0.0000000E+00; -8.9544905E-03;  4.0000000E+04;  0.0000000E+00;  4.0014367E+04;  8.6236142E-02;  0.0000000E+00; -4.0518665E-03;  1.7527468E+03;
  1.3162294E-01;  9.9999998E-03;  4.9946129E-02;3274;  1.5189238E-02;  0.0000000E+00; -1.6987066E-04;  9.9994025E+02;  1.0000000E-01; -4.9480083E+01;3;  2.4252892E+00;  0.0000000E+00; -1.0963377E-01;0;  8.2563341E-02;  3.9987316E+04;  0.0000000E+00; -1.4692753E-02;  4.0000000E+04;  0.0000000E+00;  4.0013523E+04;  8.6438030E-02;  0.0000000E+00; -3.8746863E-03;  1.6874009E+03;
  1.3163896E-01;  9.9999998E-03;  5.9945274E-02;3275;  1.5240010E-02;  0.0000000E+00; -2.1082607E-04;  9.9986212E+02;  1.0000000E-01; -1.1421899E+02;3;  2.4116225E+00;  0.0000000E+00; -1.2635270E-01;0;  8.3137803E-02;  3.9981047E+04;  0.0000000E+00; -2.2294771E-02;  4.0000000E+04;  0.0000000E+00;  4.0013715E+04;  8.6836569E-02;  0.0000000E+00; -3.6987681E-03;  1.7233391E+03;
  1.4167060E-01;  9.9999998E-03; -9.9941596E-02;3320;  1.5543707E-02;  0.0000000E+00;  3.0315798E-04;  9.9911273E+02;  1.0000000E-01; -7.3509033E+02;3;  2.5180311E+00;  0.0000000E+00;  2.2695284E-01;0;  7.8897096E-02;  3.9910691E+04;  0.0000000E+00; -6.5184131E-02;  4.0000000E+04;  0.0000000E+00;  4.0021562E+04;  8.2427077E-02;  0.0000000E+00; -3.5299803E-03;  2.7844175E+03;
  1.4162792E-01;  9.9999998E-03; -8.9940339E-02;3321;  1.5445422E-02;  0.0000000E+00;  2.8253492E-04;  9.9907990E+02;  1.0000000E-01; -7.6229944E+02;3;  2.5681109E+00;  0.0000000E+00;  1.8991451E-01;0;  7.7397600E-02;  3.9910078E+04;  0.0000000E+00; -5.3838469E-02;  4.0000000E+04;  0.0000000E+00;  4.0019172E+04;  8.0853865E-02;  0.0000000E+00; -3.4562647E-03;  2.5000183E+03;
  1.4158852E-01;  9.9999998E-03; -7.9935268E-02;3322;  1.5356036E-02;  0.0000000E+00;  2.6783199E-04;  9.9907684E+02;  1.0000000E-01; -7.6481787E+02;3;  2.6049080E+00;  0.0000000E+00;  1.6112584E-01;0;  7.6038539E-02;  3.9912020E+04;  0.0000000E+00; -4.1472543E-02;  4.0000000E+04;  0.0000000E+00;  4.0016676E+04;  7.9514980E-02;  0.0000000E+00; -3.4764400E-03;  2.1795718E+03;
  1.4155528E-01;  9.9999998E-03; -6.9930486E-02;3323;  1.5279614E-02;  0.0000000E+00;  2.4636695E-04;  9.9910077E+02;  1.0000000E-01; -7.4501599E+02;3;  2.6333585E+00;  0.0000000E+00;  1.3669510E-01;0;  7.4901775E-02;  3.9915848E+04;  0.0000000E+00; -3.0155258E-02;  4.0000000E+04;  0.0000000E+00;  4.0014746E+04;  7.8477971E-02;  0.0000000E+00; -3.5761937E-03;  1.9076169E+03;
  1.4152732E-01;  9.9999998E-03; -5.9929043E-02;3324;  1.5218021E-02;  0.0000000E+00;  2.1725678E-04;  9.9914899E+02;  1.0000000E-01; -7.0506647E+02;3;  2.6539874E+00;  0.0000000E+00;  1.1730009E-01;0;  7.4030071E-02;  3.9920973E+04;  0.0000000E+00; -2.0861898E-02;  4.0000000E+04;  0.0000000E+00;  4.0013199E+04;  7.7762134E-02;  0.0000000E+00; -3.7320619E-03;  1.7376693E+03;
  1.4150326E-01;  9.9999998E-03; -4.9932718E-02;3325;  1.5171069E-02;  0.0000000E+00;  1.8185093E-04;  9.9921582E+02;  1.0000000E-01; -6.4966064E+02;3;  2.6708004E+00;  0.0000000E+00;  9.7931735E-02;0;  7.3426597E-02;  3.9926438E+04;  0.0000000E+00; -1.3753559E-02;  4.0000000E+04;  0.0000000E+00;  4.0013004E+04;  7.7343240E-02;  0.0000000E+00; -3.9166450E-03;  1.6859281E+03;
  1.4148343E-01;  9.9999998E-03; -3.9941080E-02;3326;  1.5137598E-02;  0.0000000E+00;  1.4349871E-04;  9.9928735E+02;  1.0000000E-01; -5.9040308E+02;3;  2.6845503E+00;  0.0000000E+00;  7.9295747E-02;0;  7.3058344E-02;  3.9931781E+04;  0.0000000E+00; -8.5215159E-03;  4.0000000E+04;  0.0000000E+00;  4.0013484E+04;  7.7161625E-02;  0.0000000E+00; -4.1032773E-03;  1.7351348E+03;
  1.4146836E-01;  9.9999998E-03; -2.9953349E-02;3327;  1.5115499E-02;  0.0000000E+00;  1.0477428E-04;  9.9936005E+02;  1.0000000E-01; -5.3020721E+02;3;  2.6957879E+00;  0.0000000E+00;  5.9854079E-02;0;  7.2869211E-02;  3.9936336E+04;  0.0000000E+00; -4.7433139E-03;  4.0000000E+04;  0.0000000E+00;  4.0014562E+04;  7.7138543E-02;  0.0000000E+00; -4.2693322E-03;  1.8455479E+03;
  1.4145768E-01;  9.9999998E-03; -1.9968711E-02;3328;  1.5102233E-02;  0.0000000E+00;  6.7740017E-05;  9.9941718E+02;  1.0000000E-01; -4.8285056E+02;3;  2.7044163E+00;  0.0000000E+00;  4.0124878E-02;0;  7.2795235E-02;  3.9940031E+04;  0.0000000E+00; -2.1174920E-03;  4.0000000E+04;  0.0000000E+00;  4.0015621E+04;  7.7193268E-02;  0.0000000E+00; -4.3980349E-03;  1.9687716E+03;
  1.4145070E-01;  9.9999998E-03; -9.9849682E-03;3329;  1.5095721E-02;  0.0000000E+00;  3.3164739E-05;  9.9945813E+02;  1.0000000E-01; -4.4892557E+02;3;  2.7095230E+00;  0.0000000E+00;  1.9916821E-02;0;  7.2778322E-02;  3.9942402E+04;  0.0000000E+00; -5.3365540E-04;  4.0000000E+04;  0.0000000E+00;  4.0016102E+04;  7.7257134E-02;  0.0000000E+00; -4.4788118E-03;  2.0616191E+03;
  1.4144817E-01;  9.9999998E-03; -1.3862869E-10;3330;  1.5093817E-02;  0.0000000E+00; -4.0985308E-09;  9.9946936E+02;  1.0000000E-01; -4.3964188E+02;3;  2.7114923E+00;  0.0000000E+00;  4.0954606E-06;0;  7.2777584E-02;  3.9943141E+04;  0.0000000E+00;  2.0335292E-13;  4.0000000E+04;  0.0000000E+00;  4.0016473E+04;  7.7283859E-02;  0.0000000E+00; -4.5062779E-03;  2.0957302E+03;
  1.4145070E-01;  9.9999998E-03;  9.9849682E-03;3331;  1.5095721E-02;  0.0000000E+00; -3.3173303E-05;  9.9945813E+02;  1.0000000E-01; -4.4892557E+02;3;  2.7095189E+00;  0.0000000E+00; -1.9932369E-02;0;  7.2778404E-02;  3.9942406E+04;  0.0000000E+00; -5.3348445E-04;  4.0000000E+04;  0.0000000E+00;  4.0016102E+04;  7.7257223E-02;  0.0000000E+00; -4.4788197E-03;  2.0616201E+03;
  1.4145768E-01;  9.9999998E-03;  1.9968711E-02;3332;  1.5102234E-02;  0.0000000E+00; -6.7747176E-05;  9.9941718E+02;  1.0000000E-01; -4.8285056E+02;3;  2.7044170E+00;  0.0000000E+00; -4.0125113E-02;0;  7.2795138E-02;  3.9940031E+04;  0.0000000E+00; -2.1173551E-03;  4.0000000E+04;  0.0000000E+00;  4.0015621E+04;  7.7193178E-02;  0.0000000E+00; -4.3980409E-03;  1.9687759E+03;
  1.4146836E-01;  9.9999998E-03;  2.9953349E-02;3333;  1.5115502E-02;  0.0000000E+00; -1.0478146E-04;  9.9936005E+02;  1.0000000E-01; -5.3020721E+02;3;  2.6957853E+00;  0.0000000E+00; -5.9838399E-02;0;  7.2869256E-02;  3.9936332E+04;  0.0000000E+00; -4.7430540E-03;  4.0000000E+04;  0.0000000E+00;  4.0014562E+04;  7.7138603E-02;  0.0000000E+00; -4.2693438E-03;  1.8455544E+03;
  1.4148343E-01;  9.9999998E-03;  3.9941080E-02;3334;  1.5137603E-02;  0.0000000E+00; -1.4350525E-04;  9.9928741E+02;  1.0000000E-01; -5.9035370E+02;3;  2.6845553E+00;  0.0000000E+00; -7.9285830E-02;0;  7.3058598E-02;  3.9931785E+04;  0.0000000E+00; -8.5211499E-03;  4.0000000E+04;  0.0000000E+00;  4.0013484E+04;  7.7161893E-02;  0.0000000E+00; -4.1032927E-03;  1.7351443E+03;
  1.4150324E-01;  9.9999998E-03;  4.9932718E-02;3335;  1.5171076E-02;  0.0000000E+00; -1.8185770E-04;  9.9921582E+02;  1.0000000E-01; -6.4966064E+02;3;  2.6708298E+00;  0.0000000E+00; -9.7916439E-02;0;  7.3426843E-02;  3.9926434E+04;  0.0000000E+00; -1.3752728E-02;  4.0000000E+04;  0.0000000E+00;  4.0013008E+04;  7.7343501E-02;  0.0000000E+00; -3.9166589E-03;  1.6859312E+03;
  1.4152732E-01;  9.9999998E-03;  5.9929043E-02;3336;  1.5218032E-02;  0.0000000E+00; -2.1726360E-04;  9.9914899E+02;  1.0000000E-01; -7.0506647E+02;3;  2.6539874E+00;  0.0000000E+00; -1.1727708E-01;0;  7.4030340E-02;  3.9920973E+04;  0.0000000E+00; -2.0862568E-02;  4.0000000E+04;  0.0000000E+00;  4.0013199E+04;  7.7762417E-02;  0.0000000E+00; -3.7320815E-03;  1.7376763E+03;
  1.5132801E-01;  9.9999998E-03; -9.9864993E-03;3390;  1.4954166E-02;  0.0000000E+00;  3.7923492E-05;  9.9882556E+02;  1.0000000E-01; -9.7300952E+02;3;  2.7739489E+00;  0.0000000E+00;  1.7004129E-02;0;  6.3132949E-02;  3.9891102E+04;  0.0000000E+00; -6.2919111E-04;  4.0000000E+04;  0.0000000E+00;  4.0013992E+04;  6.7736924E-02;  0.0000000E+00; -4.6039750E-03;  1.8521537E+03;
  1.5132484E-01;  9.9999998E-03; -1.8928208E-10;3391;  1.4953441E-02;  0.0000000E+00; -4.9407736E-09;  9.9883752E+02;  1.0000000E-01; -9.6308386E+02;3;  2.7755709E+00;  0.0000000E+00; -3.0921829E-06;0;  6.3149929E-02;  3.9891816E+04;  0.0000000E+00;  1.4206468E-12;  4.0000000E+04;  0.0000000E+00;  4.0014094E+04;  6.7782812E-02;  0.0000000E+00; -4.6328865E-03;  1.8827166E+03;
  1.5132801E-01;  9.9999998E-03;  9.9864993E-03;3392;  1.4954167E-02;  0.0000000E+00; -3.7933325E-05;  9.9882556E+02;  1.0000000E-01; -9.7300952E+02;3;  2.7739689E+00;  0.0000000E+00; -1.7007086E-02;0;  6.3132957E-02;  3.9891102E+04;  0.0000000E+00; -6.2911230E-04;  4.0000000E+04;  0.0000000E+00;  4.0013992E+04;  6.7736939E-02;  0.0000000E+00; -4.6039820E-03;  1.8521575E+03;
  1.5133700E-01;  9.9999998E-03; -1.9971155E-02;3389;  1.4956649E-02;  0.0000000E+00;  7.6924269E-05;  9.9879175E+02;  1.0000000E-01; -1.0010087E+03;3;  2.7693281E+00;  0.0000000E+00;  3.3796646E-02;0;  6.3100517E-02;  3.9889066E+04;  0.0000000E+00; -2.3961964E-03;  4.0000000E+04;  0.0000000E+00;  4.0013559E+04;  6.7619517E-02;  0.0000000E+00; -4.5190025E-03;  1.7689750E+03;
  1.5133700E-01;  9.9999998E-03;  1.9971153E-02;3393;  1.4956652E-02;  0.0000000E+00; -7.6934411E-05;  9.9879175E+02;  1.0000000E-01; -1.0010087E+03;3;  2.7693346E+00;  0.0000000E+00; -3.3796944E-02;0;  6.3100584E-02;  3.9889066E+04;  0.0000000E+00; -2.3956683E-03;  4.0000000E+04;  0.0000000E+00;  4.0013559E+04;  6.7619585E-02;  0.0000000E+00; -4.5190039E-03;  1.7689817E+03;
  1.5135162E-01;  9.9999998E-03; -2.9956384E-02;3388;  1.4963648E-02;  0.0000000E+00;  1.1746086E-04;  9.9873743E+02;  1.0000000E-01; -1.0459951E+03;3;  2.7613492E+00;  0.0000000E+00;  4.9991064E-02;0;  6.3102305E-02;  3.9885934E+04;  0.0000000E+00; -5.0296523E-03;  4.0000000E+04;  0.0000000E+00;  4.0012383E+04;  6.7486085E-02;  0.0000000E+00; -4.3837838E-03;  1.6594290E+03;
  1.5135162E-01;  9.9999998E-03;  2.9956382E-02;3394;  1.4963652E-02;  0.0000000E+00; -1.1747079E-04;  9.9873743E+02;  1.0000000E-01; -1.0459951E+03;3;  2.7613673E+00;  0.0000000E+00; -4.9984049E-02;0;  6.3102610E-02;  3.9885930E+04;  0.0000000E+00; -5.0293682E-03;  4.0000000E+04;  0.0000000E+00;  4.0012383E+04;  6.7486398E-02;  0.0000000E+00; -4.3837847E-03;  1.6594377E+03;
  1.5137213E-01;  9.9999998E-03; -3.9944272E-02;3387;  1.4978377E-02;  0.0000000E+00;  1.5878827E-04;  9.9868103E+02;  1.0000000E-01; -1.0927593E+03;3;  2.7505651E+00;  0.0000000E+00;  6.6714056E-02;0;  6.3209929E-02;  3.9881984E+04;  0.0000000E+00; -8.3313249E-03;  4.0000000E+04;  0.0000000E+00;  4.0011680E+04;  6.7419320E-02;  0.0000000E+00; -4.2093950E-03;  1.5648721E+03;
  1.5137213E-01;  9.9999998E-03;  3.9944272E-02;3395;  1.4978382E-02;  0.0000000E+00; -1.5879764E-04;  9.9868097E+02;  1.0000000E-01; -1.0928086E+03;3;  2.7505555E+00;  0.0000000E+00; -6.6701330E-02;0;  6.3210092E-02;  3.9881984E+04;  0.0000000E+00; -8.3302045E-03;  4.0000000E+04;  0.0000000E+00;  4.0011680E+04;  6.7419499E-02;  0.0000000E+00; -4.2094057E-03;  1.5648752E+03;
  1.5139864E-01;  9.9999998E-03; -4.9935587E-02;3386;  1.5004328E-02;  0.0000000E+00;  1.9877627E-04;  9.9862006E+02;  1.0000000E-01; -1.1432764E+03;3;  2.7370729E+00;  0.0000000E+00;  8.2123019E-02;0;  6.3502371E-02;  3.9877500E+04;  0.0000000E+00; -1.2398081E-02;  4.0000000E+04;  0.0000000E+00;  4.0011371E+04;  6.7515254E-02;  0.0000000E+00; -4.0128855E-03;  1.5324480E+03;
  1.5139864E-01;  9.9999998E-03;  4.9935587E-02;3396;  1.5004336E-02;  0.0000000E+00; -1.9878597E-04;  9.9862000E+02;  1.0000000E-01; -1.1433257E+03;3;  2.7370689E+00;  0.0000000E+00; -8.2112454E-02;0;  6.3502654E-02;  3.9877500E+04;  0.0000000E+00; -1.2396665E-02;  4.0000000E+04;  0.0000000E+00;  4.0011371E+04;  6.7515552E-02;  0.0000000E+00; -4.0128985E-03;  1.5324524E+03;
  1.5143083E-01;  9.9999998E-03; -5.9930086E-02;3385;  1.5045068E-02;  0.0000000E+00;  2.3496445E-04;  9.9856903E+02;  1.0000000E-01; -1.1855468E+03;3;  2.7202420E+00;  0.0000000E+00;  9.6420661E-02;0;  6.4051978E-02;  3.9873117E+04;  0.0000000E+00; -1.7698409E-02;  4.0000000E+04;  0.0000000E+00;  4.0011793E+04;  6.7868747E-02;  0.0000000E+00; -3.8167711E-03;  1.6006907E+03;
  1.5143083E-01;  9.9999998E-03;  5.9930086E-02;3397;  1.5045078E-02;  0.0000000E+00; -2.3497370E-04;  9.9856903E+02;  1.0000000E-01; -1.1855468E+03;3;  2.7202299E+00;  0.0000000E+00; -9.6397400E-02;0;  6.4052194E-02;  3.9873113E+04;  0.0000000E+00; -1.7697729E-02;  4.0000000E+04;  0.0000000E+00;  4.0011793E+04;  6.7868978E-02;  0.0000000E+00; -3.8167855E-03;  1.6006938E+03;
  1.5146790E-01;  9.9999998E-03; -6.9927394E-02;3384;  1.5102952E-02;  0.0000000E+00;  2.6391284E-04;  9.9853845E+02;  1.0000000E-01; -1.2108794E+03;3;  2.6997614E+00;  0.0000000E+00;  1.1312637E-01;0;  6.4908706E-02;  3.9869441E+04;  0.0000000E+00; -2.4927096E-02;  4.0000000E+04;  0.0000000E+00;  4.0013168E+04;  6.8555921E-02;  0.0000000E+00; -3.6472133E-03;  1.7849288E+03;
  1.5150928E-01;  9.9999998E-03; -7.9926908E-02;3383;  1.5180414E-02;  0.0000000E+00;  2.8263041E-04;  9.9853607E+02;  1.0000000E-01; -1.2128546E+03;3;  2.6743464E+00;  0.0000000E+00;  1.3085215E-01;0;  6.6088006E-02;  3.9867281E+04;  0.0000000E+00; -3.4646492E-02;  4.0000000E+04;  0.0000000E+00;  4.0015742E+04;  6.9618829E-02;  0.0000000E+00; -3.5308248E-03;  2.0670608E+03;
  1.5155391E-01;  9.9999998E-03; -8.9927092E-02;3382;  1.5281517E-02;  0.0000000E+00;  2.9261585E-04;  9.9856616E+02;  1.0000000E-01; -1.1879170E+03;3;  2.6418169E+00;  0.0000000E+00;  1.5192121E-01;0;  6.7562602E-02;  3.9867098E+04;  0.0000000E+00; -4.6824135E-02;  4.0000000E+04;  0.0000000E+00;  4.0018035E+04;  7.1053065E-02;  0.0000000E+00; -3.4904659E-03;  2.3925620E+03;
  1.5160102E-01;  9.9999998E-03; -9.9926919E-02;3381;  1.5402571E-02;  0.0000000E+00;  2.9731821E-04;  9.9862378E+02;  1.0000000E-01; -1.1401653E+03;3;  2.5909560E+00;  0.0000000E+00;  1.8632126E-01;0;  6.9260471E-02;  3.9869984E+04;  0.0000000E+00; -6.0356248E-02;  4.0000000E+04;  0.0000000E+00;  4.0020477E+04;  7.2801135E-02;  0.0000000E+00; -3.5406640E-03;  2.6777417E+03;
  1.6160657E-01;  9.9999998E-03; -9.9953756E-02;3442;  1.5161732E-02;  0.0000000E+00;  3.0549028E-04;  9.9830115E+02;  1.0000000E-01; -1.4074663E+03;3;  2.6185095E+00;  0.0000000E+00;  1.3713005E-01;0;  5.9795216E-02;  3.9843883E+04;  0.0000000E+00; -4.9554721E-02;  4.0000000E+04;  0.0000000E+00;  4.0018332E+04;  6.3388482E-02;  0.0000000E+00; -3.5932669E-03;  2.4373943E+03;
  1.6156141E-01;  9.9999998E-03; -8.9957483E-02;3443;  1.5031128E-02;  0.0000000E+00;  3.1178951E-04;  9.9821570E+02;  1.0000000E-01; -1.4782792E+03;3;  2.6571226E+00;  0.0000000E+00;  1.1469823E-01;0;  5.8026027E-02;  3.9839246E+04;  0.0000000E+00; -3.6390670E-02;  4.0000000E+04;  0.0000000E+00;  4.0016145E+04;  6.1611168E-02;  0.0000000E+00; -3.5851421E-03;  2.1484299E+03;
  1.6151464E-01;  9.9999998E-03; -7.9959221E-02;3444;  1.4934509E-02;  0.0000000E+00;  3.0405409E-04;  9.9816290E+02;  1.0000000E-01; -1.5219817E+03;3;  2.6881168E+00;  0.0000000E+00;  9.9764429E-02;0;  5.6560241E-02;  3.9837410E+04;  0.0000000E+00; -2.7016500E-02;  4.0000000E+04;  0.0000000E+00;  4.0013340E+04;  6.0220078E-02;  0.0000000E+00; -3.6598388E-03;  1.8155638E+03;
  1.6147009E-01;  9.9999998E-03; -6.9960497E-02;3445;  1.4860888E-02;  0.0000000E+00;  2.8313653E-04;  9.9814270E+02;  1.0000000E-01; -1.5387219E+03;3;  2.7128201E+00;  0.0000000E+00;  8.9252904E-02;0;  5.5452172E-02;  3.9838066E+04;  0.0000000E+00; -2.0966236E-02;  4.0000000E+04;  0.0000000E+00;  4.0010941E+04;  5.9254430E-02;  0.0000000E+00; -3.8022576E-03;  1.5223662E+03;
  1.6142999E-01;  9.9999998E-03; -5.9962314E-02;3446;  1.4808457E-02;  0.0000000E+00;  2.5205294E-04;  9.9815729E+02;  1.0000000E-01; -1.5266729E+03;3;  2.7331154E+00;  0.0000000E+00;  7.8732073E-02;0;  5.4710224E-02;  3.9840578E+04;  0.0000000E+00; -1.7022237E-02;  4.0000000E+04;  0.0000000E+00;  4.0009309E+04;  5.8700692E-02;  0.0000000E+00; -3.9904658E-03;  1.3245938E+03;
  1.6139577E-01;  9.9999998E-03; -4.9965236E-02;3447;  1.4774485E-02;  0.0000000E+00;  2.1360817E-04;  9.9819452E+02;  1.0000000E-01; -1.4958096E+03;3;  2.7493596E+00;  0.0000000E+00;  6.7249849E-02;0;  5.4300178E-02;  3.9843961E+04;  0.0000000E+00; -1.3863160E-02;  4.0000000E+04;  0.0000000E+00;  4.0008871E+04;  5.8499660E-02;  0.0000000E+00; -4.1994811E-03;  1.2423011E+03;
  1.6136730E-01;  9.9999998E-03; -3.9969999E-02;3448;  1.4755595E-02;  0.0000000E+00;  1.7096971E-04;  9.9824365E+02;  1.0000000E-01; -1.4551194E+03;3;  2.7627513E+00;  0.0000000E+00;  5.4630518E-02;0;  5.4154024E-02;  3.9847602E+04;  0.0000000E+00; -1.0591209E-02;  4.0000000E+04;  0.0000000E+00;  4.0009031E+04;  5.8558822E-02;  0.0000000E+00; -4.4047991E-03;  1.2612693E+03;
  1.6134487E-01;  9.9999998E-03; -2.9977221E-02;3449;  1.4747553E-02;  0.0000000E+00;  1.2712539E-04;  9.9829669E+02;  1.0000000E-01; -1.4111699E+03;3;  2.7729614E+00;  0.0000000E+00;  4.2147484E-02;0;  5.4182250E-02;  3.9851047E+04;  0.0000000E+00; -6.9972286E-03;  4.0000000E+04;  0.0000000E+00;  4.0009555E+04;  5.8767512E-02;  0.0000000E+00; -4.5852610E-03;  1.3431870E+03;
  1.6132814E-01;  9.9999998E-03; -1.9986195E-02;3450;  1.4745809E-02;  0.0000000E+00;  8.3795603E-05;  9.9834308E+02;  1.0000000E-01; -1.3727513E+03;3;  2.7806835E+00;  0.0000000E+00;  2.8241694E-02;0;  5.4290887E-02;  3.9853840E+04;  0.0000000E+00; -3.5220857E-03;  4.0000000E+04;  0.0000000E+00;  4.0010379E+04;  5.9015527E-02;  0.0000000E+00; -4.7246399E-03;  1.4413053E+03;
  1.6131741E-01;  9.9999998E-03; -9.9947983E-03;3451;  1.4746638E-02;  0.0000000E+00;  4.1465581E-05;  9.9837189E+02;  1.0000000E-01; -1.3488507E+03;3;  2.7849588E+00;  0.0000000E+00;  1.4220083E-02;0;  5.4395720E-02;  3.9855727E+04;  0.0000000E+00; -9.5185603E-04;  4.0000000E+04;  0.0000000E+00;  4.0011062E+04;  5.9207875E-02;  0.0000000E+00; -4.8121535E-03;  1.5158411E+03;
  1.6131344E-01;  9.9999998E-03; -1.9799223E-10;3452;  1.4747180E-02;  0.0000000E+00; -6.2057377E-09;  9.9838257E+02;  1.0000000E-01; -1.3400115E+03;3;  2.7864754E+00;  0.0000000E+00; -3.2358002E-08;0;  5.4437928E-02;  3.9856316E+04;  0.0000000E+00; -2.2598611E-13;  4.0000000E+04;  0.0000000E+00;  4.0011172E+04;  5.9279844E-02;  0.0000000E+00; -4.8419181E-03;  1.5430651E+03;
  1.6131741E-01;  9.9999998E-03;  9.9947983E-03;3453;  1.4746641E-02;  0.0000000E+00; -4.1477808E-05;  9.9837189E+02;  1.0000000E-01; -1.3488507E+03;3;  2.7849634E+00;  0.0000000E+00; -1.4219415E-02;0;  5.4395732E-02;  3.9855727E+04;  0.0000000E+00; -9.5187064E-04;  4.0000000E+04;  0.0000000E+00;  4.0011062E+04;  5.9207883E-02;  0.0000000E+00; -4.8121521E-03;  1.5158458E+03;
  1.6132814E-01;  9.9999998E-03;  1.9986195E-02;3454;  1.4745811E-02;  0.0000000E+00; -8.3807783E-05;  9.9834308E+02;  1.0000000E-01; -1.3727513E+03;3;  2.7806926E+00;  0.0000000E+00; -2.8241230E-02;0;  5.4290894E-02;  3.9853840E+04;  0.0000000E+00; -3.5219123E-03;  4.0000000E+04;  0.0000000E+00;  4.0010379E+04;  5.9015539E-02;  0.0000000E+00; -4.7246455E-03;  1.4413129E+03;
  1.6134487E-01;  9.9999998E-03;  2.9977221E-02;3455;  1.4747556E-02;  0.0000000E+00; -1.2713751E-04;  9.9829669E+02;  1.0000000E-01; -1.4111699E+03;3;  2.7729590E+00;  0.0000000E+00; -4.2140361E-02;0;  5.4182332E-02;  3.9851043E+04;  0.0000000E+00; -6.9973306E-03;  4.0000000E+04;  0.0000000E+00;  4.0009555E+04;  5.8767598E-02;  0.0000000E+00; -4.5852675E-03;  1.3431945E+03;
  1.6136730E-01;  9.9999998E-03;  3.9969999E-02;3456;  1.4755602E-02;  0.0000000E+00; -1.7098176E-04;  9.9824359E+02;  1.0000000E-01; -1.4551687E+03;3;  2.7627552E+00;  0.0000000E+00; -5.4622773E-02;0;  5.4154132E-02;  3.9847602E+04;  0.0000000E+00; -1.0589966E-02;  4.0000000E+04;  0.0000000E+00;  4.0009031E+04;  5.8558941E-02;  0.0000000E+00; -4.4048098E-03;  1.2612703E+03;
  1.6139579E-01;  9.9999998E-03;  4.9965236E-02;3457;  1.4774493E-02;  0.0000000E+00; -2.1362051E-04;  9.9819452E+02;  1.0000000E-01; -1.4958096E+03;3;  2.7493579E+00;  0.0000000E+00; -6.7236230E-02;0;  5.4300349E-02;  3.9843961E+04;  0.0000000E+00; -1.3863184E-02;  4.0000000E+04;  0.0000000E+00;  4.0008871E+04;  5.8499843E-02;  0.0000000E+00; -4.1994923E-03;  1.2423076E+03;
  1.6142999E-01;  9.9999998E-03;  5.9962314E-02;3458;  1.4808469E-02;  0.0000000E+00; -2.5206502E-04;  9.9815729E+02;  1.0000000E-01; -1.5266729E+03;3;  2.7331321E+00;  0.0000000E+00; -7.8716904E-02;0;  5.4710440E-02;  3.9840578E+04;  0.0000000E+00; -1.7020633E-02;  4.0000000E+04;  0.0000000E+00;  4.0009312E+04;  5.8700915E-02;  0.0000000E+00; -3.9904760E-03;  1.3246002E+03;
  1.7162727E-01;  9.9999998E-03; -1.0001966E-01;3503;  1.4896998E-02;  0.0000000E+00;  3.2169541E-04;  9.9813232E+02;  1.0000000E-01; -1.5473142E+03;3;  2.6276717E+00;  0.0000000E+00;  1.0005599E-01;0;  5.1897906E-02;  3.9831844E+04;  0.0000000E+00; -3.7895221E-02;  4.0000000E+04;  0.0000000E+00;  4.0015430E+04;  5.5639081E-02;  0.0000000E+00; -3.7411733E-03;  2.0805474E+03;
  1.7157543E-01;  9.9999998E-03; -9.0024076E-02;3504;  1.4769890E-02;  0.0000000E+00;  3.3305478E-04;  9.9802856E+02;  1.0000000E-01; -1.6332871E+03;3;  2.6642728E+00;  0.0000000E+00;  8.7049454E-02;0;  5.0209671E-02;  3.9825859E+04;  0.0000000E+00; -2.8091019E-02;  4.0000000E+04;  0.0000000E+00;  4.0012938E+04;  5.3997528E-02;  0.0000000E+00; -3.7878547E-03;  1.7834153E+03;
  1.7152579E-01;  9.9999998E-03; -8.0024935E-02;3505;  1.4670855E-02;  0.0000000E+00;  3.2557803E-04;  9.9796472E+02;  1.0000000E-01; -1.6861746E+03;3;  2.6936193E+00;  0.0000000E+00;  7.7832222E-02;0;  4.8889741E-02;  3.9822871E+04;  0.0000000E+00; -2.3718379E-02;  4.0000000E+04;  0.0000000E+00;  4.0009980E+04;  5.2795526E-02;  0.0000000E+00; -3.9057834E-03;  1.4421526E+03;
  1.7148189E-01;  9.9999998E-03; -7.0022680E-02;3506;  1.4597896E-02;  0.0000000E+00;  3.0217497E-04;  9.9793262E+02;  1.0000000E-01; -1.7127910E+03;3;  2.7180629E+00;  0.0000000E+00;  7.0107624E-02;0;  4.7975067E-02;  3.9822691E+04;  0.0000000E+00; -2.2461578E-02;  4.0000000E+04;  0.0000000E+00;  4.0007559E+04;  5.2054361E-02;  0.0000000E+00; -4.0792925E-03;  1.1393202E+03;
  1.7144778E-01;  9.9999998E-03; -6.0018174E-02;3507;  1.4549551E-02;  0.0000000E+00;  2.6744723E-04;  9.9793781E+02;  1.0000000E-01; -1.7084949E+03;3;  2.7385683E+00;  0.0000000E+00;  6.2337104E-02;0;  4.7453687E-02;  3.9824586E+04;  0.0000000E+00; -2.1875957E-02;  4.0000000E+04;  0.0000000E+00;  4.0005863E+04;  5.1741514E-02;  0.0000000E+00; -4.2878268E-03;  9.3196777E+02;
  1.7143057E-01;  9.9999998E-03; -5.0013468E-02;3508;  1.4521966E-02;  0.0000000E+00;  2.2568162E-04;  9.9796985E+02;  1.0000000E-01; -1.6819277E+03;3;  2.7557914E+00;  0.0000000E+00;  5.4080691E-02;0;  4.7267966E-02;  3.9827754E+04;  0.0000000E+00; -2.0125318E-02;  4.0000000E+04;  0.0000000E+00;  4.0005336E+04;  5.1776946E-02;  0.0000000E+00; -4.5089778E-03;  8.4190973E+02;
  1.7143454E-01;  9.9999998E-03; -4.0011410E-02;3509;  1.4510443E-02;  0.0000000E+00;  1.8035225E-04;  9.9801788E+02;  1.0000000E-01; -1.6421263E+03;3;  2.7699852E+00;  0.0000000E+00;  4.4566754E-02;0;  4.7328584E-02;  3.9831289E+04;  0.0000000E+00; -1.6449243E-02;  4.0000000E+04;  0.0000000E+00;  4.0005457E+04;  5.2049641E-02;  0.0000000E+00; -4.7210585E-03;  8.5536395E+02;
  1.7145163E-01;  9.9999998E-03; -3.0012300E-02;3510;  1.4509770E-02;  0.0000000E+00;  1.3403811E-04;  9.9806964E+02;  1.0000000E-01; -1.5992634E+03;3;  2.7809341E+00;  0.0000000E+00;  3.4288544E-02;0;  4.7533028E-02;  3.9834824E+04;  0.0000000E+00; -1.1227417E-02;  4.0000000E+04;  0.0000000E+00;  4.0006266E+04;  5.2438110E-02;  0.0000000E+00; -4.9050832E-03;  9.3279236E+02;
  1.7146583E-01;  9.9999998E-03; -2.0013491E-02;3511;  1.4514429E-02;  0.0000000E+00;  8.8358138E-05;  9.9811346E+02;  1.0000000E-01; -1.5629681E+03;3;  2.7889419E+00;  0.0000000E+00;  2.3026910E-02;0;  4.7779292E-02;  3.9837488E+04;  0.0000000E+00; -5.7272897E-03;  4.0000000E+04;  0.0000000E+00;  4.0006629E+04;  5.2825443E-02;  0.0000000E+00; -5.0461497E-03;  1.0262662E+03;
  1.7146635E-01;  9.9999998E-03; -1.0011393E-02;3512;  1.4519758E-02;  0.0000000E+00;  4.3795393E-05;  9.9814435E+02;  1.0000000E-01; -1.5373887E+03;3;  2.7939591E+00;  0.0000000E+00;  1.1620072E-02;0;  4.7975704E-02;  3.9839238E+04;  0.0000000E+00; -1.5543597E-03;  4.0000000E+04;  0.0000000E+00;  4.0007555E+04;  5.3109869E-02;  0.0000000E+00; -5.1341653E-03;  1.0965189E+03;
  1.7146520E-01;  9.9999998E-03; -5.2989411E-11;3513;  1.4521963E-02;  0.0000000E+00; -7.2641888E-09;  9.9815448E+02;  1.0000000E-01; -1.5289938E+03;3;  2.7955630E+00;  0.0000000E+00;  2.2767313E-06;0;  4.8049774E-02;  3.9839941E+04;  0.0000000E+00;  1.1468379E-12;  4.0000000E+04;  0.0000000E+00;  4.0007762E+04;  5.3213842E-02;  0.0000000E+00; -5.1640691E-03;  1.1218046E+03;
  1.7146635E-01;  9.9999998E-03;  1.0011393E-02;3514;  1.4519759E-02;  0.0000000E+00; -4.3809956E-05;  9.9814441E+02;  1.0000000E-01; -1.5373392E+03;3;  2.7939394E+00;  0.0000000E+00; -1.1616439E-02;0;  4.7975723E-02;  3.9839242E+04;  0.0000000E+00; -1.5543834E-03;  4.0000000E+04;  0.0000000E+00;  4.0007555E+04;  5.3109895E-02;  0.0000000E+00; -5.1341723E-03;  1.0965181E+03;
  1.7146583E-01;  9.9999998E-03;  2.0013491E-02;3515;  1.4514431E-02;  0.0000000E+00; -8.8372508E-05;  9.9811353E+02;  1.0000000E-01; -1.5629187E+03;3;  2.7889531E+00;  0.0000000E+00; -2.3024682E-02;0;  4.7779333E-02;  3.9837488E+04;  0.0000000E+00; -5.7272618E-03;  4.0000000E+04;  0.0000000E+00;  4.0006629E+04;  5.2825488E-02;  0.0000000E+00; -5.0461539E-03;  1.0262698E+03;
  1.7145163E-01;  9.9999998E-03;  3.0012300E-02;3516;  1.4509776E-02;  0.0000000E+00; -1.3405262E-04;  9.9806970E+02;  1.0000000E-01; -1.5992140E+03;3;  2.7809296E+00;  0.0000000E+00; -3.4286357E-02;0;  4.7533125E-02;  3.9834820E+04;  0.0000000E+00; -1.1228045E-02;  4.0000000E+04;  0.0000000E+00;  4.0006266E+04;  5.2438218E-02;  0.0000000E+00; -4.9050939E-03;  9.3279584E+02;
  1.7143454E-01;  9.9999998E-03;  4.0011410E-02;3517;  1.4510450E-02;  0.0000000E+00; -1.8036689E-04;  9.9801770E+02;  1.0000000E-01; -1.6422745E+03;3;  2.7699976E+00;  0.0000000E+00; -4.4556707E-02;0;  4.7328625E-02;  3.9831281E+04;  0.0000000E+00; -1.6448975E-02;  4.0000000E+04;  0.0000000E+00;  4.0005457E+04;  5.2049693E-02;  0.0000000E+00; -4.7210664E-03;  8.5536957E+02;
  1.7143057E-01;  9.9999998E-03;  5.0013468E-02;3518;  1.4521975E-02;  0.0000000E+00; -2.2569703E-04;  9.9796985E+02;  1.0000000E-01; -1.6819277E+03;3;  2.7557895E+00;  0.0000000E+00; -5.4080181E-02;0;  4.7268085E-02;  3.9827750E+04;  0.0000000E+00; -2.0127403E-02;  4.0000000E+04;  0.0000000E+00;  4.0005336E+04;  5.1777072E-02;  0.0000000E+00; -4.5089880E-03;  8.4191260E+02;
  1.7144778E-01;  9.9999998E-03;  6.0018174E-02;3519;  1.4549563E-02;  0.0000000E+00; -2.6746147E-04;  9.9793781E+02;  1.0000000E-01; -1.7084949E+03;3;  2.7385702E+00;  0.0000000E+00; -6.2310211E-02;0;  4.7453906E-02;  3.9824578E+04;  0.0000000E+00; -2.1872494E-02;  4.0000000E+04;  0.0000000E+00;  4.0005863E+04;  5.1741742E-02;  0.0000000E+00; -4.2878347E-03;  9.3197498E+02;
  1.8162237E-01;  9.9999998E-03; -1.0007186E-01;3564;  1.4648032E-02;  0.0000000E+00;  3.4478604E-04;  9.9809302E+02;  1.0000000E-01; -1.5799059E+03;3;  2.6325421E+00;  0.0000000E+00;  7.3787756E-02;0;  4.6524461E-02;  3.9831125E+04;  0.0000000E+00; -2.6300898E-02;  4.0000000E+04;  0.0000000E+00;  4.0011574E+04;  5.0559383E-02;  0.0000000E+00; -4.0349229E-03;  1.6196090E+03;
  1.8159017E-01;  9.9999998E-03; -9.0075329E-02;3565;  1.4515473E-02;  0.0000000E+00;  3.5715761E-04;  9.9798810E+02;  1.0000000E-01; -1.6668170E+03;3;  2.6688879E+00;  0.0000000E+00;  6.4491220E-02;0;  4.5058440E-02;  3.9825055E+04;  0.0000000E+00; -2.2579819E-02;  4.0000000E+04;  0.0000000E+00;  4.0009180E+04;  4.9201224E-02;  0.0000000E+00; -4.1427845E-03;  1.3132626E+03;
  1.8157321E-01;  9.9999998E-03; -8.0074482E-02;3566;  1.4413738E-02;  0.0000000E+00;  3.4663462E-04;  9.9792035E+02;  1.0000000E-01; -1.7229636E+03;3;  2.6989834E+00;  0.0000000E+00;  5.8654353E-02;0;  4.4014066E-02;  3.9822465E+04;  0.0000000E+00; -2.4629720E-02;  4.0000000E+04;  0.0000000E+00;  4.0006109E+04;  4.8322074E-02;  0.0000000E+00; -4.3080091E-03;  9.6764777E+02;
  1.8157282E-01;  9.9999998E-03; -7.0068739E-02;3567;  1.4341465E-02;  0.0000000E+00;  3.1917199E-04;  9.9789880E+02;  1.0000000E-01; -1.7407903E+03;3;  2.7233145E+00;  0.0000000E+00;  5.4189883E-02;0;  4.3410297E-02;  3.9822750E+04;  0.0000000E+00; -2.8395468E-02;  4.0000000E+04;  0.0000000E+00;  4.0003809E+04;  4.7924720E-02;  0.0000000E+00; -4.5144232E-03;  6.6340424E+02;
  1.8158451E-01;  9.9999998E-03; -6.0058989E-02;3568;  1.4297019E-02;  0.0000000E+00;  2.8060938E-04;  9.9790985E+02;  1.0000000E-01; -1.7316548E+03;3;  2.7444918E+00;  0.0000000E+00;  4.7863759E-02;0;  4.3217607E-02;  3.9825137E+04;  0.0000000E+00; -3.0537318E-02;  4.0000000E+04;  0.0000000E+00;  4.0002047E+04;  4.7960326E-02;  0.0000000E+00; -4.7427183E-03;  4.5814261E+02;
  1.8160610E-01;  9.9999998E-03; -5.0048407E-02;3569;  1.4276015E-02;  0.0000000E+00;  2.3549405E-04;  9.9795282E+02;  1.0000000E-01; -1.6960508E+03;3;  2.7619073E+00;  0.0000000E+00;  4.1815754E-02;0;  4.3361079E-02;  3.9828984E+04;  0.0000000E+00; -2.9129822E-02;  4.0000000E+04;  0.0000000E+00;  4.0001598E+04;  4.8334032E-02;  0.0000000E+00; -4.9729520E-03;  3.7408105E+02;
  1.8163426E-01;  9.9999998E-03; -4.0041182E-02;3570;  1.4272538E-02;  0.0000000E+00;  1.8712215E-04;  9.9800977E+02;  1.0000000E-01; -1.6488916E+03;3;  2.7766607E+00;  0.0000000E+00;  3.5160422E-02;0;  4.3732889E-02;  3.9833363E+04;  0.0000000E+00; -2.3938315E-02;  4.0000000E+04;  0.0000000E+00;  4.0001789E+04;  4.8919410E-02;  0.0000000E+00; -5.1865201E-03;  3.9656924E+02;
  1.8166648E-01;  9.9999998E-03; -3.0039886E-02;3571;  1.4280250E-02;  0.0000000E+00;  1.3836470E-04;  9.9807080E+02;  1.0000000E-01; -1.5983252E+03;3;  2.7884302E+00;  0.0000000E+00;  2.6769437E-02;0;  4.4206984E-02;  3.9837543E+04;  0.0000000E+00; -1.6240928E-02;  4.0000000E+04;  0.0000000E+00;  4.0002551E+04;  4.9575001E-02;  0.0000000E+00; -5.3680171E-03;  4.8412350E+02;
  1.8169279E-01;  9.9999998E-03; -2.0039314E-02;3572;  1.4292043E-02;  0.0000000E+00;  9.0743932E-05;  9.9812457E+02;  1.0000000E-01; -1.5537339E+03;3;  2.7970915E+00;  0.0000000E+00;  1.8161675E-02;0;  4.4658471E-02;  3.9840887E+04;  0.0000000E+00; -8.2239499E-03;  4.0000000E+04;  0.0000000E+00;  4.0003461E+04;  5.0164066E-02;  0.0000000E+00; -5.5055944E-03;  5.8567621E+02;
  1.8170936E-01;  9.9999998E-03; -1.0028985E-02;3573;  1.4301482E-02;  0.0000000E+00;  4.4864275E-05;  9.9815686E+02;  1.0000000E-01; -1.5270186E+03;3;  2.8020756E+00;  0.0000000E+00;  9.3208579E-03;0;  4.4979244E-02;  3.9843109E+04;  0.0000000E+00; -2.2228255E-03;  4.0000000E+04;  0.0000000E+00;  4.0003879E+04;  5.0570566E-02;  0.0000000E+00; -5.5913227E-03;  6.5988477E+02;
  1.8171729E-01;  9.9999998E-03;  4.7312040E-11;3574;  1.4305135E-02;  0.0000000E+00; -8.5703826E-09;  9.9817139E+02;  1.0000000E-01; -1.5149695E+03;3;  2.8038785E+00;  0.0000000E+00;  1.1837519E-06;0;  4.5094863E-02;  3.9843793E+04;  0.0000000E+00;  6.0093765E-13;  4.0000000E+04;  0.0000000E+00;  4.0004441E+04;  5.0715450E-02;  0.0000000E+00; -5.6205885E-03;  6.8599158E+02;
  1.8170936E-01;  9.9999998E-03;  1.0028985E-02;3575;  1.4301484E-02;  0.0000000E+00; -4.4881464E-05;  9.9815686E+02;  1.0000000E-01; -1.5270186E+03;3;  2.8020911E+00;  0.0000000E+00; -9.3122963E-03;0;  4.4979203E-02;  3.9843109E+04;  0.0000000E+00; -2.2230488E-03;  4.0000000E+04;  0.0000000E+00;  4.0003879E+04;  5.0570529E-02;  0.0000000E+00; -5.5913250E-03;  6.5988678E+02;
  1.8169279E-01;  9.9999998E-03;  2.0039316E-02;3576;  1.4292046E-02;  0.0000000E+00; -9.0761125E-05;  9.9812457E+02;  1.0000000E-01; -1.5537339E+03;3;  2.7971330E+00;  0.0000000E+00; -1.8158749E-02;0;  4.4658497E-02;  3.9840887E+04;  0.0000000E+00; -8.2242275E-03;  4.0000000E+04;  0.0000000E+00;  4.0003461E+04;  5.0164096E-02;  0.0000000E+00; -5.5055995E-03;  5.8567737E+02;
  1.8166648E-01;  9.9999998E-03;  3.0039888E-02;3577;  1.4280256E-02;  0.0000000E+00; -1.3838158E-04;  9.9807074E+02;  1.0000000E-01; -1.5983745E+03;3;  2.7884412E+00;  0.0000000E+00; -2.6756570E-02;0;  4.4207010E-02;  3.9837547E+04;  0.0000000E+00; -1.6241547E-02;  4.0000000E+04;  0.0000000E+00;  4.0002551E+04;  4.9575038E-02;  0.0000000E+00; -5.3680269E-03;  4.8413312E+02;
  1.8163426E-01;  9.9999998E-03;  4.0041182E-02;3578;  1.4272545E-02;  0.0000000E+00; -1.8713968E-04;  9.9800977E+02;  1.0000000E-01; -1.6488916E+03;3;  2.7766776E+00;  0.0000000E+00; -3.5149302E-02;0;  4.3732904E-02;  3.9833363E+04;  0.0000000E+00; -2.3938190E-02;  4.0000000E+04;  0.0000000E+00;  4.0001789E+04;  4.8919432E-02;  0.0000000E+00; -5.1865275E-03;  3.9657547E+02;
  1.8160610E-01;  9.9999998E-03;  5.0048407E-02;3579;  1.4276023E-02;  0.0000000E+00; -2.3551227E-04;  9.9795282E+02;  1.0000000E-01; -1.6960508E+03;3;  2.7619250E+00;  0.0000000E+00; -4.1807428E-02;0;  4.3361198E-02;  3.9828980E+04;  0.0000000E+00; -2.9130829E-02;  4.0000000E+04;  0.0000000E+00;  4.0001598E+04;  4.8334152E-02;  0.0000000E+00; -4.9729547E-03;  3.7409021E+02;
  1.8158451E-01;  9.9999998E-03;  6.0058989E-02;3580;  1.4297031E-02;  0.0000000E+00; -2.8062772E-04;  9.9790985E+02;  1.0000000E-01; -1.7316548E+03;3;  2.7444861E+00;  0.0000000E+00; -4.7840673E-02;0;  4.3217674E-02;  3.9825137E+04;  0.0000000E+00; -3.0538447E-02;  4.0000000E+04;  0.0000000E+00;  4.0002047E+04;  4.7960397E-02;  0.0000000E+00; -4.7427234E-03;  4.5814688E+02;
  1.9165307E-01;  9.9999998E-03; -1.0009696E-01;3625;  1.4424261E-02;  0.0000000E+00;  3.7362025E-04;  9.9815601E+02;  1.0000000E-01; -1.5277098E+03;3;  2.6377544E+00;  0.0000000E+00;  4.8949167E-02;0;  4.4074193E-02;  3.9839676E+04;  0.0000000E+00; -1.0277499E-02;  4.0000000E+04;  0.0000000E+00;  4.0007379E+04;  4.8589952E-02;  0.0000000E+00; -4.5157587E-03;  1.0962097E+03;
  1.9166619E-01;  9.9999998E-03; -9.0097010E-02;3626;  1.4287055E-02;  0.0000000E+00;  3.8289221E-04;  9.9807208E+02;  1.0000000E-01; -1.5972388E+03;3;  2.6710079E+00;  0.0000000E+00;  4.4422369E-02;0;  4.2999886E-02;  3.9835297E+04;  0.0000000E+00; -1.4804186E-02;  4.0000000E+04;  0.0000000E+00;  4.0004750E+04;  4.7684770E-02;  0.0000000E+00; -4.6848846E-03;  7.8173187E+02;
  1.9168955E-01;  9.9999998E-03; -8.0093279E-02;3627;  1.4183603E-02;  0.0000000E+00;  3.6683955E-04;  9.9802887E+02;  1.0000000E-01; -1.6330403E+03;3;  2.7015271E+00;  0.0000000E+00;  4.0132988E-02;0;  4.2394463E-02;  3.9834586E+04;  0.0000000E+00; -2.3697603E-02;  4.0000000E+04;  0.0000000E+00;  4.0002102E+04;  4.7289174E-02;  0.0000000E+00; -4.8947111E-03;  4.3979785E+02;
  1.9171633E-01;  9.9999998E-03; -7.0085622E-02;3628;  1.4113627E-02;  0.0000000E+00;  3.3407193E-04;  9.9802679E+02;  1.0000000E-01; -1.6347686E+03;3;  2.7256963E+00;  0.0000000E+00;  3.8522121E-02;0;  4.2253438E-02;  3.9836648E+04;  0.0000000E+00; -3.1864446E-02;  4.0000000E+04;  0.0000000E+00;  3.9999797E+04;  4.7381662E-02;  0.0000000E+00; -5.1282239E-03;  1.5266496E+02;
  1.9174080E-01;  9.9999998E-03; -6.0074117E-02;3629;  1.4073562E-02;  0.0000000E+00;  2.9060131E-04;  9.9806451E+02;  1.0000000E-01; -1.6035103E+03;3;  2.7483459E+00;  0.0000000E+00;  3.5340544E-02;0;  4.2520411E-02;  3.9840758E+04;  0.0000000E+00; -3.5902042E-02;  4.0000000E+04;  0.0000000E+00;  3.9998133E+04;  4.7888394E-02;  0.0000000E+00; -5.3679841E-03;  6.6524422E+01;
  1.9176136E-01;  9.9999998E-03; -5.0061680E-02;3630;  1.4059196E-02;  0.0000000E+00;  2.4106583E-04;  9.9812848E+02;  1.0000000E-01; -1.5505240E+03;3;  2.7672563E+00;  0.0000000E+00;  3.1043105E-02;0;  4.3096520E-02;  3.9846141E+04;  0.0000000E+00; -3.4456916E-02;  4.0000000E+04;  0.0000000E+00;  3.9997961E+04;  4.8694123E-02;  0.0000000E+00; -5.5976021E-03;  1.1154967E+02;
  1.9178005E-01;  9.9999998E-03; -4.0051337E-02;3631;  1.4064897E-02;  0.0000000E+00;  1.8972196E-04;  9.9820441E+02;  1.0000000E-01; -1.4876123E+03;3;  2.7823744E+00;  0.0000000E+00;  2.7132854E-02;0;  4.3852750E-02;  3.9851832E+04;  0.0000000E+00; -2.8100148E-02;  4.0000000E+04;  0.0000000E+00;  3.9998648E+04;  4.9655851E-02;  0.0000000E+00; -5.8031012E-03;  6.1856194E+01;
  1.9180501E-01;  9.9999998E-03; -3.0048832E-02;3632;  1.4081490E-02;  0.0000000E+00;  1.3908090E-04;  9.9828003E+02;  1.0000000E-01; -1.4249474E+03;3;  2.7946820E+00;  0.0000000E+00;  2.0483254E-02;0;  4.4647079E-02;  3.9857090E+04;  0.0000000E+00; -1.8864896E-02;  4.0000000E+04;  0.0000000E+00;  3.9999656E+04;  5.0620958E-02;  0.0000000E+00; -5.9738788E-03;  7.6606247E+01;
  1.9183390E-01;  9.9999998E-03; -2.0048672E-02;3633;  1.4100839E-02;  0.0000000E+00;  9.0710229E-05;  9.9834613E+02;  1.0000000E-01; -1.3701835E+03;3;  2.8041682E+00;  0.0000000E+00;  1.3593740E-02;0;  4.5340009E-02;  3.9861355E+04;  0.0000000E+00; -9.4695007E-03;  4.0000000E+04;  0.0000000E+00;  4.0000145E+04;  5.1441945E-02;  0.0000000E+00; -6.1019370E-03;  1.9849170E+02;
  1.9185665E-01;  9.9999998E-03; -1.0036333E-02;3634;  1.4115901E-02;  0.0000000E+00;  4.4515153E-05;  9.9838812E+02;  1.0000000E-01; -1.3354191E+03;3;  2.8092303E+00;  0.0000000E+00;  6.9920882E-03;0;  4.5811594E-02;  3.9863930E+04;  0.0000000E+00; -2.5461128E-03;  4.0000000E+04;  0.0000000E+00;  4.0001445E+04;  5.1992994E-02;  0.0000000E+00; -6.1813984E-03;  2.8831207E+02;
  1.9186655E-01;  9.9999998E-03;  1.1911681E-10;3635;  1.4121139E-02;  0.0000000E+00; -9.5791863E-09;  9.9840564E+02;  1.0000000E-01; -1.3209009E+03;3;  2.8110337E+00;  0.0000000E+00;  4.9736013E-06;0;  4.5979336E-02;  3.9865051E+04;  0.0000000E+00; -4.7403292E-13;  4.0000000E+04;  0.0000000E+00;  4.0001773E+04;  5.2187808E-02;  0.0000000E+00; -6.2084738E-03;  3.1994891E+02;
  1.9185665E-01;  9.9999998E-03;  1.0036333E-02;3636;  1.4115901E-02;  0.0000000E+00; -4.4534165E-05;  9.9838806E+02;  1.0000000E-01; -1.3354684E+03;3;  2.8092175E+00;  0.0000000E+00; -6.9746003E-03;0;  4.5811642E-02;  3.9863930E+04;  0.0000000E+00; -2.5463565E-03;  4.0000000E+04;  0.0000000E+00;  4.0001445E+04;  5.1993039E-02;  0.0000000E+00; -6.1813961E-03;  2.8831622E+02;
  1.9183390E-01;  9.9999998E-03;  2.0048674E-02;3637;  1.4100845E-02;  0.0000000E+00; -9.0729183E-05;  9.9834613E+02;  1.0000000E-01; -1.3701835E+03;3;  2.8041890E+00;  0.0000000E+00; -1.3577324E-02;0;  4.5340098E-02;  3.9861355E+04;  0.0000000E+00; -9.4698714E-03;  4.0000000E+04;  0.0000000E+00;  4.0000145E+04;  5.1442035E-02;  0.0000000E+00; -6.1019375E-03;  1.9849564E+02;
  1.9180501E-01;  9.9999998E-03;  3.0048834E-02;3638;  1.4081496E-02;  0.0000000E+00; -1.3910086E-04;  9.9828003E+02;  1.0000000E-01; -1.4249474E+03;3;  2.7946837E+00;  0.0000000E+00; -2.0464709E-02;0;  4.4647120E-02;  3.9857094E+04;  0.0000000E+00; -1.8865343E-02;  4.0000000E+04;  0.0000000E+00;  3.9999656E+04;  5.0621003E-02;  0.0000000E+00; -5.9738830E-03;  7.6614014E+01;
  1.9178005E-01;  9.9999998E-03;  4.0051341E-02;3639;  1.4064906E-02;  0.0000000E+00; -1.8974322E-04;  9.9820428E+02;  1.0000000E-01; -1.4877111E+03;3;  2.7823882E+00;  0.0000000E+00; -2.7135029E-02;0;  4.3852791E-02;  3.9851828E+04;  0.0000000E+00; -2.8101960E-02;  4.0000000E+04;  0.0000000E+00;  3.9998648E+04;  4.9655903E-02;  0.0000000E+00; -5.8031101E-03;  6.1850204E+01;
  1.9176136E-01;  9.9999998E-03;  5.0061684E-02;3640;  1.4059207E-02;  0.0000000E+00; -2.4108707E-04;  9.9812848E+02;  1.0000000E-01; -1.5505240E+03;3;  2.7672722E+00;  0.0000000E+00; -3.1034159E-02;0;  4.3096546E-02;  3.9846141E+04;  0.0000000E+00; -3.4458384E-02;  4.0000000E+04;  0.0000000E+00;  3.9997961E+04;  4.8694152E-02;  0.0000000E+00; -5.5976072E-03;  1.1153906E+02;
  1.9174080E-01;  9.9999998E-03;  6.0074121E-02;3641;  1.4073576E-02;  0.0000000E+00; -2.9062410E-04;  9.9806458E+02;  1.0000000E-01; -1.6034608E+03;3;  2.7483540E+00;  0.0000000E+00; -3.5338171E-02;0;  4.2520449E-02;  3.9840750E+04;  0.0000000E+00; -3.5903003E-02;  4.0000000E+04;  0.0000000E+00;  3.9998133E+04;  4.7888428E-02;  0.0000000E+00; -5.3679803E-03;  6.6519234E+01;
  2.0173296E-01;  9.9999998E-03; -1.0010058E-01;3686;  1.4234646E-02;  0.0000000E+00;  4.0984037E-04;  9.9830670E+02;  1.0000000E-01; -1.4028739E+03;3;  2.6396599E+00;  0.0000000E+00;  3.3926539E-02;0;  4.4504471E-02;  3.9855789E+04;  0.0000000E+00;  1.6280670E-02;  4.0000000E+04;  0.0000000E+00;  4.0003371E+04;  4.9706850E-02;  0.0000000E+00; -5.2023805E-03;  5.7182349E+02;
  2.0177945E-01;  9.9999998E-03; -9.0094529E-02;3687;  1.4094069E-02;  0.0000000E+00;  4.1177953E-04;  9.9826392E+02;  1.0000000E-01; -1.4383297E+03;3;  2.6727574E+00;  0.0000000E+00;  3.2782350E-02;0;  4.3996423E-02;  3.9854734E+04;  0.0000000E+00;  2.4756533E-03;  4.0000000E+04;  0.0000000E+00;  4.0000723E+04;  4.9420528E-02;  0.0000000E+00; -5.4241060E-03;  2.5375270E+02;
  2.0182778E-01;  9.9999998E-03; -8.0084153E-02;3688;  1.3993071E-02;  0.0000000E+00;  3.8849420E-04;  9.9826141E+02;  1.0000000E-01; -1.4404037E+03;3;  2.7020621E+00;  0.0000000E+00;  3.0703623E-02;0;  4.3974340E-02;  3.9857051E+04;  0.0000000E+00; -1.2880797E-02;  4.0000000E+04;  0.0000000E+00;  3.9998371E+04;  4.9642392E-02;  0.0000000E+00; -5.6680529E-03;  7.8827339E+01;
  2.0187253E-01;  9.9999998E-03; -7.0069008E-02;3689;  1.3924930E-02;  0.0000000E+00;  3.4846878E-04;  9.9829578E+02;  1.0000000E-01; -1.4119106E+03;3;  2.7282503E+00;  0.0000000E+00;  2.9781632E-02;0;  4.4407599E-02;  3.9861707E+04;  0.0000000E+00; -2.4834093E-02;  4.0000000E+04;  0.0000000E+00;  3.9996062E+04;  5.0325271E-02;  0.0000000E+00; -5.9176716E-03;  3.4662344E+02;
  2.0190443E-01;  9.9999998E-03; -6.0049329E-02;3690;  1.3890256E-02;  0.0000000E+00;  2.9954070E-04;  9.9835919E+02;  1.0000000E-01; -1.3593690E+03;3;  2.7513680E+00;  0.0000000E+00;  2.6223004E-02;0;  4.5213919E-02;  3.9868188E+04;  0.0000000E+00; -3.0831378E-02;  4.0000000E+04;  0.0000000E+00;  3.9994777E+04;  5.1371723E-02;  0.0000000E+00; -6.1578047E-03;  4.9903030E+02;
  2.0192002E-01;  9.9999998E-03; -5.0027847E-02;3691;  1.3885267E-02;  0.0000000E+00;  2.4559657E-04;  9.9844904E+02;  1.0000000E-01; -1.2849513E+03;3;  2.7711220E+00;  0.0000000E+00;  2.3624552E-02;0;  4.6272349E-02;  3.9875266E+04;  0.0000000E+00; -3.0469596E-02;  4.0000000E+04;  0.0000000E+00;  3.9994914E+04;  5.2648392E-02;  0.0000000E+00; -6.3760444E-03;  5.1532477E+02;
  2.0192641E-01;  9.9999998E-03; -4.0009830E-02;3692;  1.3901787E-02;  0.0000000E+00;  1.9073389E-04;  9.9854590E+02;  1.0000000E-01; -1.2047067E+03;3;  2.7872238E+00;  0.0000000E+00;  1.8661365E-02;0;  4.7439724E-02;  3.9882250E+04;  0.0000000E+00; -2.5007341E-02;  4.0000000E+04;  0.0000000E+00;  3.9995371E+04;  5.4003287E-02;  0.0000000E+00; -6.5635634E-03;  4.1542542E+02;
  2.0193823E-01;  9.9999998E-03; -3.0003533E-02;3693;  1.3929129E-02;  0.0000000E+00;  1.3759435E-04;  9.9863763E+02;  1.0000000E-01; -1.1287089E+03;3;  2.8003411E+00;  0.0000000E+00;  1.3458489E-02;0;  4.8566729E-02;  3.9888266E+04;  0.0000000E+00; -1.6751401E-02;  4.0000000E+04;  0.0000000E+00;  3.9997191E+04;  5.5281710E-02;  0.0000000E+00; -6.7149824E-03;  2.5147571E+02;
  2.0195445E-01;  9.9999998E-03; -2.0005515E-02;3694;  1.3956487E-02;  0.0000000E+00;  8.8805034E-05;  9.9871228E+02;  1.0000000E-01; -1.0668340E+03;3;  2.8099558E+00;  0.0000000E+00;  8.8237524E-03;0;  4.9504641E-02;  3.9893141E+04;  0.0000000E+00; -8.3647436E-03;  4.0000000E+04;  0.0000000E+00;  3.9998547E+04;  5.6330878E-02;  0.0000000E+00; -6.8262364E-03;  8.5035065E+01;
  2.0196857E-01;  9.9999998E-03; -1.0007213E-02;3695;  1.3977343E-02;  0.0000000E+00;  4.3307329E-05;  9.9876581E+02;  1.0000000E-01; -1.0224896E+03;3;  2.8150556E+00;  0.0000000E+00;  4.5664548E-03;0;  5.0126053E-02;  3.9896164E+04;  0.0000000E+00; -2.2369546E-03;  4.0000000E+04;  0.0000000E+00;  3.9999547E+04;  5.7020441E-02;  0.0000000E+00; -6.8943859E-03;  3.4466633E+01;
  2.0197625E-01;  9.9999998E-03;  2.3604202E-10;3696;  1.3985068E-02;  0.0000000E+00; -1.0899390E-08;  9.9878333E+02;  1.0000000E-01; -1.0079715E+03;3;  2.8174200E+00;  0.0000000E+00;  7.1777058E-06;0;  5.0345067E-02;  3.9897125E+04;  0.0000000E+00; -6.6337506E-13;  4.0000000E+04;  0.0000000E+00;  3.9999812E+04;  5.7262603E-02;  0.0000000E+00; -6.9175367E-03;  7.6411781E+01;
  2.0196857E-01;  9.9999998E-03;  1.0007214E-02;3697;  1.3977344E-02;  0.0000000E+00; -4.3329102E-05;  9.9876581E+02;  1.0000000E-01; -1.0224896E+03;3;  2.8150594E+00;  0.0000000E+00; -4.5484714E-03;0;  5.0126061E-02;  3.9896164E+04;  0.0000000E+00; -2.2373628E-03;  4.0000000E+04;  0.0000000E+00;  3.9999547E+04;  5.7020456E-02;  0.0000000E+00; -6.8943929E-03;  3.4471764E+01;
  2.0195445E-01;  9.9999998E-03;  2.0005515E-02;3698;  1.3956492E-02;  0.0000000E+00; -8.8827066E-05;  9.9871228E+02;  1.0000000E-01; -1.0668340E+03;3;  2.8099797E+00;  0.0000000E+00; -8.8109411E-03;0;  4.9504668E-02;  3.9893141E+04;  0.0000000E+00; -8.3651412E-03;  4.0000000E+04;  0.0000000E+00;  3.9998547E+04;  5.6330908E-02;  0.0000000E+00; -6.8262406E-03;  8.5027390E+01;
  2.0193823E-01;  9.9999998E-03;  3.0003535E-02;3699;  1.3929134E-02;  0.0000000E+00; -1.3761623E-04;  9.9863763E+02;  1.0000000E-01; -1.1287089E+03;3;  2.8003583E+00;  0.0000000E+00; -1.3448338E-02;0;  4.8566770E-02;  3.9888266E+04;  0.0000000E+00; -1.6752133E-02;  4.0000000E+04;  0.0000000E+00;  3.9997191E+04;  5.5281751E-02;  0.0000000E+00; -6.7149815E-03;  2.5146082E+02;
  2.0192641E-01;  9.9999998E-03;  4.0009830E-02;3700;  1.3901795E-02;  0.0000000E+00; -1.9075697E-04;  9.9854596E+02;  1.0000000E-01; -1.2046572E+03;3;  2.7872412E+00;  0.0000000E+00; -1.8654680E-02;0;  4.7439799E-02;  3.9882254E+04;  0.0000000E+00; -2.5007524E-02;  4.0000000E+04;  0.0000000E+00;  3.9995371E+04;  5.4003369E-02;  0.0000000E+00; -6.5635685E-03;  4.1541797E+02;
  2.0192002E-01;  9.9999998E-03;  5.0027847E-02;3701;  1.3885278E-02;  0.0000000E+00; -2.4562012E-04;  9.9844904E+02;  1.0000000E-01; -1.2849513E+03;3;  2.7711148E+00;  0.0000000E+00; -2.3609754E-02;0;  4.6272386E-02;  3.9875270E+04;  0.0000000E+00; -3.0470707E-02;  4.0000000E+04;  0.0000000E+00;  3.9994914E+04;  5.2648421E-02;  0.0000000E+00; -6.3760369E-03;  5.1531451E+02;
  2.0190443E-01;  9.9999998E-03;  6.0049329E-02;3702;  1.3890269E-02;  0.0000000E+00; -2.9956459E-04;  9.9835925E+02;  1.0000000E-01; -1.3593196E+03;3;  2.7513852E+00;  0.0000000E+00; -2.6221067E-02;0;  4.5213997E-02;  3.9868188E+04;  0.0000000E+00; -3.0829551E-02;  4.0000000E+04;  0.0000000E+00;  3.9994781E+04;  5.1371787E-02;  0.0000000E+00; -6.1577903E-03;  4.9902057E+02;
  2.1193098E-01;  9.9999998E-03; -1.0004962E-01;3747;  1.4091655E-02;  0.0000000E+00;  4.6142520E-04;  9.9853455E+02;  1.0000000E-01; -1.2140891E+03;3;  2.6351423E+00;  0.0000000E+00;  3.3871915E-02;0;  4.7342926E-02;  3.9877816E+04;  0.0000000E+00;  5.5701733E-02;  4.0000000E+04;  0.0000000E+00;  3.9999484E+04;  5.3431265E-02;  0.0000000E+00; -6.0883369E-03;  1.2349828E+02;
  2.1200264E-01;  9.9999998E-03; -9.0032876E-02;3748;  1.3947829E-02;  0.0000000E+00;  4.5165286E-04;  9.9854553E+02;  1.0000000E-01; -1.2050029E+03;3;  2.6693757E+00;  0.0000000E+00;  3.1544149E-02;0;  4.7544591E-02;  3.9881086E+04;  0.0000000E+00;  3.2602355E-02;  4.0000000E+04;  0.0000000E+00;  3.9997215E+04;  5.3893644E-02;  0.0000000E+00; -6.3490518E-03;  2.2529782E+02;
  2.1203998E-01;  9.9999998E-03; -8.0019683E-02;3749;  1.3846657E-02;  0.0000000E+00;  4.1830944E-04;  9.9858618E+02;  1.0000000E-01; -1.1713250E+03;3;  2.7027483E+00;  0.0000000E+00;  2.4412315E-02;0;  4.8195045E-02;  3.9886758E+04;  0.0000000E+00;  1.1487314E-02;  4.0000000E+04;  0.0000000E+00;  3.9994750E+04;  5.4804597E-02;  0.0000000E+00; -6.6095516E-03;  5.2626532E+02;
  2.1204601E-01;  9.9999998E-03; -7.0006996E-02;3750;  1.3784135E-02;  0.0000000E+00;  3.7203086E-04;  9.9864929E+02;  1.0000000E-01; -1.1190300E+03;3;  2.7289798E+00;  0.0000000E+00;  2.5049731E-02;0;  4.9238272E-02;  3.9893797E+04;  0.0000000E+00; -4.0683788E-03;  4.0000000E+04;  0.0000000E+00;  3.9993016E+04;  5.6093823E-02;  0.0000000E+00; -6.8555507E-03;  7.5299023E+02;
  2.1202864E-01;  9.9999998E-03; -5.9991766E-02;3751;  1.3760830E-02;  0.0000000E+00;  3.1507996E-04;  9.9873865E+02;  1.0000000E-01; -1.0450074E+03;3;  2.7545431E+00;  0.0000000E+00;  1.7833114E-02;0;  5.0579101E-02;  3.9901633E+04;  0.0000000E+00; -1.2975513E-02;  4.0000000E+04;  0.0000000E+00;  3.9992270E+04;  5.7656273E-02;  0.0000000E+00; -7.0771743E-03;  8.5379822E+02;
  2.1199751E-01;  9.9999998E-03; -4.9975473E-02;3752;  1.3768069E-02;  0.0000000E+00;  2.5381180E-04;  9.9884064E+02;  1.0000000E-01; -9.6051605E+02;3;  2.7738090E+00;  0.0000000E+00;  1.6389856E-02;0;  5.2091848E-02;  3.9909480E+04;  0.0000000E+00; -1.5791813E-02;  4.0000000E+04;  0.0000000E+00;  3.9992570E+04;  5.9359938E-02;  0.0000000E+00; -7.2680889E-03;  8.1367877E+02;
  2.1196698E-01;  9.9999998E-03; -3.9964378E-02;3753;  1.3797107E-02;  0.0000000E+00;  1.9256648E-04;  9.9894788E+02;  1.0000000E-01; -8.7167908E+02;3;  2.7916594E+00;  0.0000000E+00;  1.1607090E-02;0;  5.3633496E-02;  3.9916621E+04;  0.0000000E+00; -1.4048035E-02;  4.0000000E+04;  0.0000000E+00;  3.9994281E+04;  6.1058808E-02;  0.0000000E+00; -7.4253138E-03;  6.5755817E+02;
  2.1194981E-01;  9.9999998E-03; -2.9965384E-02;3754;  1.3836355E-02;  0.0000000E+00;  1.3722321E-04;  9.9904431E+02;  1.0000000E-01; -7.9178009E+02;3;  2.8052127E+00;  0.0000000E+00;  6.4273756E-03;0;  5.5054646E-02;  3.9922953E+04;  0.0000000E+00; -9.7503504E-03;  4.0000000E+04;  0.0000000E+00;  3.9995809E+04;  6.2602773E-02;  0.0000000E+00; -7.5481269E-03;  4.4187918E+02;
  2.1194254E-01;  9.9999998E-03; -1.9974422E-02;3755;  1.3873984E-02;  0.0000000E+00;  8.7155342E-05;  9.9912537E+02;  1.0000000E-01; -7.2462146E+02;3;  2.8135922E+00;  0.0000000E+00;  3.4726919E-03;0;  5.6203529E-02;  3.9927711E+04;  0.0000000E+00; -4.9470351E-03;  4.0000000E+04;  0.0000000E+00;  3.9997523E+04;  6.3839592E-02;  0.0000000E+00; -7.6360637E-03;  2.3171045E+02;
  2.1193917E-01;  9.9999998E-03; -9.9865245E-03;3756;  1.3900751E-02;  0.0000000E+00;  4.2176514E-05;  9.9917560E+02;  1.0000000E-01; -6.8299304E+02;3;  2.8192575E+00;  0.0000000E+00;  9.0264395E-04;0;  5.6950420E-02;  3.9930684E+04;  0.0000000E+00; -1.3312172E-03;  4.0000000E+04;  0.0000000E+00;  3.9998836E+04;  6.4639285E-02;  0.0000000E+00; -7.6888632E-03;  8.2467033E+01;
  2.1193874E-01;  9.9999998E-03;  3.0548464E-10;3757;  1.3910575E-02;  0.0000000E+00; -1.2005041E-08;  9.9919562E+02;  1.0000000E-01; -6.6640088E+02;3;  2.8207774E+00;  0.0000000E+00;  8.2947245E-06;0;  5.7209909E-02;  3.9931602E+04;  0.0000000E+00; -4.6161913E-13;  4.0000000E+04;  0.0000000E+00;  3.9999258E+04;  6.4916439E-02;  0.0000000E+00; -7.7065285E-03;  2.9001146E+01;
  2.1193917E-01;  9.9999998E-03;  9.9865254E-03;3758;  1.3900754E-02;  0.0000000E+00; -4.2200445E-05;  9.9917560E+02;  1.0000000E-01; -6.8299304E+02;3;  2.8192673E+00;  0.0000000E+00; -8.8276871E-04;0;  5.6950461E-02;  3.9930688E+04;  0.0000000E+00; -1.3314957E-03;  4.0000000E+04;  0.0000000E+00;  3.9998836E+04;  6.4639330E-02;  0.0000000E+00; -7.6888683E-03;  8.2458977E+01;
  2.1194254E-01;  9.9999998E-03;  1.9974424E-02;3759;  1.3873989E-02;  0.0000000E+00; -8.7179884E-05;  9.9912537E+02;  1.0000000E-01; -7.2462146E+02;3;  2.8136103E+00;  0.0000000E+00; -3.4607630E-03;0;  5.6203600E-02;  3.9927707E+04;  0.0000000E+00; -4.9477816E-03;  4.0000000E+04;  0.0000000E+00;  3.9997523E+04;  6.3839667E-02;  0.0000000E+00; -7.6360670E-03;  2.3170699E+02;
  2.1194981E-01;  9.9999998E-03;  2.9965386E-02;3760;  1.3836361E-02;  0.0000000E+00; -1.3724709E-04;  9.9904437E+02;  1.0000000E-01; -7.9173071E+02;3;  2.8052149E+00;  0.0000000E+00; -6.4032548E-03;0;  5.5054672E-02;  3.9922953E+04;  0.0000000E+00; -9.7510293E-03;  4.0000000E+04;  0.0000000E+00;  3.9995809E+04;  6.2602811E-02;  0.0000000E+00; -7.5481380E-03;  4.4187207E+02;
  2.1196696E-01;  9.9999998E-03;  3.9964378E-02;3761;  1.3797116E-02;  0.0000000E+00; -1.9259147E-04;  9.9894794E+02;  1.0000000E-01; -8.7162970E+02;3;  2.7916782E+00;  0.0000000E+00; -1.1596374E-02;0;  5.3633485E-02;  3.9916617E+04;  0.0000000E+00; -1.4048304E-02;  4.0000000E+04;  0.0000000E+00;  3.9994281E+04;  6.1058797E-02;  0.0000000E+00; -7.4253124E-03;  6.5755872E+02;
  2.1199751E-01;  9.9999998E-03;  4.9975473E-02;3762;  1.3768079E-02;  0.0000000E+00; -2.5383465E-04;  9.9884070E+02;  1.0000000E-01; -9.6046667E+02;3;  2.7738321E+00;  0.0000000E+00; -1.6379343E-02;0;  5.2091867E-02;  3.9909477E+04;  0.0000000E+00; -1.5793463E-02;  4.0000000E+04;  0.0000000E+00;  3.9992570E+04;  5.9359953E-02;  0.0000000E+00; -7.2680856E-03;  8.1366461E+02;
  2.1202864E-01;  9.9999998E-03;  5.9991769E-02;3763;  1.3760846E-02;  0.0000000E+00; -3.1510505E-04;  9.9873865E+02;  1.0000000E-01; -1.0450074E+03;3;  2.7545524E+00;  0.0000000E+00; -1.7827643E-02;0;  5.0579123E-02;  3.9901633E+04;  0.0000000E+00; -1.2978991E-02;  4.0000000E+04;  0.0000000E+00;  3.9992266E+04;  5.7656284E-02;  0.0000000E+00; -7.0771617E-03;  8.5378815E+02;
  2.2208183E-01;  9.9999998E-03; -9.9996179E-02;3808;  1.3993531E-02;  0.0000000E+00;  5.5353082E-04;  9.9880774E+02;  1.0000000E-01; -9.8777454E+02;3;  2.6333117E+00;  0.0000000E+00;  5.0378650E-02;0;  5.1649466E-02;  3.9903090E+04;  0.0000000E+00;  1.0231541E-01;  4.0000000E+04;  0.0000000E+00;  3.9997023E+04;  5.8755722E-02;  0.0000000E+00; -7.1062557E-03;  3.0193903E+02;
  2.2209483E-01;  9.9999998E-03; -8.9990765E-02;3809;  1.3853929E-02;  0.0000000E+00;  5.2738521E-04;  9.9886151E+02;  1.0000000E-01; -9.4323260E+02;3;  2.6696668E+00;  0.0000000E+00;  3.7817240E-02;0;  5.2589625E-02;  3.9909879E+04;  0.0000000E+00;  7.0880495E-02;  4.0000000E+04;  0.0000000E+00;  3.9994695E+04;  5.9970342E-02;  0.0000000E+00; -7.3807165E-03;  5.7550214E+02;
  2.2207865E-01;  9.9999998E-03; -7.9987057E-02;3810;  1.3760196E-02;  0.0000000E+00;  4.8178222E-04;  9.9893286E+02;  1.0000000E-01; -8.8412317E+02;3;  2.7045565E+00;  0.0000000E+00;  2.7207142E-02;0;  5.3904220E-02;  3.9917758E+04;  0.0000000E+00;  4.4999316E-02;  4.0000000E+04;  0.0000000E+00;  3.9992684E+04;  6.1541006E-02;  0.0000000E+00; -7.6367864E-03;  8.4276013E+02;
  2.2204086E-01;  9.9999998E-03; -6.9981135E-02;3811;  1.3711541E-02;  0.0000000E+00;  4.2087914E-04;  9.9901678E+02;  1.0000000E-01; -8.1459424E+02;3;  2.7344143E+00;  0.0000000E+00;  1.3896507E-02;0;  5.5528365E-02;  3.9925863E+04;  0.0000000E+00;  2.6055954E-02;  4.0000000E+04;  0.0000000E+00;  3.9991129E+04;  6.3391767E-02;  0.0000000E+00; -7.8634005E-03;  1.0235518E+03;
  2.2198835E-01;  9.9999998E-03; -5.9971720E-02;3812;  1.3705043E-02;  0.0000000E+00;  3.5030287E-04;  9.9911176E+02;  1.0000000E-01; -7.3588043E+02;3;  2.7568734E+00;  0.0000000E+00;  1.0859538E-02;0;  5.7360787E-02;  3.9933828E+04;  0.0000000E+00;  1.3480844E-02;  4.0000000E+04;  0.0000000E+00;  3.9990840E+04;  6.5415494E-02;  0.0000000E+00; -8.0547072E-03;  1.0715865E+03;
  2.2192931E-01;  9.9999998E-03; -4.9960177E-02;3813;  1.3730735E-02;  0.0000000E+00;  2.7566275E-04;  9.9921234E+02;  1.0000000E-01; -6.5257416E+02;3;  2.7759988E+00;  0.0000000E+00;  6.4629521E-03;0;  5.9274100E-02;  3.9941289E+04;  0.0000000E+00;  5.9476211E-03;  4.0000000E+04;  0.0000000E+00;  3.9991609E+04;  6.7483343E-02;  0.0000000E+00; -8.2092416E-03;  9.7650775E+02;
  2.2187695E-01;  9.9999998E-03; -3.9954446E-02;3814;  1.3773595E-02;  0.0000000E+00;  2.0679012E-04;  9.9931042E+02;  1.0000000E-01; -5.7129248E+02;3;  2.7954500E+00;  0.0000000E+00; -1.2623230E-03;0;  6.1129633E-02;  3.9947785E+04;  0.0000000E+00;  2.0065606E-03;  4.0000000E+04;  0.0000000E+00;  3.9993516E+04;  6.9458656E-02;  0.0000000E+00; -8.3290236E-03;  7.6801337E+02;
  2.2184080E-01;  9.9999998E-03; -2.9959863E-02;3815;  1.3825615E-02;  0.0000000E+00;  1.4495800E-04;  9.9940381E+02;  1.0000000E-01; -4.9391196E+02;3;  2.8070810E+00;  0.0000000E+00; -4.5737284E-03;0;  6.2784582E-02;  3.9952898E+04;  0.0000000E+00;  3.4925176E-04;  4.0000000E+04;  0.0000000E+00;  3.9995566E+04;  7.1202233E-02;  0.0000000E+00; -8.4176483E-03;  5.0565967E+02;
  2.2181763E-01;  9.9999998E-03; -1.9971576E-02;3816;  1.3874769E-02;  0.0000000E+00;  9.1231159E-05;  9.9947430E+02;  1.0000000E-01; -4.3554324E+02;3;  2.8146727E+00;  0.0000000E+00; -4.5004897E-03;0;  6.4095110E-02;  3.9956750E+04;  0.0000000E+00; -8.9752932E-05;  4.0000000E+04;  0.0000000E+00;  3.9997512E+04;  7.2573490E-02;  0.0000000E+00; -8.4783779E-03;  2.5741556E+02;
  2.2180438E-01;  9.9999998E-03; -9.9854851E-03;3817;  1.3909222E-02;  0.0000000E+00;  4.4040407E-05;  9.9952362E+02;  1.0000000E-01; -3.9465552E+02;3;  2.8176999E+00;  0.0000000E+00; -3.1237970E-03;0;  6.4937815E-02;  3.9959121E+04;  0.0000000E+00; -5.9125461E-05;  4.0000000E+04;  0.0000000E+00;  3.9998996E+04;  7.3451623E-02;  0.0000000E+00; -8.5138110E-03;  8.2629143E+01;
  2.2180073E-01;  9.9999998E-03;  3.2073702E-10;3818;  1.3921255E-02;  0.0000000E+00; -1.2822730E-08;  9.9953809E+02;  1.0000000E-01; -3.8270523E+02;3;  2.8188767E+00;  0.0000000E+00;  1.5448040E-05;0;  6.5229230E-02;  3.9959988E+04;  0.0000000E+00; -3.5369532E-13;  4.0000000E+04;  0.0000000E+00;  3.9999578E+04;  7.3754765E-02;  0.0000000E+00; -8.5255336E-03;  2.0047718E+01;
  2.2180438E-01;  9.9999998E-03;  9.9854860E-03;3819;  1.3909224E-02;  0.0000000E+00; -4.4066717E-05;  9.9952356E+02;  1.0000000E-01; -3.9470490E+02;3;  2.8177042E+00;  0.0000000E+00;  3.1481269E-03;0;  6.4937845E-02;  3.9959121E+04;  0.0000000E+00; -5.9431739E-05;  4.0000000E+04;  0.0000000E+00;  3.9998996E+04;  7.3451661E-02;  0.0000000E+00; -8.5138148E-03;  8.2625816E+01;
  2.2181763E-01;  9.9999998E-03;  1.9971576E-02;3820;  1.3874775E-02;  0.0000000E+00; -9.1257753E-05;  9.9947437E+02;  1.0000000E-01; -4.3549387E+02;3;  2.8146651E+00;  0.0000000E+00;  4.5133727E-03;0;  6.4095095E-02;  3.9956750E+04;  0.0000000E+00; -9.0212627E-05;  4.0000000E+04;  0.0000000E+00;  3.9997512E+04;  7.2573468E-02;  0.0000000E+00; -8.4783733E-03;  2.5741138E+02;
  2.2184080E-01;  9.9999998E-03;  2.9959863E-02;3821;  1.3825622E-02;  0.0000000E+00; -1.4498419E-04;  9.9940381E+02;  1.0000000E-01; -4.9391196E+02;3;  2.8070760E+00;  0.0000000E+00;  4.5935581E-03;0;  6.2784597E-02;  3.9952898E+04;  0.0000000E+00;  3.4910289E-04;  4.0000000E+04;  0.0000000E+00;  3.9995566E+04;  7.1202241E-02;  0.0000000E+00; -8.4176455E-03;  5.0564972E+02;
  2.2187695E-01;  9.9999998E-03;  3.9954446E-02;3822;  1.3773606E-02;  0.0000000E+00; -2.0681649E-04;  9.9931042E+02;  1.0000000E-01; -5.7129248E+02;3;  2.7954595E+00;  0.0000000E+00;  1.2739586E-03;0;  6.1129633E-02;  3.9947785E+04;  0.0000000E+00;  2.0059440E-03;  4.0000000E+04;  0.0000000E+00;  3.9993516E+04;  6.9458656E-02;  0.0000000E+00; -8.3290217E-03;  7.6799701E+02;
  2.2192931E-01;  9.9999998E-03;  4.9960177E-02;3823;  1.3730748E-02;  0.0000000E+00; -2.7568892E-04;  9.9921234E+02;  1.0000000E-01; -6.5257416E+02;3;  2.7760189E+00;  0.0000000E+00; -6.4423443E-03;0;  5.9274014E-02;  3.9941285E+04;  0.0000000E+00;  5.9463661E-03;  4.0000000E+04;  0.0000000E+00;  3.9991617E+04;  6.7483246E-02;  0.0000000E+00; -8.2092332E-03;  9.7649414E+02;
  2.2198835E-01;  9.9999998E-03;  5.9971720E-02;3824;  1.3705060E-02;  0.0000000E+00; -3.5032901E-04;  9.9911169E+02;  1.0000000E-01; -7.3592981E+02;3;  2.7568846E+00;  0.0000000E+00; -1.0863607E-02;0;  5.7360791E-02;  3.9933828E+04;  0.0000000E+00;  1.3480903E-02;  4.0000000E+04;  0.0000000E+00;  3.9990836E+04;  6.5415494E-02;  0.0000000E+00; -8.0547053E-03;  1.0715787E+03;
  2.3208487E-01;  9.9999998E-03; -9.9982277E-02;3869;  1.3971915E-02;  0.0000000E+00;  7.3672587E-04;  9.9907935E+02;  1.0000000E-01; -7.6274384E+02;3;  2.6438398E+00;  0.0000000E+00;  2.1098612E-02;0;  5.6179971E-02;  3.9927141E+04;  0.0000000E+00;  1.4396812E-01;  4.0000000E+04;  0.0000000E+00;  3.9995367E+04;  6.4335421E-02;  0.0000000E+00; -8.1554484E-03;  5.2119684E+02;
  2.3205346E-01;  9.9999998E-03; -8.9985363E-02;3870;  1.3837838E-02;  0.0000000E+00;  6.7435612E-04;  9.9916101E+02;  1.0000000E-01; -6.9509143E+02;3;  2.6810262E+00;  0.0000000E+00;  5.8507137E-03;0;  5.7860799E-02;  3.9936020E+04;  0.0000000E+00;  1.0683686E-01;  4.0000000E+04;  0.0000000E+00;  3.9993195E+04;  6.6291608E-02;  0.0000000E+00; -8.4308097E-03;  7.8684821E+02;
  2.3200446E-01;  9.9999998E-03; -7.9987168E-02;3871;  1.3756081E-02;  0.0000000E+00;  5.9984042E-04;  9.9924237E+02;  1.0000000E-01; -6.2768597E+02;3;  2.7125683E+00;  0.0000000E+00; -6.1499323E-03;0;  5.9809469E-02;  3.9944551E+04;  0.0000000E+00;  7.8228727E-02;  4.0000000E+04;  0.0000000E+00;  3.9991535E+04;  6.8480596E-02;  0.0000000E+00; -8.6711263E-03;  1.0244094E+03;
  2.3194163E-01;  9.9999998E-03; -6.9984287E-02;3872;  1.3727540E-02;  0.0000000E+00;  5.1124516E-04;  9.9932440E+02;  1.0000000E-01; -5.5973724E+02;3;  2.7352033E+00;  0.0000000E+00; -8.2449242E-03;0;  6.1955519E-02;  3.9952324E+04;  0.0000000E+00;  5.7006821E-02;  4.0000000E+04;  0.0000000E+00;  3.9990332E+04;  7.0823684E-02;  0.0000000E+00; -8.8681662E-03;  1.1632661E+03;
  2.3186967E-01;  9.9999998E-03; -5.9976347E-02;3873;  1.3742517E-02;  0.0000000E+00;  4.1551021E-04;  9.9940533E+02;  1.0000000E-01; -4.9267743E+02;3;  2.7606580E+00;  0.0000000E+00; -1.6751010E-02;0;  6.4197212E-02;  3.9958973E+04;  0.0000000E+00;  4.1094780E-02;  4.0000000E+04;  0.0000000E+00;  3.9990176E+04;  7.3217556E-02;  0.0000000E+00; -9.0203471E-03;  1.1629711E+03;
  2.3179659E-01;  9.9999998E-03; -4.9965952E-02;3874;  1.3785192E-02;  0.0000000E+00;  3.2565050E-04;  9.9948389E+02;  1.0000000E-01; -4.2759283E+02;3;  2.7828076E+00;  0.0000000E+00; -2.6208976E-02;0;  6.6412516E-02;  3.9964402E+04;  0.0000000E+00;  2.8688338E-02;  4.0000000E+04;  0.0000000E+00;  3.9991352E+04;  7.5543851E-02;  0.0000000E+00; -9.1313357E-03;  1.0190182E+03;
  2.3173584E-01;  9.9999998E-03; -3.9961219E-02;3875;  1.3848175E-02;  0.0000000E+00;  2.4239341E-04;  9.9956219E+02;  1.0000000E-01; -3.6270578E+02;3;  2.7925887E+00;  0.0000000E+00; -2.2743845E-02;0;  6.8476446E-02;  3.9968656E+04;  0.0000000E+00;  1.8722165E-02;  4.0000000E+04;  0.0000000E+00;  3.9993660E+04;  7.7684484E-02;  0.0000000E+00; -9.2080384E-03;  7.6600964E+02;
  2.3169410E-01;  9.9999998E-03; -2.9965892E-02;3876;  1.3916549E-02;  0.0000000E+00;  1.6926922E-04;  9.9963190E+02;  1.0000000E-01; -3.0497903E+02;3;  2.8011115E+00;  0.0000000E+00; -2.0538870E-02;0;  7.0265867E-02;  3.9971961E+04;  0.0000000E+00;  1.0787587E-02;  4.0000000E+04;  0.0000000E+00;  3.9995895E+04;  7.9524212E-02;  0.0000000E+00; -9.2583438E-03;  4.6587332E+02;
  2.3166811E-01;  9.9999998E-03; -1.9975821E-02;3877;  1.3979385E-02;  0.0000000E+00;  1.0600731E-04;  9.9968903E+02;  1.0000000E-01; -2.5762234E+02;3;  2.8053725E+00;  0.0000000E+00; -1.4901237E-02;0;  7.1658522E-02;  3.9974297E+04;  0.0000000E+00;  4.8952857E-03;  4.0000000E+04;  0.0000000E+00;  3.9998250E+04;  8.0947712E-02;  0.0000000E+00; -9.2891939E-03;  1.8839943E+02;
  2.3165391E-01;  9.9999998E-03; -9.9877520E-03;3878;  1.4024972E-02;  0.0000000E+00;  5.0314218E-05;  9.9972479E+02;  1.0000000E-01; -2.2799355E+02;3;  2.8074710E+00;  0.0000000E+00; -6.8044439E-03;0;  7.2545342E-02;  3.9975637E+04;  0.0000000E+00;  1.2401855E-03;  4.0000000E+04;  0.0000000E+00;  3.9999652E+04;  8.1851132E-02;  0.0000000E+00; -9.3057891E-03;  5.4715176E+00;
  2.3164985E-01;  9.9999998E-03;  2.6555610E-10;3879;  1.4041999E-02;  0.0000000E+00; -1.3574052E-08;  9.9973840E+02;  1.0000000E-01; -2.1673460E+02;3;  2.8099732E+00;  0.0000000E+00;  1.5346110E-05;0;  7.2850406E-02;  3.9976172E+04;  0.0000000E+00; -9.2550219E-13;  4.0000000E+04;  0.0000000E+00;  4.0000262E+04;  8.2161464E-02;  0.0000000E+00; -9.3110586E-03;  7.4263062E+01;
  2.3165391E-01;  9.9999998E-03;  9.9877529E-03;3880;  1.4024975E-02;  0.0000000E+00; -5.0342045E-05;  9.9972479E+02;  1.0000000E-01; -2.2799355E+02;3;  2.8074644E+00;  0.0000000E+00;  6.8294597E-03;0;  7.2545253E-02;  3.9975637E+04;  0.0000000E+00;  1.2400544E-03;  4.0000000E+04;  0.0000000E+00;  3.9999652E+04;  8.1851043E-02;  0.0000000E+00; -9.3057873E-03;  5.4777107E+00;
  2.3166811E-01;  9.9999998E-03;  1.9975821E-02;3881;  1.3979391E-02;  0.0000000E+00; -1.0603504E-04;  9.9968903E+02;  1.0000000E-01; -2.5762234E+02;3;  2.8053808E+00;  0.0000000E+00;  1.4924083E-02;0;  7.1658507E-02;  3.9974297E+04;  0.0000000E+00;  4.8950342E-03;  4.0000000E+04;  0.0000000E+00;  3.9998250E+04;  8.0947705E-02;  0.0000000E+00; -9.2892004E-03;  1.8839426E+02;
  2.3169410E-01;  9.9999998E-03;  2.9965892E-02;3882;  1.3916559E-02;  0.0000000E+00; -1.6929761E-04;  9.9963190E+02;  1.0000000E-01; -3.0497903E+02;3;  2.8011119E+00;  0.0000000E+00;  2.0560680E-02;0;  7.0265852E-02;  3.9971965E+04;  0.0000000E+00;  1.0787425E-02;  4.0000000E+04;  0.0000000E+00;  3.9995895E+04;  7.9524174E-02;  0.0000000E+00; -9.2583233E-03;  4.6586258E+02;
  2.3173584E-01;  9.9999998E-03;  3.9961219E-02;3883;  1.3848186E-02;  0.0000000E+00; -2.4242187E-04;  9.9956219E+02;  1.0000000E-01; -3.6270578E+02;3;  2.7926104E+00;  0.0000000E+00;  2.2762246E-02;0;  6.8476468E-02;  3.9968656E+04;  0.0000000E+00;  1.8721670E-02;  4.0000000E+04;  0.0000000E+00;  3.9993660E+04;  7.7684507E-02;  0.0000000E+00; -9.2080403E-03;  7.6599384E+02;
  2.3179659E-01;  9.9999998E-03;  4.9965955E-02;3884;  1.3785206E-02;  0.0000000E+00; -3.2567867E-04;  9.9948389E+02;  1.0000000E-01; -4.2759283E+02;3;  2.7828102E+00;  0.0000000E+00;  2.6231339E-02;0;  6.6412427E-02;  3.9964402E+04;  0.0000000E+00;  2.8688714E-02;  4.0000000E+04;  0.0000000E+00;  3.9991352E+04;  7.5543754E-02;  0.0000000E+00; -9.1313282E-03;  1.0190091E+03;
  2.3186967E-01;  9.9999998E-03;  5.9976347E-02;3885;  1.3742533E-02;  0.0000000E+00; -4.1553826E-04;  9.9940533E+02;  1.0000000E-01; -4.9267743E+02;3;  2.7606649E+00;  0.0000000E+00;  1.6762018E-02;0;  6.4197220E-02;  3.9958973E+04;  0.0000000E+00;  4.1096695E-02;  4.0000000E+04;  0.0000000E+00;  3.9990176E+04;  7.3217548E-02;  0.0000000E+00; -9.0203285E-03;  1.1629631E+03;
  2.4201073E-01;  9.9999998E-03; -9.9989928E-02;3930;  1.4072429E-02;  0.0000000E+00;  1.0393494E-03;  9.9930536E+02;  1.0000000E-01; -5.7548987E+02;3;  2.6381085E+00;  0.0000000E+00; -1.1464469E-01;0;  5.9724990E-02;  3.9946832E+04;  0.0000000E+00;  1.6865870E-01;  4.0000000E+04;  0.0000000E+00;  3.9994961E+04;  6.8860739E-02;  0.0000000E+00; -9.1357492E-03;  6.2012909E+02;
  2.4195574E-01;  9.9999998E-03; -8.9995235E-02;3931;  1.3934587E-02;  0.0000000E+00;  9.2527026E-04;  9.9938837E+02;  1.0000000E-01; -5.0675110E+02;3;  2.6698744E+00;  0.0000000E+00; -1.0038869E-01;0;  6.2100314E-02;  3.9956012E+04;  0.0000000E+00;  1.2963161E-01;  4.0000000E+04;  0.0000000E+00;  3.9992625E+04;  7.1504682E-02;  0.0000000E+00; -9.4043668E-03;  8.7902924E+02;
  2.4188960E-01;  9.9999998E-03; -7.9997770E-02;3932;  1.3868729E-02;  0.0000000E+00;  7.9804572E-04;  9.9945630E+02;  1.0000000E-01; -4.5045639E+02;3;  2.6979232E+00;  0.0000000E+00; -8.2607739E-02;0;  6.4596705E-02;  3.9963473E+04;  0.0000000E+00;  1.0099432E-01;  4.0000000E+04;  0.0000000E+00;  3.9990914E+04;  7.4217506E-02;  0.0000000E+00; -9.6207997E-03;  1.0906907E+03;
  2.4181527E-01;  9.9999998E-03; -6.9994815E-02;3933;  1.3859544E-02;  0.0000000E+00;  6.6045643E-04;  9.9951343E+02;  1.0000000E-01; -4.0309970E+02;3;  2.7337639E+00;  0.0000000E+00; -8.0160551E-02;0;  6.7146540E-02;  3.9968906E+04;  0.0000000E+00;  7.9389744E-02;  4.0000000E+04;  0.0000000E+00;  3.9990262E+04;  7.6927170E-02;  0.0000000E+00; -9.7806314E-03;  1.1908939E+03;
  2.4173759E-01;  9.9999998E-03; -5.9986524E-02;3934;  1.3892584E-02;  0.0000000E+00;  5.3670077E-04;  9.9956134E+02;  1.0000000E-01; -3.6339713E+02;3;  2.7563767E+00;  0.0000000E+00; -7.9253525E-02;0;  6.9656052E-02;  3.9972645E+04;  0.0000000E+00;  6.1636809E-02;  4.0000000E+04;  0.0000000E+00;  3.9990438E+04;  7.9543352E-02;  0.0000000E+00; -9.8873032E-03;  1.1467576E+03;
  2.4166429E-01;  9.9999998E-03; -4.9975969E-02;3935;  1.3967735E-02;  0.0000000E+00;  4.2045390E-04;  9.9960901E+02;  1.0000000E-01; -3.2394147E+02;3;  2.7653980E+00;  0.0000000E+00; -6.7528792E-02;0;  7.2015151E-02;  3.9974898E+04;  0.0000000E+00;  4.5785226E-02;  4.0000000E+04;  0.0000000E+00;  3.9992152E+04;  8.1964530E-02;  0.0000000E+00; -9.9493824E-03;  9.6077789E+02;
  2.4160567E-01;  9.9999998E-03; -3.9970800E-02;3936;  1.4063494E-02;  0.0000000E+00;  3.1732779E-04;  9.9964996E+02;  1.0000000E-01; -2.9001648E+02;3;  2.7733288E+00;  0.0000000E+00; -5.6933999E-02;0;  7.4119270E-02;  3.9976051E+04;  0.0000000E+00;  3.1287804E-02;  4.0000000E+04;  0.0000000E+00;  3.9994484E+04;  8.4097549E-02;  0.0000000E+00; -9.9782813E-03;  6.7208447E+02;
  2.4156547E-01;  9.9999998E-03; -2.9973714E-02;3937;  1.4180804E-02;  0.0000000E+00;  2.2592675E-04;  9.9969006E+02;  1.0000000E-01; -2.5678287E+02;3;  2.7738538E+00;  0.0000000E+00; -4.2776719E-02;0;  7.5880319E-02;  3.9976676E+04;  0.0000000E+00;  1.8590279E-02;  4.0000000E+04;  0.0000000E+00;  3.9997047E+04;  8.5866392E-02;  0.0000000E+00; -9.9860737E-03;  3.4422021E+02;
  2.4154030E-01;  9.9999998E-03; -1.9981427E-02;3938;  1.4297514E-02;  0.0000000E+00;  1.4586073E-04;  9.9971881E+02;  1.0000000E-01; -2.3298106E+02;3;  2.7723074E+00;  0.0000000E+00; -3.3654001E-02;0;  7.7216879E-02;  3.9976887E+04;  0.0000000E+00;  8.5959639E-03;  4.0000000E+04;  0.0000000E+00;  3.9999551E+04;  8.7200589E-02;  0.0000000E+00; -9.9837109E-03;  4.8125973E+01;
  2.4152666E-01;  9.9999998E-03; -9.9909576E-03;3939;  1.4394510E-02;  0.0000000E+00;  7.2526447E-05;  9.9973840E+02;  1.0000000E-01; -2.1673460E+02;3;  2.7649517E+00;  0.0000000E+00; -1.8461829E-02;0;  7.8054227E-02;  3.9976668E+04;  0.0000000E+00;  2.1998028E-03;  4.0000000E+04;  0.0000000E+00;  4.0001172E+04;  8.8033549E-02;  0.0000000E+00; -9.9793226E-03;  1.5837337E+02;
  2.4152245E-01;  9.9999998E-03;  2.3002955E-10;3940;  1.4433706E-02;  0.0000000E+00; -1.4193000E-08;  9.9974402E+02;  1.0000000E-01; -2.1209277E+02;3;  2.7625318E+00;  0.0000000E+00;  1.4633327E-05;0;  7.8340009E-02;  3.9976719E+04;  0.0000000E+00; -1.5577293E-12;  4.0000000E+04;  0.0000000E+00;  4.0001680E+04;  8.8317394E-02;  0.0000000E+00; -9.9773873E-03;  2.3122054E+02;
  2.4152666E-01;  9.9999998E-03;  9.9909585E-03;3941;  1.4394516E-02;  0.0000000E+00; -7.2555289E-05;  9.9973834E+02;  1.0000000E-01; -2.1678400E+02;3;  2.7649467E+00;  0.0000000E+00;  1.8491212E-02;0;  7.8054287E-02;  3.9976668E+04;  0.0000000E+00;  2.1998626E-03;  4.0000000E+04;  0.0000000E+00;  4.0001172E+04;  8.8033594E-02;  0.0000000E+00; -9.9793086E-03;  1.5837523E+02;
  2.4154030E-01;  9.9999998E-03;  1.9981427E-02;3942;  1.4297524E-02;  0.0000000E+00; -1.4588915E-04;  9.9971881E+02;  1.0000000E-01; -2.3298106E+02;3;  2.7723246E+00;  0.0000000E+00;  3.3678904E-02;0;  7.7216856E-02;  3.9976887E+04;  0.0000000E+00;  8.5962415E-03;  4.0000000E+04;  0.0000000E+00;  3.9999551E+04;  8.7200560E-02;  0.0000000E+00; -9.9837044E-03;  4.8115429E+01;
  2.4156547E-01;  9.9999998E-03;  2.9973714E-02;3943;  1.4180814E-02;  0.0000000E+00; -2.2595591E-04;  9.9969006E+02;  1.0000000E-01; -2.5678287E+02;3;  2.7738500E+00;  0.0000000E+00;  4.2798098E-02;0;  7.5880237E-02;  3.9976676E+04;  0.0000000E+00;  1.8590147E-02;  4.0000000E+04;  0.0000000E+00;  3.9997047E+04;  8.5866302E-02;  0.0000000E+00; -9.9860625E-03;  3.4420828E+02;
  2.4160567E-01;  9.9999998E-03;  3.9970800E-02;3944;  1.4063507E-02;  0.0000000E+00; -3.1735661E-04;  9.9964996E+02;  1.0000000E-01; -2.9001648E+02;3;  2.7733450E+00;  0.0000000E+00;  5.6959741E-02;0;  7.4119240E-02;  3.9976059E+04;  0.0000000E+00;  3.1287253E-02;  4.0000000E+04;  0.0000000E+00;  3.9994488E+04;  8.4097512E-02;  0.0000000E+00; -9.9782720E-03;  6.7208105E+02;
  2.4166429E-01;  9.9999998E-03;  4.9975969E-02;3945;  1.3967749E-02;  0.0000000E+00; -4.2048341E-04;  9.9960907E+02;  1.0000000E-01; -3.2389206E+02;3;  2.7654045E+00;  0.0000000E+00;  6.7546733E-02;0;  7.2015107E-02;  3.9974902E+04;  0.0000000E+00;  4.5786832E-02;  4.0000000E+04;  0.0000000E+00;  3.9992152E+04;  8.1964478E-02;  0.0000000E+00; -9.9493712E-03;  9.6076642E+02;
  2.4173759E-01;  9.9999998E-03;  5.9986524E-02;3946;  1.3892598E-02;  0.0000000E+00; -5.3672999E-04;  9.9956128E+02;  1.0000000E-01; -3.6349588E+02;3;  2.7563868E+00;  0.0000000E+00;  7.9274550E-02;0;  6.9655977E-02;  3.9972645E+04;  0.0000000E+00;  6.1636921E-02;  4.0000000E+04;  0.0000000E+00;  3.9990438E+04;  7.9543248E-02;  0.0000000E+00; -9.8872678E-03;  1.1467516E+03;
  2.5191036E-01;  9.9999998E-03; -1.0000192E-01;3991;  1.4464057E-02;  0.0000000E+00;  1.5297771E-03;  9.9945538E+02;  1.0000000E-01; -4.5119711E+02;3;  2.5327549E+00;  0.0000000E+00; -3.5128778E-01;0;  6.1169773E-02;  3.9960023E+04;  0.0000000E+00;  1.6788927E-01;  4.0000000E+04;  0.0000000E+00;  3.9995000E+04;  7.1109839E-02;  0.0000000E+00; -9.9400654E-03;  6.2474750E+02;
  2.5184280E-01;  9.9999998E-03; -9.0006985E-02;3992;  1.4278930E-02;  0.0000000E+00;  1.2968751E-03;  9.9951691E+02;  1.0000000E-01; -4.0023560E+02;3;  2.5810549E+00;  0.0000000E+00; -2.8759837E-01;0;  6.4118937E-02;  3.9967340E+04;  0.0000000E+00;  1.3098803E-01;  4.0000000E+04;  0.0000000E+00;  3.9992832E+04;  7.4313663E-02;  0.0000000E+00; -1.0194723E-02;  8.7794373E+02;
  2.5177053E-01;  9.9999998E-03; -8.0008350E-02;3993;  1.4199095E-02;  0.0000000E+00;  1.0956101E-03;  9.9955182E+02;  1.0000000E-01; -3.7129813E+02;3;  2.6303208E+00;  0.0000000E+00; -2.7732033E-01;0;  6.7005351E-02;  3.9971910E+04;  0.0000000E+00;  1.0525569E-01;  4.0000000E+04;  0.0000000E+00;  3.9991105E+04;  7.7386282E-02;  0.0000000E+00; -1.0380927E-02;  1.0637148E+03;
  2.5169566E-01;  9.9999998E-03; -7.0004448E-02;3994;  1.4211310E-02;  0.0000000E+00;  9.1641740E-04;  9.9956567E+02;  1.0000000E-01; -3.5984167E+02;3;  2.6568992E+00;  0.0000000E+00; -2.3570721E-01;0;  6.9769971E-02;  3.9973559E+04;  0.0000000E+00;  8.5742071E-02;  4.0000000E+04;  0.0000000E+00;  3.9990668E+04;  8.0267996E-02;  0.0000000E+00; -1.0498026E-02;  1.1259307E+03;
  2.5162178E-01;  9.9999998E-03; -5.9995871E-02;3995;  1.4301545E-02;  0.0000000E+00;  7.4643822E-04;  9.9956934E+02;  1.0000000E-01; -3.5678003E+02;3;  2.6718767E+00;  0.0000000E+00; -1.9751254E-01;0;  7.2339378E-02;  3.9973328E+04;  0.0000000E+00;  6.8663143E-02;  4.0000000E+04;  0.0000000E+00;  3.9991566E+04;  8.2893454E-02;  0.0000000E+00; -1.0554073E-02;  1.0410602E+03;
  2.5155455E-01;  9.9999998E-03; -4.9985953E-02;3996;  1.4486577E-02;  0.0000000E+00;  5.9601699E-04;  9.9956714E+02;  1.0000000E-01; -3.5860715E+02;3;  2.6661913E+00;  0.0000000E+00; -1.6278556E-01;0;  7.4626513E-02;  3.9971723E+04;  0.0000000E+00;  5.2159328E-02;  4.0000000E+04;  0.0000000E+00;  3.9993273E+04;  8.5189126E-02;  0.0000000E+00; -1.0562613E-02;  8.1951935E+02;
  2.5150239E-01;  9.9999998E-03; -3.9980836E-02;3997;  1.4868042E-02;  0.0000000E+00;  4.7399299E-04;  9.9956714E+02;  1.0000000E-01; -3.5860715E+02;3;  2.6037908E+00;  0.0000000E+00; -1.4526255E-01;0;  7.6557331E-02;  3.9968992E+04;  0.0000000E+00;  3.6139309E-02;  4.0000000E+04;  0.0000000E+00;  3.9995734E+04;  8.7096579E-02;  0.0000000E+00; -1.0539250E-02;  5.0456082E+02;
  2.5147143E-01;  9.9999998E-03; -2.9982025E-02;3998;  1.7215468E-02;  0.0000000E+00;  4.2451237E-04;  9.9956677E+02;  1.0000000E-01; -3.5890344E+02;3;  2.8543746E+00;  0.0000000E+00; -1.2236624E-01;0;  7.8124136E-02;  3.9966449E+04;  0.0000000E+00;  2.1630377E-02;  4.0000000E+04;  0.0000000E+00;  3.9998340E+04;  8.8624336E-02;  0.0000000E+00; -1.0500204E-02;  1.6053871E+02;
  2.5145870E-01;  9.9999998E-03; -1.9987181E-02;3999;  2.0710425E-02;  0.0000000E+00;  3.4649301E-04;  9.9956781E+02;  1.0000000E-01; -3.5806393E+02;3;  3.2255871E+00;  0.0000000E+00; -8.6709887E-02;0;  7.9301722E-02;  3.9963953E+04;  0.0000000E+00;  1.0034876E-02;  4.0000000E+04;  0.0000000E+00;  4.0000770E+04;  8.9762531E-02;  0.0000000E+00; -1.0460812E-02;  1.4916791E+02;
  2.5145659E-01;  9.9999998E-03; -9.9938195E-03;4000;  2.3466716E-02;  0.0000000E+00;  2.0632923E-04;  9.9956805E+02;  1.0000000E-01; -3.5786642E+02;3;  2.6702170E+00;  0.0000000E+00;  7.1495381E-04;0;  8.0035686E-02;  3.9962512E+04;  0.0000000E+00;  2.5712706E-03;  4.0000000E+04;  0.0000000E+00;  4.0002508E+04;  9.0468332E-02;  0.0000000E+00; -1.0432645E-02;  3.5758725E+02;
  2.5145784E-01;  9.9999998E-03;  2.6606875E-10;4001;  2.4385240E-02;  0.0000000E+00; -3.0597547E-09;  9.9956909E+02;  1.0000000E-01; -3.5697757E+02;3;  9.1201097E-01;  0.0000000E+00;  2.4886398E-05;0;  8.0284014E-02;  3.9961945E+04;  0.0000000E+00; -9.2552788E-13;  4.0000000E+04;  0.0000000E+00;  4.0003078E+04;  9.0706579E-02;  0.0000000E+00; -1.0422561E-02;  4.3160690E+02;
  2.5145659E-01;  9.9999998E-03;  9.9938205E-03;4002;  2.3466773E-02;  0.0000000E+00; -2.0633925E-04;  9.9956805E+02;  1.0000000E-01; -3.5786642E+02;3;  2.6701784E+00;  0.0000000E+00; -6.7584176E-04;0;  8.0035701E-02;  3.9962512E+04;  0.0000000E+00;  2.5712932E-03;  4.0000000E+04;  0.0000000E+00;  4.0002508E+04;  9.0468347E-02;  0.0000000E+00; -1.0432646E-02;  3.5758902E+02;
  2.5145870E-01;  9.9999998E-03;  1.9987181E-02;4003;  2.0710504E-02;  0.0000000E+00; -3.4650887E-04;  9.9956781E+02;  1.0000000E-01; -3.5806393E+02;3;  3.2255876E+00;  0.0000000E+00;  8.6747043E-02;0;  7.9301797E-02;  3.9963965E+04;  0.0000000E+00;  1.0034832E-02;  4.0000000E+04;  0.0000000E+00;  4.0000773E+04;  8.9762591E-02;  0.0000000E+00; -1.0460795E-02;  1.4917404E+02;
  2.5147143E-01;  9.9999998E-03;  2.9982025E-02;4004;  1.7215552E-02;  0.0000000E+00; -4.2453568E-04;  9.9956671E+02;  1.0000000E-01; -3.5895282E+02;3;  2.8543906E+00;  0.0000000E+00;  1.2239991E-01;0;  7.8124113E-02;  3.9966449E+04;  0.0000000E+00;  2.1630863E-02;  4.0000000E+04;  0.0000000E+00;  3.9998340E+04;  8.8624306E-02;  0.0000000E+00; -1.0500194E-02;  1.6052780E+02;
  2.5150239E-01;  9.9999998E-03;  3.9980836E-02;4005;  1.4868058E-02;  0.0000000E+00; -4.7401732E-04;  9.9956720E+02;  1.0000000E-01; -3.5855777E+02;3;  2.6037915E+00;  0.0000000E+00;  1.4529115E-01;0;  7.6557286E-02;  3.9969000E+04;  0.0000000E+00;  3.6140263E-02;  4.0000000E+04;  0.0000000E+00;  3.9995734E+04;  8.7096527E-02;  0.0000000E+00; -1.0539239E-02;  5.0454773E+02;
  2.5155455E-01;  9.9999998E-03;  4.9985953E-02;4006;  1.4486589E-02;  0.0000000E+00; -5.9604266E-04;  9.9956702E+02;  1.0000000E-01; -3.5870590E+02;3;  2.6661992E+00;  0.0000000E+00;  1.6281508E-01;0;  7.4626505E-02;  3.9971719E+04;  0.0000000E+00;  5.2158147E-02;  4.0000000E+04;  0.0000000E+00;  3.9993273E+04;  8.5189119E-02;  0.0000000E+00; -1.0562615E-02;  8.1951025E+02;
  2.5162178E-01;  9.9999998E-03;  5.9995867E-02;4007;  1.4301558E-02;  0.0000000E+00; -7.4646401E-04;  9.9956940E+02;  1.0000000E-01; -3.5673065E+02;3;  2.6718853E+00;  0.0000000E+00;  1.9753388E-01;0;  7.2339304E-02;  3.9973328E+04;  0.0000000E+00;  6.8661556E-02;  4.0000000E+04;  0.0000000E+00;  3.9991566E+04;  8.2893357E-02;  0.0000000E+00; -1.0554052E-02;  1.0410514E+03;
  2.6180986E-01;  9.9999998E-03; -1.0001110E-01;4052;  1.6293852E-02;  0.0000000E+00;  2.2777191E-03;  9.9951019E+02;  1.0000000E-01; -4.0581567E+02;3;  2.2014222E+00;  0.0000000E+00; -8.7737346E-01;0;  5.9640750E-02;  3.9965375E+04;  0.0000000E+00;  1.3891391E-01;  4.0000000E+04;  0.0000000E+00;  3.9995477E+04;  7.0106834E-02;  0.0000000E+00; -1.0466085E-02;  5.6603900E+02;
  2.6173824E-01;  9.9999998E-03; -9.0014257E-02;4053;  1.5871190E-02;  0.0000000E+00;  1.9682932E-03;  9.9953729E+02;  1.0000000E-01; -3.8334717E+02;3;  2.2381017E+00;  0.0000000E+00; -7.3938888E-01;0;  6.2971063E-02;  3.9969461E+04;  0.0000000E+00;  1.0789857E-01;  4.0000000E+04;  0.0000000E+00;  3.9993527E+04;  7.3668867E-02;  0.0000000E+00; -1.0697802E-02;  8.1044727E+02;
  2.6166847E-01;  9.9999998E-03; -8.0013707E-02;4054;  1.5959034E-02;  0.0000000E+00;  1.6898331E-03;  9.9952435E+02;  1.0000000E-01; -3.9406293E+02;3;  2.3071325E+00;  0.0000000E+00; -6.2778199E-01;0;  6.6035673E-02;  3.9969840E+04;  0.0000000E+00;  8.7980330E-02;  4.0000000E+04;  0.0000000E+00;  3.9992129E+04;  7.6882355E-02;  0.0000000E+00; -1.0846683E-02;  9.6592273E+02;
  2.6160324E-01;  9.9999998E-03; -7.0008591E-02;4055;  1.7206494E-02;  0.0000000E+00;  1.4631905E-03;  9.9948657E+02;  1.0000000E-01; -4.2537070E+02;3;  2.4634805E+00;  0.0000000E+00; -5.6312299E-01;0;  6.8795927E-02;  3.9967070E+04;  0.0000000E+00;  7.3345669E-02;  4.0000000E+04;  0.0000000E+00;  3.9991801E+04;  7.9711199E-02;  0.0000000E+00; -1.0915275E-02;  9.8800647E+02;
  2.6155001E-01;  9.9999998E-03; -5.9999906E-02;4056;  2.1026069E-02;  0.0000000E+00;  1.2830476E-03;  9.9943597E+02;  1.0000000E-01; -4.6729544E+02;3;  2.7643144E+00;  0.0000000E+00; -4.9405092E-01;0;  7.1247876E-02;  3.9962316E+04;  0.0000000E+00;  6.0037106E-02;  4.0000000E+04;  0.0000000E+00;  3.9992547E+04;  8.2163535E-02;  0.0000000E+00; -1.0915656E-02;  8.6424878E+02;
  2.6151502E-01;  9.9999998E-03; -4.9990259E-02;4057;  2.4653818E-02;  0.0000000E+00;  1.2088306E-03;  9.9938214E+02;  1.0000000E-01; -5.1188675E+02;3; -5.3554497E+00;  0.0000000E+00; -7.5322860E-01;0;  7.3333442E-02;  3.9956195E+04;  0.0000000E+00;  4.6350427E-02;  4.0000000E+04;  0.0000000E+00;  3.9994648E+04;  8.4198959E-02;  0.0000000E+00; -1.0865521E-02;  6.1331415E+02;
  2.6149756E-01;  9.9999998E-03; -3.9984014E-02;4058;  2.5039356E-02;  0.0000000E+00;  9.5784629E-04;  9.9933435E+02;  1.0000000E-01; -5.5149060E+02;3; -6.6336875E+00;  0.0000000E+00; -7.2437215E-01;0;  7.4935287E-02;  3.9949590E+04;  0.0000000E+00;  3.2435317E-02;  4.0000000E+04;  0.0000000E+00;  3.9997215E+04;  8.5720554E-02;  0.0000000E+00; -1.0785270E-02;  2.8186230E+02;
  2.6148960E-01;  9.9999998E-03; -2.9983163E-02;4059;  2.5270522E-02;  0.0000000E+00;  7.1304064E-04;  9.9929248E+02;  1.0000000E-01; -5.8615625E+02;3; -6.7059121E+00;  0.0000000E+00; -5.5766028E-01;0;  7.6117374E-02;  3.9943695E+04;  0.0000000E+00;  1.9512575E-02;  4.0000000E+04;  0.0000000E+00;  3.9999984E+04;  8.6811274E-02;  0.0000000E+00; -1.0693899E-02;  7.8110458E+01;
  2.6148492E-01;  9.9999998E-03; -1.9986980E-02;4060;  2.5442092E-02;  0.0000000E+00;  4.7337866E-04;  9.9926453E+02;  1.0000000E-01; -6.0931610E+02;3; -6.7755265E+00;  0.0000000E+00; -3.2487676E-01;0;  7.6911777E-02;  3.9938906E+04;  0.0000000E+00;  9.0716807E-03;  4.0000000E+04;  0.0000000E+00;  4.0002445E+04;  8.7523490E-02;  0.0000000E+00; -1.0611716E-02;  3.7849503E+02;
  2.6148188E-01;  9.9999998E-03; -9.9930754E-03;4061;  2.5550224E-02;  0.0000000E+00;  2.3352778E-04;  9.9924640E+02;  1.0000000E-01; -6.2432800E+02;3; -6.8031111E+00;  0.0000000E+00; -1.6335580E-01;0;  7.7363193E-02;  3.9935793E+04;  0.0000000E+00;  2.3260345E-03;  4.0000000E+04;  0.0000000E+00;  4.0003988E+04;  8.7918550E-02;  0.0000000E+00; -1.0555356E-02;  5.8454181E+02;
  2.6148111E-01;  9.9999998E-03;  3.9418488E-10;4062;  2.5586840E-02;  0.0000000E+00;  2.6395337E-09;  9.9923993E+02;  1.0000000E-01; -6.2971057E+02;3; -6.8120885E+00;  0.0000000E+00;  1.2841291E-05;0;  7.7508539E-02;  3.9934703E+04;  0.0000000E+00; -1.6726050E-12;  4.0000000E+04;  0.0000000E+00;  4.0004668E+04;  8.8043928E-02;  0.0000000E+00; -1.0535387E-02;  6.5717108E+02;
  2.6148188E-01;  9.9999998E-03;  9.9930763E-03;4063;  2.5550224E-02;  0.0000000E+00; -2.3352259E-04;  9.9924640E+02;  1.0000000E-01; -6.2432800E+02;3; -6.8030944E+00;  0.0000000E+00;  1.6337968E-01;0;  7.7363163E-02;  3.9935793E+04;  0.0000000E+00;  2.3261104E-03;  4.0000000E+04;  0.0000000E+00;  4.0003984E+04;  8.7918527E-02;  0.0000000E+00; -1.0555362E-02;  5.8455194E+02;
  2.6148492E-01;  9.9999998E-03;  1.9986980E-02;4064;  2.5442094E-02;  0.0000000E+00; -4.7337345E-04;  9.9926453E+02;  1.0000000E-01; -6.0931610E+02;3; -6.7755208E+00;  0.0000000E+00;  3.2490113E-01;0;  7.6911770E-02;  3.9938906E+04;  0.0000000E+00;  9.0721212E-03;  4.0000000E+04;  0.0000000E+00;  4.0002445E+04;  8.7523483E-02;  0.0000000E+00; -1.0611711E-02;  3.7850400E+02;
  2.6148960E-01;  9.9999998E-03;  2.9983163E-02;4065;  2.5270520E-02;  0.0000000E+00; -7.1303663E-04;  9.9929242E+02;  1.0000000E-01; -5.8620563E+02;3; -6.7058997E+00;  0.0000000E+00;  5.5767989E-01;0;  7.6117240E-02;  3.9943695E+04;  0.0000000E+00;  1.9513007E-02;  4.0000000E+04;  0.0000000E+00;  3.9999984E+04;  8.6811148E-02;  0.0000000E+00; -1.0693910E-02;  7.8123741E+01;
  2.6149756E-01;  9.9999998E-03;  3.9984014E-02;4066;  2.5039358E-02;  0.0000000E+00; -9.5784245E-04;  9.9933435E+02;  1.0000000E-01; -5.5149060E+02;3; -6.6336956E+00;  0.0000000E+00;  7.2439206E-01;0;  7.4935138E-02;  3.9949590E+04;  0.0000000E+00;  3.2435447E-02;  4.0000000E+04;  0.0000000E+00;  3.9997215E+04;  8.5720412E-02;  0.0000000E+00; -1.0785272E-02;  2.8184183E+02;
  2.6151502E-01;  9.9999998E-03;  4.9990259E-02;4067;  2.4653828E-02;  0.0000000E+00; -1.2088274E-03;  9.9938214E+02;  1.0000000E-01; -5.1188675E+02;3; -5.3555226E+00;  0.0000000E+00;  7.5325143E-01;0;  7.3333368E-02;  3.9956195E+04;  0.0000000E+00;  4.6350934E-02;  4.0000000E+04;  0.0000000E+00;  3.9994648E+04;  8.4198885E-02;  0.0000000E+00; -1.0865513E-02;  6.1331201E+02;
  2.6155001E-01;  9.9999998E-03;  5.9999906E-02;4068;  2.1026097E-02;  0.0000000E+00; -1.2830525E-03;  9.9943597E+02;  1.0000000E-01; -4.6729544E+02;3;  2.7643149E+00;  0.0000000E+00;  4.9406019E-01;0;  7.1247958E-02;  3.9962316E+04;  0.0000000E+00;  6.0038716E-02;  4.0000000E+04;  0.0000000E+00;  3.9992547E+04;  8.2163595E-02;  0.0000000E+00; -1.0915640E-02;  8.6424506E+02;
  2.7174518E-01;  9.9999998E-03; -1.0001574E-01;4113;  2.3041826E-02;  0.0000000E+00;  2.1939902E-03;  9.9948956E+02;  1.0000000E-01; -4.2290161E+02;3; -4.6539335E+00;  0.0000000E+00; -1.5312241E+00;0;  5.4782547E-02;  3.9963707E+04;  0.0000000E+00;  8.5980281E-02;  4.0000000E+04;  0.0000000E+00;  3.9995934E+04;  6.5416798E-02;  0.0000000E+00; -1.0634251E-02;  4.7590274E+02;
  2.7168638E-01;  9.9999998E-03; -9.0016298E-02;4114;  2.3486331E-02;  0.0000000E+00;  1.9944878E-03;  9.9946149E+02;  1.0000000E-01; -4.4616022E+02;3; -5.9278593E+00;  0.0000000E+00; -1.3900062E+00;0;  5.8261238E-02;  3.9963609E+04;  0.0000000E+00;  6.4147592E-02;  4.0000000E+04;  0.0000000E+00;  3.9994004E+04;  6.9091856E-02;  0.0000000E+00; -1.0830619E-02;  7.0242810E+02;
  2.7164045E-01;  9.9999998E-03; -8.0012672E-02;4115;  2.3873189E-02;  0.0000000E+00;  1.7638698E-03;  9.9939465E+02;  1.0000000E-01; -5.0151669E+02;3; -6.3879757E+00;  0.0000000E+00; -1.2799187E+00;0;  6.1300375E-02;  3.9959230E+04;  0.0000000E+00;  5.2703459E-02;  4.0000000E+04;  0.0000000E+00;  3.9993039E+04;  7.2232284E-02;  0.0000000E+00; -1.0931907E-02;  8.1913904E+02;
  2.7160183E-01;  9.9999998E-03; -7.0005380E-02;4116;  2.4228293E-02;  0.0000000E+00;  1.5174604E-03;  9.9930292E+02;  1.0000000E-01; -5.7751453E+02;3; -6.5072250E+00;  0.0000000E+00; -1.1215549E+00;0;  6.3854776E-02;  3.9951809E+04;  0.0000000E+00;  4.5602836E-02;  4.0000000E+04;  0.0000000E+00;  3.9993312E+04;  7.4798241E-02;  0.0000000E+00; -1.0943464E-02;  7.9714203E+02;
  2.7156594E-01;  9.9999998E-03; -5.9996817E-02;4117;  2.4559641E-02;  0.0000000E+00;  1.2691633E-03;  9.9920227E+02;  1.0000000E-01; -6.6091956E+02;3; -6.5978389E+00;  0.0000000E+00; -9.9147463E-01;0;  6.5916441E-02;  3.9942496E+04;  0.0000000E+00;  3.8968720E-02;  4.0000000E+04;  0.0000000E+00;  3.9994625E+04;  7.6796897E-02;  0.0000000E+00; -1.0880457E-02;  6.3600079E+02;
  2.7153227E-01;  9.9999998E-03; -4.9989693E-02;4118;  2.4858333E-02;  0.0000000E+00;  1.0244197E-03;  9.9909979E+02;  1.0000000E-01; -7.4580609E+02;3; -6.6990838E+00;  0.0000000E+00; -8.1576210E-01;0;  6.7515537E-02;  3.9932176E+04;  0.0000000E+00;  3.1187614E-02;  4.0000000E+04;  0.0000000E+00;  3.9996754E+04;  7.8279868E-02;  0.0000000E+00; -1.0764328E-02;  3.6194968E+02;
  2.7150542E-01;  9.9999998E-03; -3.9986651E-02;4119;  2.5115117E-02;  0.0000000E+00;  7.8508200E-04;  9.9900562E+02;  1.0000000E-01; -8.2382855E+02;3; -6.7720485E+00;  0.0000000E+00; -6.5747398E-01;0;  6.8698980E-02;  3.9922301E+04;  0.0000000E+00;  2.2396965E-02;  4.0000000E+04;  0.0000000E+00;  3.9999160E+04;  7.9317845E-02;  0.0000000E+00; -1.0618867E-02;  3.7631687E+01;
  2.7148870E-01;  9.9999998E-03; -2.9987888E-02;4120;  2.5328230E-02;  0.0000000E+00;  5.6347460E-04;  9.9893158E+02;  1.0000000E-01; -8.8516016E+02;3; -6.8444657E+00;  0.0000000E+00; -4.3532053E-01;0;  6.9514051E-02;  3.9913441E+04;  0.0000000E+00;  1.3704599E-02;  4.0000000E+04;  0.0000000E+00;  4.0002051E+04;  7.9982884E-02;  0.0000000E+00; -1.0468834E-02;  3.2861118E+02;
  2.7148116E-01;  9.9999998E-03; -1.9991716E-02;4121;  2.5489923E-02;  0.0000000E+00;  3.5945157E-04;  9.9887256E+02;  1.0000000E-01; -9.3404767E+02;3; -6.8908658E+00;  0.0000000E+00; -2.8798375E-01;0;  7.0019908E-02;  3.9906496E+04;  0.0000000E+00;  6.4373272E-03;  4.0000000E+04;  0.0000000E+00;  4.0004262E+04;  8.0359221E-02;  0.0000000E+00; -1.0339311E-02;  6.2347931E+02;
  2.7147970E-01;  9.9999998E-03; -9.9960286E-03;4122;  2.5589718E-02;  0.0000000E+00;  1.7320442E-04;  9.9883923E+02;  1.0000000E-01; -9.6165179E+02;3; -6.9150600E+00;  0.0000000E+00; -1.3340308E-01;0;  7.0285246E-02;  3.9902223E+04;  0.0000000E+00;  1.6594069E-03;  4.0000000E+04;  0.0000000E+00;  4.0005820E+04;  8.0537066E-02;  0.0000000E+00; -1.0251822E-02;  8.2023376E+02;
  2.7147958E-01;  9.9999998E-03;  4.8945076E-10;4123;  2.5623836E-02;  0.0000000E+00;  3.1210801E-09;  9.9882733E+02;  1.0000000E-01; -9.7152808E+02;3; -6.9232488E+00;  0.0000000E+00;  1.2702425E-05;0;  7.0366725E-02;  3.9900754E+04;  0.0000000E+00; -1.3208633E-12;  4.0000000E+04;  0.0000000E+00;  4.0006410E+04;  8.0587678E-02;  0.0000000E+00; -1.0220953E-02;  8.8913043E+02;
  2.7147970E-01;  9.9999998E-03;  9.9960295E-03;4124;  2.5589716E-02;  0.0000000E+00; -1.7319823E-04;  9.9883923E+02;  1.0000000E-01; -9.6165179E+02;3; -6.9150543E+00;  0.0000000E+00;  1.3342930E-01;0;  7.0285246E-02;  3.9902219E+04;  0.0000000E+00;  1.6595826E-03;  4.0000000E+04;  0.0000000E+00;  4.0005820E+04;  8.0537073E-02;  0.0000000E+00; -1.0251825E-02;  8.2023938E+02;
  2.7148116E-01;  9.9999998E-03;  1.9991716E-02;4125;  2.5489924E-02;  0.0000000E+00; -3.5944520E-04;  9.9887256E+02;  1.0000000E-01; -9.3404767E+02;3; -6.8908877E+00;  0.0000000E+00;  2.8800863E-01;0;  7.0020102E-02;  3.9906500E+04;  0.0000000E+00;  6.4379075E-03;  4.0000000E+04;  0.0000000E+00;  4.0004262E+04;  8.0359392E-02;  0.0000000E+00; -1.0339293E-02;  6.2348883E+02;
  2.7148870E-01;  9.9999998E-03;  2.9987888E-02;4126;  2.5328230E-02;  0.0000000E+00; -5.6346785E-04;  9.9893158E+02;  1.0000000E-01; -8.8516016E+02;3; -6.8444738E+00;  0.0000000E+00;  4.3533599E-01;0;  6.9513954E-02;  3.9913441E+04;  0.0000000E+00;  1.3705265E-02;  4.0000000E+04;  0.0000000E+00;  4.0002051E+04;  7.9982772E-02;  0.0000000E+00; -1.0468816E-02;  3.2862891E+02;
  2.7150542E-01;  9.9999998E-03;  3.9986651E-02;4127;  2.5115117E-02;  0.0000000E+00; -7.8507548E-04;  9.9900562E+02;  1.0000000E-01; -8.2382855E+02;3; -6.7720599E+00;  0.0000000E+00;  6.5748656E-01;0;  6.8698891E-02;  3.9922301E+04;  0.0000000E+00;  2.2397792E-02;  4.0000000E+04;  0.0000000E+00;  3.9999160E+04;  7.9317749E-02;  0.0000000E+00; -1.0618855E-02;  3.7621681E+01;
  2.7153227E-01;  9.9999998E-03;  4.9989693E-02;4128;  2.4858333E-02;  0.0000000E+00; -1.0244134E-03;  9.9909979E+02;  1.0000000E-01; -7.4580609E+02;3; -6.6990891E+00;  0.0000000E+00;  8.1576782E-01;0;  6.7515478E-02;  3.9932180E+04;  0.0000000E+00;  3.1188235E-02;  4.0000000E+04;  0.0000000E+00;  3.9996754E+04;  7.8279793E-02;  0.0000000E+00; -1.0764317E-02;  3.6193933E+02;
  2.7156594E-01;  9.9999998E-03;  5.9996817E-02;4129;  2.4559643E-02;  0.0000000E+00; -1.2691566E-03;  9.9920215E+02;  1.0000000E-01; -6.6101837E+02;3; -6.5978527E+00;  0.0000000E+00;  9.9148065E-01;0;  6.5916359E-02;  3.9942492E+04;  0.0000000E+00;  3.8969655E-02;  4.0000000E+04;  0.0000000E+00;  3.9994621E+04;  7.6796792E-02;  0.0000000E+00; -1.0880429E-02;  6.3599347E+02;
  2.8171918E-01;  9.9999998E-03; -1.0001681E-01;4174;  2.3199318E-02;  0.0000000E+00;  1.8835949E-03;  9.9939917E+02;  1.0000000E-01; -4.9776370E+02;3; -6.2446523E+00;  0.0000000E+00; -1.4476810E+00;0;  4.6921514E-02;  3.9956852E+04;  0.0000000E+00;  1.9638555E-02;  4.0000000E+04;  0.0000000E+00;  3.9996566E+04;  5.7324335E-02;  0.0000000E+00; -1.0402823E-02;  3.8487103E+02;
  2.8166798E-01;  9.9999998E-03; -9.0014085E-02;4175;  2.3570342E-02;  0.0000000E+00;  1.6972497E-03;  9.9931995E+02;  1.0000000E-01; -5.6339148E+02;3; -6.3847342E+00;  0.0000000E+00; -1.3216269E+00;0;  5.0252888E-02;  3.9952184E+04;  0.0000000E+00;  9.6576419E-03;  4.0000000E+04;  0.0000000E+00;  3.9994898E+04;  6.0795724E-02;  0.0000000E+00; -1.0542835E-02;  5.7637024E+02;
  2.8162503E-01;  9.9999998E-03; -8.0009207E-02;4176;  2.3934143E-02;  0.0000000E+00;  1.4920303E-03;  9.9920441E+02;  1.0000000E-01; -6.5914185E+02;3; -6.4918017E+00;  0.0000000E+00; -1.1872685E+00;0;  5.3052343E-02;  3.9943523E+04;  0.0000000E+00;  8.7743821E-03;  4.0000000E+04;  0.0000000E+00;  3.9994449E+04;  6.3631929E-02;  0.0000000E+00; -1.0579586E-02;  6.4307648E+02;
  2.8158897E-01;  9.9999998E-03; -7.0003524E-02;4177;  2.4278695E-02;  0.0000000E+00;  1.2783933E-03;  9.9906372E+02;  1.0000000E-01; -7.7568176E+02;3; -6.6000366E+00;  0.0000000E+00; -1.0726008E+00;0;  5.5287763E-02;  3.9931715E+04;  0.0000000E+00;  1.1086797E-02;  4.0000000E+04;  0.0000000E+00;  3.9994754E+04;  6.5808237E-02;  0.0000000E+00; -1.0520471E-02;  5.7271698E+02;
  2.8156105E-01;  9.9999998E-03; -5.9998095E-02;4178;  2.4591310E-02;  0.0000000E+00;  1.0642075E-03;  9.9891949E+02;  1.0000000E-01; -8.9518457E+02;3; -6.7281046E+00;  0.0000000E+00; -9.1342932E-01;0;  5.6975171E-02;  3.9918629E+04;  0.0000000E+00;  1.2892094E-02;  4.0000000E+04;  0.0000000E+00;  3.9996273E+04;  6.7357987E-02;  0.0000000E+00; -1.0382818E-02;  3.7589243E+02;
  2.8154656E-01;  9.9999998E-03; -4.9993474E-02;4179;  2.4868285E-02;  0.0000000E+00;  8.5325376E-04;  9.9877655E+02;  1.0000000E-01; -1.0136010E+03;3; -6.8118019E+00;  0.0000000E+00; -7.6909512E-01;0;  5.8170974E-02;  3.9904992E+04;  0.0000000E+00;  1.2606925E-02;  4.0000000E+04;  0.0000000E+00;  3.9998535E+04;  6.8361342E-02;  0.0000000E+00; -1.0190369E-02;  8.5493378E+01;
  2.8154930E-01;  9.9999998E-03; -3.9990943E-02;4180;  2.5100518E-02;  0.0000000E+00;  6.5206480E-04;  9.9865222E+02;  1.0000000E-01; -1.1166104E+03;3; -6.9122705E+00;  0.0000000E+00; -5.9125471E-01;0;  5.8955088E-02;  3.9892277E+04;  0.0000000E+00;  1.0265025E-02;  4.0000000E+04;  0.0000000E+00;  4.0001145E+04;  6.8925813E-02;  0.0000000E+00; -9.9707246E-03;  2.5678885E+02;
  2.8156269E-01;  9.9999998E-03; -2.9991509E-02;4181;  2.5287073E-02;  0.0000000E+00;  4.6291493E-04;  9.9854590E+02;  1.0000000E-01; -1.2047067E+03;3; -6.9569187E+00;  0.0000000E+00; -4.3544739E-01;0;  5.9421610E-02;  3.9881211E+04;  0.0000000E+00;  6.7935032E-03;  4.0000000E+04;  0.0000000E+00;  4.0003648E+04;  6.9176160E-02;  0.0000000E+00; -9.7545497E-03;  5.9027667E+02;
  2.8157723E-01;  9.9999998E-03; -1.9994674E-02;4182;  2.5427323E-02;  0.0000000E+00;  2.9591940E-04;  9.9846771E+02;  1.0000000E-01; -1.2694950E+03;3; -6.9890747E+00;  0.0000000E+00; -2.9028046E-01;0;  5.9666373E-02;  3.9872863E+04;  0.0000000E+00;  3.3463801E-03;  4.0000000E+04;  0.0000000E+00;  4.0005848E+04;  6.9239043E-02;  0.0000000E+00; -9.5726689E-03;  8.6761639E+02;
  2.8158706E-01;  9.9999998E-03; -9.9981772E-03;4183;  2.5513614E-02;  0.0000000E+00;  1.4412758E-04;  9.9842072E+02;  1.0000000E-01; -1.3084075E+03;3; -7.0151005E+00;  0.0000000E+00; -1.4600627E-01;0;  5.9773676E-02;  3.9867531E+04;  0.0000000E+00;  8.8490604E-04;  4.0000000E+04;  0.0000000E+00;  4.0007445E+04;  6.9225289E-02;  0.0000000E+00; -9.4516128E-03;  1.0495884E+03;
  2.8159061E-01;  9.9999998E-03;  6.4101963E-10;4184;  2.5542738E-02;  0.0000000E+00;  3.5350287E-09;  9.9840344E+02;  1.0000000E-01; -1.3227280E+03;3; -7.0266786E+00;  0.0000000E+00;  1.2980233E-05;0;  5.9802234E-02;  3.9865863E+04;  0.0000000E+00;  1.3848102E-13;  4.0000000E+04;  0.0000000E+00;  4.0007793E+04;  6.9211371E-02;  0.0000000E+00; -9.4091361E-03;  1.1127803E+03;
  2.8158706E-01;  9.9999998E-03;  9.9981790E-03;4185;  2.5513614E-02;  0.0000000E+00; -1.4412096E-04;  9.9842072E+02;  1.0000000E-01; -1.3084075E+03;3; -7.0151067E+00;  0.0000000E+00;  1.4602470E-01;0;  5.9773609E-02;  3.9867539E+04;  0.0000000E+00;  8.8519178E-04;  4.0000000E+04;  0.0000000E+00;  4.0007445E+04;  6.9225222E-02;  0.0000000E+00; -9.4516138E-03;  1.0495907E+03;
  2.8157723E-01;  9.9999998E-03;  1.9994674E-02;4186;  2.5427319E-02;  0.0000000E+00; -2.9591267E-04;  9.9846771E+02;  1.0000000E-01; -1.2694950E+03;3; -6.9891148E+00;  0.0000000E+00;  2.9030189E-01;0;  5.9666339E-02;  3.9872863E+04;  0.0000000E+00;  3.3469980E-03;  4.0000000E+04;  0.0000000E+00;  4.0005848E+04;  6.9239005E-02;  0.0000000E+00; -9.5726652E-03;  8.6762372E+02;
  2.8156269E-01;  9.9999998E-03;  2.9991509E-02;4187;  2.5287073E-02;  0.0000000E+00; -4.6290751E-04;  9.9854584E+02;  1.0000000E-01; -1.2047561E+03;3; -6.9568863E+00;  0.0000000E+00;  4.3546572E-01;0;  5.9421577E-02;  3.9881211E+04;  0.0000000E+00;  6.7946739E-03;  4.0000000E+04;  0.0000000E+00;  4.0003648E+04;  6.9176123E-02;  0.0000000E+00; -9.7545469E-03;  5.9029834E+02;
  2.8154930E-01;  9.9999998E-03;  3.9990943E-02;4188;  2.5100516E-02;  0.0000000E+00; -6.5205770E-04;  9.9865216E+02;  1.0000000E-01; -1.1166598E+03;3; -6.9122505E+00;  0.0000000E+00;  5.9126973E-01;0;  5.8954936E-02;  3.9892277E+04;  0.0000000E+00;  1.0266760E-02;  4.0000000E+04;  0.0000000E+00;  4.0001145E+04;  6.8925656E-02;  0.0000000E+00; -9.9707199E-03;  2.5680334E+02;
  2.8154656E-01;  9.9999998E-03;  4.9993474E-02;4189;  2.4868285E-02;  0.0000000E+00; -8.5324742E-04;  9.9877655E+02;  1.0000000E-01; -1.0136010E+03;3; -6.8118076E+00;  0.0000000E+00;  7.6910031E-01;0;  5.8170807E-02;  3.9904984E+04;  0.0000000E+00;  1.2608308E-02;  4.0000000E+04;  0.0000000E+00;  3.9998535E+04;  6.8361148E-02;  0.0000000E+00; -1.0190342E-02;  8.5481140E+01;
  2.8156105E-01;  9.9999998E-03;  5.9998095E-02;4190;  2.4591310E-02;  0.0000000E+00; -1.0642014E-03;  9.9891949E+02;  1.0000000E-01; -8.9518457E+02;3; -6.7280836E+00;  0.0000000E+00;  9.1343039E-01;0;  5.6975119E-02;  3.9918629E+04;  0.0000000E+00;  1.2892924E-02;  4.0000000E+04;  0.0000000E+00;  3.9996273E+04;  6.7357920E-02;  0.0000000E+00; -1.0382802E-02;  3.7589334E+02;
  2.9168299E-01;  9.9999998E-03; -1.0001817E-01;4235;  2.3177946E-02;  0.0000000E+00;  1.5650231E-03;  9.9927454E+02;  1.0000000E-01; -6.0102002E+02;3; -6.3283448E+00;  0.0000000E+00; -1.3655995E+00;0;  3.7135411E-02;  3.9947047E+04;  0.0000000E+00; -4.5979600E-02;  4.0000000E+04;  0.0000000E+00;  3.9997004E+04;  4.6888184E-02;  0.0000000E+00; -9.7527737E-03;  3.1583585E+02;
  2.9164642E-01;  9.9999998E-03; -9.0014204E-02;4236;  2.3552451E-02;  0.0000000E+00;  1.3958780E-03;  9.9915033E+02;  1.0000000E-01; -7.0393073E+02;3; -6.4623790E+00;  0.0000000E+00; -1.2502854E+00;0;  4.0130649E-02;  3.9938457E+04;  0.0000000E+00; -4.2414408E-02;  4.0000000E+04;  0.0000000E+00;  3.9995926E+04;  4.9941350E-02;  0.0000000E+00; -9.8107010E-03;  4.4679465E+02;
  2.9162467E-01;  9.9999998E-03; -8.0008827E-02;4237;  2.3907397E-02;  0.0000000E+00;  1.2155125E-03;  9.9899548E+02;  1.0000000E-01; -8.3222339E+02;3; -6.5756831E+00;  0.0000000E+00; -1.1294235E+00;0;  4.2559139E-02;  3.9925980E+04;  0.0000000E+00; -3.1841442E-02;  4.0000000E+04;  0.0000000E+00;  3.9995703E+04;  5.2319631E-02;  0.0000000E+00; -9.7604906E-03;  4.5191275E+02;
  2.9162252E-01;  9.9999998E-03; -7.0001714E-02;4238;  2.4234442E-02;  0.0000000E+00;  1.0309974E-03;  9.9882379E+02;  1.0000000E-01; -9.7449097E+02;3; -6.6852522E+00;  0.0000000E+00; -1.0035028E+00;0;  4.4394784E-02;  3.9911191E+04;  0.0000000E+00; -1.9785577E-02;  4.0000000E+04;  0.0000000E+00;  3.9996715E+04;  5.4005537E-02;  0.0000000E+00; -9.6107544E-03;  3.3099677E+02;
  2.9163307E-01;  9.9999998E-03; -5.9994776E-02;4239;  2.4526661E-02;  0.0000000E+00;  8.4812002E-04;  9.9864667E+02;  1.0000000E-01; -1.1212029E+03;3; -6.8128452E+00;  0.0000000E+00; -8.6450309E-01;0;  4.5678429E-02;  3.9895254E+04;  0.0000000E+00; -9.6629243E-03;  4.0000000E+04;  0.0000000E+00;  3.9998266E+04;  5.5059880E-02;  0.0000000E+00; -9.3814526E-03;  1.0298975E+02;
  2.9164368E-01;  9.9999998E-03; -4.9990814E-02;4240;  2.4779866E-02;  0.0000000E+00;  6.7245722E-04;  9.9848212E+02;  1.0000000E-01; -1.2575447E+03;3; -6.9115114E+00;  0.0000000E+00; -7.1749222E-01;0;  4.6502501E-02;  3.9879586E+04;  0.0000000E+00; -2.9297047E-03;  4.0000000E+04;  0.0000000E+00;  4.0000637E+04;  5.5603541E-02;  0.0000000E+00; -9.1010425E-03;  1.9873557E+02;
  2.9165015E-01;  9.9999998E-03; -3.9990511E-02;4241;  2.4988687E-02;  0.0000000E+00;  5.0864147E-04;  9.9833405E+02;  1.0000000E-01; -1.3802079E+03;3; -6.9959536E+00;  0.0000000E+00; -5.6591994E-01;0;  4.6974804E-02;  3.9865215E+04;  0.0000000E+00;  4.5140999E-04;  4.0000000E+04;  0.0000000E+00;  4.0003246E+04;  5.5777062E-02;  0.0000000E+00; -8.8022565E-03;  5.2818848E+02;
  2.9165721E-01;  9.9999998E-03; -2.9992970E-02;4242;  2.5153715E-02;  0.0000000E+00;  3.5986525E-04;  9.9821283E+02;  1.0000000E-01; -1.4806495E+03;3; -7.0424142E+00;  0.0000000E+00; -4.2439938E-01;0;  4.7196336E-02;  3.9853012E+04;  0.0000000E+00;  1.3721493E-03;  4.0000000E+04;  0.0000000E+00;  4.0005516E+04;  5.5715661E-02;  0.0000000E+00; -8.5193235E-03;  8.3966449E+02;
  2.9166728E-01;  9.9999998E-03; -1.9996699E-02;4243;  2.5275070E-02;  0.0000000E+00;  2.2832878E-04;  9.9812286E+02;  1.0000000E-01; -1.5551659E+03;3; -7.0758476E+00;  0.0000000E+00; -2.7693588E-01;0;  4.7262579E-02;  3.9843969E+04;  0.0000000E+00;  9.8399527E-04;  4.0000000E+04;  0.0000000E+00;  4.0007527E+04;  5.5548642E-02;  0.0000000E+00; -8.2860617E-03;  1.0919573E+03;
  2.9167646E-01;  9.9999998E-03; -9.9998415E-03;4244;  2.5349049E-02;  0.0000000E+00;  1.1025652E-04;  9.9806830E+02;  1.0000000E-01; -1.6003992E+03;3; -7.1015511E+00;  0.0000000E+00; -1.3774185E-01;0;  4.7260810E-02;  3.9838262E+04;  0.0000000E+00;  3.0366675E-04;  4.0000000E+04;  0.0000000E+00;  4.0008762E+04;  5.5393107E-02;  0.0000000E+00; -8.1322966E-03;  1.2547002E+03;
  2.9168025E-01;  9.9999998E-03;  7.3881551E-10;4245;  2.5373962E-02;  0.0000000E+00;  3.6336110E-09;  9.9804956E+02;  1.0000000E-01; -1.6159049E+03;3; -7.1102920E+00;  0.0000000E+00;  1.1832041E-05;0;  4.7252499E-02;  3.9836297E+04;  0.0000000E+00; -2.4118736E-13;  4.0000000E+04;  0.0000000E+00;  4.0009203E+04;  5.5331063E-02;  0.0000000E+00; -8.0785640E-03;  1.3106833E+03;
  2.9167646E-01;  9.9999998E-03;  9.9998433E-03;4246;  2.5349051E-02;  0.0000000E+00; -1.1024931E-04;  9.9806830E+02;  1.0000000E-01; -1.6003992E+03;3; -7.1015325E+00;  0.0000000E+00;  1.3776636E-01;0;  4.7260739E-02;  3.9838262E+04;  0.0000000E+00;  3.0404978E-04;  4.0000000E+04;  0.0000000E+00;  4.0008762E+04;  5.5393044E-02;  0.0000000E+00; -8.1323041E-03;  1.2547043E+03;
  2.9166728E-01;  9.9999998E-03;  1.9996701E-02;4247;  2.5275070E-02;  0.0000000E+00; -2.2832173E-04;  9.9812280E+02;  1.0000000E-01; -1.5552153E+03;3; -7.0758314E+00;  0.0000000E+00;  2.7695972E-01;0;  4.7262579E-02;  3.9843969E+04;  0.0000000E+00;  9.8473532E-04;  4.0000000E+04;  0.0000000E+00;  4.0007527E+04;  5.5548642E-02;  0.0000000E+00; -8.2860626E-03;  1.0919617E+03;
  2.9165721E-01;  9.9999998E-03;  2.9992970E-02;4248;  2.5153719E-02;  0.0000000E+00; -3.5985871E-04;  9.9821283E+02;  1.0000000E-01; -1.4806495E+03;3; -7.0423985E+00;  0.0000000E+00;  4.2441991E-01;0;  4.7196314E-02;  3.9853012E+04;  0.0000000E+00;  1.3732651E-03;  4.0000000E+04;  0.0000000E+00;  4.0005516E+04;  5.5715613E-02;  0.0000000E+00; -8.5193012E-03;  8.3967706E+02;
  2.9165015E-01;  9.9999998E-03;  3.9990511E-02;4249;  2.4988685E-02;  0.0000000E+00; -5.0863496E-04;  9.9833405E+02;  1.0000000E-01; -1.3802079E+03;3; -6.9959631E+00;  0.0000000E+00;  5.6593424E-01;0;  4.6974748E-02;  3.9865215E+04;  0.0000000E+00;  4.5281058E-04;  4.0000000E+04;  0.0000000E+00;  4.0003242E+04;  5.5776983E-02;  0.0000000E+00; -8.8022351E-03;  5.2820129E+02;
  2.9164368E-01;  9.9999998E-03;  4.9990814E-02;4250;  2.4779862E-02;  0.0000000E+00; -6.7245075E-04;  9.9848199E+02;  1.0000000E-01; -1.2576434E+03;3; -6.9115286E+00;  0.0000000E+00;  7.1749312E-01;0;  4.6502441E-02;  3.9879586E+04;  0.0000000E+00; -2.9290854E-03;  4.0000000E+04;  0.0000000E+00;  4.0000637E+04;  5.5603456E-02;  0.0000000E+00; -9.1010164E-03;  1.9874333E+02;
  2.9163307E-01;  9.9999998E-03;  5.9994776E-02;4251;  2.4526663E-02;  0.0000000E+00; -8.4811304E-04;  9.9864667E+02;  1.0000000E-01; -1.1212029E+03;3; -6.8128619E+00;  0.0000000E+00;  8.6450148E-01;0;  4.5678355E-02;  3.9895254E+04;  0.0000000E+00; -9.6626580E-03;  4.0000000E+04;  0.0000000E+00;  3.9998266E+04;  5.5059783E-02;  0.0000000E+00; -9.3814265E-03;  1.0297521E+02;
  3.0167130E-01;  9.9999998E-03; -1.0001633E-01;4296;  2.3103826E-02;  0.0000000E+00;  1.2381139E-03;  9.9914758E+02;  1.0000000E-01; -7.0620227E+02;3; -6.3780313E+00;  0.0000000E+00; -1.2862957E+00;0;  2.6510235E-02;  3.9936742E+04;  0.0000000E+00; -9.7463317E-02;  4.0000000E+04;  0.0000000E+00;  3.9997586E+04;  3.5192933E-02;  0.0000000E+00; -8.6826971E-03;  2.7105814E+02;
  3.0166891E-01;  9.9999998E-03; -9.0007126E-02;4297;  2.3469932E-02;  0.0000000E+00;  1.0881785E-03;  9.9899756E+02;  1.0000000E-01; -8.3049506E+02;3; -6.5226045E+00;  0.0000000E+00; -1.1823531E+00;0;  2.9045414E-02;  3.9925227E+04;  0.0000000E+00; -8.0254517E-02;  4.0000000E+04;  0.0000000E+00;  3.9997137E+04;  3.7674669E-02;  0.0000000E+00; -8.6292550E-03;  3.1976929E+02;
  3.0167705E-01;  9.9999998E-03; -7.9997860E-02;4298;  2.3810187E-02;  0.0000000E+00;  9.3257951E-04;  9.9881940E+02;  1.0000000E-01; -9.7809576E+02;3; -6.6388683E+00;  0.0000000E+00; -1.0699575E+00;0;  3.1034548E-02;  3.9910680E+04;  0.0000000E+00; -5.9050336E-02;  4.0000000E+04;  0.0000000E+00;  3.9997328E+04;  3.9501965E-02;  0.0000000E+00; -8.4674163E-03;  2.5860220E+02;
  3.0168742E-01;  9.9999998E-03; -6.9992021E-02;4299;  2.4118122E-02;  0.0000000E+00;  7.7746762E-04;  9.9862970E+02;  1.0000000E-01; -1.1352765E+03;3; -6.7526808E+00;  0.0000000E+00; -9.3905574E-01;0;  3.2478832E-02;  3.9894352E+04;  0.0000000E+00; -3.8788401E-02;  4.0000000E+04;  0.0000000E+00;  3.9998559E+04;  4.0689189E-02;  0.0000000E+00; -8.2103554E-03;  9.7176567E+01;
  3.0170622E-01;  9.9999998E-03; -5.9989214E-02;4300;  2.4387820E-02;  0.0000000E+00;  6.2771625E-04;  9.9844232E+02;  1.0000000E-01; -1.2905314E+03;3; -6.8696265E+00;  0.0000000E+00; -8.1216300E-01;0;  3.3415176E-02;  3.9877211E+04;  0.0000000E+00; -2.2364831E-02;  4.0000000E+04;  0.0000000E+00;  4.0000371E+04;  4.1293915E-02;  0.0000000E+00; -7.8787412E-03;  1.7242378E+02;
  3.0173230E-01;  9.9999998E-03; -4.9988393E-02;4301;  2.4616230E-02;  0.0000000E+00;  4.8768625E-04;  9.9826843E+02;  1.0000000E-01; -1.4345767E+03;3; -6.9874992E+00;  0.0000000E+00; -6.7413890E-01;0;  3.3928916E-02;  3.9860859E+04;  0.0000000E+00; -1.0877175E-02;  4.0000000E+04;  0.0000000E+00;  4.0002711E+04;  4.1430969E-02;  0.0000000E+00; -7.5020511E-03;  4.6966730E+02;
  3.0175915E-01;  9.9999998E-03; -3.9989956E-02;4302;  2.4803067E-02;  0.0000000E+00;  3.6123427E-04;  9.9811395E+02;  1.0000000E-01; -1.5625731E+03;3; -7.0609636E+00;  0.0000000E+00; -5.4071605E-01;0;  3.4133818E-02;  3.9846152E+04;  0.0000000E+00; -4.0679723E-03;  4.0000000E+04;  0.0000000E+00;  4.0004973E+04;  4.1250523E-02;  0.0000000E+00; -7.1167061E-03;  7.7938904E+02;
  3.0178037E-01;  9.9999998E-03; -2.9993327E-02;4303;  2.4948442E-02;  0.0000000E+00;  2.5082313E-04;  9.9798816E+02;  1.0000000E-01; -1.6667677E+03;3; -7.1083283E+00;  0.0000000E+00; -4.0410081E-01;0;  3.4148820E-02;  3.9833977E+04;  0.0000000E+00; -8.6577341E-04;  4.0000000E+04;  0.0000000E+00;  4.0007094E+04;  4.0911131E-02;  0.0000000E+00; -6.7623118E-03;  1.0611179E+03;
  3.0179408E-01;  9.9999998E-03; -1.9997120E-02;4304;  2.5052803E-02;  0.0000000E+00;  1.5665217E-04;  9.9789703E+02;  1.0000000E-01; -1.7422717E+03;3; -7.1474681E+00;  0.0000000E+00; -2.6753107E-01;0;  3.4077577E-02;  3.9824695E+04;  0.0000000E+00;  1.0366814E-04;  4.0000000E+04;  0.0000000E+00;  4.0008824E+04;  4.0554270E-02;  0.0000000E+00; -6.4766929E-03;  1.2830894E+03;
  3.0180162E-01;  9.9999998E-03; -9.9998210E-03;4305;  2.5115570E-02;  0.0000000E+00;  7.4977645E-05;  9.9784100E+02;  1.0000000E-01; -1.7886902E+03;3; -7.1728196E+00;  0.0000000E+00; -1.3353865E-01;0;  3.3999912E-02;  3.9819125E+04;  0.0000000E+00;  1.0299920E-04;  4.0000000E+04;  0.0000000E+00;  4.0010035E+04;  4.0291104E-02;  0.0000000E+00; -6.2911911E-03;  1.4237059E+03;
  3.0180404E-01;  9.9999998E-03;  7.0838668E-10;4306;  2.5136521E-02;  0.0000000E+00;  3.4975245E-09;  9.9782123E+02;  1.0000000E-01; -1.8050847E+03;3; -7.1814981E+00;  0.0000000E+00;  8.6635237E-06;0;  3.3967949E-02;  3.9817250E+04;  0.0000000E+00;  8.6986326E-13;  4.0000000E+04;  0.0000000E+00;  4.0010367E+04;  4.0194821E-02;  0.0000000E+00; -6.2268730E-03;  1.4716429E+03;
  3.0180162E-01;  9.9999998E-03;  9.9998228E-03;4307;  2.5115568E-02;  0.0000000E+00; -7.4970296E-05;  9.9784100E+02;  1.0000000E-01; -1.7886902E+03;3; -7.1728296E+00;  0.0000000E+00;  1.3356191E-01;0;  3.3999924E-02;  3.9819121E+04;  0.0000000E+00;  1.0324748E-04;  4.0000000E+04;  0.0000000E+00;  4.0010035E+04;  4.0291112E-02;  0.0000000E+00; -6.2911874E-03;  1.4237131E+03;
  3.0179408E-01;  9.9999998E-03;  1.9997122E-02;4308;  2.5052803E-02;  0.0000000E+00; -1.5664495E-04;  9.9789703E+02;  1.0000000E-01; -1.7422717E+03;3; -7.1474442E+00;  0.0000000E+00;  2.6754877E-01;0;  3.4077551E-02;  3.9824695E+04;  0.0000000E+00;  1.0426810E-04;  4.0000000E+04;  0.0000000E+00;  4.0008824E+04;  4.0554233E-02;  0.0000000E+00; -6.4766803E-03;  1.2831063E+03;
  3.0178037E-01;  9.9999998E-03;  2.9993327E-02;4309;  2.4948442E-02;  0.0000000E+00; -2.5081582E-04;  9.9798816E+02;  1.0000000E-01; -1.6667677E+03;3; -7.1083155E+00;  0.0000000E+00;  4.0411910E-01;0;  3.4148805E-02;  3.9833977E+04;  0.0000000E+00; -8.6525828E-04;  4.0000000E+04;  0.0000000E+00;  4.0007094E+04;  4.0911108E-02;  0.0000000E+00; -6.7623020E-03;  1.0611311E+03;
  3.0175915E-01;  9.9999998E-03;  3.9989956E-02;4310;  2.4803065E-02;  0.0000000E+00; -3.6122758E-04;  9.9811389E+02;  1.0000000E-01; -1.5626224E+03;3; -7.0609722E+00;  0.0000000E+00;  5.4071927E-01;0;  3.4133792E-02;  3.9846156E+04;  0.0000000E+00; -4.0671979E-03;  4.0000000E+04;  0.0000000E+00;  4.0004973E+04;  4.1250482E-02;  0.0000000E+00; -7.1166917E-03;  7.7940021E+02;
  3.0173230E-01;  9.9999998E-03;  4.9988393E-02;4311;  2.4616230E-02;  0.0000000E+00; -4.8767938E-04;  9.9826831E+02;  1.0000000E-01; -1.4346754E+03;3; -6.9874902E+00;  0.0000000E+00;  6.7414480E-01;0;  3.3928871E-02;  3.9860855E+04;  0.0000000E+00; -1.0876824E-02;  4.0000000E+04;  0.0000000E+00;  4.0002711E+04;  4.1430905E-02;  0.0000000E+00; -7.5020352E-03;  4.6966849E+02;
  3.0170622E-01;  9.9999998E-03;  5.9989214E-02;4312;  2.4387818E-02;  0.0000000E+00; -6.2770880E-04;  9.9844232E+02;  1.0000000E-01; -1.2905314E+03;3; -6.8696418E+00;  0.0000000E+00;  8.1217146E-01;0;  3.3415172E-02;  3.9877207E+04;  0.0000000E+00; -2.2363577E-02;  4.0000000E+04;  0.0000000E+00;  4.0000371E+04;  4.1293889E-02;  0.0000000E+00; -7.8787170E-03;  1.7242635E+02;
  3.1169832E-01;  9.9999998E-03; -1.0000179E-01;4357;  2.2990439E-02;  0.0000000E+00;  9.0119836E-04;  9.9904791E+02;  1.0000000E-01; -7.8876782E+02;3; -6.4066777E+00;  0.0000000E+00; -1.2139612E+00;0;  1.5986517E-02;  3.9928637E+04;  0.0000000E+00; -1.2618975E-01;  4.0000000E+04;  0.0000000E+00;  3.9998172E+04;  2.3192244E-02;  0.0000000E+00; -7.2057275E-03;  2.3354195E+02;
  3.1172639E-01;  9.9999998E-03; -8.9992583E-02;4358;  2.3342343E-02;  0.0000000E+00;  7.7271595E-04;  9.9888989E+02;  1.0000000E-01; -9.1972705E+02;3; -6.5543971E+00;  0.0000000E+00; -1.1158152E+00;0;  1.8031877E-02;  3.9915836E+04;  0.0000000E+00; -9.7153895E-02;  4.0000000E+04;  0.0000000E+00;  3.9998168E+04;  2.5046607E-02;  0.0000000E+00; -7.0147314E-03;  1.9987331E+02;
  3.1176299E-01;  9.9999998E-03; -7.9985730E-02;4359;  2.3664130E-02;  0.0000000E+00;  6.4388843E-04;  9.9871295E+02;  1.0000000E-01; -1.0662908E+03;3; -6.6815991E+00;  0.0000000E+00; -1.0034281E+00;0;  1.9578520E-02;  3.9900598E+04;  0.0000000E+00; -6.7861192E-02;  4.0000000E+04;  0.0000000E+00;  3.9998953E+04;  2.6297737E-02;  0.0000000E+00; -6.7192167E-03;  1.0188187E+02;
  3.1179845E-01;  9.9999998E-03; -6.9982715E-02;4360;  2.3949867E-02;  0.0000000E+00;  5.1917281E-04;  9.9852887E+02;  1.0000000E-01; -1.2187804E+03;3; -6.8062735E+00;  0.0000000E+00; -8.9068878E-01;0;  2.0639298E-02;  3.9884273E+04;  0.0000000E+00; -4.2393200E-02;  4.0000000E+04;  0.0000000E+00;  4.0000395E+04;  2.6975065E-02;  0.0000000E+00; -6.3357675E-03;  1.7718085E+02;
  3.1182641E-01;  9.9999998E-03; -5.9983265E-02;4361;  2.4195757E-02;  0.0000000E+00;  4.0348488E-04;  9.9834698E+02;  1.0000000E-01; -1.3694922E+03;3; -6.9197497E+00;  0.0000000E+00; -7.7228951E-01;0;  2.1270532E-02;  3.9867875E+04;  0.0000000E+00; -2.2906320E-02;  4.0000000E+04;  0.0000000E+00;  4.0002273E+04;  2.7160492E-02;  0.0000000E+00; -5.8899592E-03;  4.2823441E+02;
  3.1184530E-01;  9.9999998E-03; -4.9986843E-02;4362;  2.4400841E-02;  0.0000000E+00;  3.0046323E-04;  9.9817926E+02;  1.0000000E-01; -1.5084512E+03;3; -7.0268250E+00;  0.0000000E+00; -6.4257616E-01;0;  2.1557670E-02;  3.9852113E+04;  0.0000000E+00; -9.9025806E-03;  4.0000000E+04;  0.0000000E+00;  4.0004531E+04;  2.6971959E-02;  0.0000000E+00; -5.4142885E-03;  7.1460559E+02;
  3.1185791E-01;  9.9999998E-03; -3.9991956E-02;4363;  2.4565985E-02;  0.0000000E+00;  2.1250338E-04;  9.9803198E+02;  1.0000000E-01; -1.6304724E+03;3; -7.1047640E+00;  0.0000000E+00; -5.1535594E-01;0;  2.1599790E-02;  3.9838305E+04;  0.0000000E+00; -2.6490244E-03;  4.0000000E+04;  0.0000000E+00;  4.0006879E+04;  2.6545906E-02;  0.0000000E+00; -4.9461164E-03;  9.9561285E+02;
  3.1186664E-01;  9.9999998E-03; -2.9996851E-02;4364;  2.4692353E-02;  0.0000000E+00;  1.4073051E-04;  9.9791638E+02;  1.0000000E-01; -1.7262228E+03;3; -7.1647582E+00;  0.0000000E+00; -3.8885272E-01;0;  2.1498969E-02;  3.9826914E+04;  0.0000000E+00;  3.2909308E-04;  4.0000000E+04;  0.0000000E+00;  4.0008469E+04;  2.6024504E-02;  0.0000000E+00; -4.5255353E-03;  1.2411809E+03;
  3.1187302E-01;  9.9999998E-03; -2.0000290E-02;4365;  2.4781369E-02;  0.0000000E+00;  8.3991668E-05;  9.9783105E+02;  1.0000000E-01; -1.7969369E+03;3; -7.2070298E+00;  0.0000000E+00; -2.5998157E-01;0;  2.1348881E-02;  3.9818227E+04;  0.0000000E+00;  7.7764108E-04;  4.0000000E+04;  0.0000000E+00;  4.0010117E+04;  2.5540169E-02;  0.0000000E+00; -4.1912883E-03;  1.4292739E+03;
  3.1187743E-01;  9.9999998E-03; -1.0001536E-02;4366;  2.4834335E-02;  0.0000000E+00;  3.8891289E-05;  9.9777637E+02;  1.0000000E-01; -1.8422195E+03;3; -7.2325535E+00;  0.0000000E+00; -1.2950684E-01;0;  2.1225158E-02;  3.9813086E+04;  0.0000000E+00;  2.9518324E-04;  4.0000000E+04;  0.0000000E+00;  4.0010824E+04;  2.5201119E-02;  0.0000000E+00; -3.9759604E-03;  1.5461963E+03;
  3.1187931E-01;  9.9999998E-03;  7.5161583E-10;4367;  2.4851905E-02;  0.0000000E+00;  3.8756194E-09;  9.9775732E+02;  1.0000000E-01; -1.8580215E+03;3; -7.2412720E+00;  0.0000000E+00;  1.5774240E-05;0;  2.1177785E-02;  3.9811387E+04;  0.0000000E+00;  5.2099297E-13;  4.0000000E+04;  0.0000000E+00;  4.0011387E+04;  2.5079302E-02;  0.0000000E+00; -3.9015168E-03;  1.5857002E+03;
  3.1187743E-01;  9.9999998E-03;  1.0001537E-02;4368;  2.4834335E-02;  0.0000000E+00; -3.8884344E-05;  9.9777631E+02;  1.0000000E-01; -1.8422689E+03;3; -7.2325892E+00;  0.0000000E+00;  1.2952252E-01;0;  2.1225190E-02;  3.9813086E+04;  0.0000000E+00;  2.9536948E-04;  4.0000000E+04;  0.0000000E+00;  4.0010824E+04;  2.5201147E-02;  0.0000000E+00; -3.9759576E-03;  1.5462012E+03;
  3.1187302E-01;  9.9999998E-03;  2.0000290E-02;4369;  2.4781367E-02;  0.0000000E+00; -8.3984982E-05;  9.9783112E+02;  1.0000000E-01; -1.7968875E+03;3; -7.2070065E+00;  0.0000000E+00;  2.5998771E-01;0;  2.1348832E-02;  3.9818230E+04;  0.0000000E+00;  7.7796337E-04;  4.0000000E+04;  0.0000000E+00;  4.0010117E+04;  2.5540113E-02;  0.0000000E+00; -4.1912817E-03;  1.4292793E+03;
  3.1186664E-01;  9.9999998E-03;  2.9996853E-02;4370;  2.4692351E-02;  0.0000000E+00; -1.4072303E-04;  9.9791638E+02;  1.0000000E-01; -1.7262228E+03;3; -7.1647797E+00;  0.0000000E+00;  3.8886240E-01;0;  2.1498945E-02;  3.9826914E+04;  0.0000000E+00;  3.2929890E-04;  4.0000000E+04;  0.0000000E+00;  4.0008469E+04;  2.6024466E-02;  0.0000000E+00; -4.5255222E-03;  1.2411948E+03;
  3.1185791E-01;  9.9999998E-03;  3.9991956E-02;4371;  2.4565982E-02;  0.0000000E+00; -2.1249629E-04;  9.9803204E+02;  1.0000000E-01; -1.6304230E+03;3; -7.1047487E+00;  0.0000000E+00;  5.1536596E-01;0;  2.1599777E-02;  3.9838305E+04;  0.0000000E+00; -2.6491047E-03;  4.0000000E+04;  0.0000000E+00;  4.0006879E+04;  2.6545878E-02;  0.0000000E+00; -4.9461015E-03;  9.9562488E+02;
  3.1184530E-01;  9.9999998E-03;  4.9986843E-02;4372;  2.4400840E-02;  0.0000000E+00; -3.0045654E-04;  9.9817920E+02;  1.0000000E-01; -1.5085005E+03;3; -7.0268860E+00;  0.0000000E+00;  6.4258415E-01;0;  2.1557666E-02;  3.9852113E+04;  0.0000000E+00; -9.9019175E-03;  4.0000000E+04;  0.0000000E+00;  4.0004531E+04;  2.6971934E-02;  0.0000000E+00; -5.4142671E-03;  7.1461169E+02;
  3.1182641E-01;  9.9999998E-03;  5.9983265E-02;4373;  2.4195755E-02;  0.0000000E+00; -4.0347810E-04;  9.9834705E+02;  1.0000000E-01; -1.3694427E+03;3; -6.9197812E+00;  0.0000000E+00;  7.7229750E-01;0;  2.1270461E-02;  3.9867867E+04;  0.0000000E+00; -2.2905812E-02;  4.0000000E+04;  0.0000000E+00;  4.0002273E+04;  2.7160397E-02;  0.0000000E+00; -5.8899354E-03;  4.2825528E+02;
  3.2196409E-01;  9.9999998E-03; -1.0000596E-02;4427;  2.4519311E-02;  0.0000000E+00;  1.7885025E-06;  9.9787622E+02;  1.0000000E-01; -1.7595056E+03;3; -7.2882166E+00;  0.0000000E+00; -1.3348626E-01;0;  9.7108949E-03;  3.9820980E+04;  0.0000000E+00;  7.5150956E-04;  4.0000000E+04;  0.0000000E+00;  4.0011426E+04;  1.0935522E-02;  0.0000000E+00; -1.2246266E-03;  1.6178757E+03;
  3.2196489E-01;  9.9999998E-03;  6.7060274E-10;4428;  2.4533909E-02;  0.0000000E+00;  3.5630880E-09;  9.9786176E+02;  1.0000000E-01; -1.7715054E+03;3; -7.2961073E+00;  0.0000000E+00;  8.7421759E-06;0;  9.6567348E-03;  3.9819531E+04;  0.0000000E+00;  1.3027617E-12;  4.0000000E+04;  0.0000000E+00;  4.0011789E+04;  1.0797677E-02;  0.0000000E+00; -1.1409416E-03;  1.6490782E+03;
  3.2196409E-01;  9.9999998E-03;  1.0000598E-02;4429;  2.4519311E-02;  0.0000000E+00; -1.7815292E-06;  9.9787622E+02;  1.0000000E-01; -1.7595056E+03;3; -7.2882390E+00;  0.0000000E+00;  1.3349821E-01;0;  9.7108632E-03;  3.9820980E+04;  0.0000000E+00;  7.5155403E-04;  4.0000000E+04;  0.0000000E+00;  4.0011426E+04;  1.0935487E-02;  0.0000000E+00; -1.2246239E-03;  1.6178792E+03;
  3.2196146E-01;  9.9999998E-03; -1.9999454E-02;4426;  2.4475068E-02;  0.0000000E+00;  8.9874429E-06;  9.9792334E+02;  1.0000000E-01; -1.7204944E+03;3; -7.2652726E+00;  0.0000000E+00; -2.7093422E-01;0;  9.8584928E-03;  3.9825457E+04;  0.0000000E+00;  2.5302672E-03;  4.0000000E+04;  0.0000000E+00;  4.0010770E+04;  1.1326646E-02;  0.0000000E+00; -1.4681526E-03;  1.5246021E+03;
  3.2196146E-01;  9.9999998E-03;  1.9999454E-02;4430;  2.4475068E-02;  0.0000000E+00; -8.9803780E-06;  9.9792334E+02;  1.0000000E-01; -1.7204944E+03;3; -7.2652736E+00;  0.0000000E+00;  2.7094853E-01;0;  9.8584732E-03;  3.9825457E+04;  0.0000000E+00;  2.5304742E-03;  4.0000000E+04;  0.0000000E+00;  4.0010770E+04;  1.1326618E-02;  0.0000000E+00; -1.4681440E-03;  1.5246028E+03;
  3.2195580E-01;  9.9999998E-03; -2.9996840E-02;4425;  2.4400033E-02;  0.0000000E+00;  2.7312562E-05;  9.9799994E+02;  1.0000000E-01; -1.6569900E+03;3; -7.2213364E+00;  0.0000000E+00; -3.9944455E-01;0;  1.0057078E-02;  3.9832824E+04;  0.0000000E+00;  4.0077027E-03;  4.0000000E+04;  0.0000000E+00;  4.0009652E+04;  1.1907335E-02;  0.0000000E+00; -1.8502574E-03;  1.3717605E+03;
  3.2195580E-01;  9.9999998E-03;  2.9996840E-02;4431;  2.4400033E-02;  0.0000000E+00; -2.7305576E-05;  9.9799994E+02;  1.0000000E-01; -1.6569900E+03;3; -7.2213693E+00;  0.0000000E+00;  3.9944917E-01;0;  1.0057052E-02;  3.9832820E+04;  0.0000000E+00;  4.0077325E-03;  4.0000000E+04;  0.0000000E+00;  4.0009652E+04;  1.1907296E-02;  0.0000000E+00; -1.8502449E-03;  1.3717706E+03;
  3.2194576E-01;  9.9999998E-03; -3.9992906E-02;4424;  2.4292137E-02;  0.0000000E+00;  6.0877519E-05;  9.9809961E+02;  1.0000000E-01; -1.5744244E+03;3; -7.1569672E+00;  0.0000000E+00; -5.1765007E-01;0;  1.0240000E-02;  3.9842570E+04;  0.0000000E+00;  3.2622353E-03;  4.0000000E+04;  0.0000000E+00;  4.0008012E+04;  1.2578581E-02;  0.0000000E+00; -2.3385820E-03;  1.1663195E+03;
  3.2194576E-01;  9.9999998E-03;  3.9992906E-02;4432;  2.4292136E-02;  0.0000000E+00; -6.0870298E-05;  9.9809955E+02;  1.0000000E-01; -1.5744739E+03;3; -7.1570182E+00;  0.0000000E+00;  5.1765722E-01;0;  1.0239959E-02;  3.9842574E+04;  0.0000000E+00;  3.2615359E-03;  4.0000000E+04;  0.0000000E+00;  4.0008012E+04;  1.2578526E-02;  0.0000000E+00; -2.3385664E-03;  1.1663390E+03;
  3.2192984E-01;  9.9999998E-03; -4.9988091E-02;4423;  2.4148826E-02;  0.0000000E+00;  1.1094012E-04;  9.9822925E+02;  1.0000000E-01; -1.4670201E+03;3; -7.0702696E+00;  0.0000000E+00; -6.3410950E-01;0;  1.0323012E-02;  3.9854844E+04;  0.0000000E+00; -1.8563726E-03;  4.0000000E+04;  0.0000000E+00;  4.0006203E+04;  1.3216891E-02;  0.0000000E+00; -2.8938791E-03;  9.2147699E+02;
  3.2192984E-01;  9.9999998E-03;  4.9988091E-02;4433;  2.4148826E-02;  0.0000000E+00; -1.1093289E-04;  9.9822919E+02;  1.0000000E-01; -1.4670695E+03;3; -7.0702767E+00;  0.0000000E+00;  6.3410956E-01;0;  1.0323001E-02;  3.9854844E+04;  0.0000000E+00; -1.8553338E-03;  4.0000000E+04;  0.0000000E+00;  4.0006207E+04;  1.3216857E-02;  0.0000000E+00; -2.8938560E-03;  9.2149054E+02;
  3.2190940E-01;  9.9999998E-03; -5.9983417E-02;4422;  2.3967026E-02;  0.0000000E+00;  1.7735179E-04;  9.9837689E+02;  1.0000000E-01; -1.3447026E+03;3; -6.9655213E+00;  0.0000000E+00; -7.4565011E-01;0;  1.0210490E-02;  3.9868566E+04;  0.0000000E+00; -1.3294762E-02;  4.0000000E+04;  0.0000000E+00;  4.0004039E+04;  1.3684481E-02;  0.0000000E+00; -3.4739915E-03;  6.5767010E+02;
  3.2190940E-01;  9.9999998E-03;  5.9983421E-02;4434;  2.3967028E-02;  0.0000000E+00; -1.7734493E-04;  9.9837689E+02;  1.0000000E-01; -1.3447026E+03;3; -6.9655399E+00;  0.0000000E+00;  7.4565458E-01;0;  1.0210455E-02;  3.9868566E+04;  0.0000000E+00; -1.3293910E-02;  4.0000000E+04;  0.0000000E+00;  4.0004039E+04;  1.3684424E-02;  0.0000000E+00; -3.4739682E-03;  6.5768140E+02;
  3.2188824E-01;  9.9999998E-03; -6.9979414E-02;4421;  2.3744838E-02;  0.0000000E+00;  2.5787161E-04;  9.9853571E+02;  1.0000000E-01; -1.2131508E+03;3; -6.8524241E+00;  0.0000000E+00; -8.5068804E-01;0;  9.8067205E-03;  3.9883203E+04;  0.0000000E+00; -3.2349464E-02;  4.0000000E+04;  0.0000000E+00;  4.0002191E+04;  1.3845074E-02;  0.0000000E+00; -4.0383539E-03;  4.0262411E+02;
  3.2186508E-01;  9.9999998E-03; -7.9976931E-02;4420;  2.3482226E-02;  0.0000000E+00;  3.4935048E-04;  9.9870056E+02;  1.0000000E-01; -1.0765620E+03;3; -6.7228732E+00;  0.0000000E+00; -9.5715731E-01;0;  9.0366714E-03;  3.9898191E+04;  0.0000000E+00; -5.9262250E-02;  4.0000000E+04;  0.0000000E+00;  4.0000656E+04;  1.3590050E-02;  0.0000000E+00; -4.5533790E-03;  1.9721449E+02;
  3.2183591E-01;  9.9999998E-03; -8.9978471E-02;4419;  2.3181222E-02;  0.0000000E+00;  4.4811890E-04;  9.9886145E+02;  1.0000000E-01; -9.4328192E+02;3; -6.5783663E+00;  0.0000000E+00; -1.0582128E+00;0;  7.8558680E-03;  3.9912395E+04;  0.0000000E+00; -9.2852078E-02;  4.0000000E+04;  0.0000000E+00;  3.9999555E+04;  1.2849450E-02;  0.0000000E+00; -4.9935826E-03;  1.3375549E+02;
  3.2179821E-01;  9.9999998E-03; -9.9984750E-02;4418;  2.2846399E-02;  0.0000000E+00;  5.5077753E-04;  9.9900897E+02;  1.0000000E-01; -8.2106311E+02;3; -6.4273839E+00;  0.0000000E+00; -1.1535956E+00;0;  6.2566032E-03;  3.9924812E+04;  0.0000000E+00; -1.3014559E-01;  4.0000000E+04;  0.0000000E+00;  3.9998984E+04;  1.1598022E-02;  0.0000000E+00; -5.3414186E-03;  1.9169478E+02;
  3.3190593E-01;  9.9999998E-03; -9.9972531E-02;4479;  2.2676496E-02;  0.0000000E+00;  1.8777070E-04;  9.9903772E+02;  1.0000000E-01; -7.9721198E+02;3; -6.4540873E+00;  0.0000000E+00; -1.1056745E+00;0; -2.1344712E-03;  3.9926281E+04;  0.0000000E+00; -1.1322768E-01;  4.0000000E+04;  0.0000000E+00;  4.0000004E+04;  1.0024939E-03;  0.0000000E+00; -3.1369650E-03;  1.7660600E+02;
  3.3194172E-01;  9.9999998E-03; -8.9970380E-02;4480;  2.2993105E-02;  0.0000000E+00;  1.1345627E-04;  9.9891455E+02;  1.0000000E-01; -8.9928314E+02;3; -6.6094899E+00;  0.0000000E+00; -1.0205685E+00;0; -9.0907770E-04;  3.9915391E+04;  0.0000000E+00; -7.2234176E-02;  4.0000000E+04;  0.0000000E+00;  4.0000828E+04;  1.7085851E-03;  0.0000000E+00; -2.6176628E-03;  2.2049416E+02;
  3.3196563E-01;  9.9999998E-03; -7.9971738E-02;4481;  2.3272619E-02;  0.0000000E+00;  4.5314013E-05;  9.9878351E+02;  1.0000000E-01; -1.0078232E+03;3; -6.7549071E+00;  0.0000000E+00; -9.3343353E-01;0; -3.0098716E-05;  3.9903387E+04;  0.0000000E+00; -3.8429465E-02;  4.0000000E+04;  0.0000000E+00;  4.0002234E+04;  1.9893956E-03;  0.0000000E+00; -2.0194943E-03;  3.8607651E+02;
  3.3197948E-01;  9.9999998E-03; -6.9975659E-02;4482;  2.3511954E-02;  0.0000000E+00; -1.4090267E-05;  9.9864941E+02;  1.0000000E-01; -1.1189313E+03;3; -6.8886256E+00;  0.0000000E+00; -8.5231245E-01;0;  5.1398145E-04;  3.9891051E+04;  0.0000000E+00; -1.3619646E-02;  4.0000000E+04;  0.0000000E+00;  4.0003996E+04;  1.8774618E-03;  0.0000000E+00; -1.3634803E-03;  6.0919299E+02;
  3.3198610E-01;  9.9999998E-03; -5.9981219E-02;4483;  2.3710381E-02;  0.0000000E+00; -6.2107210E-05;  9.9852454E+02;  1.0000000E-01; -1.2223851E+03;3; -7.0078988E+00;  0.0000000E+00; -7.7175653E-01;0;  7.6470670E-04;  3.9878688E+04;  0.0000000E+00;  2.0279330E-03;  4.0000000E+04;  0.0000000E+00;  4.0005750E+04;  1.4427184E-03;  0.0000000E+00; -6.7801174E-04;  8.4933978E+02;
  3.3198839E-01;  9.9999998E-03; -4.9987305E-02;4484;  2.3869269E-02;  0.0000000E+00; -9.6320320E-05;  9.9840540E+02;  1.0000000E-01; -1.3210984E+03;3; -7.1137056E+00;  0.0000000E+00; -6.9082969E-01;0;  7.8589126E-04;  3.9867637E+04;  0.0000000E+00;  9.5700538E-03;  4.0000000E+04;  0.0000000E+00;  4.0007633E+04;  7.8383862E-04;  0.0000000E+00;  2.0526145E-06;  1.0802623E+03;
  3.3198911E-01;  9.9999998E-03; -3.9992794E-02;4485;  2.3991255E-02;  0.0000000E+00; -1.1424679E-04;  9.9830511E+02;  1.0000000E-01; -1.4041577E+03;3; -7.2055035E+00;  0.0000000E+00; -5.9727198E-01;0;  6.5361563E-04;  3.9857906E+04;  0.0000000E+00;  1.0914443E-02;  4.0000000E+04;  0.0000000E+00;  4.0009289E+04;  1.6273951E-05;  0.0000000E+00;  6.3734170E-04;  1.2834308E+03;
  3.3198974E-01;  9.9999998E-03; -2.9997006E-02;4486;  2.4079971E-02;  0.0000000E+00; -1.1429859E-04;  9.9822406E+02;  1.0000000E-01; -1.4713163E+03;3; -7.2873325E+00;  0.0000000E+00; -4.9309543E-01;0;  4.4716493E-04;  3.9850004E+04;  0.0000000E+00;  8.4264167E-03;  4.0000000E+04;  0.0000000E+00;  4.0010383E+04; -7.3968695E-04;  0.0000000E+00;  1.1868519E-03;  1.4469457E+03;
  3.3199057E-01;  9.9999998E-03; -1.9999580E-02;4487;  2.4139011E-02;  0.0000000E+00; -9.3354640E-05;  9.9816345E+02;  1.0000000E-01; -1.5215371E+03;3; -7.3550262E+00;  0.0000000E+00; -3.3528042E-01;0;  2.3965421E-04;  3.9844336E+04;  0.0000000E+00;  4.5179459E-03;  4.0000000E+04;  0.0000000E+00;  4.0011219E+04; -1.3723733E-03;  0.0000000E+00;  1.6120275E-03;  1.5647285E+03;
  3.3199129E-01;  9.9999998E-03; -1.0000433E-02;4488;  2.4172382E-02;  0.0000000E+00; -5.2511783E-05;  9.9812573E+02;  1.0000000E-01; -1.5527955E+03;3; -7.3932323E+00;  0.0000000E+00; -1.6786574E-01;0;  8.9877518E-05;  3.9840738E+04;  0.0000000E+00;  1.2500427E-03;  4.0000000E+04;  0.0000000E+00;  4.0011750E+04; -1.7912535E-03;  0.0000000E+00;  1.8811310E-03;  1.6350409E+03;
  3.3199158E-01;  9.9999998E-03;  6.4776634E-10;4489;  2.4183135E-02;  0.0000000E+00;  3.3136833E-09;  9.9811438E+02;  1.0000000E-01; -1.5621780E+03;3; -7.4052753E+00;  0.0000000E+00;  4.3697364E-06;0;  3.5578851E-05;  3.9839574E+04;  0.0000000E+00;  1.3371706E-12;  4.0000000E+04;  0.0000000E+00;  4.0011930E+04; -1.9376790E-03;  0.0000000E+00;  1.9732579E-03;  1.6583468E+03;
  3.3199129E-01;  9.9999998E-03;  1.0000435E-02;4490;  2.4172381E-02;  0.0000000E+00;  5.2518189E-05;  9.9812573E+02;  1.0000000E-01; -1.5527955E+03;3; -7.3932414E+00;  0.0000000E+00;  1.6787386E-01;0;  8.9870649E-05;  3.9840738E+04;  0.0000000E+00;  1.2500460E-03;  4.0000000E+04;  0.0000000E+00;  4.0011750E+04; -1.7912610E-03;  0.0000000E+00;  1.8811317E-03;  1.6350446E+03;
  3.3199057E-01;  9.9999998E-03;  1.9999582E-02;4491;  2.4139011E-02;  0.0000000E+00;  9.3361508E-05;  9.9816339E+02;  1.0000000E-01; -1.5215864E+03;3; -7.3550148E+00;  0.0000000E+00;  3.3529082E-01;0;  2.3965584E-04;  3.9844332E+04;  0.0000000E+00;  4.5177713E-03;  4.0000000E+04;  0.0000000E+00;  4.0011215E+04; -1.3723803E-03;  0.0000000E+00;  1.6120361E-03;  1.5647288E+03;
  3.3198974E-01;  9.9999998E-03;  2.9997008E-02;4492;  2.4079969E-02;  0.0000000E+00;  1.1430544E-04;  9.9822406E+02;  1.0000000E-01; -1.4713163E+03;3; -7.2873588E+00;  0.0000000E+00;  4.9310306E-01;0;  4.4715515E-04;  3.9850004E+04;  0.0000000E+00;  8.4260702E-03;  4.0000000E+04;  0.0000000E+00;  4.0010383E+04; -7.3970802E-04;  0.0000000E+00;  1.1868632E-03;  1.4469520E+03;
  3.3198911E-01;  9.9999998E-03;  3.9992794E-02;4493;  2.3991253E-02;  0.0000000E+00;  1.1425378E-04;  9.9830511E+02;  1.0000000E-01; -1.4041577E+03;3; -7.2054944E+00;  0.0000000E+00;  5.9727675E-01;0;  6.5360067E-04;  3.9857902E+04;  0.0000000E+00;  1.0913959E-02;  4.0000000E+04;  0.0000000E+00;  4.0009297E+04;  1.6241358E-05;  0.0000000E+00;  6.3735934E-04;  1.2834353E+03;
  3.3198839E-01;  9.9999998E-03;  4.9987309E-02;4494;  2.3869267E-02;  0.0000000E+00;  9.6327341E-05;  9.9840540E+02;  1.0000000E-01; -1.3210984E+03;3; -7.1136861E+00;  0.0000000E+00;  6.9082981E-01;0;  7.8587403E-04;  3.9867637E+04;  0.0000000E+00;  9.5694810E-03;  4.0000000E+04;  0.0000000E+00;  4.0007633E+04;  7.8379939E-04;  0.0000000E+00;  2.0746265E-06;  1.0802745E+03;
  3.3198610E-01;  9.9999998E-03;  5.9981219E-02;4495;  2.3710379E-02;  0.0000000E+00;  6.2114930E-05;  9.9852460E+02;  1.0000000E-01; -1.2223357E+03;3; -7.0079265E+00;  0.0000000E+00;  7.7176178E-01;0;  7.6469366E-04;  3.9878688E+04;  0.0000000E+00;  2.0269156E-03;  4.0000000E+04;  0.0000000E+00;  4.0005750E+04;  1.4426754E-03;  0.0000000E+00; -6.7798170E-04;  8.4934521E+02;
  3.4196314E-01;  9.9999998E-03; -9.9964723E-02;4540;  2.2484539E-02;  0.0000000E+00; -1.8966204E-04;  9.9912604E+02;  1.0000000E-01; -7.2407825E+02;3; -6.4797349E+00;  0.0000000E+00; -1.0829585E+00;0; -8.9149028E-03;  3.9932039E+04;  0.0000000E+00; -8.2214735E-02;  4.0000000E+04;  0.0000000E+00;  4.0001086E+04; -8.2650520E-03;  0.0000000E+00; -6.4985082E-04;  2.4169476E+02;
  3.4196913E-01;  9.9999998E-03; -8.9966938E-02;4541;  2.2783186E-02;  0.0000000E+00; -2.3530120E-04;  9.9903796E+02;  1.0000000E-01; -7.9701447E+02;3; -6.6333647E+00;  0.0000000E+00; -1.0138379E+00;0; -7.9602767E-03;  3.9923531E+04;  0.0000000E+00; -4.2291343E-02;  4.0000000E+04;  0.0000000E+00;  4.0002254E+04; -8.0053760E-03;  0.0000000E+00;  4.5099136E-05;  3.7294980E+02;
  3.4197325E-01;  9.9999998E-03; -7.9971217E-02;4542;  2.3042150E-02;  0.0000000E+00; -2.7475582E-04;  9.9894122E+02;  1.0000000E-01; -8.7716034E+02;3; -6.7797537E+00;  0.0000000E+00; -9.4653112E-01;0; -7.2879624E-03;  3.9914305E+04;  0.0000000E+00; -1.2058007E-02;  4.0000000E+04;  0.0000000E+00;  4.0003840E+04; -8.0931662E-03;  0.0000000E+00;  8.0520363E-04;  5.6680872E+02;
  3.4197682E-01;  9.9999998E-03; -6.9976874E-02;4543;  2.3259470E-02;  0.0000000E+00; -3.0549927E-04;  9.9884558E+02;  1.0000000E-01; -9.5641730E+02;3; -6.9185128E+00;  0.0000000E+00; -8.8136882E-01;0; -6.8880208E-03;  3.9904863E+04;  0.0000000E+00;  7.8000841E-03;  4.0000000E+04;  0.0000000E+00;  4.0005590E+04; -8.4942207E-03;  0.0000000E+00;  1.6061997E-03;  7.8308331E+02;
  3.4198084E-01;  9.9999998E-03; -5.9982941E-02;4544;  2.3434903E-02;  0.0000000E+00; -3.2403538E-04;  9.9875293E+02;  1.0000000E-01; -1.0331559E+03;3; -7.0439768E+00;  0.0000000E+00; -7.9841757E-01;0; -6.7256577E-03;  3.9895719E+04;  0.0000000E+00;  1.8064857E-02;  4.0000000E+04;  0.0000000E+00;  4.0007211E+04; -9.1427462E-03;  0.0000000E+00;  2.4170883E-03;  9.9572528E+02;
  3.4198499E-01;  9.9999998E-03; -4.9988844E-02;4545;  2.3570241E-02;  0.0000000E+00; -3.2498402E-04;  9.9866968E+02;  1.0000000E-01; -1.1021416E+03;3; -7.1650572E+00;  0.0000000E+00; -6.9269121E-01;0; -6.7471359E-03;  3.9887660E+04;  0.0000000E+00;  2.0541258E-02;  4.0000000E+04;  0.0000000E+00;  4.0008586E+04; -9.9482080E-03;  0.0000000E+00;  3.2010721E-03;  1.1869034E+03;
  3.4198952E-01;  9.9999998E-03; -3.9993852E-02;4546;  2.3669180E-02;  0.0000000E+00; -3.0309748E-04;  9.9859961E+02;  1.0000000E-01; -1.1602140E+03;3; -7.2646127E+00;  0.0000000E+00; -5.6142300E-01;0; -6.8890462E-03;  3.9880855E+04;  0.0000000E+00;  1.7641183E-02;  4.0000000E+04;  0.0000000E+00;  4.0010039E+04; -1.0807315E-02;  0.0000000E+00;  3.9182687E-03;  1.3457173E+03;
  3.4199399E-01;  9.9999998E-03; -2.9997585E-02;4547;  2.3737581E-02;  0.0000000E+00; -2.5524493E-04;  9.9854596E+02;  1.0000000E-01; -1.2046572E+03;3; -7.3427300E+00;  0.0000000E+00; -4.2045122E-01;0; -7.0853201E-03;  3.9875473E+04;  0.0000000E+00;  1.1980117E-02;  4.0000000E+04;  0.0000000E+00;  4.0010742E+04; -1.1613706E-02;  0.0000000E+00;  4.5283861E-03;  1.4671985E+03;
  3.4199733E-01;  9.9999998E-03; -1.9999813E-02;4548;  2.3780774E-02;  0.0000000E+00; -1.8500960E-04;  9.9850543E+02;  1.0000000E-01; -1.2382365E+03;3; -7.4002924E+00;  0.0000000E+00; -2.9205200E-01;0; -7.2749523E-03;  3.9871496E+04;  0.0000000E+00;  5.9922030E-03;  4.0000000E+04;  0.0000000E+00;  4.0011359E+04; -1.2269382E-02;  0.0000000E+00;  4.9944301E-03;  1.5510475E+03;
  3.4199986E-01;  9.9999998E-03; -1.0000328E-02;4549;  2.3803951E-02;  0.0000000E+00; -9.7821743E-05;  9.9848224E+02;  1.0000000E-01; -1.2574458E+03;3; -7.4341707E+00;  0.0000000E+00; -1.6329515E-01;0; -7.4098855E-03;  3.9869234E+04;  0.0000000E+00;  1.5988467E-03;  4.0000000E+04;  0.0000000E+00;  4.0011734E+04; -1.2696940E-02;  0.0000000E+00;  5.2870540E-03;  1.5995051E+03;
  3.4200054E-01;  9.9999998E-03;  6.8256611E-10;4550;  2.3811087E-02;  0.0000000E+00;  3.0489022E-09;  9.9847394E+02;  1.0000000E-01; -1.2643098E+03;3; -7.4436140E+00;  0.0000000E+00;  3.0399387E-06;0; -7.4583539E-03;  3.9868418E+04;  0.0000000E+00;  1.7100930E-12;  4.0000000E+04;  0.0000000E+00;  4.0011875E+04; -1.2845110E-02;  0.0000000E+00;  5.3867563E-03;  1.6152684E+03;
  3.4199986E-01;  9.9999998E-03;  1.0000329E-02;4551;  2.3803951E-02;  0.0000000E+00;  9.7828015E-05;  9.9848230E+02;  1.0000000E-01; -1.2573965E+03;3; -7.4341936E+00;  0.0000000E+00;  1.6330111E-01;0; -7.4098874E-03;  3.9869234E+04;  0.0000000E+00;  1.5986420E-03;  4.0000000E+04;  0.0000000E+00;  4.0011734E+04; -1.2696946E-02;  0.0000000E+00;  5.2870587E-03;  1.5995138E+03;
  3.4199733E-01;  9.9999998E-03;  1.9999815E-02;4552;  2.3780772E-02;  0.0000000E+00;  1.8501576E-04;  9.9850543E+02;  1.0000000E-01; -1.2382365E+03;3; -7.4003558E+00;  0.0000000E+00;  2.9205465E-01;0; -7.2749685E-03;  3.9871496E+04;  0.0000000E+00;  5.9916968E-03;  4.0000000E+04;  0.0000000E+00;  4.0011359E+04; -1.2269398E-02;  0.0000000E+00;  4.9944296E-03;  1.5510469E+03;
  3.4199399E-01;  9.9999998E-03;  2.9997587E-02;4553;  2.3737576E-02;  0.0000000E+00;  2.5525110E-04;  9.9854602E+02;  1.0000000E-01; -1.2046078E+03;3; -7.3427377E+00;  0.0000000E+00;  4.2045569E-01;0; -7.0853299E-03;  3.9875480E+04;  0.0000000E+00;  1.1979727E-02;  4.0000000E+04;  0.0000000E+00;  4.0010742E+04; -1.1613725E-02;  0.0000000E+00;  4.5283949E-03;  1.4672047E+03;
  3.4198952E-01;  9.9999998E-03;  3.9993852E-02;4554;  2.3669176E-02;  0.0000000E+00;  3.0310417E-04;  9.9859955E+02;  1.0000000E-01; -1.1602634E+03;3; -7.2646103E+00;  0.0000000E+00;  5.6142265E-01;0; -6.8890657E-03;  3.9880855E+04;  0.0000000E+00;  1.7641162E-02;  4.0000000E+04;  0.0000000E+00;  4.0010039E+04; -1.0807345E-02;  0.0000000E+00;  3.9182790E-03;  1.3457188E+03;
  3.4198499E-01;  9.9999998E-03;  4.9988844E-02;4555;  2.3570238E-02;  0.0000000E+00;  3.2499080E-04;  9.9866974E+02;  1.0000000E-01; -1.1020922E+03;3; -7.1650553E+00;  0.0000000E+00;  6.9269121E-01;0; -6.7471601E-03;  3.9887660E+04;  0.0000000E+00;  2.0540440E-02;  4.0000000E+04;  0.0000000E+00;  4.0008586E+04; -9.9482508E-03;  0.0000000E+00;  3.2010905E-03;  1.1869166E+03;
  3.4198084E-01;  9.9999998E-03;  5.9982941E-02;4556;  2.3434903E-02;  0.0000000E+00;  3.2404295E-04;  9.9875293E+02;  1.0000000E-01; -1.0331559E+03;3; -7.0439868E+00;  0.0000000E+00;  7.9842019E-01;0; -6.7256587E-03;  3.9895715E+04;  0.0000000E+00;  1.8063877E-02;  4.0000000E+04;  0.0000000E+00;  4.0007211E+04; -9.1427732E-03;  0.0000000E+00;  2.4171143E-03;  9.9572766E+02;
  3.5193375E-01;  9.9999998E-03; -9.9964395E-02;4601;  2.2271192E-02;  0.0000000E+00; -5.8696099E-04;  9.9924402E+02;  1.0000000E-01; -6.2630322E+02;3; -6.5016451E+00;  0.0000000E+00; -1.0757498E+00;0; -1.4060801E-02;  3.9939945E+04;  0.0000000E+00; -4.3886684E-02;  4.0000000E+04;  0.0000000E+00;  4.0002367E+04; -1.6124349E-02;  0.0000000E+00;  2.0635482E-03;  3.6798087E+02;
  3.5194016E-01;  9.9999998E-03; -8.9967556E-02;4602;  2.2551946E-02;  0.0000000E+00; -6.0568802E-04;  9.9919147E+02;  1.0000000E-01; -6.6985754E+02;3; -6.6643705E+00;  0.0000000E+00; -1.0045927E+00;0; -1.3302208E-02;  3.9934320E+04;  0.0000000E+00; -9.2097670E-03;  4.0000000E+04;  0.0000000E+00;  4.0003797E+04; -1.6252194E-02;  0.0000000E+00;  2.9499854E-03;  5.3329712E+02;
  3.5194716E-01;  9.9999998E-03; -7.9972073E-02;4603;  2.2790020E-02;  0.0000000E+00; -6.1476469E-04;  9.9913196E+02;  1.0000000E-01; -7.1914008E+02;3; -6.8190222E+00;  0.0000000E+00; -9.1531086E-01;0; -1.2759955E-02;  3.9928156E+04;  0.0000000E+00;  1.4425228E-02;  4.0000000E+04;  0.0000000E+00;  4.0005324E+04; -1.6644228E-02;  0.0000000E+00;  3.8842738E-03;  7.2570496E+02;
  3.5195529E-01;  9.9999998E-03; -6.9977403E-02;4604;  2.2984974E-02;  0.0000000E+00; -6.0972746E-04;  9.9907471E+02;  1.0000000E-01; -7.6659552E+02;3; -6.9604373E+00;  0.0000000E+00; -8.2320625E-01;0; -1.2428135E-02;  3.9921801E+04;  0.0000000E+00;  2.7368119E-02;  4.0000000E+04;  0.0000000E+00;  4.0006820E+04; -1.7265866E-02;  0.0000000E+00;  4.8377309E-03;  9.1882788E+02;
  3.5196462E-01;  9.9999998E-03; -5.9983000E-02;4605;  2.3137148E-02;  0.0000000E+00; -5.8676070E-04;  9.9902301E+02;  1.0000000E-01; -8.0940912E+02;3; -7.0944328E+00;  0.0000000E+00; -7.2099602E-01;0; -1.2281662E-02;  3.9916059E+04;  0.0000000E+00;  3.1257499E-02;  4.0000000E+04;  0.0000000E+00;  4.0008047E+04; -1.8058129E-02;  0.0000000E+00;  5.7764668E-03;  1.0943750E+03;
  3.5197461E-01;  9.9999998E-03; -4.9988262E-02;4606;  2.3250600E-02;  0.0000000E+00; -5.4031733E-04;  9.9897479E+02;  1.0000000E-01; -8.4935864E+02;3; -7.2102189E+00;  0.0000000E+00; -6.0419548E-01;0; -1.2280815E-02;  3.9911148E+04;  0.0000000E+00;  2.8504349E-02;  4.0000000E+04;  0.0000000E+00;  4.0009219E+04; -1.8943651E-02;  0.0000000E+00;  6.6628354E-03;  1.2410820E+03;
  3.5198390E-01;  9.9999998E-03; -3.9992958E-02;4607;  2.3330232E-02;  0.0000000E+00; -4.6973015E-04;  9.9893726E+02;  1.0000000E-01; -8.8046887E+02;3; -7.3087974E+00;  0.0000000E+00; -4.9288037E-01;0; -1.2376767E-02;  3.9907320E+04;  0.0000000E+00;  2.1822505E-02;  4.0000000E+04;  0.0000000E+00;  4.0010066E+04; -1.9834155E-02;  0.0000000E+00;  7.4573890E-03;  1.3542865E+03;
  3.5199100E-01;  9.9999998E-03; -2.9996825E-02;4608;  2.3382161E-02;  0.0000000E+00; -3.7789339E-04;  9.9890839E+02;  1.0000000E-01; -9.0436945E+02;3; -7.3866005E+00;  0.0000000E+00; -3.8359806E-01;0; -1.2518249E-02;  3.9904434E+04;  0.0000000E+00;  1.3807417E-02;  4.0000000E+04;  0.0000000E+00;  4.0010863E+04; -2.0640196E-02;  0.0000000E+00;  8.1219468E-03;  1.4345284E+03;
  3.5199556E-01;  9.9999998E-03; -1.9999344E-02;4609;  2.3413591E-02;  0.0000000E+00; -2.6631056E-04;  9.9888776E+02;  1.0000000E-01; -9.2145532E+02;3; -7.4400301E+00;  0.0000000E+00; -2.5663406E-01;0; -1.2658110E-02;  3.9902320E+04;  0.0000000E+00;  6.6043278E-03;  4.0000000E+04;  0.0000000E+00;  4.0011188E+04; -2.1281263E-02;  0.0000000E+00;  8.6231530E-03;  1.4858600E+03;
  3.5199758E-01;  9.9999998E-03; -1.0000300E-02;4610;  2.3430167E-02;  0.0000000E+00; -1.3576573E-04;  9.9887842E+02;  1.0000000E-01; -9.2920819E+02;3; -7.4747329E+00;  0.0000000E+00; -1.1773892E-01;0; -1.2758288E-02;  3.9901344E+04;  0.0000000E+00;  1.7184964E-03;  4.0000000E+04;  0.0000000E+00;  4.0011312E+04; -2.1693094E-02;  0.0000000E+00;  8.9348061E-03;  1.5136038E+03;
  3.5199782E-01;  9.9999998E-03;  7.4197781E-10;4611;  2.3435161E-02;  0.0000000E+00;  3.2013150E-09;  9.9887524E+02;  1.0000000E-01; -9.3182544E+02;3; -7.4913654E+00;  0.0000000E+00;  9.9742101E-07;0; -1.2794364E-02;  3.9901078E+04;  0.0000000E+00;  2.7637929E-13;  4.0000000E+04;  0.0000000E+00;  4.0011402E+04; -2.1834819E-02;  0.0000000E+00;  9.0404544E-03;  1.5222708E+03;
  3.5199758E-01;  9.9999998E-03;  1.0000302E-02;4612;  2.3430167E-02;  0.0000000E+00;  1.3577206E-04;  9.9887842E+02;  1.0000000E-01; -9.2920819E+02;3; -7.4747601E+00;  0.0000000E+00;  1.1774095E-01;0; -1.2758302E-02;  3.9901344E+04;  0.0000000E+00;  1.7183305E-03;  4.0000000E+04;  0.0000000E+00;  4.0011312E+04; -2.1693110E-02;  0.0000000E+00;  8.9348089E-03;  1.5136112E+03;
  3.5199556E-01;  9.9999998E-03;  1.9999346E-02;4613;  2.3413591E-02;  0.0000000E+00;  2.6631690E-04;  9.9888776E+02;  1.0000000E-01; -9.2145532E+02;3; -7.4400110E+00;  0.0000000E+00;  2.5663504E-01;0; -1.2658108E-02;  3.9902320E+04;  0.0000000E+00;  6.6038361E-03;  4.0000000E+04;  0.0000000E+00;  4.0011188E+04; -2.1281268E-02;  0.0000000E+00;  8.6231604E-03;  1.4858627E+03;
  3.5199100E-01;  9.9999998E-03;  2.9996827E-02;4614;  2.3382157E-02;  0.0000000E+00;  3.7789971E-04;  9.9890839E+02;  1.0000000E-01; -9.0436945E+02;3; -7.3865790E+00;  0.0000000E+00;  3.8359904E-01;0; -1.2518256E-02;  3.9904434E+04;  0.0000000E+00;  1.3806622E-02;  4.0000000E+04;  0.0000000E+00;  4.0010863E+04; -2.0640211E-02;  0.0000000E+00;  8.1219552E-03;  1.4345272E+03;
  3.5198390E-01;  9.9999998E-03;  3.9992962E-02;4615;  2.3330232E-02;  0.0000000E+00;  4.6973641E-04;  9.9893732E+02;  1.0000000E-01; -8.8041949E+02;3; -7.3088365E+00;  0.0000000E+00;  4.9288398E-01;0; -1.2376800E-02;  3.9907316E+04;  0.0000000E+00;  2.1821259E-02;  4.0000000E+04;  0.0000000E+00;  4.0010066E+04; -1.9834189E-02;  0.0000000E+00;  7.4573890E-03;  1.3542919E+03;
  3.5197461E-01;  9.9999998E-03;  4.9988266E-02;4616;  2.3250602E-02;  0.0000000E+00;  5.4032350E-04;  9.9897479E+02;  1.0000000E-01; -8.4935864E+02;3; -7.2102237E+00;  0.0000000E+00;  6.0419625E-01;0; -1.2280837E-02;  3.9911145E+04;  0.0000000E+00;  2.8504236E-02;  4.0000000E+04;  0.0000000E+00;  4.0009219E+04; -1.8943693E-02;  0.0000000E+00;  6.6628573E-03;  1.2410797E+03;
  3.5196462E-01;  9.9999998E-03;  5.9983000E-02;4617;  2.3137148E-02;  0.0000000E+00;  5.8676751E-04;  9.9902301E+02;  1.0000000E-01; -8.0940912E+02;3; -7.0944567E+00;  0.0000000E+00;  7.2099727E-01;0; -1.2281682E-02;  3.9916059E+04;  0.0000000E+00;  3.1256065E-02;  4.0000000E+04;  0.0000000E+00;  4.0008051E+04; -1.8058170E-02;  0.0000000E+00;  5.7764873E-03;  1.0943765E+03;
  3.6190349E-01;  9.9999998E-03; -9.9966317E-02;4662;  2.2030264E-02;  0.0000000E+00; -1.0049874E-03;  9.9936053E+02;  1.0000000E-01; -5.2976276E+02;3; -6.5314074E+00;  0.0000000E+00; -1.0246761E+00;0; -1.7751411E-02;  3.9947527E+04;  0.0000000E+00; -3.7986930E-03;  4.0000000E+04;  0.0000000E+00;  4.0003645E+04; -2.2737313E-02;  0.0000000E+00;  4.9859015E-03;  5.1940631E+02;
  3.6191204E-01;  9.9999998E-03; -8.9969993E-02;4663;  2.2293236E-02;  0.0000000E+00; -9.8915049E-04;  9.9933850E+02;  1.0000000E-01; -5.4803381E+02;3; -6.6908193E+00;  0.0000000E+00; -9.3996829E-01;0; -1.7093103E-02;  3.9944367E+04;  0.0000000E+00;  2.2397393E-02;  4.0000000E+04;  0.0000000E+00;  4.0005008E+04; -2.3163769E-02;  0.0000000E+00;  6.0706651E-03;  6.8502148E+02;
  3.6192253E-01;  9.9999998E-03; -7.9974309E-02;4664;  2.2512313E-02;  0.0000000E+00; -9.5788657E-04;  9.9931738E+02;  1.0000000E-01; -5.6551483E+02;3; -6.8454614E+00;  0.0000000E+00; -8.4944373E-01;0; -1.6590362E-02;  3.9941324E+04;  0.0000000E+00;  3.7425648E-02;  4.0000000E+04;  0.0000000E+00;  4.0006406E+04; -2.3773493E-02;  0.0000000E+00;  7.1831308E-03;  8.5620978E+02;
  3.6193505E-01;  9.9999998E-03; -6.9978848E-02;4665;  2.2687649E-02;  0.0000000E+00; -9.0687926E-04;  9.9929529E+02;  1.0000000E-01; -5.8383527E+02;3; -6.9896808E+00;  0.0000000E+00; -7.4886322E-01;0; -1.6244249E-02;  3.9938316E+04;  0.0000000E+00;  4.2553648E-02;  4.0000000E+04;  0.0000000E+00;  4.0007707E+04; -2.4534088E-02;  0.0000000E+00;  8.2898382E-03;  1.0140263E+03;
  3.6194849E-01;  9.9999998E-03; -5.9983205E-02;4666;  2.2821385E-02;  0.0000000E+00; -8.3431590E-04;  9.9927826E+02;  1.0000000E-01; -5.9795837E+02;3; -7.1201768E+00;  0.0000000E+00; -6.5253162E-01;0; -1.6041398E-02;  3.9935820E+04;  0.0000000E+00;  4.0088430E-02;  4.0000000E+04;  0.0000000E+00;  4.0008527E+04; -2.5395427E-02;  0.0000000E+00;  9.3540298E-03;  1.1456824E+03;
  3.6196062E-01;  9.9999998E-03; -4.9987551E-02;4667;  2.2917444E-02;  0.0000000E+00; -7.4127765E-04;  9.9926709E+02;  1.0000000E-01; -6.0719269E+02;3; -7.2374129E+00;  0.0000000E+00; -5.6693232E-01;0; -1.5956275E-02;  3.9934047E+04;  0.0000000E+00;  3.2789972E-02;  4.0000000E+04;  0.0000000E+00;  4.0009379E+04; -2.6293432E-02;  0.0000000E+00;  1.0337156E-02;  1.2452815E+03;
  3.6196974E-01;  9.9999998E-03; -3.9991852E-02;4668;  2.2982286E-02;  0.0000000E+00; -6.2678807E-04;  9.9925671E+02;  1.0000000E-01; -6.1578503E+02;3; -7.3327317E+00;  0.0000000E+00; -4.5058981E-01;0; -1.5955856E-02;  3.9933000E+04;  0.0000000E+00;  2.3363790E-02;  4.0000000E+04;  0.0000000E+00;  4.0009949E+04; -2.7157417E-02;  0.0000000E+00;  1.1201560E-02;  1.3129321E+03;
  3.6197552E-01;  9.9999998E-03; -2.9995706E-02;4669;  2.3023168E-02;  0.0000000E+00; -4.8854289E-04;  9.9925262E+02;  1.0000000E-01; -6.1919232E+02;3; -7.4098444E+00;  0.0000000E+00; -3.3448493E-01;0; -1.6004397E-02;  3.9932293E+04;  0.0000000E+00;  1.4068861E-02;  4.0000000E+04;  0.0000000E+00;  4.0010320E+04; -2.7917501E-02;  0.0000000E+00;  1.1913104E-02;  1.3533820E+03;
  3.6197874E-01;  9.9999998E-03; -1.9998498E-02;4670;  2.3046084E-02;  0.0000000E+00; -3.3485997E-04;  9.9924939E+02;  1.0000000E-01; -6.2185889E+02;3; -7.4679408E+00;  0.0000000E+00; -2.3393749E-01;0; -1.6067874E-02;  3.9932129E+04;  0.0000000E+00;  6.5124757E-03;  4.0000000E+04;  0.0000000E+00;  4.0010418E+04; -2.8511157E-02;  0.0000000E+00;  1.2443283E-02;  1.3738209E+03;
  3.6197954E-01;  9.9999998E-03; -9.9998666E-03;4671;  2.3056850E-02;  0.0000000E+00; -1.7074912E-04;  9.9925159E+02;  1.0000000E-01; -6.2003180E+02;3; -7.5024810E+00;  0.0000000E+00; -1.1650621E-01;0; -1.6118098E-02;  3.9931977E+04;  0.0000000E+00;  1.6631010E-03;  4.0000000E+04;  0.0000000E+00;  4.0010344E+04; -2.8888289E-02;  0.0000000E+00;  1.2770191E-02;  1.3820649E+03;
  3.6197984E-01;  9.9999998E-03;  8.1561025E-10;4672;  2.3060028E-02;  0.0000000E+00;  3.6256098E-09;  9.9925177E+02;  1.0000000E-01; -6.1988367E+02;3; -7.5142188E+00;  0.0000000E+00; -7.8887024E-07;0; -1.6137041E-02;  3.9931961E+04;  0.0000000E+00;  8.7718901E-14;  4.0000000E+04;  0.0000000E+00;  4.0010367E+04; -2.9017756E-02;  0.0000000E+00;  1.2880716E-02;  1.3840718E+03;
  3.6197954E-01;  9.9999998E-03;  9.9998685E-03;4673;  2.3056848E-02;  0.0000000E+00;  1.7075636E-04;  9.9925159E+02;  1.0000000E-01; -6.2003180E+02;3; -7.5024762E+00;  0.0000000E+00;  1.1650578E-01;0; -1.6118126E-02;  3.9931977E+04;  0.0000000E+00;  1.6628663E-03;  4.0000000E+04;  0.0000000E+00;  4.0010348E+04; -2.8888300E-02;  0.0000000E+00;  1.2770174E-02;  1.3820728E+03;
  3.6197874E-01;  9.9999998E-03;  1.9998500E-02;4674;  2.3046082E-02;  0.0000000E+00;  3.3486696E-04;  9.9924939E+02;  1.0000000E-01; -6.2185889E+02;3; -7.4679327E+00;  0.0000000E+00;  2.3393606E-01;0; -1.6067859E-02;  3.9932125E+04;  0.0000000E+00;  6.5119606E-03;  4.0000000E+04;  0.0000000E+00;  4.0010418E+04; -2.8511146E-02;  0.0000000E+00;  1.2443286E-02;  1.3738269E+03;
  3.6197552E-01;  9.9999998E-03;  2.9995706E-02;4675;  2.3023164E-02;  0.0000000E+00;  4.8854999E-04;  9.9925256E+02;  1.0000000E-01; -6.1924170E+02;3; -7.4098783E+00;  0.0000000E+00;  3.3448967E-01;0; -1.6004410E-02;  3.9932289E+04;  0.0000000E+00;  1.4068070E-02;  4.0000000E+04;  0.0000000E+00;  4.0010320E+04; -2.7917521E-02;  0.0000000E+00;  1.1913111E-02;  1.3533966E+03;
  3.6196974E-01;  9.9999998E-03;  3.9991852E-02;4676;  2.2982284E-02;  0.0000000E+00;  6.2679453E-04;  9.9925671E+02;  1.0000000E-01; -6.1578503E+02;3; -7.3327289E+00;  0.0000000E+00;  4.5058823E-01;0; -1.5955884E-02;  3.9933000E+04;  0.0000000E+00;  2.3363687E-02;  4.0000000E+04;  0.0000000E+00;  4.0009949E+04; -2.7157448E-02;  0.0000000E+00;  1.1201564E-02;  1.3129321E+03;
  3.6196062E-01;  9.9999998E-03;  4.9987551E-02;4677;  2.2917440E-02;  0.0000000E+00;  7.4128440E-04;  9.9926709E+02;  1.0000000E-01; -6.0719269E+02;3; -7.2374558E+00;  0.0000000E+00;  5.6693417E-01;0; -1.5956314E-02;  3.9934051E+04;  0.0000000E+00;  3.2788865E-02;  4.0000000E+04;  0.0000000E+00;  4.0009379E+04; -2.6293479E-02;  0.0000000E+00;  1.0337165E-02;  1.2452921E+03;
  3.6194849E-01;  9.9999998E-03;  5.9983209E-02;4678;  2.2821385E-02;  0.0000000E+00;  8.3432300E-04;  9.9927826E+02;  1.0000000E-01; -5.9795837E+02;3; -7.1201987E+00;  0.0000000E+00;  6.5253550E-01;0; -1.6041409E-02;  3.9935812E+04;  0.0000000E+00;  4.0087834E-02;  4.0000000E+04;  0.0000000E+00;  4.0008527E+04; -2.5395466E-02;  0.0000000E+00;  9.3540568E-03;  1.1456758E+03;
  3.7188116E-01;  9.9999998E-03; -9.9970967E-02;4723;  2.1761149E-02;  0.0000000E+00; -1.4367728E-03;  9.9944196E+02;  1.0000000E-01; -4.6230789E+02;3; -6.5440788E+00;  0.0000000E+00; -9.7618228E-01;0; -2.0201670E-02;  3.9952512E+04;  0.0000000E+00;  3.3866506E-02;  4.0000000E+04;  0.0000000E+00;  4.0005086E+04; -2.8287347E-02;  0.0000000E+00;  8.0856774E-03;  6.7511310E+02;
  3.7189126E-01;  9.9999998E-03; -8.9974500E-02;4724;  2.2007916E-02;  0.0000000E+00; -1.3787785E-03;  9.9944983E+02;  1.0000000E-01; -4.5578955E+02;3; -6.7030311E+00;  0.0000000E+00; -8.9139086E-01;0; -1.9557297E-02;  3.9951953E+04;  0.0000000E+00;  4.9803495E-02;  4.0000000E+04;  0.0000000E+00;  4.0006238E+04; -2.8928841E-02;  0.0000000E+00;  9.3715442E-03;  8.1941003E+02;
  3.7190381E-01;  9.9999998E-03; -7.9977922E-02;4725;  2.2210825E-02;  0.0000000E+00; -1.3007203E-03;  9.9945844E+02;  1.0000000E-01; -4.4867862E+02;3; -6.8558946E+00;  0.0000000E+00; -8.0781478E-01;0; -1.9015957E-02;  3.9951582E+04;  0.0000000E+00;  5.5563353E-02;  4.0000000E+04;  0.0000000E+00;  4.0007164E+04; -2.9678479E-02;  0.0000000E+00;  1.0662523E-02;  9.5568695E+02;
  3.7191796E-01;  9.9999998E-03; -6.9981344E-02;4726;  2.2370517E-02;  0.0000000E+00; -1.2018700E-03;  9.9946985E+02;  1.0000000E-01; -4.3919742E+02;3; -6.9991050E+00;  0.0000000E+00; -7.1958816E-01;0; -1.8587330E-02;  3.9951461E+04;  0.0000000E+00;  5.3139329E-02;  4.0000000E+04;  0.0000000E+00;  4.0008090E+04; -3.0507518E-02;  0.0000000E+00;  1.1920188E-02;  1.0699355E+03;
  3.7193084E-01;  9.9999998E-03; -5.9985045E-02;4727;  2.2489678E-02;  0.0000000E+00; -1.0802264E-03;  9.9948022E+02;  1.0000000E-01; -4.3060507E+02;3; -7.1312528E+00;  0.0000000E+00; -6.1833858E-01;0; -1.8270146E-02;  3.9951824E+04;  0.0000000E+00;  4.5198701E-02;  4.0000000E+04;  0.0000000E+00;  4.0008969E+04; -3.1374950E-02;  0.0000000E+00;  1.3104803E-02;  1.1539338E+03;
  3.7194023E-01;  9.9999998E-03; -4.9989093E-02;4728;  2.2573689E-02;  0.0000000E+00; -9.3543070E-04;  9.9949744E+02;  1.0000000E-01; -4.1638324E+02;3; -7.2469273E+00;  0.0000000E+00; -5.1896435E-01;0; -1.8053867E-02;  3.9952656E+04;  0.0000000E+00;  3.4502231E-02;  4.0000000E+04;  0.0000000E+00;  4.0009172E+04; -3.2232102E-02;  0.0000000E+00;  1.4178234E-02;  1.2058107E+03;
  3.7194553E-01;  9.9999998E-03; -3.9992996E-02;4729;  2.2628576E-02;  0.0000000E+00; -7.7142293E-04;  9.9951520E+02;  1.0000000E-01; -4.0166763E+02;3; -7.3463063E+00;  0.0000000E+00; -4.2216176E-01;0; -1.7920921E-02;  3.9953801E+04;  0.0000000E+00;  2.3408547E-02;  4.0000000E+04;  0.0000000E+00;  4.0009594E+04; -3.3026859E-02;  0.0000000E+00;  1.5105939E-02;  1.2292349E+03;
  3.7194794E-01;  9.9999998E-03; -2.9996192E-02;4730;  2.2661308E-02;  0.0000000E+00; -5.9125770E-04;  9.9952802E+02;  1.0000000E-01; -3.9105063E+02;3; -7.4264183E+00;  0.0000000E+00; -3.1368443E-01;0; -1.7849840E-02;  3.9954949E+04;  0.0000000E+00;  1.3619034E-02;  4.0000000E+04;  0.0000000E+00;  4.0009500E+04; -3.3708669E-02;  0.0000000E+00;  1.5858829E-02;  1.2319141E+03;
  3.7194890E-01;  9.9999998E-03; -1.9998377E-02;4731;  2.2678362E-02;  0.0000000E+00; -3.9963544E-04;  9.9954193E+02;  1.0000000E-01; -3.7949542E+02;3; -7.4870605E+00;  0.0000000E+00; -2.1082261E-01;0; -1.7818866E-02;  3.9956125E+04;  0.0000000E+00;  6.1618555E-03;  4.0000000E+04;  0.0000000E+00;  4.0009539E+04; -3.4232538E-02;  0.0000000E+00;  1.6413672E-02;  1.2236482E+03;
  3.7194836E-01;  9.9999998E-03; -9.9995341E-03;4732;  2.2686182E-02;  0.0000000E+00; -2.0179196E-04;  9.9954987E+02;  1.0000000E-01; -3.7292770E+02;3; -7.5215573E+00;  0.0000000E+00; -1.0485930E-01;0; -1.7808760E-02;  3.9956738E+04;  0.0000000E+00;  1.5531378E-03;  4.0000000E+04;  0.0000000E+00;  4.0009324E+04; -3.4561932E-02;  0.0000000E+00;  1.6753173E-02;  1.2139585E+03;
  3.7194780E-01;  9.9999998E-03;  9.0094432E-10;4733;  2.2688458E-02;  0.0000000E+00;  4.4303903E-09;  9.9955347E+02;  1.0000000E-01; -3.6996481E+02;3; -7.5327945E+00;  0.0000000E+00; -2.0299485E-06;0; -1.7806856E-02;  3.9957148E+04;  0.0000000E+00;  1.3801801E-12;  4.0000000E+04;  0.0000000E+00;  4.0009270E+04; -3.4674197E-02;  0.0000000E+00;  1.6867341E-02;  1.2098375E+03;
  3.7194836E-01;  9.9999998E-03;  9.9995360E-03;4734;  2.2686182E-02;  0.0000000E+00;  2.0180090E-04;  9.9954987E+02;  1.0000000E-01; -3.7292770E+02;3; -7.5215726E+00;  0.0000000E+00;  1.0485549E-01;0; -1.7808735E-02;  3.9956738E+04;  0.0000000E+00;  1.5528342E-03;  4.0000000E+04;  0.0000000E+00;  4.0009324E+04; -3.4561891E-02;  0.0000000E+00;  1.6753156E-02;  1.2139531E+03;
  3.7194890E-01;  9.9999998E-03;  1.9998379E-02;4735;  2.2678360E-02;  0.0000000E+00;  3.9964396E-04;  9.9954199E+02;  1.0000000E-01; -3.7944604E+02;3; -7.4870667E+00;  0.0000000E+00;  2.1081749E-01;0; -1.7818859E-02;  3.9956125E+04;  0.0000000E+00;  6.1613466E-03;  4.0000000E+04;  0.0000000E+00;  4.0009539E+04; -3.4232520E-02;  0.0000000E+00;  1.6413661E-02;  1.2236411E+03;
  3.7194794E-01;  9.9999998E-03;  2.9996194E-02;4736;  2.2661306E-02;  0.0000000E+00;  5.9126591E-04;  9.9952802E+02;  1.0000000E-01; -3.9105063E+02;3; -7.4264140E+00;  0.0000000E+00;  3.1368399E-01;0; -1.7849874E-02;  3.9954949E+04;  0.0000000E+00;  1.3618177E-02;  4.0000000E+04;  0.0000000E+00;  4.0009500E+04; -3.3708706E-02;  0.0000000E+00;  1.5858833E-02;  1.2319238E+03;
  3.7194553E-01;  9.9999998E-03;  3.9992999E-02;4737;  2.2628574E-02;  0.0000000E+00;  7.7143079E-04;  9.9951520E+02;  1.0000000E-01; -4.0166763E+02;3; -7.3463044E+00;  0.0000000E+00;  4.2216340E-01;0; -1.7920956E-02;  3.9953801E+04;  0.0000000E+00;  2.3407506E-02;  4.0000000E+04;  0.0000000E+00;  4.0009594E+04; -3.3026893E-02;  0.0000000E+00;  1.5105936E-02;  1.2292399E+03;
  3.7194023E-01;  9.9999998E-03;  4.9989093E-02;4738;  2.2573687E-02;  0.0000000E+00;  9.3543821E-04;  9.9949750E+02;  1.0000000E-01; -4.1633386E+02;3; -7.2469425E+00;  0.0000000E+00;  5.1897269E-01;0; -1.8053882E-02;  3.9952648E+04;  0.0000000E+00;  3.4500830E-02;  4.0000000E+04;  0.0000000E+00;  4.0009172E+04; -3.2232121E-02;  0.0000000E+00;  1.4178240E-02;  1.2058131E+03;
  3.7193084E-01;  9.9999998E-03;  5.9985049E-02;4739;  2.2489678E-02;  0.0000000E+00;  1.0802336E-03;  9.9948022E+02;  1.0000000E-01; -4.3060507E+02;3; -7.1312661E+00;  0.0000000E+00;  6.1834842E-01;0; -1.8270183E-02;  3.9951820E+04;  0.0000000E+00;  4.5198053E-02;  4.0000000E+04;  0.0000000E+00;  4.0008969E+04; -3.1375006E-02;  0.0000000E+00;  1.3104822E-02;  1.1539343E+03;
  3.8186720E-01;  9.9999998E-03; -9.9977970E-02;4784;  2.1460116E-02;  0.0000000E+00; -1.8794807E-03;  9.9947577E+02;  1.0000000E-01; -4.3430869E+02;3; -6.5452662E+00;  0.0000000E+00; -9.5895243E-01;0; -2.1676684E-02;  3.9953609E+04;  0.0000000E+00;  6.6593714E-02;  4.0000000E+04;  0.0000000E+00;  4.0006324E+04; -3.3008013E-02;  0.0000000E+00;  1.1331329E-02;  8.2258002E+02;
  3.8187698E-01;  9.9999998E-03; -8.9981087E-02;4785;  2.1692790E-02;  0.0000000E+00; -1.7768869E-03;  9.9950562E+02;  1.0000000E-01; -4.0956863E+02;3; -6.7053280E+00;  0.0000000E+00; -8.6839432E-01;0; -2.0979609E-02;  3.9955137E+04;  0.0000000E+00;  7.2131194E-02;  4.0000000E+04;  0.0000000E+00;  4.0006969E+04; -3.3796843E-02;  0.0000000E+00;  1.2817235E-02;  9.3195972E+02;
  3.8188782E-01;  9.9999998E-03; -7.9983905E-02;4786;  2.1882249E-02;  0.0000000E+00; -1.6479110E-03;  9.9953510E+02;  1.0000000E-01; -3.8517426E+02;3; -6.8602247E+00;  0.0000000E+00; -7.7141100E-01;0; -2.0342648E-02;  3.9956730E+04;  0.0000000E+00;  6.9317549E-02;  4.0000000E+04;  0.0000000E+00;  4.0007828E+04; -3.4626458E-02;  0.0000000E+00;  1.4283809E-02;  1.0249291E+03;
  3.8189855E-01;  9.9999998E-03; -6.9986999E-02;4787;  2.2029728E-02;  0.0000000E+00; -1.4948244E-03;  9.9957239E+02;  1.0000000E-01; -3.5426157E+02;3; -7.0063391E+00;  0.0000000E+00; -6.8092316E-01;0; -1.9784873E-02;  3.9958957E+04;  0.0000000E+00;  6.0528848E-02;  4.0000000E+04;  0.0000000E+00;  4.0008426E+04; -3.5472821E-02;  0.0000000E+00;  1.5687948E-02;  1.0916396E+03;
  3.8190666E-01;  9.9999998E-03; -5.9990533E-02;4788;  2.2138696E-02;  0.0000000E+00; -1.3182540E-03;  9.9960516E+02;  1.0000000E-01; -3.2710184E+02;3; -7.1449986E+00;  0.0000000E+00; -5.8232135E-01;0; -1.9317141E-02;  3.9961359E+04;  0.0000000E+00;  4.8426241E-02;  4.0000000E+04;  0.0000000E+00;  4.0008809E+04; -3.6305431E-02;  0.0000000E+00;  1.6988290E-02;  1.1273051E+03;
  3.8191071E-01;  9.9999998E-03; -4.9994145E-02;4789;  2.2214407E-02;  0.0000000E+00; -1.1220267E-03;  9.9963843E+02;  1.0000000E-01; -2.9954706E+02;3; -7.2681236E+00;  0.0000000E+00; -4.7713539E-01;0; -1.8942492E-02;  3.9964148E+04;  0.0000000E+00;  3.5417058E-02;  4.0000000E+04;  0.0000000E+00;  4.0008781E+04; -3.7090246E-02;  0.0000000E+00;  1.8147754E-02;  1.1330114E+03;
  3.8191193E-01;  9.9999998E-03; -3.9997201E-02;4790;  2.2263626E-02;  0.0000000E+00; -9.0926490E-04;  9.9966858E+02;  1.0000000E-01; -2.7456012E+02;3; -7.3700652E+00;  0.0000000E+00; -3.7328163E-01;0; -1.8657412E-02;  3.9966820E+04;  0.0000000E+00;  2.3320852E-02;  4.0000000E+04;  0.0000000E+00;  4.0008473E+04; -3.7793230E-02;  0.0000000E+00;  1.9135818E-02;  1.1150941E+03;
  3.8191098E-01;  9.9999998E-03; -2.9999254E-02;4791;  2.2292461E-02;  0.0000000E+00; -6.8790402E-04;  9.9969641E+02;  1.0000000E-01; -2.5149904E+02;3; -7.4523835E+00;  0.0000000E+00; -2.8287700E-01;0; -1.8453345E-02;  3.9969172E+04;  0.0000000E+00;  1.3294187E-02;  4.0000000E+04;  0.0000000E+00;  4.0008285E+04; -3.8381115E-02;  0.0000000E+00;  1.9927770E-02;  1.0834043E+03;
  3.8190868E-01;  9.9999998E-03; -2.0000258E-02;4792;  2.2307884E-02;  0.0000000E+00; -4.6080691E-04;  9.9971857E+02;  1.0000000E-01; -2.3317857E+02;3; -7.5081487E+00;  0.0000000E+00; -1.9086187E-01;0; -1.8318735E-02;  3.9971121E+04;  0.0000000E+00;  5.9368000E-03;  4.0000000E+04;  0.0000000E+00;  4.0008238E+04; -3.8824063E-02;  0.0000000E+00;  2.0505328E-02;  1.0494459E+03;
  3.8190657E-01;  9.9999998E-03; -1.0000361E-02;4793;  2.2314750E-02;  0.0000000E+00; -2.3088780E-04;  9.9972821E+02;  1.0000000E-01; -2.2517880E+02;3; -7.5420461E+00;  0.0000000E+00; -9.8309055E-02;0; -1.8243128E-02;  3.9972500E+04;  0.0000000E+00;  1.4856480E-03;  4.0000000E+04;  0.0000000E+00;  4.0008145E+04; -3.9099541E-02;  0.0000000E+00;  2.0856412E-02;  1.0239177E+03;
  3.8190553E-01;  9.9999998E-03;  9.7421216E-10;4794;  2.2316456E-02;  0.0000000E+00;  5.4224780E-09;  9.9973566E+02;  1.0000000E-01; -2.1900613E+02;3; -7.5543647E+00;  0.0000000E+00; -3.4412169E-06;0; -1.8218832E-02;  3.9972910E+04;  0.0000000E+00;  1.0098429E-12;  4.0000000E+04;  0.0000000E+00;  4.0007980E+04; -3.9192922E-02;  0.0000000E+00;  2.0974090E-02;  1.0144795E+03;
  3.8190657E-01;  9.9999998E-03;  1.0000363E-02;4795;  2.2314752E-02;  0.0000000E+00;  2.3089799E-04;  9.9972815E+02;  1.0000000E-01; -2.2522818E+02;3; -7.5420547E+00;  0.0000000E+00;  9.8303288E-02;0; -1.8243128E-02;  3.9972504E+04;  0.0000000E+00;  1.4854129E-03;  4.0000000E+04;  0.0000000E+00;  4.0008145E+04; -3.9099522E-02;  0.0000000E+00;  2.0856394E-02;  1.0239217E+03;
  3.8190868E-01;  9.9999998E-03;  2.0000260E-02;4796;  2.2307886E-02;  0.0000000E+00;  4.6081634E-04;  9.9971857E+02;  1.0000000E-01; -2.3317857E+02;3; -7.5081720E+00;  0.0000000E+00;  1.9085382E-01;0; -1.8318724E-02;  3.9971121E+04;  0.0000000E+00;  5.9361337E-03;  4.0000000E+04;  0.0000000E+00;  4.0008238E+04; -3.8824052E-02;  0.0000000E+00;  2.0505328E-02;  1.0494576E+03;
  3.8191098E-01;  9.9999998E-03;  2.9999256E-02;4797;  2.2292459E-02;  0.0000000E+00;  6.8791234E-04;  9.9969641E+02;  1.0000000E-01; -2.5149904E+02;3; -7.4523797E+00;  0.0000000E+00;  2.8286776E-01;0; -1.8453311E-02;  3.9969172E+04;  0.0000000E+00;  1.3293616E-02;  4.0000000E+04;  0.0000000E+00;  4.0008285E+04; -3.8381066E-02;  0.0000000E+00;  1.9927755E-02;  1.0833972E+03;
  3.8191193E-01;  9.9999998E-03;  3.9997201E-02;4798;  2.2263624E-02;  0.0000000E+00;  9.0927270E-04;  9.9966846E+02;  1.0000000E-01; -2.7465887E+02;3; -7.3700991E+00;  0.0000000E+00;  3.7328771E-01;0; -1.8657446E-02;  3.9966820E+04;  0.0000000E+00;  2.3319149E-02;  4.0000000E+04;  0.0000000E+00;  4.0008473E+04; -3.7793245E-02;  0.0000000E+00;  1.9135799E-02;  1.1150830E+03;
  3.8191071E-01;  9.9999998E-03;  4.9994145E-02;4799;  2.2214405E-02;  0.0000000E+00;  1.1220358E-03;  9.9963843E+02;  1.0000000E-01; -2.9954706E+02;3; -7.2681794E+00;  0.0000000E+00;  4.7714466E-01;0; -1.8942509E-02;  3.9964141E+04;  0.0000000E+00;  3.5416096E-02;  4.0000000E+04;  0.0000000E+00;  4.0008781E+04; -3.7090305E-02;  0.0000000E+00;  1.8147796E-02;  1.1330157E+03;
  3.8190666E-01;  9.9999998E-03;  5.9990533E-02;4800;  2.2138696E-02;  0.0000000E+00;  1.3182615E-03;  9.9960516E+02;  1.0000000E-01; -3.2710184E+02;3; -7.1450148E+00;  0.0000000E+00;  5.8232385E-01;0; -1.9317117E-02;  3.9961371E+04;  0.0000000E+00;  4.8425566E-02;  4.0000000E+04;  0.0000000E+00;  4.0008809E+04; -3.6305420E-02;  0.0000000E+00;  1.6988304E-02;  1.1272963E+03;
  3.9186069E-01;  9.9999998E-03; -9.9986292E-02;4845;  2.1121573E-02;  0.0000000E+00; -2.3289744E-03;  9.9945740E+02;  1.0000000E-01; -4.4951813E+02;3; -6.5428767E+00;  0.0000000E+00; -9.2916757E-01;0; -2.2458825E-02;  3.9950457E+04;  0.0000000E+00;  9.3271814E-02;  4.0000000E+04;  0.0000000E+00;  4.0007254E+04; -3.7150592E-02;  0.0000000E+00;  1.4691767E-02;  9.5376068E+02;
  3.9186823E-01;  9.9999998E-03; -8.9988917E-02;4846;  2.1341680E-02;  0.0000000E+00; -2.1755963E-03;  9.9949872E+02;  1.0000000E-01; -4.1529688E+02;3; -6.7059383E+00;  0.0000000E+00; -8.3818227E-01;0; -2.1666376E-02;  3.9953410E+04;  0.0000000E+00;  8.9690872E-02;  4.0000000E+04;  0.0000000E+00;  4.0007621E+04; -3.8040530E-02;  0.0000000E+00;  1.6374154E-02;  1.0210960E+03;
  3.9187405E-01;  9.9999998E-03; -7.9991326E-02;4847;  2.1520356E-02;  0.0000000E+00; -1.9933397E-03;  9.9954279E+02;  1.0000000E-01; -3.7880408E+02;3; -6.8648071E+00;  0.0000000E+00; -7.4166876E-01;0; -2.0901935E-02;  3.9956680E+04;  0.0000000E+00;  7.9902753E-02;  4.0000000E+04;  0.0000000E+00;  4.0008000E+04; -3.8914233E-02;  0.0000000E+00;  1.8012298E-02;  1.0676803E+03;
  3.9187783E-01;  9.9999998E-03; -6.9994181E-02;4848;  2.1659024E-02;  0.0000000E+00; -1.7844577E-03;  9.9958893E+02;  1.0000000E-01; -3.4058295E+02;3; -7.0215087E+00;  0.0000000E+00; -6.3642639E-01;0; -2.0193091E-02;  3.9960090E+04;  0.0000000E+00;  6.6304304E-02;  4.0000000E+04;  0.0000000E+00;  4.0008316E+04; -3.9752569E-02;  0.0000000E+00;  1.9559478E-02;  1.0869127E+03;
  3.9187932E-01;  9.9999998E-03; -5.9997335E-02;4849;  2.1761857E-02;  0.0000000E+00; -1.5520649E-03;  9.9963586E+02;  1.0000000E-01; -3.0167047E+02;3; -7.1624222E+00;  0.0000000E+00; -5.2633911E-01;0; -1.9561602E-02;  3.9963812E+04;  0.0000000E+00;  5.1242333E-02;  4.0000000E+04;  0.0000000E+00;  4.0008340E+04; -4.0535111E-02;  0.0000000E+00;  2.0973509E-02;  1.0768065E+03;
  3.9187786E-01;  9.9999998E-03; -5.0000135E-02;4850;  2.1834247E-02;  0.0000000E+00; -1.3022322E-03;  9.9967505E+02;  1.0000000E-01; -2.6922693E+02;3; -7.2858887E+00;  0.0000000E+00; -4.2631710E-01;0; -1.9021938E-02;  3.9967391E+04;  0.0000000E+00;  3.6625501E-02;  4.0000000E+04;  0.0000000E+00;  4.0008152E+04; -4.1240737E-02;  0.0000000E+00;  2.2218799E-02;  1.0407660E+03;
  3.9187387E-01;  9.9999998E-03; -4.0002014E-02;4851;  2.1882229E-02;  0.0000000E+00; -1.0431925E-03;  9.9971252E+02;  1.0000000E-01; -2.3816609E+02;3; -7.3883171E+00;  0.0000000E+00; -3.3663121E-01;0; -1.8582055E-02;  3.9970770E+04;  0.0000000E+00;  2.3768306E-02;  4.0000000E+04;  0.0000000E+00;  4.0007641E+04; -4.1849535E-02;  0.0000000E+00;  2.3267480E-02;  9.8675568E+02;
  3.9186904E-01;  9.9999998E-03; -3.0002782E-02;4852;  2.1911463E-02;  0.0000000E+00; -7.8148046E-04;  9.9974207E+02;  1.0000000E-01; -2.1367296E+02;3; -7.4666891E+00;  0.0000000E+00; -2.5518006E-01;0; -1.8244335E-02;  3.9973859E+04;  0.0000000E+00;  1.3433591E-02;  4.0000000E+04;  0.0000000E+00;  4.0007047E+04; -4.2343978E-02;  0.0000000E+00;  2.4099642E-02;  9.2603632E+02;
  3.9186427E-01;  9.9999998E-03; -2.0002527E-02;4853;  2.1927802E-02;  0.0000000E+00; -5.1971909E-04;  9.9976404E+02;  1.0000000E-01; -1.9550063E+02;3; -7.5240226E+00;  0.0000000E+00; -1.6884503E-01;0; -1.8007014E-02;  3.9976031E+04;  0.0000000E+00;  5.9713679E-03;  4.0000000E+04;  0.0000000E+00;  4.0006719E+04; -4.2708792E-02;  0.0000000E+00;  2.4701778E-02;  8.7089111E+02;
  3.9186075E-01;  9.9999998E-03; -1.0001496E-02;4854;  2.1936046E-02;  0.0000000E+00; -2.5997113E-04;  9.9977716E+02;  1.0000000E-01; -1.8463673E+02;3; -7.5565100E+00;  0.0000000E+00; -8.3339661E-02;0; -1.7866693E-02;  3.9977547E+04;  0.0000000E+00;  1.4910008E-03;  4.0000000E+04;  0.0000000E+00;  4.0006430E+04; -4.2932387E-02;  0.0000000E+00;  2.5065694E-02;  8.3253497E+02;
  3.9185923E-01;  9.9999998E-03;  1.0341115E-09;4855;  2.1938495E-02;  0.0000000E+00;  6.8251680E-09;  9.9978204E+02;  1.0000000E-01; -1.8058748E+02;3; -7.5686603E+00;  0.0000000E+00; -3.8467206E-06;0; -1.7820306E-02;  3.9977902E+04;  0.0000000E+00;  1.3688582E-12;  4.0000000E+04;  0.0000000E+00;  4.0006406E+04; -4.3007657E-02;  0.0000000E+00;  2.5187351E-02;  8.1882440E+02;
  3.9186075E-01;  9.9999998E-03;  1.0001498E-02;4856;  2.1936046E-02;  0.0000000E+00;  2.5998437E-04;  9.9977716E+02;  1.0000000E-01; -1.8463673E+02;3; -7.5564957E+00;  0.0000000E+00;  8.3330207E-02;0; -1.7866680E-02;  3.9977543E+04;  0.0000000E+00;  1.4908885E-03;  4.0000000E+04;  0.0000000E+00;  4.0006430E+04; -4.2932384E-02;  0.0000000E+00;  2.5065703E-02;  8.3253906E+02;
  3.9186427E-01;  9.9999998E-03;  2.0002529E-02;4857;  2.1927800E-02;  0.0000000E+00;  5.1973120E-04;  9.9976410E+02;  1.0000000E-01; -1.9545125E+02;3; -7.5240350E+00;  0.0000000E+00;  1.6883990E-01;0; -1.8007040E-02;  3.9976027E+04;  0.0000000E+00;  5.9709102E-03;  4.0000000E+04;  0.0000000E+00;  4.0006723E+04; -4.2708810E-02;  0.0000000E+00;  2.4701770E-02;  8.7089331E+02;
  3.9186904E-01;  9.9999998E-03;  3.0002786E-02;4858;  2.1911463E-02;  0.0000000E+00;  7.8149140E-04;  9.9974207E+02;  1.0000000E-01; -2.1367296E+02;3; -7.4667096E+00;  0.0000000E+00;  2.5517631E-01;0; -1.8244397E-02;  3.9973859E+04;  0.0000000E+00;  1.3432741E-02;  4.0000000E+04;  0.0000000E+00;  4.0007039E+04; -4.2344037E-02;  0.0000000E+00;  2.4099641E-02;  9.2602930E+02;
  3.9187387E-01;  9.9999998E-03;  4.0002014E-02;4859;  2.1882227E-02;  0.0000000E+00;  1.0432013E-03;  9.9971252E+02;  1.0000000E-01; -2.3816609E+02;3; -7.3883095E+00;  0.0000000E+00;  3.3662793E-01;0; -1.8582087E-02;  3.9970770E+04;  0.0000000E+00;  2.3767421E-02;  4.0000000E+04;  0.0000000E+00;  4.0007641E+04; -4.1849565E-02;  0.0000000E+00;  2.3267478E-02;  9.8675330E+02;
  3.9187786E-01;  9.9999998E-03;  5.0000139E-02;4860;  2.1834247E-02;  0.0000000E+00;  1.3022403E-03;  9.9967505E+02;  1.0000000E-01; -2.6922693E+02;3; -7.2858734E+00;  0.0000000E+00;  4.2631975E-01;0; -1.9021951E-02;  3.9967391E+04;  0.0000000E+00;  3.6624357E-02;  4.0000000E+04;  0.0000000E+00;  4.0008152E+04; -4.1240759E-02;  0.0000000E+00;  2.2218809E-02;  1.0407549E+03;
  3.9187932E-01;  9.9999998E-03;  5.9997339E-02;4861;  2.1761855E-02;  0.0000000E+00;  1.5520721E-03;  9.9963580E+02;  1.0000000E-01; -3.0171985E+02;3; -7.1624455E+00;  0.0000000E+00;  5.2633661E-01;0; -1.9561592E-02;  3.9963812E+04;  0.0000000E+00;  5.1241942E-02;  4.0000000E+04;  0.0000000E+00;  4.0008340E+04; -4.0535111E-02;  0.0000000E+00;  2.0973518E-02;  1.0768079E+03;
  4.0185955E-01;  9.9999998E-03; -9.9994637E-02;4906;  2.0739421E-02;  0.0000000E+00; -2.7778773E-03;  9.9938367E+02;  1.0000000E-01; -5.1060281E+02;3; -6.5388098E+00;  0.0000000E+00; -9.0665758E-01;0; -2.2815103E-02;  3.9943621E+04;  0.0000000E+00;  1.1332992E-01;  4.0000000E+04;  0.0000000E+00;  4.0007926E+04; -4.0950809E-02;  0.0000000E+00;  1.8135706E-02;  1.0635013E+03;
  4.0186375E-01;  9.9999998E-03; -8.9996673E-02;4907;  2.0949053E-02;  0.0000000E+00; -2.5739013E-03;  9.9943707E+02;  1.0000000E-01; -4.6635715E+02;3; -6.7038331E+00;  0.0000000E+00; -8.0873269E-01;0; -2.1907995E-02;  3.9947352E+04;  0.0000000E+00;  1.0279546E-01;  4.0000000E+04;  0.0000000E+00;  4.0008348E+04; -4.1917853E-02;  0.0000000E+00;  2.0009859E-02;  1.0876208E+03;
  4.0186393E-01;  9.9999998E-03; -7.9998672E-02;4908;  2.1119300E-02;  0.0000000E+00; -2.3377754E-03;  9.9948218E+02;  1.0000000E-01; -4.2902487E+02;3; -6.8697023E+00;  0.0000000E+00; -7.0515978E-01;0; -2.1006789E-02;  3.9951418E+04;  0.0000000E+00;  8.7963693E-02;  4.0000000E+04;  0.0000000E+00;  4.0008414E+04; -4.2823642E-02;  0.0000000E+00;  2.1816853E-02;  1.0894576E+03;
  4.0186071E-01;  9.9999998E-03; -7.0000947E-02;4909;  2.1252777E-02;  0.0000000E+00; -2.0718493E-03;  9.9953137E+02;  1.0000000E-01; -3.8823590E+02;3; -7.0284247E+00;  0.0000000E+00; -5.8918846E-01;0; -2.0146858E-02;  3.9955191E+04;  0.0000000E+00;  7.1034580E-02;  4.0000000E+04;  0.0000000E+00;  4.0008031E+04; -4.3653518E-02;  0.0000000E+00;  2.3506660E-02;  1.0653975E+03;
  4.0185517E-01;  9.9999998E-03; -6.0003214E-02;4910;  2.1353472E-02;  0.0000000E+00; -1.7837527E-03;  9.9957562E+02;  1.0000000E-01; -3.5159497E+02;3; -7.1692252E+00;  0.0000000E+00; -4.8163706E-01;0; -1.9358316E-02;  3.9959215E+04;  0.0000000E+00;  5.3948514E-02;  4.0000000E+04;  0.0000000E+00;  4.0007637E+04; -4.4394579E-02;  0.0000000E+00;  2.5036262E-02;  1.0157602E+03;
  4.0184835E-01;  9.9999998E-03; -5.0004896E-02;4911;  2.1426585E-02;  0.0000000E+00; -1.4824368E-03;  9.9961383E+02;  1.0000000E-01; -3.1994156E+02;3; -7.2934246E+00;  0.0000000E+00; -3.8484550E-01;0; -1.8664749E-02;  3.9963035E+04;  0.0000000E+00;  3.8169999E-02;  4.0000000E+04;  0.0000000E+00;  4.0007242E+04; -4.5036118E-02;  0.0000000E+00;  2.6371369E-02;  9.4540601E+02;
  4.0184045E-01;  9.9999998E-03; -4.0005665E-02;4912;  2.1476852E-02;  0.0000000E+00; -1.1789090E-03;  9.9964575E+02;  1.0000000E-01; -2.9347314E+02;3; -7.3957224E+00;  0.0000000E+00; -3.0485120E-01;0; -1.8083069E-02;  3.9966242E+04;  0.0000000E+00;  2.4647836E-02;  4.0000000E+04;  0.0000000E+00;  4.0006527E+04; -4.5569587E-02;  0.0000000E+00;  2.7486518E-02;  8.6331897E+02;
  4.0183243E-01;  9.9999998E-03; -3.0005446E-02;4913;  2.1509781E-02;  0.0000000E+00; -8.7820180E-04;  9.9967273E+02;  1.0000000E-01; -2.7115280E+02;3; -7.4757557E+00;  0.0000000E+00; -2.2463576E-01;0; -1.7624076E-02;  3.9969195E+04;  0.0000000E+00;  1.3907665E-02;  4.0000000E+04;  0.0000000E+00;  4.0005984E+04; -4.5988992E-02;  0.0000000E+00;  2.8364915E-02;  7.8101080E+02;
  4.0182540E-01;  9.9999998E-03; -2.0004254E-02;4914;  2.1530479E-02;  0.0000000E+00; -5.8070658E-04;  9.9969122E+02;  1.0000000E-01; -2.5579521E+02;3; -7.5303364E+00;  0.0000000E+00; -1.4892572E-01;0; -1.7293831E-02;  3.9971258E+04;  0.0000000E+00;  6.1824988E-03;  4.0000000E+04;  0.0000000E+00;  4.0005309E+04; -4.6290509E-02;  0.0000000E+00;  2.8996678E-02;  7.1078632E+02;
  4.0182039E-01;  9.9999998E-03; -1.0002309E-02;4915;  2.1541320E-02;  0.0000000E+00; -2.8805874E-04;  9.9970581E+02;  1.0000000E-01; -2.4374617E+02;3; -7.5642800E+00;  0.0000000E+00; -7.3047116E-02;0; -1.7095214E-02;  3.9972516E+04;  0.0000000E+00;  1.5446383E-03;  4.0000000E+04;  0.0000000E+00;  4.0005055E+04; -4.6472158E-02;  0.0000000E+00;  2.9376945E-02;  6.6355072E+02;
  4.0181848E-01;  9.9999998E-03;  1.0779586E-09;4916;  2.1544609E-02;  0.0000000E+00;  8.1168627E-09;  9.9970813E+02;  1.0000000E-01; -2.4182030E+02;3; -7.5767460E+00;  0.0000000E+00; -4.7009380E-06;0; -1.7028883E-02;  3.9973098E+04;  0.0000000E+00;  5.7882800E-13;  4.0000000E+04;  0.0000000E+00;  4.0004816E+04; -4.6532705E-02;  0.0000000E+00;  2.9503822E-02;  6.4690564E+02;
  4.0182039E-01;  9.9999998E-03;  1.0002310E-02;4917;  2.1541318E-02;  0.0000000E+00;  2.8807501E-04;  9.9970575E+02;  1.0000000E-01; -2.4379556E+02;3; -7.5642695E+00;  0.0000000E+00;  7.3039770E-02;0; -1.7095240E-02;  3.9972512E+04;  0.0000000E+00;  1.5444476E-03;  4.0000000E+04;  0.0000000E+00;  4.0005055E+04; -4.6472162E-02;  0.0000000E+00;  2.9376922E-02;  6.6354889E+02;
  4.0182540E-01;  9.9999998E-03;  2.0004256E-02;4918;  2.1530477E-02;  0.0000000E+00;  5.8072183E-04;  9.9969122E+02;  1.0000000E-01; -2.5579521E+02;3; -7.5303411E+00;  0.0000000E+00;  1.4892191E-01;0; -1.7293841E-02;  3.9971266E+04;  0.0000000E+00;  6.1821416E-03;  4.0000000E+04;  0.0000000E+00;  4.0005309E+04; -4.6290547E-02;  0.0000000E+00;  2.8996706E-02;  7.1078424E+02;
  4.0183243E-01;  9.9999998E-03;  3.0005448E-02;4919;  2.1509781E-02;  0.0000000E+00;  8.7821507E-04;  9.9967267E+02;  1.0000000E-01; -2.7120218E+02;3; -7.4757776E+00;  0.0000000E+00;  2.2463124E-01;0; -1.7624004E-02;  3.9969191E+04;  0.0000000E+00;  1.3906849E-02;  4.0000000E+04;  0.0000000E+00;  4.0005984E+04; -4.5988921E-02;  0.0000000E+00;  2.8364917E-02;  7.8102405E+02;
  4.0184045E-01;  9.9999998E-03;  4.0005665E-02;4920;  2.1476848E-02;  0.0000000E+00;  1.1789205E-03;  9.9964575E+02;  1.0000000E-01; -2.9347314E+02;3; -7.3957429E+00;  0.0000000E+00;  3.0485272E-01;0; -1.8083056E-02;  3.9966242E+04;  0.0000000E+00;  2.4646757E-02;  4.0000000E+04;  0.0000000E+00;  4.0006523E+04; -4.5569584E-02;  0.0000000E+00;  2.7486527E-02;  8.6332733E+02;
  4.0184835E-01;  9.9999998E-03;  5.0004896E-02;4921;  2.1426583E-02;  0.0000000E+00;  1.4824466E-03;  9.9961377E+02;  1.0000000E-01; -3.1999094E+02;3; -7.2934437E+00;  0.0000000E+00;  3.8485578E-01;0; -1.8664755E-02;  3.9963031E+04;  0.0000000E+00;  3.8169120E-02;  4.0000000E+04;  0.0000000E+00;  4.0007242E+04; -4.5036133E-02;  0.0000000E+00;  2.6371378E-02;  9.4541595E+02;
  4.0185517E-01;  9.9999998E-03;  6.0003217E-02;4922;  2.1353468E-02;  0.0000000E+00;  1.7837624E-03;  9.9957562E+02;  1.0000000E-01; -3.5159497E+02;3; -7.1692491E+00;  0.0000000E+00;  4.8165235E-01;0; -1.9358376E-02;  3.9959215E+04;  0.0000000E+00;  5.3948041E-02;  4.0000000E+04;  0.0000000E+00;  4.0007637E+04; -4.4394616E-02;  0.0000000E+00;  2.5036240E-02;  1.0157686E+03;
  4.1186246E-01;  9.9999998E-03; -1.0000204E-01;4967;  2.0310387E-02;  0.0000000E+00; -3.2257042E-03;  9.9928613E+02;  1.0000000E-01; -5.9144000E+02;3; -6.5293393E+00;  0.0000000E+00; -8.8105255E-01;0; -2.2970932E-02;  3.9934578E+04;  0.0000000E+00;  1.2598415E-01;  4.0000000E+04;  0.0000000E+00;  4.0008457E+04; -4.4603106E-02;  0.0000000E+00;  2.1632174E-02;  1.1495327E+03;
  4.1186443E-01;  9.9999998E-03; -9.0003416E-02;4968;  2.0510873E-02;  0.0000000E+00; -2.9718261E-03;  9.9933307E+02;  1.0000000E-01; -5.5252753E+02;3; -6.6969581E+00;  0.0000000E+00; -7.8408128E-01;0; -2.1948999E-02;  3.9938609E+04;  0.0000000E+00;  1.1100790E-01;  4.0000000E+04;  0.0000000E+00;  4.0008523E+04; -4.5643114E-02;  0.0000000E+00;  2.3694115E-02;  1.1341409E+03;
  4.1186228E-01;  9.9999998E-03; -8.0004811E-02;4969;  2.0674905E-02;  0.0000000E+00; -2.6826398E-03;  9.9937854E+02;  1.0000000E-01; -5.1484961E+02;3; -6.8692551E+00;  0.0000000E+00; -6.6728038E-01;0; -2.0918502E-02;  3.9942535E+04;  0.0000000E+00;  9.3097128E-02;  4.0000000E+04;  0.0000000E+00;  4.0008090E+04; -4.6588503E-02;  0.0000000E+00;  2.5670001E-02;  1.0972544E+03;
  4.1185537E-01;  9.9999998E-03; -7.0006259E-02;4970;  2.0805925E-02;  0.0000000E+00; -2.3620892E-03;  9.9942017E+02;  1.0000000E-01; -4.8038144E+02;3; -7.0253892E+00;  0.0000000E+00; -5.5191767E-01;0; -1.9921670E-02;  3.9946359E+04;  0.0000000E+00;  7.4200273E-02;  4.0000000E+04;  0.0000000E+00;  4.0007848E+04; -4.7427863E-02;  0.0000000E+00;  2.7506193E-02;  1.0378646E+03;
  4.1184622E-01;  9.9999998E-03; -6.0007393E-02;4971;  2.0907423E-02;  0.0000000E+00; -2.0210987E-03;  9.9945544E+02;  1.0000000E-01; -4.5114771E+02;3; -7.1687503E+00;  0.0000000E+00; -4.4480383E-01;0; -1.8995732E-02;  3.9949906E+04;  0.0000000E+00;  5.5924088E-02;  4.0000000E+04;  0.0000000E+00;  4.0007254E+04; -4.8154447E-02;  0.0000000E+00;  2.9158715E-02;  9.5812079E+02;
  4.1183588E-01;  9.9999998E-03; -5.0007924E-02;4972;  2.0983899E-02;  0.0000000E+00; -1.6714598E-03;  9.9948480E+02;  1.0000000E-01; -4.2685208E+02;3; -7.2939215E+00;  0.0000000E+00; -3.5492915E-01;0; -1.8171173E-02;  3.9953230E+04;  0.0000000E+00;  3.9422560E-02;  4.0000000E+04;  0.0000000E+00;  4.0006527E+04; -4.8764262E-02;  0.0000000E+00;  3.0593090E-02;  8.6375171E+02;
  4.1182512E-01;  9.9999998E-03; -4.0007722E-02;4973;  2.1039631E-02;  0.0000000E+00; -1.3240582E-03;  9.9950610E+02;  1.0000000E-01; -4.0917358E+02;3; -7.3965092E+00;  0.0000000E+00; -2.7045533E-01;0; -1.7471183E-02;  3.9955777E+04;  0.0000000E+00;  2.5432233E-02;  4.0000000E+04;  0.0000000E+00;  4.0005645E+04; -4.9256474E-02;  0.0000000E+00;  3.1785291E-02;  7.6375421E+02;
  4.1181532E-01;  9.9999998E-03; -3.0006731E-02;4974;  2.1079298E-02;  0.0000000E+00; -9.8126370E-04;  9.9952661E+02;  1.0000000E-01; -3.9218640E+02;3; -7.4747419E+00;  0.0000000E+00; -1.9933166E-01;0; -1.6912591E-02;  3.9957949E+04;  0.0000000E+00;  1.4357910E-02;  4.0000000E+04;  0.0000000E+00;  4.0004969E+04; -4.9633220E-02;  0.0000000E+00;  3.2720629E-02;  6.6900891E+02;
  4.1180706E-01;  9.9999998E-03; -2.0004986E-02;4975;  2.1105226E-02;  0.0000000E+00; -6.4716628E-04;  9.9953668E+02;  1.0000000E-01; -3.8384097E+02;3; -7.5324244E+00;  0.0000000E+00; -1.3065766E-01;0; -1.6506694E-02;  3.9959680E+04;  0.0000000E+00;  6.3899816E-03;  4.0000000E+04;  0.0000000E+00;  4.0004312E+04; -4.9897928E-02;  0.0000000E+00;  3.3391234E-02;  5.9092810E+02;
  4.1180152E-01;  9.9999998E-03; -1.0002650E-02;4976;  2.1120029E-02;  0.0000000E+00; -3.2195891E-04;  9.9954639E+02;  1.0000000E-01; -3.7579181E+02;3; -7.5644083E+00;  0.0000000E+00; -6.6779897E-02;0; -1.6260598E-02;  3.9960543E+04;  0.0000000E+00;  1.5980487E-03;  4.0000000E+04;  0.0000000E+00;  4.0003852E+04; -5.0054610E-02;  0.0000000E+00;  3.3794012E-02;  5.3949921E+02;
  4.1179946E-01;  9.9999998E-03;  1.1104552E-09;4977;  2.1124892E-02;  0.0000000E+00;  9.7799751E-09;  9.9954816E+02;  1.0000000E-01; -3.7435974E+02;3; -7.5745702E+00;  0.0000000E+00; -4.9983082E-06;0; -1.6178228E-02;  3.9961066E+04;  0.0000000E+00; -1.2835861E-13;  4.0000000E+04;  0.0000000E+00;  4.0003770E+04; -5.0106425E-02;  0.0000000E+00;  3.3928197E-02;  5.2154883E+02;
  4.1180152E-01;  9.9999998E-03;  1.0002652E-02;4978;  2.1120025E-02;  0.0000000E+00;  3.2197763E-04;  9.9954633E+02;  1.0000000E-01; -3.7584119E+02;3; -7.5644383E+00;  0.0000000E+00;  6.6768825E-02;0; -1.6260646E-02;  3.9960539E+04;  0.0000000E+00;  1.5979696E-03;  4.0000000E+04;  0.0000000E+00;  4.0003852E+04; -5.0054654E-02;  0.0000000E+00;  3.3794008E-02;  5.3949365E+02;
  4.1180706E-01;  9.9999998E-03;  2.0004988E-02;4979;  2.1105224E-02;  0.0000000E+00;  6.4718339E-04;  9.9953674E+02;  1.0000000E-01; -3.8379160E+02;3; -7.5324354E+00;  0.0000000E+00;  1.3064876E-01;0; -1.6506679E-02;  3.9959676E+04;  0.0000000E+00;  6.3897106E-03;  4.0000000E+04;  0.0000000E+00;  4.0004309E+04; -4.9897872E-02;  0.0000000E+00;  3.3391193E-02;  5.9093024E+02;
  4.1181532E-01;  9.9999998E-03;  3.0006733E-02;4980;  2.1079298E-02;  0.0000000E+00;  9.8127860E-04;  9.9952661E+02;  1.0000000E-01; -3.9218640E+02;3; -7.4747195E+00;  0.0000000E+00;  1.9932401E-01;0; -1.6912621E-02;  3.9957953E+04;  0.0000000E+00;  1.4357977E-02;  4.0000000E+04;  0.0000000E+00;  4.0004969E+04; -4.9633253E-02;  0.0000000E+00;  3.2720633E-02;  6.6900879E+02;
  4.1182512E-01;  9.9999998E-03;  4.0007725E-02;4981;  2.1039629E-02;  0.0000000E+00;  1.3240707E-03;  9.9950610E+02;  1.0000000E-01; -4.0917358E+02;3; -7.3965220E+00;  0.0000000E+00;  2.7045748E-01;0; -1.7471232E-02;  3.9955777E+04;  0.0000000E+00;  2.5431324E-02;  4.0000000E+04;  0.0000000E+00;  4.0005645E+04; -4.9256507E-02;  0.0000000E+00;  3.1785276E-02;  7.6375446E+02;
  4.1183588E-01;  9.9999998E-03;  5.0007928E-02;4982;  2.0983899E-02;  0.0000000E+00;  1.6714706E-03;  9.9948480E+02;  1.0000000E-01; -4.2685208E+02;3; -7.2938991E+00;  0.0000000E+00;  3.5493118E-01;0; -1.8171277E-02;  3.9953234E+04;  0.0000000E+00;  3.9422058E-02;  4.0000000E+04;  0.0000000E+00;  4.0006527E+04; -4.8764344E-02;  0.0000000E+00;  3.0593067E-02;  8.6375616E+02;
  4.1184622E-01;  9.9999998E-03;  6.0007393E-02;4983;  2.0907423E-02;  0.0000000E+00;  2.0211085E-03;  9.9945544E+02;  1.0000000E-01; -4.5114771E+02;3; -7.1687579E+00;  0.0000000E+00;  4.4481725E-01;0; -1.8995721E-02;  3.9949906E+04;  0.0000000E+00;  5.5923518E-02;  4.0000000E+04;  0.0000000E+00;  4.0007254E+04; -4.8154447E-02;  0.0000000E+00;  2.9158726E-02;  9.5811700E+02;
  4.2187518E-01;  9.9999998E-03; -1.0000808E-01;5028;  1.9832872E-02;  0.0000000E+00; -3.6732142E-03;  9.9917816E+02;  1.0000000E-01; -6.8086957E+02;3; -6.5115199E+00;  0.0000000E+00; -8.6222512E-01;0; -2.3090893E-02;  3.9925227E+04;  0.0000000E+00;  1.3011068E-01;  4.0000000E+04;  0.0000000E+00;  4.0008910E+04; -4.8244428E-02;  0.0000000E+00;  2.5153534E-02;  1.2116410E+03;
  4.2187873E-01;  9.9999998E-03; -9.0008803E-02;5029;  2.0024780E-02;  0.0000000E+00; -3.3724601E-03;  9.9921991E+02;  1.0000000E-01; -6.4630267E+02;3; -6.6886249E+00;  0.0000000E+00; -7.5668031E-01;0; -2.1968804E-02;  3.9929062E+04;  0.0000000E+00;  1.1327239E-01;  4.0000000E+04;  0.0000000E+00;  4.0008605E+04; -4.9369939E-02;  0.0000000E+00;  2.7401134E-02;  1.1644102E+03;
  4.2187613E-01;  9.9999998E-03; -8.0009528E-02;5030;  2.0184275E-02;  0.0000000E+00; -3.0335141E-03;  9.9925549E+02;  1.0000000E-01; -6.1682202E+02;3; -6.8595009E+00;  0.0000000E+00; -6.3651454E-01;0; -2.0827400E-02;  3.9932527E+04;  0.0000000E+00;  9.4237328E-02;  4.0000000E+04;  0.0000000E+00;  4.0008055E+04; -5.0374769E-02;  0.0000000E+00;  2.9547369E-02;  1.0983518E+03;
  4.2186964E-01;  9.9999998E-03; -7.0010073E-02;5031;  2.0314306E-02;  0.0000000E+00; -2.6620138E-03;  9.9928638E+02;  1.0000000E-01; -5.9124249E+02;3; -7.0172939E+00;  0.0000000E+00; -5.2293736E-01;0; -1.9714970E-02;  3.9935598E+04;  0.0000000E+00;  7.4753217E-02;  4.0000000E+04;  0.0000000E+00;  4.0007449E+04; -5.1252142E-02;  0.0000000E+00;  3.1537171E-02;  1.0145881E+03;
  4.2186061E-01;  9.9999998E-03; -6.0010199E-02;5032;  2.0418331E-02;  0.0000000E+00; -2.2722960E-03;  9.9931146E+02;  1.0000000E-01; -5.7045294E+02;3; -7.1606483E+00;  0.0000000E+00; -4.1630131E-01;0; -1.8675182E-02;  3.9938305E+04;  0.0000000E+00;  5.6206413E-02;  4.0000000E+04;  0.0000000E+00;  4.0006852E+04; -5.1999051E-02;  0.0000000E+00;  3.3323869E-02;  9.1654291E+02;
  4.2184997E-01;  9.9999998E-03; -5.0009791E-02;5033;  2.0499932E-02;  0.0000000E+00; -1.8765745E-03;  9.9932526E+02;  1.0000000E-01; -5.5899652E+02;3; -7.2868090E+00;  0.0000000E+00; -3.2392320E-01;0; -1.7744087E-02;  3.9940504E+04;  0.0000000E+00;  3.9591338E-02;  4.0000000E+04;  0.0000000E+00;  4.0005934E+04; -5.2616011E-02;  0.0000000E+00;  3.4871925E-02;  8.1019000E+02;
  4.2183873E-01;  9.9999998E-03; -4.0008828E-02;5034;  2.0562962E-02;  0.0000000E+00; -1.4834050E-03;  9.9933606E+02;  1.0000000E-01; -5.5005847E+02;3; -7.3901815E+00;  0.0000000E+00; -2.4552937E-01;0; -1.6950268E-02;  3.9942180E+04;  0.0000000E+00;  2.5546554E-02;  4.0000000E+04;  0.0000000E+00;  4.0004977E+04; -5.3107049E-02;  0.0000000E+00;  3.6156781E-02;  7.0372711E+02;
  4.2182821E-01;  9.9999998E-03; -3.0007271E-02;5035;  2.0609882E-02;  0.0000000E+00; -1.0994314E-03;  9.9934308E+02;  1.0000000E-01; -5.4423151E+02;3; -7.4704266E+00;  0.0000000E+00; -1.7762479E-01;0; -1.6314559E-02;  3.9943703E+04;  0.0000000E+00;  1.4431928E-02;  4.0000000E+04;  0.0000000E+00;  4.0004234E+04; -5.3478330E-02;  0.0000000E+00;  3.7163772E-02;  6.0664240E+02;
  4.2181900E-01;  9.9999998E-03; -2.0005165E-02;5036;  2.0642605E-02;  0.0000000E+00; -7.2622712E-04;  9.9934570E+02;  1.0000000E-01; -5.4205872E+02;3; -7.5246983E+00;  0.0000000E+00; -1.1826796E-01;0; -1.5851412E-02;  3.9944543E+04;  0.0000000E+00;  6.4274506E-03;  4.0000000E+04;  0.0000000E+00;  4.0003676E+04; -5.3736508E-02;  0.0000000E+00;  3.7885096E-02;  5.2855621E+02;
  4.2181322E-01;  9.9999998E-03; -1.0002687E-02;5037;  2.0662017E-02;  0.0000000E+00; -3.6039314E-04;  9.9934442E+02;  1.0000000E-01; -5.4314508E+02;3; -7.5572009E+00;  0.0000000E+00; -5.5629477E-02;0; -1.5570175E-02;  3.9945184E+04;  0.0000000E+00;  1.6082294E-03;  4.0000000E+04;  0.0000000E+00;  4.0003312E+04; -5.3888518E-02;  0.0000000E+00;  3.8318343E-02;  4.7790918E+02;
  4.2181113E-01;  9.9999998E-03;  1.1566703E-09;5038;  2.0668523E-02;  0.0000000E+00;  1.0899462E-08;  9.9934473E+02;  1.0000000E-01; -5.4289819E+02;3; -7.5679336E+00;  0.0000000E+00; -8.0794689E-06;0; -1.5475895E-02;  3.9945422E+04;  0.0000000E+00; -1.4174183E-13;  4.0000000E+04;  0.0000000E+00;  4.0003148E+04; -5.3938650E-02;  0.0000000E+00;  3.8462754E-02;  4.6036340E+02;
  4.2181322E-01;  9.9999998E-03;  1.0002689E-02;5039;  2.0662013E-02;  0.0000000E+00;  3.6041462E-04;  9.9934442E+02;  1.0000000E-01; -5.4314508E+02;3; -7.5572224E+00;  0.0000000E+00;  5.5618595E-02;0; -1.5570197E-02;  3.9945188E+04;  0.0000000E+00;  1.6081899E-03;  4.0000000E+04;  0.0000000E+00;  4.0003312E+04; -5.3888526E-02;  0.0000000E+00;  3.8318329E-02;  4.7790878E+02;
  4.2181900E-01;  9.9999998E-03;  2.0005167E-02;5040;  2.0642607E-02;  0.0000000E+00;  7.2624645E-04;  9.9934564E+02;  1.0000000E-01; -5.4210809E+02;3; -7.5246634E+00;  0.0000000E+00;  1.1826085E-01;0; -1.5851453E-02;  3.9944539E+04;  0.0000000E+00;  6.4272117E-03;  4.0000000E+04;  0.0000000E+00;  4.0003676E+04; -5.3736508E-02;  0.0000000E+00;  3.7885055E-02;  5.2856256E+02;
  4.2182821E-01;  9.9999998E-03;  3.0007273E-02;5041;  2.0609882E-02;  0.0000000E+00;  1.0994481E-03;  9.9934308E+02;  1.0000000E-01; -5.4423151E+02;3; -7.4704275E+00;  0.0000000E+00;  1.7761865E-01;0; -1.6314540E-02;  3.9943703E+04;  0.0000000E+00;  1.4431479E-02;  4.0000000E+04;  0.0000000E+00;  4.0004234E+04; -5.3478315E-02;  0.0000000E+00;  3.7163775E-02;  6.0664630E+02;
  4.2183873E-01;  9.9999998E-03;  4.0008832E-02;5042;  2.0562960E-02;  0.0000000E+00;  1.4834190E-03;  9.9933606E+02;  1.0000000E-01; -5.5005847E+02;3; -7.3901486E+00;  0.0000000E+00;  2.4552798E-01;0; -1.6950324E-02;  3.9942180E+04;  0.0000000E+00;  2.5545200E-02;  4.0000000E+04;  0.0000000E+00;  4.0004980E+04; -5.3107094E-02;  0.0000000E+00;  3.6156770E-02;  7.0373230E+02;
  4.2184997E-01;  9.9999998E-03;  5.0009791E-02;5043;  2.0499932E-02;  0.0000000E+00;  1.8765866E-03;  9.9932532E+02;  1.0000000E-01; -5.5894708E+02;3; -7.2868314E+00;  0.0000000E+00;  3.2392558E-01;0; -1.7744157E-02;  3.9940508E+04;  0.0000000E+00;  3.9591443E-02;  4.0000000E+04;  0.0000000E+00;  4.0005934E+04; -5.2616108E-02;  0.0000000E+00;  3.4871951E-02;  8.1020276E+02;
  4.2186061E-01;  9.9999998E-03;  6.0010199E-02;5044;  2.0418327E-02;  0.0000000E+00;  2.2723072E-03;  9.9931146E+02;  1.0000000E-01; -5.7045294E+02;3; -7.1606731E+00;  0.0000000E+00;  4.1631588E-01;0; -1.8675238E-02;  3.9938297E+04;  0.0000000E+00;  5.6206163E-02;  4.0000000E+04;  0.0000000E+00;  4.0006855E+04; -5.1999107E-02;  0.0000000E+00;  3.3323869E-02;  9.1655518E+02;
  4.3190181E-01;  9.9999998E-03; -1.0001229E-01;5089;  1.9307336E-02;  0.0000000E+00; -4.1233096E-03;  9.9908673E+02;  1.0000000E-01; -7.5662054E+02;3; -6.4942513E+00;  0.0000000E+00; -8.4230739E-01;0; -2.3269938E-02;  3.9917602E+04;  0.0000000E+00;  1.2466231E-01;  4.0000000E+04;  0.0000000E+00;  4.0009332E+04; -5.1943570E-02;  0.0000000E+00;  2.8673632E-02;  1.2508339E+03;
  4.3190631E-01;  9.9999998E-03; -9.0012476E-02;5090;  1.9490851E-02;  0.0000000E+00; -3.7787671E-03;  9.9912073E+02;  1.0000000E-01; -7.2847314E+02;3; -6.6771011E+00;  0.0000000E+00; -7.2777671E-01;0; -2.2071339E-02;  3.9920848E+04;  0.0000000E+00;  1.0843397E-01;  4.0000000E+04;  0.0000000E+00;  4.0008719E+04; -5.3175747E-02;  0.0000000E+00;  3.1104408E-02;  1.1824962E+03;
  4.3190670E-01;  9.9999998E-03; -8.0012418E-02;5091;  1.9646147E-02;  0.0000000E+00; -3.3941495E-03;  9.9914581E+02;  1.0000000E-01; -7.0768365E+02;3; -6.8447528E+00;  0.0000000E+00; -6.0921967E-01;0; -2.0843808E-02;  3.9923707E+04;  0.0000000E+00;  9.0234995E-02;  4.0000000E+04;  0.0000000E+00;  4.0008035E+04; -5.4268871E-02;  0.0000000E+00;  3.3425063E-02;  1.0992651E+03;
  4.3190271E-01;  9.9999998E-03; -7.0012085E-02;5092;  1.9775748E-02;  0.0000000E+00; -2.9779773E-03;  9.9916333E+02;  1.0000000E-01; -6.9316553E+02;3; -7.0026841E+00;  0.0000000E+00; -4.9634171E-01;0; -1.9640312E-02;  3.9925883E+04;  0.0000000E+00;  7.1649060E-02;  4.0000000E+04;  0.0000000E+00;  4.0007379E+04; -5.5217456E-02;  0.0000000E+00;  3.5577144E-02;  1.0038888E+03;
  4.3189555E-01;  9.9999998E-03; -6.0011469E-02;5093;  1.9882698E-02;  0.0000000E+00; -2.5441919E-03;  9.9917126E+02;  1.0000000E-01; -6.8659784E+02;3; -7.1461115E+00;  0.0000000E+00; -3.8986427E-01;0; -1.8509291E-02;  3.9927449E+04;  0.0000000E+00;  5.3949326E-02;  4.0000000E+04;  0.0000000E+00;  4.0006566E+04; -5.6020807E-02;  0.0000000E+00;  3.7511516E-02;  9.0062042E+02;
  4.3188614E-01;  9.9999998E-03; -5.0010510E-02;5094;  1.9969828E-02;  0.0000000E+00; -2.1023429E-03;  9.9917407E+02;  1.0000000E-01; -6.8427692E+02;3; -7.2744651E+00;  0.0000000E+00; -2.9993305E-01;0; -1.7492056E-02;  3.9928617E+04;  0.0000000E+00;  3.8060118E-02;  4.0000000E+04;  0.0000000E+00;  4.0005637E+04; -5.6681953E-02;  0.0000000E+00;  3.9189897E-02;  7.9490698E+02;
  4.3187499E-01;  9.9999998E-03; -4.0009085E-02;5095;  2.0039871E-02;  0.0000000E+00; -1.6655149E-03;  9.9917340E+02;  1.0000000E-01; -6.8482007E+02;3; -7.3782511E+00;  0.0000000E+00; -2.2343995E-01;0; -1.6621206E-02;  3.9929371E+04;  0.0000000E+00;  2.4592390E-02;  4.0000000E+04;  0.0000000E+00;  4.0004844E+04; -5.7206575E-02;  0.0000000E+00;  4.0585369E-02;  6.9352704E+02;
  4.3186396E-01;  9.9999998E-03; -3.0007293E-02;5096;  2.0094456E-02;  0.0000000E+00; -1.2375197E-03;  9.9916980E+02;  1.0000000E-01; -6.8778296E+02;3; -7.4569187E+00;  0.0000000E+00; -1.5923125E-01;0; -1.5921567E-02;  3.9929754E+04;  0.0000000E+00;  1.3908921E-02;  4.0000000E+04;  0.0000000E+00;  4.0004102E+04; -5.7602476E-02;  0.0000000E+00;  4.1680910E-02;  6.0399933E+02;
  4.3185467E-01;  9.9999998E-03; -2.0005114E-02;5097;  2.0133892E-02;  0.0000000E+00; -8.1822934E-04;  9.9916620E+02;  1.0000000E-01; -6.9079523E+02;3; -7.5123301E+00;  0.0000000E+00; -1.0130980E-01;0; -1.5410677E-02;  3.9929934E+04;  0.0000000E+00;  6.1994623E-03;  4.0000000E+04;  0.0000000E+00;  4.0003461E+04; -5.7878017E-02;  0.0000000E+00;  4.2467341E-02;  5.3351398E+02;
  4.3184835E-01;  9.9999998E-03; -1.0002602E-02;5098;  2.0157836E-02;  0.0000000E+00; -4.0704553E-04;  9.9916107E+02;  1.0000000E-01; -6.9504199E+02;3; -7.5433922E+00;  0.0000000E+00; -5.0595134E-02;0; -1.5099753E-02;  3.9930211E+04;  0.0000000E+00;  1.5519608E-03;  4.0000000E+04;  0.0000000E+00;  4.0003105E+04; -5.8039982E-02;  0.0000000E+00;  4.2940229E-02;  4.8845209E+02;
  4.3184641E-01;  9.9999998E-03;  1.1973810E-09;5099;  2.0165898E-02;  0.0000000E+00;  1.2023447E-08;  9.9915808E+02;  1.0000000E-01; -6.9751111E+02;3; -7.5539331E+00;  0.0000000E+00; -7.4511754E-06;0; -1.4995582E-02;  3.9930234E+04;  0.0000000E+00; -2.6463320E-13;  4.0000000E+04;  0.0000000E+00;  4.0003113E+04; -5.8093630E-02;  0.0000000E+00;  4.3098047E-02;  4.7289874E+02;
  4.3184835E-01;  9.9999998E-03;  1.0002605E-02;5100;  2.0157833E-02;  0.0000000E+00;  4.0706879E-04;  9.9916113E+02;  1.0000000E-01; -6.9499261E+02;3; -7.5433760E+00;  0.0000000E+00;  5.0583206E-02;0; -1.5099771E-02;  3.9930211E+04;  0.0000000E+00;  1.5518951E-03;  4.0000000E+04;  0.0000000E+00;  4.0003105E+04; -5.8039997E-02;  0.0000000E+00;  4.2940225E-02;  4.8845932E+02;
  4.3185467E-01;  9.9999998E-03;  2.0005116E-02;5101;  2.0133890E-02;  0.0000000E+00;  8.1825070E-04;  9.9916614E+02;  1.0000000E-01; -6.9084460E+02;3; -7.5123444E+00;  0.0000000E+00;  1.0130103E-01;0; -1.5410662E-02;  3.9929934E+04;  0.0000000E+00;  6.1994055E-03;  4.0000000E+04;  0.0000000E+00;  4.0003461E+04; -5.7877991E-02;  0.0000000E+00;  4.2467330E-02;  5.3351617E+02;
  4.3186396E-01;  9.9999998E-03;  3.0007295E-02;5102;  2.0094454E-02;  0.0000000E+00;  1.2375379E-03;  9.9916980E+02;  1.0000000E-01; -6.8778296E+02;3; -7.4569297E+00;  0.0000000E+00;  1.5922330E-01;0; -1.5921671E-02;  3.9929754E+04;  0.0000000E+00;  1.3909174E-02;  4.0000000E+04;  0.0000000E+00;  4.0004102E+04; -5.7602555E-02;  0.0000000E+00;  4.1680884E-02;  6.0399683E+02;
  4.3187499E-01;  9.9999998E-03;  4.0009085E-02;5103;  2.0039873E-02;  0.0000000E+00;  1.6655300E-03;  9.9917322E+02;  1.0000000E-01; -6.8496820E+02;3; -7.3782167E+00;  0.0000000E+00;  2.2343446E-01;0; -1.6621292E-02;  3.9929371E+04;  0.0000000E+00;  2.4591953E-02;  4.0000000E+04;  0.0000000E+00;  4.0004844E+04; -5.7206590E-02;  0.0000000E+00;  4.0585298E-02;  6.9353473E+02;
  4.3188614E-01;  9.9999998E-03;  5.0010510E-02;5104;  1.9969828E-02;  0.0000000E+00;  2.1023555E-03;  9.9917401E+02;  1.0000000E-01; -6.8432629E+02;3; -7.2744479E+00;  0.0000000E+00;  2.9993111E-01;0; -1.7492149E-02;  3.9928621E+04;  0.0000000E+00;  3.8059950E-02;  4.0000000E+04;  0.0000000E+00;  4.0005641E+04; -5.6682006E-02;  0.0000000E+00;  3.9189856E-02;  7.9490863E+02;
  4.3189555E-01;  9.9999998E-03;  6.0011473E-02;5105;  1.9882698E-02;  0.0000000E+00;  2.5442031E-03;  9.9917126E+02;  1.0000000E-01; -6.8659784E+02;3; -7.1461096E+00;  0.0000000E+00;  3.8987011E-01;0; -1.8509362E-02;  3.9927453E+04;  0.0000000E+00;  5.3947680E-02;  4.0000000E+04;  0.0000000E+00;  4.0006566E+04; -5.6020822E-02;  0.0000000E+00;  3.7511460E-02;  9.0062097E+02;
  4.4193497E-01;  9.9999998E-03; -1.0001381E-01;5150;  1.8736307E-02;  0.0000000E+00; -4.5751282E-03;  9.9903296E+02;  1.0000000E-01; -8.0116248E+02;3; -6.4797173E+00;  0.0000000E+00; -8.1376684E-01;0; -2.3545776E-02;  3.9913121E+04;  0.0000000E+00;  1.0921405E-01;  4.0000000E+04;  0.0000000E+00;  4.0009418E+04; -5.5711508E-02;  0.0000000E+00;  3.2165732E-02;  1.2696664E+03;
  4.4194037E-01;  9.9999998E-03; -9.0013243E-02;5151;  1.8911181E-02;  0.0000000E+00; -4.1931197E-03;  9.9905762E+02;  1.0000000E-01; -7.8076801E+02;3; -6.6557574E+00;  0.0000000E+00; -7.0000428E-01;0; -2.2297051E-02;  3.9915789E+04;  0.0000000E+00;  9.5757663E-02;  4.0000000E+04;  0.0000000E+00;  4.0008754E+04; -5.7075690E-02;  0.0000000E+00;  3.4778640E-02;  1.1925367E+03;
  4.4194177E-01;  9.9999998E-03; -8.0012240E-02;5152;  1.9061746E-02;  0.0000000E+00; -3.7697332E-03;  9.9907593E+02;  1.0000000E-01; -7.6555853E+02;3; -6.8243294E+00;  0.0000000E+00; -5.8482051E-01;0; -2.1008566E-02;  3.9917934E+04;  0.0000000E+00;  8.0264501E-02;  4.0000000E+04;  0.0000000E+00;  4.0008059E+04; -5.8285482E-02;  0.0000000E+00;  3.7276916E-02;  1.1052633E+03;
  4.4193920E-01;  9.9999998E-03; -7.0011079E-02;5153;  1.9190257E-02;  0.0000000E+00; -3.3143137E-03;  9.9908264E+02;  1.0000000E-01; -7.6002783E+02;3; -6.9825225E+00;  0.0000000E+00; -4.7502807E-01;0; -1.9736659E-02;  3.9919305E+04;  0.0000000E+00;  6.4153209E-02;  4.0000000E+04;  0.0000000E+00;  4.0007332E+04; -5.9336647E-02;  0.0000000E+00;  3.9599989E-02;  1.0116426E+03;
  4.4193375E-01;  9.9999998E-03; -6.0009923E-02;5154;  1.9299356E-02;  0.0000000E+00; -2.8381208E-03;  9.9908112E+02;  1.0000000E-01; -7.6126239E+02;3; -7.1274347E+00;  0.0000000E+00; -3.6780554E-01;0; -1.8533815E-02;  3.9919871E+04;  0.0000000E+00;  4.8589125E-02;  4.0000000E+04;  0.0000000E+00;  4.0006645E+04; -6.0229409E-02;  0.0000000E+00;  4.1695595E-02;  9.1582227E+02;
  4.4192621E-01;  9.9999998E-03; -5.0008710E-02;5155;  1.9390602E-02;  0.0000000E+00; -2.3543816E-03;  9.9907233E+02;  1.0000000E-01; -7.6857080E+02;3; -7.2541585E+00;  0.0000000E+00; -2.8182366E-01;0; -1.7445408E-02;  3.9920051E+04;  0.0000000E+00;  3.4452718E-02;  4.0000000E+04;  0.0000000E+00;  4.0005871E+04; -6.0967214E-02;  0.0000000E+00;  4.3521807E-02;  8.2250641E+02;
  4.4191748E-01;  9.9999998E-03; -4.0007371E-02;5156;  1.9466277E-02;  0.0000000E+00; -1.8731969E-03;  9.9906104E+02;  1.0000000E-01; -7.7790387E+02;3; -7.3591447E+00;  0.0000000E+00; -2.0464467E-01;0; -1.6508676E-02;  3.9920016E+04;  0.0000000E+00;  2.2354767E-02;  4.0000000E+04;  0.0000000E+00;  4.0005055E+04; -6.1555874E-02;  0.0000000E+00;  4.5047197E-02;  7.3663269E+02;
  4.4190785E-01;  9.9999998E-03; -3.0005848E-02;5157;  1.9527052E-02;  0.0000000E+00; -1.3965240E-03;  9.9904865E+02;  1.0000000E-01; -7.8817517E+02;3; -7.4387140E+00;  0.0000000E+00; -1.4216836E-01;0; -1.5752345E-02;  3.9919617E+04;  0.0000000E+00;  1.2684242E-02;  4.0000000E+04;  0.0000000E+00;  4.0004539E+04; -6.2002227E-02;  0.0000000E+00;  4.6249881E-02;  6.6314453E+02;
  4.4189969E-01;  9.9999998E-03; -2.0004107E-02;5158;  1.9571971E-02;  0.0000000E+00; -9.2647166E-04;  9.9903601E+02;  1.0000000E-01; -7.9864404E+02;3; -7.4930563E+00;  0.0000000E+00; -9.0134047E-02;0; -1.5197717E-02;  3.9919273E+04;  0.0000000E+00;  5.6666853E-03;  4.0000000E+04;  0.0000000E+00;  4.0004055E+04; -6.2314235E-02;  0.0000000E+00;  4.7116518E-02;  6.0666199E+02;
  4.4189432E-01;  9.9999998E-03; -1.0002125E-02;5159;  1.9599803E-02;  0.0000000E+00; -4.6187593E-04;  9.9903003E+02;  1.0000000E-01; -8.0358215E+02;3; -7.5236731E+00;  0.0000000E+00; -4.2979073E-02;0; -1.4859516E-02;  3.9918914E+04;  0.0000000E+00;  1.4205312E-03;  4.0000000E+04;  0.0000000E+00;  4.0003777E+04; -6.2498685E-02;  0.0000000E+00;  4.7639169E-02;  5.7109174E+02;
  4.4189185E-01;  9.9999998E-03;  1.2533157E-09;5160;  1.9609172E-02;  0.0000000E+00;  1.3014083E-08;  9.9902722E+02;  1.0000000E-01; -8.0595245E+02;3; -7.5334530E+00;  0.0000000E+00; -3.7940008E-06;0; -1.4745872E-02;  3.9918852E+04;  0.0000000E+00; -1.9412395E-12;  4.0000000E+04;  0.0000000E+00;  4.0003766E+04; -6.2559403E-02;  0.0000000E+00;  4.7813531E-02;  5.5894476E+02;
  4.4189432E-01;  9.9999998E-03;  1.0002128E-02;5161;  1.9599803E-02;  0.0000000E+00;  4.6190154E-04;  9.9903003E+02;  1.0000000E-01; -8.0358215E+02;3; -7.5236492E+00;  0.0000000E+00;  4.2966966E-02;0; -1.4859524E-02;  3.9918914E+04;  0.0000000E+00;  1.4205700E-03;  4.0000000E+04;  0.0000000E+00;  4.0003777E+04; -6.2498674E-02;  0.0000000E+00;  4.7639150E-02;  5.7108588E+02;
  4.4189969E-01;  9.9999998E-03;  2.0004109E-02;5162;  1.9571971E-02;  0.0000000E+00;  9.2649460E-04;  9.9903601E+02;  1.0000000E-01; -7.9864404E+02;3; -7.4930315E+00;  0.0000000E+00;  9.0123639E-02;0; -1.5197791E-02;  3.9919270E+04;  0.0000000E+00;  5.6665172E-03;  4.0000000E+04;  0.0000000E+00;  4.0004055E+04; -6.2314257E-02;  0.0000000E+00;  4.7116466E-02;  6.0666083E+02;
  4.4190785E-01;  9.9999998E-03;  3.0005850E-02;5163;  1.9527050E-02;  0.0000000E+00;  1.3965440E-03;  9.9904865E+02;  1.0000000E-01; -7.8817517E+02;3; -7.4387674E+00;  0.0000000E+00;  1.4216538E-01;0; -1.5752468E-02;  3.9919613E+04;  0.0000000E+00;  1.2683949E-02;  4.0000000E+04;  0.0000000E+00;  4.0004539E+04; -6.2002290E-02;  0.0000000E+00;  4.6249822E-02;  6.6315741E+02;
  4.4191748E-01;  9.9999998E-03;  4.0007371E-02;5164;  1.9466277E-02;  0.0000000E+00;  1.8732133E-03;  9.9906097E+02;  1.0000000E-01; -7.7795325E+02;3; -7.3591657E+00;  0.0000000E+00;  2.0464118E-01;0; -1.6508646E-02;  3.9920008E+04;  0.0000000E+00;  2.2354105E-02;  4.0000000E+04;  0.0000000E+00;  4.0005055E+04; -6.1555848E-02;  0.0000000E+00;  4.5047201E-02;  7.3663702E+02;
  4.4192621E-01;  9.9999998E-03;  5.0008710E-02;5165;  1.9390600E-02;  0.0000000E+00;  2.3543949E-03;  9.9907239E+02;  1.0000000E-01; -7.6852142E+02;3; -7.2541604E+00;  0.0000000E+00;  2.8182644E-01;0; -1.7445441E-02;  3.9920051E+04;  0.0000000E+00;  3.4452356E-02;  4.0000000E+04;  0.0000000E+00;  4.0005871E+04; -6.0967229E-02;  0.0000000E+00;  4.3521788E-02;  8.2251624E+02;
  4.4193375E-01;  9.9999998E-03;  6.0009927E-02;5166;  1.9299354E-02;  0.0000000E+00;  2.8381329E-03;  9.9908105E+02;  1.0000000E-01; -7.6131177E+02;3; -7.1274338E+00;  0.0000000E+00;  3.6781406E-01;0; -1.8533904E-02;  3.9919871E+04;  0.0000000E+00;  4.8588980E-02;  4.0000000E+04;  0.0000000E+00;  4.0006641E+04; -6.0229510E-02;  0.0000000E+00;  4.1695606E-02;  9.1581775E+02;
  4.5195758E-01;  9.9999998E-03; -1.0001034E-01;5211;  1.8124552E-02;  0.0000000E+00; -5.0309687E-03;  9.9902228E+02;  1.0000000E-01; -8.1000171E+02;3; -6.4536462E+00;  0.0000000E+00; -7.8890538E-01;0; -2.3920458E-02;  3.9912133E+04;  0.0000000E+00;  8.4255971E-02;  4.0000000E+04;  0.0000000E+00;  4.0009359E+04; -5.9525311E-02;  0.0000000E+00;  3.5604853E-02;  1.2723750E+03;
  4.5196319E-01;  9.9999998E-03; -9.0009376E-02;5212;  1.8289493E-02;  0.0000000E+00; -4.6158857E-03;  9.9904230E+02;  1.0000000E-01; -7.9345898E+02;3; -6.6297693E+00;  0.0000000E+00; -6.7752248E-01;0; -2.2647712E-02;  3.9914484E+04;  0.0000000E+00;  7.5183183E-02;  4.0000000E+04;  0.0000000E+00;  4.0008926E+04; -6.1046865E-02;  0.0000000E+00;  3.8399152E-02;  1.1989058E+03;
  4.5196599E-01;  9.9999998E-03; -8.0007903E-02;5213;  1.8433724E-02;  0.0000000E+00; -4.1597653E-03;  9.9905054E+02;  1.0000000E-01; -7.8659497E+02;3; -6.7985363E+00;  0.0000000E+00; -5.6351840E-01;0; -2.1322597E-02;  3.9915793E+04;  0.0000000E+00;  6.3997924E-02;  4.0000000E+04;  0.0000000E+00;  4.0008125E+04; -6.2401824E-02;  0.0000000E+00;  4.1079227E-02;  1.1200654E+03;
  4.5196629E-01;  9.9999998E-03; -7.0006348E-02;5214;  1.8559154E-02;  0.0000000E+00; -3.6707583E-03;  9.9905280E+02;  1.0000000E-01; -7.8471851E+02;3; -6.9573522E+00;  0.0000000E+00; -4.5642379E-01;0; -2.0003852E-02;  3.9916570E+04;  0.0000000E+00;  5.1854815E-02;  4.0000000E+04;  0.0000000E+00;  4.0007562E+04; -6.3586496E-02;  0.0000000E+00;  4.3582644E-02;  1.0400150E+03;
  4.5196435E-01;  9.9999998E-03; -6.0004976E-02;5215;  1.8668028E-02;  0.0000000E+00; -3.1559658E-03;  9.9904315E+02;  1.0000000E-01; -7.9271826E+02;3; -7.1016569E+00;  0.0000000E+00; -3.5289004E-01;0; -1.8746994E-02;  3.9916531E+04;  0.0000000E+00;  3.9750729E-02;  4.0000000E+04;  0.0000000E+00;  4.0006949E+04; -6.4600289E-02;  0.0000000E+00;  4.5853294E-02;  9.6259650E+02;
  4.5196062E-01;  9.9999998E-03; -5.0003957E-02;5216;  1.8760687E-02;  0.0000000E+00; -2.6326939E-03;  9.9902899E+02;  1.0000000E-01; -8.0447101E+02;3; -7.2292137E+00;  0.0000000E+00; -2.6642892E-01;0; -1.7601348E-02;  3.9916152E+04;  0.0000000E+00;  2.8482093E-02;  4.0000000E+04;  0.0000000E+00;  4.0006324E+04; -6.5445289E-02;  0.0000000E+00;  4.7843941E-02;  8.9121906E+02;
  4.5195588E-01;  9.9999998E-03; -4.0003169E-02;5217;  1.8839438E-02;  0.0000000E+00; -2.1048978E-03;  9.9901312E+02;  1.0000000E-01; -8.1760645E+02;3; -7.3335218E+00;  0.0000000E+00; -1.8934351E-01;0; -1.6608715E-02;  3.9915477E+04;  0.0000000E+00;  1.8644797E-02;  4.0000000E+04;  0.0000000E+00;  4.0005820E+04; -6.6125885E-02;  0.0000000E+00;  4.9517170E-02;  8.2871820E+02;
  4.5195138E-01;  9.9999998E-03; -3.0002490E-02;5218;  1.8903617E-02;  0.0000000E+00; -1.5767456E-03;  9.9899969E+02;  1.0000000E-01; -8.2871722E+02;3; -7.4133306E+00;  0.0000000E+00; -1.2769222E-01;0; -1.5802655E-02;  3.9914582E+04;  0.0000000E+00;  1.0653755E-02;  4.0000000E+04;  0.0000000E+00;  4.0005355E+04; -6.6647463E-02;  0.0000000E+00;  5.0844807E-02;  7.7748199E+02;
  4.5194736E-01;  9.9999998E-03; -2.0001840E-02;5219;  1.8951898E-02;  0.0000000E+00; -1.0501768E-03;  9.9898322E+02;  1.0000000E-01; -8.4239587E+02;3; -7.4680676E+00;  0.0000000E+00; -7.7981874E-02;0; -1.5208874E-02;  3.9913789E+04;  0.0000000E+00;  4.7837058E-03;  4.0000000E+04;  0.0000000E+00;  4.0005125E+04; -6.7015201E-02;  0.0000000E+00;  5.1806327E-02;  7.3943396E+02;
  4.5194444E-01;  9.9999998E-03; -1.0000985E-02;5220;  1.8982142E-02;  0.0000000E+00; -5.2507018E-04;  9.9897400E+02;  1.0000000E-01; -8.5000061E+02;3; -7.4972081E+00;  0.0000000E+00; -3.8053542E-02;0; -1.4845397E-02;  3.9913250E+04;  0.0000000E+00;  1.2027823E-03;  4.0000000E+04;  0.0000000E+00;  4.0004992E+04; -6.7233652E-02;  0.0000000E+00;  5.2388255E-02;  7.1601251E+02;
  4.5194334E-01;  9.9999998E-03;  1.3453670E-09;5221;  1.8992560E-02;  0.0000000E+00;  1.3660250E-08;  9.9897119E+02;  1.0000000E-01; -8.5237091E+02;3; -7.5058956E+00;  0.0000000E+00; -6.4113738E-06;0; -1.4723163E-02;  3.9913070E+04;  0.0000000E+00; -2.3702962E-12;  4.0000000E+04;  0.0000000E+00;  4.0005016E+04; -6.7306168E-02;  0.0000000E+00;  5.2583005E-02;  7.0807971E+02;
  4.5194444E-01;  9.9999998E-03;  1.0000988E-02;5222;  1.8982142E-02;  0.0000000E+00;  5.2509637E-04;  9.9897394E+02;  1.0000000E-01; -8.5004999E+02;3; -7.4971976E+00;  0.0000000E+00;  3.8043428E-02;0; -1.4845490E-02;  3.9913250E+04;  0.0000000E+00;  1.2028016E-03;  4.0000000E+04;  0.0000000E+00;  4.0004992E+04; -6.7233786E-02;  0.0000000E+00;  5.2388296E-02;  7.1600897E+02;
  4.5194736E-01;  9.9999998E-03;  2.0001842E-02;5223;  1.8951898E-02;  0.0000000E+00;  1.0502009E-03;  9.9898322E+02;  1.0000000E-01; -8.4239587E+02;3; -7.4680672E+00;  0.0000000E+00;  7.7971123E-02;0; -1.5208907E-02;  3.9913789E+04;  0.0000000E+00;  4.7837351E-03;  4.0000000E+04;  0.0000000E+00;  4.0005129E+04; -6.7015193E-02;  0.0000000E+00;  5.1806286E-02;  7.3943408E+02;
  4.5195138E-01;  9.9999998E-03;  3.0002492E-02;5224;  1.8903619E-02;  0.0000000E+00;  1.5767665E-03;  9.9899957E+02;  1.0000000E-01; -8.2881598E+02;3; -7.4132996E+00;  0.0000000E+00;  1.2768391E-01;0; -1.5802603E-02;  3.9914590E+04;  0.0000000E+00;  1.0653689E-02;  4.0000000E+04;  0.0000000E+00;  4.0005355E+04; -6.6647455E-02;  0.0000000E+00;  5.0844852E-02;  7.7749359E+02;
  4.5195588E-01;  9.9999998E-03;  4.0003169E-02;5225;  1.8839438E-02;  0.0000000E+00;  2.1049150E-03;  9.9901312E+02;  1.0000000E-01; -8.1760645E+02;3; -7.3335381E+00;  0.0000000E+00;  1.8934372E-01;0; -1.6608674E-02;  3.9915477E+04;  0.0000000E+00;  1.8645534E-02;  4.0000000E+04;  0.0000000E+00;  4.0005816E+04; -6.6125870E-02;  0.0000000E+00;  4.9517196E-02;  8.2871729E+02;
  4.5196062E-01;  9.9999998E-03;  5.0003957E-02;5226;  1.8760685E-02;  0.0000000E+00;  2.6327078E-03;  9.9902905E+02;  1.0000000E-01; -8.0442163E+02;3; -7.2292032E+00;  0.0000000E+00;  2.6642638E-01;0; -1.7601404E-02;  3.9916152E+04;  0.0000000E+00;  2.8482441E-02;  4.0000000E+04;  0.0000000E+00;  4.0006324E+04; -6.5445304E-02;  0.0000000E+00;  4.7843900E-02;  8.9123364E+02;
  4.5196435E-01;  9.9999998E-03;  6.0004979E-02;5227;  1.8668026E-02;  0.0000000E+00;  3.1559798E-03;  9.9904315E+02;  1.0000000E-01; -7.9271826E+02;3; -7.1016517E+00;  0.0000000E+00;  3.5289678E-01;0; -1.8746983E-02;  3.9916531E+04;  0.0000000E+00;  3.9752111E-02;  4.0000000E+04;  0.0000000E+00;  4.0006949E+04; -6.4600296E-02;  0.0000000E+00;  4.5853313E-02;  9.6258820E+02;
  4.6196216E-01;  9.9999998E-03; -1.0000230E-01;5272;  1.7476566E-02;  0.0000000E+00; -5.4892492E-03;  9.9905005E+02;  1.0000000E-01; -7.8703943E+02;3; -6.4200368E+00;  0.0000000E+00; -7.6533526E-01;0; -2.4391122E-02;  3.9914465E+04;  0.0000000E+00;  5.1180787E-02;  4.0000000E+04;  0.0000000E+00;  4.0009277E+04; -6.3365489E-02;  0.0000000E+00;  3.8974367E-02;  1.2630679E+03;
  4.6196902E-01;  9.9999998E-03; -9.0001523E-02;5273;  1.7629476E-02;  0.0000000E+00; -5.0467378E-03;  9.9906598E+02;  1.0000000E-01; -7.7380524E+02;3; -6.5968184E+00;  0.0000000E+00; -6.5750736E-01;0; -2.3117945E-02;  3.9916387E+04;  0.0000000E+00;  4.7336657E-02;  4.0000000E+04;  0.0000000E+00;  4.0008992E+04; -6.5068066E-02;  0.0000000E+00;  4.1950122E-02;  1.2041035E+03;
  4.6197471E-01;  9.9999998E-03; -8.0000363E-02;5274;  1.7764866E-02;  0.0000000E+00; -4.5630019E-03;  9.9907343E+02;  1.0000000E-01; -7.6763257E+02;3; -6.7660460E+00;  0.0000000E+00; -5.4658937E-01;0; -2.1778725E-02;  3.9917449E+04;  0.0000000E+00;  4.1548651E-02;  4.0000000E+04;  0.0000000E+00;  4.0008395E+04; -6.6594623E-02;  0.0000000E+00;  4.4815898E-02;  1.1441182E+03;
  4.6197882E-01;  9.9999998E-03; -6.9999188E-02;5275;  1.7884376E-02;  0.0000000E+00; -4.0440350E-03;  9.9907178E+02;  1.0000000E-01; -7.6901526E+02;3; -6.9243469E+00;  0.0000000E+00; -4.3991670E-01;0; -2.0433191E-02;  3.9917711E+04;  0.0000000E+00;  3.4578726E-02;  4.0000000E+04;  0.0000000E+00;  4.0007836E+04; -6.7940317E-02;  0.0000000E+00;  4.7507126E-02;  1.0870074E+03;
  4.6198162E-01;  9.9999998E-03; -5.9998322E-02;5276;  1.7989248E-02;  0.0000000E+00; -3.4959570E-03;  9.9906067E+02;  1.0000000E-01; -7.7820013E+02;3; -7.0697646E+00;  0.0000000E+00; -3.4177843E-01;0; -1.9139275E-02;  3.9917574E+04;  0.0000000E+00;  2.7137021E-02;  4.0000000E+04;  0.0000000E+00;  4.0007492E+04; -6.9102935E-02;  0.0000000E+00;  4.9963661E-02;  1.0358624E+03;
  4.6198294E-01;  9.9999998E-03; -4.9997907E-02;5277;  1.8079955E-02;  0.0000000E+00; -2.9337117E-03;  9.9904742E+02;  1.0000000E-01; -7.8921216E+02;3; -7.1960726E+00;  0.0000000E+00; -2.5622800E-01;0; -1.7949887E-02;  3.9916766E+04;  0.0000000E+00;  1.9842472E-02;  4.0000000E+04;  0.0000000E+00;  4.0007152E+04; -7.0082031E-02;  0.0000000E+00;  5.2132145E-02;  9.9268518E+02;
  4.6198359E-01;  9.9999998E-03; -3.9997928E-02;5278;  1.8157935E-02;  0.0000000E+00; -2.3579134E-03;  9.9903424E+02;  1.0000000E-01; -8.0012549E+02;3; -7.3015046E+00;  0.0000000E+00; -1.7805107E-01;0; -1.6911637E-02;  3.9915777E+04;  0.0000000E+00;  1.3209618E-02;  4.0000000E+04;  0.0000000E+00;  4.0006844E+04; -7.0879072E-02;  0.0000000E+00;  5.3967435E-02;  9.5831964E+02;
  4.6198353E-01;  9.9999998E-03; -2.9998338E-02;5279;  1.8222177E-02;  0.0000000E+00; -1.7753679E-03;  9.9901526E+02;  1.0000000E-01; -8.1582874E+02;3; -7.3818607E+00;  0.0000000E+00; -1.1749039E-01;0; -1.6062982E-02;  3.9914855E+04;  0.0000000E+00;  7.6489849E-03;  4.0000000E+04;  0.0000000E+00;  4.0006727E+04; -7.1495570E-02;  0.0000000E+00;  5.5432588E-02;  9.3271277E+02;
  4.6198356E-01;  9.9999998E-03; -1.9998915E-02;5280;  1.8271083E-02;  0.0000000E+00; -1.1867081E-03;  9.9900287E+02;  1.0000000E-01; -8.2610004E+02;3; -7.4367709E+00;  0.0000000E+00; -6.9272958E-02;0; -1.5434880E-02;  3.9913859E+04;  0.0000000E+00;  3.4675535E-03;  4.0000000E+04;  0.0000000E+00;  4.0006527E+04; -7.1934253E-02;  0.0000000E+00;  5.6499373E-02;  9.1526965E+02;
  4.6198386E-01;  9.9999998E-03; -9.9994950E-03;5281;  1.8301757E-02;  0.0000000E+00; -5.9517456E-04;  9.9899628E+02;  1.0000000E-01; -8.3158136E+02;3; -7.4650836E+00;  0.0000000E+00; -3.4255277E-02;0; -1.5049122E-02;  3.9913473E+04;  0.0000000E+00;  8.7686483E-04;  4.0000000E+04;  0.0000000E+00;  4.0006461E+04; -7.2196759E-02;  0.0000000E+00;  5.7147637E-02;  9.0515338E+02;
  4.6198410E-01;  9.9999998E-03;  1.4656756E-09;5282;  1.8312698E-02;  0.0000000E+00;  1.3882688E-08;  9.9899286E+02;  1.0000000E-01; -8.3439612E+02;3; -7.4719296E+00;  0.0000000E+00; -5.6954177E-06;0; -1.4918983E-02;  3.9913223E+04;  0.0000000E+00; -1.8628987E-12;  4.0000000E+04;  0.0000000E+00;  4.0006434E+04; -7.2284199E-02;  0.0000000E+00;  5.7365216E-02;  9.0185480E+02;
  4.6198386E-01;  9.9999998E-03;  9.9994978E-03;5283;  1.8301757E-02;  0.0000000E+00;  5.9520121E-04;  9.9899628E+02;  1.0000000E-01; -8.3158136E+02;3; -7.4650764E+00;  0.0000000E+00;  3.4242354E-02;0; -1.5049215E-02;  3.9913473E+04;  0.0000000E+00;  8.7703957E-04;  4.0000000E+04;  0.0000000E+00;  4.0006465E+04; -7.2196871E-02;  0.0000000E+00;  5.7147656E-02;  9.0515674E+02;
  4.6198356E-01;  9.9999998E-03;  1.9998917E-02;5284;  1.8271083E-02;  0.0000000E+00;  1.1867329E-03;  9.9900287E+02;  1.0000000E-01; -8.2610004E+02;3; -7.4368000E+00;  0.0000000E+00;  6.9262519E-02;0; -1.5434954E-02;  3.9913863E+04;  0.0000000E+00;  3.4675910E-03;  4.0000000E+04;  0.0000000E+00;  4.0006523E+04; -7.1934313E-02;  0.0000000E+00;  5.6499358E-02;  9.1526501E+02;
  4.6198353E-01;  9.9999998E-03;  2.9998340E-02;5285;  1.8222176E-02;  0.0000000E+00;  1.7753898E-03;  9.9901532E+02;  1.0000000E-01; -8.1577936E+02;3; -7.3818598E+00;  0.0000000E+00;  1.1748528E-01;0; -1.6063105E-02;  3.9914855E+04;  0.0000000E+00;  7.6495213E-03;  4.0000000E+04;  0.0000000E+00;  4.0006727E+04; -7.1495675E-02;  0.0000000E+00;  5.5432569E-02;  9.3271558E+02;
  4.6198359E-01;  9.9999998E-03;  3.9997932E-02;5286;  1.8157935E-02;  0.0000000E+00;  2.3579330E-03;  9.9903418E+02;  1.0000000E-01; -8.0017487E+02;3; -7.3015122E+00;  0.0000000E+00;  1.7804611E-01;0; -1.6911618E-02;  3.9915773E+04;  0.0000000E+00;  1.3209678E-02;  4.0000000E+04;  0.0000000E+00;  4.0006840E+04; -7.0879094E-02;  0.0000000E+00;  5.3967476E-02;  9.5832202E+02;
  4.6198294E-01;  9.9999998E-03;  4.9997911E-02;5287;  1.8079953E-02;  0.0000000E+00;  2.9337290E-03;  9.9904749E+02;  1.0000000E-01; -7.8916278E+02;3; -7.1960745E+00;  0.0000000E+00;  2.5623184E-01;0; -1.7949928E-02;  3.9916766E+04;  0.0000000E+00;  1.9841725E-02;  4.0000000E+04;  0.0000000E+00;  4.0007152E+04; -7.0082091E-02;  0.0000000E+00;  5.2132163E-02;  9.9269647E+02;
  4.6198162E-01;  9.9999998E-03;  5.9998322E-02;5288;  1.7989248E-02;  0.0000000E+00;  3.4959740E-03;  9.9906055E+02;  1.0000000E-01; -7.7829889E+02;3; -7.0697570E+00;  0.0000000E+00;  3.4179071E-01;0; -1.9139256E-02;  3.9917578E+04;  0.0000000E+00;  2.7136637E-02;  4.0000000E+04;  0.0000000E+00;  4.0007492E+04; -6.9102950E-02;  0.0000000E+00;  4.9963694E-02;  1.0358741E+03;
  4.7194794E-01;  9.9999998E-03; -9.9994048E-02;5333;  1.6796270E-02;  0.0000000E+00; -5.9458138E-03;  9.9910114E+02;  1.0000000E-01; -7.4467023E+02;3; -6.3802333E+00;  0.0000000E+00; -7.4694067E-01;0; -2.4955109E-02;  3.9918816E+04;  0.0000000E+00;  1.2202145E-02;  4.0000000E+04;  0.0000000E+00;  4.0009262E+04; -6.7218825E-02;  0.0000000E+00;  4.2263716E-02;  1.2439025E+03;
  4.7195515E-01;  9.9999998E-03; -8.9994065E-02;5334;  1.6934708E-02;  0.0000000E+00; -5.4804683E-03;  9.9911621E+02;  1.0000000E-01; -7.3222614E+02;3; -6.5574460E+00;  0.0000000E+00; -6.3884604E-01;0; -2.3701273E-02;  3.9920359E+04;  0.0000000E+00;  1.3558654E-02;  4.0000000E+04;  0.0000000E+00;  4.0008977E+04; -6.9121793E-02;  0.0000000E+00;  4.5420520E-02;  1.2075983E+03;
  4.7196212E-01;  9.9999998E-03; -7.9993702E-02;5335;  1.7058177E-02;  0.0000000E+00; -4.9737706E-03;  9.9912280E+02;  1.0000000E-01; -7.2674481E+02;3; -6.7264986E+00;  0.0000000E+00; -5.3137898E-01;0; -2.2367381E-02;  3.9921246E+04;  0.0000000E+00;  1.3590993E-02;  4.0000000E+04;  0.0000000E+00;  4.0008660E+04; -7.0840634E-02;  0.0000000E+00;  4.8473254E-02;  1.1739431E+03;
  4.7196910E-01;  9.9999998E-03; -6.9993272E-02;5336;  1.7168066E-02;  0.0000000E+00; -4.4287890E-03;  9.9912122E+02;  1.0000000E-01; -7.2807812E+02;3; -6.8853030E+00;  0.0000000E+00; -4.2717448E-01;0; -2.1012988E-02;  3.9921492E+04;  0.0000000E+00;  1.2539807E-02;  4.0000000E+04;  0.0000000E+00;  4.0008508E+04; -7.2369203E-02;  0.0000000E+00;  5.1356215E-02;  1.1459945E+03;
  4.7197583E-01;  9.9999998E-03; -5.9993029E-02;5337;  1.7265046E-02;  0.0000000E+00; -3.8504212E-03;  9.9911639E+02;  1.0000000E-01; -7.3202863E+02;3; -7.0302987E+00;  0.0000000E+00; -3.3312896E-01;0; -1.9697588E-02;  3.9921352E+04;  0.0000000E+00;  1.0687888E-02;  4.0000000E+04;  0.0000000E+00;  4.0008184E+04; -7.3702395E-02;  0.0000000E+00;  5.4004807E-02;  1.1257606E+03;
  4.7198236E-01;  9.9999998E-03; -4.9993217E-02;5338;  1.7349333E-02;  0.0000000E+00; -3.2499274E-03;  9.9910742E+02;  1.0000000E-01; -7.3948523E+02;3; -7.1571693E+00;  0.0000000E+00; -2.4839516E-01;0; -1.8477738E-02;  3.9920637E+04;  0.0000000E+00;  8.3500128E-03;  4.0000000E+04;  0.0000000E+00;  4.0008191E+04; -7.4836642E-02;  0.0000000E+00;  5.6358904E-02;  1.1138130E+03;
  4.7198835E-01;  9.9999998E-03; -3.9993890E-02;5339;  1.7422253E-02;  0.0000000E+00; -2.6256647E-03;  9.9909839E+02;  1.0000000E-01; -7.4699115E+02;3; -7.2623053E+00;  0.0000000E+00; -1.7209841E-01;0; -1.7404232E-02;  3.9919934E+04;  0.0000000E+00;  5.8565140E-03;  4.0000000E+04;  0.0000000E+00;  4.0008223E+04; -7.5768702E-02;  0.0000000E+00;  5.8364470E-02;  1.1091840E+03;
  4.7199345E-01;  9.9999998E-03; -2.9995022E-02;5340;  1.7482452E-02;  0.0000000E+00; -1.9861865E-03;  9.9908679E+02;  1.0000000E-01; -7.5657117E+02;3; -7.3430672E+00;  0.0000000E+00; -1.1045482E-01;0; -1.6521249E-02;  3.9919094E+04;  0.0000000E+00;  3.5283305E-03;  4.0000000E+04;  0.0000000E+00;  4.0008074E+04; -7.6496355E-02;  0.0000000E+00;  5.9975106E-02;  1.1096866E+03;
  4.7199738E-01;  9.9999998E-03; -1.9996531E-02;5341;  1.7528713E-02;  0.0000000E+00; -1.3322256E-03;  9.9907745E+02;  1.0000000E-01; -7.6432397E+02;3; -7.3980098E+00;  0.0000000E+00; -6.5326624E-02;0; -1.5864197E-02;  3.9918340E+04;  0.0000000E+00;  1.6447385E-03;  4.0000000E+04;  0.0000000E+00;  4.0008062E+04; -7.7017628E-02;  0.0000000E+00;  6.1153430E-02;  1.1126304E+03;
  4.7199997E-01;  9.9999998E-03; -9.9982601E-03;5342;  1.7557923E-02;  0.0000000E+00; -6.7002501E-04;  9.9907422E+02;  1.0000000E-01; -7.6699060E+02;3; -7.4256244E+00;  0.0000000E+00; -3.2494675E-02;0; -1.5459139E-02;  3.9918031E+04;  0.0000000E+00;  4.2288404E-04;  4.0000000E+04;  0.0000000E+00;  4.0008141E+04; -7.7331014E-02;  0.0000000E+00;  6.1871875E-02;  1.1155319E+03;
  4.7200093E-01;  9.9999998E-03;  1.5892464E-09;5343;  1.7568534E-02;  0.0000000E+00;  1.3736496E-08;  9.9907147E+02;  1.0000000E-01; -7.6926215E+02;3; -7.4261370E+00;  0.0000000E+00; -7.7592704E-06;0; -1.5322477E-02;  3.9917543E+04;  0.0000000E+00; -1.9403966E-12;  4.0000000E+04;  0.0000000E+00;  4.0008254E+04; -7.7435687E-02;  0.0000000E+00;  6.2113211E-02;  1.1166608E+03;
  4.7199997E-01;  9.9999998E-03;  9.9982629E-03;5344;  1.7557923E-02;  0.0000000E+00;  6.7005202E-04;  9.9907416E+02;  1.0000000E-01; -7.6703998E+02;3; -7.4256616E+00;  0.0000000E+00;  3.2482803E-02;0; -1.5459161E-02;  3.9918031E+04;  0.0000000E+00;  4.2307036E-04;  4.0000000E+04;  0.0000000E+00;  4.0008141E+04; -7.7331044E-02;  0.0000000E+00;  6.1871883E-02;  1.1155304E+03;
  4.7199738E-01;  9.9999998E-03;  1.9996535E-02;5345;  1.7528713E-02;  0.0000000E+00;  1.3322508E-03;  9.9907745E+02;  1.0000000E-01; -7.6432397E+02;3; -7.3979993E+00;  0.0000000E+00;  6.5316662E-02;0; -1.5864220E-02;  3.9918340E+04;  0.0000000E+00;  1.6450563E-03;  4.0000000E+04;  0.0000000E+00;  4.0008062E+04; -7.7017657E-02;  0.0000000E+00;  6.1153438E-02;  1.1126340E+03;
  4.7199345E-01;  9.9999998E-03;  2.9995026E-02;5346;  1.7482452E-02;  0.0000000E+00;  1.9862086E-03;  9.9908673E+02;  1.0000000E-01; -7.5662054E+02;3; -7.3431149E+00;  0.0000000E+00;  1.1044755E-01;0; -1.6521208E-02;  3.9919098E+04;  0.0000000E+00;  3.5289028E-03;  4.0000000E+04;  0.0000000E+00;  4.0008074E+04; -7.6496348E-02;  0.0000000E+00;  5.9975140E-02;  1.1096929E+03;
  4.7198835E-01;  9.9999998E-03;  3.9993893E-02;5347;  1.7422255E-02;  0.0000000E+00;  2.6256845E-03;  9.9909833E+02;  1.0000000E-01; -7.4704053E+02;3; -7.2622705E+00;  0.0000000E+00;  1.7210057E-01;0; -1.7404400E-02;  3.9919934E+04;  0.0000000E+00;  5.8567333E-03;  4.0000000E+04;  0.0000000E+00;  4.0008227E+04; -7.5768813E-02;  0.0000000E+00;  5.8364414E-02;  1.1091855E+03;
  4.7198236E-01;  9.9999998E-03;  4.9993221E-02;5348;  1.7349333E-02;  0.0000000E+00;  3.2499461E-03;  9.9910742E+02;  1.0000000E-01; -7.3948523E+02;3; -7.1571608E+00;  0.0000000E+00;  2.4840248E-01;0; -1.8477760E-02;  3.9920637E+04;  0.0000000E+00;  8.3494335E-03;  4.0000000E+04;  0.0000000E+00;  4.0008191E+04; -7.4836649E-02;  0.0000000E+00;  5.6358889E-02;  1.1138247E+03;
  4.7197583E-01;  9.9999998E-03;  5.9993032E-02;5349;  1.7265046E-02;  0.0000000E+00;  3.8504382E-03;  9.9911646E+02;  1.0000000E-01; -7.3197925E+02;3; -7.0303001E+00;  0.0000000E+00;  3.3314109E-01;0; -1.9697554E-02;  3.9921352E+04;  0.0000000E+00;  1.0688035E-02;  4.0000000E+04;  0.0000000E+00;  4.0008184E+04; -7.3702365E-02;  0.0000000E+00;  5.4004811E-02;  1.1257646E+03;
  4.8195857E-01;  9.9999998E-03; -9.9988580E-02;5394;  1.6083267E-02;  0.0000000E+00; -6.3991980E-03;  9.9916803E+02;  1.0000148E-01; -6.8926440E+02;3; -6.3331661E+00;  0.0000000E+00; -7.3035157E-01;0; -2.5612172E-02;  3.9923426E+04;  0.0000000E+00; -2.9690253E-02;  4.0000000E+04;  0.0000000E+00;  4.0009051E+04; -7.1093507E-02;  0.0000000E+00;  4.5481335E-02;  1.2148699E+03;
  4.8196772E-01;  9.9999998E-03; -8.9989312E-02;5395;  1.6203895E-02;  0.0000000E+00; -5.9136944E-03;  9.9918628E+02;  1.0000148E-01; -6.7415375E+02;3; -6.5107393E+00;  0.0000000E+00; -6.2376332E-01;0; -2.4393432E-02;  3.9924949E+04;  0.0000000E+00; -2.3970665E-02;  4.0000000E+04;  0.0000000E+00;  4.0008949E+04; -7.3213361E-02;  0.0000000E+00;  4.8819929E-02;  1.2059601E+03;
  4.8197928E-01;  9.9999998E-03; -7.9989582E-02;5396;  1.6311539E-02;  0.0000000E+00; -5.3864513E-03;  9.9919470E+02;  1.0000142E-01; -6.6719098E+02;3; -6.6801314E+00;  0.0000000E+00; -5.1825267E-01;0; -2.3080770E-02;  3.9925625E+04;  0.0000000E+00; -1.8417761E-02;  4.0000000E+04;  0.0000000E+00;  4.0008984E+04; -7.5142547E-02;  0.0000000E+00;  5.2061778E-02;  1.2025679E+03;
  4.8200640E-01;  9.9999998E-03; -5.9989724E-02;5398;  1.6491329E-02;  0.0000000E+00; -4.2111352E-03;  9.9920099E+02;  1.0000145E-01; -6.6195654E+02;3; -6.9841194E+00;  0.0000000E+00; -3.2607836E-01;0; -2.0410914E-02;  3.9926328E+04;  0.0000000E+00; -9.1304751E-03;  4.0000000E+04;  0.0000000E+00;  4.0008906E+04; -7.8394197E-02;  0.0000000E+00;  5.7983283E-02;  1.2184144E+03;
  4.8200640E-01;  9.9999998E-03;  5.9989728E-02;5410;  1.6491324E-02;  0.0000000E+00;  4.2111543E-03;  9.9920099E+02;  1.0000145E-01; -6.6195654E+02;3; -6.9841204E+00;  0.0000000E+00;  3.2609376E-01;0; -2.0410862E-02;  3.9926324E+04;  0.0000000E+00; -9.1300011E-03;  4.0000000E+04;  0.0000000E+00;  4.0008906E+04; -7.8394182E-02;  0.0000000E+00;  5.7983320E-02;  1.2184219E+03;
  4.8199245E-01;  9.9999998E-03; -6.9989651E-02;5397;  1.6407290E-02;  0.0000000E+00; -4.8178150E-03;  9.9919977E+02;  1.0000142E-01; -6.6299353E+02;3; -6.8383579E+00;  0.0000000E+00; -4.1626257E-01;0; -2.1733016E-02;  3.9926203E+04;  0.0000000E+00; -1.3384335E-02;  4.0000000E+04;  0.0000000E+00;  4.0008922E+04; -7.6872274E-02;  0.0000000E+00;  5.5139259E-02;  1.2064639E+03;
  4.8202059E-01;  9.9999998E-03; -4.9990088E-02;5399;  1.6564287E-02;  0.0000000E+00; -3.5725648E-03;  9.9920239E+02;  1.0000148E-01; -6.6082074E+02;3; -7.1101203E+00;  0.0000000E+00; -2.4302474E-01;0; -1.9173406E-02;  3.9925895E+04;  0.0000000E+00; -5.7835625E-03;  4.0000000E+04;  0.0000000E+00;  4.0009152E+04; -7.9700060E-02;  0.0000000E+00;  6.0526654E-02;  1.2375524E+03;
  4.8202059E-01;  9.9999998E-03;  4.9990088E-02;5409;  1.6564285E-02;  0.0000000E+00;  3.5725839E-03;  9.9920239E+02;  1.0000148E-01; -6.6082074E+02;3; -7.1100864E+00;  0.0000000E+00;  2.4302347E-01;0; -1.9173466E-02;  3.9925887E+04;  0.0000000E+00; -5.7815551E-03;  4.0000000E+04;  0.0000000E+00;  4.0009156E+04; -7.9700090E-02;  0.0000000E+00;  6.0526624E-02;  1.2375474E+03;
  4.8206061E-01;  9.9999998E-03; -9.9974051E-03;5403;  1.6744550E-02;  0.0000000E+00; -7.4683881E-04;  9.9919037E+02;  1.0000148E-01; -6.7074640E+02;3; -7.3789444E+00;  0.0000000E+00; -3.3555720E-02;0; -1.6067572E-02;  3.9924492E+04;  0.0000000E+00; -1.6075751E-04;  4.0000000E+04;  0.0000000E+00;  4.0009922E+04; -8.2615398E-02;  0.0000000E+00;  6.6547826E-02;  1.3217699E+03;
  4.8206243E-01;  9.9999998E-03;  1.6838706E-09;5404;  1.6753538E-02;  0.0000000E+00;  1.3666064E-08;  9.9918958E+02;  1.0000145E-01; -6.7143774E+02;3; -7.3799391E+00;  0.0000000E+00; -7.2273087E-06;0; -1.5925355E-02;  3.9924430E+04;  0.0000000E+00; -1.5257617E-12;  4.0000000E+04;  0.0000000E+00;  4.0009898E+04; -8.2738996E-02;  0.0000000E+00;  6.6813640E-02;  1.3268484E+03;
  4.8206061E-01;  9.9999998E-03;  9.9974088E-03;5405;  1.6744550E-02;  0.0000000E+00;  7.4686552E-04;  9.9919031E+02;  1.0000148E-01; -6.7079578E+02;3; -7.3789406E+00;  0.0000000E+00;  3.3542000E-02;0; -1.6067572E-02;  3.9924496E+04;  0.0000000E+00; -1.6071857E-04;  4.0000000E+04;  0.0000000E+00;  4.0009922E+04; -8.2615390E-02;  0.0000000E+00;  6.6547818E-02;  1.3217706E+03;
  4.8205477E-01;  9.9999998E-03; -1.9994861E-02;5402;  1.6719086E-02;  0.0000000E+00; -1.4821220E-03;  9.9919336E+02;  1.0000151E-01; -6.6827734E+02;3; -7.3523164E+00;  0.0000000E+00; -6.3955344E-02;0; -1.6487762E-02;  3.9924762E+04;  0.0000000E+00; -6.8567850E-04;  4.0000000E+04;  0.0000000E+00;  4.0009875E+04; -8.2245395E-02;  0.0000000E+00;  6.5757632E-02;  1.3073457E+03;
  4.8205477E-01;  9.9999998E-03;  1.9994862E-02;5406;  1.6719084E-02;  0.0000000E+00;  1.4821471E-03;  9.9919336E+02;  1.0000151E-01; -6.6827734E+02;3; -7.3523426E+00;  0.0000000E+00;  6.3944846E-02;0; -1.6487718E-02;  3.9924766E+04;  0.0000000E+00; -6.8538985E-04;  4.0000000E+04;  0.0000000E+00;  4.0009875E+04; -8.2245320E-02;  0.0000000E+00;  6.5757602E-02;  1.3073585E+03;
  4.8204577E-01;  9.9999998E-03; -2.9992644E-02;5401;  1.6679063E-02;  0.0000000E+00; -2.2025995E-03;  9.9919299E+02;  1.0000148E-01; -6.6857361E+02;3; -7.2973270E+00;  0.0000000E+00; -1.0611331E-01;0; -1.7167248E-02;  3.9925098E+04;  0.0000000E+00; -1.6918763E-03;  4.0000000E+04;  0.0000000E+00;  4.0009629E+04; -8.1632659E-02;  0.0000000E+00;  6.4465411E-02;  1.2860156E+03;
  4.8204577E-01;  9.9999998E-03;  2.9992647E-02;5407;  1.6679063E-02;  0.0000000E+00;  2.2026226E-03;  9.9919299E+02;  1.0000148E-01; -6.6857361E+02;3; -7.2973285E+00;  0.0000000E+00;  1.0610919E-01;0; -1.7167278E-02;  3.9925094E+04;  0.0000000E+00; -1.6918000E-03;  4.0000000E+04;  0.0000000E+00;  4.0009629E+04; -8.1632666E-02;  0.0000000E+00;  6.4465389E-02;  1.2860293E+03;
  4.8203409E-01;  9.9999998E-03; -3.9990995E-02;5400;  1.6627083E-02;  0.0000000E+00; -2.9000479E-03;  9.9919659E+02;  1.0000148E-01; -6.6561078E+02;3; -7.2168527E+00;  0.0000000E+00; -1.6708750E-01;0; -1.8075891E-02;  3.9925496E+04;  0.0000000E+00; -3.3384408E-03;  4.0000000E+04;  0.0000000E+00;  4.0009328E+04; -8.0782011E-02;  0.0000000E+00;  6.2706120E-02;  1.2613733E+03;
  4.8203409E-01;  9.9999998E-03;  3.9990999E-02;5408;  1.6627081E-02;  0.0000000E+00;  2.9000679E-03;  9.9919659E+02;  1.0000148E-01; -6.6561078E+02;3; -7.2168550E+00;  0.0000000E+00;  1.6708320E-01;0; -1.8075868E-02;  3.9925492E+04;  0.0000000E+00; -3.3381493E-03;  4.0000000E+04;  0.0000000E+00;  4.0009328E+04; -8.0782011E-02;  0.0000000E+00;  6.2706143E-02;  1.2613778E+03;
  4.9215814E-01;  9.9999998E-03; -9.9956151E-03;5464;  1.5860284E-02;  0.0000000E+00; -8.2220609E-04;  9.9928320E+02;  1.0000206E-01; -5.9385968E+02;3; -7.3238277E+00;  0.0000000E+00; -3.7388965E-02;0; -1.6861998E-02;  3.9930012E+04;  0.0000000E+00; -8.4912207E-04;  4.0000000E+04;  0.0000000E+00;  4.0011316E+04; -8.7986022E-02;  0.0000000E+00;  7.1124025E-02;  1.5006517E+03;
  4.9216008E-01;  9.9999998E-03;  1.6835311E-09;5465;  1.5866855E-02;  0.0000000E+00;  1.3261240E-08;  9.9928479E+02;  1.0000201E-01; -5.9252643E+02;3; -7.3276248E+00;  0.0000000E+00; -7.4492345E-06;0; -1.6716003E-02;  3.9929953E+04;  0.0000000E+00; -1.4145218E-12;  4.0000000E+04;  0.0000000E+00;  4.0011375E+04; -8.8129036E-02;  0.0000000E+00;  7.1413033E-02;  1.5088721E+03;
  4.9215814E-01;  9.9999998E-03;  9.9956188E-03;5466;  1.5860284E-02;  0.0000000E+00;  8.2223234E-04;  9.9928320E+02;  1.0000206E-01; -5.9385968E+02;3; -7.3238297E+00;  0.0000000E+00;  3.7376739E-02;0; -1.6861878E-02;  3.9930016E+04;  0.0000000E+00; -8.4895268E-04;  4.0000000E+04;  0.0000000E+00;  4.0011316E+04; -8.7985978E-02;  0.0000000E+00;  7.1124099E-02;  1.5006559E+03;
  4.9215254E-01;  9.9999998E-03; -1.9991349E-02;5463;  1.5840458E-02;  0.0000000E+00; -1.6293911E-03;  9.9928333E+02;  1.0000205E-01; -5.9376093E+02;3; -7.2995572E+00;  0.0000000E+00; -6.3078567E-02;0; -1.7292745E-02;  3.9929930E+04;  0.0000000E+00; -3.4184095E-03;  4.0000000E+04;  0.0000000E+00;  4.0011191E+04; -8.7559126E-02;  0.0000000E+00;  7.0266381E-02;  1.4769427E+03;
  4.9215254E-01;  9.9999998E-03;  1.9991353E-02;5467;  1.5840458E-02;  0.0000000E+00;  1.6294162E-03;  9.9928320E+02;  1.0000205E-01; -5.9385968E+02;3; -7.2995219E+00;  0.0000000E+00;  6.3066430E-02;0; -1.7292731E-02;  3.9929930E+04;  0.0000000E+00; -3.4180356E-03;  4.0000000E+04;  0.0000000E+00;  4.0011191E+04; -8.7559067E-02;  0.0000000E+00;  7.0266336E-02;  1.4769619E+03;
  4.9214354E-01;  9.9999998E-03; -2.9987378E-02;5462;  1.5809644E-02;  0.0000000E+00; -2.4153141E-03;  9.9927875E+02;  1.0000210E-01; -5.9756329E+02;3; -7.2445550E+00;  0.0000000E+00; -1.0316097E-01;0; -1.7987378E-02;  3.9929945E+04;  0.0000000E+00; -7.7560004E-03;  4.0000000E+04;  0.0000000E+00;  4.0010809E+04; -8.6853601E-02;  0.0000000E+00;  6.8866223E-02;  1.4404559E+03;
  4.9214354E-01;  9.9999998E-03;  2.9987382E-02;5468;  1.5809642E-02;  0.0000000E+00;  2.4153381E-03;  9.9927875E+02;  1.0000210E-01; -5.9756329E+02;3; -7.2445464E+00;  0.0000000E+00;  1.0315100E-01;0; -1.7987311E-02;  3.9929949E+04;  0.0000000E+00; -7.7555431E-03;  4.0000000E+04;  0.0000000E+00;  4.0010805E+04; -8.6853608E-02;  0.0000000E+00;  6.8866298E-02;  1.4404587E+03;
  4.9213132E-01;  9.9999998E-03; -3.9983921E-02;5461;  1.5769813E-02;  0.0000000E+00; -3.1699147E-03;  9.9927191E+02;  1.0000205E-01; -6.0319275E+02;3; -7.1631193E+00;  0.0000000E+00; -1.6334993E-01;0; -1.8911816E-02;  3.9930086E+04;  0.0000000E+00; -1.3884082E-02;  4.0000000E+04;  0.0000000E+00;  4.0010535E+04; -8.5877724E-02;  0.0000000E+00;  6.6965908E-02;  1.3954603E+03;
  4.9213132E-01;  9.9999998E-03;  3.9983924E-02;5469;  1.5769808E-02;  0.0000000E+00;  3.1699364E-03;  9.9927197E+02;  1.0000205E-01; -6.0314337E+02;3; -7.1631279E+00;  0.0000000E+00;  1.6334531E-01;0; -1.8911906E-02;  3.9930086E+04;  0.0000000E+00; -1.3883968E-02;  4.0000000E+04;  0.0000000E+00;  4.0010535E+04; -8.5877769E-02;  0.0000000E+00;  6.6965863E-02;  1.3954694E+03;
  4.9211627E-01;  9.9999998E-03; -4.9981110E-02;5460;  1.5721437E-02;  0.0000000E+00; -3.8898296E-03;  9.9926892E+02;  1.0000209E-01; -6.0566187E+02;3; -7.0573125E+00;  0.0000000E+00; -2.3665978E-01;0; -2.0021811E-02;  3.9930020E+04;  0.0000000E+00; -2.1727260E-02;  4.0000000E+04;  0.0000000E+00;  4.0010102E+04; -8.4642120E-02;  0.0000000E+00;  6.4620309E-02;  1.3469517E+03;
  4.9211627E-01;  9.9999998E-03;  4.9981114E-02;5470;  1.5721431E-02;  0.0000000E+00;  3.8898487E-03;  9.9926892E+02;  1.0000209E-01; -6.0566187E+02;3; -7.0572910E+00;  0.0000000E+00;  2.3665993E-01;0; -2.0021819E-02;  3.9930020E+04;  0.0000000E+00; -2.1727718E-02;  4.0000000E+04;  0.0000000E+00;  4.0010102E+04; -8.4642105E-02;  0.0000000E+00;  6.4620286E-02;  1.3469541E+03;
  4.9209934E-01;  9.9999998E-03; -5.9978940E-02;5459;  1.5664667E-02;  0.0000000E+00; -4.5664348E-03;  9.9926318E+02;  1.0000206E-01; -6.1045184E+02;3; -6.9303732E+00;  0.0000000E+00; -3.1769523E-01;0; -2.1264222E-02;  3.9929844E+04;  0.0000000E+00; -3.1043304E-02;  4.0000000E+04;  0.0000000E+00;  4.0009656E+04; -8.3158813E-02;  0.0000000E+00;  6.1894592E-02;  1.2997361E+03;
  4.9209934E-01;  9.9999998E-03;  5.9978943E-02;5471;  1.5664665E-02;  0.0000000E+00;  4.5664557E-03;  9.9926318E+02;  1.0000206E-01; -6.1045184E+02;3; -6.9303765E+00;  0.0000000E+00;  3.1770337E-01;0; -2.1264080E-02;  3.9929844E+04;  0.0000000E+00; -3.1044384E-02;  4.0000000E+04;  0.0000000E+00;  4.0009656E+04; -8.3158687E-02;  0.0000000E+00;  6.1894607E-02;  1.2997483E+03;
  4.9208146E-01;  9.9999998E-03; -6.9977336E-02;5458;  1.5598323E-02;  0.0000000E+00; -5.2011413E-03;  9.9925378E+02;  1.0000208E-01; -6.1820471E+02;3; -6.7850833E+00;  0.0000000E+00; -4.0588892E-01;0; -2.2579994E-02;  3.9929352E+04;  0.0000000E+00; -4.1372448E-02;  4.0000000E+04;  0.0000000E+00;  4.0009426E+04; -8.1440426E-02;  0.0000000E+00;  5.8860432E-02;  1.2576333E+03;
  4.9206361E-01;  9.9999998E-03; -7.9976134E-02;5457;  1.5521526E-02;  0.0000000E+00; -5.7926709E-03;  9.9924255E+02;  1.0000210E-01; -6.2753778E+02;3; -6.6263971E+00;  0.0000000E+00; -5.0343478E-01;0; -2.3907922E-02;  3.9928824E+04;  0.0000000E+00; -5.2030250E-02;  4.0000000E+04;  0.0000000E+00;  4.0008969E+04; -7.9499707E-02;  0.0000000E+00;  5.5591784E-02;  1.2227109E+03;
  4.9204689E-01;  9.9999998E-03; -8.9975074E-02;5456;  1.5434032E-02;  0.0000000E+00; -6.3401260E-03;  9.9922968E+02;  1.0000204E-01; -6.3820410E+02;3; -6.4565787E+00;  0.0000000E+00; -6.0570210E-01;0; -2.5187127E-02;  3.9928055E+04;  0.0000000E+00; -6.2156405E-02;  4.0000000E+04;  0.0000000E+00;  4.0008922E+04; -7.7349052E-02;  0.0000000E+00;  5.2161925E-02;  1.1956740E+03;
  4.9203262E-01;  9.9999998E-03; -9.9973872E-02;5455;  1.5335232E-02;  0.0000000E+00; -6.8439762E-03;  9.9921191E+02;  1.0000208E-01; -6.5291974E+02;3; -6.2787776E+00;  0.0000000E+00; -7.0763385E-01;0; -2.6360016E-02;  3.9926883E+04;  0.0000000E+00; -7.0796467E-02;  4.0000000E+04;  0.0000000E+00;  4.0008789E+04; -7.5000234E-02;  0.0000000E+00;  4.8640218E-02;  1.1763136E+03;
  5.0204223E-01;  9.9999998E-03; -9.9964075E-02;5516;  1.4559818E-02;  0.0000000E+00; -7.2693750E-03;  9.9922150E+02;  1.0000372E-01; -6.4496936E+02;3; -6.2169814E+00;  0.0000000E+00; -6.8907219E-01;0; -2.7184557E-02;  3.9926711E+04;  0.0000000E+00; -1.0666373E-01;  4.0000000E+04;  0.0000000E+00;  4.0008289E+04; -7.8878626E-02;  0.0000000E+00;  5.1694069E-02;  1.1291149E+03;
  5.0205070E-01;  9.9999998E-03; -8.9965865E-02;5517;  1.4634196E-02;  0.0000000E+00; -6.7469114E-03;  9.9923822E+02;  1.0000387E-01; -6.3114258E+02;3; -6.3948841E+00;  0.0000000E+00; -5.8929324E-01;0; -2.6061822E-02;  3.9927578E+04;  0.0000000E+00; -9.6852131E-02;  4.0000000E+04;  0.0000000E+00;  4.0008660E+04; -8.1454307E-02;  0.0000000E+00;  5.5392485E-02;  1.1737496E+03;
  5.0205988E-01;  9.9999998E-03; -7.9968005E-02;5518;  1.4698383E-02;  0.0000000E+00; -6.1793150E-03;  9.9925330E+02;  1.0000373E-01; -6.1864911E+02;3; -6.5648189E+00;  0.0000000E+00; -4.9179584E-01;0; -2.4822563E-02;  3.9927930E+04;  0.0000000E+00; -8.3627909E-02;  4.0000000E+04;  0.0000000E+00;  4.0008969E+04; -8.3822273E-02;  0.0000000E+00;  5.8999710E-02;  1.2276434E+03;
  5.0206947E-01;  9.9999998E-03; -6.9970533E-02;5519;  1.4752775E-02;  0.0000000E+00; -5.5643176E-03;  9.9926428E+02;  1.0000388E-01; -6.0951355E+02;3; -6.7234879E+00;  0.0000000E+00; -3.9864302E-01;0; -2.3522753E-02;  3.9928672E+04;  0.0000000E+00; -6.8457149E-02;  4.0000000E+04;  0.0000000E+00;  4.0009656E+04; -8.5968047E-02;  0.0000000E+00;  6.2445294E-02;  1.2893942E+03;
  5.0207943E-01;  9.9999998E-03; -5.9973434E-02;5520;  1.4797785E-02;  0.0000000E+00; -4.9001505E-03;  9.9927783E+02;  1.0000376E-01; -5.9830402E+02;3; -6.8684359E+00;  0.0000000E+00; -3.1402957E-01;0; -2.2223428E-02;  3.9928965E+04;  0.0000000E+00; -5.2784313E-02;  4.0000000E+04;  0.0000000E+00;  4.0010145E+04; -8.7876223E-02;  0.0000000E+00;  6.5652795E-02;  1.3568477E+03;
  5.0208902E-01;  9.9999998E-03; -4.9976874E-02;5521;  1.4834447E-02;  0.0000000E+00; -4.1864375E-03;  9.9928754E+02;  1.0000374E-01; -5.9025488E+02;3; -6.9965420E+00;  0.0000000E+00; -2.3620903E-01;0; -2.0987518E-02;  3.9929266E+04;  0.0000000E+00; -3.7883464E-02;  4.0000000E+04;  0.0000000E+00;  4.0010555E+04; -8.9530341E-02;  0.0000000E+00;  6.8542823E-02;  1.4267920E+03;
  5.0209755E-01;  9.9999998E-03; -3.9980896E-02;5522;  1.4864501E-02;  0.0000000E+00; -3.4218340E-03;  9.9929822E+02;  1.0000377E-01; -5.8141559E+02;3; -7.1020594E+00;  0.0000000E+00; -1.6850771E-01;0; -1.9876398E-02;  3.9929680E+04;  0.0000000E+00; -2.4758851E-02;  4.0000000E+04;  0.0000000E+00;  4.0011332E+04; -9.0913355E-02;  0.0000000E+00;  7.1036957E-02;  1.4946188E+03;
  5.0210452E-01;  9.9999998E-03; -2.9985370E-02;5523;  1.4888741E-02;  0.0000000E+00; -2.6130786E-03;  9.9930768E+02;  1.0000386E-01; -5.7356396E+02;3; -7.1839185E+00;  0.0000000E+00; -1.1075951E-01;0; -1.8946439E-02;  3.9930035E+04;  0.0000000E+00; -1.4097088E-02;  4.0000000E+04;  0.0000000E+00;  4.0011781E+04; -9.2009038E-02;  0.0000000E+00;  7.3062599E-02;  1.5549896E+03;
  5.0210971E-01;  9.9999998E-03; -1.9990211E-02;5524;  1.4907338E-02;  0.0000000E+00; -1.7661148E-03;  9.9931512E+02;  1.0000373E-01; -5.6739130E+02;3; -7.2341542E+00;  0.0000000E+00; -7.6099098E-02;0; -1.8245146E-02;  3.9930094E+04;  0.0000000E+00; -6.3050543E-03;  4.0000000E+04;  0.0000000E+00;  4.0012301E+04; -9.2803337E-02;  0.0000000E+00;  7.4558191E-02;  1.6024977E+03;
  5.0211287E-01;  9.9999998E-03; -9.9951085E-03;5525;  1.4918970E-02;  0.0000000E+00; -8.9111936E-04;  9.9931995E+02;  1.0000381E-01; -5.6339142E+02;3; -7.2579970E+00;  0.0000000E+00; -4.4353276E-02;0; -1.7808922E-02;  3.9930137E+04;  0.0000000E+00; -1.5806189E-03;  4.0000000E+04;  0.0000000E+00;  4.0012410E+04; -9.3284525E-02;  0.0000000E+00;  7.5475603E-02;  1.6328864E+03;
  5.0211388E-01;  9.9999998E-03;  1.6681756E-09;5526;  1.4922442E-02;  0.0000000E+00;  1.2898409E-08;  9.9932123E+02;  1.0000373E-01; -5.6235443E+02;3; -7.2689056E+00;  0.0000000E+00; -6.3687912E-06;0; -1.7661132E-02;  3.9930242E+04;  0.0000000E+00;  5.0426812E-14;  4.0000000E+04;  0.0000000E+00;  4.0012500E+04; -9.3445972E-02;  0.0000000E+00;  7.5784840E-02;  1.6433071E+03;
  5.0211287E-01;  9.9999998E-03;  9.9951122E-03;5527;  1.4918972E-02;  0.0000000E+00;  8.9114514E-04;  9.9931995E+02;  1.0000381E-01; -5.6339142E+02;3; -7.2579699E+00;  0.0000000E+00;  4.4341449E-02;0; -1.7809048E-02;  3.9930141E+04;  0.0000000E+00; -1.5805324E-03;  4.0000000E+04;  0.0000000E+00;  4.0012414E+04; -9.3284614E-02;  0.0000000E+00;  7.5475566E-02;  1.6328961E+03;
  5.0210971E-01;  9.9999998E-03;  1.9990215E-02;5528;  1.4907337E-02;  0.0000000E+00;  1.7661395E-03;  9.9931512E+02;  1.0000373E-01; -5.6739130E+02;3; -7.2341599E+00;  0.0000000E+00;  7.6090209E-02;0; -1.8244997E-02;  3.9930094E+04;  0.0000000E+00; -6.3047875E-03;  4.0000000E+04;  0.0000000E+00;  4.0012301E+04; -9.2803232E-02;  0.0000000E+00;  7.4558236E-02;  1.6024999E+03;
  5.0210452E-01;  9.9999998E-03;  2.9985374E-02;5529;  1.4888742E-02;  0.0000000E+00;  2.6131016E-03;  9.9930768E+02;  1.0000386E-01; -5.7356396E+02;3; -7.1839128E+00;  0.0000000E+00;  1.1075638E-01;0; -1.8946387E-02;  3.9930035E+04;  0.0000000E+00; -1.4096987E-02;  4.0000000E+04;  0.0000000E+00;  4.0011781E+04; -9.2009194E-02;  0.0000000E+00;  7.3062807E-02;  1.5549999E+03;
  5.0209755E-01;  9.9999998E-03;  3.9980896E-02;5530;  1.4864499E-02;  0.0000000E+00;  3.4218570E-03;  9.9929822E+02;  1.0000377E-01; -5.8141559E+02;3; -7.1020317E+00;  0.0000000E+00;  1.6850838E-01;0; -1.9876495E-02;  3.9929676E+04;  0.0000000E+00; -2.4757866E-02;  4.0000000E+04;  0.0000000E+00;  4.0011332E+04; -9.0913400E-02;  0.0000000E+00;  7.1036905E-02;  1.4946252E+03;
  5.0208902E-01;  9.9999998E-03;  4.9976878E-02;5531;  1.4834443E-02;  0.0000000E+00;  4.1864589E-03;  9.9928754E+02;  1.0000374E-01; -5.9025488E+02;3; -6.9965267E+00;  0.0000000E+00;  2.3621452E-01;0; -2.0987496E-02;  3.9929266E+04;  0.0000000E+00; -3.7882674E-02;  4.0000000E+04;  0.0000000E+00;  4.0010551E+04; -8.9530356E-02;  0.0000000E+00;  6.8542860E-02;  1.4267986E+03;
  5.0207943E-01;  9.9999998E-03;  5.9973437E-02;5532;  1.4797780E-02;  0.0000000E+00;  4.9001714E-03;  9.9927783E+02;  1.0000376E-01; -5.9830402E+02;3; -6.8684387E+00;  0.0000000E+00;  3.1401974E-01;0; -2.2223555E-02;  3.9928953E+04;  0.0000000E+00; -5.2783620E-02;  4.0000000E+04;  0.0000000E+00;  4.0010145E+04; -8.7876409E-02;  0.0000000E+00;  6.5652855E-02;  1.3568508E+03;
  5.1201397E-01;  9.9999998E-03; -9.9961437E-02;5577;  1.3752206E-02;  0.0000000E+00; -7.6732421E-03;  9.9917175E+02;  1.0000619E-01; -6.8620276E+02;3; -6.1473022E+00;  0.0000000E+00; -6.7062902E-01;0; -2.8080389E-02;  3.9920914E+04;  0.0000000E+00; -1.3234080E-01;  4.0000000E+04;  0.0000000E+00;  4.0007754E+04; -8.2728401E-02;  0.0000000E+00;  5.4648012E-02;  1.0748942E+03;
  5.1201516E-01;  9.9999998E-03; -8.9963883E-02;5578;  1.3798721E-02;  0.0000000E+00; -7.1302084E-03;  9.9918176E+02;  1.0000612E-01; -6.7790668E+02;3; -6.3255429E+00;  0.0000000E+00; -5.7400298E-01;0; -2.7007837E-02;  3.9920902E+04;  0.0000000E+00; -1.2317681E-01;  4.0000000E+04;  0.0000000E+00;  4.0008133E+04; -8.5528024E-02;  0.0000000E+00;  5.8520187E-02;  1.1388341E+03;
  5.1201665E-01;  9.9999998E-03; -7.9966605E-02;5579;  1.3835521E-02;  0.0000000E+00; -6.5408610E-03;  9.9918872E+02;  1.0000617E-01; -6.7212909E+02;3; -6.4958096E+00;  0.0000000E+00; -4.8176336E-01;0; -2.5811732E-02;  3.9920934E+04;  0.0000000E+00; -1.0874050E-01;  4.0000000E+04;  0.0000000E+00;  4.0008883E+04; -8.8109121E-02;  0.0000000E+00;  6.2297389E-02;  1.2134698E+03;
  5.1201898E-01;  9.9999998E-03; -6.9969550E-02;5580;  1.3863198E-02;  0.0000000E+00; -5.8999816E-03;  9.9919794E+02;  1.0000610E-01; -6.6447498E+02;3; -6.6547370E+00;  0.0000000E+00; -3.9134476E-01;0; -2.4546757E-02;  3.9921020E+04;  0.0000000E+00; -9.0818219E-02;  4.0000000E+04;  0.0000000E+00;  4.0009477E+04; -9.0455204E-02;  0.0000000E+00;  6.5908447E-02;  1.2956821E+03;
  5.1202220E-01;  9.9999998E-03; -5.9972774E-02;5581;  1.3882309E-02;  0.0000000E+00; -5.2049570E-03;  9.9920819E+02;  1.0000613E-01; -6.5598138E+02;3; -6.7995033E+00;  0.0000000E+00; -3.1133890E-01;0; -2.3273326E-02;  3.9921012E+04;  0.0000000E+00; -7.1317628E-02;  4.0000000E+04;  0.0000000E+00;  4.0010227E+04; -9.2547491E-02;  0.0000000E+00;  6.9274165E-02;  1.3819305E+03;
  5.1202619E-01;  9.9999998E-03; -4.9976408E-02;5582;  1.3894342E-02;  0.0000000E+00; -4.4545159E-03;  9.9921863E+02;  1.0000623E-01; -6.4733966E+02;3; -6.9266043E+00;  0.0000000E+00; -2.3962329E-01;0; -2.2055045E-02;  3.9921074E+04;  0.0000000E+00; -5.2035566E-02;  4.0000000E+04;  0.0000000E+00;  4.0010883E+04; -9.4366066E-02;  0.0000000E+00;  7.2311021E-02;  1.4679916E+03;
  5.1203012E-01;  9.9999998E-03; -3.9980531E-02;5583;  1.3901817E-02;  0.0000000E+00; -3.6480629E-03;  9.9922931E+02;  1.0000616E-01; -6.3850043E+02;3; -7.0294404E+00;  0.0000000E+00; -1.7960313E-01;0; -2.0954892E-02;  3.9921332E+04;  0.0000000E+00; -3.4498662E-02;  4.0000000E+04;  0.0000000E+00;  4.0011820E+04; -9.5890410E-02;  0.0000000E+00;  7.4935518E-02;  1.5488433E+03;
  5.1203352E-01;  9.9999998E-03; -2.9985089E-02;5584;  1.3906849E-02;  0.0000000E+00; -2.7890929E-03;  9.9924060E+02;  1.0000622E-01; -6.2916736E+02;3; -7.1059313E+00;  0.0000000E+00; -1.2672894E-01;0; -2.0030499E-02;  3.9921430E+04;  0.0000000E+00; -1.9876510E-02;  4.0000000E+04;  0.0000000E+00;  4.0012328E+04; -9.7100355E-02;  0.0000000E+00;  7.7069856E-02;  1.6189220E+03;
  5.1203638E-01;  9.9999998E-03; -1.9990008E-02;5585;  1.3909865E-02;  0.0000000E+00; -1.8867189E-03;  9.9924780E+02;  1.0000621E-01; -6.2319220E+02;3; -7.1602426E+00;  0.0000000E+00; -8.5426860E-02;0; -1.9331686E-02;  3.9921848E+04;  0.0000000E+00; -8.9686932E-03;  4.0000000E+04;  0.0000000E+00;  4.0012715E+04; -9.7978950E-02;  0.0000000E+00;  7.8647263E-02;  1.6730938E+03;
  5.1203817E-01;  9.9999998E-03; -9.9950386E-03;5586;  1.3911433E-02;  0.0000000E+00; -9.5156627E-04;  9.9925366E+02;  1.0000639E-01; -6.1830347E+02;3; -7.1927371E+00;  0.0000000E+00; -4.1729216E-02;0; -1.8896364E-02;  3.9921871E+04;  0.0000000E+00; -2.2607839E-03;  4.0000000E+04;  0.0000000E+00;  4.0012949E+04; -9.8511890E-02;  0.0000000E+00;  7.9615526E-02;  1.7073148E+03;
  5.1203901E-01;  9.9999998E-03;  1.6394531E-09;5587;  1.3911802E-02;  0.0000000E+00;  1.2553294E-08;  9.9925397E+02;  1.0000618E-01; -6.1805652E+02;3; -7.2037249E+00;  0.0000000E+00; -4.4265507E-06;0; -1.8748499E-02;  3.9921875E+04;  0.0000000E+00;  1.2572162E-12;  4.0000000E+04;  0.0000000E+00;  4.0012918E+04; -9.8690741E-02;  0.0000000E+00;  7.9942241E-02;  1.7189730E+03;
  5.1203817E-01;  9.9999998E-03;  9.9950423E-03;5588;  1.3911431E-02;  0.0000000E+00;  9.5159200E-04;  9.9925372E+02;  1.0000639E-01; -6.1825409E+02;3; -7.1927361E+00;  0.0000000E+00;  4.1720279E-02;0; -1.8896461E-02;  3.9921871E+04;  0.0000000E+00; -2.2607846E-03;  4.0000000E+04;  0.0000000E+00;  4.0012949E+04; -9.8511979E-02;  0.0000000E+00;  7.9615518E-02;  1.7073119E+03;
  5.1203638E-01;  9.9999998E-03;  1.9990012E-02;5589;  1.3909864E-02;  0.0000000E+00;  1.8867446E-03;  9.9924780E+02;  1.0000621E-01; -6.2319220E+02;3; -7.1602249E+00;  0.0000000E+00;  8.5420877E-02;0; -1.9331709E-02;  3.9921848E+04;  0.0000000E+00; -8.9684892E-03;  4.0000000E+04;  0.0000000E+00;  4.0012715E+04; -9.7979024E-02;  0.0000000E+00;  7.8647316E-02;  1.6731135E+03;
  5.1203352E-01;  9.9999998E-03;  2.9985093E-02;5590;  1.3906847E-02;  0.0000000E+00;  2.7891186E-03;  9.9924060E+02;  1.0000622E-01; -6.2916736E+02;3; -7.1059117E+00;  0.0000000E+00;  1.2672214E-01;0; -2.0030417E-02;  3.9921426E+04;  0.0000000E+00; -1.9876029E-02;  4.0000000E+04;  0.0000000E+00;  4.0012328E+04; -9.7100407E-02;  0.0000000E+00;  7.7069990E-02;  1.6189274E+03;
  5.1203012E-01;  9.9999998E-03;  3.9980534E-02;5591;  1.3901815E-02;  0.0000000E+00;  3.6480888E-03;  9.9922937E+02;  1.0000611E-01; -6.3845105E+02;3; -7.0294452E+00;  0.0000000E+00;  1.7959623E-01;0; -2.0954899E-02;  3.9921332E+04;  0.0000000E+00; -3.4498829E-02;  4.0000000E+04;  0.0000000E+00;  4.0011820E+04; -9.5890425E-02;  0.0000000E+00;  7.4935526E-02;  1.5488629E+03;
  5.1202619E-01;  9.9999998E-03;  4.9976412E-02;5592;  1.3894338E-02;  0.0000000E+00;  4.4545429E-03;  9.9921863E+02;  1.0000623E-01; -6.4733966E+02;3; -6.9265695E+00;  0.0000000E+00;  2.3962836E-01;0; -2.2055037E-02;  3.9921074E+04;  0.0000000E+00; -5.2035436E-02;  4.0000000E+04;  0.0000000E+00;  4.0010887E+04; -9.4366089E-02;  0.0000000E+00;  7.2311051E-02;  1.4680037E+03;
  5.1202220E-01;  9.9999998E-03;  5.9972778E-02;5593;  1.3882305E-02;  0.0000000E+00;  5.2049858E-03;  9.9920819E+02;  1.0000613E-01; -6.5598138E+02;3; -6.7994838E+00;  0.0000000E+00;  3.1134596E-01;0; -2.3273326E-02;  3.9921016E+04;  0.0000000E+00; -7.1315140E-02;  4.0000000E+04;  0.0000000E+00;  4.0010227E+04; -9.2547506E-02;  0.0000000E+00;  6.9274180E-02;  1.3819209E+03;
  5.2197188E-01;  9.9999998E-03; -9.9965841E-02;5638;  1.2906961E-02;  0.0000000E+00; -8.0535561E-03;  9.9905847E+02;  1.0001040E-01; -7.8002728E+02;3; -6.0715055E+00;  0.0000000E+00; -6.4829403E-01;0; -2.9043823E-02;  3.9908184E+04;  0.0000000E+00; -1.4290757E-01;  4.0000000E+04;  0.0000000E+00;  4.0007098E+04; -8.6546712E-02;  0.0000000E+00;  5.7502888E-02;  1.0178784E+03;
  5.2196866E-01;  9.9999998E-03; -8.9967981E-02;5639;  1.2921918E-02;  0.0000000E+00; -7.4871173E-03;  9.9905219E+02;  1.0001049E-01; -7.8526166E+02;3; -6.2498951E+00;  0.0000000E+00; -5.5361897E-01;0; -2.8017357E-02;  3.9907230E+04;  0.0000000E+00; -1.3608165E-01;  4.0000000E+04;  0.0000000E+00;  4.0007785E+04; -8.9565590E-02;  0.0000000E+00;  6.1548233E-02;  1.0935680E+03;
  5.2196562E-01;  9.9999998E-03; -7.9970226E-02;5640;  1.2927241E-02;  0.0000000E+00; -6.8724174E-03;  9.9904846E+02;  1.0001046E-01; -7.8832330E+02;3; -6.4186115E+00;  0.0000000E+00; -4.6304908E-01;0; -2.6864327E-02;  3.9906219E+04;  0.0000000E+00; -1.2256593E-01;  4.0000000E+04;  0.0000000E+00;  4.0008422E+04; -9.2353113E-02;  0.0000000E+00;  6.5488786E-02;  1.1815168E+03;
  5.2196348E-01;  9.9999998E-03; -6.9972597E-02;5641;  1.2923715E-02;  0.0000000E+00; -6.2026852E-03;  9.9904919E+02;  1.0001037E-01; -7.8773077E+02;3; -6.5757151E+00;  0.0000000E+00; -3.7965956E-01;0; -2.5637783E-02;  3.9905375E+04;  0.0000000E+00; -1.0422616E-01;  4.0000000E+04;  0.0000000E+00;  4.0009211E+04; -9.4890289E-02;  0.0000000E+00;  6.9252506E-02;  1.2768138E+03;
  5.2196234E-01;  9.9999998E-03; -5.9975293E-02;5642;  1.2912669E-02;  0.0000000E+00; -5.4754154E-03;  9.9905164E+02;  1.0001051E-01; -7.8570612E+02;3; -6.7169971E+00;  0.0000000E+00; -3.0543244E-01;0; -2.4397947E-02;  3.9904609E+04;  0.0000000E+00; -8.3185002E-02;  4.0000000E+04;  0.0000000E+00;  4.0010070E+04; -9.7156197E-02;  0.0000000E+00;  7.2758250E-02;  1.3745043E+03;
  5.2196234E-01;  9.9999998E-03; -4.9978469E-02;5643;  1.2896149E-02;  0.0000000E+00; -4.6880795E-03;  9.9905756E+02;  1.0001035E-01; -7.8081738E+02;3; -6.8429546E+00;  0.0000000E+00; -2.3786621E-01;0; -2.3207672E-02;  3.9904086E+04;  0.0000000E+00; -6.1573736E-02;  4.0000000E+04;  0.0000000E+00;  4.0010871E+04; -9.9127971E-02;  0.0000000E+00;  7.5920299E-02;  1.4695431E+03;
  5.2196252E-01;  9.9999998E-03; -3.9982196E-02;5644;  1.2877181E-02;  0.0000000E+00; -3.8420274E-03;  9.9906232E+02;  1.0001035E-01; -7.7686688E+02;3; -6.9468260E+00;  0.0000000E+00; -1.7952773E-01;0; -2.2129647E-02;  3.9903793E+04;  0.0000000E+00; -4.1331500E-02;  4.0000000E+04;  0.0000000E+00;  4.0011562E+04; -1.0078200E-01;  0.0000000E+00;  7.8652352E-02;  1.5566007E+03;
  5.2196324E-01;  9.9999998E-03; -2.9986331E-02;5645;  1.2859708E-02;  0.0000000E+00; -2.9379029E-03;  9.9906659E+02;  1.0001040E-01; -7.7331140E+02;3; -7.0301943E+00;  0.0000000E+00; -1.2187295E-01;0; -2.1222129E-02;  3.9903688E+04;  0.0000000E+00; -2.4054682E-02;  4.0000000E+04;  0.0000000E+00;  4.0012199E+04; -1.0209609E-01;  0.0000000E+00;  8.0873959E-02;  1.6304880E+03;
  5.2196407E-01;  9.9999998E-03; -1.9990809E-02;5646;  1.2845370E-02;  0.0000000E+00; -1.9882419E-03;  9.9907263E+02;  1.0001042E-01; -7.6832391E+02;3; -7.0869536E+00;  0.0000000E+00; -8.0431879E-02;0; -2.0534851E-02;  3.9903699E+04;  0.0000000E+00; -1.0935501E-02;  4.0000000E+04;  0.0000000E+00;  4.0012492E+04; -1.0305064E-01;  0.0000000E+00;  8.2515791E-02;  1.6866340E+03;
  5.2196479E-01;  9.9999998E-03; -9.9954195E-03;5647;  1.2836261E-02;  0.0000000E+00; -1.0027518E-03;  9.9907690E+02;  1.0001042E-01; -7.6476843E+02;3; -7.1204476E+00;  0.0000000E+00; -3.9542042E-02;0; -2.0106658E-02;  3.9903738E+04;  0.0000000E+00; -2.7691859E-03;  4.0000000E+04;  0.0000000E+00;  4.0012695E+04; -1.0363027E-01;  0.0000000E+00;  8.3523616E-02;  1.7217213E+03;
  5.2196509E-01;  9.9999998E-03;  1.6220674E-09;5648;  1.2833021E-02;  0.0000000E+00;  1.2680307E-08;  9.9907941E+02;  1.0001050E-01; -7.6269440E+02;3; -7.1314893E+00;  0.0000000E+00; -3.5652847E-06;0; -1.9960985E-02;  3.9903738E+04;  0.0000000E+00;  5.5486220E-13;  4.0000000E+04;  0.0000000E+00;  4.0012984E+04; -1.0382434E-01;  0.0000000E+00;  8.3863355E-02;  1.7335665E+03;
  5.2196479E-01;  9.9999998E-03;  9.9954233E-03;5649;  1.2836260E-02;  0.0000000E+00;  1.0027774E-03;  9.9907697E+02;  1.0001042E-01; -7.6471906E+02;3; -7.1204348E+00;  0.0000000E+00;  3.9538492E-02;0; -2.0106643E-02;  3.9903738E+04;  0.0000000E+00; -2.7694465E-03;  4.0000000E+04;  0.0000000E+00;  4.0012695E+04; -1.0363019E-01;  0.0000000E+00;  8.3523542E-02;  1.7217153E+03;
  5.2196407E-01;  9.9999998E-03;  1.9990813E-02;5650;  1.2845369E-02;  0.0000000E+00;  1.9882689E-03;  9.9907263E+02;  1.0001042E-01; -7.6832391E+02;3; -7.0869756E+00;  0.0000000E+00;  8.0423102E-02;0; -2.0534873E-02;  3.9903699E+04;  0.0000000E+00; -1.0935901E-02;  4.0000000E+04;  0.0000000E+00;  4.0012492E+04; -1.0305072E-01;  0.0000000E+00;  8.2515843E-02;  1.6866527E+03;
  5.2196324E-01;  9.9999998E-03;  2.9986335E-02;5651;  1.2859706E-02;  0.0000000E+00;  2.9379313E-03;  9.9906653E+02;  1.0001040E-01; -7.7336078E+02;3; -7.0301881E+00;  0.0000000E+00;  1.2187240E-01;0; -2.1222062E-02;  3.9903691E+04;  0.0000000E+00; -2.4054641E-02;  4.0000000E+04;  0.0000000E+00;  4.0012199E+04; -1.0209610E-01;  0.0000000E+00;  8.0874041E-02;  1.6304894E+03;
  5.2196252E-01;  9.9999998E-03;  3.9982200E-02;5652;  1.2877181E-02;  0.0000000E+00;  3.8420570E-03;  9.9906219E+02;  1.0001045E-01; -7.7696564E+02;3; -6.9467955E+00;  0.0000000E+00;  1.7952651E-01;0; -2.2129595E-02;  3.9903793E+04;  0.0000000E+00; -4.1331232E-02;  4.0000000E+04;  0.0000000E+00;  4.0011562E+04; -1.0078196E-01;  0.0000000E+00;  7.8652367E-02;  1.5566061E+03;
  5.2196234E-01;  9.9999998E-03;  4.9978472E-02;5653;  1.2896148E-02;  0.0000000E+00;  4.6881102E-03;  9.9905756E+02;  1.0001035E-01; -7.8081738E+02;3; -6.8429408E+00;  0.0000000E+00;  2.3787384E-01;0; -2.3207605E-02;  3.9904090E+04;  0.0000000E+00; -6.1573949E-02;  4.0000000E+04;  0.0000000E+00;  4.0010871E+04; -9.9127918E-02;  0.0000000E+00;  7.5920314E-02;  1.4695408E+03;
  5.2196234E-01;  9.9999998E-03;  5.9975296E-02;5654;  1.2912666E-02;  0.0000000E+00;  5.4754466E-03;  9.9905170E+02;  1.0001051E-01; -7.8565674E+02;3; -6.7169833E+00;  0.0000000E+00;  3.0544654E-01;0; -2.4397925E-02;  3.9904609E+04;  0.0000000E+00; -8.3184704E-02;  4.0000000E+04;  0.0000000E+00;  4.0010070E+04; -9.7156264E-02;  0.0000000E+00;  7.2758339E-02;  1.3745175E+03;
  5.3193480E-01;  9.9999998E-03; -9.9975593E-02;5699;  1.2018815E-02;  0.0000000E+00; -8.4110368E-03;  9.9889355E+02;  1.0001730E-01; -9.1666534E+02;3; -5.9895449E+00;  0.0000000E+00; -6.2351930E-01;0; -3.0075051E-02;  3.9889555E+04;  0.0000000E+00; -1.3418880E-01;  4.0000000E+04;  0.0000000E+00;  4.0006480E+04; -9.0327471E-02;  0.0000000E+00;  6.0252421E-02;  9.6488055E+02;
  5.3192919E-01;  9.9999998E-03; -8.9976981E-02;5700;  1.1998783E-02;  0.0000000E+00; -7.8170532E-03;  9.9887109E+02;  1.0001747E-01; -9.3528210E+02;3; -6.1675935E+00;  0.0000000E+00; -5.2716070E-01;0; -2.9087067E-02;  3.9887051E+04;  0.0000000E+00; -1.3107839E-01;  4.0000000E+04;  0.0000000E+00;  4.0007215E+04; -9.3558021E-02;  0.0000000E+00;  6.4470954E-02;  1.0445461E+03;
  5.3192383E-01;  9.9999998E-03; -7.9978377E-02;5701;  1.1969122E-02;  0.0000000E+00; -7.1723447E-03;  9.9885089E+02;  1.0001741E-01; -9.5202240E+02;3; -6.3349471E+00;  0.0000000E+00; -4.3578011E-01;0; -2.7973630E-02;  3.9884855E+04;  0.0000000E+00; -1.2070113E-01;  4.0000000E+04;  0.0000000E+00;  4.0007887E+04; -9.6541367E-02;  0.0000000E+00;  6.8567738E-02;  1.1384265E+03;
  5.3191894E-01;  9.9999998E-03; -6.9979891E-02;5702;  1.1930753E-02;  0.0000000E+00; -6.4708386E-03;  9.9883594E+02;  1.0001725E-01; -9.6441711E+02;3; -6.4917350E+00;  0.0000000E+00; -3.5303494E-01;0; -2.6787050E-02;  3.9882504E+04;  0.0000000E+00; -1.0467134E-01;  4.0000000E+04;  0.0000000E+00;  4.0008750E+04; -9.9256709E-02;  0.0000000E+00;  7.2469659E-02;  1.2395354E+03;
  5.3191495E-01;  9.9999998E-03; -5.9981678E-02;5703;  1.1885704E-02;  0.0000000E+00; -5.7090097E-03;  9.9882269E+02;  1.0001735E-01; -9.7537976E+02;3; -6.6359248E+00;  0.0000000E+00; -2.7908057E-01;0; -2.5585659E-02;  3.9880773E+04;  0.0000000E+00; -8.5000247E-02;  4.0000000E+04;  0.0000000E+00;  4.0009512E+04; -1.0168096E-01;  0.0000000E+00;  7.6095298E-02;  1.3414316E+03;
  5.3191131E-01;  9.9999998E-03; -4.9983948E-02;5704;  1.1837422E-02;  0.0000000E+00; -4.8847832E-03;  9.9881573E+02;  1.0001732E-01; -9.8115735E+02;3; -6.7626514E+00;  0.0000000E+00; -2.1217991E-01;0; -2.4431489E-02;  3.9879219E+04;  0.0000000E+00; -6.3878067E-02;  4.0000000E+04;  0.0000000E+00;  4.0010391E+04; -1.0378940E-01;  0.0000000E+00;  7.9357907E-02;  1.4382374E+03;
  5.3190815E-01;  9.9999998E-03; -3.9986666E-02;5705;  1.1789596E-02;  0.0000000E+00; -4.0020407E-03;  9.9881146E+02;  1.0001732E-01; -9.8466345E+02;3; -6.8718700E+00;  0.0000000E+00; -1.5687199E-01;0; -2.3385689E-02;  3.9878230E+04;  0.0000000E+00; -4.3431427E-02;  4.0000000E+04;  0.0000000E+00;  4.0011066E+04; -1.0555734E-01;  0.0000000E+00;  8.2171656E-02;  1.5247791E+03;
  5.3190625E-01;  9.9999998E-03; -2.9989678E-02;5706;  1.1748143E-02;  0.0000000E+00; -3.0593632E-03;  9.9881262E+02;  1.0001733E-01; -9.8372522E+02;3; -6.9505258E+00;  0.0000000E+00; -1.1248749E-01;0; -2.2505298E-02;  3.9877453E+04;  0.0000000E+00; -2.5538946E-02;  4.0000000E+04;  0.0000000E+00;  4.0011602E+04; -1.0696178E-01;  0.0000000E+00;  8.4456481E-02;  1.5965193E+03;
  5.3190494E-01;  9.9999998E-03; -1.9993057E-02;5707;  1.1715096E-02;  0.0000000E+00; -2.0698819E-03;  9.9881116E+02;  1.0001739E-01; -9.8491034E+02;3; -7.0065131E+00;  0.0000000E+00; -7.3005199E-02;0; -2.1838509E-02;  3.9877059E+04;  0.0000000E+00; -1.1698921E-02;  4.0000000E+04;  0.0000000E+00;  4.0011984E+04; -1.0798147E-01;  0.0000000E+00;  8.6142965E-02;  1.6500059E+03;
  5.3190440E-01;  9.9999998E-03; -9.9965427E-03;5708;  1.1694225E-02;  0.0000000E+00; -1.0436801E-03;  9.9881335E+02;  1.0001720E-01; -9.8313263E+02;3; -7.0406699E+00;  0.0000000E+00; -3.6942743E-02;0; -2.1422945E-02;  3.9876750E+04;  0.0000000E+00; -2.9763789E-03;  4.0000000E+04;  0.0000000E+00;  4.0012238E+04; -1.0860037E-01;  0.0000000E+00;  8.7177426E-02;  1.6828761E+03;
  5.3190434E-01;  9.9999998E-03;  1.5909947E-09;5709;  1.1687027E-02;  0.0000000E+00;  1.2911591E-08;  9.9881122E+02;  1.0001738E-01; -9.8486096E+02;3; -7.0516081E+00;  0.0000000E+00; -1.5170663E-06;0; -2.1281771E-02;  3.9876777E+04;  0.0000000E+00;  1.2885351E-12;  4.0000000E+04;  0.0000000E+00;  4.0012258E+04; -1.0880791E-01;  0.0000000E+00;  8.7526143E-02;  1.6939252E+03;
  5.3190440E-01;  9.9999998E-03;  9.9965455E-03;5710;  1.1694223E-02;  0.0000000E+00;  1.0437064E-03;  9.9881335E+02;  1.0001720E-01; -9.8313263E+02;3; -7.0406647E+00;  0.0000000E+00;  3.6938474E-02;0; -2.1422900E-02;  3.9876754E+04;  0.0000000E+00; -2.9765994E-03;  4.0000000E+04;  0.0000000E+00;  4.0012234E+04; -1.0860034E-01;  0.0000000E+00;  8.7177441E-02;  1.6828666E+03;
  5.3190494E-01;  9.9999998E-03;  1.9993059E-02;5711;  1.1715095E-02;  0.0000000E+00;  2.0699096E-03;  9.9881116E+02;  1.0001739E-01; -9.8491034E+02;3; -7.0065131E+00;  0.0000000E+00;  7.3002137E-02;0; -2.1838650E-02;  3.9877059E+04;  0.0000000E+00; -1.1699144E-02;  4.0000000E+04;  0.0000000E+00;  4.0011984E+04; -1.0798153E-01;  0.0000000E+00;  8.6142875E-02;  1.6499932E+03;
  5.3190625E-01;  9.9999998E-03;  2.9989682E-02;5712;  1.1748142E-02;  0.0000000E+00;  3.0593926E-03;  9.9881262E+02;  1.0001733E-01; -9.8372522E+02;3; -6.9505348E+00;  0.0000000E+00;  1.1248995E-01;0; -2.2505231E-02;  3.9877457E+04;  0.0000000E+00; -2.5539706E-02;  4.0000000E+04;  0.0000000E+00;  4.0011602E+04; -1.0696181E-01;  0.0000000E+00;  8.4456578E-02;  1.5965077E+03;
  5.3190815E-01;  9.9999998E-03;  3.9986670E-02;5713;  1.1789595E-02;  0.0000000E+00;  4.0020710E-03;  9.9881134E+02;  1.0001726E-01; -9.8476221E+02;3; -6.8718576E+00;  0.0000000E+00;  1.5687451E-01;0; -2.3385659E-02;  3.9878238E+04;  0.0000000E+00; -4.3431904E-02;  4.0000000E+04;  0.0000000E+00;  4.0011066E+04; -1.0555743E-01;  0.0000000E+00;  8.2171768E-02;  1.5247988E+03;
  5.3191131E-01;  9.9999998E-03;  4.9983952E-02;5714;  1.1837417E-02;  0.0000000E+00;  4.8848158E-03;  9.9881580E+02;  1.0001732E-01; -9.8110797E+02;3; -6.7626605E+00;  0.0000000E+00;  2.1218649E-01;0; -2.4431489E-02;  3.9879219E+04;  0.0000000E+00; -6.3878819E-02;  4.0000000E+04;  0.0000000E+00;  4.0010391E+04; -1.0378940E-01;  0.0000000E+00;  7.9357915E-02;  1.4382485E+03;
  5.3191495E-01;  9.9999998E-03;  5.9981678E-02;5715;  1.1885698E-02;  0.0000000E+00;  5.7090423E-03;  9.9882263E+02;  1.0001728E-01; -9.7542914E+02;3; -6.6359367E+00;  0.0000000E+00;  2.7909610E-01;0; -2.5585704E-02;  3.9880766E+04;  0.0000000E+00; -8.5001856E-02;  4.0000000E+04;  0.0000000E+00;  4.0009512E+04; -1.0168096E-01;  0.0000000E+00;  7.6095253E-02;  1.3414351E+03;
  5.4191476E-01;  9.9999998E-03; -9.9989325E-02;5760;  1.1084487E-02;  0.0000000E+00; -8.7478282E-03;  9.9872900E+02;  1.0002934E-01; -1.0530072E+03;3; -5.9010134E+00;  0.0000000E+00; -5.9438479E-01;0; -3.1180270E-02;  3.9866402E+04;  0.0000000E+00; -1.0352399E-01;  4.0000000E+04;  0.0000000E+00;  4.0006031E+04; -9.4060808E-02;  0.0000000E+00;  6.2880538E-02;  9.2622614E+02;
  5.4190797E-01;  9.9999998E-03; -8.9989617E-02;5761;  1.1026372E-02;  0.0000000E+00; -8.1218202E-03;  9.9868976E+02;  1.0002936E-01; -1.0855001E+03;3; -6.0820637E+00;  0.0000000E+00; -4.9325430E-01;0; -3.0220374E-02;  3.9862617E+04;  0.0000000E+00; -1.0506966E-01;  4.0000000E+04;  0.0000000E+00;  4.0006680E+04; -9.7493790E-02;  0.0000000E+00;  6.7273416E-02;  1.0028649E+03;
  5.4190129E-01;  9.9999998E-03; -7.9989970E-02;5762;  1.0958690E-02;  0.0000000E+00; -7.4423617E-03;  9.9865100E+02;  1.0002926E-01; -1.1175979E+03;3; -6.2512312E+00;  0.0000000E+00; -3.9728278E-01;0; -2.9140249E-02;  3.9858688E+04;  0.0000000E+00; -9.9898137E-02;  4.0000000E+04;  0.0000000E+00;  4.0007395E+04; -1.0066003E-01;  0.0000000E+00;  7.1519777E-02;  1.0958636E+03;
  5.4189479E-01;  9.9999998E-03; -6.9990426E-02;5763;  1.0882548E-02;  0.0000000E+00; -6.7057838E-03;  9.9861566E+02;  1.0002947E-01; -1.1468811E+03;3; -6.4096584E+00;  0.0000000E+00; -3.1523332E-01;0; -2.7991638E-02;  3.9855148E+04;  0.0000000E+00; -8.9038737E-02;  4.0000000E+04;  0.0000000E+00;  4.0008180E+04; -1.0353754E-01;  0.0000000E+00;  7.5545900E-02;  1.1960955E+03;
  5.4188830E-01;  9.9999998E-03; -5.9991166E-02;5764;  1.0801638E-02;  0.0000000E+00; -5.9075658E-03;  9.9858630E+02;  1.0002933E-01; -1.1712261E+03;3; -6.5543776E+00;  0.0000000E+00; -2.4022774E-01;0; -2.6831351E-02;  3.9851836E+04;  0.0000000E+00; -7.4029841E-02;  4.0000000E+04;  0.0000000E+00;  4.0008969E+04; -1.0610203E-01;  0.0000000E+00;  7.9270683E-02;  1.2954750E+03;
  5.4188156E-01;  9.9999998E-03; -4.9992282E-02;5765;  1.0720029E-02;  0.0000000E+00; -5.0473437E-03;  9.9856555E+02;  1.0002938E-01; -1.1884108E+03;3; -6.6816163E+00;  0.0000000E+00; -1.8425223E-01;0; -2.5719516E-02;  3.9849312E+04;  0.0000000E+00; -5.6758214E-02;  4.0000000E+04;  0.0000000E+00;  4.0009766E+04; -1.0832863E-01;  0.0000000E+00;  8.2609110E-02;  1.3874706E+03;
  5.4187572E-01;  9.9999998E-03; -3.9993688E-02;5766;  1.0642068E-02;  0.0000000E+00; -4.1298615E-03;  9.9854370E+02;  1.0002935E-01; -1.2065337E+03;3; -6.7833343E+00;  0.0000000E+00; -1.4306943E-01;0; -2.4714254E-02;  3.9847277E+04;  0.0000000E+00; -3.9236076E-02;  4.0000000E+04;  0.0000000E+00;  4.0010332E+04; -1.1019266E-01;  0.0000000E+00;  8.5478410E-02;  1.4670856E+03;
  5.4187113E-01;  9.9999998E-03; -2.9995246E-02;5767;  1.0574713E-02;  0.0000000E+00; -3.1532233E-03;  9.9853528E+02;  1.0002936E-01; -1.2134965E+03;3; -6.8623800E+00;  0.0000000E+00; -1.0333142E-01;0; -2.3869306E-02;  3.9845793E+04;  0.0000000E+00; -2.3375982E-02;  4.0000000E+04;  0.0000000E+00;  4.0010758E+04; -1.1167098E-01;  0.0000000E+00;  8.7801673E-02;  1.5310421E+03;
  5.4186785E-01;  9.9999998E-03; -1.9996881E-02;5768;  1.0522038E-02;  0.0000000E+00; -2.1313701E-03;  9.9852930E+02;  1.0002936E-01; -1.2184346E+03;3; -6.9186416E+00;  0.0000000E+00; -6.6639848E-02;0; -2.3230560E-02;  3.9844973E+04;  0.0000000E+00; -1.0810268E-02;  4.0000000E+04;  0.0000000E+00;  4.0011219E+04; -1.1274341E-01;  0.0000000E+00;  8.9512855E-02;  1.5773009E+03;
  5.4186600E-01;  9.9999998E-03; -9.9985274E-03;5769;  1.0488832E-02;  0.0000000E+00; -1.0742600E-03;  9.9852264E+02;  1.0002940E-01; -1.2239653E+03;3; -6.9529729E+00;  0.0000000E+00; -3.4448206E-02;0; -2.2833027E-02;  3.9844281E+04;  0.0000000E+00; -2.7661917E-03;  4.0000000E+04;  0.0000000E+00;  4.0011367E+04; -1.1339370E-01;  0.0000000E+00;  9.0560675E-02;  1.6050906E+03;
  5.4186553E-01;  9.9999998E-03;  1.5334606E-09;5770;  1.0477478E-02;  0.0000000E+00;  1.3489672E-08;  9.9852142E+02;  1.0002925E-01; -1.2249529E+03;3; -6.9639702E+00;  0.0000000E+00; -1.2498676E-06;0; -2.2697963E-02;  3.9844125E+04;  0.0000000E+00;  1.9831129E-12;  4.0000000E+04;  0.0000000E+00;  4.0011488E+04; -1.1361162E-01;  0.0000000E+00;  9.0913661E-02;  1.6142916E+03;
  5.4186600E-01;  9.9999998E-03;  9.9985301E-03;5771;  1.0488833E-02;  0.0000000E+00;  1.0742876E-03;  9.9852264E+02;  1.0002940E-01; -1.2239653E+03;3; -6.9529490E+00;  0.0000000E+00;  3.4446929E-02;0; -2.2833109E-02;  3.9844277E+04;  0.0000000E+00; -2.7665261E-03;  4.0000000E+04;  0.0000000E+00;  4.0011367E+04; -1.1339379E-01;  0.0000000E+00;  9.0560682E-02;  1.6050939E+03;
  5.4186785E-01;  9.9999998E-03;  1.9996885E-02;5772;  1.0522039E-02;  0.0000000E+00;  2.1313985E-03;  9.9852930E+02;  1.0002936E-01; -1.2184346E+03;3; -6.9186411E+00;  0.0000000E+00;  6.6638440E-02;0; -2.3230560E-02;  3.9844977E+04;  0.0000000E+00; -1.0810696E-02;  4.0000000E+04;  0.0000000E+00;  4.0011219E+04; -1.1274336E-01;  0.0000000E+00;  8.9512803E-02;  1.5773079E+03;
  5.4187113E-01;  9.9999998E-03;  2.9995250E-02;5773;  1.0574712E-02;  0.0000000E+00;  3.1532538E-03;  9.9853528E+02;  1.0002931E-01; -1.2134965E+03;3; -6.8624110E+00;  0.0000000E+00;  1.0333074E-01;0; -2.3869239E-02;  3.9845797E+04;  0.0000000E+00; -2.3376603E-02;  4.0000000E+04;  0.0000000E+00;  4.0010758E+04; -1.1167109E-01;  0.0000000E+00;  8.7801851E-02;  1.5310472E+03;
  5.4187572E-01;  9.9999998E-03;  3.9993692E-02;5774;  1.0642067E-02;  0.0000000E+00;  4.1298936E-03;  9.9854376E+02;  1.0002930E-01; -1.2064843E+03;3; -6.7832909E+00;  0.0000000E+00;  1.4307514E-01;0; -2.4714142E-02;  3.9847273E+04;  0.0000000E+00; -3.9236944E-02;  4.0000000E+04;  0.0000000E+00;  4.0010324E+04; -1.1019265E-01;  0.0000000E+00;  8.5478507E-02;  1.4670941E+03;
  5.4188156E-01;  9.9999998E-03;  4.9992286E-02;5775;  1.0720027E-02;  0.0000000E+00;  5.0473767E-03;  9.9856555E+02;  1.0002938E-01; -1.1884108E+03;3; -6.6816049E+00;  0.0000000E+00;  1.8425566E-01;0; -2.5719382E-02;  3.9849312E+04;  0.0000000E+00; -5.6758817E-02;  4.0000000E+04;  0.0000000E+00;  4.0009766E+04; -1.0832853E-01;  0.0000000E+00;  8.2609147E-02;  1.3874691E+03;
  5.4188830E-01;  9.9999998E-03;  5.9991170E-02;5776;  1.0801633E-02;  0.0000000E+00;  5.9075998E-03;  9.9858636E+02;  1.0002933E-01; -1.1711766E+03;3; -6.5543747E+00;  0.0000000E+00;  2.4023828E-01;0; -2.6831359E-02;  3.9851836E+04;  0.0000000E+00; -7.4032404E-02;  4.0000000E+04;  0.0000000E+00;  4.0008969E+04; -1.0610213E-01;  0.0000000E+00;  7.9270773E-02;  1.2954661E+03;
  5.5192018E-01;  9.9999998E-03; -1.0000326E-01;5821;  1.0102860E-02;  0.0000000E+00; -9.0669636E-03;  9.9860583E+02;  1.0004845E-01; -1.1550289E+03;3; -5.8062506E+00;  0.0000000E+00; -5.6738549E-01;0; -3.2372437E-02;  3.9840781E+04;  0.0000000E+00; -5.0911937E-02;  4.0000000E+04;  0.0000000E+00;  4.0005844E+04; -9.7734727E-02;  0.0000000E+00;  6.5362290E-02;  9.1661896E+02;
  5.5191422E-01;  9.9999998E-03; -9.0002663E-02;5822;  1.0004123E-02;  0.0000000E+00; -8.4043313E-03;  9.9854834E+02;  1.0004840E-01; -1.2026819E+03;3; -5.9915147E+00;  0.0000000E+00; -4.5857459E-01;0; -3.1428643E-02;  3.9835715E+04;  0.0000000E+00; -5.7418972E-02;  4.0000000E+04;  0.0000000E+00;  4.0006289E+04; -1.0136110E-01;  0.0000000E+00;  6.9932453E-02;  9.8406970E+02;
  5.5190742E-01;  9.9999998E-03; -8.0001988E-02;5823;  9.8964265E-03;  0.0000000E+00; -7.6860590E-03;  9.9849243E+02;  1.0004842E-01; -1.2490016E+03;3; -6.1624913E+00;  0.0000000E+00; -3.5790697E-01;0; -3.0373625E-02;  3.9830359E+04;  0.0000000E+00; -5.9065387E-02;  4.0000000E+04;  0.0000000E+00;  4.0007016E+04; -1.0469732E-01;  0.0000000E+00;  7.4323699E-02;  1.0698755E+03;
  5.5189955E-01;  9.9999998E-03; -7.0001364E-02;5824;  9.7811827E-03;  0.0000000E+00; -6.9108512E-03;  9.9843896E+02;  1.0004834E-01; -1.2932966E+03;3; -6.3219433E+00;  0.0000000E+00; -2.7860448E-01;0; -2.9258609E-02;  3.9825551E+04;  0.0000000E+00; -5.6002051E-02;  4.0000000E+04;  0.0000000E+00;  4.0007711E+04; -1.0772048E-01;  0.0000000E+00;  7.8461871E-02;  1.1628102E+03;
  5.5189109E-01;  9.9999998E-03; -6.0000993E-02;5825;  9.6632419E-03;  0.0000000E+00; -6.0742535E-03;  9.9839307E+02;  1.0004846E-01; -1.3313203E+03;3; -6.4615054E+00;  0.0000000E+00; -2.1591863E-01;0; -2.8139606E-02;  3.9821191E+04;  0.0000000E+00; -4.8920460E-02;  4.0000000E+04;  0.0000000E+00;  4.0008422E+04; -1.1040679E-01;  0.0000000E+00;  8.2267188E-02;  1.2532795E+03;
  5.5188227E-01;  9.9999998E-03; -5.0000980E-02;5826;  9.5470473E-03;  0.0000000E+00; -5.1773423E-03;  9.9835205E+02;  1.0004857E-01; -1.3652947E+03;3; -6.5852079E+00;  0.0000000E+00; -1.6632487E-01;0; -2.7073637E-02;  3.9817402E+04;  0.0000000E+00; -3.9019898E-02;  4.0000000E+04;  0.0000000E+00;  4.0008906E+04; -1.1273242E-01;  0.0000000E+00;  8.5658781E-02;  1.3341230E+03;
  5.5187440E-01;  9.9999998E-03; -4.0001135E-02;5827;  9.4379457E-03;  0.0000000E+00; -4.2266240E-03;  9.9832288E+02;  1.0004835E-01; -1.3894421E+03;3; -6.6885290E+00;  0.0000000E+00; -1.2840807E-01;0; -2.6114792E-02;  3.9814344E+04;  0.0000000E+00; -2.7826089E-02;  4.0000000E+04;  0.0000000E+00;  4.0009422E+04; -1.1467392E-01;  0.0000000E+00;  8.8559128E-02;  1.4009994E+03;
  5.5186737E-01;  9.9999998E-03; -3.0001292E-02;5828;  9.3445554E-03;  0.0000000E+00; -3.2211102E-03;  9.9830341E+02;  1.0004839E-01; -1.4055897E+03;3; -6.7681184E+00;  0.0000000E+00; -9.2766196E-02;0; -2.5312297E-02;  3.9812242E+04;  0.0000000E+00; -1.6975338E-02;  4.0000000E+04;  0.0000000E+00;  4.0009719E+04; -1.1620984E-01;  0.0000000E+00;  9.0897545E-02;  1.4519277E+03;
  5.5186170E-01;  9.9999998E-03; -2.0001324E-02;5829;  9.2722792E-03;  0.0000000E+00; -2.1741732E-03;  9.9828723E+02;  1.0004836E-01; -1.4189720E+03;3; -6.8236027E+00;  0.0000000E+00; -6.0541533E-02;0; -2.4707422E-02;  3.9810586E+04;  0.0000000E+00; -7.9828678E-03;  4.0000000E+04;  0.0000000E+00;  4.0010172E+04; -1.1732136E-01;  0.0000000E+00;  9.2613943E-02;  1.4868749E+03;
  5.5185771E-01;  9.9999998E-03; -1.0000933E-02;5830;  9.2269033E-03;  0.0000000E+00; -1.0949015E-03;  9.9827539E+02;  1.0004847E-01; -1.4287990E+03;3; -6.8571477E+00;  0.0000000E+00; -3.2410044E-02;0; -2.4331495E-02;  3.9809582E+04;  0.0000000E+00; -2.0633042E-03;  4.0000000E+04;  0.0000000E+00;  4.0010438E+04; -1.1799426E-01;  0.0000000E+00;  9.3662769E-02;  1.5069156E+03;
  5.5185628E-01;  9.9999998E-03;  1.4289322E-09;5831;  9.2113754E-03;  0.0000000E+00;  1.4226953E-08;  9.9827313E+02;  1.0004861E-01; -1.4306755E+03;3; -6.8684878E+00;  0.0000000E+00; -2.5128222E-06;0; -2.4204187E-02;  3.9809359E+04;  0.0000000E+00;  2.5208819E-12;  4.0000000E+04;  0.0000000E+00;  4.0010426E+04; -1.1821957E-01;  0.0000000E+00;  9.4015382E-02;  1.5133541E+03;
  5.5185771E-01;  9.9999998E-03;  1.0000936E-02;5832;  9.2269033E-03;  0.0000000E+00;  1.0949305E-03;  9.9827545E+02;  1.0004843E-01; -1.4287496E+03;3; -6.8571448E+00;  0.0000000E+00;  3.2409858E-02;0; -2.4331622E-02;  3.9809578E+04;  0.0000000E+00; -2.0636867E-03;  4.0000000E+04;  0.0000000E+00;  4.0010438E+04; -1.1799435E-01;  0.0000000E+00;  9.3662724E-02;  1.5069105E+03;
  5.5186170E-01;  9.9999998E-03;  2.0001328E-02;5833;  9.2722792E-03;  0.0000000E+00;  2.1742035E-03;  9.9828729E+02;  1.0004843E-01; -1.4189227E+03;3; -6.8235931E+00;  0.0000000E+00;  6.0546700E-02;0; -2.4707504E-02;  3.9810590E+04;  0.0000000E+00; -7.9834759E-03;  4.0000000E+04;  0.0000000E+00;  4.0010172E+04; -1.1732145E-01;  0.0000000E+00;  9.2613943E-02;  1.4868682E+03;
  5.5186737E-01;  9.9999998E-03;  3.0001296E-02;5834;  9.3445526E-03;  0.0000000E+00;  3.2211416E-03;  9.9830341E+02;  1.0004839E-01; -1.4055897E+03;3; -6.7681322E+00;  0.0000000E+00;  9.2766546E-02;0; -2.5312193E-02;  3.9812246E+04;  0.0000000E+00; -1.6975991E-02;  4.0000000E+04;  0.0000000E+00;  4.0009719E+04; -1.1620977E-01;  0.0000000E+00;  9.0897575E-02;  1.4519353E+03;
  5.5187440E-01;  9.9999998E-03;  4.0001139E-02;5835;  9.4379475E-03;  0.0000000E+00;  4.2266576E-03;  9.9832288E+02;  1.0004835E-01; -1.3894421E+03;3; -6.6885214E+00;  0.0000000E+00;  1.2841210E-01;0; -2.6114717E-02;  3.9814344E+04;  0.0000000E+00; -2.7826751E-02;  4.0000000E+04;  0.0000000E+00;  4.0009422E+04; -1.1467393E-01;  0.0000000E+00;  8.8559218E-02;  1.4010131E+03;
  5.5188227E-01;  9.9999998E-03;  5.0000984E-02;5836;  9.5470473E-03;  0.0000000E+00;  5.1773791E-03;  9.9835217E+02;  1.0004857E-01; -1.3651958E+03;3; -6.5852137E+00;  0.0000000E+00;  1.6633379E-01;0; -2.7073577E-02;  3.9817402E+04;  0.0000000E+00; -3.9021328E-02;  4.0000000E+04;  0.0000000E+00;  4.0008906E+04; -1.1273234E-01;  0.0000000E+00;  8.5658759E-02;  1.3341198E+03;
  5.5189109E-01;  9.9999998E-03;  6.0000997E-02;5837;  9.6632363E-03;  0.0000000E+00;  6.0742898E-03;  9.9839313E+02;  1.0004842E-01; -1.3312709E+03;3; -6.4615121E+00;  0.0000000E+00;  2.1592610E-01;0; -2.8139822E-02;  3.9821188E+04;  0.0000000E+00; -4.8921574E-02;  4.0000000E+04;  0.0000000E+00;  4.0008422E+04; -1.1040688E-01;  0.0000000E+00;  8.2267061E-02;  1.2532684E+03;
  5.6196296E-01;  9.9999998E-03; -1.0001075E-01;5882;  9.0745483E-03;  0.0000000E+00; -9.3715712E-03;  9.9856213E+02;  1.0007958E-01; -1.1912255E+03;3; -5.7020688E+00;  0.0000000E+00; -5.4789555E-01;0; -3.3677250E-02;  3.9811992E+04;  0.0000000E+00;  1.9533921E-02;  4.0000000E+04;  0.0000000E+00;  4.0005945E+04; -1.0134307E-01;  0.0000000E+00;  6.7665815E-02;  9.5288916E+02;
  5.6196070E-01;  9.9999998E-03; -9.0009570E-02;5883;  8.9329816E-03;  0.0000000E+00; -8.6677354E-03;  9.9849329E+02;  1.0007951E-01; -1.2482609E+03;3; -5.8909168E+00;  0.0000000E+00; -4.3063244E-01;0; -3.2737799E-02;  3.9805953E+04;  0.0000000E+00;  8.5931821E-03;  4.0000000E+04;  0.0000000E+00;  4.0006250E+04; -1.0515571E-01;  0.0000000E+00;  7.2417907E-02;  1.0065424E+03;
  5.6195617E-01;  9.9999998E-03; -8.0008321E-02;5884;  8.7837530E-03;  0.0000000E+00; -7.9067806E-03;  9.9842474E+02;  1.0007960E-01; -1.3050494E+03;3; -6.0648956E+00;  0.0000000E+00; -3.2649028E-01;0; -3.1698726E-02;  3.9799918E+04;  0.0000000E+00; -6.1962352E-04;  4.0000000E+04;  0.0000000E+00;  4.0006867E+04; -1.0865101E-01;  0.0000000E+00;  7.6952286E-02;  1.0787720E+03;
  5.6194913E-01;  9.9999998E-03; -7.0007123E-02;5885;  8.6287437E-03;  0.0000000E+00; -7.0894207E-03;  9.9835699E+02;  1.0007960E-01; -1.3611959E+03;3; -6.2201056E+00;  0.0000000E+00; -2.5311711E-01;0; -3.0612238E-02;  3.9794133E+04;  0.0000000E+00; -7.1893781E-03;  4.0000000E+04;  0.0000000E+00;  4.0007406E+04; -1.1180597E-01;  0.0000000E+00;  8.1193730E-02;  1.1574794E+03;
  5.6194043E-01;  9.9999998E-03; -6.0006097E-02;5886;  8.4730750E-03;  0.0000000E+00; -6.2119095E-03;  9.9829846E+02;  1.0007947E-01; -1.4096885E+03;3; -6.3600864E+00;  0.0000000E+00; -1.9207110E-01;0; -2.9532850E-02;  3.9788688E+04;  0.0000000E+00; -1.0666204E-02;  4.0000000E+04;  0.0000000E+00;  4.0007906E+04; -1.1459810E-01;  0.0000000E+00;  8.5065246E-02;  1.2321002E+03;
  5.6193107E-01;  9.9999998E-03; -5.0005388E-02;5887;  8.3223097E-03;  0.0000000E+00; -5.2783084E-03;  9.9824945E+02;  1.0007939E-01; -1.4502799E+03;3; -6.4819937E+00;  0.0000000E+00; -1.4528996E-01;0; -2.8514318E-02;  3.9784219E+04;  0.0000000E+00; -1.1195882E-02;  4.0000000E+04;  0.0000000E+00;  4.0008383E+04; -1.1700577E-01;  0.0000000E+00;  8.8491455E-02;  1.2953013E+03;
  5.6192201E-01;  9.9999998E-03; -4.0004976E-02;5888;  8.1829466E-03;  0.0000000E+00; -4.2964490E-03;  9.9820795E+02;  1.0007937E-01; -1.4846986E+03;3; -6.5849743E+00;  0.0000000E+00; -1.1286280E-01;0; -2.7605414E-02;  3.9780645E+04;  0.0000000E+00; -9.4442992E-03;  4.0000000E+04;  0.0000000E+00;  4.0008770E+04; -1.1900799E-01;  0.0000000E+00;  9.1402575E-02;  1.3435667E+03;
  5.6191361E-01;  9.9999998E-03; -3.0004561E-02;5889;  8.0643976E-03;  0.0000000E+00; -3.2664158E-03;  9.9817566E+02;  1.0007945E-01; -1.5114139E+03;3; -6.6644917E+00;  0.0000000E+00; -8.2855031E-02;0; -2.6850291E-02;  3.9777871E+04;  0.0000000E+00; -6.4199287E-03;  4.0000000E+04;  0.0000000E+00;  4.0008926E+04; -1.2058685E-01;  0.0000000E+00;  9.3736559E-02;  1.3765894E+03;
  5.6190652E-01;  9.9999998E-03; -2.0003861E-02;5890;  7.9731233E-03;  0.0000000E+00; -2.2008142E-03;  9.9815259E+02;  1.0007954E-01; -1.5305245E+03;3; -6.7202764E+00;  0.0000000E+00; -5.5956755E-02;0; -2.6284054E-02;  3.9775902E+04;  0.0000000E+00; -3.2334907E-03;  4.0000000E+04;  0.0000000E+00;  4.0009098E+04; -1.2172627E-01;  0.0000000E+00;  9.5442213E-02;  1.3964783E+03;
  5.6190115E-01;  9.9999998E-03; -1.0002520E-02;5891;  7.9159401E-03;  0.0000000E+00; -1.1068890E-03;  9.9814227E+02;  1.0007961E-01; -1.5390675E+03;3; -6.7531085E+00;  0.0000000E+00; -3.0632354E-02;0; -2.5933370E-02;  3.9774562E+04;  0.0000000E+00; -8.6846785E-04;  4.0000000E+04;  0.0000000E+00;  4.0009230E+04; -1.2241459E-01;  0.0000000E+00;  9.6481219E-02;  1.4063890E+03;
  5.6189901E-01;  9.9999998E-03;  1.3407873E-09;5892;  7.8963935E-03;  0.0000000E+00;  1.5612436E-08;  9.9813586E+02;  1.0007939E-01; -1.5444006E+03;3; -6.7649574E+00;  0.0000000E+00;  2.9049787E-07;0; -2.5814615E-02;  3.9774262E+04;  0.0000000E+00;  2.1417544E-12;  4.0000000E+04;  0.0000000E+00;  4.0009238E+04; -1.2264478E-01;  0.0000000E+00;  9.6830167E-02;  1.4092977E+03;
  5.6190115E-01;  9.9999998E-03;  1.0002523E-02;5893;  7.9159383E-03;  0.0000000E+00;  1.1069208E-03;  9.9814227E+02;  1.0007961E-01; -1.5390675E+03;3; -6.7530823E+00;  0.0000000E+00;  3.0629639E-02;0; -2.5933452E-02;  3.9774559E+04;  0.0000000E+00; -8.6883508E-04;  4.0000000E+04;  0.0000000E+00;  4.0009230E+04; -1.2241466E-01;  0.0000000E+00;  9.6481211E-02;  1.4063828E+03;
  5.6190652E-01;  9.9999998E-03;  2.0003863E-02;5894;  7.9731187E-03;  0.0000000E+00;  2.2008463E-03;  9.9815259E+02;  1.0007954E-01; -1.5305245E+03;3; -6.7202892E+00;  0.0000000E+00;  5.5959295E-02;0; -2.6284069E-02;  3.9775895E+04;  0.0000000E+00; -3.2343161E-03;  4.0000000E+04;  0.0000000E+00;  4.0009102E+04; -1.2172631E-01;  0.0000000E+00;  9.5442243E-02;  1.3964781E+03;
  5.6191361E-01;  9.9999998E-03;  3.0004563E-02;5895;  8.0643957E-03;  0.0000000E+00;  3.2664489E-03;  9.9817566E+02;  1.0007945E-01; -1.5114139E+03;3; -6.6645083E+00;  0.0000000E+00;  8.2858488E-02;0; -2.6850082E-02;  3.9777871E+04;  0.0000000E+00; -6.4218016E-03;  4.0000000E+04;  0.0000000E+00;  4.0008926E+04; -1.2058677E-01;  0.0000000E+00;  9.3736686E-02;  1.3765796E+03;
  5.6192201E-01;  9.9999998E-03;  4.0004980E-02;5896;  8.1829438E-03;  0.0000000E+00;  4.2964844E-03;  9.9820795E+02;  1.0007937E-01; -1.4846986E+03;3; -6.5849819E+00;  0.0000000E+00;  1.1287107E-01;0; -2.7605318E-02;  3.9780641E+04;  0.0000000E+00; -9.4461339E-03;  4.0000000E+04;  0.0000000E+00;  4.0008770E+04; -1.1900796E-01;  0.0000000E+00;  9.1402642E-02;  1.3435692E+03;
  5.6193107E-01;  9.9999998E-03;  5.0005388E-02;5897;  8.3223050E-03;  0.0000000E+00;  5.2783457E-03;  9.9824945E+02;  1.0007939E-01; -1.4502799E+03;3; -6.4819865E+00;  0.0000000E+00;  1.4529243E-01;0; -2.8514273E-02;  3.9784223E+04;  0.0000000E+00; -1.1197383E-02;  4.0000000E+04;  0.0000000E+00;  4.0008383E+04; -1.1700580E-01;  0.0000000E+00;  8.8491522E-02;  1.2952969E+03;
  5.6194043E-01;  9.9999998E-03;  6.0006097E-02;5898;  8.4730722E-03;  0.0000000E+00;  6.2119476E-03;  9.9829840E+02;  1.0007951E-01; -1.4097378E+03;3; -6.3600826E+00;  0.0000000E+00;  1.9207190E-01;0; -2.9532641E-02;  3.9788684E+04;  0.0000000E+00; -1.0667059E-02;  4.0000000E+04;  0.0000000E+00;  4.0007906E+04; -1.1459807E-01;  0.0000000E+00;  8.5065424E-02;  1.2321052E+03;
  5.7205474E-01;  9.9999998E-03; -1.0000729E-01;5943;  8.0010192E-03;  0.0000000E+00; -9.6634962E-03;  9.9861011E+02;  1.0013086E-01; -1.1515228E+03;3; -5.5878901E+00;  0.0000000E+00; -5.3946877E-01;0; -3.5141222E-02;  3.9774570E+04;  0.0000000E+00;  9.7871736E-02;  4.0000000E+04;  0.0000000E+00;  4.0006270E+04; -1.0489096E-01;  0.0000000E+00;  6.9749735E-02;  1.0453807E+03;
  5.7206029E-01;  9.9999998E-03; -9.0005837E-02;5944;  7.8147491E-03;  0.0000000E+00; -8.9148004E-03;  9.9853986E+02;  1.0013097E-01; -1.2096940E+03;3; -5.7811170E+00;  0.0000000E+00; -4.1233858E-01;0; -3.4197189E-02;  3.9768625E+04;  0.0000000E+00;  8.4044017E-02;  4.0000000E+04;  0.0000000E+00;  4.0006512E+04; -1.0888711E-01;  0.0000000E+00;  7.4689917E-02;  1.0837043E+03;
  5.7206273E-01;  9.9999998E-03; -8.0004431E-02;5945;  7.6227500E-03;  0.0000000E+00; -8.1079239E-03;  9.9847028E+02;  1.0013099E-01; -1.2673713E+03;3; -5.9522452E+00;  0.0000000E+00; -3.0766743E-01;0; -3.3166930E-02;  3.9762594E+04;  0.0000000E+00;  6.7877948E-02;  4.0000000E+04;  0.0000000E+00;  4.0007059E+04; -1.1253621E-01;  0.0000000E+00;  7.9369277E-02;  1.1373263E+03;
  5.7206219E-01;  9.9999998E-03; -7.0003204E-02;5946;  7.4271294E-03;  0.0000000E+00; -7.2451374E-03;  9.9840039E+02;  1.0013084E-01; -1.3252462E+03;3; -6.1090460E+00;  0.0000000E+00; -2.2899447E-01;0; -3.2104544E-02;  3.9756809E+04;  0.0000000E+00;  5.1359382E-02;  4.0000000E+04;  0.0000000E+00;  4.0007297E+04; -1.1581537E-01;  0.0000000E+00;  8.3710827E-02;  1.1946428E+03;
  5.7205856E-01;  9.9999998E-03; -6.0002346E-02;5947;  7.2339717E-03;  0.0000000E+00; -6.3256542E-03;  9.9833942E+02;  1.0013077E-01; -1.3757633E+03;3; -6.2507839E+00;  0.0000000E+00; -1.6707057E-01;0; -3.1063668E-02;  3.9751309E+04;  0.0000000E+00;  3.6201611E-02;  4.0000000E+04;  0.0000000E+00;  4.0007723E+04; -1.1870403E-01;  0.0000000E+00;  8.7640360E-02;  1.2456759E+03;
  5.7205266E-01;  9.9999998E-03; -5.0001908E-02;5948;  7.0497477E-03;  0.0000000E+00; -5.3558252E-03;  9.9828210E+02;  1.0013092E-01; -1.4232682E+03;3; -6.3736553E+00;  0.0000000E+00; -1.2206918E-01;0; -3.0093409E-02;  3.9746594E+04;  0.0000000E+00;  2.3546381E-02;  4.0000000E+04;  0.0000000E+00;  4.0007922E+04; -1.2118280E-01;  0.0000000E+00;  9.1089390E-02;  1.2839056E+03;
  5.7204515E-01;  9.9999998E-03; -4.0001933E-02;5949;  6.8817167E-03;  0.0000000E+00; -4.3445746E-03;  9.9823682E+02;  1.0013068E-01; -1.4607485E+03;3; -6.4761524E+00;  0.0000000E+00; -9.3978003E-02;0; -2.9237501E-02;  3.9742941E+04;  0.0000000E+00;  1.3888624E-02;  4.0000000E+04;  0.0000000E+00;  4.0008188E+04; -1.2323470E-01;  0.0000000E+00;  9.3997203E-02;  1.3072314E+03;
  5.7203740E-01;  9.9999998E-03; -3.0002231E-02;5950;  6.7397095E-03;  0.0000000E+00; -3.2936593E-03;  9.9819958E+02;  1.0013074E-01; -1.4916119E+03;3; -6.5552435E+00;  0.0000000E+00; -7.1128830E-02;0; -2.8533109E-02;  3.9739777E+04;  0.0000000E+00;  7.1617425E-03;  4.0000000E+04;  0.0000000E+00;  4.0008223E+04; -1.2484613E-01;  0.0000000E+00;  9.6313022E-02;  1.3174021E+03;
  5.7203048E-01;  9.9999998E-03; -2.0002501E-02;5951;  6.6308342E-03;  0.0000000E+00; -2.2144904E-03;  9.9817322E+02;  1.0013067E-01; -1.5134385E+03;3; -6.6086507E+00;  0.0000000E+00; -5.4662652E-02;0; -2.8008826E-02;  3.9737742E+04;  0.0000000E+00;  2.9415109E-03;  4.0000000E+04;  0.0000000E+00;  4.0008094E+04; -1.2600537E-01;  0.0000000E+00;  9.7996540E-02;  1.3187482E+03;
  5.7202500E-01;  9.9999998E-03; -1.0002120E-02;5952;  6.5625892E-03;  0.0000000E+00; -1.1120415E-03;  9.9815942E+02;  1.0013087E-01; -1.5248949E+03;3; -6.6412654E+00;  0.0000000E+00; -2.8317375E-02;0; -2.7685694E-02;  3.9736367E+04;  0.0000000E+00;  6.9552043E-04;  4.0000000E+04;  0.0000000E+00;  4.0008184E+04; -1.2670381E-01;  0.0000000E+00;  9.9018119E-02;  1.3164692E+03;
  5.7202280E-01;  9.9999998E-03;  1.2353450E-09;5953;  6.5392740E-03;  0.0000000E+00;  1.7004755E-08;  9.9815192E+02;  1.0013071E-01; -1.5311169E+03;3; -6.6531663E+00;  0.0000000E+00;  2.5511545E-06;0; -2.7576759E-02;  3.9735984E+04;  0.0000000E+00;  9.8091468E-13;  4.0000000E+04;  0.0000000E+00;  4.0008117E+04; -1.2693736E-01;  0.0000000E+00;  9.9360600E-02;  1.3151222E+03;
  5.7202500E-01;  9.9999998E-03;  1.0002123E-02;5954;  6.5625901E-03;  0.0000000E+00;  1.1120751E-03;  9.9815930E+02;  1.0013088E-01; -1.5249937E+03;3; -6.6412234E+00;  0.0000000E+00;  2.8316453E-02;0; -2.7685836E-02;  3.9736367E+04;  0.0000000E+00;  6.9504953E-04;  4.0000000E+04;  0.0000000E+00;  4.0008184E+04; -1.2670393E-01;  0.0000000E+00;  9.9018097E-02;  1.3164681E+03;
  5.7203048E-01;  9.9999998E-03;  2.0002505E-02;5955;  6.6308333E-03;  0.0000000E+00;  2.2145242E-03;  9.9817322E+02;  1.0013067E-01; -1.5134385E+03;3; -6.6086898E+00;  0.0000000E+00;  5.4664679E-02;0; -2.8008759E-02;  3.9737742E+04;  0.0000000E+00;  2.9407307E-03;  4.0000000E+04;  0.0000000E+00;  4.0008094E+04; -1.2600534E-01;  0.0000000E+00;  9.7996578E-02;  1.3187568E+03;
  5.7203740E-01;  9.9999998E-03;  3.0002233E-02;5956;  6.7397081E-03;  0.0000000E+00;  3.2936945E-03;  9.9819958E+02;  1.0013074E-01; -1.4916119E+03;3; -6.5552316E+00;  0.0000000E+00;  7.1133077E-02;0; -2.8533019E-02;  3.9739766E+04;  0.0000000E+00;  7.1603106E-03;  4.0000000E+04;  0.0000000E+00;  4.0008223E+04; -1.2484615E-01;  0.0000000E+00;  9.6313126E-02;  1.3174139E+03;
  5.7204515E-01;  9.9999998E-03;  4.0001936E-02;5957;  6.8817129E-03;  0.0000000E+00;  4.3446114E-03;  9.9823676E+02;  1.0013068E-01; -1.4607980E+03;3; -6.4761362E+00;  0.0000000E+00;  9.3982361E-02;0; -2.9237606E-02;  3.9742949E+04;  0.0000000E+00;  1.3886795E-02;  4.0000000E+04;  0.0000000E+00;  4.0008188E+04; -1.2323483E-01;  0.0000000E+00;  9.3997225E-02;  1.3072296E+03;
  5.7205266E-01;  9.9999998E-03;  5.0001912E-02;5958;  7.0497436E-03;  0.0000000E+00;  5.3558634E-03;  9.9828204E+02;  1.0013079E-01; -1.4233175E+03;3; -6.3736491E+00;  0.0000000E+00;  1.2207836E-01;0; -3.0093431E-02;  3.9746598E+04;  0.0000000E+00;  2.3542885E-02;  4.0000000E+04;  0.0000000E+00;  4.0007922E+04; -1.2118290E-01;  0.0000000E+00;  9.1089472E-02;  1.2839091E+03;
  5.7205856E-01;  9.9999998E-03;  6.0002349E-02;5959;  7.2339671E-03;  0.0000000E+00;  6.3256933E-03;  9.9833936E+02;  1.0013077E-01; -1.3758127E+03;3; -6.2507801E+00;  0.0000000E+00;  1.6707541E-01;0; -3.1063579E-02;  3.9751312E+04;  0.0000000E+00;  3.6197204E-02;  4.0000000E+04;  0.0000000E+00;  4.0007719E+04; -1.1870410E-01;  0.0000000E+00;  8.7640516E-02;  1.2456786E+03;
  5.8216769E-01;  9.9999998E-03; -9.9998444E-02;6004;  6.8882462E-03;  0.0000000E+00; -9.9420780E-03;  9.9870874E+02;  1.0021400E-01; -1.0697968E+03;3; -5.4640799E+00;  0.0000000E+00; -5.4612148E-01;0; -3.6828287E-02;  3.9716578E+04;  0.0000000E+00;  1.6836315E-01;  4.0000000E+04;  0.0000000E+00;  4.0006773E+04; -1.0838255E-01;  0.0000000E+00;  7.1554266E-02;  1.1885938E+03;
  5.8218914E-01;  9.9999998E-03; -8.9996241E-02;6005;  6.6552726E-03;  0.0000000E+00; -9.1466801E-03;  9.9865015E+02;  1.0021414E-01; -1.1183386E+03;3; -5.6569481E+00;  0.0000000E+00; -4.1037470E-01;0; -3.5876535E-02;  3.9711840E+04;  0.0000000E+00;  1.5421090E-01;  4.0000000E+04;  0.0000000E+00;  4.0006992E+04; -1.1256692E-01;  0.0000000E+00;  7.6690383E-02;  1.2146165E+03;
  5.8220625E-01;  9.9999998E-03; -7.9994366E-02;6006;  6.4190696E-03;  0.0000000E+00; -8.2921842E-03;  9.9859131E+02;  1.0021397E-01; -1.1670779E+03;3; -5.8307705E+00;  0.0000000E+00; -2.9546243E-01;0; -3.4853086E-02;  3.9706715E+04;  0.0000000E+00;  1.3341890E-01;  4.0000000E+04;  0.0000000E+00;  4.0007293E+04; -1.1637246E-01;  0.0000000E+00;  8.1519373E-02;  1.2479316E+03;
  5.8221745E-01;  9.9999998E-03; -6.9993205E-02;6007;  6.1830804E-03;  0.0000000E+00; -7.3822271E-03;  9.9853430E+02;  1.0021388E-01; -1.2142865E+03;3; -5.9901137E+00;  0.0000000E+00; -2.0740658E-01;0; -3.3813983E-02;  3.9702137E+04;  0.0000000E+00;  1.0878993E-01;  4.0000000E+04;  0.0000000E+00;  4.0007398E+04; -1.1977679E-01;  0.0000000E+00;  8.5962810E-02;  1.2788384E+03;
  5.8222270E-01;  9.9999998E-03; -5.9992902E-02;6008;  5.9536831E-03;  0.0000000E+00; -6.4205509E-03;  9.9847815E+02;  1.0021403E-01; -1.2608037E+03;3; -6.1332850E+00;  0.0000000E+00; -1.4246303E-01;0; -3.2811210E-02;  3.9697582E+04;  0.0000000E+00;  8.3167329E-02;  4.0000000E+04;  0.0000000E+00;  4.0007695E+04; -1.2276024E-01;  0.0000000E+00;  8.9949027E-02;  1.2994821E+03;
  5.8222282E-01;  9.9999998E-03; -4.9993478E-02;6009;  5.7381541E-03;  0.0000000E+00; -5.4150452E-03;  9.9842780E+02;  1.0021371E-01; -1.3025309E+03;3; -6.2571607E+00;  0.0000000E+00; -9.7618707E-02;0; -3.1890795E-02;  3.9693613E+04;  0.0000000E+00;  5.9000954E-02;  4.0000000E+04;  0.0000000E+00;  4.0007605E+04; -1.2530722E-01;  0.0000000E+00;  9.3416423E-02;  1.3055925E+03;
  5.8221883E-01;  9.9999998E-03; -3.9994817E-02;6010;  5.5440990E-03;  0.0000000E+00; -4.3765334E-03;  9.9838568E+02;  1.0021380E-01; -1.3374435E+03;3; -6.3586259E+00;  0.0000000E+00; -7.4007474E-02;0; -3.1089894E-02;  3.9690262E+04;  0.0000000E+00;  3.8060304E-02;  4.0000000E+04;  0.0000000E+00;  4.0007527E+04; -1.2740512E-01;  0.0000000E+00;  9.6315227E-02;  1.2976505E+03;
  5.8221269E-01;  9.9999998E-03; -2.9996663E-02;6011;  5.3812843E-03;  0.0000000E+00; -3.3077449E-03;  9.9834991E+02;  1.0021389E-01; -1.3670723E+03;3; -6.4360185E+00;  0.0000000E+00; -6.1283320E-02;0; -3.0438304E-02;  3.9687637E+04;  0.0000000E+00;  2.1398216E-02;  4.0000000E+04;  0.0000000E+00;  4.0007418E+04; -1.2904507E-01;  0.0000000E+00;  9.8606765E-02;  1.2799860E+03;
  5.8220690E-01;  9.9999998E-03; -1.9998707E-02;6012;  5.2569062E-03;  0.0000000E+00; -2.2183906E-03;  9.9832574E+02;  1.0021383E-01; -1.3870717E+03;3; -6.4876342E+00;  0.0000000E+00; -5.2769601E-02;0; -2.9958092E-02;  3.9685844E+04;  0.0000000E+00;  9.4703967E-03;  4.0000000E+04;  0.0000000E+00;  4.0007273E+04; -1.3022059E-01;  0.0000000E+00;  1.0026250E-01;  1.2592996E+03;
  5.8220237E-01;  9.9999998E-03; -1.0000237E-02;6013;  5.1788059E-03;  0.0000000E+00; -1.1124044E-03;  9.9830646E+02;  1.0021370E-01; -1.4030712E+03;3; -6.5219288E+00;  0.0000000E+00; -2.6628014E-02;0; -2.9664263E-02;  3.9684617E+04;  0.0000000E+00;  2.3580473E-03;  4.0000000E+04;  0.0000000E+00;  4.0007051E+04; -1.3092747E-01;  0.0000000E+00;  1.0126321E-01;  1.2429751E+03;
  5.8220041E-01;  9.9999998E-03;  1.1117617E-09;6014;  5.1519750E-03;  0.0000000E+00;  1.7896522E-08;  9.9830182E+02;  1.0021380E-01; -1.4069230E+03;3; -6.5339279E+00;  0.0000000E+00;  1.8203762E-06;0; -2.9565185E-02;  3.9684195E+04;  0.0000000E+00;  7.4815176E-13;  4.0000000E+04;  0.0000000E+00;  4.0007195E+04; -1.3116316E-01;  0.0000000E+00;  1.0159798E-01;  1.2367704E+03;
  5.8220237E-01;  9.9999998E-03;  1.0000239E-02;6015;  5.1788036E-03;  0.0000000E+00;  1.1124400E-03;  9.9830646E+02;  1.0021370E-01; -1.4030712E+03;3; -6.5219512E+00;  0.0000000E+00;  2.6628673E-02;0; -2.9664233E-02;  3.9684613E+04;  0.0000000E+00;  2.3574950E-03;  4.0000000E+04;  0.0000000E+00;  4.0007055E+04; -1.3092753E-01;  0.0000000E+00;  1.0126330E-01;  1.2429812E+03;
  5.8220690E-01;  9.9999998E-03;  1.9998709E-02;6016;  5.2569034E-03;  0.0000000E+00;  2.2184278E-03;  9.9832574E+02;  1.0021383E-01; -1.3870717E+03;3; -6.4876413E+00;  0.0000000E+00;  5.2770860E-02;0; -2.9958203E-02;  3.9685844E+04;  0.0000000E+00;  9.4697326E-03;  4.0000000E+04;  0.0000000E+00;  4.0007273E+04; -1.3022070E-01;  0.0000000E+00;  1.0026249E-01;  1.2593134E+03;
  5.8221269E-01;  9.9999998E-03;  2.9996665E-02;6017;  5.3812834E-03;  0.0000000E+00;  3.3077830E-03;  9.9834991E+02;  1.0021389E-01; -1.3670723E+03;3; -6.4359822E+00;  0.0000000E+00;  6.1281100E-02;0; -3.0438289E-02;  3.9687637E+04;  0.0000000E+00;  2.1396685E-02;  4.0000000E+04;  0.0000000E+00;  4.0007418E+04; -1.2904517E-01;  0.0000000E+00;  9.8606884E-02;  1.2799861E+03;
  5.8221883E-01;  9.9999998E-03;  3.9994821E-02;6018;  5.5440944E-03;  0.0000000E+00;  4.3765716E-03;  9.9838568E+02;  1.0021380E-01; -1.3374435E+03;3; -6.3586397E+00;  0.0000000E+00;  7.4010760E-02;0; -3.1089641E-02;  3.9690262E+04;  0.0000000E+00;  3.8057555E-02;  4.0000000E+04;  0.0000000E+00;  4.0007527E+04; -1.2740496E-01;  0.0000000E+00;  9.6315317E-02;  1.2976512E+03;
  5.8222282E-01;  9.9999998E-03;  4.9993478E-02;6019;  5.7381494E-03;  0.0000000E+00;  5.4150848E-03;  9.9842780E+02;  1.0021371E-01; -1.3025309E+03;3; -6.2571754E+00;  0.0000000E+00;  9.7623236E-02;0; -3.1890675E-02;  3.9693613E+04;  0.0000000E+00;  5.8996998E-02;  4.0000000E+04;  0.0000000E+00;  4.0007605E+04; -1.2530717E-01;  0.0000000E+00;  9.3416497E-02;  1.3056011E+03;
  5.8222270E-01;  9.9999998E-03;  5.9992902E-02;6020;  5.9536821E-03;  0.0000000E+00;  6.4205909E-03;  9.9847815E+02;  1.0021403E-01; -1.2608037E+03;3; -6.1333060E+00;  0.0000000E+00;  1.4246778E-01;0; -3.2811180E-02;  3.9697586E+04;  0.0000000E+00;  8.3164014E-02;  4.0000000E+04;  0.0000000E+00;  4.0007695E+04; -1.2276015E-01;  0.0000000E+00;  8.9948967E-02;  1.2994725E+03;
  5.9226573E-01;  9.9999998E-03; -9.9988535E-02;6065;  5.7427646E-03;  0.0000000E+00; -1.0203815E-02;  9.9878687E+02;  1.0034835E-01; -1.0050579E+03;3; -5.3328176E+00;  0.0000000E+00; -5.6641322E-01;0; -3.8813561E-02;  3.9617785E+04;  0.0000000E+00;  2.1230422E-01;  4.0000000E+04;  0.0000000E+00;  4.0007223E+04; -1.1183292E-01;  0.0000000E+00;  7.3019363E-02;  1.3634102E+03;
  5.9229881E-01;  9.9999998E-03; -8.9986995E-02;6066;  5.4627452E-03;  0.0000000E+00; -9.3627768E-03;  9.9875354E+02;  1.0034798E-01; -1.0326620E+03;3; -5.5238261E+00;  0.0000000E+00; -4.2317384E-01;0; -3.7857972E-02;  3.9614879E+04;  0.0000000E+00;  2.0102805E-01;  4.0000000E+04;  0.0000000E+00;  4.0007309E+04; -1.1621292E-01;  0.0000000E+00;  7.8354947E-02;  1.3836964E+03;
  5.9232837E-01;  9.9999998E-03; -7.9986289E-02;6067;  5.1828600E-03;  0.0000000E+00; -8.4612630E-03;  9.9871643E+02;  1.0034810E-01; -1.0634265E+03;3; -5.7005849E+00;  0.0000000E+00; -2.9497784E-01;0; -3.6844619E-02;  3.9611984E+04;  0.0000000E+00;  1.7958039E-01;  4.0000000E+04;  0.0000000E+00;  4.0007590E+04; -1.2018284E-01;  0.0000000E+00;  8.3338223E-02;  1.3994098E+03;
  5.9235245E-01;  9.9999998E-03; -6.9986187E-02;6068;  4.9077575E-03;  0.0000000E+00; -7.5043193E-03;  9.9867999E+02;  1.0034806E-01; -1.0935985E+03;3; -5.8630247E+00;  0.0000000E+00; -1.9456132E-01;0; -3.5831496E-02;  3.9609273E+04;  0.0000000E+00;  1.5105872E-01;  4.0000000E+04;  0.0000000E+00;  4.0007582E+04; -1.2372024E-01;  0.0000000E+00;  8.7888740E-02;  1.4029070E+03;
  5.9236789E-01;  9.9999998E-03; -5.9986863E-02;6069;  4.6442607E-03;  0.0000000E+00; -6.5009561E-03;  9.9864520E+02;  1.0034783E-01; -1.1224373E+03;3; -6.0079241E+00;  0.0000000E+00; -1.2287817E-01;0; -3.4869775E-02;  3.9606652E+04;  0.0000000E+00;  1.1900036E-01;  4.0000000E+04;  0.0000000E+00;  4.0007543E+04; -1.2680659E-01;  0.0000000E+00;  9.1936812E-02;  1.3895964E+03;
  5.9237486E-01;  9.9999998E-03; -4.9988393E-02;6070;  4.4004284E-03;  0.0000000E+00; -5.4613971E-03;  9.9860785E+02;  1.0034808E-01; -1.1533500E+03;3; -6.1324511E+00;  0.0000000E+00; -7.4416362E-02;0; -3.4000799E-02;  3.9604094E+04;  0.0000000E+00;  8.6846359E-02;  4.0000000E+04;  0.0000000E+00;  4.0007270E+04; -1.2942867E-01;  0.0000000E+00;  9.5427871E-02;  1.3588862E+03;
  5.9237570E-01;  9.9999998E-03; -3.9990678E-02;6071;  4.1835690E-03;  0.0000000E+00; -4.3980507E-03;  9.9857861E+02;  1.0034766E-01; -1.1775962E+03;3; -6.2328820E+00;  0.0000000E+00; -5.4765288E-02;0; -3.3256918E-02;  3.9602219E+04;  0.0000000E+00;  5.7483375E-02;  4.0000000E+04;  0.0000000E+00;  4.0006938E+04; -1.3157889E-01;  0.0000000E+00;  9.8321974E-02;  1.3147506E+03;
  5.9237254E-01;  9.9999998E-03; -2.9993353E-02;6072;  4.0031681E-03;  0.0000000E+00; -3.3136699E-03;  9.9854974E+02;  1.0034752E-01; -1.2014967E+03;3; -6.3090367E+00;  0.0000000E+00; -5.2334797E-02;0; -3.2659821E-02;  3.9600500E+04;  0.0000000E+00;  3.3037551E-02;  4.0000000E+04;  0.0000000E+00;  4.0006543E+04; -1.3325259E-01;  0.0000000E+00;  1.0059277E-01;  1.2650957E+03;
  5.9236807E-01;  9.9999998E-03; -1.9996161E-02;6073;  3.8657377E-03;  0.0000000E+00; -2.2163172E-03;  9.9852618E+02;  1.0034764E-01; -1.2210518E+03;3; -6.3569245E+00;  0.0000000E+00; -5.2367270E-02;0; -3.2225057E-02;  3.9599406E+04;  0.0000000E+00;  1.4872363E-02;  4.0000000E+04;  0.0000000E+00;  4.0006207E+04; -1.3444804E-01;  0.0000000E+00;  1.0222298E-01;  1.2194777E+03;
  5.9236431E-01;  9.9999998E-03; -9.9986326E-03;6074;  3.7792253E-03;  0.0000000E+00; -1.1094931E-03;  9.9851746E+02;  1.0034753E-01; -1.2282614E+03;3; -6.3953228E+00;  0.0000000E+00; -2.4428891E-02;0; -3.1961009E-02;  3.9598609E+04;  0.0000000E+00;  3.7431954E-03;  4.0000000E+04;  0.0000000E+00;  4.0005887E+04; -1.3516501E-01;  0.0000000E+00;  1.0320400E-01;  1.1874022E+03;
  5.9236264E-01;  9.9999998E-03;  1.0914015E-09;6075;  3.7496325E-03;  0.0000000E+00;  1.8715138E-08;  9.9851355E+02;  1.0034761E-01; -1.2314712E+03;3; -6.4093304E+00;  0.0000000E+00;  9.4436109E-07;0; -3.1872362E-02;  3.9598371E+04;  0.0000000E+00;  6.7908407E-13;  4.0000000E+04;  0.0000000E+00;  4.0005738E+04; -1.3540377E-01;  0.0000000E+00;  1.0353141E-01;  1.1758394E+03;
  5.9236431E-01;  9.9999998E-03;  9.9986345E-03;6076;  3.7792227E-03;  0.0000000E+00;  1.1095311E-03;  9.9851758E+02;  1.0034746E-01; -1.2281626E+03;3; -6.3953400E+00;  0.0000000E+00;  2.4432385E-02;0; -3.1960905E-02;  3.9598609E+04;  0.0000000E+00;  3.7428897E-03;  4.0000000E+04;  0.0000000E+00;  4.0005891E+04; -1.3516492E-01;  0.0000000E+00;  1.0320401E-01;  1.1873904E+03;
  5.9236807E-01;  9.9999998E-03;  1.9996163E-02;6077;  3.8657347E-03;  0.0000000E+00;  2.2163563E-03;  9.9852631E+02;  1.0034756E-01; -1.2209036E+03;3; -6.3569379E+00;  0.0000000E+00;  5.2365623E-02;0; -3.2225110E-02;  3.9599406E+04;  0.0000000E+00;  1.4871617E-02;  4.0000000E+04;  0.0000000E+00;  4.0006207E+04; -1.3444808E-01;  0.0000000E+00;  1.0222297E-01;  1.2194771E+03;
  5.9237254E-01;  9.9999998E-03;  2.9993355E-02;6078;  4.0031616E-03;  0.0000000E+00;  3.3137097E-03;  9.9854980E+02;  1.0034752E-01; -1.2014473E+03;3; -6.3090463E+00;  0.0000000E+00;  5.2342005E-02;0; -3.2659896E-02;  3.9600504E+04;  0.0000000E+00;  3.3036172E-02;  4.0000000E+04;  0.0000000E+00;  4.0006543E+04; -1.3325265E-01;  0.0000000E+00;  1.0059275E-01;  1.2650826E+03;
  5.9237570E-01;  9.9999998E-03;  3.9990682E-02;6079;  4.1835639E-03;  0.0000000E+00;  4.3980912E-03;  9.9857861E+02;  1.0034766E-01; -1.1775962E+03;3; -6.2328982E+00;  0.0000000E+00;  5.4768123E-02;0; -3.3256866E-02;  3.9602215E+04;  0.0000000E+00;  5.7481077E-02;  4.0000000E+04;  0.0000000E+00;  4.0006938E+04; -1.3157894E-01;  0.0000000E+00;  9.8322071E-02;  1.3147500E+03;
  5.9237486E-01;  9.9999998E-03;  4.9988393E-02;6080;  4.4004228E-03;  0.0000000E+00;  5.4614362E-03;  9.9860785E+02;  1.0034808E-01; -1.1533500E+03;3; -6.1324706E+00;  0.0000000E+00;  7.4427739E-02;0; -3.4000821E-02;  3.9604090E+04;  0.0000000E+00;  8.6842842E-02;  4.0000000E+04;  0.0000000E+00;  4.0007266E+04; -1.2942865E-01;  0.0000000E+00;  9.5427833E-02;  1.3588817E+03;
  5.9236789E-01;  9.9999998E-03;  5.9986867E-02;6081;  4.6442579E-03;  0.0000000E+00;  6.5009971E-03;  9.9864514E+02;  1.0034789E-01; -1.1224866E+03;3; -6.0079360E+00;  0.0000000E+00;  1.2288611E-01;0; -3.4869708E-02;  3.9606648E+04;  0.0000000E+00;  1.1899886E-01;  4.0000000E+04;  0.0000000E+00;  4.0007543E+04; -1.2680657E-01;  0.0000000E+00;  9.1936864E-02;  1.3895898E+03;
  6.0231787E-01;  9.9999998E-03; -9.9982366E-02;6126;  4.5692795E-03;  0.0000000E+00; -1.0441832E-02;  9.9877966E+02;  1.0056186E-01; -1.0110330E+03;3; -5.1944990E+00;  0.0000000E+00; -5.9926349E-01;0; -4.1171722E-02;  3.9450805E+04;  0.0000000E+00;  2.1325970E-01;  4.0000000E+04;  0.0000000E+00;  4.0007238E+04; -1.1526388E-01;  0.0000000E+00;  7.4092157E-02;  1.5468268E+03;
  6.0235053E-01;  9.9999998E-03; -8.9984074E-02;6127;  4.2436300E-03;  0.0000000E+00; -9.5604761E-03;  9.9877100E+02;  1.0056183E-01; -1.0181933E+03;3; -5.3846188E+00;  0.0000000E+00; -4.4985908E-01;0; -4.0222712E-02;  3.9450270E+04;  0.0000000E+00;  2.0853283E-01;  4.0000000E+04;  0.0000000E+00;  4.0007555E+04; -1.1985137E-01;  0.0000000E+00;  7.9628661E-02;  1.5684927E+03;
  6.0237998E-01;  9.9999998E-03; -7.9986624E-02;6128;  3.9226790E-03;  0.0000000E+00; -8.6151436E-03;  9.9876208E+02;  1.0056185E-01; -1.0256005E+03;3; -5.5636177E+00;  0.0000000E+00; -3.0978420E-01;0; -3.9227501E-02;  3.9449969E+04;  0.0000000E+00;  1.9167805E-01;  4.0000000E+04;  0.0000000E+00;  4.0007566E+04; -1.2399869E-01;  0.0000000E+00;  8.4771194E-02;  1.5722941E+03;
  6.0240513E-01;  9.9999998E-03; -6.9989204E-02;6129;  3.6117590E-03;  0.0000000E+00; -7.6142256E-03;  9.9875256E+02;  1.0056146E-01; -1.0335015E+03;3; -5.7279058E+00;  0.0000000E+00; -1.9612266E-01;0; -3.8246565E-02;  3.9449551E+04;  0.0000000E+00;  1.6542469E-01;  4.0000000E+04;  0.0000000E+00;  4.0007516E+04; -1.2768330E-01;  0.0000000E+00;  8.9436732E-02;  1.5520563E+03;
  6.0242534E-01;  9.9999998E-03; -5.9991334E-02;6130;  3.3176378E-03;  0.0000000E+00; -6.5718461E-03;  9.9874078E+02;  1.0056137E-01; -1.0432296E+03;3; -5.8747663E+00;  0.0000000E+00; -1.1345709E-01;0; -3.7330277E-02;  3.9449238E+04;  0.0000000E+00;  1.3336653E-01;  4.0000000E+04;  0.0000000E+00;  4.0007188E+04; -1.3088877E-01;  0.0000000E+00;  9.3558498E-02;  1.5060315E+03;
  6.0244012E-01;  9.9999998E-03; -4.9992736E-02;6131;  3.0483431E-03;  0.0000000E+00; -5.5011366E-03;  9.9873273E+02;  1.0056134E-01; -1.0498961E+03;3; -5.9996762E+00;  0.0000000E+00; -5.9134137E-02;0; -3.6517493E-02;  3.9449293E+04;  0.0000000E+00;  9.9344730E-02;  4.0000000E+04;  0.0000000E+00;  4.0006547E+04; -1.3360472E-01;  0.0000000E+00;  9.7087227E-02;  1.4375946E+03;
  6.0244834E-01;  9.9999998E-03; -3.9993674E-02;6132;  2.8119485E-03;  0.0000000E+00; -4.4149477E-03;  9.9871893E+02;  1.0056116E-01; -1.0613525E+03;3; -6.0993657E+00;  0.0000000E+00; -3.8813002E-02;0; -3.5833135E-02;  3.9449238E+04;  0.0000000E+00;  6.6920668E-02;  4.0000000E+04;  0.0000000E+00;  4.0005922E+04; -1.3582455E-01;  0.0000000E+00;  9.9991411E-02;  1.3554203E+03;
  6.0245049E-01;  9.9999998E-03; -2.9994797E-02;6133;  2.6167810E-03;  0.0000000E+00; -3.3158241E-03;  9.9870660E+02;  1.0056099E-01; -1.0715745E+03;3; -6.1723380E+00;  0.0000000E+00; -4.8965685E-02;0; -3.5293192E-02;  3.9448984E+04;  0.0000000E+00;  3.9011918E-02;  4.0000000E+04;  0.0000000E+00;  4.0005227E+04; -1.3754712E-01;  0.0000000E+00;  1.0225393E-01;  1.2716271E+03;
  6.0244966E-01;  9.9999998E-03; -1.9996330E-02;6134;  2.4680360E-03;  0.0000000E+00; -2.2110629E-03;  9.9869690E+02;  1.0056104E-01; -1.0795742E+03;3; -6.2235198E+00;  0.0000000E+00; -4.5693640E-02;0; -3.4904137E-02;  3.9448762E+04;  0.0000000E+00;  1.7746419E-02;  4.0000000E+04;  0.0000000E+00;  4.0004684E+04; -1.3877313E-01;  0.0000000E+00;  1.0386899E-01;  1.1992716E+03;
  6.0244828E-01;  9.9999998E-03; -9.9981176E-03;6135;  2.3751319E-03;  0.0000000E+00; -1.1050022E-03;  9.9868896E+02;  1.0056102E-01; -1.0861913E+03;3; -6.2628999E+00;  0.0000000E+00; -2.0471085E-02;0; -3.4670368E-02;  3.9448984E+04;  0.0000000E+00;  4.4947388E-03;  4.0000000E+04;  0.0000000E+00;  4.0004355E+04; -1.3950688E-01;  0.0000000E+00;  1.0483651E-01;  1.1502020E+03;
  6.0244781E-01;  9.9999998E-03;  1.1475775E-09;6136;  2.3434982E-03;  0.0000000E+00;  2.0073083E-08;  9.9868860E+02;  1.0056108E-01; -1.0864877E+03;3; -6.2771397E+00;  0.0000000E+00; -4.9805521E-08;0; -3.4592576E-02;  3.9448777E+04;  0.0000000E+00; -4.3864120E-14;  4.0000000E+04;  0.0000000E+00;  4.0004070E+04; -1.3975145E-01;  0.0000000E+00;  1.0515887E-01;  1.1328563E+03;
  6.0244828E-01;  9.9999998E-03;  9.9981194E-03;6137;  2.3751308E-03;  0.0000000E+00;  1.1050431E-03;  9.9868903E+02;  1.0056102E-01; -1.0860925E+03;3; -6.2629161E+00;  0.0000000E+00;  2.0472590E-02;0; -3.4670420E-02;  3.9448984E+04;  0.0000000E+00;  4.4946424E-03;  4.0000000E+04;  0.0000000E+00;  4.0004352E+04; -1.3950698E-01;  0.0000000E+00;  1.0483656E-01;  1.1502051E+03;
  6.0244966E-01;  9.9999998E-03;  1.9996334E-02;6138;  2.4680365E-03;  0.0000000E+00;  2.2111048E-03;  9.9869690E+02;  1.0056099E-01; -1.0795742E+03;3; -6.2234998E+00;  0.0000000E+00;  4.5693967E-02;0; -3.4903958E-02;  3.9448762E+04;  0.0000000E+00;  1.7745972E-02;  4.0000000E+04;  0.0000000E+00;  4.0004680E+04; -1.3877299E-01;  0.0000000E+00;  1.0386904E-01;  1.1992739E+03;
  6.0245049E-01;  9.9999998E-03;  2.9994801E-02;6139;  2.6167780E-03;  0.0000000E+00;  3.3158660E-03;  9.9870654E+02;  1.0056105E-01; -1.0716239E+03;3; -6.1723266E+00;  0.0000000E+00;  4.8963666E-02;0; -3.5292976E-02;  3.9448984E+04;  0.0000000E+00;  3.9010454E-02;  4.0000000E+04;  0.0000000E+00;  4.0005227E+04; -1.3754697E-01;  0.0000000E+00;  1.0225400E-01;  1.2716199E+03;
  6.0244834E-01;  9.9999998E-03;  3.9993677E-02;6140;  2.8119441E-03;  0.0000000E+00;  4.4149887E-03;  9.9871899E+02;  1.0056146E-01; -1.0613031E+03;3; -6.0993876E+00;  0.0000000E+00;  3.8816735E-02;0; -3.5833351E-02;  3.9449242E+04;  0.0000000E+00;  6.6918373E-02;  4.0000000E+04;  0.0000000E+00;  4.0005922E+04; -1.3582471E-01;  0.0000000E+00;  9.9991359E-02;  1.3554075E+03;
  6.0244012E-01;  9.9999998E-03;  4.9992736E-02;6141;  3.0483417E-03;  0.0000000E+00;  5.5011776E-03;  9.9873267E+02;  1.0056129E-01; -1.0499454E+03;3; -5.9996719E+00;  0.0000000E+00;  5.9132621E-02;0; -3.6517546E-02;  3.9449305E+04;  0.0000000E+00;  9.9342674E-02;  4.0000000E+04;  0.0000000E+00;  4.0006551E+04; -1.3360472E-01;  0.0000000E+00;  9.7087175E-02;  1.4376016E+03;
  6.0242534E-01;  9.9999998E-03;  5.9991337E-02;6142;  3.3176325E-03;  0.0000000E+00;  6.5718875E-03;  9.9874084E+02;  1.0056137E-01; -1.0431802E+03;3; -5.8747740E+00;  0.0000000E+00;  1.1346026E-01;0; -3.7330173E-02;  3.9449234E+04;  0.0000000E+00;  1.3336131E-01;  4.0000000E+04;  0.0000000E+00;  4.0007188E+04; -1.3088877E-01;  0.0000000E+00;  9.3558602E-02;  1.5060338E+03;
  6.1230135E-01;  9.9999998E-03; -9.9987075E-02;6187;  3.3704301E-03;  0.0000000E+00; -1.0646490E-02;  9.9865625E+02;  1.0089583E-01; -1.1132523E+03;3; -5.0494103E+00;  0.0000000E+00; -6.4095503E-01;0; -4.3960556E-02;  3.9184031E+04;  0.0000000E+00;  1.6219839E-01;  4.0000000E+04;  0.0000000E+00;  4.0006516E+04; -1.1868965E-01;  0.0000000E+00;  7.4729092E-02;  1.7210265E+03;
  6.1232823E-01;  9.9999998E-03; -8.9991398E-02;6188;  3.0000668E-03;  0.0000000E+00; -9.7341221E-03;  9.9867603E+02;  1.0089567E-01; -1.0969071E+03;3; -5.2397428E+00;  0.0000000E+00; -4.8543617E-01;0; -4.3038644E-02;  3.9185879E+04;  0.0000000E+00;  1.6768518E-01;  4.0000000E+04;  0.0000000E+00;  4.0006688E+04; -1.2350858E-01;  0.0000000E+00;  8.0469936E-02;  1.7490925E+03;
  6.1235160E-01;  9.9999998E-03; -7.9995684E-02;6189;  2.6400851E-03;  0.0000000E+00; -8.7517174E-03;  9.9869647E+02;  1.0089529E-01; -1.0799692E+03;3; -5.4198146E+00;  0.0000000E+00; -3.3682767E-01;0; -4.2076997E-02;  3.9188059E+04;  0.0000000E+00;  1.6118556E-01;  4.0000000E+04;  0.0000000E+00;  4.0006887E+04; -1.2785855E-01;  0.0000000E+00;  8.5781552E-02;  1.7464670E+03;
  6.1237109E-01;  9.9999998E-03; -6.9999352E-02;6190;  2.2962627E-03;  0.0000000E+00; -7.7132480E-03;  9.9871606E+02;  1.0089497E-01; -1.0637229E+03;3; -5.5858788E+00;  0.0000000E+00; -2.1295923E-01;0; -4.1138694E-02;  3.9190336E+04;  0.0000000E+00;  1.4435002E-01;  4.0000000E+04;  0.0000000E+00;  4.0006414E+04; -1.3171607E-01;  0.0000000E+00;  9.0577379E-02;  1.7077494E+03;
  6.1238688E-01;  9.9999998E-03; -6.0001921E-02;6191;  1.9755072E-03;  0.0000000E+00; -6.6371337E-03;  9.9873376E+02;  1.0089485E-01; -1.0490566E+03;3; -5.7336030E+00;  0.0000000E+00; -1.1396395E-01;0; -4.0274829E-02;  3.9192586E+04;  0.0000000E+00;  1.2002021E-01;  4.0000000E+04;  0.0000000E+00;  4.0005762E+04; -1.3506553E-01;  0.0000000E+00;  9.4790697E-02;  1.6337743E+03;
  6.1239934E-01;  9.9999998E-03; -5.0003342E-02;6192;  1.6851891E-03;  0.0000000E+00; -5.5389982E-03;  9.9874689E+02;  1.0089473E-01; -1.0381927E+03;3; -5.8606396E+00;  0.0000000E+00; -5.9539709E-02;0; -3.9520390E-02;  3.9194742E+04;  0.0000000E+00;  9.1718376E-02;  4.0000000E+04;  0.0000000E+00;  4.0004980E+04; -1.3789725E-01;  0.0000000E+00;  9.8376863E-02;  1.5315925E+03;
  6.1240888E-01;  9.9999998E-03; -4.0003553E-02;6193;  1.4332732E-03;  0.0000000E+00; -4.4318317E-03;  9.9875671E+02;  1.0089454E-01; -1.0300448E+03;3; -5.9586225E+00;  0.0000000E+00; -4.0087666E-02;0; -3.8897641E-02;  3.9196668E+04;  0.0000000E+00;  6.3080467E-02;  4.0000000E+04;  0.0000000E+00;  4.0004156E+04; -1.4020868E-01;  0.0000000E+00;  1.0131104E-01;  1.4138665E+03;
  6.1241609E-01;  9.9999998E-03; -3.0002823E-02;6194;  1.2258244E-03;  0.0000000E+00; -3.3176097E-03;  9.9876343E+02;  1.0089444E-01; -1.0244647E+03;3; -6.0213928E+00;  0.0000000E+00; -5.3389903E-02;0; -3.8414821E-02;  3.9198348E+04;  0.0000000E+00;  3.7371434E-02;  4.0000000E+04;  0.0000000E+00;  4.0003098E+04; -1.4199971E-01;  0.0000000E+00;  1.0358489E-01;  1.2968275E+03;
  6.1242086E-01;  9.9999998E-03; -2.0001709E-02;6195;  1.0679562E-03;  0.0000000E+00; -2.2061190E-03;  9.9876764E+02;  1.0089423E-01; -1.0210080E+03;3; -6.0846114E+00;  0.0000000E+00; -3.4235176E-02;0; -3.8073100E-02;  3.9199777E+04;  0.0000000E+00;  1.7197276E-02;  4.0000000E+04;  0.0000000E+00;  4.0002531E+04; -1.4327361E-01;  0.0000000E+00;  1.0520051E-01;  1.1976387E+03;
  6.1242342E-01;  9.9999998E-03; -1.0000732E-02;6196;  9.7030558E-04;  0.0000000E+00; -1.1008318E-03;  9.9877240E+02;  1.0089421E-01; -1.0170575E+03;3; -6.1248212E+00;  0.0000000E+00; -1.5125781E-02;0; -3.7870631E-02;  3.9200578E+04;  0.0000000E+00;  4.3859016E-03;  4.0000000E+04;  0.0000000E+00;  4.0001832E+04; -1.4403552E-01;  0.0000000E+00;  1.0616489E-01;  1.1313108E+03;
  6.1242449E-01;  9.9999998E-03;  1.2232648E-09;6197;  9.3721936E-04;  0.0000000E+00;  2.1769786E-08;  9.9877075E+02;  1.0089427E-01; -1.0183908E+03;3; -6.1388359E+00;  0.0000000E+00; -3.9848049E-07;0; -3.7803560E-02;  3.9200719E+04;  0.0000000E+00; -1.5719465E-12;  4.0000000E+04;  0.0000000E+00;  4.0001754E+04; -1.4428917E-01;  0.0000000E+00;  1.0648561E-01;  1.1080231E+03;
  6.1242342E-01;  9.9999998E-03;  1.0000735E-02;6198;  9.7030547E-04;  0.0000000E+00;  1.1008753E-03;  9.9877240E+02;  1.0089421E-01; -1.0170575E+03;3; -6.1248121E+00;  0.0000000E+00;  1.5125437E-02;0; -3.7870705E-02;  3.9200582E+04;  0.0000000E+00;  4.3858597E-03;  4.0000000E+04;  0.0000000E+00;  4.0001832E+04; -1.4403562E-01;  0.0000000E+00;  1.0616492E-01;  1.1313180E+03;
  6.1242086E-01;  9.9999998E-03;  2.0001713E-02;6199;  1.0679563E-03;  0.0000000E+00;  2.2061628E-03;  9.9876764E+02;  1.0089423E-01; -1.0210080E+03;3; -6.0846286E+00;  0.0000000E+00;  3.4235571E-02;0; -3.8072921E-02;  3.9199781E+04;  0.0000000E+00;  1.7196905E-02;  4.0000000E+04;  0.0000000E+00;  4.0002531E+04; -1.4327331E-01;  0.0000000E+00;  1.0520039E-01;  1.1976281E+03;
  6.1241609E-01;  9.9999998E-03;  3.0002827E-02;6200;  1.2258204E-03;  0.0000000E+00;  3.3176534E-03;  9.9876343E+02;  1.0089444E-01; -1.0244647E+03;3; -6.0214238E+00;  0.0000000E+00;  5.3394843E-02;0; -3.8414858E-02;  3.9198352E+04;  0.0000000E+00;  3.7371077E-02;  4.0000000E+04;  0.0000000E+00;  4.0003098E+04; -1.4199971E-01;  0.0000000E+00;  1.0358485E-01;  1.2968177E+03;
  6.1240888E-01;  9.9999998E-03;  4.0003557E-02;6201;  1.4332694E-03;  0.0000000E+00;  4.4318754E-03;  9.9875671E+02;  1.0089454E-01; -1.0300448E+03;3; -5.9586339E+00;  0.0000000E+00;  4.0089026E-02;0; -3.8897492E-02;  3.9196664E+04;  0.0000000E+00;  6.3079365E-02;  4.0000000E+04;  0.0000000E+00;  4.0004156E+04; -1.4020857E-01;  0.0000000E+00;  1.0131108E-01;  1.4138568E+03;
  6.1239934E-01;  9.9999998E-03;  5.0003342E-02;6202;  1.6851836E-03;  0.0000000E+00;  5.5390410E-03;  9.9874689E+02;  1.0089470E-01; -1.0381927E+03;3; -5.8606501E+00;  0.0000000E+00;  5.9533898E-02;0; -3.9520554E-02;  3.9194742E+04;  0.0000000E+00;  9.1715626E-02;  4.0000000E+04;  0.0000000E+00;  4.0004980E+04; -1.3789736E-01;  0.0000000E+00;  9.8376803E-02;  1.5315796E+03;
  6.1238688E-01;  9.9999998E-03;  6.0001921E-02;6203;  1.9755028E-03;  0.0000000E+00;  6.6371746E-03;  9.9873383E+02;  1.0089481E-01; -1.0490072E+03;3; -5.7335887E+00;  0.0000000E+00;  1.1395680E-01;0; -4.0274538E-02;  3.9192586E+04;  0.0000000E+00;  1.2001494E-01;  4.0000000E+04;  0.0000000E+00;  4.0005758E+04; -1.3506539E-01;  0.0000000E+00;  9.4790854E-02;  1.6337631E+03;
  6.2222582E-01;  9.9999998E-03; -9.9994197E-02;6248;  2.1423867E-03;  0.0000000E+00; -1.0806672E-02;  9.9850348E+02;  1.0140263E-01; -1.2398165E+03;3; -4.8975735E+00;  0.0000000E+00; -6.8422824E-01;0; -4.7221154E-02;  3.8785699E+04;  0.0000000E+00;  6.0154561E-02;  4.0000000E+04;  0.0000000E+00;  4.0004414E+04; -1.2212943E-01;  0.0000000E+00;  7.4908279E-02;  1.8778285E+03;
  6.2224489E-01;  9.9999998E-03; -8.9999981E-02;6249;  1.7268294E-03;  0.0000000E+00; -9.8751364E-03;  9.9855035E+02;  1.0140219E-01; -1.2010028E+03;3; -5.0882463E+00;  0.0000000E+00; -5.2922714E-01;0; -4.6354175E-02;  3.8789723E+04;  0.0000000E+00;  7.8568332E-02;  4.0000000E+04;  0.0000000E+00;  4.0004680E+04; -1.2721007E-01;  0.0000000E+00;  8.0855891E-02;  1.9138397E+03;
  6.2226176E-01;  9.9999998E-03; -8.0005057E-02;6250;  1.3293650E-03;  0.0000000E+00; -8.8664349E-03;  9.9859717E+02;  1.0140149E-01; -1.1622385E+03;3; -5.2684097E+00;  0.0000000E+00; -3.7104309E-01;0; -4.5449369E-02;  3.8794031E+04;  0.0000000E+00;  8.7368041E-02;  4.0000000E+04;  0.0000000E+00;  4.0004676E+04; -1.3179669E-01;  0.0000000E+00;  8.6347319E-02;  1.9080844E+03;
  6.2227583E-01;  9.9999998E-03; -7.0009008E-02;6251;  9.5457089E-04;  0.0000000E+00; -7.7993497E-03;  9.9864307E+02;  1.0140128E-01; -1.1242148E+03;3; -5.4358521E+00;  0.0000000E+00; -2.4337043E-01;0; -4.4571765E-02;  3.8798648E+04;  0.0000000E+00;  8.6578749E-02;  4.0000000E+04;  0.0000000E+00;  4.0004328E+04; -1.3586272E-01;  0.0000000E+00;  9.1290958E-02;  1.8554774E+03;
  6.2228686E-01;  9.9999998E-03; -6.0011439E-02;6252;  6.0947315E-04;  0.0000000E+00; -6.6975690E-03;  9.9868848E+02;  1.0140084E-01; -1.0865863E+03;3; -5.5840654E+00;  0.0000000E+00; -1.3799667E-01;0; -4.3771558E-02;  3.8803453E+04;  0.0000000E+00;  7.7563182E-02;  4.0000000E+04;  0.0000000E+00;  4.0003469E+04; -1.3939087E-01;  0.0000000E+00;  9.5619313E-02;  1.7587122E+03;
  6.2229514E-01;  9.9999998E-03; -5.0012134E-02;6253;  3.0155477E-04;  0.0000000E+00; -5.5764657E-03;  9.9872681E+02;  1.0140058E-01; -1.0548341E+03;3; -5.7081885E+00;  0.0000000E+00; -7.5603314E-02;0; -4.3082893E-02;  3.8807910E+04;  0.0000000E+00;  6.2706158E-02;  4.0000000E+04;  0.0000000E+00;  4.0002512E+04; -1.4237188E-01;  0.0000000E+00;  9.9288985E-02;  1.6279548E+03;
  6.2230098E-01;  9.9999998E-03; -4.0011466E-02;6254;  3.6912621E-05;  0.0000000E+00; -4.4498676E-03;  9.9875830E+02;  1.0140052E-01; -1.0287114E+03;3; -5.7987366E+00;  0.0000000E+00; -6.2279746E-02;0; -4.2523377E-02;  3.8812016E+04;  0.0000000E+00;  4.4995032E-02;  4.0000000E+04;  0.0000000E+00;  4.0001371E+04; -1.4480262E-01;  0.0000000E+00;  1.0227924E-01;  1.4795265E+03;
  6.2230456E-01;  9.9999998E-03; -3.0009747E-02;6255; -1.8032352E-04;  0.0000000E+00; -3.3208122E-03;  9.9878217E+02;  1.0140011E-01; -1.0089589E+03;3; -5.8744984E+00;  0.0000000E+00; -4.1719027E-02;0; -4.2096257E-02;  3.8815496E+04;  0.0000000E+00;  2.7499998E-02;  4.0000000E+04;  0.0000000E+00;  4.0000301E+04; -1.4668389E-01;  0.0000000E+00;  1.0458763E-01;  1.3334554E+03;
  6.2230653E-01;  9.9999998E-03; -2.0007126E-02;6256; -3.4267193E-04;  0.0000000E+00; -2.2042587E-03;  9.9879755E+02;  1.0139981E-01; -9.9621851E+02;3; -5.9405694E+00;  0.0000000E+00; -2.1654990E-02;0; -4.1799121E-02;  3.8818008E+04;  0.0000000E+00;  1.2927827E-02;  4.0000000E+04;  0.0000000E+00;  3.9999191E+04; -1.4802131E-01;  0.0000000E+00;  1.0622219E-01;  1.2103044E+03;
  6.2230724E-01;  9.9999998E-03; -1.0003715E-02;6257; -4.4248230E-04;  0.0000000E+00; -1.0983815E-03;  9.9881061E+02;  1.0140011E-01; -9.8540399E+02;3; -5.9804573E+00;  0.0000000E+00; -9.0826834E-03;0; -4.1625053E-02;  3.8819465E+04;  0.0000000E+00;  3.3383034E-03;  4.0000000E+04;  0.0000000E+00;  3.9998602E+04; -1.4882065E-01;  0.0000000E+00;  1.0719560E-01;  1.1281792E+03;
  6.2230736E-01;  9.9999998E-03;  1.2858881E-09;6258; -4.7622729E-04;  0.0000000E+00;  2.3466335E-08;  9.9881451E+02;  1.0139997E-01; -9.8214484E+02;3; -5.9937458E+00;  0.0000000E+00; -4.6792047E-07;0; -4.1567773E-02;  3.8820168E+04;  0.0000000E+00; -5.7953568E-12;  4.0000000E+04;  0.0000000E+00;  3.9998387E+04; -1.4908659E-01;  0.0000000E+00;  1.0751882E-01;  1.0993025E+03;
  6.2230724E-01;  9.9999998E-03;  1.0003718E-02;6259; -4.4248445E-04;  0.0000000E+00;  1.0984279E-03;  9.9881061E+02;  1.0140011E-01; -9.8540399E+02;3; -5.9804621E+00;  0.0000000E+00;  9.0794470E-03;0; -4.1625135E-02;  3.8819453E+04;  0.0000000E+00;  3.3388070E-03;  4.0000000E+04;  0.0000000E+00;  3.9998602E+04; -1.4882077E-01;  0.0000000E+00;  1.0719564E-01;  1.1281693E+03;
  6.2230653E-01;  9.9999998E-03;  2.0007128E-02;6260; -3.4267420E-04;  0.0000000E+00;  2.2043050E-03;  9.9879755E+02;  1.0139981E-01; -9.9621851E+02;3; -5.9405427E+00;  0.0000000E+00;  2.1653134E-02;0; -4.1799009E-02;  3.8818012E+04;  0.0000000E+00;  1.2928553E-02;  4.0000000E+04;  0.0000000E+00;  3.9999191E+04; -1.4802125E-01;  0.0000000E+00;  1.0622224E-01;  1.2102999E+03;
  6.2230456E-01;  9.9999998E-03;  3.0009748E-02;6261; -1.8032562E-04;  0.0000000E+00;  3.3208576E-03;  9.9878204E+02;  1.0140017E-01; -1.0090577E+03;3; -5.8745174E+00;  0.0000000E+00;  4.1718885E-02;0; -4.2096339E-02;  3.8815492E+04;  0.0000000E+00;  2.7500212E-02;  4.0000000E+04;  0.0000000E+00;  4.0000301E+04; -1.4668405E-01;  0.0000000E+00;  1.0458771E-01;  1.3334589E+03;
  6.2230098E-01;  9.9999998E-03;  4.0011469E-02;6262;  3.6911493E-05;  0.0000000E+00;  4.4499128E-03;  9.9875824E+02;  1.0140052E-01; -1.0287607E+03;3; -5.7987256E+00;  0.0000000E+00;  6.2277477E-02;0; -4.2523265E-02;  3.8812012E+04;  0.0000000E+00;  4.4994202E-02;  4.0000000E+04;  0.0000000E+00;  4.0001371E+04; -1.4480257E-01;  0.0000000E+00;  1.0227931E-01;  1.4795311E+03;
  6.2229520E-01;  9.9999998E-03;  5.0012138E-02;6263;  3.0155040E-04;  0.0000000E+00;  5.5765118E-03;  9.9872681E+02;  1.0140058E-01; -1.0548341E+03;3; -5.7081857E+00;  0.0000000E+00;  7.5613052E-02;0; -4.3082938E-02;  3.8807910E+04;  0.0000000E+00;  6.2704153E-02;  4.0000000E+04;  0.0000000E+00;  4.0002512E+04; -1.4237194E-01;  0.0000000E+00;  9.9289000E-02;  1.6279659E+03;
  6.2228686E-01;  9.9999998E-03;  6.0011443E-02;6264;  6.0946983E-04;  0.0000000E+00;  6.6976156E-03;  9.9868842E+02;  1.0140084E-01; -1.0866357E+03;3; -5.5840740E+00;  0.0000000E+00;  1.3799919E-01;0; -4.3771721E-02;  3.8803453E+04;  0.0000000E+00;  7.7560954E-02;  4.0000000E+04;  0.0000000E+00;  4.0003473E+04; -1.3939112E-01;  0.0000000E+00;  9.5619403E-02;  1.7587114E+03;
  6.3217098E-01;  9.9999998E-03; -9.9996880E-02;6309;  8.7055471E-04;  0.0000000E+00; -1.0914455E-02;  9.9846973E+02;  1.0214076E-01; -1.2678157E+03;3; -4.7381225E+00;  0.0000000E+00; -7.2757345E-01;0; -5.0996393E-02;  3.8228766E+04;  0.0000000E+00; -7.9095297E-02;  4.0000000E+04;  0.0000000E+00;  4.0000641E+04; -1.2560914E-01;  0.0000000E+00;  7.4612752E-02;  2.0138640E+03;
  6.3220245E-01;  9.9999998E-03; -9.0000801E-02;6310;  4.0612352E-04;  0.0000000E+00; -9.9738203E-03;  9.9853363E+02;  1.0213955E-01; -1.2148789E+03;3; -4.9287515E+00;  0.0000000E+00; -5.7154465E-01;0; -5.0229222E-02;  3.8234422E+04;  0.0000000E+00; -4.6724413E-02;  4.0000000E+04;  0.0000000E+00;  4.0000871E+04; -1.3099757E-01;  0.0000000E+00;  8.0768347E-02;  2.0554055E+03;
  6.3223141E-01;  9.9999998E-03; -8.0004372E-02;6311; -3.2729051E-05;  0.0000000E+00; -8.9534372E-03;  9.9860577E+02;  1.0213891E-01; -1.1550781E+03;3; -5.1112909E+00;  0.0000000E+00; -4.1002601E-01;0; -4.9418435E-02;  3.8241098E+04;  0.0000000E+00; -1.9898538E-02;  4.0000000E+04;  0.0000000E+00;  4.0000910E+04; -1.3586883E-01;  0.0000000E+00;  8.6450398E-02;  2.0468334E+03;
  6.3225579E-01;  9.9999998E-03; -7.0007235E-02;6312; -4.3947468E-04;  0.0000000E+00; -7.8679323E-03;  9.9867670E+02;  1.0213833E-01; -1.0963145E+03;3; -5.2788291E+00;  0.0000000E+00; -2.7106890E-01;0; -4.8631020E-02;  3.8247891E+04;  0.0000000E+00; -4.6073747E-04;  4.0000000E+04;  0.0000000E+00;  4.0000426E+04; -1.4019263E-01;  0.0000000E+00;  9.1561608E-02;  1.9828633E+03;
  6.3227493E-01;  9.9999998E-03; -6.0009081E-02;6313; -8.0926431E-04;  0.0000000E+00; -6.7494856E-03;  9.9874249E+02;  1.0213739E-01; -1.0417975E+03;3; -5.4281578E+00;  0.0000000E+00; -1.6169077E-01;0; -4.7917008E-02;  3.8254523E+04;  0.0000000E+00;  1.1101119E-02;  4.0000000E+04;  0.0000000E+00;  3.9999586E+04; -1.4394772E-01;  0.0000000E+00;  9.6030712E-02;  1.8672201E+03;
  6.3228905E-01;  9.9999998E-03; -5.0009761E-02;6314; -1.1346469E-03;  0.0000000E+00; -5.6138025E-03;  9.9880383E+02;  1.0213724E-01; -9.9098407E+02;3; -5.5480499E+00;  0.0000000E+00; -1.0115622E-01;0; -4.7308154E-02;  3.8261156E+04;  0.0000000E+00;  1.5519826E-02;  4.0000000E+04;  0.0000000E+00;  3.9998270E+04; -1.4712209E-01;  0.0000000E+00;  9.9813931E-02;  1.7124998E+03;
  6.3229859E-01;  9.9999998E-03; -4.0009324E-02;6315; -1.4114806E-03;  0.0000000E+00; -4.4703851E-03;  9.9885699E+02;  1.0213652E-01; -9.4693597E+02;3; -5.6356874E+00;  0.0000000E+00; -6.6519737E-02;0; -4.6820156E-02;  3.8267164E+04;  0.0000000E+00;  1.4506631E-02;  4.0000000E+04;  0.0000000E+00;  3.9997066E+04; -1.4971152E-01;  0.0000000E+00;  1.0289136E-01;  1.5380293E+03;
  6.3230467E-01;  9.9999998E-03; -3.0008018E-02;6316; -1.6358633E-03;  0.0000000E+00; -3.3319630E-03;  9.9890118E+02;  1.0213626E-01; -9.1034442E+02;3; -5.7206063E+00;  0.0000000E+00; -3.1403899E-02;0; -4.6454728E-02;  3.8272094E+04;  0.0000000E+00;  1.0327852E-02;  4.0000000E+04;  0.0000000E+00;  3.9995590E+04; -1.5171722E-01;  0.0000000E+00;  1.0526249E-01;  1.3669924E+03;
  6.3230807E-01;  9.9999998E-03; -2.0006139E-02;6317; -1.8012964E-03;  0.0000000E+00; -2.2091391E-03;  9.9893268E+02;  1.0213589E-01; -8.8427106E+02;3; -5.7859020E+00;  0.0000000E+00; -1.2386191E-02;0; -4.6204463E-02;  3.8275941E+04;  0.0000000E+00;  5.3169113E-03;  4.0000000E+04;  0.0000000E+00;  3.9994613E+04; -1.5314345E-01;  0.0000000E+00;  1.0693899E-01;  1.2230385E+03;
  6.3230932E-01;  9.9999998E-03; -1.0003633E-02;6318; -1.9024258E-03;  0.0000000E+00; -1.1000443E-03;  9.9895435E+02;  1.0213576E-01; -8.6629626E+02;3; -5.8255811E+00;  0.0000000E+00; -3.7811212E-03;0; -4.6060130E-02;  3.8278277E+04;  0.0000000E+00;  1.4421617E-03;  4.0000000E+04;  0.0000000E+00;  3.9993746E+04; -1.5399624E-01;  0.0000000E+00;  1.0793611E-01;  1.1269287E+03;
  6.3230938E-01;  9.9999998E-03;  1.3288987E-09;6319; -1.9364512E-03;  0.0000000E+00;  2.4974499E-08;  9.9895715E+02;  1.0213578E-01; -8.6397534E+02;3; -5.8379717E+00;  0.0000000E+00; -7.8271114E-08;0; -4.6012782E-02;  3.8279172E+04;  0.0000000E+00; -1.1873448E-11;  4.0000000E+04;  0.0000000E+00;  3.9993555E+04; -1.5427969E-01;  0.0000000E+00;  1.0826691E-01;  1.0931837E+03;
  6.3230932E-01;  9.9999998E-03;  1.0003636E-02;6320; -1.9024262E-03;  0.0000000E+00;  1.1000938E-03;  9.9895428E+02;  1.0213573E-01; -8.6634564E+02;3; -5.8255730E+00;  0.0000000E+00;  3.7798965E-03;0; -4.6060249E-02;  3.8278273E+04;  0.0000000E+00;  1.4429276E-03;  4.0000000E+04;  0.0000000E+00;  3.9993742E+04; -1.5399632E-01;  0.0000000E+00;  1.0793607E-01;  1.1269258E+03;
  6.3230807E-01;  9.9999998E-03;  2.0006143E-02;6321; -1.8012968E-03;  0.0000000E+00;  2.2091873E-03;  9.9893268E+02;  1.0213578E-01; -8.8427106E+02;3; -5.7858605E+00;  0.0000000E+00;  1.2385872E-02;0; -4.6204649E-02;  3.8275938E+04;  0.0000000E+00;  5.3182649E-03;  4.0000000E+04;  0.0000000E+00;  3.9994617E+04; -1.5314354E-01;  0.0000000E+00;  1.0693889E-01;  1.2230337E+03;
  6.3230467E-01;  9.9999998E-03;  3.0008022E-02;6322; -1.6358637E-03;  0.0000000E+00;  3.3320109E-03;  9.9890118E+02;  1.0213626E-01; -9.1034442E+02;3; -5.7206097E+00;  0.0000000E+00;  3.1404089E-02;0; -4.6454616E-02;  3.8272094E+04;  0.0000000E+00;  1.0329252E-02;  4.0000000E+04;  0.0000000E+00;  3.9995590E+04; -1.5171716E-01;  0.0000000E+00;  1.0526254E-01;  1.3669924E+03;
  6.3229859E-01;  9.9999998E-03;  4.0009327E-02;6323; -1.4114853E-03;  0.0000000E+00;  4.4704322E-03;  9.9885699E+02;  1.0213652E-01; -9.4693597E+02;3; -5.6356959E+00;  0.0000000E+00;  6.6508852E-02;0; -4.6820335E-02;  3.8267168E+04;  0.0000000E+00;  1.4508637E-02;  4.0000000E+04;  0.0000000E+00;  3.9997066E+04; -1.4971165E-01;  0.0000000E+00;  1.0289132E-01;  1.5380210E+03;
  6.3228905E-01;  9.9999998E-03;  5.0009761E-02;6324; -1.1346515E-03;  0.0000000E+00;  5.6138514E-03;  9.9880383E+02;  1.0213724E-01; -9.9098407E+02;3; -5.5480747E+00;  0.0000000E+00;  1.0116291E-01;0; -4.7308460E-02;  3.8261156E+04;  0.0000000E+00;  1.5517756E-02;  4.0000000E+04;  0.0000000E+00;  3.9998270E+04; -1.4712243E-01;  0.0000000E+00;  9.9813968E-02;  1.7125027E+03;
  6.3227493E-01;  9.9999998E-03;  6.0009085E-02;6325; -8.0926804E-04;  0.0000000E+00;  6.7495345E-03;  9.9874243E+02;  1.0213742E-01; -1.0418468E+03;3; -5.4281702E+00;  0.0000000E+00;  1.6169924E-01;0; -4.7916852E-02;  3.8254523E+04;  0.0000000E+00;  1.1096443E-02;  4.0000000E+04;  0.0000000E+00;  3.9999586E+04; -1.4394768E-01;  0.0000000E+00;  9.6030824E-02;  1.8672240E+03;
  6.4222151E-01;  9.9999998E-03; -9.9976845E-02;6370; -4.5911432E-04;  0.0000000E+00; -1.0963151E-02;  9.9865753E+02;  1.0316058E-01; -1.1122152E+03;3; -4.5748100E+00;  0.0000000E+00; -7.4995637E-01;0; -5.5316083E-02;  3.7492746E+04;  0.0000000E+00; -2.3124008E-01;  4.0000000E+04;  0.0000000E+00;  3.9994613E+04; -1.2914331E-01;  0.0000000E+00;  7.3827229E-02;  2.1247090E+03;
  6.4224184E-01;  9.9999998E-03; -8.9982837E-02;6371; -9.7323529E-04;  0.0000000E+00; -1.0026561E-02;  9.9872534E+02;  1.0315883E-01; -1.0560193E+03;3; -4.7676163E+00;  0.0000000E+00; -6.0133785E-01;0; -5.4682173E-02;  3.7499141E+04;  0.0000000E+00; -1.8599015E-01;  4.0000000E+04;  0.0000000E+00;  3.9995059E+04; -1.3486692E-01;  0.0000000E+00;  8.0184750E-02;  2.1671431E+03;
  6.4225984E-01;  9.9999998E-03; -7.9988822E-02;6372; -1.4517929E-03;  0.0000000E+00; -9.0074847E-03;  9.9880261E+02;  1.0315756E-01; -9.9202112E+02;3; -4.9444427E+00;  0.0000000E+00; -4.4373125E-01;0; -5.3991601E-02;  3.7506289E+04;  0.0000000E+00; -1.4127487E-01;  4.0000000E+04;  0.0000000E+00;  3.9995086E+04; -1.4005308E-01;  0.0000000E+00;  8.6061478E-02;  2.1545139E+03;
  6.4227587E-01;  9.9999998E-03; -6.9994263E-02;6373; -1.8898848E-03;  0.0000000E+00; -7.9210680E-03;  9.9888013E+02;  1.0315657E-01; -9.2777600E+02;3; -5.1128874E+00;  0.0000000E+00; -3.0076694E-01;0; -5.3312935E-02;  3.7513945E+04;  0.0000000E+00; -1.0079692E-01;  4.0000000E+04;  0.0000000E+00;  3.9994598E+04; -1.4466672E-01;  0.0000000E+00;  9.1353782E-02;  2.0808921E+03;
  6.4229000E-01;  9.9999998E-03; -5.9998672E-02;6374; -2.2816921E-03;  0.0000000E+00; -6.7949709E-03;  9.9895697E+02;  1.0315521E-01; -8.6412354E+02;3; -5.2608480E+00;  0.0000000E+00; -1.8059795E-01;0; -5.2698016E-02;  3.7522078E+04;  0.0000000E+00; -6.7028992E-02;  4.0000000E+04;  0.0000000E+00;  3.9993645E+04; -1.4868373E-01;  0.0000000E+00;  9.5985711E-02;  1.9503689E+03;
  6.4230251E-01;  9.9999998E-03; -5.0001897E-02;6375; -2.6232484E-03;  0.0000000E+00; -5.6500854E-03;  9.9903461E+02;  1.0315417E-01; -7.9982904E+02;3; -5.3759665E+00;  0.0000000E+00; -1.2520885E-01;0; -5.2177943E-02;  3.7529906E+04;  0.0000000E+00; -4.1072577E-02;  4.0000000E+04;  0.0000000E+00;  3.9992309E+04; -1.5208778E-01;  0.0000000E+00;  9.9909835E-02;  1.7769839E+03;
  6.4231300E-01;  9.9999998E-03; -4.0004123E-02;6376; -2.9117891E-03;  0.0000000E+00; -4.4993390E-03;  9.9909875E+02;  1.0315340E-01; -7.4664539E+02;3; -5.4761758E+00;  0.0000000E+00; -6.5337189E-02;0; -5.1766813E-02;  3.7537094E+04;  0.0000000E+00; -2.2773100E-02;  4.0000000E+04;  0.0000000E+00;  3.9990773E+04; -1.5487105E-01;  0.0000000E+00;  1.0310423E-01;  1.5821748E+03;
  6.4232153E-01;  9.9999998E-03; -3.0005271E-02;6377; -3.1415555E-03;  0.0000000E+00; -3.3522588E-03;  9.9915485E+02;  1.0315263E-01; -7.0017755E+02;3; -5.5606022E+00;  0.0000000E+00; -2.7300732E-02;0; -5.1464602E-02;  3.7543348E+04;  0.0000000E+00; -1.1032513E-02;  4.0000000E+04;  0.0000000E+00;  3.9989301E+04; -1.5703152E-01;  0.0000000E+00;  1.0556692E-01;  1.3915624E+03;
  6.4232808E-01;  9.9999998E-03; -2.0005617E-02;6378; -3.3095290E-03;  0.0000000E+00; -2.2222719E-03;  9.9919409E+02;  1.0315228E-01; -6.6768469E+02;3; -5.6225653E+00;  0.0000000E+00; -5.4427008E-03;0; -5.1262468E-02;  3.7548082E+04;  0.0000000E+00; -4.2815176E-03;  4.0000000E+04;  0.0000000E+00;  3.9988145E+04; -1.5857133E-01;  0.0000000E+00;  1.0730886E-01;  1.2312706E+03;
  6.4233214E-01;  9.9999998E-03; -1.0004198E-02;6379; -3.4118742E-03;  0.0000000E+00; -1.1067555E-03;  9.9921851E+02;  1.0315170E-01; -6.4743835E+02;3; -5.6617413E+00;  0.0000000E+00; -1.2572138E-03;0; -5.1147707E-02;  3.7551113E+04;  0.0000000E+00; -9.7218080E-04;  4.0000000E+04;  0.0000000E+00;  3.9987316E+04; -1.5949327E-01;  0.0000000E+00;  1.0834556E-01;  1.1242850E+03;
  6.4233357E-01;  9.9999998E-03;  1.4435723E-09;6380; -3.4461312E-03;  0.0000000E+00;  2.6487275E-08;  9.9922784E+02;  1.0315151E-01; -6.3973486E+02;3; -5.6723351E+00;  0.0000000E+00; -1.8099890E-06;0; -5.1110469E-02;  3.7552023E+04;  0.0000000E+00; -1.9542560E-11;  4.0000000E+04;  0.0000000E+00;  3.9986820E+04; -1.5980016E-01;  0.0000000E+00;  1.0868969E-01;  1.0866722E+03;
  6.4233214E-01;  9.9999998E-03;  1.0004201E-02;6381; -3.4118746E-03;  0.0000000E+00;  1.1068078E-03;  9.9921851E+02;  1.0315170E-01; -6.4743835E+02;3; -5.6617699E+00;  0.0000000E+00;  1.2554484E-03;0; -5.1147662E-02;  3.7551113E+04;  0.0000000E+00; -9.7078917E-04;  4.0000000E+04;  0.0000000E+00;  3.9987316E+04; -1.5949327E-01;  0.0000000E+00;  1.0834561E-01;  1.1242738E+03;
  6.4232808E-01;  9.9999998E-03;  2.0005621E-02;6382; -3.3095269E-03;  0.0000000E+00;  2.2223233E-03;  9.9919415E+02;  1.0315228E-01; -6.6763531E+02;3; -5.6225443E+00;  0.0000000E+00;  5.4402631E-03;0; -5.1262259E-02;  3.7548082E+04;  0.0000000E+00; -4.2795571E-03;  4.0000000E+04;  0.0000000E+00;  3.9988145E+04; -1.5857123E-01;  0.0000000E+00;  1.0730897E-01;  1.2312731E+03;
  6.4232153E-01;  9.9999998E-03;  3.0005272E-02;6383; -3.1415576E-03;  0.0000000E+00;  3.3523077E-03;  9.9915485E+02;  1.0315263E-01; -7.0017755E+02;3; -5.5606160E+00;  0.0000000E+00;  2.7291056E-02;0; -5.1464550E-02;  3.7543348E+04;  0.0000000E+00; -1.1029980E-02;  4.0000000E+04;  0.0000000E+00;  3.9989305E+04; -1.5703158E-01;  0.0000000E+00;  1.0556703E-01;  1.3915670E+03;
  6.4231300E-01;  9.9999998E-03;  4.0004127E-02;6384; -2.9117917E-03;  0.0000000E+00;  4.4993884E-03;  9.9909888E+02;  1.0315338E-01; -7.4654663E+02;3; -5.4761729E+00;  0.0000000E+00;  6.5340817E-02;0; -5.1766865E-02;  3.7537082E+04;  0.0000000E+00; -2.2771388E-02;  4.0000000E+04;  0.0000000E+00;  3.9990773E+04; -1.5487118E-01;  0.0000000E+00;  1.0310432E-01;  1.5821830E+03;
  6.4230251E-01;  9.9999998E-03;  5.0001901E-02;6385; -2.6232528E-03;  0.0000000E+00;  5.6501324E-03;  9.9903461E+02;  1.0315417E-01; -7.9982904E+02;3; -5.3759851E+00;  0.0000000E+00;  1.2520994E-01;0; -5.2177943E-02;  3.7529906E+04;  0.0000000E+00; -4.1071143E-02;  4.0000000E+04;  0.0000000E+00;  3.9992309E+04; -1.5208779E-01;  0.0000000E+00;  9.9909849E-02;  1.7769978E+03;
  6.4229000E-01;  9.9999998E-03;  5.9998676E-02;6386; -2.2816996E-03;  0.0000000E+00;  6.7950222E-03;  9.9895697E+02;  1.0315521E-01; -8.6412354E+02;3; -5.2608624E+00;  0.0000000E+00;  1.8059114E-01;0; -5.2697860E-02;  3.7522082E+04;  0.0000000E+00; -6.7027837E-02;  4.0000000E+04;  0.0000000E+00;  3.9993645E+04; -1.4868374E-01;  0.0000000E+00;  9.5985882E-02;  1.9503762E+03;
  6.5229172E-01;  9.9999998E-03;  1.5735262E-09;6441; -5.0128815E-03;  0.0000000E+00;  2.8055323E-08;  9.9951453E+02;  1.0447160E-01; -4.0221069E+02;3; -5.4994917E+00;  0.0000000E+00; -2.7981368E-06;0; -5.6775309E-02;  3.6629574E+04;  0.0000000E+00; -3.1146013E-11;  4.0000000E+04;  0.0000000E+00;  3.9978402E+04; -1.6551711E-01;  0.0000000E+00;  1.0874180E-01;  1.0782875E+03;
  6.5228987E-01;  9.9999998E-03; -1.0002306E-02;6440; -4.9782232E-03;  0.0000000E+00; -1.1183100E-03;  9.9950659E+02;  1.0447188E-01; -4.0877841E+02;3; -5.4923344E+00;  0.0000000E+00; -5.0403806E-03;0; -5.6803055E-02;  3.6628367E+04;  0.0000000E+00; -3.3303415E-03;  4.0000000E+04;  0.0000000E+00;  3.9978758E+04; -1.6518269E-01;  0.0000000E+00;  1.0837964E-01;  1.1183424E+03;
  6.5228987E-01;  9.9999998E-03;  1.0002309E-02;6442; -4.9782218E-03;  0.0000000E+00;  1.1183658E-03;  9.9950659E+02;  1.0447188E-01; -4.0877841E+02;3; -5.4923158E+00;  0.0000000E+00;  5.0361138E-03;0; -5.6803107E-02;  3.6628367E+04;  0.0000000E+00; -3.3284100E-03;  4.0000000E+04;  0.0000000E+00;  3.9978758E+04; -1.6518281E-01;  0.0000000E+00;  1.0837971E-01;  1.1183470E+03;
  6.5228409E-01;  9.9999998E-03; -2.0003030E-02;6439; -4.8742597E-03;  0.0000000E+00; -2.2430590E-03;  9.9947650E+02;  1.0447238E-01; -4.3371597E+02;3; -5.4528832E+00;  0.0000000E+00; -6.3646946E-04;0; -5.6889586E-02;  3.6625270E+04;  0.0000000E+00; -1.3619773E-02;  4.0000000E+04;  0.0000000E+00;  3.9979645E+04; -1.6417927E-01;  0.0000000E+00;  1.0728968E-01;  1.2323772E+03;
  6.5228409E-01;  9.9999998E-03;  2.0003034E-02;6443; -4.8742625E-03;  0.0000000E+00;  2.2431135E-03;  9.9947650E+02;  1.0447238E-01; -4.3371597E+02;3; -5.4528956E+00;  0.0000000E+00;  6.3500711E-04;0; -5.6889541E-02;  3.6625270E+04;  0.0000000E+00; -1.3616457E-02;  4.0000000E+04;  0.0000000E+00;  3.9979648E+04; -1.6417919E-01;  0.0000000E+00;  1.0728965E-01;  1.2323842E+03;
  6.5227485E-01;  9.9999998E-03; -3.0001832E-02;6438; -4.7034654E-03;  0.0000000E+00; -3.3837187E-03;  9.9943152E+02;  1.0447284E-01; -4.7099884E+02;3; -5.3931189E+00;  0.0000000E+00; -2.8156303E-02;0; -5.7045214E-02;  3.6620012E+04;  0.0000000E+00; -3.1655718E-02;  4.0000000E+04;  0.0000000E+00;  3.9980867E+04; -1.6250601E-01;  0.0000000E+00;  1.0546080E-01;  1.4033878E+03;
  6.5227485E-01;  9.9999998E-03;  3.0001834E-02;6444; -4.7034682E-03;  0.0000000E+00;  3.3837708E-03;  9.9943152E+02;  1.0447284E-01; -4.7099884E+02;3; -5.3930840E+00;  0.0000000E+00;  2.8158059E-02;0; -5.7045281E-02;  3.6620012E+04;  0.0000000E+00; -3.1651352E-02;  4.0000000E+04;  0.0000000E+00;  3.9980859E+04; -1.6250612E-01;  0.0000000E+00;  1.0546084E-01;  1.4033999E+03;
  6.5226245E-01;  9.9999998E-03; -3.9999753E-02;6437; -4.4662762E-03;  0.0000000E+00; -4.5349472E-03;  9.9937622E+02;  1.0447374E-01; -5.1677533E+02;3; -5.3139253E+00;  0.0000000E+00; -7.6760300E-02;0; -5.7281934E-02;  3.6613391E+04;  0.0000000E+00; -5.8402833E-02;  4.0000000E+04;  0.0000000E+00;  3.9982402E+04; -1.6016263E-01;  0.0000000E+00;  1.0288069E-01;  1.6068296E+03;
  6.5226245E-01;  9.9999998E-03;  3.9999757E-02;6445; -4.4662785E-03;  0.0000000E+00;  4.5349970E-03;  9.9937622E+02;  1.0447374E-01; -5.1677533E+02;3; -5.3139014E+00;  0.0000000E+00;  7.6759733E-02;0; -5.7281762E-02;  3.6613395E+04;  0.0000000E+00; -5.8400068E-02;  4.0000000E+04;  0.0000000E+00;  3.9982402E+04; -1.6016248E-01;  0.0000000E+00;  1.0288072E-01;  1.6068242E+03;
  6.5224767E-01;  9.9999998E-03; -4.9997129E-02;6436; -4.1648517E-03;  0.0000000E+00; -5.6888396E-03;  9.9930518E+02;  1.0447542E-01; -5.7563782E+02;3; -5.2122669E+00;  0.0000000E+00; -1.2849349E-01;0; -5.7608970E-02;  3.6605621E+04;  0.0000000E+00; -9.4541535E-02;  4.0000000E+04;  0.0000000E+00;  3.9984059E+04; -1.5715122E-01;  0.0000000E+00;  9.9542253E-02;  1.8148617E+03;
  6.5224767E-01;  9.9999998E-03;  4.9997132E-02;6446; -4.1648527E-03;  0.0000000E+00;  5.6888913E-03;  9.9930524E+02;  1.0447542E-01; -5.7558844E+02;3; -5.2122426E+00;  0.0000000E+00;  1.2850282E-01;0; -5.7609119E-02;  3.6605625E+04;  0.0000000E+00; -9.4539575E-02;  4.0000000E+04;  0.0000000E+00;  3.9984059E+04; -1.5715143E-01;  0.0000000E+00;  9.9542312E-02;  1.8148591E+03;
  6.5223092E-01;  9.9999998E-03; -5.9993695E-02;6435; -3.8043419E-03;  0.0000000E+00; -6.8381741E-03;  9.9923322E+02;  1.0447723E-01; -6.3529041E+02;3; -5.0922570E+00;  0.0000000E+00; -2.0544250E-01;0; -5.8026627E-02;  3.6597488E+04;  0.0000000E+00; -1.3995023E-01;  4.0000000E+04;  0.0000000E+00;  3.9985508E+04; -1.5347926E-01;  0.0000000E+00;  9.5452636E-02;  2.0002183E+03;
  6.5223092E-01;  9.9999998E-03;  5.9993699E-02;6447; -3.8043424E-03;  0.0000000E+00;  6.8382276E-03;  9.9923334E+02;  1.0447721E-01; -6.3514227E+02;3; -5.0922432E+00;  0.0000000E+00;  2.0545326E-01;0; -5.8026582E-02;  3.6597488E+04;  0.0000000E+00; -1.3994944E-01;  4.0000000E+04;  0.0000000E+00;  3.9985508E+04; -1.5347929E-01;  0.0000000E+00;  9.5452711E-02;  2.0002177E+03;
  6.5221351E-01;  9.9999998E-03; -6.9989175E-02;6434; -3.3855636E-03;  0.0000000E+00; -7.9589076E-03;  9.9915710E+02;  1.0447907E-01; -6.9830096E+02;3; -4.9457545E+00;  0.0000000E+00; -3.2213607E-01;0; -5.8520734E-02;  3.6589199E+04;  0.0000000E+00; -1.9325662E-01;  4.0000000E+04;  0.0000000E+00;  3.9986375E+04; -1.4916016E-01;  0.0000000E+00;  9.0639427E-02;  2.1402761E+03;
  6.5219659E-01;  9.9999998E-03; -7.9983473E-02;6433; -2.9115817E-03;  0.0000000E+00; -9.0337396E-03;  9.9908435E+02;  1.0448122E-01; -7.5859552E+02;3; -4.7808604E+00;  0.0000000E+00; -4.7306678E-01;0; -5.9059277E-02;  3.6581629E+04;  0.0000000E+00; -2.5161201E-01;  4.0000000E+04;  0.0000000E+00;  3.9986938E+04; -1.4421581E-01;  0.0000000E+00;  8.5156530E-02;  2.2207737E+03;
  6.5218037E-01;  9.9999998E-03; -8.9977250E-02;6432; -2.3871597E-03;  0.0000000E+00; -1.0037389E-02;  9.9902173E+02;  1.0448410E-01; -8.1049530E+02;3; -4.5993509E+00;  0.0000000E+00; -6.1945945E-01;0; -5.9590921E-02;  3.6574562E+04;  0.0000000E+00; -3.1074160E-01;  4.0000000E+04;  0.0000000E+00;  3.9986836E+04; -1.3867721E-01;  0.0000000E+00;  7.9086289E-02;  2.2382146E+03;
  6.5216535E-01;  9.9999998E-03; -9.9970907E-02;6431; -1.8193270E-03;  0.0000000E+00; -1.0961851E-02;  9.9896637E+02;  1.0448702E-01; -8.5632117E+02;3; -4.4108496E+00;  0.0000000E+00; -7.6757091E-01;0; -6.0045838E-02;  3.6568871E+04;  0.0000000E+00; -3.6524403E-01;  4.0000000E+04;  0.0000000E+00;  3.9986211E+04; -1.3258509E-01;  0.0000000E+00;  7.2539255E-02;  2.1993213E+03;
  6.6222334E-01;  9.9999998E-03; -9.9995155E-03;6501; -6.6325595E-03;  0.0000000E+00; -1.1350485E-03;  9.9953864E+02;  1.0608612E-01; -3.8221127E+02;3; -5.3146634E+00;  0.0000000E+00; -5.8166529E-03;0; -6.2976629E-02;  3.5520641E+04;  0.0000000E+00; -4.9880608E-03;  4.0000000E+04;  0.0000000E+00;  3.9968281E+04; -1.7095719E-01;  0.0000000E+00;  1.0798056E-01;  1.1029489E+03;
  6.6222441E-01;  9.9999998E-03;  1.6804393E-09;6502; -6.6681113E-03;  0.0000000E+00;  2.9901319E-08;  9.9954968E+02;  1.0608586E-01; -3.7307571E+02;3; -5.3223290E+00;  0.0000000E+00; -1.8141943E-06;0; -6.2956981E-02;  3.5521672E+04;  0.0000000E+00; -4.1769952E-11;  4.0000000E+04;  0.0000000E+00;  3.9967887E+04; -1.7132150E-01;  0.0000000E+00;  1.0836452E-01;  1.0619146E+03;
  6.6222334E-01;  9.9999998E-03;  9.9995192E-03;6503; -6.6325618E-03;  0.0000000E+00;  1.1351069E-03;  9.9953839E+02;  1.0608622E-01; -3.8245816E+02;3; -5.3146310E+00;  0.0000000E+00;  5.8108079E-03;0; -6.2976547E-02;  3.5520648E+04;  0.0000000E+00; -4.9857516E-03;  4.0000000E+04;  0.0000000E+00;  3.9968281E+04; -1.7095722E-01;  0.0000000E+00;  1.0798068E-01;  1.1029529E+03;
  6.6222030E-01;  9.9999998E-03; -1.9998403E-02;6500; -6.5268767E-03;  0.0000000E+00; -2.2735805E-03;  9.9951312E+02;  1.0608685E-01; -4.0334647E+02;3; -5.2802916E+00;  0.0000000E+00; -1.0953791E-02;0; -6.3038908E-02;  3.5517418E+04;  0.0000000E+00; -2.0185044E-02;  4.0000000E+04;  0.0000000E+00;  3.9968988E+04; -1.6986468E-01;  0.0000000E+00;  1.0682578E-01;  1.2198359E+03;
  6.6222030E-01;  9.9999998E-03;  1.9998405E-02;6504; -6.5268814E-03;  0.0000000E+00;  2.2736373E-03;  9.9951312E+02;  1.0608685E-01; -4.0334647E+02;3; -5.2803326E+00;  0.0000000E+00;  1.0952783E-02;0; -6.3038826E-02;  3.5517422E+04;  0.0000000E+00; -2.0181283E-02;  4.0000000E+04;  0.0000000E+00;  3.9968988E+04; -1.6986464E-01;  0.0000000E+00;  1.0682581E-01;  1.2198356E+03;
  6.6221577E-01;  9.9999998E-03; -2.9996211E-02;6499; -6.3506877E-03;  0.0000000E+00; -3.4233273E-03;  9.9947290E+02;  1.0608841E-01; -4.3667883E+02;3; -5.2211189E+00;  0.0000000E+00; -3.3746623E-02;0; -6.3153125E-02;  3.5512133E+04;  0.0000000E+00; -4.6140216E-02;  4.0000000E+04;  0.0000000E+00;  3.9970273E+04; -1.6804603E-01;  0.0000000E+00;  1.0489290E-01;  1.3951880E+03;
  6.6221577E-01;  9.9999998E-03;  2.9996214E-02;6505; -6.3506919E-03;  0.0000000E+00;  3.4233816E-03;  9.9947284E+02;  1.0608827E-01; -4.3672821E+02;3; -5.2211642E+00;  0.0000000E+00;  3.3734292E-02;0; -6.3152879E-02;  3.5512129E+04;  0.0000000E+00; -4.6135053E-02;  4.0000000E+04;  0.0000000E+00;  3.9970273E+04; -1.6804589E-01;  0.0000000E+00;  1.0489301E-01;  1.3951986E+03;
  6.6220975E-01;  9.9999998E-03; -3.9992824E-02;6498; -6.1044018E-03;  0.0000000E+00; -4.5809802E-03;  9.9942163E+02;  1.0609008E-01; -4.7914676E+02;3; -5.1431475E+00;  0.0000000E+00; -8.3384141E-02;0; -6.3328534E-02;  3.5505562E+04;  0.0000000E+00; -8.3342634E-02;  4.0000000E+04;  0.0000000E+00;  3.9971973E+04; -1.6550355E-01;  0.0000000E+00;  1.0217501E-01;  1.6036936E+03;
  6.6220975E-01;  9.9999998E-03;  3.9992828E-02;6506; -6.1044008E-03;  0.0000000E+00;  4.5810333E-03;  9.9942163E+02;  1.0609008E-01; -4.7914676E+02;3; -5.1431327E+00;  0.0000000E+00;  8.3380722E-02;0; -6.3328683E-02;  3.5505562E+04;  0.0000000E+00; -8.3336510E-02;  4.0000000E+04;  0.0000000E+00;  3.9971973E+04; -1.6550374E-01;  0.0000000E+00;  1.0217506E-01;  1.6036807E+03;
  6.6220206E-01;  9.9999998E-03; -4.9988642E-02;6497; -5.7883882E-03;  0.0000000E+00; -5.7362183E-03;  9.9936041E+02;  1.0609205E-01; -5.2986133E+02;3; -5.0437517E+00;  0.0000000E+00; -1.4754675E-01;0; -6.3572600E-02;  3.5498230E+04;  0.0000000E+00; -1.3175148E-01;  4.0000000E+04;  0.0000000E+00;  3.9973434E+04; -1.6224514E-01;  0.0000000E+00;  9.8672539E-02;  1.8164170E+03;
  6.6220206E-01;  9.9999998E-03;  4.9988646E-02;6507; -5.7883919E-03;  0.0000000E+00;  5.7362719E-03;  9.9936029E+02;  1.0609199E-01; -5.3000952E+02;3; -5.0437450E+00;  0.0000000E+00;  1.4756039E-01;0; -6.3572712E-02;  3.5498234E+04;  0.0000000E+00; -1.3174631E-01;  4.0000000E+04;  0.0000000E+00;  3.9973434E+04; -1.6224521E-01;  0.0000000E+00;  9.8672502E-02;  1.8164235E+03;
  6.6219324E-01;  9.9999998E-03; -5.9983648E-02;6496; -5.4046349E-03;  0.0000000E+00; -6.8764370E-03;  9.9930231E+02;  1.0609499E-01; -5.7800812E+02;3; -4.9256434E+00;  0.0000000E+00; -2.2980738E-01;0; -6.3882157E-02;  3.5490500E+04;  0.0000000E+00; -1.9028018E-01;  4.0000000E+04;  0.0000000E+00;  3.9974973E+04; -1.5828267E-01;  0.0000000E+00;  9.4400510E-02;  2.0053634E+03;
  6.6219324E-01;  9.9999998E-03;  5.9983652E-02;6508; -5.4046395E-03;  0.0000000E+00;  6.8764878E-03;  9.9930231E+02;  1.0609499E-01; -5.7800812E+02;3; -4.9256496E+00;  0.0000000E+00;  2.2981150E-01;0; -6.3882194E-02;  3.5490508E+04;  0.0000000E+00; -1.9027857E-01;  4.0000000E+04;  0.0000000E+00;  3.9974973E+04; -1.5828276E-01;  0.0000000E+00;  9.4400562E-02;  2.0053770E+03;
  6.6218364E-01;  9.9999998E-03; -6.9978148E-02;6495; -4.9550682E-03;  0.0000000E+00; -7.9813292E-03;  9.9924609E+02;  1.0609844E-01; -6.2457471E+02;3; -4.7918291E+00;  0.0000000E+00; -3.3382890E-01;0; -6.4240873E-02;  3.5483082E+04;  0.0000000E+00; -2.5635085E-01;  4.0000000E+04;  0.0000000E+00;  3.9975781E+04; -1.5363625E-01;  0.0000000E+00;  8.9395374E-02;  2.1478184E+03;
  6.6217381E-01;  9.9999998E-03; -7.9972371E-02;6494; -4.4410555E-03;  0.0000000E+00; -9.0354187E-03;  9.9919720E+02;  1.0610209E-01; -6.6511676E+02;3; -4.6201863E+00;  0.0000000E+00; -4.7104609E-01;0; -6.4614668E-02;  3.5476371E+04;  0.0000000E+00; -3.2572320E-01;  4.0000000E+04;  0.0000000E+00;  3.9976223E+04; -1.4833431E-01;  0.0000000E+00;  8.3719641E-02;  2.2302754E+03;
  6.6216403E-01;  9.9999998E-03; -8.9966856E-02;6493; -3.8656606E-03;  0.0000000E+00; -1.0015690E-02;  9.9916345E+02;  1.0610646E-01; -6.9306653E+02;3; -4.4374604E+00;  0.0000000E+00; -6.2510121E-01;0; -6.4950421E-02;  3.5470914E+04;  0.0000000E+00; -3.9262480E-01;  4.0000000E+04;  0.0000000E+00;  3.9976133E+04; -1.4241412E-01;  0.0000000E+00;  7.7463701E-02;  2.2505676E+03;
  6.6215467E-01;  9.9999998E-03; -9.9961929E-02;6492; -3.2351208E-03;  0.0000000E+00; -1.0905997E-02;  9.9914581E+02;  1.0611106E-01; -7.0768341E+02;3; -4.2512832E+00;  0.0000000E+00; -7.8219473E-01;0; -6.5178953E-02;  3.5466609E+04;  0.0000000E+00; -4.5024419E-01;  4.0000000E+04;  0.0000000E+00;  3.9975539E+04; -1.3592491E-01;  0.0000000E+00;  7.0745952E-02;  2.2164353E+03;
  6.7217129E-01;  9.9999998E-03; -9.9953189E-02;6553; -4.7132131E-03;  0.0000000E+00; -1.0807968E-02;  9.9890436E+02;  1.0800669E-01; -9.0772699E+02;3; -4.0921888E+00;  0.0000000E+00; -7.8277397E-01;0; -7.0617057E-02;  3.4212266E+04;  0.0000000E+00; -4.5983404E-01;  4.0000000E+04;  0.0000000E+00;  3.9962230E+04; -1.3906816E-01;  0.0000000E+00;  6.8451099E-02;  2.1456377E+03;
  6.7216378E-01;  9.9999998E-03; -8.9957841E-02;6554; -5.4126089E-03;  0.0000000E+00; -9.9585457E-03;  9.9887140E+02;  1.0799950E-01; -9.3503485E+02;3; -4.2915130E+00;  0.0000000E+00; -6.1299151E-01;0; -7.0656657E-02;  3.4214367E+04;  0.0000000E+00; -4.0774983E-01;  4.0000000E+04;  0.0000000E+00;  3.9962840E+04; -1.4596643E-01;  0.0000000E+00;  7.5309768E-02;  2.1797800E+03;
  6.7215645E-01;  9.9999998E-03; -7.9963624E-02;6555; -6.0446882E-03;  0.0000000E+00; -9.0135857E-03;  9.9885925E+02;  1.0799278E-01; -9.4510864E+02;3; -4.4637208E+00;  0.0000000E+00; -4.8287359E-01;0; -7.0549488E-02;  3.4218086E+04;  0.0000000E+00; -3.4287077E-01;  4.0000000E+04;  0.0000000E+00;  3.9963145E+04; -1.5228105E-01;  0.0000000E+00;  8.1731558E-02;  2.1638884E+03;
  6.7214966E-01;  9.9999998E-03; -6.9970056E-02;6556; -6.6069420E-03;  0.0000000E+00; -7.9936907E-03;  9.9886755E+02;  1.0798662E-01; -9.3819525E+02;3; -4.6174912E+00;  0.0000000E+00; -3.6730585E-01;0; -7.0365675E-02;  3.4223000E+04;  0.0000000E+00; -2.7285597E-01;  4.0000000E+04;  0.0000000E+00;  3.9962867E+04; -1.5795639E-01;  0.0000000E+00;  8.7590717E-02;  2.0889348E+03;
  6.7214382E-01;  9.9999998E-03; -5.9976723E-02;6557; -7.0959488E-03;  0.0000000E+00; -6.9112186E-03;  9.9889386E+02;  1.0798125E-01; -9.1641809E+02;3; -4.7540350E+00;  0.0000000E+00; -2.6794544E-01;0; -7.0159830E-02;  3.4229148E+04;  0.0000000E+00; -2.0443645E-01;  4.0000000E+04;  0.0000000E+00;  3.9962141E+04; -1.6294652E-01;  0.0000000E+00;  9.2786692E-02;  1.9551671E+03;
  6.7213929E-01;  9.9999998E-03; -4.9982958E-02;6558; -7.5095710E-03;  0.0000000E+00; -5.7854960E-03;  9.9893048E+02;  1.0797668E-01; -8.8609802E+02;3; -4.8708048E+00;  0.0000000E+00; -1.7602164E-01;0; -6.9968522E-02;  3.4236020E+04;  0.0000000E+00; -1.4270556E-01;  4.0000000E+04;  0.0000000E+00;  3.9960770E+04; -1.6721591E-01;  0.0000000E+00;  9.7247392E-02;  1.7742925E+03;
  6.7213577E-01;  9.9999998E-03; -3.9988454E-02;6559; -7.8469599E-03;  0.0000000E+00; -4.6341433E-03;  9.9896716E+02;  1.0797307E-01; -8.5567914E+02;3; -4.9671283E+00;  0.0000000E+00; -1.0713749E-01;0; -6.9812655E-02;  3.4242754E+04;  0.0000000E+00; -9.0897605E-02;  4.0000000E+04;  0.0000000E+00;  3.9959238E+04; -1.7073718E-01;  0.0000000E+00;  1.0092452E-01;  1.5678579E+03;
  6.7213327E-01;  9.9999998E-03; -2.9992914E-02;6560; -8.1077218E-03;  0.0000000E+00; -3.4728015E-03;  9.9900824E+02;  1.0797056E-01; -8.2165540E+02;3; -5.0432916E+00;  0.0000000E+00; -5.2195210E-02;0; -6.9699511E-02;  3.4248844E+04;  0.0000000E+00; -5.0608452E-02;  4.0000000E+04;  0.0000000E+00;  3.9957684E+04; -1.7349158E-01;  0.0000000E+00;  1.0379207E-01;  1.3636986E+03;
  6.7213166E-01;  9.9999998E-03; -1.9996017E-02;6561; -8.2931742E-03;  0.0000000E+00; -2.3127000E-03;  9.9903900E+02;  1.0796814E-01; -7.9617468E+02;3; -5.1021981E+00;  0.0000000E+00; -2.3019817E-02;0; -6.9626376E-02;  3.4253785E+04;  0.0000000E+00; -2.2238730E-02;  4.0000000E+04;  0.0000000E+00;  3.9956262E+04; -1.7546645E-01;  0.0000000E+00;  1.0584007E-01;  1.1911537E+03;
  6.7213082E-01;  9.9999998E-03; -9.9982638E-03;6562; -8.4031876E-03;  0.0000000E+00; -1.1555330E-03;  9.9906250E+02;  1.0796691E-01; -7.7671844E+02;3; -5.1331096E+00;  0.0000000E+00; -2.2615315E-04;0; -6.9586821E-02;  3.4256859E+04;  0.0000000E+00; -5.5128420E-03;  4.0000000E+04;  0.0000000E+00;  3.9955344E+04; -1.7665391E-01;  0.0000000E+00;  1.0706709E-01;  1.0758231E+03;
  6.7213053E-01;  9.9999998E-03;  1.7288273E-09;6563; -8.4383423E-03;  0.0000000E+00;  3.1263671E-08;  9.9907080E+02;  1.0796670E-01; -7.6980505E+02;3; -5.1375651E+00;  0.0000000E+00; -3.4276536E-06;0; -6.9574215E-02;  3.4257957E+04;  0.0000000E+00; -5.0822249E-11;  4.0000000E+04;  0.0000000E+00;  3.9955168E+04; -1.7705004E-01;  0.0000000E+00;  1.0747582E-01;  1.0353268E+03;
  6.7213082E-01;  9.9999998E-03;  9.9982666E-03;6564; -8.4031867E-03;  0.0000000E+00;  1.1555946E-03;  9.9906256E+02;  1.0796720E-01; -7.7666907E+02;3; -5.1330843E+00;  0.0000000E+00;  2.2299484E-04;0; -6.9587074E-02;  3.4256859E+04;  0.0000000E+00; -5.5105267E-03;  4.0000000E+04;  0.0000000E+00;  3.9955344E+04; -1.7665406E-01;  0.0000000E+00;  1.0706698E-01;  1.0758386E+03;
  6.7213166E-01;  9.9999998E-03;  1.9996021E-02;6565; -8.2931751E-03;  0.0000000E+00;  2.3127592E-03;  9.9903882E+02;  1.0796822E-01; -7.9632281E+02;3; -5.1022186E+00;  0.0000000E+00;  2.3017365E-02;0; -6.9626383E-02;  3.4253785E+04;  0.0000000E+00; -2.2234144E-02;  4.0000000E+04;  0.0000000E+00;  3.9956262E+04; -1.7546642E-01;  0.0000000E+00;  1.0584003E-01;  1.1911454E+03;
  6.7213327E-01;  9.9999998E-03;  2.9992918E-02;6566; -8.1077190E-03;  0.0000000E+00;  3.4728597E-03;  9.9900836E+02;  1.0797051E-01; -8.2155664E+02;3; -5.0432892E+00;  0.0000000E+00;  5.2196462E-02;0; -6.9699414E-02;  3.4248844E+04;  0.0000000E+00; -5.0603062E-02;  4.0000000E+04;  0.0000000E+00;  3.9957684E+04; -1.7349158E-01;  0.0000000E+00;  1.0379217E-01;  1.3637125E+03;
  6.7213577E-01;  9.9999998E-03;  3.9988458E-02;6567; -7.8469664E-03;  0.0000000E+00;  4.6341997E-03;  9.9896710E+02;  1.0797307E-01; -8.5572852E+02;3; -4.9671397E+00;  0.0000000E+00;  1.0713922E-01;0; -6.9812432E-02;  3.4242754E+04;  0.0000000E+00; -9.0891853E-02;  4.0000000E+04;  0.0000000E+00;  3.9959242E+04; -1.7073707E-01;  0.0000000E+00;  1.0092464E-01;  1.5678557E+03;
  6.7213929E-01;  9.9999998E-03;  4.9982961E-02;6568; -7.5095701E-03;  0.0000000E+00;  5.7855505E-03;  9.9893054E+02;  1.0797677E-01; -8.8604858E+02;3; -4.8707576E+00;  0.0000000E+00;  1.7601980E-01;0; -6.9968611E-02;  3.4236016E+04;  0.0000000E+00; -1.4270009E-01;  4.0000000E+04;  0.0000000E+00;  3.9960770E+04; -1.6721594E-01;  0.0000000E+00;  9.7247332E-02;  1.7742916E+03;
  6.7214382E-01;  9.9999998E-03;  5.9976723E-02;6569; -7.0959497E-03;  0.0000000E+00;  6.9112722E-03;  9.9889392E+02;  1.0798122E-01; -9.1636871E+02;3; -4.7540126E+00;  0.0000000E+00;  2.6795667E-01;0; -7.0160024E-02;  3.4229148E+04;  0.0000000E+00; -2.0443371E-01;  4.0000000E+04;  0.0000000E+00;  3.9962141E+04; -1.6294682E-01;  0.0000000E+00;  9.2786796E-02;  1.9551685E+03;
  6.8222404E-01;  9.9999998E-03; -9.9957101E-02;6614; -6.2517407E-03;  0.0000000E+00; -1.0651563E-02;  9.9820367E+02;  1.1015628E-01; -1.4882040E+03;3; -3.9339769E+00;  0.0000000E+00; -8.0507052E-01;0; -7.6260410E-02;  3.2844844E+04;  0.0000000E+00; -3.7940797E-01;  4.0000000E+04;  0.0000000E+00;  3.9947238E+04; -1.4191176E-01;  0.0000000E+00;  6.5651350E-02;  1.9646138E+03;
  6.8220121E-01;  9.9999998E-03; -8.9960322E-02;6615; -7.0302254E-03;  0.0000000E+00; -9.8588504E-03;  9.9810547E+02;  1.1014520E-01; -1.5695844E+03;3; -4.1197371E+00;  0.0000000E+00; -6.6623324E-01;0; -7.6618820E-02;  3.2844922E+04;  0.0000000E+00; -3.4314853E-01;  4.0000000E+04;  0.0000000E+00;  3.9947934E+04; -1.4922507E-01;  0.0000000E+00;  7.2606251E-02;  2.0103779E+03;
  6.8217814E-01;  9.9999998E-03; -7.9964854E-02;6616; -7.7333106E-03;  0.0000000E+00; -8.9699542E-03;  9.9803528E+02;  1.1013468E-01; -1.6277556E+03;3; -4.2915006E+00;  0.0000000E+00; -5.3473759E-01;0; -7.6783903E-02;  3.2846438E+04;  0.0000000E+00; -2.9239497E-01;  4.0000000E+04;  0.0000000E+00;  3.9947969E+04; -1.5594256E-01;  0.0000000E+00;  7.9158656E-02;  2.0129139E+03;
  6.8215573E-01;  9.9999998E-03; -6.9970250E-02;6617; -8.3556306E-03;  0.0000000E+00; -7.9919724E-03;  9.9799493E+02;  1.1012568E-01; -1.6611373E+03;3; -4.4466143E+00;  0.0000000E+00; -4.1632116E-01;0; -7.6823652E-02;  3.2849543E+04;  0.0000000E+00; -2.3457554E-01;  4.0000000E+04;  0.0000000E+00;  3.9947762E+04; -1.6199966E-01;  0.0000000E+00;  8.5176006E-02;  1.9605804E+03;
  6.8213487E-01;  9.9999998E-03; -5.9976272E-02;6618; -8.8939592E-03;  0.0000000E+00; -6.9411104E-03;  9.9797406E+02;  1.1011732E-01; -1.6784702E+03;3; -4.5794353E+00;  0.0000000E+00; -3.0312538E-01;0; -7.6795526E-02;  3.2854293E+04;  0.0000000E+00; -1.7647474E-01;  4.0000000E+04;  0.0000000E+00;  3.9947105E+04; -1.6734329E-01;  0.0000000E+00;  9.0547763E-02;  1.8508090E+03;
  6.8211615E-01;  9.9999998E-03; -4.9982294E-02;6619; -9.3471175E-03;  0.0000000E+00; -5.8353767E-03;  9.9797675E+02;  1.1011066E-01; -1.6762480E+03;3; -4.6937876E+00;  0.0000000E+00; -2.1790710E-01;0; -7.6739408E-02;  3.2859844E+04;  0.0000000E+00; -1.2332489E-01;  4.0000000E+04;  0.0000000E+00;  3.9946129E+04; -1.7192863E-01;  0.0000000E+00;  9.5189221E-02;  1.6924995E+03;
  6.8210024E-01;  9.9999998E-03; -3.9987791E-02;6620; -9.7135641E-03;  0.0000000E+00; -4.6896017E-03;  9.9799084E+02;  1.1010469E-01; -1.6645447E+03;3; -4.7883763E+00;  0.0000000E+00; -1.2966867E-01;0; -7.6681860E-02;  3.2865941E+04;  0.0000000E+00; -7.8496389E-02;  4.0000000E+04;  0.0000000E+00;  3.9944660E+04; -1.7572102E-01;  0.0000000E+00;  9.9039160E-02;  1.5053533E+03;
  6.8208712E-01;  9.9999998E-03; -2.9992383E-02;6621; -9.9957371E-03;  0.0000000E+00; -3.5227488E-03;  9.9800964E+02;  1.1010028E-01; -1.6489895E+03;3; -4.8631268E+00;  0.0000000E+00; -7.5540490E-02;0; -7.6635994E-02;  3.2871555E+04;  0.0000000E+00; -4.3650862E-02;  4.0000000E+04;  0.0000000E+00;  3.9943246E+04; -1.7869441E-01;  0.0000000E+00;  1.0205842E-01;  1.3161962E+03;
  6.8207735E-01;  9.9999998E-03; -1.9995926E-02;6622; -1.0195271E-02;  0.0000000E+00; -2.3479823E-03;  9.9803119E+02;  1.1009674E-01; -1.6311135E+03;3; -4.9179640E+00;  0.0000000E+00; -3.6597069E-02;0; -7.6605618E-02;  3.2876047E+04;  0.0000000E+00; -1.9166199E-02;  4.0000000E+04;  0.0000000E+00;  3.9941965E+04; -1.8083015E-01;  0.0000000E+00;  1.0422453E-01;  1.1540409E+03;
  6.8207103E-01;  9.9999998E-03; -9.9984724E-03;6623; -1.0313632E-02;  0.0000000E+00; -1.1731661E-03;  9.9804706E+02;  1.1009508E-01; -1.6179780E+03;3; -4.9530797E+00;  0.0000000E+00; -1.5230333E-02;0; -7.6589435E-02;  3.2879109E+04;  0.0000000E+00; -4.7489544E-03;  4.0000000E+04;  0.0000000E+00;  3.9941102E+04; -1.8211615E-01;  0.0000000E+00;  1.0552672E-01;  1.0447236E+03;
  6.8206900E-01;  9.9999998E-03;  1.6643381E-09;6624; -1.0353139E-02;  0.0000000E+00;  3.1688479E-08;  9.9804999E+02;  1.1009413E-01; -1.6155583E+03;3; -4.9634829E+00;  0.0000000E+00; -5.1250536E-06;0; -7.6584518E-02;  3.2880113E+04;  0.0000000E+00; -5.8599757E-11;  4.0000000E+04;  0.0000000E+00;  3.9940852E+04; -1.8254560E-01;  0.0000000E+00;  1.0596108E-01;  1.0061561E+03;
  6.8207103E-01;  9.9999998E-03;  9.9984761E-03;6625; -1.0313633E-02;  0.0000000E+00;  1.1732290E-03;  9.9804706E+02;  1.1009508E-01; -1.6179780E+03;3; -4.9530444E+00;  0.0000000E+00;  1.5225934E-02;0; -7.6589458E-02;  3.2879109E+04;  0.0000000E+00; -4.7465661E-03;  4.0000000E+04;  0.0000000E+00;  3.9941102E+04; -1.8211618E-01;  0.0000000E+00;  1.0552672E-01;  1.0447141E+03;
  6.8207735E-01;  9.9999998E-03;  1.9995928E-02;6626; -1.0195268E-02;  0.0000000E+00;  2.3480440E-03;  9.9803125E+02;  1.1009681E-01; -1.6310641E+03;3; -4.9179177E+00;  0.0000000E+00;  3.6592945E-02;0; -7.6605700E-02;  3.2876043E+04;  0.0000000E+00; -1.9161500E-02;  4.0000000E+04;  0.0000000E+00;  3.9941969E+04; -1.8083021E-01;  0.0000000E+00;  1.0422451E-01;  1.1540372E+03;
  6.8208712E-01;  9.9999998E-03;  2.9992387E-02;6627; -9.9957380E-03;  0.0000000E+00;  3.5228096E-03;  9.9800964E+02;  1.1010028E-01; -1.6489895E+03;3; -4.8631449E+00;  0.0000000E+00;  7.5533368E-02;0; -7.6635778E-02;  3.2871555E+04;  0.0000000E+00; -4.3646336E-02;  4.0000000E+04;  0.0000000E+00;  3.9943246E+04; -1.7869431E-01;  0.0000000E+00;  1.0205853E-01;  1.3161946E+03;
  6.8210024E-01;  9.9999998E-03;  3.9987795E-02;6628; -9.7135641E-03;  0.0000000E+00;  4.6896609E-03;  9.9799084E+02;  1.1010469E-01; -1.6645447E+03;3; -4.7883444E+00;  0.0000000E+00;  1.2966976E-01;0; -7.6681815E-02;  3.2865938E+04;  0.0000000E+00; -7.8491181E-02;  4.0000000E+04;  0.0000000E+00;  3.9944660E+04; -1.7572108E-01;  0.0000000E+00;  9.9039264E-02;  1.5053409E+03;
  6.8211615E-01;  9.9999998E-03;  4.9982294E-02;6629; -9.3471194E-03;  0.0000000E+00;  5.8354335E-03;  9.9797681E+02;  1.1011063E-01; -1.6761986E+03;3; -4.6937757E+00;  0.0000000E+00;  2.1789920E-01;0; -7.6739624E-02;  3.2859848E+04;  0.0000000E+00; -1.2332053E-01;  4.0000000E+04;  0.0000000E+00;  3.9946129E+04; -1.7192884E-01;  0.0000000E+00;  9.5189214E-02;  1.6924968E+03;
  6.8213487E-01;  9.9999998E-03;  5.9976276E-02;6630; -8.8939648E-03;  0.0000000E+00;  6.9411686E-03;  9.9797406E+02;  1.1011732E-01; -1.6784702E+03;3; -4.5794125E+00;  0.0000000E+00;  3.0312273E-01;0; -7.6795608E-02;  3.2854285E+04;  0.0000000E+00; -1.7647347E-01;  4.0000000E+04;  0.0000000E+00;  3.9947105E+04; -1.6734338E-01;  0.0000000E+00;  9.0547770E-02;  1.8508195E+03;
  6.9286925E-01;  9.9999998E-03; -1.0000397E-01;6675; -7.9213763E-03;  0.0000000E+00; -1.0449307E-02;  9.9717834E+02;  1.1264547E-01; -2.3377102E+03;3; -3.7389724E+00;  0.0000000E+00; -8.8191283E-01;0; -8.2319900E-02;  3.1355625E+04;  0.0000000E+00; -2.0366040E-01;  4.0000000E+04;  0.0000000E+00;  3.9929617E+04; -1.4445677E-01;  0.0000000E+00;  6.2136877E-02;  1.6741241E+03;
  6.9282240E-01;  9.9999998E-03; -9.0002194E-02;6676; -8.7910984E-03;  0.0000000E+00; -9.7206710E-03;  9.9701501E+02;  1.1262806E-01; -2.4730149E+03;3; -3.9255965E+00;  0.0000000E+00; -7.3303330E-01;0; -8.3065078E-02;  3.1354562E+04;  0.0000000E+00; -1.9401935E-01;  4.0000000E+04;  0.0000000E+00;  3.9930223E+04; -1.5219817E-01;  0.0000000E+00;  6.9133088E-02;  1.7501021E+03;
  6.9276893E-01;  9.9999998E-03; -8.0001682E-02;6677; -9.5753493E-03;  0.0000000E+00; -8.8872928E-03;  9.9688379E+02;  1.1261085E-01; -2.5817031E+03;3; -4.1000810E+00;  0.0000000E+00; -5.9752816E-01;0; -8.3553791E-02;  3.1355867E+04;  0.0000000E+00; -1.7067984E-01;  4.0000000E+04;  0.0000000E+00;  3.9930707E+04; -1.5932707E-01;  0.0000000E+00;  7.5773284E-02;  1.7929602E+03;
  6.9271123E-01;  9.9999998E-03; -7.0001349E-02;6678; -1.0267418E-02;  0.0000000E+00; -7.9521183E-03;  9.9679102E+02;  1.1259457E-01; -2.6585898E+03;3; -4.2573600E+00;  0.0000000E+00; -4.6080327E-01;0; -8.3855152E-02;  3.1359506E+04;  0.0000000E+00; -1.3943259E-01;  4.0000000E+04;  0.0000000E+00;  3.9930559E+04; -1.6577354E-01;  0.0000000E+00;  8.1918389E-02;  1.7857557E+03;
  6.9265270E-01;  9.9999998E-03; -6.0001355E-02;6679; -1.0865473E-02;  0.0000000E+00; -6.9371774E-03;  9.9672833E+02;  1.1257912E-01; -2.7104895E+03;3; -4.3982329E+00;  0.0000000E+00; -3.5303104E-01;0; -8.4029533E-02;  3.1365061E+04;  0.0000000E+00; -1.0573340E-01;  4.0000000E+04;  0.0000000E+00;  3.9930426E+04; -1.7147645E-01;  0.0000000E+00;  8.7446921E-02;  1.7211477E+03;
  6.9259661E-01;  9.9999998E-03; -5.0001770E-02;6680; -1.1367703E-02;  0.0000000E+00; -5.8647082E-03;  9.9669879E+02;  1.1256533E-01; -2.7349827E+03;3; -4.5139422E+00;  0.0000000E+00; -2.4685024E-01;0; -8.4123768E-02;  3.1372006E+04;  0.0000000E+00; -7.3909692E-02;  4.0000000E+04;  0.0000000E+00;  3.9929566E+04; -1.7638324E-01;  0.0000000E+00;  9.2259474E-02;  1.6044119E+03;
  6.9254625E-01;  9.9999998E-03; -4.0002421E-02;6681; -1.1772928E-02;  0.0000000E+00; -4.7384589E-03;  9.9668604E+02;  1.1255291E-01; -2.7455503E+03;3; -4.6128092E+00;  0.0000000E+00; -1.7196596E-01;0; -8.4171996E-02;  3.1379303E+04;  0.0000000E+00; -4.6810828E-02;  4.0000000E+04;  0.0000000E+00;  3.9928500E+04; -1.8045107E-01;  0.0000000E+00;  9.6279070E-02;  1.4525697E+03;
  6.9250447E-01;  9.9999998E-03; -3.0002788E-02;6682; -1.2083714E-02;  0.0000000E+00; -3.5796997E-03;  9.9668951E+02;  1.1254330E-01; -2.7426863E+03;3; -4.6835790E+00;  0.0000000E+00; -1.1834235E-01;0; -8.4196560E-02;  3.1386268E+04;  0.0000000E+00; -2.5830392E-02;  4.0000000E+04;  0.0000000E+00;  3.9927180E+04; -1.8364708E-01;  0.0000000E+00;  9.9450521E-02;  1.2908923E+03;
  6.9247311E-01;  9.9999998E-03; -2.0002505E-02;6683; -1.2301758E-02;  0.0000000E+00; -2.3945400E-03;  9.9669531E+02;  1.1253632E-01; -2.7378469E+03;3; -4.7268667E+00;  0.0000000E+00; -6.3636042E-02;0; -8.4209546E-02;  3.1391752E+04;  0.0000000E+00; -1.1251431E-02;  4.0000000E+04;  0.0000000E+00;  3.9926109E+04; -1.8594626E-01;  0.0000000E+00;  1.0173671E-01;  1.1479362E+03;
  6.9245380E-01;  9.9999998E-03; -1.0001609E-02;6684; -1.2432308E-02;  0.0000000E+00; -1.1976042E-03;  9.9670245E+02;  1.1253200E-01; -2.7319705E+03;3; -4.7628288E+00;  0.0000000E+00; -2.9428780E-02;0; -8.4216751E-02;  3.1395365E+04;  0.0000000E+00; -2.7719066E-03;  4.0000000E+04;  0.0000000E+00;  3.9925234E+04; -1.8733260E-01;  0.0000000E+00;  1.0311585E-01;  1.0498285E+03;
  6.9244713E-01;  9.9999998E-03;  1.6330798E-09;6685; -1.2474848E-02;  0.0000000E+00;  3.1568824E-08;  9.9670471E+02;  1.1253030E-01; -2.7300940E+03;3; -4.7719445E+00;  0.0000000E+00; -5.0924209E-06;0; -8.4218517E-02;  3.1396676E+04;  0.0000000E+00; -5.6771216E-11;  4.0000000E+04;  0.0000000E+00;  3.9925070E+04; -1.8779524E-01;  0.0000000E+00;  1.0357672E-01;  1.0149000E+03;
  6.9245380E-01;  9.9999998E-03;  1.0001613E-02;6686; -1.2432310E-02;  0.0000000E+00;  1.1976679E-03;  9.9670239E+02;  1.1253189E-01; -2.7320198E+03;3; -4.7627668E+00;  0.0000000E+00;  2.9415360E-02;0; -8.4216505E-02;  3.1395373E+04;  0.0000000E+00; -2.7698141E-03;  4.0000000E+04;  0.0000000E+00;  3.9925234E+04; -1.8733247E-01;  0.0000000E+00;  1.0311596E-01;  1.0498328E+03;
  6.9247311E-01;  9.9999998E-03;  2.0002509E-02;6687; -1.2301761E-02;  0.0000000E+00;  2.3946033E-03;  9.9669519E+02;  1.1253625E-01; -2.7379949E+03;3; -4.7269211E+00;  0.0000000E+00;  6.3623562E-02;0; -8.4209435E-02;  3.1391756E+04;  0.0000000E+00; -1.1247565E-02;  4.0000000E+04;  0.0000000E+00;  3.9926109E+04; -1.8594623E-01;  0.0000000E+00;  1.0173679E-01;  1.1479290E+03;
  6.9250447E-01;  9.9999998E-03;  3.0002791E-02;6688; -1.2083715E-02;  0.0000000E+00;  3.5797609E-03;  9.9668939E+02;  1.1254327E-01; -2.7427849E+03;3; -4.6835384E+00;  0.0000000E+00;  1.1833858E-01;0; -8.4196515E-02;  3.1386270E+04;  0.0000000E+00; -2.5825834E-02;  4.0000000E+04;  0.0000000E+00;  3.9927184E+04; -1.8364707E-01;  0.0000000E+00;  9.9450551E-02;  1.2908867E+03;
  6.9254625E-01;  9.9999998E-03;  4.0002424E-02;6689; -1.1772928E-02;  0.0000000E+00;  4.7385218E-03;  9.9668610E+02;  1.1255290E-01; -2.7455010E+03;3; -4.6128259E+00;  0.0000000E+00;  1.7196065E-01;0; -8.4171891E-02;  3.1379307E+04;  0.0000000E+00; -4.6804376E-02;  4.0000000E+04;  0.0000000E+00;  3.9928496E+04; -1.8045110E-01;  0.0000000E+00;  9.6279204E-02;  1.4525372E+03;
  6.9259661E-01;  9.9999998E-03;  5.0001774E-02;6690; -1.1367704E-02;  0.0000000E+00;  5.8647692E-03;  9.9669879E+02;  1.1256533E-01; -2.7349827E+03;3; -4.5139365E+00;  0.0000000E+00;  2.4684052E-01;0; -8.4123686E-02;  3.1372006E+04;  0.0000000E+00; -7.3905833E-02;  4.0000000E+04;  0.0000000E+00;  3.9929566E+04; -1.7638326E-01;  0.0000000E+00;  9.2259571E-02;  1.6044067E+03;
  6.9265270E-01;  9.9999998E-03;  6.0001355E-02;6691; -1.0865480E-02;  0.0000000E+00;  6.9372389E-03;  9.9672833E+02;  1.1257912E-01; -2.7104895E+03;3; -4.3982553E+00;  0.0000000E+00;  3.5302743E-01;0; -8.4029548E-02;  3.1365062E+04;  0.0000000E+00; -1.0573204E-01;  4.0000000E+04;  0.0000000E+00;  3.9930430E+04; -1.7147653E-01;  0.0000000E+00;  8.7446980E-02;  1.7211532E+03;
  7.0507896E-01;  9.9999998E-03; -1.0016845E-01;6736; -9.8319594E-03;  0.0000000E+00; -1.0128746E-02;  9.9634338E+02;  1.1572332E-01; -3.0294429E+03;3; -3.5070825E+00;  0.0000000E+00; -9.7948200E-01;0; -8.9236379E-02;  2.9682676E+04;  0.0000000E+00;  7.1537971E-02;  4.0000000E+04;  0.0000000E+00;  3.9908523E+04; -1.4662296E-01;  0.0000000E+00;  5.7386581E-02;  1.3390747E+03;
  7.0506322E-01;  9.9999998E-03; -9.0156585E-02;6737; -1.0825668E-02;  0.0000000E+00; -9.4808191E-03;  9.9612048E+02;  1.1571142E-01; -3.2140796E+03;3; -3.7016957E+00;  0.0000000E+00; -8.3990258E-01;0; -9.0532005E-02;  2.9675076E+04;  0.0000000E+00;  4.6165530E-02;  4.0000000E+04;  0.0000000E+00;  3.9909383E+04; -1.5483651E-01;  0.0000000E+00;  6.4304501E-02;  1.4574990E+03;
  7.0503426E-01;  9.9999998E-03; -8.0145903E-02;6738; -1.1724887E-02;  0.0000000E+00; -8.7222671E-03;  9.9592780E+02;  1.1569832E-01; -3.3737292E+03;3; -3.8796792E+00;  0.0000000E+00; -6.9529873E-01;0; -9.1496088E-02;  2.9670432E+04;  0.0000000E+00;  2.9556509E-02;  4.0000000E+04;  0.0000000E+00;  3.9910160E+04; -1.6242287E-01;  0.0000000E+00;  7.0926778E-02;  1.5606232E+03;
  7.0499396E-01;  9.9999998E-03; -7.0135571E-02;6739; -1.2521720E-02;  0.0000000E+00; -7.8567332E-03;  9.9577844E+02;  1.1568467E-01; -3.4974788E+03;3; -4.0388737E+00;  0.0000000E+00; -5.5322599E-01;0; -9.2195205E-02;  2.9668809E+04;  0.0000000E+00;  1.9330407E-02;  4.0000000E+04;  0.0000000E+00;  3.9910629E+04; -1.6930711E-01;  0.0000000E+00;  7.7111907E-02;  1.6229407E+03;
  7.0494568E-01;  9.9999998E-03; -6.0124423E-02;6740; -1.3212245E-02;  0.0000000E+00; -6.9021098E-03;  9.9566638E+02;  1.1567078E-01; -3.5903154E+03;3; -4.1790738E+00;  0.0000000E+00; -4.3750766E-01;0; -9.2691153E-02;  2.9669945E+04;  0.0000000E+00;  1.3164578E-02;  4.0000000E+04;  0.0000000E+00;  3.9910777E+04; -1.7542091E-01;  0.0000000E+00;  8.2729757E-02;  1.6300299E+03;
  7.0489359E-01;  9.9999998E-03; -5.0111517E-02;6741; -1.3793656E-02;  0.0000000E+00; -5.8733094E-03;  9.9559460E+02;  1.1565778E-01; -3.6497705E+03;3; -4.2987895E+00;  0.0000000E+00; -3.2867360E-01;0; -9.3035042E-02;  2.9673412E+04;  0.0000000E+00;  9.2209699E-03;  4.0000000E+04;  0.0000000E+00;  3.9910406E+04; -1.8070203E-01;  0.0000000E+00;  8.7666988E-02;  1.5813363E+03;
  7.0484227E-01;  9.9999998E-03; -4.0096231E-02;6742; -1.4263419E-02;  0.0000000E+00; -4.7685802E-03;  9.9554852E+02;  1.1564524E-01; -3.6879424E+03;3; -4.3906050E+00;  0.0000000E+00; -2.3546581E-01;0; -9.3268089E-02;  2.9678156E+04;  0.0000000E+00;  6.3201287E-03;  4.0000000E+04;  0.0000000E+00;  3.9909680E+04; -1.8509632E-01;  0.0000000E+00;  9.1828234E-02;  1.4892419E+03;
  7.0479679E-01;  9.9999998E-03; -3.0077480E-02;6743; -1.4624118E-02;  0.0000000E+00; -3.6153609E-03;  9.9552325E+02;  1.1563516E-01; -3.7088799E+03;3; -4.4625392E+00;  0.0000000E+00; -1.5390943E-01;0; -9.3422584E-02;  2.9683213E+04;  0.0000000E+00;  3.9031708E-03;  4.0000000E+04;  0.0000000E+00;  3.9909059E+04; -1.8856072E-01;  0.0000000E+00;  9.5138140E-02;  1.3760073E+03;
  7.0476103E-01;  9.9999998E-03; -2.0054599E-02;6744; -1.4878997E-02;  0.0000000E+00; -2.4251072E-03;  9.9551056E+02;  1.1562708E-01; -3.7193982E+03;3; -4.5172873E+00;  0.0000000E+00; -9.0587460E-02;0; -9.3519382E-02;  2.9687666E+04;  0.0000000E+00;  1.8935917E-03;  4.0000000E+04;  0.0000000E+00;  3.9907918E+04; -1.9106010E-01;  0.0000000E+00;  9.7540714E-02;  1.2683878E+03;
  7.0473844E-01;  9.9999998E-03; -1.0028393E-02;6745; -1.5029556E-02;  0.0000000E+00; -1.2147466E-03;  9.9551056E+02;  1.1562194E-01; -3.7193982E+03;3; -4.5533047E+00;  0.0000000E+00; -3.3508245E-02;0; -9.3573220E-02;  2.9690676E+04;  0.0000000E+00;  5.0308328E-04;  4.0000000E+04;  0.0000000E+00;  3.9907332E+04; -1.9256984E-01;  0.0000000E+00;  9.8996617E-02;  1.1917039E+03;
  7.0473069E-01;  9.9999998E-03;  1.2814124E-09;6746; -1.5080024E-02;  0.0000000E+00;  3.0299109E-08;  9.9550983E+02;  1.1562067E-01; -3.7200400E+03;3; -4.5664024E+00;  0.0000000E+00; -8.6997316E-06;0; -9.3590505E-02;  2.9691709E+04;  0.0000000E+00; -4.8222048E-11;  4.0000000E+04;  0.0000000E+00;  3.9907191E+04; -1.9307478E-01;  0.0000000E+00;  9.9484272E-02;  1.1639209E+03;
  7.0473844E-01;  9.9999998E-03;  1.0028395E-02;6747; -1.5029557E-02;  0.0000000E+00;  1.2148081E-03;  9.9551062E+02;  1.1562190E-01; -3.7193489E+03;3; -4.5532675E+00;  0.0000000E+00;  3.3503924E-02;0; -9.3573101E-02;  2.9690674E+04;  0.0000000E+00;  5.0465000E-04;  4.0000000E+04;  0.0000000E+00;  3.9907340E+04; -1.9256975E-01;  0.0000000E+00;  9.8996647E-02;  1.1917035E+03;
  7.0476103E-01;  9.9999998E-03;  2.0054603E-02;6748; -1.4878998E-02;  0.0000000E+00;  2.4251691E-03;  9.9551056E+02;  1.1562708E-01; -3.7193982E+03;3; -4.5172911E+00;  0.0000000E+00;  9.0569153E-02;0; -9.3519501E-02;  2.9687668E+04;  0.0000000E+00;  1.8963289E-03;  4.0000000E+04;  0.0000000E+00;  3.9907918E+04; -1.9106017E-01;  0.0000000E+00;  9.7540669E-02;  1.2683774E+03;
  7.0479679E-01;  9.9999998E-03;  3.0077484E-02;6749; -1.4624116E-02;  0.0000000E+00;  3.6154250E-03;  9.9552325E+02;  1.1563516E-01; -3.7088799E+03;3; -4.4625559E+00;  0.0000000E+00;  1.5390335E-01;0; -9.3422353E-02;  2.9683213E+04;  0.0000000E+00;  3.9064540E-03;  4.0000000E+04;  0.0000000E+00;  3.9909059E+04; -1.8856068E-01;  0.0000000E+00;  9.5138326E-02;  1.3759806E+03;
  7.0484227E-01;  9.9999998E-03;  4.0096235E-02;6750; -1.4263420E-02;  0.0000000E+00;  4.7686440E-03;  9.9554852E+02;  1.1564524E-01; -3.6879424E+03;3; -4.3906193E+00;  0.0000000E+00;  2.3545465E-01;0; -9.3268149E-02;  2.9678162E+04;  0.0000000E+00;  6.3229101E-03;  4.0000000E+04;  0.0000000E+00;  3.9909680E+04; -1.8509652E-01;  0.0000000E+00;  9.1828369E-02;  1.4892426E+03;
  7.0489353E-01;  9.9999998E-03;  5.0111517E-02;6751; -1.3793657E-02;  0.0000000E+00;  5.8733742E-03;  9.9559448E+02;  1.1565779E-01; -3.6498694E+03;3; -4.2987523E+00;  0.0000000E+00;  3.2865974E-01;0; -9.3035035E-02;  2.9673418E+04;  0.0000000E+00;  9.2245936E-03;  4.0000000E+04;  0.0000000E+00;  3.9910402E+04; -1.8070194E-01;  0.0000000E+00;  8.7666906E-02;  1.5813250E+03;
  7.0494568E-01;  9.9999998E-03;  6.0124427E-02;6752; -1.3212251E-02;  0.0000000E+00;  6.9021732E-03;  9.9566632E+02;  1.1567055E-01; -3.5903650E+03;3; -4.1791244E+00;  0.0000000E+00;  4.3749759E-01;0; -9.2691205E-02;  2.9669945E+04;  0.0000000E+00;  1.3166123E-02;  4.0000000E+04;  0.0000000E+00;  3.9910781E+04; -1.7542101E-01;  0.0000000E+00;  8.2729809E-02;  1.6300255E+03;
  7.1804565E-01;  9.9999998E-03; -1.0029016E-01;6797; -1.1866365E-02;  0.0000000E+00; -9.6737379E-03;  9.9644885E+02;  1.1931013E-01; -2.9420376E+03;3; -3.2825770E+00;  0.0000000E+00; -1.0536203E+00;0; -9.6563220E-02;  2.7956734E+04;  0.0000000E+00;  3.7042663E-01;  4.0000000E+04;  0.0000000E+00;  3.9885934E+04; -1.4820401E-01;  0.0000000E+00;  5.1640794E-02;  1.2719438E+03;
  7.1808106E-01;  9.9999998E-03; -9.0270028E-02;6798; -1.3000095E-02;  0.0000000E+00; -9.1002937E-03;  9.9621503E+02;  1.1931047E-01; -3.1357603E+03;3; -3.4767888E+00;  0.0000000E+00; -9.2659974E-01;0; -9.8538965E-02;  2.7942879E+04;  0.0000000E+00;  3.1356719E-01;  4.0000000E+04;  0.0000000E+00;  3.9887305E+04; -1.5684350E-01;  0.0000000E+00;  5.8304533E-02;  1.3842928E+03;
  7.1810126E-01;  9.9999998E-03; -8.0249116E-02;6799; -1.4034928E-02;  0.0000000E+00; -8.4275892E-03;  9.9601593E+02;  1.1931025E-01; -3.3007432E+03;3; -3.6563568E+00;  0.0000000E+00; -7.8714246E-01;0; -1.0010363E-01;  2.7931607E+04;  0.0000000E+00;  2.5639215E-01;  4.0000000E+04;  0.0000000E+00;  3.9888445E+04; -1.6483773E-01;  0.0000000E+00;  6.4734101E-02;  1.5097775E+03;
  7.1810728E-01;  9.9999998E-03; -7.0226982E-02;6800; -1.4958844E-02;  0.0000000E+00; -7.6413709E-03;  9.9585272E+02;  1.1930910E-01; -3.4359490E+03;3; -3.8158691E+00;  0.0000000E+00; -6.3956529E-01;0; -1.0132041E-01;  2.7923330E+04;  0.0000000E+00;  2.0118938E-01;  4.0000000E+04;  0.0000000E+00;  3.9889496E+04; -1.7211169E-01;  0.0000000E+00;  7.0791282E-02;  1.6183856E+03;
  7.1810079E-01;  9.9999998E-03; -6.0203280E-02;6801; -1.5764469E-02;  0.0000000E+00; -6.7487471E-03;  9.9573096E+02;  1.1930643E-01; -3.5368350E+03;3; -3.9596176E+00;  0.0000000E+00; -5.0311500E-01;0; -1.0224906E-01;  2.7917947E+04;  0.0000000E+00;  1.5016292E-01;  4.0000000E+04;  0.0000000E+00;  3.9890121E+04; -1.7859136E-01;  0.0000000E+00;  7.6342292E-02;  1.6877213E+03;
  7.1808600E-01;  9.9999998E-03; -5.0177600E-02;6802; -1.6448278E-02;  0.0000000E+00; -5.7751550E-03;  9.9564343E+02;  1.1930332E-01; -3.6093267E+03;3; -4.0771823E+00;  0.0000000E+00; -4.0638137E-01;0; -1.0294501E-01;  2.7915178E+04;  0.0000000E+00;  1.0517824E-01;  4.0000000E+04;  0.0000000E+00;  3.9890293E+04; -1.8420789E-01;  0.0000000E+00;  8.1262872E-02;  1.7082859E+03;
  7.1806437E-01;  9.9999998E-03; -4.0148389E-02;6803; -1.7006759E-02;  0.0000000E+00; -4.7255279E-03;  9.9558716E+02;  1.1929952E-01; -3.6559426E+03;3; -4.1736288E+00;  0.0000000E+00; -3.0529284E-01;0; -1.0345251E-01;  2.7914670E+04;  0.0000000E+00;  6.7537189E-02;  4.0000000E+04;  0.0000000E+00;  3.9890062E+04; -1.8889788E-01;  0.0000000E+00;  8.5445367E-02;  1.6840577E+03;
  7.1803874E-01;  9.9999998E-03; -3.0115126E-02;6804; -1.7438851E-02;  0.0000000E+00; -3.6123926E-03;  9.9555176E+02;  1.1929509E-01; -3.6852751E+03;3; -4.2475438E+00;  0.0000000E+00; -2.1484794E-01;0; -1.0380723E-01;  2.7915629E+04;  0.0000000E+00;  3.7992977E-02;  4.0000000E+04;  0.0000000E+00;  3.9889754E+04; -1.9260584E-01;  0.0000000E+00;  8.8798612E-02;  1.6304630E+03;
  7.1801442E-01;  9.9999998E-03; -2.0078920E-02;6805; -1.7743034E-02;  0.0000000E+00; -2.4419148E-03;  9.9553741E+02;  1.1929139E-01; -3.6971760E+03;3; -4.2947826E+00;  0.0000000E+00; -1.2983796E-01;0; -1.0403850E-01;  2.7917391E+04;  0.0000000E+00;  1.6861834E-02;  4.0000000E+04;  0.0000000E+00;  3.9889199E+04; -1.9528684E-01;  0.0000000E+00;  9.1248341E-02;  1.5690847E+03;
  7.1799713E-01;  9.9999998E-03; -1.0040448E-02;6806; -1.7923214E-02;  0.0000000E+00; -1.2284722E-03;  9.9552539E+02;  1.1928820E-01; -3.7071016E+03;3; -4.3222675E+00;  0.0000000E+00; -6.1289068E-02;0; -1.0416809E-01;  2.7918848E+04;  0.0000000E+00;  4.2092120E-03;  4.0000000E+04;  0.0000000E+00;  3.9889004E+04; -1.9690840E-01;  0.0000000E+00;  9.2740312E-02;  1.5214630E+03;
  7.1799093E-01;  9.9999998E-03;  3.7157746E-10;6807; -1.7981978E-02;  0.0000000E+00;  3.0248167E-08;  9.9552399E+02;  1.1928692E-01; -3.7082869E+03;3; -4.3256721E+00;  0.0000000E+00; -7.2600851E-06;0; -1.0420977E-01;  2.7919418E+04;  0.0000000E+00; -3.3327976E-11;  4.0000000E+04;  0.0000000E+00;  3.9888723E+04; -1.9745110E-01;  0.0000000E+00;  9.3241334E-02;  1.5036249E+03;
  7.1799713E-01;  9.9999998E-03;  1.0040449E-02;6808; -1.7923212E-02;  0.0000000E+00;  1.2285347E-03;  9.9552545E+02;  1.1928800E-01; -3.7070522E+03;3; -4.3221593E+00;  0.0000000E+00;  6.1270360E-02;0; -1.0416796E-01;  2.7918850E+04;  0.0000000E+00;  4.2098192E-03;  4.0000000E+04;  0.0000000E+00;  3.9889000E+04; -1.9690825E-01;  0.0000000E+00;  9.2740290E-02;  1.5214514E+03;
  7.1801442E-01;  9.9999998E-03;  2.0078922E-02;6809; -1.7743034E-02;  0.0000000E+00;  2.4419818E-03;  9.9553735E+02;  1.1929139E-01; -3.6972253E+03;3; -4.2947588E+00;  0.0000000E+00;  1.2983279E-01;0; -1.0403843E-01;  2.7917398E+04;  0.0000000E+00;  1.6863164E-02;  4.0000000E+04;  0.0000000E+00;  3.9889199E+04; -1.9528681E-01;  0.0000000E+00;  9.1248378E-02;  1.5690801E+03;
  7.1803874E-01;  9.9999998E-03;  3.0115126E-02;6810; -1.7438849E-02;  0.0000000E+00;  3.6124592E-03;  9.9555182E+02;  1.1929507E-01; -3.6852258E+03;3; -4.2474899E+00;  0.0000000E+00;  2.1483788E-01;0; -1.0380729E-01;  2.7915631E+04;  0.0000000E+00;  3.7993871E-02;  4.0000000E+04;  0.0000000E+00;  3.9889754E+04; -1.9260596E-01;  0.0000000E+00;  8.8798672E-02;  1.6304663E+03;
  7.1806437E-01;  9.9999998E-03;  4.0148392E-02;6811; -1.7006764E-02;  0.0000000E+00;  4.7255973E-03;  9.9558722E+02;  1.1929952E-01; -3.6558933E+03;3; -4.1736941E+00;  0.0000000E+00;  3.0527827E-01;0; -1.0345229E-01;  2.7914668E+04;  0.0000000E+00;  6.7537345E-02;  4.0000000E+04;  0.0000000E+00;  3.9890055E+04; -1.8889777E-01;  0.0000000E+00;  8.5445486E-02;  1.6840588E+03;
  7.1808600E-01;  9.9999998E-03;  5.0177600E-02;6812; -1.6448285E-02;  0.0000000E+00;  5.7752249E-03;  9.9564331E+02;  1.1930332E-01; -3.6094255E+03;3; -4.0772400E+00;  0.0000000E+00;  4.0636846E-01;0; -1.0294507E-01;  2.7915174E+04;  0.0000000E+00;  1.0517765E-01;  4.0000000E+04;  0.0000000E+00;  3.9890293E+04; -1.8420792E-01;  0.0000000E+00;  8.1262842E-02;  1.7082688E+03;
  7.1810079E-01;  9.9999998E-03;  6.0203280E-02;6813; -1.5764477E-02;  0.0000000E+00;  6.7488193E-03;  9.9573083E+02;  1.1930644E-01; -3.5369338E+03;3; -3.9596252E+00;  0.0000000E+00;  5.0311446E-01;0; -1.0224926E-01;  2.7917939E+04;  0.0000000E+00;  1.5016367E-01;  4.0000000E+04;  0.0000000E+00;  3.9890121E+04; -1.7859158E-01;  0.0000000E+00;  7.6342322E-02;  1.6877156E+03;
  7.3020297E-01;  9.9999998E-03; -1.0029424E-01;6858; -1.3794701E-02;  0.0000000E+00; -9.1194222E-03;  9.9703058E+02;  1.2296849E-01; -2.4601252E+03;3; -3.0463076E+00;  0.0000000E+00; -1.1706700E+00;0; -1.0361314E-01;  2.6371441E+04;  0.0000000E+00;  5.7289797E-01;  4.0000000E+04;  0.0000000E+00;  3.9864586E+04; -1.4922698E-01;  0.0000000E+00;  4.5613836E-02;  1.5139613E+03;
  7.3024106E-01;  9.9999998E-03; -9.0265855E-02;6859; -1.5062152E-02;  0.0000000E+00; -8.6126039E-03;  9.9683612E+02;  1.2296868E-01; -2.6212068E+03;3; -3.2500155E+00;  0.0000000E+00; -1.0329348E+00;0; -1.0628037E-01;  2.6360176E+04;  0.0000000E+00;  5.0001532E-01;  4.0000000E+04;  0.0000000E+00;  3.9866531E+04; -1.5817477E-01;  0.0000000E+00;  5.1894397E-02;  1.5894612E+03;
  7.3026204E-01;  9.9999998E-03; -8.0237374E-02;6860; -1.6224956E-02;  0.0000000E+00; -8.0089662E-03;  9.9667291E+02;  1.2296711E-01; -2.7564128E+03;3; -3.4344900E+00;  0.0000000E+00; -9.0343827E-01;0; -1.0845311E-01;  2.6350775E+04;  0.0000000E+00;  4.1676551E-01;  4.0000000E+04;  0.0000000E+00;  3.9868547E+04; -1.6644509E-01;  0.0000000E+00;  5.7991985E-02;  1.6942594E+03;
  7.3026603E-01;  9.9999998E-03; -7.0209123E-02;6861; -1.7269619E-02;  0.0000000E+00; -7.2985301E-03;  9.9653772E+02;  1.2296534E-01; -2.8684094E+03;3; -3.5991392E+00;  0.0000000E+00; -7.5663942E-01;0; -1.1019301E-01;  2.6343877E+04;  0.0000000E+00;  3.3009425E-01;  4.0000000E+04;  0.0000000E+00;  3.9870012E+04; -1.7396970E-01;  0.0000000E+00;  6.3776687E-02;  1.8094657E+03;
  7.3025668E-01;  9.9999998E-03; -6.0180958E-02;6862; -1.8185774E-02;  0.0000000E+00; -6.4818827E-03;  9.9644427E+02;  1.2296341E-01; -2.9458394E+03;3; -3.7434804E+00;  0.0000000E+00; -6.1561686E-01;0; -1.1156242E-01;  2.6339174E+04;  0.0000000E+00;  2.4677573E-01;  4.0000000E+04;  0.0000000E+00;  3.9871480E+04; -1.8067771E-01;  0.0000000E+00;  6.9115289E-02;  1.9109341E+03;
  7.3023772E-01;  9.9999998E-03; -5.0153658E-02;6863; -1.8965974E-02;  0.0000000E+00; -5.5674859E-03;  9.9637585E+02;  1.2296049E-01; -3.0025291E+03;3; -3.8665309E+00;  0.0000000E+00; -4.8315197E-01;0; -1.1261766E-01;  2.6336820E+04;  0.0000000E+00;  1.7219132E-01;  4.0000000E+04;  0.0000000E+00;  3.9872484E+04; -1.8649763E-01;  0.0000000E+00;  7.3879972E-02;  1.9810898E+03;
  7.3021442E-01;  9.9999998E-03; -4.0127225E-02;6864; -1.9606832E-02;  0.0000000E+00; -4.5677633E-03;  9.9633368E+02;  1.2295743E-01; -3.0374910E+03;3; -3.9657600E+00;  0.0000000E+00; -3.7634805E-01;0; -1.1341021E-01;  2.6335928E+04;  0.0000000E+00;  1.0979954E-01;  4.0000000E+04;  0.0000000E+00;  3.9872625E+04; -1.9136359E-01;  0.0000000E+00;  7.7953376E-02;  2.0143779E+03;
  7.3018992E-01;  9.9999998E-03; -3.0099327E-02;6865; -2.0106591E-02;  0.0000000E+00; -3.4999612E-03;  9.9630811E+02;  1.2295497E-01; -3.0586755E+03;3; -4.0443950E+00;  0.0000000E+00; -2.6463082E-01;0; -1.1398143E-01;  2.6336285E+04;  0.0000000E+00;  6.1261676E-02;  4.0000000E+04;  0.0000000E+00;  3.9872848E+04; -1.9521698E-01;  0.0000000E+00;  8.1235558E-02;  2.0168132E+03;
  7.3016757E-01;  9.9999998E-03; -2.0069025E-02;6866; -2.0461813E-02;  0.0000000E+00; -2.3731408E-03;  9.9629474E+02;  1.2295201E-01; -3.0697368E+03;3; -4.0958667E+00;  0.0000000E+00; -1.7785746E-01;0; -1.1436391E-01;  2.6337170E+04;  0.0000000E+00;  2.6985506E-02;  4.0000000E+04;  0.0000000E+00;  3.9872711E+04; -1.9800778E-01;  0.0000000E+00;  8.3643869E-02;  2.0017964E+03;
  7.3015183E-01;  9.9999998E-03; -1.0035984E-02;6867; -2.0673538E-02;  0.0000000E+00; -1.1984910E-03;  9.9629071E+02;  1.2294959E-01; -3.0730947E+03;3; -4.1250000E+00;  0.0000000E+00; -8.0298401E-02;0; -1.1458297E-01;  2.6338102E+04;  0.0000000E+00;  6.7016403E-03;  4.0000000E+04;  0.0000000E+00;  3.9872641E+04; -1.9969848E-01;  0.0000000E+00;  8.5115507E-02;  1.9844652E+03;
  7.3014635E-01;  9.9999998E-03;  4.9761789E-10;6868; -2.0743527E-02;  0.0000000E+00;  3.1564706E-08;  9.9628802E+02;  1.2294895E-01; -3.0753169E+03;3; -4.1355720E+00;  0.0000000E+00; -7.5393277E-06;0; -1.1465414E-01;  2.6338438E+04;  0.0000000E+00; -1.4807888E-11;  4.0000000E+04;  0.0000000E+00;  3.9872590E+04; -2.0026472E-01;  0.0000000E+00;  8.5610583E-02;  1.9770854E+03;
  7.3015183E-01;  9.9999998E-03;  1.0035985E-02;6869; -2.0673539E-02;  0.0000000E+00;  1.1985537E-03;  9.9629089E+02;  1.2295000E-01; -3.0728972E+03;3; -4.1250048E+00;  0.0000000E+00;  8.0271162E-02;0; -1.1458288E-01;  2.6338102E+04;  0.0000000E+00;  6.7014643E-03;  4.0000000E+04;  0.0000000E+00;  3.9872641E+04; -1.9969843E-01;  0.0000000E+00;  8.5115552E-02;  1.9844540E+03;
  7.3016757E-01;  9.9999998E-03;  2.0069027E-02;6870; -2.0461822E-02;  0.0000000E+00;  2.3732069E-03;  9.9629468E+02;  1.2295176E-01; -3.0697861E+03;3; -4.0959396E+00;  0.0000000E+00;  1.7784078E-01;0; -1.1436418E-01;  2.6337174E+04;  0.0000000E+00;  2.6985116E-02;  4.0000000E+04;  0.0000000E+00;  3.9872711E+04; -1.9800811E-01;  0.0000000E+00;  8.3643928E-02;  2.0017811E+03;
  7.3018992E-01;  9.9999998E-03;  3.0099329E-02;6871; -2.0106595E-02;  0.0000000E+00;  3.5000311E-03;  9.9630835E+02;  1.2295496E-01; -3.0584780E+03;3; -4.0444155E+00;  0.0000000E+00;  2.6461175E-01;0; -1.1398141E-01;  2.6336285E+04;  0.0000000E+00;  6.1260357E-02;  4.0000000E+04;  0.0000000E+00;  3.9872844E+04; -1.9521697E-01;  0.0000000E+00;  8.1235558E-02;  2.0168330E+03;
  7.3021442E-01;  9.9999998E-03;  4.0127225E-02;6872; -1.9606836E-02;  0.0000000E+00;  4.5678373E-03;  9.9633368E+02;  1.2295743E-01; -3.0374910E+03;3; -3.9657602E+00;  0.0000000E+00;  3.7633222E-01;0; -1.1341027E-01;  2.6335928E+04;  0.0000000E+00;  1.0979801E-01;  4.0000000E+04;  0.0000000E+00;  3.9872617E+04; -1.9136368E-01;  0.0000000E+00;  7.7953406E-02;  2.0143884E+03;
  7.3023772E-01;  9.9999998E-03;  5.0153658E-02;6873; -1.8965982E-02;  0.0000000E+00;  5.5675600E-03;  9.9637592E+02;  1.2296023E-01; -3.0024795E+03;3; -3.8665106E+00;  0.0000000E+00;  4.8311850E-01;0; -1.1261777E-01;  2.6336816E+04;  0.0000000E+00;  1.7219058E-01;  4.0000000E+04;  0.0000000E+00;  3.9872484E+04; -1.8649776E-01;  0.0000000E+00;  7.3879994E-02;  1.9810905E+03;
  7.3025668E-01;  9.9999998E-03;  6.0180962E-02;6874; -1.8185785E-02;  0.0000000E+00;  6.4819567E-03;  9.9644427E+02;  1.2296271E-01; -2.9458394E+03;3; -3.7435422E+00;  0.0000000E+00;  6.1560071E-01;0; -1.1156233E-01;  2.6339170E+04;  0.0000000E+00;  2.4677384E-01;  4.0000000E+04;  0.0000000E+00;  3.9871480E+04; -1.8067770E-01;  0.0000000E+00;  6.9115363E-02;  1.9109213E+03;
  7.4235344E-01;  9.9999998E-03; -1.0028815E-01;6919; -1.5707979E-02;  0.0000000E+00; -8.3643161E-03;  9.9765594E+02;  1.2681669E-01; -1.9420166E+03;3; -2.8211844E+00;  0.0000000E+00; -1.2793177E+00;0; -1.1112875E-01;  2.4845674E+04;  0.0000000E+00;  6.4161801E-01;  4.0000000E+04;  0.0000000E+00;  3.9844191E+04; -1.4996019E-01;  0.0000000E+00;  3.8831443E-02;  1.7690620E+03;
  7.4240977E-01;  9.9999998E-03; -9.0252176E-02;6920; -1.7116319E-02;  0.0000000E+00; -7.9301773E-03;  9.9755341E+02;  1.2681960E-01; -2.0269524E+03;3; -3.0366712E+00;  0.0000000E+00; -1.1192036E+00;0; -1.1457554E-01;  2.4836828E+04;  0.0000000E+00;  5.7209826E-01;  4.0000000E+04;  0.0000000E+00;  3.9846891E+04; -1.5913063E-01;  0.0000000E+00;  4.4555102E-02;  1.8678079E+03;
  7.4245107E-01;  9.9999998E-03; -8.0217019E-02;6921; -1.8415853E-02;  0.0000000E+00; -7.3963939E-03;  9.9746844E+02;  1.2682231E-01; -2.0973208E+03;3; -3.2401583E+00;  0.0000000E+00; -9.7053766E-01;0; -1.1744641E-01;  2.4829059E+04;  0.0000000E+00;  4.8263717E-01;  4.0000000E+04;  0.0000000E+00;  3.9849508E+04; -1.6758260E-01;  0.0000000E+00;  5.0136197E-02;  1.9909884E+03;
  7.4247873E-01;  9.9999998E-03; -7.0183113E-02;6922; -1.9590700E-02;  0.0000000E+00; -6.7688138E-03;  9.9740558E+02;  1.2682430E-01; -2.1494180E+03;3; -3.4040802E+00;  0.0000000E+00; -8.3627564E-01;0; -1.1980449E-01;  2.4822723E+04;  0.0000000E+00;  3.8396746E-01;  4.0000000E+04;  0.0000000E+00;  3.9851734E+04; -1.7526039E-01;  0.0000000E+00;  5.5455908E-02;  2.1310317E+03;
  7.4249715E-01;  9.9999998E-03; -6.0152601E-02;6923; -2.0629020E-02;  0.0000000E+00; -6.0344031E-03;  9.9736279E+02;  1.2682810E-01; -2.1848738E+03;3; -3.5500927E+00;  0.0000000E+00; -6.9888252E-01;0; -1.2171240E-01;  2.4817629E+04;  0.0000000E+00;  2.8669319E-01;  4.0000000E+04;  0.0000000E+00;  3.9853590E+04; -1.8210012E-01;  0.0000000E+00;  6.0387712E-02;  2.2688647E+03;
  7.4250460E-01;  9.9999998E-03; -5.0125178E-02;6924; -2.1520054E-02;  0.0000000E+00; -5.2048252E-03;  9.9734247E+02;  1.2683144E-01; -2.2017126E+03;3; -3.6705110E+00;  0.0000000E+00; -5.7320875E-01;0; -1.2322239E-01;  2.4814248E+04;  0.0000000E+00;  1.9903065E-01;  4.0000000E+04;  0.0000000E+00;  3.9854930E+04; -1.8803456E-01;  0.0000000E+00;  6.4812176E-02;  2.3859377E+03;
  7.4250394E-01;  9.9999998E-03; -4.0100273E-02;6925; -2.2256365E-02;  0.0000000E+00; -4.2872676E-03;  9.9733820E+02;  1.2683319E-01; -2.2052681E+03;3; -3.7687569E+00;  0.0000000E+00; -4.3751082E-01;0; -1.2438450E-01;  2.4812229E+04;  0.0000000E+00;  1.2601574E-01;  4.0000000E+04;  0.0000000E+00;  3.9855941E+04; -1.9299833E-01;  0.0000000E+00;  6.8613835E-02;  2.4726213E+03;
  7.4249893E-01;  9.9999998E-03; -3.0077318E-02;6926; -2.2832084E-02;  0.0000000E+00; -3.2915382E-03;  9.9734204E+02;  1.2683560E-01; -2.2020583E+03;3; -3.8446679E+00;  0.0000000E+00; -3.1592757E-01;0; -1.2524110E-01;  2.4811275E+04;  0.0000000E+00;  6.9806583E-02;  4.0000000E+04;  0.0000000E+00;  3.9856480E+04; -1.9693071E-01;  0.0000000E+00;  7.1689606E-02;  2.5284902E+03;
  7.4249363E-01;  9.9999998E-03; -2.0054666E-02;6927; -2.3245580E-02;  0.0000000E+00; -2.2380259E-03;  9.9734796E+02;  1.2683600E-01; -2.1971697E+03;3; -3.8969984E+00;  0.0000000E+00; -2.0549628E-01;0; -1.2582855E-01;  2.4810730E+04;  0.0000000E+00;  3.0572833E-02;  4.0000000E+04;  0.0000000E+00;  3.9856668E+04; -1.9978078E-01;  0.0000000E+00;  7.3952228E-02;  2.5590928E+03;
  7.4248976E-01;  9.9999998E-03; -1.0029415E-02;6928; -2.3493251E-02;  0.0000000E+00; -1.1325851E-03;  9.9735602E+02;  1.2683789E-01; -2.1905032E+03;3; -3.9264951E+00;  0.0000000E+00; -9.5953651E-02;0; -1.2617102E-01;  2.4810527E+04;  0.0000000E+00;  7.5666062E-03;  4.0000000E+04;  0.0000000E+00;  3.9856633E+04; -2.0150837E-01;  0.0000000E+00;  7.5337350E-02;  2.5723499E+03;
  7.4248821E-01;  9.9999998E-03;  6.4285238E-10;6929; -2.3576044E-02;  0.0000000E+00;  3.3758059E-08;  9.9735712E+02;  1.2683794E-01; -2.1895649E+03;3; -3.9357047E+00;  0.0000000E+00; -6.8059894E-06;0; -1.2628345E-01;  2.4810500E+04;  0.0000000E+00;  6.5441407E-12;  4.0000000E+04;  0.0000000E+00;  3.9856773E+04; -2.0208746E-01;  0.0000000E+00;  7.5804010E-02;  2.5757703E+03;
  7.4248976E-01;  9.9999998E-03;  1.0029417E-02;6930; -2.3493253E-02;  0.0000000E+00;  1.1326537E-03;  9.9735602E+02;  1.2683730E-01; -2.1905032E+03;3; -3.9264565E+00;  0.0000000E+00;  9.5938638E-02;0; -1.2617068E-01;  2.4810525E+04;  0.0000000E+00;  7.5657568E-03;  4.0000000E+04;  0.0000000E+00;  3.9856633E+04; -2.0150813E-01;  0.0000000E+00;  7.5337455E-02;  2.5723586E+03;
  7.4249363E-01;  9.9999998E-03;  2.0054668E-02;6931; -2.3245586E-02;  0.0000000E+00;  2.2380957E-03;  9.9734790E+02;  1.2683608E-01; -2.1972190E+03;3; -3.8970008E+00;  0.0000000E+00;  2.0547508E-01;0; -1.2582861E-01;  2.4810732E+04;  0.0000000E+00;  3.0571094E-02;  4.0000000E+04;  0.0000000E+00;  3.9856664E+04; -1.9978085E-01;  0.0000000E+00;  7.3952243E-02;  2.5591069E+03;
  7.4249893E-01;  9.9999998E-03;  3.0077320E-02;6932; -2.2832090E-02;  0.0000000E+00;  3.2916106E-03;  9.9734204E+02;  1.2683499E-01; -2.2020583E+03;3; -3.8447251E+00;  0.0000000E+00;  3.1591305E-01;0; -1.2524113E-01;  2.4811277E+04;  0.0000000E+00;  6.9804706E-02;  4.0000000E+04;  0.0000000E+00;  3.9856480E+04; -1.9693075E-01;  0.0000000E+00;  7.1689621E-02;  2.5284792E+03;
  7.4250394E-01;  9.9999998E-03;  4.0100273E-02;6933; -2.2256371E-02;  0.0000000E+00;  4.2873430E-03;  9.9733813E+02;  1.2683287E-01; -2.2053176E+03;3; -3.7687368E+00;  0.0000000E+00;  4.3747050E-01;0; -1.2438428E-01;  2.4812232E+04;  0.0000000E+00;  1.2601374E-01;  4.0000000E+04;  0.0000000E+00;  3.9855941E+04; -1.9299823E-01;  0.0000000E+00;  6.8613946E-02;  2.4726179E+03;
  7.4250454E-01;  9.9999998E-03;  5.0125182E-02;6934; -2.1520056E-02;  0.0000000E+00;  5.2049020E-03;  9.9734253E+02;  1.2683111E-01; -2.2016633E+03;3; -3.6704729E+00;  0.0000000E+00;  5.7319140E-01;0; -1.2322203E-01;  2.4814246E+04;  0.0000000E+00;  1.9902483E-01;  4.0000000E+04;  0.0000000E+00;  3.9854930E+04; -1.8803425E-01;  0.0000000E+00;  6.4812221E-02;  2.3859534E+03;
  7.4249715E-01;  9.9999998E-03;  6.0152605E-02;6935; -2.0629030E-02;  0.0000000E+00;  6.0344809E-03;  9.9736285E+02;  1.2682773E-01; -2.1848242E+03;3; -3.5500801E+00;  0.0000000E+00;  6.9884998E-01;0; -1.2171245E-01;  2.4817633E+04;  0.0000000E+00;  2.8668883E-01;  4.0000000E+04;  0.0000000E+00;  3.9853590E+04; -1.8210016E-01;  0.0000000E+00;  6.0387716E-02;  2.2688547E+03;
  7.5531191E-01;  9.9999998E-03; -1.0030147E-01;6980; -1.7680937E-02;  0.0000000E+00; -7.3020123E-03;  9.9841528E+02;  1.3108593E-01; -1.3128990E+03;3; -2.5878263E+00;  0.0000000E+00; -1.4093543E+00;0; -1.2014452E-01;  2.3305156E+04;  0.0000000E+00;  5.4936182E-01;  4.0000000E+04;  0.0000000E+00;  3.9823727E+04; -1.5074702E-01;  0.0000000E+00;  3.0602491E-02;  1.8537806E+03;
  7.5539809E-01;  9.9999998E-03; -9.0261154E-02;6981; -1.9241935E-02;  0.0000000E+00; -6.9354032E-03;  9.9842963E+02;  1.3109300E-01; -1.3009982E+03;3; -2.8064539E+00;  0.0000000E+00; -1.2746884E+00;0; -1.2450249E-01;  2.3298535E+04;  0.0000000E+00;  5.0233883E-01;  4.0000000E+04;  0.0000000E+00;  3.9827016E+04; -1.6004710E-01;  0.0000000E+00;  3.5544600E-02;  2.0663381E+03;
  7.5545567E-01;  9.9999998E-03; -8.0221586E-02;6982; -2.0686736E-02;  0.0000000E+00; -6.4795492E-03;  9.9844366E+02;  1.3109750E-01; -1.2893936E+03;3; -3.0036857E+00;  0.0000000E+00; -1.1197495E+00;0; -1.2818803E-01;  2.3293205E+04;  0.0000000E+00;  4.2901081E-01;  4.0000000E+04;  0.0000000E+00;  3.9830094E+04; -1.6857830E-01;  0.0000000E+00;  4.0390264E-02;  2.2773315E+03;
  7.5547850E-01;  9.9999998E-03; -7.0186235E-02;6983; -2.1997694E-02;  0.0000000E+00; -5.9371158E-03;  9.9845795E+02;  1.3109714E-01; -1.2775421E+03;3; -3.1825202E+00;  0.0000000E+00; -9.7767001E-01;0; -1.3125269E-01;  2.3290189E+04;  0.0000000E+00;  3.4215704E-01;  4.0000000E+04;  0.0000000E+00;  3.9832652E+04; -1.7629865E-01;  0.0000000E+00;  4.5045957E-02;  2.4791868E+03;
  7.5547069E-01;  9.9999998E-03; -6.0156632E-02;6984; -2.3158951E-02;  0.0000000E+00; -5.3141722E-03;  9.9847437E+02;  1.3109307E-01; -1.2639623E+03;3; -3.3334422E+00;  0.0000000E+00; -8.2507658E-01;0; -1.3375390E-01;  2.3289387E+04;  0.0000000E+00;  2.5435895E-01;  4.0000000E+04;  0.0000000E+00;  3.9834730E+04; -1.8315773E-01;  0.0000000E+00;  4.9403831E-02;  2.6607786E+03;
  7.5544369E-01;  9.9999998E-03; -5.0129972E-02;6985; -2.4157396E-02;  0.0000000E+00; -4.5942804E-03;  9.9849695E+02;  1.3108607E-01; -1.2452467E+03;3; -3.4621689E+00;  0.0000000E+00; -6.7357016E-01;0; -1.3575353E-01;  2.3290189E+04;  0.0000000E+00;  1.7502850E-01;  4.0000000E+04;  0.0000000E+00;  3.9836621E+04; -1.8910091E-01;  0.0000000E+00;  5.3347375E-02;  2.8150508E+03;
  7.5540912E-01;  9.9999998E-03; -4.0103890E-02;6986; -2.4986202E-02;  0.0000000E+00; -3.7952345E-03;  9.9851855E+02;  1.3107908E-01; -1.2273707E+03;3; -3.5674884E+00;  0.0000000E+00; -5.3994787E-01;0; -1.3730887E-01;  2.3291826E+04;  0.0000000E+00;  1.0958666E-01;  4.0000000E+04;  0.0000000E+00;  3.9837836E+04; -1.9406947E-01;  0.0000000E+00;  5.6760602E-02;  2.9404297E+03;
  7.5537407E-01;  9.9999998E-03; -3.0079503E-02;6987; -2.5636798E-02;  0.0000000E+00; -2.9224742E-03;  9.9854230E+02;  1.3107242E-01; -1.2076676E+03;3; -3.6438870E+00;  0.0000000E+00; -3.9897513E-01;0; -1.3846593E-01;  2.3293734E+04;  0.0000000E+00;  6.0031012E-02;  4.0000000E+04;  0.0000000E+00;  3.9838703E+04; -1.9800459E-01;  0.0000000E+00;  5.9538659E-02;  3.0373638E+03;
  7.5534439E-01;  9.9999998E-03; -2.0056648E-02;6988; -2.6105458E-02;  0.0000000E+00; -1.9877234E-03;  9.9856226E+02;  1.3106747E-01; -1.1911249E+03;3; -3.6979582E+00;  0.0000000E+00; -2.7280036E-01;0; -1.3926332E-01;  2.3295396E+04;  0.0000000E+00;  2.6058547E-02;  4.0000000E+04;  0.0000000E+00;  3.9839273E+04; -2.0085576E-01;  0.0000000E+00;  6.1592441E-02;  3.1059282E+03;
  7.5532264E-01;  9.9999998E-03; -1.0031211E-02;6989; -2.6388969E-02;  0.0000000E+00; -1.0085134E-03;  9.9857422E+02;  1.3106379E-01; -1.1812487E+03;3; -3.7308919E+00;  0.0000000E+00; -1.4966895E-01;0; -1.3972701E-01;  2.3296604E+04;  0.0000000E+00;  6.4163934E-03;  4.0000000E+04;  0.0000000E+00;  3.9839746E+04; -2.0258337E-01;  0.0000000E+00;  6.2856361E-02;  3.1463623E+03;
  7.5531423E-01;  9.9999998E-03;  5.2337745E-10;6990; -2.6483474E-02;  0.0000000E+00;  3.6916134E-08;  9.9858020E+02;  1.3106270E-01; -1.1762611E+03;3; -3.7365940E+00;  0.0000000E+00; -3.4275879E-06;0; -1.3987911E-01;  2.3297100E+04;  0.0000000E+00;  2.4987776E-11;  4.0000000E+04;  0.0000000E+00;  3.9839711E+04; -2.0316291E-01;  0.0000000E+00;  6.3283801E-02;  3.1596641E+03;
  7.5532264E-01;  9.9999998E-03;  1.0031213E-02;6991; -2.6388973E-02;  0.0000000E+00;  1.0085861E-03;  9.9857422E+02;  1.3106379E-01; -1.1812487E+03;3; -3.7308526E+00;  0.0000000E+00;  1.4964011E-01;0; -1.3972718E-01;  2.3296602E+04;  0.0000000E+00;  6.4148377E-03;  4.0000000E+04;  0.0000000E+00;  3.9839750E+04; -2.0258352E-01;  0.0000000E+00;  6.2856346E-02;  3.1463801E+03;
  7.5534439E-01;  9.9999998E-03;  2.0056650E-02;6992; -2.6105458E-02;  0.0000000E+00;  1.9878007E-03;  9.9856226E+02;  1.3106745E-01; -1.1911249E+03;3; -3.6979871E+00;  0.0000000E+00;  2.7278724E-01;0; -1.3926312E-01;  2.3295400E+04;  0.0000000E+00;  2.6055921E-02;  4.0000000E+04;  0.0000000E+00;  3.9839277E+04; -2.0085561E-01;  0.0000000E+00;  6.1592497E-02;  3.1058938E+03;
  7.5537407E-01;  9.9999998E-03;  3.0079504E-02;6993; -2.5636805E-02;  0.0000000E+00;  2.9225484E-03;  9.9854211E+02;  1.3107251E-01; -1.2078158E+03;3; -3.6438978E+00;  0.0000000E+00;  3.9895362E-01;0; -1.3846609E-01;  2.3293736E+04;  0.0000000E+00;  6.0027197E-02;  4.0000000E+04;  0.0000000E+00;  3.9838703E+04; -1.9800474E-01;  0.0000000E+00;  5.9538655E-02;  3.0373479E+03;
  7.5540912E-01;  9.9999998E-03;  4.0103894E-02;6994; -2.4986209E-02;  0.0000000E+00;  3.7953136E-03;  9.9851862E+02;  1.3107881E-01; -1.2273214E+03;3; -3.5674660E+00;  0.0000000E+00;  5.3991443E-01;0; -1.3730888E-01;  2.3291824E+04;  0.0000000E+00;  1.0958281E-01;  4.0000000E+04;  0.0000000E+00;  3.9837836E+04; -1.9406953E-01;  0.0000000E+00;  5.6760654E-02;  2.9404299E+03;
  7.5544369E-01;  9.9999998E-03;  5.0129972E-02;6995; -2.4157405E-02;  0.0000000E+00;  4.5943619E-03;  9.9849701E+02;  1.3108566E-01; -1.2451974E+03;3; -3.4621809E+00;  0.0000000E+00;  6.7354935E-01;0; -1.3575351E-01;  2.3290186E+04;  0.0000000E+00;  1.7502433E-01;  4.0000000E+04;  0.0000000E+00;  3.9836617E+04; -1.8910085E-01;  0.0000000E+00;  5.3347342E-02;  2.8150593E+03;
  7.5547069E-01;  9.9999998E-03;  6.0156632E-02;6996; -2.3158966E-02;  0.0000000E+00;  5.3142523E-03;  9.9847443E+02;  1.3109291E-01; -1.2639128E+03;3; -3.3334703E+00;  0.0000000E+00;  8.2503480E-01;0; -1.3375403E-01;  2.3289385E+04;  0.0000000E+00;  2.5435331E-01;  4.0000000E+04;  0.0000000E+00;  3.9834734E+04; -1.8315785E-01;  0.0000000E+00;  4.9403820E-02;  2.6607783E+03;
  7.6914144E-01;  9.9999998E-03; -1.0011992E-01;7041; -1.9756060E-02;  0.0000000E+00; -5.8320058E-03;  9.9938043E+02;  1.3590510E-01; -5.1331787E+02;3; -2.3649094E+00;  0.0000000E+00; -1.5026381E+00;0; -1.3168456E-01;  2.1735539E+04;  0.0000000E+00;  2.8515640E-01;  4.0000000E+04;  0.0000000E+00;  3.9803180E+04; -1.5223321E-01;  0.0000000E+00;  2.0548657E-02;  1.8430210E+03;
  7.6931363E-01;  9.9999998E-03; -9.0088256E-02;7042; -2.1479750E-02;  0.0000000E+00; -5.5183028E-03;  9.9949799E+02;  1.3593638E-01; -4.1588870E+02;3; -2.5970287E+00;  0.0000000E+00; -1.3623221E+00;0; -1.3709581E-01;  2.1724500E+04;  0.0000000E+00;  2.7309048E-01;  4.0000000E+04;  0.0000000E+00;  3.9806535E+04; -1.6151436E-01;  0.0000000E+00;  2.4418546E-02;  2.2287974E+03;
  7.6944906E-01;  9.9999998E-03; -8.0062002E-02;7043; -2.3081828E-02;  0.0000000E+00; -5.1517072E-03;  9.9960352E+02;  1.3596077E-01; -3.2848389E+02;3; -2.7978375E+00;  0.0000000E+00; -1.2247041E+00;0; -1.4174993E-01;  2.1715697E+04;  0.0000000E+00;  2.3673876E-01;  4.0000000E+04;  0.0000000E+00;  3.9809484E+04; -1.6997017E-01;  0.0000000E+00;  2.8220242E-02;  2.5532607E+03;
  7.6954830E-01;  9.9999998E-03; -7.0041843E-02;7044; -2.4542458E-02;  0.0000000E+00; -4.7109136E-03;  9.9969061E+02;  1.3597663E-01; -2.5633792E+02;3; -2.9823050E+00;  0.0000000E+00; -1.0437621E+00;0; -1.4569989E-01;  2.1709064E+04;  0.0000000E+00;  1.8750556E-01;  4.0000000E+04;  0.0000000E+00;  3.9811934E+04; -1.7758103E-01;  0.0000000E+00;  3.1881131E-02;  2.8120027E+03;
  7.6961571E-01;  9.9999998E-03; -6.0027108E-02;7045; -2.5844336E-02;  0.0000000E+00; -4.2042709E-03;  9.9976874E+02;  1.3598759E-01; -1.9159914E+02;3; -3.1401534E+00;  0.0000000E+00; -8.9078104E-01;0; -1.4899717E-01;  2.1704473E+04;  0.0000000E+00;  1.3620836E-01;  4.0000000E+04;  0.0000000E+00;  3.9813816E+04; -1.8431470E-01;  0.0000000E+00;  3.5317529E-02;  3.0130557E+03;
  7.6965427E-01;  9.9999998E-03; -5.0016243E-02;7046; -2.6972437E-02;  0.0000000E+00; -3.6380356E-03;  9.9983673E+02;  1.3599280E-01; -1.3525517E+02;3; -3.2707682E+00;  0.0000000E+00; -7.4242622E-01;0; -1.5168610E-01;  2.1701740E+04;  0.0000000E+00;  9.0554059E-02;  4.0000000E+04;  0.0000000E+00;  3.9815285E+04; -1.9012837E-01;  0.0000000E+00;  3.8442269E-02;  3.1729602E+03;
  7.6966560E-01;  9.9999998E-03; -4.0006563E-02;7047; -2.7911095E-02;  0.0000000E+00; -3.0047097E-03;  9.9988824E+02;  1.3599266E-01; -9.2589790E+01;3; -3.3740735E+00;  0.0000000E+00; -5.8680731E-01;0; -1.5380625E-01;  2.1700895E+04;  0.0000000E+00;  5.4394070E-02;  4.0000000E+04;  0.0000000E+00;  3.9816336E+04; -1.9497563E-01;  0.0000000E+00;  4.1169375E-02;  3.3083508E+03;
  7.6966006E-01;  9.9999998E-03; -2.9999694E-02;7048; -2.8649641E-02;  0.0000000E+00; -2.3105007E-03;  9.9993359E+02;  1.3599016E-01; -5.5010681E+01;3; -3.4545906E+00;  0.0000000E+00; -4.3282264E-01;0; -1.5540060E-01;  2.1701057E+04;  0.0000000E+00;  2.8532155E-02;  4.0000000E+04;  0.0000000E+00;  3.9817391E+04; -1.9880669E-01;  0.0000000E+00;  4.3406084E-02;  3.4255437E+03;
  7.6965362E-01;  9.9999998E-03; -1.9998303E-02;7049; -2.9182609E-02;  0.0000000E+00; -1.5719549E-03;  9.9996228E+02;  1.3598827E-01; -3.1258314E+01;3; -3.5120099E+00;  0.0000000E+00; -2.8830084E-01;0; -1.5651500E-01;  2.1701338E+04;  0.0000000E+00;  1.1918688E-02;  4.0000000E+04;  0.0000000E+00;  3.9818145E+04; -2.0157734E-01;  0.0000000E+00;  4.5062337E-02;  3.5195874E+03;
  7.6964992E-01;  9.9999998E-03; -9.9997018E-03;7050; -2.9503882E-02;  0.0000000E+00; -7.9521246E-04;  9.9998444E+02;  1.3598725E-01; -1.2888499E+01;3; -3.5415640E+00;  0.0000000E+00; -1.4212498E-01;0; -1.5717542E-01;  2.1701400E+04;  0.0000000E+00;  2.8587535E-03;  4.0000000E+04;  0.0000000E+00;  3.9818734E+04; -2.0325446E-01;  0.0000000E+00;  4.6079032E-02;  3.5813384E+03;
  7.6964968E-01;  9.9999998E-03;  4.0623904E-10;7051; -2.9611763E-02;  0.0000000E+00;  4.0669857E-08;  9.9999280E+02;  1.3598800E-01; -5.9751277E+00;3; -3.5516145E+00;  0.0000000E+00; -8.1460803E-06;0; -1.5739587E-01;  2.1701260E+04;  0.0000000E+00;  4.4363808E-11;  4.0000000E+04;  0.0000000E+00;  3.9818891E+04; -2.0381658E-01;  0.0000000E+00;  4.6420712E-02;  3.6028491E+03;
  7.6964992E-01;  9.9999998E-03;  9.9997027E-03;7052; -2.9503886E-02;  0.0000000E+00;  7.9529296E-04;  9.9998456E+02;  1.3598734E-01; -1.2789737E+01;3; -3.5415733E+00;  0.0000000E+00;  1.4208727E-01;0; -1.5717566E-01;  2.1701402E+04;  0.0000000E+00;  2.8573689E-03;  4.0000000E+04;  0.0000000E+00;  3.9818734E+04; -2.0325464E-01;  0.0000000E+00;  4.6078987E-02;  3.5813318E+03;
  7.6965362E-01;  9.9999998E-03;  1.9998303E-02;7053; -2.9182618E-02;  0.0000000E+00;  1.5720377E-03;  9.9996222E+02;  1.3598850E-01; -3.1307695E+01;3; -3.5120139E+00;  0.0000000E+00;  2.8829187E-01;0; -1.5651491E-01;  2.1701332E+04;  0.0000000E+00;  1.1915954E-02;  4.0000000E+04;  0.0000000E+00;  3.9818145E+04; -2.0157726E-01;  0.0000000E+00;  4.5062341E-02;  3.5196001E+03;
  7.6966006E-01;  9.9999998E-03;  2.9999694E-02;7054; -2.8649654E-02;  0.0000000E+00;  2.3105817E-03;  9.9993359E+02;  1.3599016E-01; -5.5010681E+01;3; -3.4546683E+00;  0.0000000E+00;  4.3277854E-01;0; -1.5540066E-01;  2.1701055E+04;  0.0000000E+00;  2.8528627E-02;  4.0000000E+04;  0.0000000E+00;  3.9817391E+04; -1.9880675E-01;  0.0000000E+00;  4.3406080E-02;  3.4255386E+03;
  7.6966560E-01;  9.9999998E-03;  4.0006563E-02;7055; -2.7911110E-02;  0.0000000E+00;  3.0047903E-03;  9.9988824E+02;  1.3599266E-01; -9.2589790E+01;3; -3.3740673E+00;  0.0000000E+00;  5.8673257E-01;0; -1.5380642E-01;  2.1700895E+04;  0.0000000E+00;  5.4391757E-02;  4.0000000E+04;  0.0000000E+00;  3.9816336E+04; -1.9497578E-01;  0.0000000E+00;  4.1169360E-02;  3.3083445E+03;
  7.6965427E-01;  9.9999998E-03;  5.0016243E-02;7056; -2.6972447E-02;  0.0000000E+00;  3.6381227E-03;  9.9983661E+02;  1.3599271E-01; -1.3535393E+02;3; -3.2707121E+00;  0.0000000E+00;  7.4240482E-01;0; -1.5168640E-01;  2.1701732E+04;  0.0000000E+00;  9.0550169E-02;  4.0000000E+04;  0.0000000E+00;  3.9815289E+04; -1.9012862E-01;  0.0000000E+00;  3.8442228E-02;  3.1729358E+03;
  7.6961571E-01;  9.9999998E-03;  6.0027108E-02;7057; -2.5844352E-02;  0.0000000E+00;  4.2043533E-03;  9.9976892E+02;  1.3598765E-01; -1.9145100E+02;3; -3.1402216E+00;  0.0000000E+00;  8.9078999E-01;0; -1.4899717E-01;  2.1704473E+04;  0.0000000E+00;  1.3620555E-01;  4.0000000E+04;  0.0000000E+00;  3.9813812E+04; -1.8431474E-01;  0.0000000E+00;  3.5317570E-02;  3.0130588E+03;
  7.8317237E-01;  9.9999998E-03; -1.0001327E-01;7102; -2.1828927E-02;  0.0000000E+00; -3.9989906E-03;  1.0002803E+03;  1.4114845E-01;  2.3228918E+02;3; -2.1635783E+00;  0.0000000E+00; -1.5940920E+00;0; -1.4591174E-01;  2.0195484E+04;  0.0000000E+00; -6.7949802E-02;  4.0000000E+04;  0.0000000E+00;  3.9782105E+04; -1.5448546E-01;  0.0000000E+00;  8.5737193E-03;  2.1219941E+03;
  7.8312188E-01;  9.9999998E-03; -9.0001069E-02;7103; -2.3664294E-02;  0.0000000E+00; -3.7932431E-03;  1.0003303E+03;  1.4110669E-01;  2.7357187E+02;3; -2.4093888E+00;  0.0000000E+00; -1.4407270E+00;0; -1.5204562E-01;  2.0202316E+04;  0.0000000E+00; -3.7311450E-02;  4.0000000E+04;  0.0000000E+00;  3.9785473E+04; -1.6353665E-01;  0.0000000E+00;  1.1491033E-02;  2.5173611E+03;
  7.8306574E-01;  9.9999998E-03; -8.0005169E-02;7104; -2.5370492E-02;  0.0000000E+00; -3.5487923E-03;  1.0003704E+03;  1.4106953E-01;  3.0685480E+02;3; -2.6252577E+00;  0.0000000E+00; -1.2831928E+00;0; -1.5735355E-01;  2.0208531E+04;  0.0000000E+00; -2.3311818E-02;  4.0000000E+04;  0.0000000E+00;  3.9787871E+04; -1.7172883E-01;  0.0000000E+00;  1.4375277E-02;  2.8058472E+03;
  7.8308797E-01;  9.9999998E-03; -7.0017450E-02;7105; -2.6943889E-02;  0.0000000E+00; -3.2490615E-03;  1.0004244E+03;  1.4106458E-01;  3.5159418E+02;3; -2.8105731E+00;  0.0000000E+00; -1.1051455E+00;0; -1.6200422E-01;  2.0206732E+04;  0.0000000E+00; -2.0444002E-02;  4.0000000E+04;  0.0000000E+00;  3.9789324E+04; -1.7907822E-01;  0.0000000E+00;  1.7074004E-02;  2.9942947E+03;
  7.8311014E-01;  9.9999998E-03; -6.0028911E-02;7106; -2.8354092E-02;  0.0000000E+00; -2.8990528E-03;  1.0004700E+03;  1.4106417E-01;  3.8932141E+02;3; -2.9739273E+00;  0.0000000E+00; -9.4232994E-01;0; -1.6595472E-01;  2.0204111E+04;  0.0000000E+00; -2.0684298E-02;  4.0000000E+04;  0.0000000E+00;  3.9790195E+04; -1.8555927E-01;  0.0000000E+00;  1.9604543E-02;  3.1170146E+03;
  7.8311753E-01;  9.9999998E-03; -5.0032482E-02;7107; -2.9580427E-02;  0.0000000E+00; -2.5082207E-03;  1.0005093E+03;  1.4106148E-01;  4.2191299E+02;3; -3.1064053E+00;  0.0000000E+00; -7.8546017E-01;0; -1.6922241E-01;  2.0202396E+04;  0.0000000E+00; -1.9816294E-02;  4.0000000E+04;  0.0000000E+00;  3.9790961E+04; -1.9114229E-01;  0.0000000E+00;  2.1919882E-02;  3.2167051E+03;
  7.8311551E-01;  9.9999998E-03; -4.0028695E-02;7108; -3.0607140E-02;  0.0000000E+00; -2.0755262E-03;  1.0005414E+03;  1.4105643E-01;  4.4857886E+02;3; -3.2111874E+00;  0.0000000E+00; -6.2671459E-01;0; -1.7184268E-01;  2.0201479E+04;  0.0000000E+00; -1.6474452E-02;  4.0000000E+04;  0.0000000E+00;  3.9791812E+04; -1.9578843E-01;  0.0000000E+00;  2.3945754E-02;  3.3220894E+03;
  7.8311485E-01;  9.9999998E-03; -3.0018428E-02;7109; -3.1421013E-02;  0.0000000E+00; -1.5982570E-03;  1.0005684E+03;  1.4105359E-01;  4.7089917E+02;3; -3.2896078E+00;  0.0000000E+00; -4.6380672E-01;0; -1.7385495E-01;  2.0200381E+04;  0.0000000E+00; -1.1280907E-02;  4.0000000E+04;  0.0000000E+00;  3.9792762E+04; -1.9945639E-01;  0.0000000E+00;  2.5601445E-02;  3.4385691E+03;
  7.8311706E-01;  9.9999998E-03; -2.0007534E-02;7110; -3.2010794E-02;  0.0000000E+00; -1.0850967E-03;  1.0005887E+03;  1.4105447E-01;  4.8768878E+02;3; -3.3465106E+00;  0.0000000E+00; -3.0777398E-01;0; -1.7528059E-01;  2.0199234E+04;  0.0000000E+00; -5.7468927E-03;  4.0000000E+04;  0.0000000E+00;  3.9793660E+04; -2.0210636E-01;  0.0000000E+00;  2.6825769E-02;  3.5484941E+03;
  7.8311980E-01;  9.9999998E-03; -1.0002086E-02;7111; -3.2367930E-02;  0.0000000E+00; -5.4760551E-04;  1.0006047E+03;  1.4105345E-01;  5.0092294E+02;3; -3.3822269E+00;  0.0000000E+00; -1.5478387E-01;0; -1.7613086E-01;  2.0198424E+04;  0.0000000E+00; -1.5543497E-03;  4.0000000E+04;  0.0000000E+00;  3.9794191E+04; -2.0370755E-01;  0.0000000E+00;  2.7576691E-02;  3.6270867E+03;
  7.8312093E-01;  9.9999998E-03;  2.7047622E-10;7112; -3.2488149E-02;  0.0000000E+00;  4.2897515E-08;  1.0006122E+03;  1.4105380E-01;  5.0724371E+02;3; -3.3952537E+00;  0.0000000E+00; -7.8739049E-06;0; -1.7641361E-01;  2.0198094E+04;  0.0000000E+00;  5.1648075E-11;  4.0000000E+04;  0.0000000E+00;  3.9794453E+04; -2.0424345E-01;  0.0000000E+00;  2.7829839E-02;  3.6556016E+03;
  7.8311986E-01;  9.9999998E-03;  1.0002086E-02;7113; -3.2367926E-02;  0.0000000E+00;  5.4769270E-04;  1.0006047E+03;  1.4105396E-01;  5.0092294E+02;3; -3.3821993E+00;  0.0000000E+00;  1.5476269E-01;0; -1.7613092E-01;  2.0198434E+04;  0.0000000E+00; -1.5550840E-03;  4.0000000E+04;  0.0000000E+00;  3.9794191E+04; -2.0370762E-01;  0.0000000E+00;  2.7576702E-02;  3.6270771E+03;
  7.8311706E-01;  9.9999998E-03;  2.0007534E-02;7114; -3.2010805E-02;  0.0000000E+00;  1.0851801E-03;  1.0005886E+03;  1.4105430E-01;  4.8768878E+02;3; -3.3464928E+00;  0.0000000E+00;  3.0773175E-01;0; -1.7528062E-01;  2.0199230E+04;  0.0000000E+00; -5.7482109E-03;  4.0000000E+04;  0.0000000E+00;  3.9793656E+04; -2.0210639E-01;  0.0000000E+00;  2.6825769E-02;  3.5484888E+03;
  7.8311485E-01;  9.9999998E-03;  3.0018428E-02;7115; -3.1421032E-02;  0.0000000E+00;  1.5983409E-03;  1.0005682E+03;  1.4105347E-01;  4.7080038E+02;3; -3.2895846E+00;  0.0000000E+00;  4.6379989E-01;0; -1.7385507E-01;  2.0200381E+04;  0.0000000E+00; -1.1282881E-02;  4.0000000E+04;  0.0000000E+00;  3.9792766E+04; -1.9945650E-01;  0.0000000E+00;  2.5601435E-02;  3.4385923E+03;
  7.8311551E-01;  9.9999998E-03;  4.0028695E-02;7116; -3.0607156E-02;  0.0000000E+00;  2.0756104E-03;  1.0005414E+03;  1.4105670E-01;  4.4848010E+02;3; -3.2112267E+00;  0.0000000E+00;  6.2664998E-01;0; -1.7184247E-01;  2.0201482E+04;  0.0000000E+00; -1.6476633E-02;  4.0000000E+04;  0.0000000E+00;  3.9791812E+04; -1.9578819E-01;  0.0000000E+00;  2.3945721E-02;  3.3220808E+03;
  7.8311753E-01;  9.9999998E-03;  5.0032482E-02;7117; -2.9580450E-02;  0.0000000E+00;  2.5083122E-03;  1.0005092E+03;  1.4106137E-01;  4.2181424E+02;3; -3.1064472E+00;  0.0000000E+00;  7.8540248E-01;0; -1.6922228E-01;  2.0202395E+04;  0.0000000E+00; -1.9819459E-02;  4.0000000E+04;  0.0000000E+00;  3.9790965E+04; -1.9114214E-01;  0.0000000E+00;  2.1919863E-02;  3.2167097E+03;
  7.8311014E-01;  9.9999998E-03;  6.0028911E-02;7118; -2.8354114E-02;  0.0000000E+00;  2.8991422E-03;  1.0004701E+03;  1.4106429E-01;  3.8942017E+02;3; -2.9738908E+00;  0.0000000E+00;  9.4224703E-01;0; -1.6595462E-01;  2.0204111E+04;  0.0000000E+00; -2.0685455E-02;  4.0000000E+04;  0.0000000E+00;  3.9790199E+04; -1.8555914E-01;  0.0000000E+00;  1.9604517E-02;  3.1170410E+03;
  7.9725862E-01;  9.9999998E-03; -1.0008784E-01;7163; -2.3930388E-02;  0.0000000E+00; -1.8054434E-03;  1.0003655E+03;  1.4676452E-01;  3.0280539E+02;3; -1.9937106E+00;  0.0000000E+00; -1.6509697E+00;0; -1.6298369E-01;  1.8691127E+04;  0.0000000E+00; -4.0055034E-01;  4.0000000E+04;  0.0000000E+00;  3.9759672E+04; -1.5747960E-01;  0.0000000E+00; -5.5040871E-03;  2.7883994E+03;
  7.9722792E-01;  9.9999998E-03; -9.0087906E-02;7164; -2.5908366E-02;  0.0000000E+00; -1.7101094E-03;  1.0003373E+03;  1.4673124E-01;  2.7949747E+02;3; -2.2492297E+00;  0.0000000E+00; -1.4725107E+00;0; -1.7004193E-01;  1.8693273E+04;  0.0000000E+00; -3.4201556E-01;  4.0000000E+04;  0.0000000E+00;  3.9761414E+04; -1.6617094E-01;  0.0000000E+00; -3.8709915E-03;  2.9747673E+03;
  7.9719627E-01;  9.9999998E-03; -8.0103070E-02;7165; -2.7750008E-02;  0.0000000E+00; -1.5949323E-03;  1.0003051E+03;  1.4669690E-01;  2.5273286E+02;3; -2.4749463E+00;  0.0000000E+00; -1.2987584E+00;0; -1.7623547E-01;  1.8695488E+04;  0.0000000E+00; -2.8649229E-01;  4.0000000E+04;  0.0000000E+00;  3.9762180E+04; -1.7399150E-01;  0.0000000E+00; -2.2439724E-03;  3.0455454E+03;
  7.9716873E-01;  9.9999998E-03; -7.0119023E-02;7166; -2.9438684E-02;  0.0000000E+00; -1.4612096E-03;  1.0002668E+03;  1.4666539E-01;  2.2103015E+02;3; -2.6706684E+00;  0.0000000E+00; -1.1342797E+00;0; -1.8162222E-01;  1.8697334E+04;  0.0000000E+00; -2.3309830E-01;  4.0000000E+04;  0.0000000E+00;  3.9762418E+04; -1.8096256E-01;  0.0000000E+00; -6.5965991E-04;  3.0294011E+03;
  7.9713106E-01;  9.9999998E-03; -6.0122162E-02;7167; -3.0953012E-02;  0.0000000E+00; -1.3103731E-03;  1.0002255E+03;  1.4663440E-01;  1.8675961E+02;3; -2.8327463E+00;  0.0000000E+00; -9.5810491E-01;0; -1.8621875E-01;  1.8699750E+04;  0.0000000E+00; -1.8136509E-01;  4.0000000E+04;  0.0000000E+00;  3.9762199E+04; -1.8708414E-01;  0.0000000E+00;  8.6538971E-04;  2.9866792E+03;
  7.9705447E-01;  9.9999998E-03; -5.0103344E-02;7168; -3.2267615E-02;  0.0000000E+00; -1.1403093E-03;  1.0001846E+03;  1.4659585E-01;  1.5288412E+02;3; -2.9680431E+00;  0.0000000E+00; -7.9025012E-01;0; -1.9000390E-01;  1.8704105E+04;  0.0000000E+00; -1.3238297E-01;  4.0000000E+04;  0.0000000E+00;  3.9762230E+04; -1.9233872E-01;  0.0000000E+00;  2.3348141E-03;  2.9816331E+03;
  7.9697353E-01;  9.9999998E-03; -4.0069006E-02;7169; -3.3368681E-02;  0.0000000E+00; -9.4871002E-04;  1.0001483E+03;  1.4656010E-01;  1.2286037E+02;3; -3.0763271E+00;  0.0000000E+00; -6.3131249E-01;0; -1.9304273E-01;  1.8708588E+04;  0.0000000E+00; -8.8204741E-02;  4.0000000E+04;  0.0000000E+00;  3.9763047E+04; -1.9669838E-01;  0.0000000E+00;  3.6556644E-03;  3.0431956E+03;
  7.9690468E-01;  9.9999998E-03; -3.0042527E-02;7170; -3.4240883E-02;  0.0000000E+00; -7.3766947E-04;  1.0001268E+03;  1.4653058E-01;  1.0498438E+02;3; -3.1600132E+00;  0.0000000E+00; -4.8674324E-01;0; -1.9537196E-01;  1.8712143E+04;  0.0000000E+00; -5.1195439E-02;  4.0000000E+04;  0.0000000E+00;  3.9763848E+04; -2.0012534E-01;  0.0000000E+00;  4.7533768E-03;  3.1528196E+03;
  7.9685611E-01;  9.9999998E-03; -2.0022118E-02;7171; -3.4872435E-02;  0.0000000E+00; -5.0454470E-04;  1.0001093E+03;  1.4651045E-01;  9.0466316E+01;3; -3.2163992E+00;  0.0000000E+00; -3.1578770E-01;0; -1.9702268E-01;  1.8714398E+04;  0.0000000E+00; -2.3263512E-02;  4.0000000E+04;  0.0000000E+00;  3.9764922E+04; -2.0259446E-01;  0.0000000E+00;  5.5717849E-03;  3.2756843E+03;
  7.9682732E-01;  9.9999998E-03; -1.0008559E-02;7172; -3.5254981E-02;  0.0000000E+00; -2.5546234E-04;  1.0001024E+03;  1.4649896E-01;  8.4836861E+01;3; -3.2507229E+00;  0.0000000E+00; -1.5791896E-01;0; -1.9800763E-01;  1.8715602E+04;  0.0000000E+00; -5.8922200E-03;  4.0000000E+04;  0.0000000E+00;  3.9765758E+04; -2.0408459E-01;  0.0000000E+00;  6.0769548E-03;  3.3699258E+03;
  7.9681772E-01;  9.9999998E-03; -5.2031091E-10;7173; -3.5383023E-02;  0.0000000E+00;  4.5635407E-08;  1.0000988E+03;  1.4649545E-01;  8.1775230E+01;3; -3.2648497E+00;  0.0000000E+00; -5.3986810E-06;0; -1.9833495E-01;  1.8716074E+04;  0.0000000E+00;  4.0740609E-11;  4.0000000E+04;  0.0000000E+00;  3.9765938E+04; -2.0458275E-01;  0.0000000E+00;  6.2477989E-03;  3.4049795E+03;
  7.9682726E-01;  9.9999998E-03;  1.0008559E-02;7174; -3.5254981E-02;  0.0000000E+00;  2.5555398E-04;  1.0001024E+03;  1.4649884E-01;  8.4836861E+01;3; -3.2507577E+00;  0.0000000E+00;  1.5792352E-01;0; -1.9800769E-01;  1.8715604E+04;  0.0000000E+00; -5.8919135E-03;  4.0000000E+04;  0.0000000E+00;  3.9765762E+04; -2.0408465E-01;  0.0000000E+00;  6.0769641E-03;  3.3699221E+03;
  7.9685611E-01;  9.9999998E-03;  2.0022118E-02;7175; -3.4872446E-02;  0.0000000E+00;  5.0463830E-04;  1.0001094E+03;  1.4651057E-01;  9.0663841E+01;3; -3.2164402E+00;  0.0000000E+00;  3.1577325E-01;0; -1.9702257E-01;  1.8714396E+04;  0.0000000E+00; -2.3263399E-02;  4.0000000E+04;  0.0000000E+00;  3.9764926E+04; -2.0259435E-01;  0.0000000E+00;  5.5717877E-03;  3.2756904E+03;
  7.9690468E-01;  9.9999998E-03;  3.0042527E-02;7176; -3.4240898E-02;  0.0000000E+00;  7.3776313E-04;  1.0001270E+03;  1.4653049E-01;  1.0518191E+02;3; -3.1601005E+00;  0.0000000E+00;  4.8674059E-01;0; -1.9537215E-01;  1.8712143E+04;  0.0000000E+00; -5.1195528E-02;  4.0000000E+04;  0.0000000E+00;  3.9763848E+04; -2.0012553E-01;  0.0000000E+00;  4.7533838E-03;  3.1527996E+03;
  7.9697353E-01;  9.9999998E-03;  4.0069010E-02;7177; -3.3368703E-02;  0.0000000E+00;  9.4880589E-04;  1.0001483E+03;  1.4656034E-01;  1.2286037E+02;3; -3.0763545E+00;  0.0000000E+00;  6.3130808E-01;0; -1.9304277E-01;  1.8708590E+04;  0.0000000E+00; -8.8204861E-02;  4.0000000E+04;  0.0000000E+00;  3.9763047E+04; -1.9669838E-01;  0.0000000E+00;  3.6556188E-03;  3.0431897E+03;
  7.9705447E-01;  9.9999998E-03;  5.0103344E-02;7178; -3.2267634E-02;  0.0000000E+00;  1.1404024E-03;  1.0001847E+03;  1.4659595E-01;  1.5298289E+02;3; -2.9680357E+00;  0.0000000E+00;  7.9023957E-01;0; -1.9000393E-01;  1.8704100E+04;  0.0000000E+00; -1.3238159E-01;  4.0000000E+04;  0.0000000E+00;  3.9762223E+04; -1.9233871E-01;  0.0000000E+00;  2.3347810E-03;  2.9816499E+03;
  7.9713106E-01;  9.9999998E-03;  6.0122162E-02;7179; -3.0953035E-02;  0.0000000E+00;  1.3104669E-03;  1.0002254E+03;  1.4663401E-01;  1.8675961E+02;3; -2.8327715E+00;  0.0000000E+00;  9.5807850E-01;0; -1.8621871E-01;  1.8699748E+04;  0.0000000E+00; -1.8136422E-01;  4.0000000E+04;  0.0000000E+00;  3.9762199E+04; -1.8708406E-01;  0.0000000E+00;  8.6535030E-04;  2.9866956E+03;
  8.1142241E-01;  9.9999998E-03; -1.0024927E-01;7224; -2.6155053E-02;  0.0000000E+00;  7.2582893E-04;  9.9934216E+02;  1.5264224E-01; -5.4501971E+02;3; -1.8854895E+00;  0.0000000E+00; -1.6299376E+00;0; -1.8288544E-01;  1.7255982E+04;  0.0000000E+00; -6.3951021E-01;  4.0000000E+04;  0.0000000E+00;  3.9735195E+04; -1.6100642E-01;  0.0000000E+00; -2.1879012E-02;  3.5212744E+03;
  8.1138659E-01;  9.9999998E-03; -9.0270028E-02;7225; -2.8258463E-02;  0.0000000E+00;  6.6462648E-04;  9.9922565E+02;  1.5261480E-01; -6.4151044E+02;3; -2.1491230E+00;  0.0000000E+00; -1.4438863E+00;0; -1.9074857E-01;  1.7255074E+04;  0.0000000E+00; -5.6867272E-01;  4.0000000E+04;  0.0000000E+00;  3.9735152E+04; -1.6915482E-01;  0.0000000E+00; -2.1593750E-02;  3.4384646E+03;
  8.1137544E-01;  9.9999998E-03; -8.0284968E-02;7226; -3.0224279E-02;  0.0000000E+00;  6.0390896E-04;  9.9911102E+02;  1.5260056E-01; -7.3651978E+02;3; -2.3787129E+00;  0.0000000E+00; -1.2674621E+00;0; -1.9777583E-01;  1.7251848E+04;  0.0000000E+00; -4.8723820E-01;  4.0000000E+04;  0.0000000E+00;  3.9733984E+04; -1.7646356E-01;  0.0000000E+00; -2.1312265E-02;  3.2323679E+03;
  8.1138188E-01;  9.9999998E-03; -7.0297830E-02;7227; -3.2030784E-02;  0.0000000E+00;  5.4074166E-04;  9.9900342E+02;  1.5259576E-01; -8.2565271E+02;3; -2.5751112E+00;  0.0000000E+00; -1.0992588E+00;0; -2.0397842E-01;  1.7247092E+04;  0.0000000E+00; -3.9928260E-01;  4.0000000E+04;  0.0000000E+00;  3.9732465E+04; -1.8294062E-01;  0.0000000E+00; -2.1037802E-02;  2.9613904E+03;
  8.1119031E-01;  9.9999998E-03; -6.0277961E-02;7228; -3.3619840E-02;  0.0000000E+00;  4.4701219E-04;  9.9890314E+02;  1.5251005E-01; -9.0871179E+02;3; -2.7434094E+00;  0.0000000E+00; -9.3591988E-01;0; -2.0902096E-01;  1.7260662E+04;  0.0000000E+00; -3.0783576E-01;  4.0000000E+04;  0.0000000E+00;  3.9731477E+04; -1.8858361E-01;  0.0000000E+00; -2.0437345E-02;  2.7201965E+03;
  8.1096691E-01;  9.9999998E-03; -5.0201755E-02;7229; -3.5002172E-02;  0.0000000E+00;  3.5249049E-04;  9.9880725E+02;  1.5241379E-01; -9.8816608E+02;3; -2.8839595E+00;  0.0000000E+00; -7.7500087E-01;0; -2.1317990E-01;  1.7276834E+04;  0.0000000E+00; -2.2052035E-01;  4.0000000E+04;  0.0000000E+00;  3.9731059E+04; -1.9342290E-01;  0.0000000E+00; -1.9757008E-02;  2.5950259E+03;
  8.1076097E-01;  9.9999998E-03; -4.0134203E-02;7230; -3.6156558E-02;  0.0000000E+00;  2.6571716E-04;  9.9872900E+02;  1.5232524E-01; -1.0530035E+03;3; -2.9950724E+00;  0.0000000E+00; -6.2155360E-01;0; -2.1651429E-01;  1.7291637E+04;  0.0000000E+00; -1.4407921E-01;  4.0000000E+04;  0.0000000E+00;  3.9731777E+04; -1.9741416E-01;  0.0000000E+00; -1.9100130E-02;  2.5952786E+03;
  8.1059194E-01;  9.9999998E-03; -3.0086108E-02;7231; -3.7069339E-02;  0.0000000E+00;  1.8913826E-04;  9.9866949E+02;  1.5225266E-01; -1.1022859E+03;3; -3.0820453E+00;  0.0000000E+00; -4.6223849E-01;0; -2.1906875E-01;  1.7303533E+04;  0.0000000E+00; -8.2185164E-02;  4.0000000E+04;  0.0000000E+00;  3.9732871E+04; -2.0053855E-01;  0.0000000E+00; -1.8530203E-02;  2.6879326E+03;
  8.1046969E-01;  9.9999998E-03; -2.0050976E-02;7232; -3.7730124E-02;  0.0000000E+00;  1.2126528E-04;  9.9862946E+02;  1.5220176E-01; -1.1354701E+03;3; -3.1431618E+00;  0.0000000E+00; -3.0748010E-01;0; -2.2087854E-01;  1.7312010E+04;  0.0000000E+00; -3.6853861E-02;  4.0000000E+04;  0.0000000E+00;  3.9734016E+04; -2.0278412E-01;  0.0000000E+00; -1.8094424E-02;  2.8149021E+03;
  8.1039518E-01;  9.9999998E-03; -1.0023390E-02;7233; -3.8130052E-02;  0.0000000E+00;  5.9408805E-05;  9.9860706E+02;  1.5217075E-01; -1.1540374E+03;3; -3.1808889E+00;  0.0000000E+00; -1.4541456E-01;0; -2.2195707E-01;  1.7317006E+04;  0.0000000E+00; -9.2569282E-03;  4.0000000E+04;  0.0000000E+00;  3.9735059E+04; -2.0413715E-01;  0.0000000E+00; -1.7819930E-02;  2.9181426E+03;
  8.1037050E-01;  9.9999998E-03;  2.2061200E-10;7234; -3.8263939E-02;  0.0000000E+00;  4.8166513E-08;  9.9859833E+02;  1.5215977E-01; -1.1612469E+03;3; -3.1925640E+00;  0.0000000E+00; -5.8560909E-07;0; -2.2231610E-01;  1.7318721E+04;  0.0000000E+00;  2.1458217E-11;  4.0000000E+04;  0.0000000E+00;  3.9735320E+04; -2.0458931E-01;  0.0000000E+00; -1.7726792E-02;  2.9571377E+03;
  8.1039518E-01;  9.9999998E-03;  1.0023391E-02;7235; -3.8130056E-02;  0.0000000E+00; -5.9312108E-05;  9.9860699E+02;  1.5217037E-01; -1.1540867E+03;3; -3.1808951E+00;  0.0000000E+00;  1.4542077E-01;0; -2.2195715E-01;  1.7317002E+04;  0.0000000E+00; -9.2560109E-03;  4.0000000E+04;  0.0000000E+00;  3.9735059E+04; -2.0413722E-01;  0.0000000E+00; -1.7819926E-02;  2.9181467E+03;
  8.1046969E-01;  9.9999998E-03;  2.0050978E-02;7236; -3.7730131E-02;  0.0000000E+00; -1.2117111E-04;  9.9862946E+02;  1.5220176E-01; -1.1354701E+03;3; -3.1431930E+00;  0.0000000E+00;  3.0744132E-01;0; -2.2087851E-01;  1.7312008E+04;  0.0000000E+00; -3.6851659E-02;  4.0000000E+04;  0.0000000E+00;  3.9734016E+04; -2.0278409E-01;  0.0000000E+00; -1.8094426E-02;  2.8148884E+03;
  8.1059200E-01;  9.9999998E-03;  3.0086111E-02;7237; -3.7069354E-02;  0.0000000E+00; -1.8904399E-04;  9.9866968E+02;  1.5225291E-01; -1.1021378E+03;3; -3.0820904E+00;  0.0000000E+00;  4.6221584E-01;0; -2.1906897E-01;  1.7303529E+04;  0.0000000E+00; -8.2182802E-02;  4.0000000E+04;  0.0000000E+00;  3.9732867E+04; -2.0053874E-01;  0.0000000E+00; -1.8530235E-02;  2.6879119E+03;
  8.1076097E-01;  9.9999998E-03;  4.0134206E-02;7238; -3.6156576E-02;  0.0000000E+00; -2.6562167E-04;  9.9872894E+02;  1.5232493E-01; -1.0530529E+03;3; -2.9950964E+00;  0.0000000E+00;  6.2155432E-01;0; -2.1651410E-01;  1.7291631E+04;  0.0000000E+00; -1.4407599E-01;  4.0000000E+04;  0.0000000E+00;  3.9731777E+04; -1.9741394E-01;  0.0000000E+00; -1.9100161E-02;  2.5952908E+03;
  8.1096691E-01;  9.9999998E-03;  5.0201755E-02;7239; -3.5002191E-02;  0.0000000E+00; -3.5239203E-04;  9.9880731E+02;  1.5241358E-01; -9.8811670E+02;3; -2.8838923E+00;  0.0000000E+00;  7.7504015E-01;0; -2.1317996E-01;  1.7276832E+04;  0.0000000E+00; -2.2051865E-01;  4.0000000E+04;  0.0000000E+00;  3.9731059E+04; -1.9342290E-01;  0.0000000E+00; -1.9757058E-02;  2.5950310E+03;
  8.1119031E-01;  9.9999998E-03;  6.0277965E-02;7240; -3.3619862E-02;  0.0000000E+00; -4.4691924E-04;  9.9890302E+02;  1.5250988E-01; -9.0881061E+02;3; -2.7434888E+00;  0.0000000E+00;  9.3586552E-01;0; -2.0902096E-01;  1.7260666E+04;  0.0000000E+00; -3.0783302E-01;  4.0000000E+04;  0.0000000E+00;  3.9731480E+04; -1.8858358E-01;  0.0000000E+00; -2.0437369E-02;  2.7201973E+03;
  8.2525826E-01;  9.9999998E-03; -6.7184946E-10;7295; -4.1440669E-02;  0.0000000E+00;  5.0623374E-08;  9.9682867E+02;  1.5845749E-01; -2.6273711E+03;3; -3.1138971E+00;  0.0000000E+00;  7.2955736E-06;0; -2.5056380E-01;  1.5946129E+04;  0.0000000E+00; -1.0068168E-13;  4.0000000E+04;  0.0000000E+00;  3.9701730E+04; -2.0352559E-01;  0.0000000E+00; -4.7038227E-02;  2.3468953E+03;
  8.2526886E-01;  9.9999998E-03; -1.0038990E-02;7294; -4.1296247E-02;  0.0000000E+00;  3.8516751E-04;  9.9683405E+02;  1.5846200E-01; -2.6229268E+03;3; -3.1023540E+00;  0.0000000E+00; -1.3772678E-01;0; -2.5011751E-01;  1.5945616E+04;  0.0000000E+00; -1.1154484E-02;  4.0000000E+04;  0.0000000E+00;  3.9701473E+04; -2.0313646E-01;  0.0000000E+00; -4.6981040E-02;  2.3109233E+03;
  8.2526886E-01;  9.9999998E-03;  1.0038991E-02;7296; -4.1296251E-02;  0.0000000E+00; -3.8506702E-04;  9.9683411E+02;  1.5846246E-01; -2.6228772E+03;3; -3.1023886E+00;  0.0000000E+00;  1.3770339E-01;0; -2.5011766E-01;  1.5945619E+04;  0.0000000E+00; -1.1153139E-02;  4.0000000E+04;  0.0000000E+00;  3.9701473E+04; -2.0313662E-01;  0.0000000E+00; -4.6981052E-02;  2.3109043E+03;
  8.2530189E-01;  9.9999998E-03; -2.0076746E-02;7293; -4.0865663E-02;  0.0000000E+00;  7.6965237E-04;  9.9685376E+02;  1.5847570E-01; -2.6065815E+03;3; -3.0673342E+00;  0.0000000E+00; -2.7551246E-01;0; -2.4878272E-01;  1.5944063E+04;  0.0000000E+00; -4.4399045E-02;  4.0000000E+04;  0.0000000E+00;  3.9700734E+04; -2.0197053E-01;  0.0000000E+00; -4.6812188E-02;  2.2176968E+03;
  8.2530189E-01;  9.9999998E-03;  2.0076748E-02;7297; -4.0865671E-02;  0.0000000E+00; -7.6955295E-04;  9.9685400E+02;  1.5847656E-01; -2.6063840E+03;3; -3.0673566E+00;  0.0000000E+00;  2.7546707E-01;0; -2.4878283E-01;  1.5944063E+04;  0.0000000E+00; -4.4395924E-02;  4.0000000E+04;  0.0000000E+00;  3.9700734E+04; -2.0197061E-01;  0.0000000E+00; -4.6812218E-02;  2.2176990E+03;
  8.2536209E-01;  9.9999998E-03; -3.0115223E-02;7292; -4.0156949E-02;  0.0000000E+00;  1.1529874E-03;  9.9688568E+02;  1.5850209E-01; -2.5801626E+03;3; -3.0082736E+00;  0.0000000E+00; -4.1385481E-01;0; -2.4656844E-01;  1.5940847E+04;  0.0000000E+00; -9.8999262E-02;  4.0000000E+04;  0.0000000E+00;  3.9699668E+04; -2.0002699E-01;  0.0000000E+00; -4.6541460E-02;  2.1122485E+03;
  8.2536209E-01;  9.9999998E-03;  3.0115224E-02;7298; -4.0156957E-02;  0.0000000E+00; -1.1528886E-03;  9.9688562E+02;  1.5850227E-01; -2.5802119E+03;3; -3.0082836E+00;  0.0000000E+00;  4.1382959E-01;0; -2.4656840E-01;  1.5940848E+04;  0.0000000E+00; -9.8995976E-02;  4.0000000E+04;  0.0000000E+00;  3.9699664E+04; -2.0002694E-01;  0.0000000E+00; -4.6541456E-02;  2.1122305E+03;
  8.2545710E-01;  9.9999998E-03; -4.0160790E-02;7291; -3.9182175E-02;  0.0000000E+00;  1.5348790E-03;  9.9693951E+02;  1.5854332E-01; -2.5355222E+03;3; -2.9242201E+00;  0.0000000E+00; -5.5348837E-01;0; -2.4348743E-01;  1.5935261E+04;  0.0000000E+00; -1.7356260E-01;  4.0000000E+04;  0.0000000E+00;  3.9698770E+04; -1.9730428E-01;  0.0000000E+00; -4.6183158E-02;  2.0651340E+03;
  8.2545710E-01;  9.9999998E-03;  4.0160794E-02;7299; -3.9182186E-02;  0.0000000E+00; -1.5347834E-03;  9.9693958E+02;  1.5854345E-01; -2.5354727E+03;3; -2.9241433E+00;  0.0000000E+00;  5.5343759E-01;0; -2.4348739E-01;  1.5935252E+04;  0.0000000E+00; -1.7355873E-01;  4.0000000E+04;  0.0000000E+00;  3.9698770E+04; -1.9730417E-01;  0.0000000E+00; -4.6183210E-02;  2.0651396E+03;
  8.2558262E-01;  9.9999998E-03; -5.0223082E-02;7290; -3.7953664E-02;  0.0000000E+00;  1.9137120E-03;  9.9701215E+02;  1.5859887E-01; -2.4753760E+03;3; -2.8136516E+00;  0.0000000E+00; -6.9543719E-01;0; -2.3952673E-01;  1.5927226E+04;  0.0000000E+00; -2.6569727E-01;  4.0000000E+04;  0.0000000E+00;  3.9698523E+04; -1.9379866E-01;  0.0000000E+00; -4.5728069E-02;  2.1510339E+03;
  8.2558268E-01;  9.9999998E-03;  5.0223086E-02;7300; -3.7953679E-02;  0.0000000E+00; -1.9136140E-03;  9.9701239E+02;  1.5859914E-01; -2.4751785E+03;3; -2.8136520E+00;  0.0000000E+00;  6.9539207E-01;0; -2.3952690E-01;  1.5927226E+04;  0.0000000E+00; -2.6569015E-01;  4.0000000E+04;  0.0000000E+00;  3.9698527E+04; -1.9379877E-01;  0.0000000E+00; -4.5728128E-02;  2.1510591E+03;
  8.2574791E-01;  9.9999998E-03; -6.0307853E-02;7289; -3.6489278E-02;  0.0000000E+00;  2.2883408E-03;  9.9710193E+02;  1.5867244E-01; -2.4010081E+03;3; -2.6747804E+00;  0.0000000E+00; -8.4079903E-01;0; -2.3469780E-01;  1.5915854E+04;  0.0000000E+00; -3.7142354E-01;  4.0000000E+04;  0.0000000E+00;  3.9699320E+04; -1.8950433E-01;  0.0000000E+00; -4.5193475E-02;  2.4085032E+03;
  8.2574797E-01;  9.9999998E-03;  6.0307857E-02;7301; -3.6489297E-02;  0.0000000E+00; -2.2882414E-03;  9.9710211E+02;  1.5867262E-01; -2.4008105E+03;3; -2.6747761E+00;  0.0000000E+00;  8.4079462E-01;0; -2.3469797E-01;  1.5915853E+04;  0.0000000E+00; -3.7141630E-01;  4.0000000E+04;  0.0000000E+00;  3.9699316E+04; -1.8950444E-01;  0.0000000E+00; -4.5193527E-02;  2.4085002E+03;
  8.2593232E-01;  9.9999998E-03; -7.0385173E-02;7288; -3.4808964E-02;  0.0000000E+00;  2.6522307E-03;  9.9721387E+02;  1.5875836E-01; -2.3082703E+03;3; -2.5060897E+00;  0.0000000E+00; -9.9039376E-01;0; -2.2897899E-01;  1.5902410E+04;  0.0000000E+00; -4.8381940E-01;  4.0000000E+04;  0.0000000E+00;  3.9701332E+04; -1.8443148E-01;  0.0000000E+00; -4.4547506E-02;  2.8148970E+03;
  8.2608169E-01;  9.9999998E-03; -8.0378272E-02;7287; -3.2939147E-02;  0.0000000E+00;  2.9911220E-03;  9.9734241E+02;  1.5883699E-01; -2.2017554E+03;3; -2.3067334E+00;  0.0000000E+00; -1.1446358E+00;0; -2.2233939E-01;  1.5890403E+04;  0.0000000E+00; -5.9272820E-01;  4.0000000E+04;  0.0000000E+00;  3.9704039E+04; -1.7861983E-01;  0.0000000E+00; -4.3719560E-02;  3.2972644E+03;
  8.2619882E-01;  9.9999998E-03; -9.0352580E-02;7286; -3.0891670E-02;  0.0000000E+00;  3.3037141E-03;  9.9747638E+02;  1.5891413E-01; -2.0907466E+03;3; -2.0732238E+00;  0.0000000E+00; -1.3053454E+00;0; -2.1476077E-01;  1.5879431E+04;  0.0000000E+00; -6.8960398E-01;  4.0000000E+04;  0.0000000E+00;  3.9706672E+04; -1.7202735E-01;  0.0000000E+00; -4.2733416E-02;  3.7344006E+03;
  8.2631910E-01;  9.9999998E-03; -1.0030740E-01;7285; -2.8693849E-02;  0.0000000E+00;  3.5952777E-03;  9.9762097E+02;  1.5899256E-01; -1.9709476E+03;3; -1.8028835E+00;  0.0000000E+00; -1.4724227E+00;0; -2.0630985E-01;  1.5868243E+04;  0.0000000E+00; -7.6497805E-01;  4.0000000E+04;  0.0000000E+00;  3.9708301E+04; -1.6464530E-01;  0.0000000E+00; -4.1664563E-02;  4.0336714E+03;
  8.4312439E-01;  9.9999998E-03; -3.3393369E-10;7356; -4.5300439E-02;  0.0000000E+00;  5.2175679E-08;  9.9533252E+02;  1.6611344E-01; -3.8668809E+03;3; -3.0770054E+00;  0.0000000E+00; -5.3659787E-06;0; -2.8468385E-01;  1.4509769E+04;  0.0000000E+00; -7.3986884E-12;  4.0000000E+04;  0.0000000E+00;  3.9661570E+04; -1.9850832E-01;  0.0000000E+00; -8.6175531E-02;  1.4429698E+03;
  8.4310168E-01;  9.9999998E-03; -1.0041777E-02;7355; -4.5143142E-02;  0.0000000E+00;  8.1985322E-04;  9.9533105E+02;  1.6610421E-01; -3.8681152E+03;3; -3.0649476E+00;  0.0000000E+00; -1.2307178E-01;0; -2.8412867E-01;  1.4511151E+04;  0.0000000E+00; -1.1604059E-02;  4.0000000E+04;  0.0000000E+00;  3.9661461E+04; -1.9824117E-01;  0.0000000E+00; -8.5887492E-02;  1.4256503E+03;
  8.4310168E-01;  9.9999998E-03;  1.0041777E-02;7357; -4.5143150E-02;  0.0000000E+00; -8.1975089E-04;  9.9533105E+02;  1.6610479E-01; -3.8681152E+03;3; -3.0649366E+00;  0.0000000E+00;  1.2305638E-01;0; -2.8412849E-01;  1.4511150E+04;  0.0000000E+00; -1.1602876E-02;  4.0000000E+04;  0.0000000E+00;  3.9661461E+04; -1.9824101E-01;  0.0000000E+00; -8.5887477E-02;  1.4256312E+03;
  8.4303683E-01;  9.9999998E-03; -2.0081196E-02;7354; -4.4674788E-02;  0.0000000E+00;  1.6301320E-03;  9.9533728E+02;  1.6608210E-01; -3.8629304E+03;3; -3.0267980E+00;  0.0000000E+00; -2.4613801E-01;0; -2.8246975E-01;  1.4515060E+04;  0.0000000E+00; -4.5955773E-02;  4.0000000E+04;  0.0000000E+00;  3.9661246E+04; -1.9742896E-01;  0.0000000E+00; -8.5040800E-02;  1.3848337E+03;
  8.4303683E-01;  9.9999998E-03;  2.0081198E-02;7358; -4.4674791E-02;  0.0000000E+00; -1.6300286E-03;  9.9533728E+02;  1.6608210E-01; -3.8629304E+03;3; -3.0268312E+00;  0.0000000E+00;  2.4613677E-01;0; -2.8246990E-01;  1.4515057E+04;  0.0000000E+00; -4.5953177E-02;  4.0000000E+04;  0.0000000E+00;  3.9661246E+04; -1.9742902E-01;  0.0000000E+00; -8.5040875E-02;  1.3847949E+03;
  8.4294212E-01;  9.9999998E-03; -3.0119888E-02;7353; -4.3905742E-02;  0.0000000E+00;  2.4226627E-03;  9.9534564E+02;  1.6604897E-01; -3.8560171E+03;3; -2.9697649E+00;  0.0000000E+00; -3.7024054E-01;0; -2.7973121E-01;  1.4520640E+04;  0.0000000E+00; -1.0179538E-01;  4.0000000E+04;  0.0000000E+00;  3.9660855E+04; -1.9604102E-01;  0.0000000E+00; -8.3690181E-02;  1.3572333E+03;
  8.4294212E-01;  9.9999998E-03;  3.0119892E-02;7359; -4.3905750E-02;  0.0000000E+00; -2.4225579E-03;  9.9534546E+02;  1.6604868E-01; -3.8561650E+03;3; -2.9697173E+00;  0.0000000E+00;  3.7024662E-01;0; -2.7973127E-01;  1.4520642E+04;  0.0000000E+00; -1.0179219E-01;  4.0000000E+04;  0.0000000E+00;  3.9660859E+04; -1.9604112E-01;  0.0000000E+00; -8.3690152E-02;  1.3572163E+03;
  8.4283561E-01;  9.9999998E-03; -4.0164959E-02;7352; -4.2850994E-02;  0.0000000E+00;  3.1913850E-03;  9.9536676E+02;  1.6601411E-01; -3.8385361E+03;3; -2.8863626E+00;  0.0000000E+00; -4.9423024E-01;0; -2.7594668E-01;  1.4526620E+04;  0.0000000E+00; -1.7722468E-01;  4.0000000E+04;  0.0000000E+00;  3.9660844E+04; -1.9403225E-01;  0.0000000E+00; -8.1914432E-02;  1.4052307E+03;
  8.4283561E-01;  9.9999998E-03;  4.0164962E-02;7360; -4.2851001E-02;  0.0000000E+00; -3.1912765E-03;  9.9536682E+02;  1.6601440E-01; -3.8384868E+03;3; -2.8863261E+00;  0.0000000E+00;  4.9425080E-01;0; -2.7594647E-01;  1.4526620E+04;  0.0000000E+00; -1.7722134E-01;  4.0000000E+04;  0.0000000E+00;  3.9660836E+04; -1.9403201E-01;  0.0000000E+00; -8.1914462E-02;  1.4051938E+03;
  8.4273493E-01;  9.9999998E-03; -5.0228819E-02;7351; -4.1528083E-02;  0.0000000E+00;  3.9319913E-03;  9.9540289E+02;  1.6598371E-01; -3.8086111E+03;3; -2.7778444E+00;  0.0000000E+00; -6.2023443E-01;0; -2.7114707E-01;  1.4531731E+04;  0.0000000E+00; -2.6954708E-01;  4.0000000E+04;  0.0000000E+00;  3.9661523E+04; -1.9135070E-01;  0.0000000E+00; -7.9796366E-02;  1.5936177E+03;
  8.4273493E-01;  9.9999998E-03;  5.0228823E-02;7361; -4.1528098E-02;  0.0000000E+00; -3.9318837E-03;  9.9540265E+02;  1.6598438E-01; -3.8088086E+03;3; -2.7778294E+00;  0.0000000E+00;  6.2017810E-01;0; -2.7114671E-01;  1.4531728E+04;  0.0000000E+00; -2.6954323E-01;  4.0000000E+04;  0.0000000E+00;  3.9661531E+04; -1.9135037E-01;  0.0000000E+00; -7.9796344E-02;  1.5935901E+03;
  8.4265369E-01;  9.9999998E-03; -6.0320437E-02;7350; -3.9955340E-02;  0.0000000E+00;  4.6409681E-03;  9.9546252E+02;  1.6596425E-01; -3.7591807E+03;3; -2.6381547E+00;  0.0000000E+00; -7.4869907E-01;0; -2.6535809E-01;  1.4534987E+04;  0.0000000E+00; -3.7475467E-01;  4.0000000E+04;  0.0000000E+00;  3.9663160E+04; -1.8794712E-01;  0.0000000E+00; -7.7410966E-02;  1.9505155E+03;
  8.4265369E-01;  9.9999998E-03;  6.0320437E-02;7362; -3.9955359E-02;  0.0000000E+00; -4.6408623E-03;  9.9546246E+02;  1.6596511E-01; -3.7592302E+03;3; -2.6382403E+00;  0.0000000E+00;  7.4864686E-01;0; -2.6535821E-01;  1.4534991E+04;  0.0000000E+00; -3.7475058E-01;  4.0000000E+04;  0.0000000E+00;  3.9663160E+04; -1.8794723E-01;  0.0000000E+00; -7.7410981E-02;  1.9505400E+03;
  8.4260613E-01;  9.9999998E-03; -7.0429243E-02;7349; -3.8156562E-02;  0.0000000E+00;  5.3150496E-03;  9.9554346E+02;  1.6596191E-01; -3.6921216E+03;3; -2.4685454E+00;  0.0000000E+00; -8.8151002E-01;0; -2.5862250E-01;  1.4535390E+04;  0.0000000E+00; -4.8682457E-01;  4.0000000E+04;  0.0000000E+00;  3.9666094E+04; -1.8378656E-01;  0.0000000E+00; -7.4835934E-02;  2.4537603E+03;
  8.4258783E-01;  9.9999998E-03; -8.0497153E-02;7348; -3.6162138E-02;  0.0000000E+00;  5.9474329E-03;  9.9564075E+02;  1.6597295E-01; -3.6115317E+03;3; -2.2587025E+00;  0.0000000E+00; -1.0162910E+00;0; -2.5099653E-01;  1.4533238E+04;  0.0000000E+00; -5.9659719E-01;  4.0000000E+04;  0.0000000E+00;  3.9669812E+04; -1.7887454E-01;  0.0000000E+00; -7.2121993E-02;  3.0373408E+03;
  8.4260076E-01;  9.9999998E-03; -9.0537190E-02;7347; -3.3990834E-02;  0.0000000E+00;  6.5391520E-03;  9.9575861E+02;  1.6600080E-01; -3.5139055E+03;3; -2.0109301E+00;  0.0000000E+00; -1.1552157E+00;0; -2.4250805E-01;  1.4528705E+04;  0.0000000E+00; -6.9346887E-01;  4.0000000E+04;  0.0000000E+00;  3.9673711E+04; -1.7319821E-01;  0.0000000E+00; -6.9309853E-02;  3.5974624E+03;
  8.4264719E-01;  9.9999998E-03; -1.0055547E-01;7346; -3.1660561E-02;  0.0000000E+00;  7.0930221E-03;  9.9588135E+02;  1.6604455E-01; -3.4122295E+03;3; -1.7217528E+00;  0.0000000E+00; -1.2985259E+00;0; -2.3318496E-01;  1.4521716E+04;  0.0000000E+00; -7.6682019E-01;  4.0000000E+04;  0.0000000E+00;  3.9676734E+04; -1.6675222E-01;  0.0000000E+00; -6.6432752E-02;  4.0286111E+03;
  8.6064732E-01;  9.9999998E-03; -1.0053464E-02;7416; -4.8991278E-02;  0.0000000E+00;  1.2909007E-03;  9.9487964E+02;  1.7424172E-01; -4.2420708E+03;3; -3.1192250E+00;  0.0000000E+00; -1.0537976E-01;0; -3.0691975E-01;  1.3214564E+04;  0.0000000E+00; -9.4966805E-03;  4.0000000E+04;  0.0000000E+00;  3.9619074E+04; -1.7896478E-01;  0.0000000E+00; -1.2795496E-01;  2.3140800E+02;
  8.6065400E-01;  9.9999998E-03;  4.5373297E-10;7417; -4.9148172E-02;  0.0000000E+00;  5.1827985E-08;  9.9489343E+02;  1.7424680E-01; -4.2306641E+03;3; -3.1095388E+00;  0.0000000E+00; -1.5921803E-05;0; -3.0742702E-01;  1.3214500E+04;  0.0000000E+00;  1.2331737E-11;  4.0000000E+04;  0.0000000E+00;  3.9618969E+04; -1.7906660E-01;  0.0000000E+00; -1.2836042E-01;  2.2286737E+02;
  8.6064732E-01;  9.9999998E-03;  1.0053466E-02;7418; -4.8991274E-02;  0.0000000E+00; -1.2907928E-03;  9.9487952E+02;  1.7424221E-01; -4.2421694E+03;3; -3.1191430E+00;  0.0000000E+00;  1.0539195E-01;0; -3.0691987E-01;  1.3214565E+04;  0.0000000E+00; -9.4965640E-03;  4.0000000E+04;  0.0000000E+00;  3.9619078E+04; -1.7896496E-01;  0.0000000E+00; -1.2795493E-01;  2.3141634E+02;
  8.6062902E-01;  9.9999998E-03; -2.0103034E-02;7415; -4.8522502E-02;  0.0000000E+00;  2.5699944E-03;  9.9484094E+02;  1.7422974E-01; -4.2741685E+03;3; -3.0903513E+00;  0.0000000E+00; -2.0983095E-01;0; -3.0539569E-01;  1.3214754E+04;  0.0000000E+00; -3.7544083E-02;  4.0000000E+04;  0.0000000E+00;  3.9619148E+04; -1.7863910E-01;  0.0000000E+00; -1.2675659E-01;  2.7085577E+02;
  8.6062902E-01;  9.9999998E-03;  2.0103035E-02;7419; -4.8522502E-02;  0.0000000E+00; -2.5698887E-03;  9.9484119E+02;  1.7422973E-01; -4.2739712E+03;3; -3.0903199E+00;  0.0000000E+00;  2.0981050E-01;0; -3.0539563E-01;  1.3214752E+04;  0.0000000E+00; -3.7544075E-02;  4.0000000E+04;  0.0000000E+00;  3.9619152E+04; -1.7863898E-01;  0.0000000E+00; -1.2675665E-01;  2.7084119E+02;
  8.6060506E-01;  9.9999998E-03; -3.0148424E-02;7414; -4.7751207E-02;  0.0000000E+00;  3.8265970E-03;  9.9478522E+02;  1.7421159E-01; -4.3203398E+03;3; -3.0189877E+00;  0.0000000E+00; -3.0922243E-01;0; -3.0284256E-01;  1.3214678E+04;  0.0000000E+00; -8.3026975E-02;  4.0000000E+04;  0.0000000E+00;  3.9619668E+04; -1.7802396E-01;  0.0000000E+00; -1.2481860E-01;  3.7081836E+02;
  8.6060506E-01;  9.9999998E-03;  3.0148430E-02;7420; -4.7751218E-02;  0.0000000E+00; -3.8264915E-03;  9.9478528E+02;  1.7421146E-01; -4.3202905E+03;3; -3.0190647E+00;  0.0000000E+00;  3.0920285E-01;0; -3.0284247E-01;  1.3214677E+04;  0.0000000E+00; -8.3025858E-02;  4.0000000E+04;  0.0000000E+00;  3.9619668E+04; -1.7802383E-01;  0.0000000E+00; -1.2481864E-01;  3.7080344E+02;
  8.6058277E-01;  9.9999998E-03; -4.0195219E-02;7413; -4.6690445E-02;  0.0000000E+00;  5.0515025E-03;  9.9471948E+02;  1.7419264E-01; -4.3747573E+03;3; -2.9425828E+00;  0.0000000E+00; -4.1436976E-01;0; -2.9924282E-01;  1.3213950E+04;  0.0000000E+00; -1.4451203E-01;  4.0000000E+04;  0.0000000E+00;  3.9620062E+04; -1.7702597E-01;  0.0000000E+00; -1.2221685E-01;  5.5328992E+02;
  8.6058277E-01;  9.9999998E-03;  4.0195223E-02;7421; -4.6690449E-02;  0.0000000E+00; -5.0513935E-03;  9.9471948E+02;  1.7419314E-01; -4.3747573E+03;3; -2.9427054E+00;  0.0000000E+00;  4.1437715E-01;0; -2.9924279E-01;  1.3213949E+04;  0.0000000E+00; -1.4451028E-01;  4.0000000E+04;  0.0000000E+00;  3.9620062E+04; -1.7702599E-01;  0.0000000E+00; -1.2221679E-01;  5.5325482E+02;
  8.6057049E-01;  9.9999998E-03; -5.0252713E-02;7412; -4.5355130E-02;  0.0000000E+00;  6.2379292E-03;  9.9465247E+02;  1.7417672E-01; -4.4303110E+03;3; -2.8268042E+00;  0.0000000E+00; -5.1372045E-01;0; -2.9457900E-01;  1.3212193E+04;  0.0000000E+00; -2.2024941E-01;  4.0000000E+04;  0.0000000E+00;  3.9621340E+04; -1.7553809E-01;  0.0000000E+00; -1.1904091E-01;  8.3305396E+02;
  8.6057043E-01;  9.9999998E-03;  5.0252721E-02;7422; -4.5355141E-02;  0.0000000E+00; -6.2378175E-03;  9.9465240E+02;  1.7417732E-01; -4.4303604E+03;3; -2.8268702E+00;  0.0000000E+00;  5.1374948E-01;0; -2.9457927E-01;  1.3212190E+04;  0.0000000E+00; -2.2024700E-01;  4.0000000E+04;  0.0000000E+00;  3.9621340E+04; -1.7553827E-01;  0.0000000E+00; -1.1904100E-01;  8.3302069E+02;
  8.6057633E-01;  9.9999998E-03; -6.0332280E-02;7411; -4.3762911E-02;  0.0000000E+00;  7.3797870E-03;  9.9460089E+02;  1.7416698E-01; -4.4730254E+03;3; -2.6871006E+00;  0.0000000E+00; -6.1646891E-01;0; -2.8884089E-01;  1.3208868E+04;  0.0000000E+00; -3.0766606E-01;  4.0000000E+04;  0.0000000E+00;  3.9623434E+04; -1.7345518E-01;  0.0000000E+00; -1.1538573E-01;  1.2266991E+03;
  8.6057633E-01;  9.9999998E-03;  6.0332283E-02;7423; -4.3762919E-02;  0.0000000E+00; -7.3796804E-03;  9.9460083E+02;  1.7416701E-01; -4.4730752E+03;3; -2.6870589E+00;  0.0000000E+00;  6.1631751E-01;0; -2.8884107E-01;  1.3208869E+04;  0.0000000E+00; -3.0766255E-01;  4.0000000E+04;  0.0000000E+00;  3.9623426E+04; -1.7345534E-01;  0.0000000E+00; -1.1538572E-01;  1.2266548E+03;
  8.6061358E-01;  9.9999998E-03; -7.0443474E-02;7410; -4.1932449E-02;  0.0000000E+00;  8.4738415E-03;  9.9457257E+02;  1.7417040E-01; -4.4964814E+03;3; -2.5170710E+00;  0.0000000E+00; -7.2130853E-01;0; -2.8203568E-01;  1.3203412E+04;  0.0000000E+00; -4.0261978E-01;  4.0000000E+04;  0.0000000E+00;  3.9626836E+04; -1.7068003E-01;  0.0000000E+00; -1.1135565E-01;  1.7409694E+03;
  8.6068481E-01;  9.9999998E-03; -8.0557384E-02;7409; -3.9886739E-02;  0.0000000E+00;  9.5133828E-03;  9.9458264E+02;  1.7418972E-01; -4.4881362E+03;3; -2.3145397E+00;  0.0000000E+00; -8.3371687E-01;0; -2.7421194E-01;  1.3195631E+04;  0.0000000E+00; -4.9909186E-01;  4.0000000E+04;  0.0000000E+00;  3.9631004E+04; -1.6716920E-01;  0.0000000E+00; -1.0704274E-01;  2.3407732E+03;
  8.6078274E-01;  9.9999998E-03; -9.0642162E-02;7408; -3.7646215E-02;  0.0000000E+00;  1.0494192E-02;  9.9462500E+02;  1.7422339E-01; -4.4530757E+03;3; -2.0455620E+00;  0.0000000E+00; -9.3806487E-01;0; -2.6544476E-01;  1.3186371E+04;  0.0000000E+00; -5.8915257E-01;  4.0000000E+04;  0.0000000E+00;  3.9635398E+04; -1.6292882E-01;  0.0000000E+00; -1.0251594E-01;  2.9386865E+03;
  8.6089730E-01;  9.9999998E-03; -1.0071217E-01;7407; -3.5223197E-02;  0.0000000E+00;  1.1416940E-02;  9.9469312E+02;  1.7426500E-01; -4.3966328E+03;3; -1.7086109E+00;  0.0000000E+00; -1.0344048E+00;0; -2.5578463E-01;  1.3176418E+04;  0.0000000E+00; -6.6438365E-01;  4.0000000E+04;  0.0000000E+00;  3.9639195E+04; -1.5797533E-01;  0.0000000E+00; -9.7809292E-02;  3.4262827E+03;
  8.7822098E-01;  9.9999998E-03; -1.0064869E-02;7477; -5.2761037E-02;  0.0000000E+00;  1.7992976E-03;  9.9410883E+02;  1.8256961E-01; -4.8807036E+03;3; -3.2555795E+00;  0.0000000E+00; -8.1840135E-02;0; -2.7866381E-01;  1.2042554E+04;  0.0000000E+00; -4.6932208E-03;  4.0000000E+04;  0.0000000E+00;  3.9574711E+04; -1.0552806E-01;  0.0000000E+00; -1.7313576E-01;  1.1981752E+03;
  8.7822634E-01;  9.9999998E-03;  1.0067974E-09;7478; -5.2918077E-02;  0.0000000E+00;  5.2923479E-08;  9.9412610E+02;  1.8257190E-01; -4.8663833E+03;3; -3.3221722E+00;  0.0000000E+00; -1.3616510E-05;0; -2.7897775E-01;  1.2042932E+04;  0.0000000E+00;  3.5351718E-11;  4.0000000E+04;  0.0000000E+00;  3.9574484E+04; -1.0529034E-01;  0.0000000E+00; -1.7368743E-01;  1.2363650E+03;
  8.7822098E-01;  9.9999998E-03;  1.0064870E-02;7479; -5.2761037E-02;  0.0000000E+00; -1.7991903E-03;  9.9410876E+02;  1.8256825E-01; -4.8807529E+03;3; -3.2555053E+00;  0.0000000E+00;  8.1841722E-02;0; -2.7866381E-01;  1.2042553E+04;  0.0000000E+00; -4.6942257E-03;  4.0000000E+04;  0.0000000E+00;  3.9574707E+04; -1.0552810E-01;  0.0000000E+00; -1.7313571E-01;  1.1981824E+03;
  8.7820512E-01;  9.9999998E-03; -2.0122556E-02;7476; -5.2289870E-02;  0.0000000E+00;  3.5806613E-03;  9.9405219E+02;  1.8256211E-01; -4.9276157E+03;3; -3.1948812E+00;  0.0000000E+00; -1.7983460E-01;0; -2.7770492E-01;  1.2041301E+04;  0.0000000E+00; -1.8807329E-02;  4.0000000E+04;  0.0000000E+00;  3.9575664E+04; -1.0620438E-01;  0.0000000E+00; -1.7150055E-01;  1.0907448E+03;
  8.7820512E-01;  9.9999998E-03;  2.0122560E-02;7480; -5.2289873E-02;  0.0000000E+00; -3.5805530E-03;  9.9405212E+02;  1.8256173E-01; -4.9276650E+03;3; -3.1948302E+00;  0.0000000E+00;  1.7982496E-01;0; -2.7770510E-01;  1.2041307E+04;  0.0000000E+00; -1.8809101E-02;  4.0000000E+04;  0.0000000E+00;  3.9575664E+04; -1.0620449E-01;  0.0000000E+00; -1.7150061E-01;  1.0907441E+03;
  8.7818056E-01;  9.9999998E-03; -3.0171482E-02;7475; -5.1516537E-02;  0.0000000E+00;  5.3312615E-03;  9.9396924E+02;  1.8254994E-01; -4.9963042E+03;3; -3.1273360E+00;  0.0000000E+00; -2.5702703E-01;0; -2.7605385E-01;  1.2039326E+04;  0.0000000E+00; -4.2527512E-02;  4.0000000E+04;  0.0000000E+00;  3.9576793E+04; -1.0721372E-01;  0.0000000E+00; -1.6884013E-01;  9.3015759E+02;
  8.7818056E-01;  9.9999998E-03;  3.0171487E-02;7481; -5.1516533E-02;  0.0000000E+00; -5.3311479E-03;  9.9396936E+02;  1.8254922E-01; -4.9962056E+03;3; -3.1273501E+00;  0.0000000E+00;  2.5705796E-01;0; -2.7605405E-01;  1.2039325E+04;  0.0000000E+00; -4.2529732E-02;  4.0000000E+04;  0.0000000E+00;  3.9576797E+04; -1.0721382E-01;  0.0000000E+00; -1.6884023E-01;  9.3015906E+02;
  8.7815100E-01;  9.9999998E-03; -4.0216289E-02;7474; -5.0448664E-02;  0.0000000E+00;  7.0362943E-03;  9.9386029E+02;  1.8253393E-01; -5.0865723E+03;3; -3.0391426E+00;  0.0000000E+00; -3.2020608E-01;0; -2.7363622E-01;  1.2036655E+04;  0.0000000E+00; -7.6388471E-02;  4.0000000E+04;  0.0000000E+00;  3.9578496E+04; -1.0839237E-01;  0.0000000E+00; -1.6524386E-01;  7.3198767E+02;
  8.7815100E-01;  9.9999998E-03;  4.0216301E-02;7482; -5.0448664E-02;  0.0000000E+00; -7.0361821E-03;  9.9386029E+02;  1.8253416E-01; -5.0865723E+03;3; -3.0391006E+00;  0.0000000E+00;  3.2021433E-01;0; -2.7363646E-01;  1.2036652E+04;  0.0000000E+00; -7.6392502E-02;  4.0000000E+04;  0.0000000E+00;  3.9578500E+04; -1.0839246E-01;  0.0000000E+00; -1.6524398E-01;  7.3198016E+02;
  8.7812001E-01;  9.9999998E-03; -5.0266095E-02;7473; -4.9101926E-02;  0.0000000E+00;  8.6851809E-03;  9.9375098E+02;  1.8251610E-01; -5.1771367E+03;3; -2.9370384E+00;  0.0000000E+00; -3.9376462E-01;0; -2.7037621E-01;  1.2033399E+04;  0.0000000E+00; -1.2133496E-01;  4.0000000E+04;  0.0000000E+00;  3.9580488E+04; -1.0955764E-01;  0.0000000E+00; -1.6081856E-01;  5.2345776E+02;
  8.7812001E-01;  9.9999998E-03;  5.0266102E-02;7483; -4.9101930E-02;  0.0000000E+00; -8.6850710E-03;  9.9375104E+02;  1.8251599E-01; -5.1770874E+03;3; -2.9369254E+00;  0.0000000E+00;  3.9371347E-01;0; -2.7037641E-01;  1.2033396E+04;  0.0000000E+00; -1.2133989E-01;  4.0000000E+04;  0.0000000E+00;  3.9580484E+04; -1.0955776E-01;  0.0000000E+00; -1.6081865E-01;  5.2345374E+02;
  8.7809521E-01;  9.9999998E-03; -6.0333658E-02;7472; -4.7491465E-02;  0.0000000E+00;  1.0270119E-02;  9.9365039E+02;  1.8249744E-01; -5.2604917E+03;3; -2.7808449E+00;  0.0000000E+00; -4.5571482E-01;0; -2.6619351E-01;  1.2029468E+04;  0.0000000E+00; -1.7821544E-01;  4.0000000E+04;  0.0000000E+00;  3.9583480E+04; -1.1050454E-01;  0.0000000E+00; -1.5568896E-01;  4.5738934E+02;
  8.7809521E-01;  9.9999998E-03;  6.0333669E-02;7484; -4.7491480E-02;  0.0000000E+00; -1.0270002E-02;  9.9365033E+02;  1.8249722E-01; -5.2605410E+03;3; -2.7809122E+00;  0.0000000E+00;  4.5572793E-01;0; -2.6619333E-01;  1.2029472E+04;  0.0000000E+00; -1.7821588E-01;  4.0000000E+04;  0.0000000E+00;  3.9583492E+04; -1.1050438E-01;  0.0000000E+00; -1.5568894E-01;  4.5738586E+02;
  8.7809110E-01;  9.9999998E-03; -7.0431367E-02;7471; -4.5634665E-02;  0.0000000E+00;  1.1786375E-02;  9.9357721E+02;  1.8248683E-01; -5.3211313E+03;3; -2.6286814E+00;  0.0000000E+00; -5.2476996E-01;0; -2.6100439E-01;  1.2024305E+04;  0.0000000E+00; -2.4677938E-01;  4.0000000E+04;  0.0000000E+00;  3.9587172E+04; -1.1100713E-01;  0.0000000E+00; -1.4999726E-01;  7.6967059E+02;
  8.7813175E-01;  9.9999998E-03; -8.0548294E-02;7470; -4.3551005E-02;  0.0000000E+00;  1.3231082E-02;  9.9354437E+02;  1.8249482E-01; -5.3482910E+03;3; -2.4710047E+00;  0.0000000E+00; -6.2008691E-01;0; -2.5474250E-01;  1.2016854E+04;  0.0000000E+00; -3.2484004E-01;  4.0000000E+04;  0.0000000E+00;  3.9591750E+04; -1.1083075E-01;  0.0000000E+00; -1.4391176E-01;  1.3074427E+03;
  8.7824154E-01;  9.9999998E-03; -9.0641916E-02;7469; -4.1269034E-02;  0.0000000E+00;  1.4603567E-02;  9.9354865E+02;  1.8253420E-01; -5.3447847E+03;3; -2.2321427E+00;  0.0000000E+00; -7.1627825E-01;0; -2.4741629E-01;  1.2005898E+04;  0.0000000E+00; -4.0809321E-01;  4.0000000E+04;  0.0000000E+00;  3.9596281E+04; -1.0980866E-01;  0.0000000E+00; -1.3760762E-01;  1.8805979E+03;
  8.7839264E-01;  9.9999998E-03; -1.0070954E-01;7468; -3.8788855E-02;  0.0000000E+00;  1.5905611E-02;  9.9359320E+02;  1.8259165E-01; -5.3078481E+03;3; -1.8289318E+00;  0.0000000E+00; -7.4924797E-01;0; -2.3922093E-01;  1.1993493E+04;  0.0000000E+00; -4.9108776E-01;  4.0000000E+04;  0.0000000E+00;  3.9599809E+04; -1.0811187E-01;  0.0000000E+00; -1.3110906E-01;  2.3581504E+03;
  8.9754313E-01;  9.9999998E-03; -1.0063348E-01;7529; -4.2513169E-02;  0.0000000E+00;  2.1161338E-02;  9.9240948E+02;  1.9179466E-01; -6.2885312E+03;3; -2.1262681E+00;  0.0000000E+00; -4.6934056E-01;0; -1.0320006E-01;  1.0855570E+04;  0.0000000E+00; -3.1330371E-01;  4.0000000E+04;  0.0000000E+00;  3.9554633E+04;  6.6887513E-02;  0.0000000E+00; -1.7008758E-01;  9.2279773E+02;
  8.9743501E-01;  9.9999998E-03; -9.0582334E-02;7530; -4.5033820E-02;  0.0000000E+00;  1.9442352E-02;  9.9236859E+02;  1.9176389E-01; -6.3224062E+03;3; -2.6408281E+00;  0.0000000E+00; -5.3724337E-01;0; -1.0425086E-01;  1.0863839E+04;  0.0000000E+00; -2.1621369E-01;  4.0000000E+04;  0.0000000E+00;  3.9551195E+04;  7.4412696E-02;  0.0000000E+00; -1.7866355E-01;  4.5214148E+02;
  8.9729923E-01;  9.9999998E-03; -8.0504261E-02;7531; -4.7318902E-02;  0.0000000E+00;  1.7612061E-02;  9.9237274E+02;  1.9172014E-01; -6.3189497E+03;3; -2.7201178E+00;  0.0000000E+00; -3.7966558E-01;0; -1.0549901E-01;  1.0874682E+04;  0.0000000E+00; -1.3693993E-01;  4.0000000E+04;  0.0000000E+00;  3.9546820E+04;  8.1325874E-02;  0.0000000E+00; -1.8682489E-01;  1.7341751E+02;
  8.9715636E-01;  9.9999998E-03; -7.0396796E-02;7532; -4.9393099E-02;  0.0000000E+00;  1.5661174E-02;  9.9242474E+02;  1.9166996E-01; -6.2758896E+03;3; -2.7661929E+00;  0.0000000E+00; -2.9915175E-01;0; -1.0669623E-01;  1.0886750E+04;  0.0000000E+00; -7.6910235E-02;  4.0000000E+04;  0.0000000E+00;  3.9542230E+04;  8.7782592E-02;  0.0000000E+00; -1.9447882E-01;  7.7031586E+02;
  8.9701688E-01;  9.9999998E-03; -6.0308933E-02;7533; -5.1228065E-02;  0.0000000E+00;  1.3613331E-02;  9.9251965E+02;  1.9161734E-01; -6.1972271E+03;3; -2.8796551E+00;  0.0000000E+00; -2.9290247E-01;0; -1.0772833E-01;  1.0899274E+04;  0.0000000E+00; -3.6050759E-02;  4.0000000E+04;  0.0000000E+00;  3.9538051E+04;  9.3735263E-02;  0.0000000E+00; -2.0146360E-01;  1.3315281E+03;
  8.9688677E-01;  9.9999998E-03; -5.0251432E-02;7534; -5.2808363E-02;  0.0000000E+00;  1.1484933E-02;  9.9264075E+02;  1.9156489E-01; -6.0969351E+03;3; -3.0281332E+00;  0.0000000E+00; -2.7458653E-01;0; -1.0857192E-01;  1.0911519E+04;  0.0000000E+00; -1.1875890E-02;  4.0000000E+04;  0.0000000E+00;  3.9534707E+04;  9.9070959E-02;  0.0000000E+00; -2.0764288E-01;  1.8102614E+03;
  8.9676952E-01;  9.9999998E-03; -4.0209193E-02;7535; -5.4120749E-02;  0.0000000E+00;  9.2843547E-03;  9.9277026E+02;  1.9151612E-01; -5.9896309E+03;3; -3.1355743E+00;  0.0000000E+00; -2.4313764E-01;0; -1.0925107E-01;  1.0922896E+04;  0.0000000E+00; -3.3821678E-04;  4.0000000E+04;  0.0000000E+00;  3.9531812E+04;  1.0364747E-01;  0.0000000E+00; -2.1289854E-01;  2.2170752E+03;
  8.9667082E-01;  9.9999998E-03; -3.0169420E-02;7536; -5.5162765E-02;  0.0000000E+00;  7.0218835E-03;  9.9289038E+02;  1.9147162E-01; -5.8901289E+03;3; -3.3799820E+00;  0.0000000E+00; -2.1819048E-01;0; -1.0977127E-01;  1.0932683E+04;  0.0000000E+00;  3.1139990E-03;  4.0000000E+04;  0.0000000E+00;  3.9529211E+04;  1.0735117E-01;  0.0000000E+00; -2.1712244E-01;  2.5633450E+03;
  8.9659578E-01;  9.9999998E-03; -2.0122524E-02;7537; -5.5910207E-02;  0.0000000E+00;  4.7113481E-03;  9.9298438E+02;  1.9143663E-01; -5.8122559E+03;3; -3.4504347E+00;  0.0000000E+00; -1.1965177E-01;0; -1.1014222E-01;  1.0940195E+04;  0.0000000E+00;  2.4736298E-03;  4.0000000E+04;  0.0000000E+00;  3.9527348E+04;  1.1007651E-01;  0.0000000E+00; -2.2021873E-01;  2.8419048E+03;
  8.9654899E-01;  9.9999998E-03; -1.0065056E-02;7538; -5.6364693E-02;  0.0000000E+00;  2.3635211E-03;  9.9304736E+02;  1.9141497E-01; -5.7600605E+03;3; -3.4974380E+00;  0.0000000E+00; -9.0690210E-02;0; -1.1036276E-01;  1.0944938E+04;  0.0000000E+00;  7.8747241E-04;  4.0000000E+04;  0.0000000E+00;  3.9525984E+04;  1.1174839E-01;  0.0000000E+00; -2.2211115E-01;  3.0278472E+03;
  8.9653313E-01;  9.9999998E-03; -1.3638734E-12;7539; -5.6518640E-02;  0.0000000E+00;  5.5759493E-08;  9.9306586E+02;  1.9140781E-01; -5.7447524E+03;3; -3.5819421E+00;  0.0000000E+00;  5.6698918E-06;0; -1.1043201E-01;  1.0946576E+04;  0.0000000E+00;  4.3644480E-11;  4.0000000E+04;  0.0000000E+00;  3.9525473E+04;  1.1231599E-01;  0.0000000E+00; -2.2274800E-01;  3.0937693E+03;
  8.9654899E-01;  9.9999998E-03;  1.0065057E-02;7540; -5.6364689E-02;  0.0000000E+00; -2.3634126E-03;  9.9304742E+02;  1.9141440E-01; -5.7600112E+03;3; -3.4975908E+00;  0.0000000E+00;  9.0660013E-02;0; -1.1036284E-01;  1.0944940E+04;  0.0000000E+00;  7.8625575E-04;  4.0000000E+04;  0.0000000E+00;  3.9525984E+04;  1.1174835E-01;  0.0000000E+00; -2.2211120E-01;  3.0278757E+03;
  8.9659578E-01;  9.9999998E-03;  2.0122524E-02;7541; -5.5910204E-02;  0.0000000E+00; -4.7112391E-03;  9.9298431E+02;  1.9143640E-01; -5.8123052E+03;3; -3.4504163E+00;  0.0000000E+00;  1.1963380E-01;0; -1.1014258E-01;  1.0940195E+04;  0.0000000E+00;  2.4712065E-03;  4.0000000E+04;  0.0000000E+00;  3.9527348E+04;  1.1007618E-01;  0.0000000E+00; -2.2021876E-01;  2.8419146E+03;
  8.9667082E-01;  9.9999998E-03;  3.0169416E-02;7542; -5.5162773E-02;  0.0000000E+00; -7.0217694E-03;  9.9289044E+02;  1.9147113E-01; -5.8900791E+03;3; -3.3801281E+00;  0.0000000E+00;  2.1820602E-01;0; -1.0977121E-01;  1.0932684E+04;  0.0000000E+00;  3.1109247E-03;  4.0000000E+04;  0.0000000E+00;  3.9529211E+04;  1.0735122E-01;  0.0000000E+00; -2.1712244E-01;  2.5633523E+03;
  8.9676952E-01;  9.9999998E-03;  4.0209189E-02;7543; -5.4120749E-02;  0.0000000E+00; -9.2842421E-03;  9.9277051E+02;  1.9151518E-01; -5.9894331E+03;3; -3.1355839E+00;  0.0000000E+00;  2.4316005E-01;0; -1.0925113E-01;  1.0922896E+04;  0.0000000E+00; -3.4359546E-04;  4.0000000E+04;  0.0000000E+00;  3.9531824E+04;  1.0364732E-01;  0.0000000E+00; -2.1289845E-01;  2.2171394E+03;
  8.9688671E-01;  9.9999998E-03;  5.0251432E-02;7544; -5.2808363E-02;  0.0000000E+00; -1.1484821E-02;  9.9264087E+02;  1.9156496E-01; -6.0968364E+03;3; -3.0281117E+00;  0.0000000E+00;  2.7459210E-01;0; -1.0857186E-01;  1.0911522E+04;  0.0000000E+00; -1.1885341E-02;  4.0000000E+04;  0.0000000E+00;  3.9534703E+04;  9.9070869E-02;  0.0000000E+00; -2.0764273E-01;  1.8103081E+03;
  8.9701694E-01;  9.9999998E-03;  6.0308937E-02;7545; -5.1228069E-02;  0.0000000E+00; -1.3613216E-02;  9.9251971E+02;  1.9161826E-01; -6.1971777E+03;3; -2.8796697E+00;  0.0000000E+00;  2.9297844E-01;0; -1.0772800E-01;  1.0899273E+04;  0.0000000E+00; -3.6058526E-02;  4.0000000E+04;  0.0000000E+00;  3.9538047E+04;  9.3735367E-02;  0.0000000E+00; -2.0146337E-01;  1.3314967E+03;
  9.1716903E-01;  9.9999998E-03; -1.0054932E-01;7590; -4.5824330E-02;  0.0000000E+00;  2.6877154E-02;  9.9175574E+02;  2.0128664E-01; -6.8301084E+03;3; -2.5560272E+00;  0.0000000E+00; -2.4886514E-01;0;  2.8006977E-01;  9.8513652E+03;  0.0000000E+00; -2.1633229E-01;  4.0000000E+04;  0.0000000E+00;  3.9505902E+04;  4.9067491E-01;  0.0000000E+00; -2.1060516E-01;  1.4874521E+03;
  9.1719598E-01;  9.9999998E-03; -9.0492465E-02;7591; -4.8357937E-02;  0.0000000E+00;  2.4740525E-02;  9.9170734E+02;  2.0131969E-01; -6.8702056E+03;3; -3.2745221E+00;  0.0000000E+00; -5.1334310E-01;0;  2.9868758E-01;  9.8520635E+03;  0.0000000E+00; -1.1331415E-01;  4.0000000E+04;  0.0000000E+00;  3.9501504E+04;  5.1993257E-01;  0.0000000E+00; -2.2124499E-01;  1.7883562E+03;
  9.1718549E-01;  9.9999998E-03; -8.0418751E-02;7592; -5.0624158E-02;  0.0000000E+00;  2.2459991E-02;  9.9170776E+02;  2.0133112E-01; -6.8698599E+03;3; -3.0857441E+00;  0.0000000E+00; -2.5005299E-01;0;  3.1525493E-01;  9.8557588E+03;  0.0000000E+00; -3.9987147E-02;  4.0000000E+04;  0.0000000E+00;  3.9496070E+04;  5.4661995E-01;  0.0000000E+00; -2.3136504E-01;  2.2802561E+03;
  9.1714799E-01;  9.9999998E-03; -7.0333578E-02;7593; -5.2695747E-02;  0.0000000E+00;  2.0003719E-02;  9.9175323E+02;  2.0132509E-01; -6.8321826E+03;3; -2.8493612E+00;  0.0000000E+00; -1.1905622E-01;0;  3.2981920E-01;  9.8617197E+03;  0.0000000E+00;  6.8526124E-03;  4.0000000E+04;  0.0000000E+00;  3.9490512E+04;  5.7063043E-01;  0.0000000E+00; -2.4081121E-01;  2.8906992E+03;
  9.1708803E-01;  9.9999998E-03; -6.0254663E-02;7594; -5.4544747E-02;  0.0000000E+00;  1.7402722E-02;  9.9182977E+02;  2.0130081E-01; -6.7687778E+03;3; -2.9981306E+00;  0.0000000E+00; -1.5331529E-01;0;  3.4226620E-01;  9.8693545E+03;  0.0000000E+00;  3.1578343E-02;  4.0000000E+04;  0.0000000E+00;  3.9485305E+04;  5.9166062E-01;  0.0000000E+00; -2.4939440E-01;  3.5191572E+03;
  9.1700572E-01;  9.9999998E-03; -5.0198428E-02;7595; -5.6124285E-02;  0.0000000E+00;  1.4690607E-02;  9.9192792E+02;  2.0126070E-01; -6.6874482E+03;3; -3.1555660E+00;  0.0000000E+00; -1.9017643E-01;0;  3.5231817E-01;  9.8781484E+03;  0.0000000E+00;  3.9229538E-02;  4.0000000E+04;  0.0000000E+00;  3.9480742E+04;  6.0924673E-01;  0.0000000E+00; -2.5692856E-01;  4.1035776E+03;
  9.1690898E-01;  9.9999998E-03; -4.0163901E-02;7596; -5.7439275E-02;  0.0000000E+00;  1.1877541E-02;  9.9202771E+02;  2.0121194E-01; -6.6047861E+03;3; -3.6148148E+00;  0.0000000E+00; -2.6555035E-01;0;  3.5996437E-01;  9.8873145E+03;  0.0000000E+00;  3.5151407E-02;  4.0000000E+04;  0.0000000E+00;  3.9476852E+04;  6.2323642E-01;  0.0000000E+00; -2.6327205E-01;  4.6258267E+03;
  9.1680944E-01;  9.9999998E-03; -3.0136432E-02;7597; -5.8462400E-02;  0.0000000E+00;  8.9861574E-03;  9.9211182E+02;  2.0116118E-01; -6.5351104E+03;3; -3.6493967E+00;  0.0000000E+00; -2.2362602E-01;0;  3.6535358E-01;  9.8959365E+03;  0.0000000E+00;  2.4643561E-02;  4.0000000E+04;  0.0000000E+00;  3.9473496E+04;  6.3367009E-01;  0.0000000E+00; -2.6831651E-01;  5.0797236E+03;
  9.1672260E-01;  9.9999998E-03; -2.0103676E-02;7598; -5.9199322E-02;  0.0000000E+00;  6.0312198E-03;  9.9217657E+02;  2.0111473E-01; -6.4814336E+03;3; -3.9023528E+00;  0.0000000E+00; -1.5422232E-01;0;  3.6882699E-01;  9.9029434E+03;  0.0000000E+00;  1.2652930E-02;  4.0000000E+04;  0.0000000E+00;  3.9470867E+04;  6.4080763E-01;  0.0000000E+00; -2.7198064E-01;  5.4453394E+03;
  9.1666329E-01;  9.9999998E-03; -1.0057591E-02;7599; -5.9645589E-02;  0.0000000E+00;  3.0267937E-03;  9.9221558E+02;  2.0108390E-01; -6.4491387E+03;3; -3.9674728E+00;  0.0000000E+00; -9.4148666E-02;0;  3.7072182E-01;  9.9075947E+03;  0.0000000E+00;  3.4383563E-03;  4.0000000E+04;  0.0000000E+00;  3.9468961E+04;  6.4492655E-01;  0.0000000E+00; -2.7420473E-01;  5.6886489E+03;
  9.1664231E-01;  9.9999998E-03;  1.3726232E-09;7600; -5.9786476E-02;  0.0000000E+00;  5.3432725E-08;  9.9222815E+02;  2.0107324E-01; -6.4387197E+03;3; -3.9592819E+00;  0.0000000E+00;  1.2014760E-05;0;  3.7132925E-01;  9.9092090E+03;  0.0000000E+00;  4.1333426E-11;  4.0000000E+04;  0.0000000E+00;  3.9468305E+04;  6.4628041E-01;  0.0000000E+00; -2.7495116E-01;  5.7747344E+03;
  9.1666329E-01;  9.9999998E-03;  1.0057593E-02;7601; -5.9645589E-02;  0.0000000E+00; -3.0266859E-03;  9.9221552E+02;  2.0108406E-01; -6.4491880E+03;3; -3.9674633E+00;  0.0000000E+00;  9.4147295E-02;0;  3.7072220E-01;  9.9075918E+03;  0.0000000E+00;  3.4383002E-03;  4.0000000E+04;  0.0000000E+00;  3.9468961E+04;  6.4492697E-01;  0.0000000E+00; -2.7420476E-01;  5.6886455E+03;
  9.1672260E-01;  9.9999998E-03;  2.0103676E-02;7602; -5.9199329E-02;  0.0000000E+00; -6.0311090E-03;  9.9217657E+02;  2.0111473E-01; -6.4814336E+03;3; -3.9023888E+00;  0.0000000E+00;  1.5423080E-01;0;  3.6882725E-01;  9.9029395E+03;  0.0000000E+00;  1.2652211E-02;  4.0000000E+04;  0.0000000E+00;  3.9470867E+04;  6.4080775E-01;  0.0000000E+00; -2.7198049E-01;  5.4453823E+03;
  9.1680944E-01;  9.9999998E-03;  3.0136432E-02;7603; -5.8462396E-02;  0.0000000E+00; -8.9860465E-03;  9.9211200E+02;  2.0116094E-01; -6.5349619E+03;3; -3.6494110E+00;  0.0000000E+00;  2.2359918E-01;0;  3.6535388E-01;  9.8959385E+03;  0.0000000E+00;  2.4641272E-02;  4.0000000E+04;  0.0000000E+00;  3.9473496E+04;  6.3367045E-01;  0.0000000E+00; -2.6831657E-01;  5.0797744E+03;
  9.1690898E-01;  9.9999998E-03;  4.0163901E-02;7604; -5.7439279E-02;  0.0000000E+00; -1.1877430E-02;  9.9202771E+02;  2.0121211E-01; -6.6047861E+03;3; -3.6148756E+00;  0.0000000E+00;  2.6554382E-01;0;  3.5996452E-01;  9.8873105E+03;  0.0000000E+00;  3.5148565E-02;  4.0000000E+04;  0.0000000E+00;  3.9476844E+04;  6.2323642E-01;  0.0000000E+00; -2.6327190E-01;  4.6258936E+03;
  9.1700572E-01;  9.9999998E-03;  5.0198432E-02;7605; -5.6124285E-02;  0.0000000E+00; -1.4690498E-02;  9.9192792E+02;  2.0126197E-01; -6.6874482E+03;3; -3.1554763E+00;  0.0000000E+00;  1.9020273E-01;0;  3.5231927E-01;  9.8781445E+03;  0.0000000E+00;  3.9224479E-02;  4.0000000E+04;  0.0000000E+00;  3.9480746E+04;  6.0924768E-01;  0.0000000E+00; -2.5692841E-01;  4.1036060E+03;
  9.1708803E-01;  9.9999998E-03;  6.0254667E-02;7606; -5.4544754E-02;  0.0000000E+00; -1.7402612E-02;  9.9182990E+02;  2.0130108E-01; -6.7686792E+03;3; -2.9981320E+00;  0.0000000E+00;  1.5327151E-01;0;  3.4226701E-01;  9.8693506E+03;  0.0000000E+00;  3.1572439E-02;  4.0000000E+04;  0.0000000E+00;  3.9485301E+04;  5.9166163E-01;  0.0000000E+00; -2.4939463E-01;  3.5192124E+03;
  9.3936598E-01;  9.9999998E-03; -1.0080439E-01;7651; -4.8519127E-02;  0.0000000E+00;  3.3696864E-02;  9.9315594E+02;  2.1140212E-01; -5.6700234E+03;3; -2.8656752E+00;  0.0000000E+00;  9.7789370E-02;0;  1.1519173E+00;  8.9647627E+03;  0.0000000E+00; -2.3460114E-01;  4.0000000E+04;  0.0000000E+00;  3.9449613E+04;  1.4030856E+00;  0.0000000E+00; -2.5116825E-01;  4.2086221E+03;
  9.3948233E-01;  9.9999998E-03; -9.0759583E-02;7652; -5.1006321E-02;  0.0000000E+00;  3.1071644E-02;  9.9309711E+02;  2.1147589E-01; -5.7187617E+03;3; -3.9342234E+00;  0.0000000E+00; -5.6712228E-01;0;  1.2075744E+00;  8.9608867E+03;  0.0000000E+00; -1.4312391E-01;  4.0000000E+04;  0.0000000E+00;  3.9443137E+04;  1.4705387E+00;  0.0000000E+00; -2.6296431E-01;  4.8000620E+03;
  9.3950170E-01;  9.9999998E-03; -8.0698334E-02;7653; -5.3188540E-02;  0.0000000E+00;  2.8262410E-02;  9.9306146E+02;  2.1150622E-01; -5.7482910E+03;3; -4.1677094E+00;  0.0000000E+00; -8.5489732E-01;0;  1.2546446E+00;  8.9613887E+03;  0.0000000E+00; -7.9169124E-02;  4.0000000E+04;  0.0000000E+00;  3.9436230E+04;  1.5286332E+00;  0.0000000E+00; -2.7398866E-01;  5.5027158E+03;
  9.3944544E-01;  9.9999998E-03; -7.0616528E-02;7654; -5.5192810E-02;  0.0000000E+00;  2.5230804E-02;  9.9304803E+02;  2.1149509E-01; -5.7594507E+03;3; -3.4705229E+00;  0.0000000E+00; -4.3758020E-01;0;  1.2935746E+00;  8.9651797E+03;  0.0000000E+00; -3.8397782E-02;  4.0000000E+04;  0.0000000E+00;  3.9429160E+04;  1.5776955E+00;  0.0000000E+00; -2.8412098E-01;  6.2737422E+03;
  9.3934035E-01;  9.9999998E-03; -6.0532082E-02;7655; -5.6988712E-02;  0.0000000E+00;  2.1985147E-02;  9.9304590E+02;  2.1146080E-01; -5.7611792E+03;3; -3.3613808E+00;  0.0000000E+00; -3.1669891E-01;0;  1.3252439E+00;  8.9711260E+03;  0.0000000E+00; -1.4459222E-02;  4.0000000E+04;  0.0000000E+00;  3.9422387E+04;  1.6184602E+00;  0.0000000E+00; -2.9321617E-01;  7.0394614E+03;
  9.3920088E-01;  9.9999998E-03; -5.0445616E-02;7656; -5.8545530E-02;  0.0000000E+00;  1.8575331E-02;  9.9305518E+02;  2.1140252E-01; -5.7535259E+03;3; -3.7028320E+00;  0.0000000E+00; -2.9562205E-01;0;  1.3500214E+00;  8.9784336E+03;  0.0000000E+00; -1.6717478E-03;  4.0000000E+04;  0.0000000E+00;  3.9416945E+04;  1.6511605E+00;  0.0000000E+00; -3.0113918E-01;  7.7397739E+03;
  9.3905389E-01;  9.9999998E-03; -4.0361337E-02;7657; -5.9815932E-02;  0.0000000E+00;  1.5026244E-02;  9.9306720E+02;  2.1133858E-01; -5.7435513E+03;3; -4.0009861E+00;  0.0000000E+00; -3.5310066E-01;0;  1.3690424E+00;  8.9858672E+03;  0.0000000E+00;  3.7811776E-03;  4.0000000E+04;  0.0000000E+00;  3.9412285E+04;  1.6768302E+00;  0.0000000E+00; -3.0778784E-01;  8.3456143E+03;
  9.3892330E-01;  9.9999998E-03; -3.0279838E-02;7658; -6.0820792E-02;  0.0000000E+00;  1.1371862E-02;  9.9307629E+02;  2.1127951E-01; -5.7360459E+03;3; -4.4845209E+00;  0.0000000E+00; -4.7286162E-01;0;  1.3833359E+00;  8.9923809E+03;  0.0000000E+00;  4.5303321E-03;  4.0000000E+04;  0.0000000E+00;  3.9408504E+04;  1.6964113E+00;  0.0000000E+00; -3.1307527E-01;  8.8452158E+03;
  9.3881720E-01;  9.9999998E-03; -2.0196054E-02;7659; -6.1530445E-02;  0.0000000E+00;  7.6323021E-03;  9.9307855E+02;  2.1122846E-01; -5.7341694E+03;3; -4.7852898E+00;  0.0000000E+00; -1.9910926E-01;0;  1.3930705E+00;  8.9975850E+03;  0.0000000E+00;  2.8613128E-03;  4.0000000E+04;  0.0000000E+00;  3.9405617E+04;  1.7099854E+00;  0.0000000E+00; -3.1691492E-01;  9.2265166E+03;
  9.3874747E-01;  9.9999998E-03; -1.0103311E-02;7660; -6.1948534E-02;  0.0000000E+00;  3.8400074E-03;  9.9307550E+02;  2.1119694E-01; -5.7366880E+03;3; -4.6222763E+00;  0.0000000E+00; -8.4502973E-02;0;  1.3986850E+00;  9.0009268E+03;  0.0000000E+00;  8.5174548E-04;  4.0000000E+04;  0.0000000E+00;  3.9403793E+04;  1.7179297E+00;  0.0000000E+00; -3.1924480E-01;  9.4704648E+03;
  9.3872267E-01;  9.9999998E-03;  2.6176346E-09;7661; -6.2098023E-02;  0.0000000E+00;  5.2160075E-08;  9.9307697E+02;  2.1118528E-01; -5.7354536E+03;3; -5.1451907E+00;  0.0000000E+00;  1.1073716E-05;0;  1.4004953E+00;  9.0021250E+03;  0.0000000E+00;  3.1934688E-11;  4.0000000E+04;  0.0000000E+00;  3.9403090E+04;  1.7205213E+00;  0.0000000E+00; -3.2002610E-01;  9.5552373E+03;
  9.3874747E-01;  9.9999998E-03;  1.0103317E-02;7662; -6.1948534E-02;  0.0000000E+00; -3.8399035E-03;  9.9307538E+02;  2.1119647E-01; -5.7367871E+03;3; -4.6222191E+00;  0.0000000E+00;  8.4489577E-02;0;  1.3986845E+00;  9.0009268E+03;  0.0000000E+00;  8.5315382E-04;  4.0000000E+04;  0.0000000E+00;  3.9403793E+04;  1.7179295E+00;  0.0000000E+00; -3.1924492E-01;  9.4704863E+03;
  9.3881720E-01;  9.9999998E-03;  2.0196056E-02;7663; -6.1530448E-02;  0.0000000E+00; -7.6321969E-03;  9.9307843E+02;  2.1122888E-01; -5.7342681E+03;3; -4.7852244E+00;  0.0000000E+00;  1.9910924E-01;0;  1.3930700E+00;  8.9975850E+03;  0.0000000E+00;  2.8639222E-03;  4.0000000E+04;  0.0000000E+00;  3.9405613E+04;  1.7099850E+00;  0.0000000E+00; -3.1691501E-01;  9.2265039E+03;
  9.3892330E-01;  9.9999998E-03;  3.0279838E-02;7664; -6.0820799E-02;  0.0000000E+00; -1.1371754E-02;  9.9307629E+02;  2.1127947E-01; -5.7360459E+03;3; -4.4846034E+00;  0.0000000E+00;  4.7292963E-01;0;  1.3833363E+00;  8.9923799E+03;  0.0000000E+00;  4.5338911E-03;  4.0000000E+04;  0.0000000E+00;  3.9408500E+04;  1.6964115E+00;  0.0000000E+00; -3.1307524E-01;  8.8452402E+03;
  9.3905389E-01;  9.9999998E-03;  4.0361341E-02;7665; -5.9815940E-02;  0.0000000E+00; -1.5026142E-02;  9.9306708E+02;  2.1133848E-01; -5.7436499E+03;3; -4.0008540E+00;  0.0000000E+00;  3.5299087E-01;0;  1.3690416E+00;  8.9858672E+03;  0.0000000E+00;  3.7836879E-03;  4.0000000E+04;  0.0000000E+00;  3.9412277E+04;  1.6768295E+00;  0.0000000E+00; -3.0778793E-01;  8.3456309E+03;
  9.3920088E-01;  9.9999998E-03;  5.0445616E-02;7666; -5.8545530E-02;  0.0000000E+00; -1.8575227E-02;  9.9305493E+02;  2.1140312E-01; -5.7537236E+03;3; -3.7028165E+00;  0.0000000E+00;  2.9564115E-01;0;  1.3500228E+00;  8.9784346E+03;  0.0000000E+00; -1.6698354E-03;  4.0000000E+04;  0.0000000E+00;  3.9416945E+04;  1.6511619E+00;  0.0000000E+00; -3.0113918E-01;  7.7397607E+03;
  9.3934035E-01;  9.9999998E-03;  6.0532082E-02;7667; -5.6988720E-02;  0.0000000E+00; -2.1985034E-02;  9.9304596E+02;  2.1146090E-01; -5.7611299E+03;3; -3.3614273E+00;  0.0000000E+00;  3.1680498E-01;0;  1.3252443E+00;  8.9711289E+03;  0.0000000E+00; -1.4456894E-02;  4.0000000E+04;  0.0000000E+00;  3.9422387E+04;  1.6184604E+00;  0.0000000E+00; -2.9321608E-01;  7.0394746E+03;
  9.6193862E-01;  9.9999998E-03; -1.0092393E-01;7712; -4.9961925E-02;  0.0000000E+00;  4.0587712E-02;  9.9516827E+02;  2.1975330E-01; -4.0028623E+03;3; -2.2492557E+00;  0.0000000E+00;  1.6305215E+00;0;  2.5643129E+00;  8.3396152E+03;  0.0000000E+00; -3.1752807E-01;  4.0000000E+04;  0.0000000E+00;  3.9390418E+04;  2.8403745E+00;  0.0000000E+00; -2.7606162E-01;  8.0696733E+03;
  9.6202397E-01;  9.9999998E-03; -9.0859219E-02;7713; -5.2379746E-02;  0.0000000E+00;  3.7363578E-02;  9.9509216E+02;  2.1979463E-01; -4.0659202E+03;3; -3.6513693E+00;  0.0000000E+00;  3.3202571E-01;0;  2.6591821E+00;  8.3373740E+03;  0.0000000E+00; -2.4258292E-01;  4.0000000E+04;  0.0000000E+00;  3.9382113E+04;  2.9458818E+00;  0.0000000E+00; -2.8669971E-01;  8.9886191E+03;
  9.6202528E-01;  9.9999998E-03; -8.0783032E-02;7714; -5.4446995E-02;  0.0000000E+00;  3.3976421E-02;  9.9502808E+02;  2.1980591E-01; -4.1190034E+03;3; -4.7020082E+00;  0.0000000E+00; -8.0273134E-01;0;  2.7404287E+00;  8.3377441E+03;  0.0000000E+00; -1.8436134E-01;  4.0000000E+04;  0.0000000E+00;  3.9373430E+04;  3.0368223E+00;  0.0000000E+00; -2.9639366E-01;  9.9291133E+03;
  9.6197033E-01;  9.9999998E-03; -7.0686296E-02;7715; -5.6231674E-02;  0.0000000E+00;  3.0399621E-02;  9.9498291E+02;  2.1979497E-01; -4.1564331E+03;3; -4.9902420E+00;  0.0000000E+00; -1.2954046E+00;0;  2.8094580E+00;  8.3399785E+03;  0.0000000E+00; -1.4153032E-01;  4.0000000E+04;  0.0000000E+00;  3.9365195E+04;  3.1145461E+00;  0.0000000E+00; -3.0508795E-01;  1.0842994E+04;
  9.6187609E-01;  9.9999998E-03; -6.0576998E-02;7716; -5.7799440E-02;  0.0000000E+00;  2.6587937E-02;  9.9495148E+02;  2.1976541E-01; -4.1824561E+03;3; -4.6770935E+00;  0.0000000E+00; -1.2495154E+00;0;  2.8669441E+00;  8.3434834E+03;  0.0000000E+00; -1.0796114E-01;  4.0000000E+04;  0.0000000E+00;  3.9357918E+04;  3.1796682E+00;  0.0000000E+00; -3.1272420E-01;  1.1669080E+04;
  9.6177059E-01;  9.9999998E-03; -5.0471745E-02;7717; -5.9162512E-02;  0.0000000E+00;  2.2554554E-02;  9.9492944E+02;  2.1972947E-01; -4.2007271E+03;3; -4.8535299E+00;  0.0000000E+00; -8.7050843E-01;0;  2.9145088E+00;  8.3473330E+03;  0.0000000E+00; -7.8877673E-02;  4.0000000E+04;  0.0000000E+00;  3.9352340E+04;  3.2337573E+00;  0.0000000E+00; -3.1924856E-01;  1.2362929E+04;
  9.6167463E-01;  9.9999998E-03; -4.0371004E-02;7718; -6.0276523E-02;  0.0000000E+00;  1.8296817E-02;  9.9491791E+02;  2.1969311E-01; -4.2102573E+03;3; -5.3980923E+00;  0.0000000E+00; -6.6347635E-01;0;  2.9534175E+00;  8.3508486E+03;  0.0000000E+00; -5.2820191E-02;  4.0000000E+04;  0.0000000E+00;  3.9348012E+04;  3.2780414E+00;  0.0000000E+00; -3.2462373E-01;  1.2909813E+04;
  9.6159524E-01;  9.9999998E-03; -3.0275185E-02;7719; -6.1114300E-02;  0.0000000E+00;  1.3862751E-02;  9.9490967E+02;  2.1966089E-01; -4.2171211E+03;3; -5.4072633E+00;  0.0000000E+00; -7.4091530E-01;0;  2.9838614E+00;  8.3538457E+03;  0.0000000E+00; -3.0715449E-02;  4.0000000E+04;  0.0000000E+00;  3.9344855E+04;  3.3126845E+00;  0.0000000E+00; -3.2882306E-01;  1.3317786E+04;
  9.6153355E-01;  9.9999998E-03; -2.0183234E-02;7720; -6.1736714E-02;  0.0000000E+00;  9.3250787E-03;  9.9490320E+02;  2.1963553E-01; -4.2224541E+03;3; -5.8421040E+00;  0.0000000E+00; -3.3391896E-01;0;  3.0055621E+00;  8.3560703E+03;  0.0000000E+00; -1.3938144E-02;  4.0000000E+04;  0.0000000E+00;  3.9342656E+04;  3.3373950E+00;  0.0000000E+00; -3.3183280E-01;  1.3600647E+04;
  9.6149439E-01;  9.9999998E-03; -1.0092136E-02;7721; -6.2089607E-02;  0.0000000E+00;  4.6986230E-03;  9.9489673E+02;  2.1961929E-01; -4.2278364E+03;3; -6.0701833E+00;  0.0000000E+00;  1.1542796E-01;0;  3.0185626E+00;  8.3575020E+03;  0.0000000E+00; -3.5220431E-03;  4.0000000E+04;  0.0000000E+00;  3.9341434E+04;  3.3522062E+00;  0.0000000E+00; -3.3364365E-01;  1.3768491E+04;
  9.6148068E-01;  9.9999998E-03;  1.8253609E-09;7722; -6.2197737E-02;  0.0000000E+00;  4.9882797E-08;  9.9489484E+02;  2.1961328E-01; -4.2293682E+03;3; -6.1120038E+00;  0.0000000E+00;  1.9297935E-05;0;  3.0228684E+00;  8.3579805E+03;  0.0000000E+00;  1.3376444E-11;  4.0000000E+04;  0.0000000E+00;  3.9340926E+04;  3.3571165E+00;  0.0000000E+00; -3.3424816E-01;  1.3824365E+04;
  9.6149439E-01;  9.9999998E-03;  1.0092141E-02;7723; -6.2089615E-02;  0.0000000E+00; -4.6985224E-03;  9.9489673E+02;  2.1961948E-01; -4.2278364E+03;3; -6.0701709E+00;  0.0000000E+00; -1.1537963E-01;0;  3.0185606E+00;  8.3575029E+03;  0.0000000E+00; -3.5205255E-03;  4.0000000E+04;  0.0000000E+00;  3.9341430E+04;  3.3522041E+00;  0.0000000E+00; -3.3364344E-01;  1.3768485E+04;
  9.6153355E-01;  9.9999998E-03;  2.0183239E-02;7724; -6.1736733E-02;  0.0000000E+00; -9.3249734E-03;  9.9490332E+02;  2.1963631E-01; -4.2223555E+03;3; -5.8422203E+00;  0.0000000E+00;  3.3398250E-01;0;  3.0055628E+00;  8.3560684E+03;  0.0000000E+00; -1.3935438E-02;  4.0000000E+04;  0.0000000E+00;  3.9342656E+04;  3.3373954E+00;  0.0000000E+00; -3.3183259E-01;  1.3600639E+04;
  9.6159524E-01;  9.9999998E-03;  3.0275188E-02;7725; -6.1114304E-02;  0.0000000E+00; -1.3862654E-02;  9.9490961E+02;  2.1966094E-01; -4.2171704E+03;3; -5.4072781E+00;  0.0000000E+00;  7.4083740E-01;0;  2.9838612E+00;  8.3538438E+03;  0.0000000E+00; -3.0711856E-02;  4.0000000E+04;  0.0000000E+00;  3.9344859E+04;  3.3126843E+00;  0.0000000E+00; -3.2882306E-01;  1.3317818E+04;
  9.6167463E-01;  9.9999998E-03;  4.0371001E-02;7726; -6.0276531E-02;  0.0000000E+00; -1.8296707E-02;  9.9491803E+02;  2.1969244E-01; -4.2101587E+03;3; -5.3981214E+00;  0.0000000E+00;  6.6349488E-01;0;  2.9534147E+00;  8.3508516E+03;  0.0000000E+00; -5.2816324E-02;  4.0000000E+04;  0.0000000E+00;  3.9348008E+04;  3.2780383E+00;  0.0000000E+00; -3.2462353E-01;  1.2909873E+04;
  9.6177059E-01;  9.9999998E-03;  5.0471745E-02;7727; -5.9162531E-02;  0.0000000E+00; -2.2554440E-02;  9.9492932E+02;  2.1972954E-01; -4.2008257E+03;3; -4.8535080E+00;  0.0000000E+00;  8.7056637E-01;0;  2.9145064E+00;  8.3473359E+03;  0.0000000E+00; -7.8871682E-02;  4.0000000E+04;  0.0000000E+00;  3.9352344E+04;  3.2337551E+00;  0.0000000E+00; -3.1924856E-01;  1.2362972E+04;
  9.6187609E-01;  9.9999998E-03;  6.0576994E-02;7728; -5.7799447E-02;  0.0000000E+00; -2.6587827E-02;  9.9495123E+02;  2.1976505E-01; -4.1826538E+03;3; -4.6771283E+00;  0.0000000E+00;  1.2495239E+00;0;  2.8669424E+00;  8.3434873E+03;  0.0000000E+00; -1.0795519E-01;  4.0000000E+04;  0.0000000E+00;  3.9357918E+04;  3.1796668E+00;  0.0000000E+00; -3.1272426E-01;  1.1669097E+04;
  9.8477393E-01;  9.9999998E-03; -1.0096757E-01;7773; -4.9334507E-02;  0.0000000E+00;  4.7104668E-02;  9.9511200E+02;  2.2473378E-01; -4.0494204E+03;3; -6.7407197E-01;  0.0000000E+00;  6.7492485E+00;0;  4.3323774E+00;  7.9840547E+03;  0.0000000E+00; -3.5553125E-01;  4.0000000E+04;  0.0000000E+00;  3.9334910E+04;  4.6005082E+00;  0.0000000E+00; -2.6813066E-01;  1.2536411E+04;
  9.8512310E-01;  9.9999998E-03; -9.0881854E-02;7774; -5.1606286E-02;  0.0000000E+00;  4.3049399E-02;  9.9506171E+02;  2.2479625E-01; -4.0910957E+03;3; -2.3156474E+00;  0.0000000E+00;  6.1245809E+00;0;  4.4810195E+00;  7.9796357E+03;  0.0000000E+00; -2.8477970E-01;  4.0000000E+04;  0.0000000E+00;  3.9324387E+04;  4.7549458E+00;  0.0000000E+00; -2.7392629E-01;  1.3751335E+04;
  9.8539335E-01;  9.9999998E-03; -8.0789573E-02;7775; -5.3415444E-02;  0.0000000E+00;  3.8783737E-02;  9.9503656E+02;  2.2484386E-01; -4.1119326E+03;3; -5.7105646E+00;  0.0000000E+00;  5.4739556E+00;0;  4.6132431E+00;  7.9768560E+03;  0.0000000E+00; -2.2650746E-01;  4.0000000E+04;  0.0000000E+00;  3.9314367E+04;  4.8916979E+00;  0.0000000E+00; -2.7845478E-01;  1.4904144E+04;
  9.8557520E-01;  9.9999998E-03; -7.0683904E-02;7776; -5.4505274E-02;  0.0000000E+00;  3.4316201E-02;  9.9502716E+02;  2.2487077E-01; -4.1196846E+03;3; -1.3558389E+01;  0.0000000E+00;  4.8162856E+00;0;  4.7272692E+00;  7.9755132E+03;  0.0000000E+00; -1.8121593E-01;  4.0000000E+04;  0.0000000E+00;  3.9305434E+04;  5.0091243E+00;  0.0000000E+00; -2.8185517E-01;  1.5924136E+04;
  9.8569238E-01;  9.9999998E-03; -6.0563460E-02;7777; -5.4507293E-02;  0.0000000E+00;  2.9676473E-02;  9.9503638E+02;  2.2488733E-01; -4.1120801E+03;3; -2.6349373E+01;  0.0000000E+00;  4.1741648E+00;0;  4.8239522E+00;  7.9751309E+03;  0.0000000E+00; -1.4304858E-01;  4.0000000E+04;  0.0000000E+00;  3.9298141E+04;  5.1082201E+00;  0.0000000E+00; -2.8426775E-01;  1.6755631E+04;
  9.8576850E-01;  9.9999998E-03; -5.0448760E-02;7778; -5.3145159E-02;  0.0000000E+00;  2.4918450E-02;  9.9505634E+02;  2.2489473E-01; -4.0955378E+03;3; -4.3545326E+01;  0.0000000E+00;  3.6685994E+00;0;  4.9041214E+00;  7.9753208E+03;  0.0000000E+00; -1.0719991E-01;  4.0000000E+04;  0.0000000E+00;  3.9292938E+04;  5.1899710E+00;  0.0000000E+00; -2.8584963E-01;  1.7369562E+04;
  9.8583126E-01;  9.9999998E-03; -4.0350236E-02;7779; -5.0396852E-02;  0.0000000E+00;  2.0051463E-02;  9.9508429E+02;  2.2489862E-01; -4.0723787E+03;3; -5.8949001E+01;  0.0000000E+00;  2.8206959E+00;0;  4.9694686E+00;  7.9755381E+03;  0.0000000E+00; -7.3001333E-02;  4.0000000E+04;  0.0000000E+00;  3.9289551E+04;  5.2562180E+00;  0.0000000E+00; -2.8674948E-01;  1.7775672E+04;
  9.8588902E-01;  9.9999998E-03; -3.0262839E-02;7780; -4.6901893E-02;  0.0000000E+00;  1.5128080E-02;  9.9511523E+02;  2.2490309E-01; -4.0467510E+03;3; -7.0630081E+01;  0.0000000E+00;  2.2085531E+00;0;  5.0206604E+00;  7.9756953E+03;  0.0000000E+00; -4.2828459E-02;  4.0000000E+04;  0.0000000E+00;  3.9287574E+04;  5.3078170E+00;  0.0000000E+00; -2.8715649E-01;  1.8011316E+04;
  9.8593605E-01;  9.9999998E-03; -2.0174788E-02;7781; -4.3561507E-02;  0.0000000E+00;  1.0125116E-02;  9.9514270E+02;  2.2490615E-01; -4.0239871E+03;3; -7.7336830E+01;  0.0000000E+00;  1.3776132E+00;0;  5.0574536E+00;  7.9757900E+03;  0.0000000E+00; -1.9516693E-02;  4.0000000E+04;  0.0000000E+00;  3.9286734E+04;  5.3447294E+00;  0.0000000E+00; -2.8727600E-01;  1.8127068E+04;
  9.8597038E-01;  9.9999998E-03; -1.0086528E-02;7782; -4.1176420E-02;  0.0000000E+00;  5.0689126E-03;  9.9516162E+02;  2.2490808E-01; -4.0083337E+03;3; -8.0988541E+01;  0.0000000E+00;  6.8645543E-01;0;  5.0799003E+00;  7.9757324E+03;  0.0000000E+00; -4.9384902E-03;  4.0000000E+04;  0.0000000E+00;  3.9286379E+04;  5.3671618E+00;  0.0000000E+00; -2.8726137E-01;  1.8174516E+04;
  9.8598260E-01;  9.9999998E-03; -1.2287410E-09;7783; -4.0315159E-02;  0.0000000E+00;  5.8019243E-08;  9.9516760E+02;  2.2490889E-01; -4.0033467E+03;3; -8.2084740E+01;  0.0000000E+00;  4.6876215E-05;0;  5.0874162E+00;  7.9757310E+03;  0.0000000E+00; -9.9402648E-12;  4.0000000E+04;  0.0000000E+00;  3.9286211E+04;  5.3746586E+00;  0.0000000E+00; -2.8724256E-01;  1.8186570E+04;
  9.8597032E-01;  9.9999998E-03;  1.0086526E-02;7784; -4.1176997E-02;  0.0000000E+00; -5.0687958E-03;  9.9516180E+02;  2.2490834E-01; -4.0081362E+03;3; -8.0987785E+01;  0.0000000E+00; -6.8633789E-01;0;  5.0798931E+00;  7.9757295E+03;  0.0000000E+00; -4.9382690E-03;  4.0000000E+04;  0.0000000E+00;  3.9286375E+04;  5.3671546E+00;  0.0000000E+00; -2.8726161E-01;  1.8174508E+04;
  9.8593605E-01;  9.9999998E-03;  2.0174788E-02;7785; -4.3561343E-02;  0.0000000E+00; -1.0125002E-02;  9.9514270E+02;  2.2490542E-01; -4.0239871E+03;3; -7.7337021E+01;  0.0000000E+00; -1.3776426E+00;0;  5.0574517E+00;  7.9757910E+03;  0.0000000E+00; -1.9515906E-02;  4.0000000E+04;  0.0000000E+00;  3.9286734E+04;  5.3447275E+00;  0.0000000E+00; -2.8727576E-01;  1.8127074E+04;
  9.8588902E-01;  9.9999998E-03;  3.0262839E-02;7786; -4.6901923E-02;  0.0000000E+00; -1.5127975E-02;  9.9511511E+02;  2.2490314E-01; -4.0468496E+03;3; -7.0630142E+01;  0.0000000E+00; -2.2085829E+00;0;  5.0206614E+00;  7.9756904E+03;  0.0000000E+00; -4.2827673E-02;  4.0000000E+04;  0.0000000E+00;  3.9287574E+04;  5.3078179E+00;  0.0000000E+00; -2.8715652E-01;  1.8011338E+04;
  9.8583120E-01;  9.9999998E-03;  4.0350236E-02;7787; -5.0396916E-02;  0.0000000E+00; -2.0051362E-02;  9.9508405E+02;  2.2489808E-01; -4.0725762E+03;3; -5.8948917E+01;  0.0000000E+00; -2.8206007E+00;0;  4.9694705E+00;  7.9755391E+03;  0.0000000E+00; -7.3001251E-02;  4.0000000E+04;  0.0000000E+00;  3.9289555E+04;  5.2562203E+00;  0.0000000E+00; -2.8674990E-01;  1.7775738E+04;
  9.8576850E-01;  9.9999998E-03;  5.0448757E-02;7788; -5.3145293E-02;  0.0000000E+00; -2.4918348E-02;  9.9505634E+02;  2.2489493E-01; -4.0955378E+03;3; -4.3544563E+01;  0.0000000E+00; -3.6685367E+00;0;  4.9041209E+00;  7.9753188E+03;  0.0000000E+00; -1.0720111E-01;  4.0000000E+04;  0.0000000E+00;  3.9292934E+04;  5.1899700E+00;  0.0000000E+00; -2.8584918E-01;  1.7369592E+04;
  9.8569238E-01;  9.9999998E-03;  6.0563460E-02;7789; -5.4507371E-02;  0.0000000E+00; -2.9676381E-02;  9.9503638E+02;  2.2488733E-01; -4.1120801E+03;3; -2.6348783E+01;  0.0000000E+00; -4.1741638E+00;0;  4.8239493E+00;  7.9751235E+03;  0.0000000E+00; -1.4305142E-01;  4.0000000E+04;  0.0000000E+00;  3.9298137E+04;  5.1082172E+00;  0.0000000E+00; -2.8426781E-01;  1.6755652E+04;
  1.0084690E+00;  9.9999998E-03; -1.0091823E-01;7834;  1.7600192E-01;  0.0000000E+00;  4.6748042E-02;  9.9439923E+02;  2.2646625E-01; -4.6397998E+03;3; -1.0213670E+02;  0.0000000E+00;  3.2927319E+01;0;  5.8900580E+00;  7.8609956E+03;  0.0000000E+00; -2.5650969E-01;  4.0000000E+04;  0.0000000E+00;  3.9289609E+04;  6.0973077E+00;  0.0000000E+00; -2.0724970E-01;  1.6691439E+04;
  1.0088838E+00;  9.9999998E-03; -9.0833768E-02;7835;  1.8891498E-01;  0.0000000E+00;  4.2036355E-02;  9.9446771E+02;  2.2647606E-01; -4.5830630E+03;3; -1.0221877E+02;  0.0000000E+00;  3.0493399E+01;0;  6.0208101E+00;  7.8606401E+03;  0.0000000E+00; -1.9411047E-01;  4.0000000E+04;  0.0000000E+00;  3.9279297E+04;  6.2243528E+00;  0.0000000E+00; -2.0354290E-01;  1.7945699E+04;
  1.0091469E+00;  9.9999998E-03; -8.0740571E-02;7836;  1.9929269E-01;  0.0000000E+00;  3.7441622E-02;  9.9454144E+02;  2.2647502E-01; -4.5219810E+03;3; -1.0237548E+02;  0.0000000E+00;  2.7854822E+01;0;  6.1320581E+00;  7.8611270E+03;  0.0000000E+00; -1.4977652E-01;  4.0000000E+04;  0.0000000E+00;  3.9269852E+04;  6.3309994E+00;  0.0000000E+00; -1.9894110E-01;  1.9080229E+04;
  1.0093342E+00;  9.9999998E-03; -7.0641376E-02;7837;  2.0856579E-01;  0.0000000E+00;  3.2819901E-02;  9.9461694E+02;  2.2647165E-01; -4.4594678E+03;3; -1.0236238E+02;  0.0000000E+00;  2.4902155E+01;0;  6.2274313E+00;  7.8619717E+03;  0.0000000E+00; -1.1851367E-01;  4.0000000E+04;  0.0000000E+00;  3.9261898E+04;  6.4209442E+00;  0.0000000E+00; -1.9351272E-01;  2.0034383E+04;
  1.0094749E+00;  9.9999998E-03; -1.0080008E-02;7843;  2.4396728E-01;  0.0000000E+00;  4.7184573E-03;  9.9487714E+02;  2.2645111E-01; -4.2438828E+03;3; -1.0101735E+02;  0.0000000E+00;  3.8253117E+00;0;  6.5012112E+00;  7.8649307E+03;  0.0000000E+00; -3.1012020E-03;  4.0000000E+04;  0.0000000E+00;  3.9251914E+04;  6.6680427E+00;  0.0000000E+00; -1.6683125E-01;  2.1266186E+04;
  1.0094814E+00;  9.9999998E-03; -3.5433478E-09;7844;  2.4508706E-01;  0.0000000E+00;  3.3325552E-08;  9.9488416E+02;  2.2645104E-01; -4.2381060E+03;3; -1.0089102E+02;  0.0000000E+00; -2.6904918E-05;0;  6.5067134E+00;  7.8649302E+03;  0.0000000E+00; -4.5426624E-11;  4.0000000E+04;  0.0000000E+00;  3.9252203E+04;  6.6727414E+00;  0.0000000E+00; -1.6602799E-01;  2.1233418E+04;
  1.0094749E+00;  9.9999998E-03;  1.0080000E-02;7845;  2.4396661E-01;  0.0000000E+00; -4.7183889E-03;  9.9487744E+02;  2.2645140E-01; -4.2436362E+03;3; -1.0101754E+02;  0.0000000E+00; -3.8253624E+00;0;  6.5012093E+00;  7.8649307E+03;  0.0000000E+00; -3.1019137E-03;  4.0000000E+04;  0.0000000E+00;  3.9251914E+04;  6.6680408E+00;  0.0000000E+00; -1.6683140E-01;  2.1266199E+04;
  1.0094608E+00;  9.9999998E-03; -2.0159865E-02;7842;  2.4079968E-01;  0.0000000E+00;  9.4411541E-03;  9.9485394E+02;  2.2644967E-01; -4.2631401E+03;3; -1.0134484E+02;  0.0000000E+00;  7.6073112E+00;0;  6.4848094E+00;  7.8649277E+03;  0.0000000E+00; -1.2374790E-02;  4.0000000E+04;  0.0000000E+00;  3.9251215E+04;  6.6539493E+00;  0.0000000E+00; -1.6913988E-01;  2.1344484E+04;
  1.0094608E+00;  9.9999998E-03;  2.0159859E-02;7846;  2.4079983E-01;  0.0000000E+00; -9.4410907E-03;  9.9485394E+02;  2.2645006E-01; -4.2631401E+03;3; -1.0134476E+02;  0.0000000E+00; -7.6073833E+00;0;  6.4848080E+00;  7.8649277E+03;  0.0000000E+00; -1.2376621E-02;  4.0000000E+04;  0.0000000E+00;  3.9251219E+04;  6.6539478E+00;  0.0000000E+00; -1.6913980E-01;  2.1344520E+04;
  1.0094519E+00;  9.9999998E-03; -3.0240772E-02;7841;  2.3606226E-01;  0.0000000E+00;  1.4162246E-02;  9.9481958E+02;  2.2645149E-01; -4.2915820E+03;3; -1.0173863E+02;  0.0000000E+00;  1.1316006E+01;0;  6.4576745E+00;  7.8647842E+03;  0.0000000E+00; -2.7485048E-02;  4.0000000E+04;  0.0000000E+00;  3.9250820E+04;  6.6303625E+00;  0.0000000E+00; -1.7268792E-01;  2.1411988E+04;
  1.0094519E+00;  9.9999998E-03;  3.0240769E-02;7847;  2.3606218E-01;  0.0000000E+00; -1.4162179E-02;  9.9481964E+02;  2.2645135E-01; -4.2915327E+03;3; -1.0173878E+02;  0.0000000E+00; -1.1316090E+01;0;  6.4576740E+00;  7.8647856E+03;  0.0000000E+00; -2.7488468E-02;  4.0000000E+04;  0.0000000E+00;  3.9250812E+04;  6.6303620E+00;  0.0000000E+00; -1.7268814E-01;  2.1411996E+04;
  1.0094640E+00;  9.9999998E-03; -4.0333524E-02;7840;  2.3041014E-01;  0.0000000E+00;  1.8864667E-02;  9.9478180E+02;  2.2645617E-01; -4.3228877E+03;3; -1.0201991E+02;  0.0000000E+00;  1.4926245E+01;0;  6.4199924E+00;  7.8644282E+03;  0.0000000E+00; -4.7256611E-02;  4.0000000E+04;  0.0000000E+00;  3.9250879E+04;  6.5970960E+00;  0.0000000E+00; -1.7710362E-01;  2.1391219E+04;
  1.0094640E+00;  9.9999998E-03;  4.0333521E-02;7848;  2.3041055E-01;  0.0000000E+00; -1.8864594E-02;  9.9478174E+02;  2.2645620E-01; -4.3229370E+03;3; -1.0201994E+02;  0.0000000E+00; -1.4926268E+01;0;  6.4199977E+00;  7.8644277E+03;  0.0000000E+00; -4.7261897E-02;  4.0000000E+04;  0.0000000E+00;  3.9250879E+04;  6.5971012E+00;  0.0000000E+00; -1.7710361E-01;  2.1391250E+04;
  1.0094740E+00;  9.9999998E-03; -6.0541123E-02;7838;  2.1727723E-01;  0.0000000E+00;  2.8155245E-02;  9.9468787E+02;  2.2646837E-01; -4.4007070E+03;3; -1.0214017E+02;  0.0000000E+00;  2.1730553E+01;0;  6.3080831E+00;  7.8628604E+03;  0.0000000E+00; -9.3175307E-02;  4.0000000E+04;  0.0000000E+00;  3.9256098E+04;  6.4956636E+00;  0.0000000E+00; -1.8758050E-01;  2.0752320E+04;
  1.0094740E+00;  9.9999998E-03;  6.0541127E-02;7850;  2.1727633E-01;  0.0000000E+00; -2.8155198E-02;  9.9468829E+02;  2.2646894E-01; -4.4003613E+03;3; -1.0214031E+02;  0.0000000E+00; -2.1730278E+01;0;  6.3080788E+00;  7.8628594E+03;  0.0000000E+00; -9.3184397E-02;  4.0000000E+04;  0.0000000E+00;  3.9256094E+04;  6.4956594E+00;  0.0000000E+00; -1.8758075E-01;  2.0752322E+04;
  1.0094897E+00;  9.9999998E-03; -5.0438460E-02;7839;  2.2425093E-01;  0.0000000E+00;  2.3526208E-02;  9.9473859E+02;  2.2646141E-01; -4.3586865E+03;3; -1.0210480E+02;  0.0000000E+00;  1.8386116E+01;0;  6.3709869E+00;  7.8637651E+03;  0.0000000E+00; -6.9697484E-02;  4.0000000E+04;  0.0000000E+00;  3.9252512E+04;  6.5530853E+00;  0.0000000E+00; -1.8209845E-01;  2.1196002E+04;
  1.0094897E+00;  9.9999998E-03;  5.0438456E-02;7849;  2.2425006E-01;  0.0000000E+00; -2.3526153E-02;  9.9473889E+02;  2.2646125E-01; -4.3584399E+03;3; -1.0210488E+02;  0.0000000E+00; -1.8386230E+01;0;  6.3709812E+00;  7.8637632E+03;  0.0000000E+00; -6.9703959E-02;  4.0000000E+04;  0.0000000E+00;  3.9252504E+04;  6.5530796E+00;  0.0000000E+00; -1.8209863E-01;  2.1196049E+04;
  1.0307517E+00;  9.9999998E-03; -2.4744833E-09;7905;  4.9740812E-01;  0.0000000E+00;  1.8308015E-08;  9.9666119E+02;  2.2583440E-01; -2.7658813E+03;3; -7.3222321E+01;  0.0000000E+00;  3.3253418E-05;0;  6.8826542E+00;  7.9377646E+03;  0.0000000E+00; -6.7882033E-11;  4.0000000E+04;  0.0000000E+00;  3.9241824E+04;  6.8812518E+00;  0.0000000E+00;  1.4024891E-03;  2.2154916E+04;
  1.0307716E+00;  9.9999998E-03; -1.0063501E-02;7904;  4.9654227E-01;  0.0000000E+00;  1.0721924E-03;  9.9666406E+02;  2.2583337E-01; -2.7635107E+03;3; -7.3459435E+01;  0.0000000E+00;  9.6245556E+00;0;  6.8798904E+00;  7.9379653E+03;  0.0000000E+00; -3.5068765E-03;  4.0000000E+04;  0.0000000E+00;  3.9241398E+04;  6.8796935E+00;  0.0000000E+00;  1.9714778E-04;  2.2211719E+04;
  1.0307717E+00;  9.9999998E-03;  1.0063495E-02;7906;  4.9654281E-01;  0.0000000E+00; -1.0721741E-03;  9.9666412E+02;  2.2583300E-01; -2.7634614E+03;3; -7.3459274E+01;  0.0000000E+00; -9.6242733E+00;0;  6.8798923E+00;  7.9379624E+03;  0.0000000E+00; -3.5071764E-03;  4.0000000E+04;  0.0000000E+00;  3.9241395E+04;  6.8796949E+00;  0.0000000E+00;  1.9740015E-04;  2.2211736E+04;
  1.0308332E+00;  9.9999998E-03; -2.0131804E-02;7903;  4.9403006E-01;  0.0000000E+00;  2.3777420E-03;  9.9666644E+02;  2.2583303E-01; -2.7615354E+03;3; -7.4128410E+01;  0.0000000E+00;  1.7092197E+01;0;  6.8715410E+00;  7.9385308E+03;  0.0000000E+00; -1.4055773E-02;  4.0000000E+04;  0.0000000E+00;  3.9240332E+04;  6.8748784E+00;  0.0000000E+00; -3.3372757E-03;  2.2359176E+04;
  1.0308332E+00;  9.9999998E-03;  2.0131797E-02;7907;  4.9403062E-01;  0.0000000E+00; -2.3777187E-03;  9.9666638E+02;  2.2583261E-01; -2.7615850E+03;3; -7.4128250E+01;  0.0000000E+00; -1.7091887E+01;0;  6.8715396E+00;  7.9385259E+03;  0.0000000E+00; -1.4056763E-02;  4.0000000E+04;  0.0000000E+00;  3.9240332E+04;  6.8748765E+00;  0.0000000E+00; -3.3371374E-03;  2.2359211E+04;
  1.0309373E+00;  9.9999998E-03; -3.0212758E-02;7902;  4.9003410E-01;  0.0000000E+00;  3.9333915E-03;  9.9667151E+02;  2.2583260E-01; -2.7573384E+03;3; -7.5143227E+01;  0.0000000E+00;  2.2411299E+01;0;  6.8574080E+00;  7.9392734E+03;  0.0000000E+00; -3.1575859E-02;  4.0000000E+04;  0.0000000E+00;  3.9238844E+04;  6.8663988E+00;  0.0000000E+00; -8.9906221E-03;  2.2533439E+04;
  1.0309373E+00;  9.9999998E-03;  3.0212751E-02;7908;  4.9003446E-01;  0.0000000E+00; -3.9333575E-03;  9.9667157E+02;  2.2583231E-01; -2.7572888E+03;3; -7.5143013E+01;  0.0000000E+00; -2.2411207E+01;0;  6.8574033E+00;  7.9392695E+03;  0.0000000E+00; -3.1577557E-02;  4.0000000E+04;  0.0000000E+00;  3.9238848E+04;  6.8663940E+00;  0.0000000E+00; -8.9905774E-03;  2.2533475E+04;
  1.0310861E+00;  9.9999998E-03; -4.0314831E-02;7901;  4.8482561E-01;  0.0000000E+00;  5.6279479E-03;  9.9667859E+02;  2.2583272E-01; -2.7514619E+03;3; -7.6403244E+01;  0.0000000E+00;  2.6838409E+01;0;  6.8372474E+00;  7.9399873E+03;  0.0000000E+00; -5.5508945E-02;  4.0000000E+04;  0.0000000E+00;  3.9238074E+04;  6.8536835E+00;  0.0000000E+00; -1.6436132E-02;  2.2644229E+04;
  1.0310861E+00;  9.9999998E-03;  4.0314827E-02;7909;  4.8482606E-01;  0.0000000E+00; -5.6278831E-03;  9.9667877E+02;  2.2583263E-01; -2.7513137E+03;3; -7.6403099E+01;  0.0000000E+00; -2.6838390E+01;0;  6.8372493E+00;  7.9399834E+03;  0.0000000E+00; -5.5510875E-02;  4.0000000E+04;  0.0000000E+00;  3.9238078E+04;  6.8536854E+00;  0.0000000E+00; -1.6436242E-02;  2.2644254E+04;
  1.0312732E+00;  9.9999998E-03; -5.0426867E-02;7900;  4.7866181E-01;  0.0000000E+00;  7.4277129E-03;  9.9666974E+02;  2.2583616E-01; -2.7588184E+03;3; -7.7814453E+01;  0.0000000E+00;  3.0801960E+01;0;  6.8108425E+00;  7.9403628E+03;  0.0000000E+00; -8.4403127E-02;  4.0000000E+04;  0.0000000E+00;  3.9238477E+04;  6.8361754E+00;  0.0000000E+00; -2.5332993E-02;  2.2593805E+04;
  1.0312732E+00;  9.9999998E-03;  5.0426863E-02;7910;  4.7866234E-01;  0.0000000E+00; -7.4276472E-03;  9.9666980E+02;  2.2583644E-01; -2.7587195E+03;3; -7.7814384E+01;  0.0000000E+00; -3.0802036E+01;0;  6.8108411E+00;  7.9403638E+03;  0.0000000E+00; -8.4407449E-02;  4.0000000E+04;  0.0000000E+00;  3.9238469E+04;  6.8361740E+00;  0.0000000E+00; -2.5333123E-02;  2.2593887E+04;
  1.0314875E+00;  9.9999998E-03; -6.0532629E-02;7899;  4.7173062E-01;  0.0000000E+00;  9.3033537E-03;  9.9664642E+02;  2.2584280E-01; -2.7781235E+03;3; -7.9304222E+01;  0.0000000E+00;  3.4559311E+01;0;  6.7781091E+00;  7.9402017E+03;  0.0000000E+00; -1.1589973E-01;  4.0000000E+04;  0.0000000E+00;  3.9240793E+04;  6.8134422E+00;  0.0000000E+00; -3.5333302E-02;  2.2310910E+04;
  1.0314875E+00;  9.9999998E-03;  6.0532626E-02;7911;  4.7173128E-01;  0.0000000E+00; -9.3032708E-03;  9.9664630E+02;  2.2584353E-01; -2.7782222E+03;3; -7.9304039E+01;  0.0000000E+00; -3.4559353E+01;0;  6.7781096E+00;  7.9401958E+03;  0.0000000E+00; -1.1590581E-01;  4.0000000E+04;  0.0000000E+00;  3.9240793E+04;  6.8134427E+00;  0.0000000E+00; -3.5333186E-02;  2.2310928E+04;
  1.0314833E+00;  9.9999998E-03; -1.0087416E-01;7895;  4.2716891E-01;  0.0000000E+00;  1.8510770E-02;  9.9606805E+02;  2.2591391E-01; -3.2572244E+03;3; -8.7982224E+01;  0.0000000E+00;  4.7402863E+01;0;  6.5785990E+00;  7.9315635E+03;  0.0000000E+00; -2.4095409E-01;  4.0000000E+04;  0.0000000E+00;  3.9266148E+04;  6.6641326E+00;  0.0000000E+00; -8.5533589E-02;  1.9119926E+04;
  1.0316882E+00;  9.9999998E-03; -7.0631728E-02;7898;  4.6383712E-01;  0.0000000E+00;  1.1260335E-02;  9.9658636E+02;  2.2585483E-01; -2.8278450E+03;3; -8.0908119E+01;  0.0000000E+00;  3.8154175E+01;0;  6.7390227E+00;  7.9393008E+03;  0.0000000E+00; -1.4747545E-01;  4.0000000E+04;  0.0000000E+00;  3.9244910E+04;  6.7853341E+00;  0.0000000E+00; -4.6311568E-02;  2.1781859E+04;
  1.0317597E+00;  9.9999998E-03; -9.0800822E-02;7896;  4.4244915E-01;  0.0000000E+00;  1.5725931E-02;  9.9629865E+02;  2.2589271E-01; -3.0661853E+03;3; -8.5092354E+01;  0.0000000E+00;  4.4539009E+01;0;  6.6404886E+00;  7.9348110E+03;  0.0000000E+00; -2.0775329E-01;  4.0000000E+04;  0.0000000E+00;  3.9258031E+04;  6.7119074E+00;  0.0000000E+00; -7.1418941E-02;  2.0129896E+04;
  1.0318058E+00;  9.9999998E-03; -8.0721013E-02;7897;  4.5437300E-01;  0.0000000E+00;  1.3363752E-02;  9.9647540E+02;  2.2587240E-01; -2.9197834E+03;3; -8.2775581E+01;  0.0000000E+00;  4.1470989E+01;0;  6.6933951E+00;  7.9374932E+03;  0.0000000E+00; -1.7776722E-01;  4.0000000E+04;  0.0000000E+00;  3.9250820E+04;  6.7517133E+00;  0.0000000E+00; -5.8318160E-02;  2.1038162E+04;
  1.0531338E+00;  9.9999998E-03; -1.0076528E-02;7965;  7.0143491E-01;  0.0000000E+00; -4.6969419E-03;  1.0007203E+03;  2.2406369E-01;  5.9674329E+02;3; -2.2961901E+01;  0.0000000E+00;  2.0757267E+00;0;  6.2918143E+00;  8.1294795E+03;  0.0000000E+00; -7.4244798E-03;  4.0000000E+04;  0.0000000E+00;  3.9250766E+04;  6.0859051E+00;  0.0000000E+00;  2.0590928E-01;  2.1116156E+04;
  1.0531498E+00;  9.9999998E-03; -3.7469614E-10;7966;  7.0236272E-01;  0.0000000E+00;  1.1078349E-07;  1.0007253E+03;  2.2406490E-01;  6.0079205E+02;3; -2.2514172E+01;  0.0000000E+00;  6.3264742E-06;0;  6.2901707E+00;  8.1293340E+03;  0.0000000E+00; -5.4099336E-11;  4.0000000E+04;  0.0000000E+00;  3.9251266E+04;  6.0823293E+00;  0.0000000E+00;  2.0784129E-01;  2.1045621E+04;
  1.0531338E+00;  9.9999998E-03;  1.0076527E-02;7967;  7.0143491E-01;  0.0000000E+00;  4.6970816E-03;  1.0007201E+03;  2.2406305E-01;  5.9654578E+02;3; -2.2961920E+01;  0.0000000E+00; -2.0757623E+00;0;  6.2918139E+00;  8.1294805E+03;  0.0000000E+00; -7.4228547E-03;  4.0000000E+04;  0.0000000E+00;  3.9250762E+04;  6.0859046E+00;  0.0000000E+00;  2.0590933E-01;  2.1116152E+04;
  1.0531098E+00;  9.9999998E-03; -2.0154983E-02;7964;  6.9881094E-01;  0.0000000E+00; -9.0541486E-03;  1.0007108E+03;  2.2405951E-01;  5.8874463E+02;3; -2.4234573E+01;  0.0000000E+00;  4.2720418E+00;0;  6.2955770E+00;  8.1300327E+03;  0.0000000E+00; -2.9664479E-02;  4.0000000E+04;  0.0000000E+00;  3.9249426E+04;  6.0951467E+00;  0.0000000E+00;  2.0043056E-01;  2.1301105E+04;
  1.0531098E+00;  9.9999998E-03;  2.0154981E-02;7968;  6.9881105E-01;  0.0000000E+00;  9.0542585E-03;  1.0007107E+03;  2.2406055E-01;  5.8874463E+02;3; -2.4234486E+01;  0.0000000E+00; -4.2720675E+00;0;  6.2955770E+00;  8.1300327E+03;  0.0000000E+00; -2.9660521E-02;  4.0000000E+04;  0.0000000E+00;  3.9249422E+04;  6.0951467E+00;  0.0000000E+00;  2.0043057E-01;  2.1301125E+04;
  1.0530912E+00;  9.9999998E-03; -3.0238120E-02;7963;  6.9456363E-01;  0.0000000E+00; -1.2794231E-02;  1.0006951E+03;  2.2405246E-01;  5.7580847E+02;3; -2.6276541E+01;  0.0000000E+00;  6.7178068E+00;0;  6.3006506E+00;  8.1308262E+03;  0.0000000E+00; -6.6509560E-02;  4.0000000E+04;  0.0000000E+00;  3.9247504E+04;  6.1088648E+00;  0.0000000E+00;  1.9178581E-01;  2.1532490E+04;
  1.0530912E+00;  9.9999998E-03;  3.0238118E-02;7969;  6.9456381E-01;  0.0000000E+00;  1.2794202E-02;  1.0006948E+03;  2.2405151E-01;  5.7561096E+02;3; -2.6276510E+01;  0.0000000E+00; -6.7178507E+00;0;  6.3006496E+00;  8.1308252E+03;  0.0000000E+00; -6.6504933E-02;  4.0000000E+04;  0.0000000E+00;  3.9247504E+04;  6.1088638E+00;  0.0000000E+00;  1.9178581E-01;  2.1532527E+04;
  1.0530827E+00;  9.9999998E-03; -4.0333554E-02;7962;  6.8869144E-01;  0.0000000E+00; -1.5836384E-02;  1.0006685E+03;  2.2404446E-01;  5.5378729E+02;3; -2.9044142E+01;  0.0000000E+00;  9.6862440E+00;0;  6.3065486E+00;  8.1316680E+03;  0.0000000E+00; -1.1717437E-01;  4.0000000E+04;  0.0000000E+00;  3.9246273E+04;  6.1261673E+00;  0.0000000E+00;  1.8038151E-01;  2.1719287E+04;
  1.0530827E+00;  9.9999998E-03;  4.0333554E-02;7970;  6.8869174E-01;  0.0000000E+00;  1.5836505E-02;  1.0006686E+03;  2.2404473E-01;  5.5388605E+02;3; -2.9044001E+01;  0.0000000E+00; -9.6861744E+00;0;  6.3065467E+00;  8.1316699E+03;  0.0000000E+00; -1.1716904E-01;  4.0000000E+04;  0.0000000E+00;  3.9246273E+04;  6.1261649E+00;  0.0000000E+00;  1.8038179E-01;  2.1719320E+04;
  1.0530972E+00;  9.9999998E-03; -5.0442740E-02;7961;  6.8128711E-01;  0.0000000E+00; -1.8266184E-02;  1.0006276E+03;  2.2403494E-01;  5.1991620E+02;3; -3.2460567E+01;  0.0000000E+00;  1.3643690E+01;0;  6.3124347E+00;  8.1322646E+03;  0.0000000E+00; -1.7967491E-01;  4.0000000E+04;  0.0000000E+00;  3.9245719E+04;  6.1456819E+00;  0.0000000E+00;  1.6675301E-01;  2.1769893E+04;
  1.0530972E+00;  9.9999998E-03;  5.0442740E-02;7971;  6.8128711E-01;  0.0000000E+00;  1.8266324E-02;  1.0006277E+03;  2.2403519E-01;  5.1991620E+02;3; -3.2460411E+01;  0.0000000E+00; -1.3643743E+01;0;  6.3124275E+00;  8.1322666E+03;  0.0000000E+00; -1.7966695E-01;  4.0000000E+04;  0.0000000E+00;  3.9245711E+04;  6.1456742E+00;  0.0000000E+00;  1.6675313E-01;  2.1769910E+04;
  1.0531480E+00;  9.9999998E-03; -6.0546294E-02;7960;  6.7252213E-01;  0.0000000E+00; -2.0192001E-02;  1.0005506E+03;  2.2402808E-01;  4.5612399E+02;3; -3.6437485E+01;  0.0000000E+00;  1.9326601E+01;0;  6.3175154E+00;  8.1323706E+03;  0.0000000E+00; -2.5012004E-01;  4.0000000E+04;  0.0000000E+00;  3.9247145E+04;  6.1660600E+00;  0.0000000E+00;  1.5145521E-01;  2.1610934E+04;
  1.0531482E+00;  9.9999998E-03;  6.0546294E-02;7972;  6.7252231E-01;  0.0000000E+00;  2.0192049E-02;  1.0005504E+03;  2.2402832E-01;  4.5592648E+02;3; -3.6437374E+01;  0.0000000E+00; -1.9326611E+01;0;  6.3175106E+00;  8.1323735E+03;  0.0000000E+00; -2.5011414E-01;  4.0000000E+04;  0.0000000E+00;  3.9247148E+04;  6.1660552E+00;  0.0000000E+00;  1.5145540E-01;  2.1610891E+04;
  1.0533204E+00;  9.9999998E-03; -7.0637278E-02;7959;  6.6314572E-01;  0.0000000E+00; -2.1710295E-02;  1.0004589E+03;  2.2402136E-01;  3.8008673E+02;3; -4.0708466E+01;  0.0000000E+00;  2.7205217E+01;0;  6.3184862E+00;  8.1321626E+03;  0.0000000E+00; -3.2319152E-01;  4.0000000E+04;  0.0000000E+00;  3.9250246E+04;  6.1829109E+00;  0.0000000E+00;  1.3557513E-01;  2.1215578E+04;
  1.0536764E+00;  9.9999998E-03; -8.0719769E-02;7958;  6.5375507E-01;  0.0000000E+00; -2.2801206E-02;  1.0003426E+03;  2.2401342E-01;  2.8380579E+02;3; -4.5045410E+01;  0.0000000E+00;  3.6919624E+01;0;  6.3137493E+00;  8.1320508E+03;  0.0000000E+00; -3.9129356E-01;  4.0000000E+04;  0.0000000E+00;  3.9254871E+04;  6.1939383E+00;  0.0000000E+00;  1.1981113E-01;  2.0626596E+04;
  1.0540211E+00;  9.9999998E-03; -9.0795733E-02;7957;  6.4290214E-01;  0.0000000E+00; -2.3104908E-02;  1.0001707E+03;  2.2401096E-01;  1.4140904E+02;3; -4.9755554E+01;  0.0000000E+00;  4.6009064E+01;0;  6.3111553E+00;  8.1311494E+03;  0.0000000E+00; -4.3998516E-01;  4.0000000E+04;  0.0000000E+00;  3.9260289E+04;  6.2085867E+00;  0.0000000E+00;  1.0256881E-01;  1.9948141E+04;
  1.0544094E+00;  9.9999998E-03; -1.0088053E-01;7956;  6.3105512E-01;  0.0000000E+00; -2.2809489E-02;  9.9996619E+02;  2.2400378E-01; -2.7995415E+01;3; -5.4562412E+01;  0.0000000E+00;  5.1808582E+01;0;  6.3093014E+00;  8.1303301E+03;  0.0000000E+00; -4.5571077E-01;  4.0000000E+04;  0.0000000E+00;  3.9265645E+04;  6.2249212E+00;  0.0000000E+00;  8.4380113E-02;  1.9252129E+04;
  1.0747191E+00;  9.9999998E-03; -1.0094273E-02;8026;  8.1973845E-01;  0.0000000E+00; -6.9913971E-03;  1.0044576E+03;  2.2135337E-01;  3.6923530E+03;3;  3.8589970E+01;  0.0000000E+00;  8.3298969E-01;0;  5.0352874E+00;  8.3901631E+03;  0.0000000E+00; -1.2663865E-02;  4.0000000E+04;  0.0000000E+00;  3.9276496E+04;  4.6401420E+00;  0.0000000E+00;  3.9514562E-01;  1.8149592E+04;
  1.0747112E+00;  9.9999998E-03;  5.5401243E-11;8027;  8.2004690E-01;  0.0000000E+00;  1.3859213E-07;  1.0044543E+03;  2.2135726E-01;  3.6895881E+03;3;  3.9081749E+01;  0.0000000E+00; -1.9788051E-05;0;  5.0315599E+00;  8.3898564E+03;  0.0000000E+00; -2.1936647E-11;  4.0000000E+04;  0.0000000E+00;  3.9276957E+04;  4.6345720E+00;  0.0000000E+00;  3.9698797E-01;  1.8087293E+04;
  1.0747190E+00;  9.9999998E-03;  1.0094272E-02;8028;  8.1973839E-01;  0.0000000E+00;  6.9916020E-03;  1.0044575E+03;  2.2135298E-01;  3.6922542E+03;3;  3.8589859E+01;  0.0000000E+00; -8.3306140E-01;0;  5.0352893E+00;  8.3901611E+03;  0.0000000E+00; -1.2660795E-02;  4.0000000E+04;  0.0000000E+00;  3.9276496E+04;  4.6401439E+00;  0.0000000E+00;  3.9514530E-01;  1.8149592E+04;
  1.0747483E+00;  9.9999998E-03; -2.0188896E-02;8025;  8.1879938E-01;  0.0000000E+00; -1.3782951E-02;  1.0044624E+03;  2.2134586E-01;  3.6963025E+03;3;  3.7128139E+01;  0.0000000E+00;  1.7560728E+00;0;  5.0460663E+00;  8.3910703E+03;  0.0000000E+00; -5.0490689E-02;  4.0000000E+04;  0.0000000E+00;  3.9275234E+04;  4.6563072E+00;  0.0000000E+00;  3.8975894E-01;  1.8315336E+04;
  1.0747483E+00;  9.9999998E-03;  2.0188898E-02;8029;  8.1879920E-01;  0.0000000E+00;  1.3783129E-02;  1.0044623E+03;  2.2134541E-01;  3.6963025E+03;3;  3.7128082E+01;  0.0000000E+00; -1.7561591E+00;0;  5.0460677E+00;  8.3910723E+03;  0.0000000E+00; -5.0484862E-02;  4.0000000E+04;  0.0000000E+00;  3.9275234E+04;  4.6563087E+00;  0.0000000E+00;  3.8975915E-01;  1.8315348E+04;
  1.0748031E+00;  9.9999998E-03; -3.0289089E-02;8024;  8.1715083E-01;  0.0000000E+00; -2.0197442E-02;  1.0044633E+03;  2.2133251E-01;  3.6970916E+03;3;  3.4702168E+01;  0.0000000E+00;  2.8444996E+00;0;  5.0635467E+00;  8.3924531E+03;  0.0000000E+00; -1.1286036E-01;  4.0000000E+04;  0.0000000E+00;  3.9273449E+04;  4.6824241E+00;  0.0000000E+00;  3.8112253E-01;  1.8528750E+04;
  1.0748031E+00;  9.9999998E-03;  3.0289091E-02;8030;  8.1715083E-01;  0.0000000E+00;  2.0197555E-02;  1.0044633E+03;  2.2133282E-01;  3.6970916E+03;3;  3.4702225E+01;  0.0000000E+00; -2.8446212E+00;0;  5.0635495E+00;  8.3924570E+03;  0.0000000E+00; -1.1285089E-01;  4.0000000E+04;  0.0000000E+00;  3.9273445E+04;  4.6824269E+00;  0.0000000E+00;  3.8112256E-01;  1.8528764E+04;
  1.0748805E+00;  9.9999998E-03; -4.0400550E-02;8023;  8.1463695E-01;  0.0000000E+00; -2.6113702E-02;  1.0044576E+03;  2.2131433E-01;  3.6923513E+03;3;  3.1299923E+01;  0.0000000E+00;  4.1489820E+00;0;  5.0878725E+00;  8.3940469E+03;  0.0000000E+00; -1.9827968E-01;  4.0000000E+04;  0.0000000E+00;  3.9272199E+04;  4.7183003E+00;  0.0000000E+00;  3.6957222E-01;  1.8713342E+04;
  1.0748806E+00;  9.9999998E-03;  4.0400550E-02;8031;  8.1463671E-01;  0.0000000E+00;  2.6113736E-02;  1.0044573E+03;  2.2131467E-01;  3.6921538E+03;3;  3.1299959E+01;  0.0000000E+00; -4.1490865E+00;0;  5.0878725E+00;  8.3940449E+03;  0.0000000E+00; -1.9826679E-01;  4.0000000E+04;  0.0000000E+00;  3.9272191E+04;  4.7183003E+00;  0.0000000E+00;  3.6957204E-01;  1.8713354E+04;
  1.0749906E+00;  9.9999998E-03; -5.0526794E-02;8022;  8.1112570E-01;  0.0000000E+00; -3.1489775E-02;  1.0044305E+03;  2.2129157E-01;  3.6699353E+03;3;  2.6958422E+01;  0.0000000E+00;  5.6877027E+00;0;  5.1183128E+00;  8.3956934E+03;  0.0000000E+00; -3.0382049E-01;  4.0000000E+04;  0.0000000E+00;  3.9271754E+04;  4.7627320E+00;  0.0000000E+00;  3.5558105E-01;  1.8789594E+04;
  1.0749906E+00;  9.9999998E-03;  5.0526794E-02;8032;  8.1112581E-01;  0.0000000E+00;  3.1489894E-02;  1.0044307E+03;  2.2129154E-01;  3.6700339E+03;3;  2.6958345E+01;  0.0000000E+00; -5.6877689E+00;0;  5.1183147E+00;  8.3956934E+03;  0.0000000E+00; -3.0380297E-01;  4.0000000E+04;  0.0000000E+00;  3.9271754E+04;  4.7627335E+00;  0.0000000E+00;  3.5558122E-01;  1.8789602E+04;
  1.0751299E+00;  9.9999998E-03; -6.0650174E-02;8021;  8.0646318E-01;  0.0000000E+00; -3.6540419E-02;  1.0043781E+03;  2.2126859E-01;  3.6264863E+03;3;  2.1710005E+01;  0.0000000E+00;  7.4509625E+00;0;  5.1549911E+00;  8.3969727E+03;  0.0000000E+00; -4.2380872E-01;  4.0000000E+04;  0.0000000E+00;  3.9272402E+04;  4.8154702E+00;  0.0000000E+00;  3.3952090E-01;  1.8701912E+04;
  1.0751299E+00;  9.9999998E-03;  6.0650177E-02;8033;  8.0646294E-01;  0.0000000E+00;  3.6540538E-02;  1.0043782E+03;  2.2126834E-01;  3.6265850E+03;3;  2.1709921E+01;  0.0000000E+00; -7.4510503E+00;0;  5.1549892E+00;  8.3969736E+03;  0.0000000E+00; -4.2378944E-01;  4.0000000E+04;  0.0000000E+00;  3.9272402E+04;  4.8154683E+00;  0.0000000E+00;  3.3952081E-01;  1.8701877E+04;
  1.0753369E+00;  9.9999998E-03; -7.0756644E-02;8020;  8.0073774E-01;  0.0000000E+00; -4.1436996E-02;  1.0042824E+03;  2.2124080E-01;  3.5471921E+03;3;  1.5732439E+01;  0.0000000E+00;  9.3990049E+00;0;  5.1955080E+00;  8.3979023E+03;  0.0000000E+00; -5.4870617E-01;  4.0000000E+04;  0.0000000E+00;  3.9274691E+04;  4.8734927E+00;  0.0000000E+00;  3.2201552E-01;  1.8433357E+04;
  1.0756536E+00;  9.9999998E-03; -8.0839515E-02;8019;  7.9410416E-01;  0.0000000E+00; -4.6297032E-02;  1.0041454E+03;  2.2120906E-01;  3.4337322E+03;3;  9.2272768E+00;  0.0000000E+00;  1.1478886E+01;0;  5.2376976E+00;  8.3987305E+03;  0.0000000E+00; -6.6301602E-01;  4.0000000E+04;  0.0000000E+00;  3.9277824E+04;  4.9341078E+00;  0.0000000E+00;  3.0358973E-01;  1.8026328E+04;
  1.0760705E+00;  9.9999998E-03; -9.0908043E-02;8018;  7.8653634E-01;  0.0000000E+00; -5.1113334E-02;  1.0039580E+03;  2.2117108E-01;  3.2785024E+03;3;  2.2479534E+00;  0.0000000E+00;  1.3685420E+01;0;  5.2829328E+00;  8.3995859E+03;  0.0000000E+00; -7.4225557E-01;  4.0000000E+04;  0.0000000E+00;  3.9281430E+04;  4.9987388E+00;  0.0000000E+00;  2.8419402E-01;  1.7576238E+04;
  1.0764569E+00;  9.9999998E-03; -1.0097190E-01;8017;  7.7733058E-01;  0.0000000E+00; -5.5663824E-02;  1.0037122E+03;  2.2113377E-01;  3.0748884E+03;3; -5.4591885E+00;  0.0000000E+00;  1.6284071E+01;0;  5.3393545E+00;  8.3998115E+03;  0.0000000E+00; -7.5131154E-01;  4.0000000E+04;  0.0000000E+00;  3.9284594E+04;  5.0766788E+00;  0.0000000E+00;  2.6267585E-01;  1.7194736E+04;
  1.0969555E+00;  9.9999998E-03; -1.0106408E-02;8087;  8.6127752E-01;  0.0000000E+00; -8.4157465E-03;  1.0061871E+03;  2.1766715E-01;  5.1245649E+03;3;  9.0437561E+01;  0.0000000E+00; -2.5554398E-01;0;  3.5070310E+00;  8.7015508E+03;  0.0000000E+00; -1.4789701E-02;  4.0000000E+04;  0.0000000E+00;  3.9318383E+04;  2.9624500E+00;  0.0000000E+00;  5.4458082E-01;  1.3181833E+04;
  1.0969659E+00;  9.9999998E-03; -7.2020867E-10;8088;  8.6110622E-01;  0.0000000E+00;  1.4273208E-07;  1.0061815E+03;  2.1766905E-01;  5.1199243E+03;3;  9.0646530E+01;  0.0000000E+00; -1.3595331E-05;0;  3.5001040E+00;  8.7012354E+03;  0.0000000E+00;  1.0643305E-11;  4.0000000E+04;  0.0000000E+00;  3.9318723E+04;  2.9537754E+00;  0.0000000E+00;  5.4632866E-01;  1.3120787E+04;
  1.0969555E+00;  9.9999998E-03;  1.0106406E-02;8089;  8.6127752E-01;  0.0000000E+00;  8.4160138E-03;  1.0061871E+03;  2.1766715E-01;  5.1245649E+03;3;  9.0437447E+01;  0.0000000E+00;  2.5551850E-01;0;  3.5070314E+00;  8.7015498E+03;  0.0000000E+00; -1.4786940E-02;  4.0000000E+04;  0.0000000E+00;  3.9318387E+04;  2.9624505E+00;  0.0000000E+00;  5.4458094E-01;  1.3181841E+04;
  1.0969306E+00;  9.9999998E-03; -2.0211510E-02;8086;  8.6177576E-01;  0.0000000E+00; -1.6711185E-02;  1.0062170E+03;  2.1766283E-01;  5.1493486E+03;3;  8.9656303E+01;  0.0000000E+00; -4.0084031E-01;0;  3.5274098E+00;  8.7024629E+03;  0.0000000E+00; -5.9388772E-02;  4.0000000E+04;  0.0000000E+00;  3.9317168E+04;  2.9879615E+00;  0.0000000E+00;  5.3944820E-01;  1.3347997E+04;
  1.0969306E+00;  9.9999998E-03;  2.0211508E-02;8090;  8.6177570E-01;  0.0000000E+00;  1.6711432E-02;  1.0062169E+03;  2.1766315E-01;  5.1492495E+03;3;  8.9656311E+01;  0.0000000E+00;  4.0082118E-01;0;  3.5274119E+00;  8.7024639E+03;  0.0000000E+00; -5.9383273E-02;  4.0000000E+04;  0.0000000E+00;  3.9317168E+04;  2.9879634E+00;  0.0000000E+00;  5.3944838E-01;  1.3348002E+04;
  1.0969011E+00;  9.9999998E-03; -3.0312980E-02;8085;  8.6255735E-01;  0.0000000E+00; -2.4787359E-02;  1.0062521E+03;  2.1765409E-01;  5.1784771E+03;3;  8.8403946E+01;  0.0000000E+00; -3.8614607E-01;0;  3.5606074E+00;  8.7039844E+03;  0.0000000E+00; -1.3397840E-01;  4.0000000E+04;  0.0000000E+00;  3.9315352E+04;  3.0294027E+00;  0.0000000E+00;  5.3120458E-01;  1.3571802E+04;
  1.0969011E+00;  9.9999998E-03;  3.0312980E-02;8091;  8.6255729E-01;  0.0000000E+00;  2.4787620E-02;  1.0062523E+03;  2.1765393E-01;  5.1785757E+03;3;  8.8403923E+01;  0.0000000E+00;  3.8608930E-01;0;  3.5606050E+00;  8.7039844E+03;  0.0000000E+00; -1.3397057E-01;  4.0000000E+04;  0.0000000E+00;  3.9315344E+04;  3.0294008E+00;  0.0000000E+00;  5.3120428E-01;  1.3571802E+04;
  1.0968992E+00;  9.9999998E-03; -4.0416926E-02;8084;  8.6353463E-01;  0.0000000E+00; -3.2572817E-02;  1.0062977E+03;  2.1763726E-01;  5.2161948E+03;3;  8.6183289E+01;  0.0000000E+00; -1.5967648E-01;0;  3.6045287E+00;  8.7060195E+03;  0.0000000E+00; -2.3769897E-01;  4.0000000E+04;  0.0000000E+00;  3.9313840E+04;  3.0841944E+00;  0.0000000E+00;  5.2033430E-01;  1.3779139E+04;
  1.0968992E+00;  9.9999998E-03;  4.0416930E-02;8092;  8.6353457E-01;  0.0000000E+00;  3.2573059E-02;  1.0062979E+03;  2.1763709E-01;  5.2163921E+03;3;  8.6183220E+01;  0.0000000E+00;  1.5959851E-01;0;  3.6045280E+00;  8.7060205E+03;  0.0000000E+00; -2.3768501E-01;  4.0000000E+04;  0.0000000E+00;  3.9313836E+04;  3.0841937E+00;  0.0000000E+00;  5.2033424E-01;  1.3779191E+04;
  1.0969388E+00;  9.9999998E-03; -5.0539397E-02;8083;  8.6460316E-01;  0.0000000E+00; -4.0031236E-02;  1.0063309E+03;  2.1761218E-01;  5.2437412E+03;3;  8.3213936E+01;  0.0000000E+00;  2.9610083E-01;0;  3.6584501E+00;  8.7085127E+03;  0.0000000E+00; -3.6759749E-01;  4.0000000E+04;  0.0000000E+00;  3.9312965E+04;  3.1512105E+00;  0.0000000E+00;  5.0723958E-01;  1.3906400E+04;
  1.0969388E+00;  9.9999998E-03;  5.0539400E-02;8093;  8.6460310E-01;  0.0000000E+00;  4.0031508E-02;  1.0063309E+03;  2.1761303E-01;  5.2437412E+03;3;  8.3214066E+01;  0.0000000E+00; -2.9612568E-01;0;  3.6584477E+00;  8.7085156E+03;  0.0000000E+00; -3.6758280E-01;  4.0000000E+04;  0.0000000E+00;  3.9312977E+04;  3.1512079E+00;  0.0000000E+00;  5.0723970E-01;  1.3906376E+04;
  1.0970240E+00;  9.9999998E-03; -6.0674109E-02;8082;  8.6558819E-01;  0.0000000E+00; -4.7106951E-02;  1.0063445E+03;  2.1758062E-01;  5.2548975E+03;3;  7.9343109E+01;  0.0000000E+00;  1.0376321E+00;0;  3.7222092E+00;  8.7111240E+03;  0.0000000E+00; -5.1712632E-01;  4.0000000E+04;  0.0000000E+00;  3.9313020E+04;  3.2299442E+00;  0.0000000E+00;  4.9226505E-01;  1.3911870E+04;
  1.0970241E+00;  9.9999998E-03;  6.0674109E-02;8094;  8.6558807E-01;  0.0000000E+00;  4.7107209E-02;  1.0063445E+03;  2.1758041E-01;  5.2549961E+03;3;  7.9343010E+01;  0.0000000E+00; -1.0377113E+00;0;  3.7222064E+00;  8.7111240E+03;  0.0000000E+00; -5.1710933E-01;  4.0000000E+04;  0.0000000E+00;  3.9313020E+04;  3.2299409E+00;  0.0000000E+00;  4.9226543E-01;  1.3911784E+04;
  1.0971723E+00;  9.9999998E-03; -7.0794016E-02;8081;  8.6627835E-01;  0.0000000E+00; -5.3854689E-02;  1.0063298E+03;  2.1754177E-01;  5.2427495E+03;3;  7.3917946E+01;  0.0000000E+00;  1.9326921E+00;0;  3.7946374E+00;  8.7136924E+03;  0.0000000E+00; -6.7427802E-01;  4.0000000E+04;  0.0000000E+00;  3.9314164E+04;  3.3188350E+00;  0.0000000E+00;  4.7580251E-01;  1.3789198E+04;
  1.0973986E+00;  9.9999998E-03; -8.0889523E-02;8080;  8.6644578E-01;  0.0000000E+00; -6.0354132E-02;  1.0062668E+03;  2.1749522E-01;  5.1906118E+03;3;  6.7193199E+01;  0.0000000E+00;  2.9662790E+00;0;  3.8748629E+00;  8.7161455E+03;  0.0000000E+00; -8.1917334E-01;  4.0000000E+04;  0.0000000E+00;  3.9315922E+04;  3.4167452E+00;  0.0000000E+00;  4.5811766E-01;  1.3593067E+04;
  1.0976907E+00;  9.9999998E-03; -9.0956479E-02;8079;  8.6580688E-01;  0.0000000E+00; -6.6579580E-02;  1.0061508E+03;  2.1744499E-01;  5.0944360E+03;3;  5.9197235E+01;  0.0000000E+00;  4.0934281E+00;0;  3.9639072E+00;  8.7185693E+03;  0.0000000E+00; -9.2145866E-01;  4.0000000E+04;  0.0000000E+00;  3.9317430E+04;  3.5247128E+00;  0.0000000E+00;  4.3919441E-01;  1.3421440E+04;
  1.0980642E+00;  9.9999998E-03; -1.0100263E-01;8078;  8.6415708E-01;  0.0000000E+00; -7.2480515E-02;  1.0060002E+03;  2.1738352E-01;  4.9698228E+03;3;  5.0342281E+01;  0.0000000E+00;  5.3256187E+00;0;  4.0611677E+00;  8.7214287E+03;  0.0000000E+00; -9.4039851E-01;  4.0000000E+04;  0.0000000E+00;  3.9318055E+04;  3.6421430E+00;  0.0000000E+00;  4.1902459E-01;  1.3355786E+04;
  1.1193491E+00;  9.9999998E-03; -1.0096755E-02;8148;  8.6640823E-01;  0.0000000E+00; -8.4989294E-03;  1.0055916E+03;  2.1291101E-01;  4.6307998E+03;3;  1.0156464E+02;  0.0000000E+00; -1.1689420E+00;0;  2.1725502E+00;  9.0729023E+03;  0.0000000E+00; -9.7687654E-03;  4.0000000E+04;  0.0000000E+00;  3.9373074E+04;  1.5471883E+00;  0.0000000E+00;  6.2536180E-01;  6.6559756E+03;
  1.1193744E+00;  9.9999998E-03; -1.0149608E-09;8149;  8.6610568E-01;  0.0000000E+00;  1.6866620E-07;  1.0055679E+03;  2.1290950E-01;  4.6112510E+03;3;  1.0161125E+02;  0.0000000E+00; -1.9838335E-06;0;  2.1651320E+00;  9.0725850E+03;  0.0000000E+00;  3.6110750E-11;  4.0000000E+04;  0.0000000E+00;  3.9373598E+04;  1.5385050E+00;  0.0000000E+00;  6.2662721E-01;  6.5890132E+03;
  1.1193491E+00;  9.9999998E-03;  1.0096754E-02;8150;  8.6640823E-01;  0.0000000E+00;  8.4992666E-03;  1.0055917E+03;  2.1291025E-01;  4.6308984E+03;3;  1.0156446E+02;  0.0000000E+00;  1.1689363E+00;0;  2.1725509E+00;  9.0729023E+03;  0.0000000E+00; -9.7680567E-03;  4.0000000E+04;  0.0000000E+00;  3.9373074E+04;  1.5471895E+00;  0.0000000E+00;  6.2536138E-01;  6.6560078E+03;
  1.1192803E+00;  9.9999998E-03; -2.0193037E-02;8147;  8.6730307E-01;  0.0000000E+00; -1.6964836E-02;  1.0056531E+03;  2.1291281E-01;  4.6817446E+03;3;  1.0127315E+02;  0.0000000E+00; -2.2422514E+00;0;  2.1945305E+00;  9.0740146E+03;  0.0000000E+00; -4.0677756E-02;  4.0000000E+04;  0.0000000E+00;  3.9371547E+04;  1.5729052E+00;  0.0000000E+00;  6.2162524E-01;  6.8449790E+03;
  1.1192803E+00;  9.9999998E-03;  2.0193035E-02;8151;  8.6730301E-01;  0.0000000E+00;  1.6965179E-02;  1.0056534E+03;  2.1291214E-01;  4.6821396E+03;3;  1.0127330E+02;  0.0000000E+00;  2.2422507E+00;0;  2.1945307E+00;  9.0740146E+03;  0.0000000E+00; -4.0676024E-02;  4.0000000E+04;  0.0000000E+00;  3.9371543E+04;  1.5729052E+00;  0.0000000E+00;  6.2162548E-01;  6.8449966E+03;
  1.1191716E+00;  9.9999998E-03; -3.0293573E-02;8146;  8.6878490E-01;  0.0000000E+00; -2.5366761E-02;  1.0057549E+03;  2.1291545E-01;  4.7661597E+03;3;  1.0079480E+02;  0.0000000E+00; -3.2377138E+00;0;  2.2311521E+00;  9.0757656E+03;  0.0000000E+00; -9.6584029E-02;  4.0000000E+04;  0.0000000E+00;  3.9369543E+04;  1.6155977E+00;  0.0000000E+00;  6.1555421E-01;  7.1239512E+03;
  1.1191716E+00;  9.9999998E-03;  3.0293575E-02;8152;  8.6878484E-01;  0.0000000E+00;  2.5367146E-02;  1.0057549E+03;  2.1291526E-01;  4.7661597E+03;3;  1.0079489E+02;  0.0000000E+00;  3.2377038E+00;0;  2.2311502E+00;  9.0757676E+03;  0.0000000E+00; -9.6580260E-02;  4.0000000E+04;  0.0000000E+00;  3.9369543E+04;  1.6155971E+00;  0.0000000E+00;  6.1555314E-01;  7.1239917E+03;
  1.1190437E+00;  9.9999998E-03; -4.0406160E-02;8145;  8.7084776E-01;  0.0000000E+00; -3.3696849E-02;  1.0058848E+03;  2.1291508E-01;  4.8737754E+03;3;  1.0016584E+02;  0.0000000E+00; -4.0963302E+00;0;  2.2817698E+00;  9.0781455E+03;  0.0000000E+00; -1.8118149E-01;  4.0000000E+04;  0.0000000E+00;  3.9367301E+04;  1.6744083E+00;  0.0000000E+00;  6.0736144E-01;  7.4356133E+03;
  1.1190437E+00;  9.9999998E-03;  4.0406160E-02;8153;  8.7084770E-01;  0.0000000E+00;  3.3697277E-02;  1.0058847E+03;  2.1291518E-01;  4.8735776E+03;3;  1.0016547E+02;  0.0000000E+00;  4.0963473E+00;0;  2.2817693E+00;  9.0781484E+03;  0.0000000E+00; -1.8117604E-01;  4.0000000E+04;  0.0000000E+00;  3.9367305E+04;  1.6744080E+00;  0.0000000E+00;  6.0736120E-01;  7.4355947E+03;
  1.1189357E+00;  9.9999998E-03; -5.0514951E-02;8144;  8.7350410E-01;  0.0000000E+00; -4.1922946E-02;  1.0060308E+03;  2.1290496E-01;  4.9946206E+03;3;  9.9460068E+01;  0.0000000E+00; -4.8494720E+00;0;  2.3447082E+00;  9.0813691E+03;  0.0000000E+00; -2.9481187E-01;  4.0000000E+04;  0.0000000E+00;  3.9365535E+04;  1.7473521E+00;  0.0000000E+00;  5.9735608E-01;  7.7035806E+03;
  1.1189357E+00;  9.9999998E-03;  5.0514955E-02;8154;  8.7350404E-01;  0.0000000E+00;  4.1923322E-02;  1.0060311E+03;  2.1290395E-01;  4.9949165E+03;3;  9.9460152E+01;  0.0000000E+00;  4.8494592E+00;0;  2.3447068E+00;  9.0813643E+03;  0.0000000E+00; -2.9480302E-01;  4.0000000E+04;  0.0000000E+00;  3.9365539E+04;  1.7473507E+00;  0.0000000E+00;  5.9735602E-01;  7.7035596E+03;
  1.1188852E+00;  9.9999998E-03; -6.0629472E-02;8143;  8.7678057E-01;  0.0000000E+00; -5.0070968E-02;  1.0061824E+03;  2.1288212E-01;  5.1202036E+03;3;  9.8563049E+01;  0.0000000E+00; -5.5011430E+00;0;  2.4184439E+00;  9.0855430E+03;  0.0000000E+00; -4.3266234E-01;  4.0000000E+04;  0.0000000E+00;  3.9364406E+04;  1.8326058E+00;  0.0000000E+00;  5.8583802E-01;  7.8826060E+03;
  1.1188852E+00;  9.9999998E-03;  6.0629476E-02;8155;  8.7678057E-01;  0.0000000E+00;  5.0071407E-02;  1.0061824E+03;  2.1288212E-01;  5.1202036E+03;3;  9.8563385E+01;  0.0000000E+00;  5.5011072E+00;0;  2.4184432E+00;  9.0855430E+03;  0.0000000E+00; -4.3264782E-01;  4.0000000E+04;  0.0000000E+00;  3.9364402E+04;  1.8326052E+00;  0.0000000E+00;  5.8583784E-01;  7.8825889E+03;
  1.1189346E+00;  9.9999998E-03; -7.0742354E-02;8142;  8.8051361E-01;  0.0000000E+00; -5.8088038E-02;  1.0063241E+03;  2.1284051E-01;  5.2374902E+03;3;  9.6583237E+01;  0.0000000E+00; -5.6073866E+00;0;  2.5010064E+00;  9.0908408E+03;  0.0000000E+00; -5.8268726E-01;  4.0000000E+04;  0.0000000E+00;  3.9364285E+04;  1.9278727E+00;  0.0000000E+00;  5.7313371E-01;  7.9670063E+03;
  1.1191890E+00;  9.9999998E-03; -8.0839135E-02;8141;  8.8470656E-01;  0.0000000E+00; -6.5912083E-02;  1.0064455E+03;  2.1276556E-01;  5.3380859E+03;3;  9.4740891E+01;  0.0000000E+00; -5.5566707E+00;0;  2.5869348E+00;  9.0984922E+03;  0.0000000E+00; -7.2336614E-01;  4.0000000E+04;  0.0000000E+00;  3.9364562E+04;  2.0271690E+00;  0.0000000E+00;  5.5976582E-01;  7.9822144E+03;
  1.1195949E+00;  9.9999998E-03; -9.0915166E-02;8140;  8.8943583E-01;  0.0000000E+00; -7.3579036E-02;  1.0065394E+03;  2.1266975E-01;  5.4158716E+03;3;  9.2419945E+01;  0.0000000E+00; -5.2808418E+00;0;  2.6790495E+00;  9.1077695E+03;  0.0000000E+00; -8.2543361E-01;  4.0000000E+04;  0.0000000E+00;  3.9364707E+04;  2.1333439E+00;  0.0000000E+00;  5.4570562E-01;  8.0360508E+03;
  1.1200336E+00;  9.9999998E-03; -1.0097145E-01;8139;  8.9443833E-01;  0.0000000E+00; -8.0960311E-02;  1.0066125E+03;  2.1257088E-01;  5.4763779E+03;3;  8.9361267E+01;  0.0000000E+00; -4.5571494E+00;0;  2.7836185E+00;  9.1172578E+03;  0.0000000E+00; -8.5356182E-01;  4.0000000E+04;  0.0000000E+00;  3.9363461E+04;  2.2530997E+00;  0.0000000E+00;  5.3051889E-01;  8.2353613E+03;
  1.1411332E+00;  9.9999998E-03; -9.3103175E-10;8210;  8.6396438E-01;  0.0000000E+00;  1.9837432E-07;  1.0034575E+03;  2.0707491E-01;  2.8630874E+03;3;  1.0537183E+02;  0.0000000E+00;  2.8240640E-05;0;  1.2484089E+00;  9.5336064E+03;  0.0000000E+00;  5.0993352E-11;  4.0000000E+04;  0.0000000E+00;  3.9434551E+04;  6.1628419E-01;  0.0000000E+00;  6.3212472E-01;  4.9985037E+02;
  1.1411169E+00;  9.9999998E-03; -1.0058761E-02;8209;  8.6431408E-01;  0.0000000E+00; -7.6930872E-03;  1.0034822E+03;  2.0707458E-01;  2.8835212E+03;3;  1.0531879E+02;  0.0000000E+00; -1.6392603E+00;0;  1.2538794E+00;  9.5341719E+03;  0.0000000E+00;  6.2867248E-04;  4.0000000E+04;  0.0000000E+00;  3.9433848E+04;  6.2238818E-01;  0.0000000E+00;  6.3149124E-01;  4.2534375E+02;
  1.1411169E+00;  9.9999998E-03;  1.0058760E-02;8211;  8.6431414E-01;  0.0000000E+00;  7.6934909E-03;  1.0034823E+03;  2.0707451E-01;  2.8836199E+03;3;  1.0531913E+02;  0.0000000E+00;  1.6393236E+00;0;  1.2538805E+00;  9.5341719E+03;  0.0000000E+00;  6.2739901E-04;  4.0000000E+04;  0.0000000E+00;  3.9433855E+04;  6.2238932E-01;  0.0000000E+00;  6.3149124E-01;  4.2532263E+02;
  1.1410627E+00;  9.9999998E-03; -2.0117668E-02;8208;  8.6535829E-01;  0.0000000E+00; -1.5390307E-02;  1.0035591E+03;  2.0707609E-01;  2.9471929E+03;3;  1.0512605E+02;  0.0000000E+00; -3.2307627E+00;0;  1.2705550E+00;  9.5357324E+03;  0.0000000E+00;  1.8648234E-04;  4.0000000E+04;  0.0000000E+00;  3.9432219E+04;  6.4093745E-01;  0.0000000E+00;  6.2961757E-01;  2.2384151E+02;
  1.1410627E+00;  9.9999998E-03;  2.0117667E-02;8212;  8.6535829E-01;  0.0000000E+00;  1.5390709E-02;  1.0035591E+03;  2.0707609E-01;  2.9471929E+03;3;  1.0512623E+02;  0.0000000E+00;  3.2308059E+00;0;  1.2705550E+00;  9.5357344E+03;  0.0000000E+00;  1.8449445E-04;  4.0000000E+04;  0.0000000E+00;  3.9432219E+04;  6.4093703E-01;  0.0000000E+00;  6.2961805E-01;  2.2382079E+02;
  1.1409775E+00;  9.9999998E-03; -3.0183632E-02;8207;  8.6709672E-01;  0.0000000E+00; -2.3103632E-02;  1.0036837E+03;  2.0707577E-01;  3.0503503E+03;3;  1.0479293E+02;  0.0000000E+00; -4.7973309E+00;0;  1.2984810E+00;  9.5383623E+03;  0.0000000E+00; -7.6035000E-03;  4.0000000E+04;  0.0000000E+00;  3.9429656E+04;  6.7193323E-01;  0.0000000E+00;  6.2654769E-01;  2.4091280E+02;
  1.1409775E+00;  9.9999998E-03;  3.0183634E-02;8213;  8.6709666E-01;  0.0000000E+00;  2.3104047E-02;  1.0036838E+03;  2.0707639E-01;  3.0504490E+03;3;  1.0479298E+02;  0.0000000E+00;  4.7973690E+00;0;  1.2984804E+00;  9.5383623E+03;  0.0000000E+00; -7.6059750E-03;  4.0000000E+04;  0.0000000E+00;  3.9429656E+04;  6.7193305E-01;  0.0000000E+00;  6.2654734E-01;  2.4095102E+02;
  1.1408902E+00;  9.9999998E-03; -4.0266976E-02;8206;  8.6953717E-01;  0.0000000E+00; -3.0857865E-02;  1.0038541E+03;  2.0706874E-01;  3.1915129E+03;3;  1.0423962E+02;  0.0000000E+00; -6.3089471E+00;0;  1.3371099E+00;  9.5424004E+03;  0.0000000E+00; -3.0702559E-02;  4.0000000E+04;  0.0000000E+00;  3.9426766E+04;  7.1480006E-01;  0.0000000E+00;  6.2230986E-01;  6.4337799E+02;
  1.1408902E+00;  9.9999998E-03;  4.0266979E-02;8214;  8.6953712E-01;  0.0000000E+00;  3.0858312E-02;  1.0038538E+03;  2.0706883E-01;  3.1912168E+03;3;  1.0423979E+02;  0.0000000E+00;  6.3089571E+00;0;  1.3371105E+00;  9.5424014E+03;  0.0000000E+00; -3.0705461E-02;  4.0000000E+04;  0.0000000E+00;  3.9426770E+04;  7.1480036E-01;  0.0000000E+00;  6.2231022E-01;  6.4340759E+02;
  1.1408315E+00;  9.9999998E-03; -5.0376382E-02;8205;  8.7268096E-01;  0.0000000E+00; -3.8695216E-02;  1.0040692E+03;  2.0704770E-01;  3.3695940E+03;3;  1.0352801E+02;  0.0000000E+00; -7.6819210E+00;0;  1.3859024E+00;  9.5483867E+03;  0.0000000E+00; -7.5393662E-02;  4.0000000E+04;  0.0000000E+00;  3.9424098E+04;  7.6895732E-01;  0.0000000E+00;  6.1694503E-01;  1.0957281E+03;
  1.1408315E+00;  9.9999998E-03;  5.0376385E-02;8215;  8.7268090E-01;  0.0000000E+00;  3.8695619E-02;  1.0040693E+03;  2.0704789E-01;  3.3696929E+03;3;  1.0352793E+02;  0.0000000E+00;  7.6819258E+00;0;  1.3859017E+00;  9.5483906E+03;  0.0000000E+00; -7.5395055E-02;  4.0000000E+04;  0.0000000E+00;  3.9424098E+04;  7.6895708E-01;  0.0000000E+00;  6.1694455E-01;  1.0957296E+03;
  1.1408322E+00;  9.9999998E-03; -6.0487173E-02;8204;  8.7650782E-01;  0.0000000E+00; -4.6587154E-02;  1.0043153E+03;  2.0700769E-01;  3.5733394E+03;3;  1.0256454E+02;  0.0000000E+00; -8.8011103E+00;0;  1.4440981E+00;  9.5563643E+03;  0.0000000E+00; -1.4270525E-01;  4.0000000E+04;  0.0000000E+00;  3.9421535E+04;  8.3357316E-01;  0.0000000E+00;  6.1052495E-01;  1.5260306E+03;
  1.1408322E+00;  9.9999998E-03;  6.0487177E-02;8216;  8.7650782E-01;  0.0000000E+00;  4.6587646E-02;  1.0043152E+03;  2.0700747E-01;  3.5732405E+03;3;  1.0256422E+02;  0.0000000E+00;  8.8011236E+00;0;  1.4440980E+00;  9.5563643E+03;  0.0000000E+00; -1.4270300E-01;  4.0000000E+04;  0.0000000E+00;  3.9421535E+04;  8.3357286E-01;  0.0000000E+00;  6.1052507E-01;  1.5259894E+03;
  1.1408960E+00;  9.9999998E-03; -7.0590839E-02;8203;  8.8100731E-01;  0.0000000E+00; -5.4457854E-02;  1.0045914E+03;  2.0695114E-01;  3.8019585E+03;3;  1.0160551E+02;  0.0000000E+00; -9.7049465E+00;0;  1.5118721E+00;  9.5661504E+03;  0.0000000E+00; -2.2709022E-01;  4.0000000E+04;  0.0000000E+00;  3.9419926E+04;  9.0871853E-01;  0.0000000E+00;  6.0315359E-01;  1.9215566E+03;
  1.1410084E+00;  9.9999998E-03; -8.0683671E-02;8202;  8.8622558E-01;  0.0000000E+00; -6.2245417E-02;  1.0048843E+03;  2.0688170E-01;  4.0444944E+03;3;  1.0051173E+02;  0.0000000E+00; -1.0549905E+01;0;  1.5899965E+00;  9.5771328E+03;  0.0000000E+00; -3.1635728E-01;  4.0000000E+04;  0.0000000E+00;  3.9418223E+04;  9.9508351E-01;  0.0000000E+00;  5.9491295E-01;  2.3033831E+03;
  1.1411656E+00;  9.9999998E-03; -9.0763018E-02;8201;  8.9216506E-01;  0.0000000E+00; -7.0036687E-02;  1.0051901E+03;  2.0680982E-01;  4.2976899E+03;3;  9.9032349E+01;  0.0000000E+00; -1.1300781E+01;0;  1.6787251E+00;  9.5888721E+03;  0.0000000E+00; -3.9203754E-01;  4.0000000E+04;  0.0000000E+00;  3.9416383E+04;  1.0929152E+00;  0.0000000E+00;  5.8580995E-01;  2.6984885E+03;
  1.1413627E+00;  9.9999998E-03; -1.0083013E-01;8200;  8.9881599E-01;  0.0000000E+00; -7.7936165E-02;  1.0054924E+03;  2.0673306E-01;  4.5481191E+03;3;  9.7252777E+01;  0.0000000E+00; -1.1868427E+01;0;  1.7782261E+00;  9.6011123E+03;  0.0000000E+00; -4.3155733E-01;  4.0000000E+04;  0.0000000E+00;  3.9413293E+04;  1.2024676E+00;  0.0000000E+00;  5.7575864E-01;  3.1368813E+03;
  1.1623284E+00;  9.9999998E-03; -1.0030088E-02;8270;  8.5997713E-01;  0.0000000E+00; -6.5580108E-03;  1.0010114E+03;  2.0030732E-01;  8.3732990E+02;3;  1.0587356E+02;  0.0000000E+00; -1.7311312E+00;0;  6.8852580E-01;  1.0117570E+04;  0.0000000E+00;  1.0807559E-02;  4.0000000E+04;  0.0000000E+00;  3.9494023E+04;  1.1061326E-01;  0.0000000E+00;  5.7791251E-01;  7.1171265E+03;
  1.1623226E+00;  9.9999998E-03; -4.8806109E-10;8271;  8.5962063E-01;  0.0000000E+00;  2.2007373E-07;  1.0009908E+03;  2.0031214E-01;  8.2035437E+02;3;  1.0590760E+02;  0.0000000E+00;  3.4154971E-05;0;  6.8517303E-01;  1.0116560E+04;  0.0000000E+00;  6.4874002E-11;  4.0000000E+04;  0.0000000E+00;  3.9494586E+04;  1.0706720E-01;  0.0000000E+00;  5.7810581E-01;  7.1973599E+03;
  1.1623284E+00;  9.9999998E-03;  1.0030088E-02;8272;  8.5997713E-01;  0.0000000E+00;  6.5584481E-03;  1.0010117E+03;  2.0030694E-01;  8.3752728E+02;3;  1.0587312E+02;  0.0000000E+00;  1.7311585E+00;0;  6.8852657E-01;  1.0117571E+04;  0.0000000E+00;  1.0804668E-02;  4.0000000E+04;  0.0000000E+00;  3.9494031E+04;  1.1061364E-01;  0.0000000E+00;  5.7791293E-01;  7.1170718E+03;
  1.1623434E+00;  9.9999998E-03; -2.0062510E-02;8269;  8.6104679E-01;  0.0000000E+00; -1.3121691E-02;  1.0010757E+03;  2.0029257E-01;  8.9062518E+02;3;  1.0568249E+02;  0.0000000E+00; -3.4715626E+00;0;  6.9867146E-01;  1.0120657E+04;  0.0000000E+00;  4.1470539E-02;  4.0000000E+04;  0.0000000E+00;  3.9492195E+04;  1.2133244E-01;  0.0000000E+00;  5.7733899E-01;  6.8821470E+03;
  1.1623434E+00;  9.9999998E-03;  2.0062510E-02;8273;  8.6104673E-01;  0.0000000E+00;  1.3122138E-02;  1.0010756E+03;  2.0029217E-01;  8.9052649E+02;3;  1.0568295E+02;  0.0000000E+00;  3.4715416E+00;0;  6.9867146E-01;  1.0120655E+04;  0.0000000E+00;  4.1465629E-02;  4.0000000E+04;  0.0000000E+00;  3.9492191E+04;  1.2133251E-01;  0.0000000E+00;  5.7733893E-01;  6.8821348E+03;
  1.1623667E+00;  9.9999998E-03; -3.0104384E-02;8268;  8.6284626E-01;  0.0000000E+00; -1.9699169E-02;  1.0011832E+03;  2.0026727E-01;  9.7954932E+02;3;  1.0559229E+02;  0.0000000E+00; -5.1445179E+00;0;  7.1576530E-01;  1.0125661E+04;  0.0000000E+00;  8.6961240E-02;  4.0000000E+04;  0.0000000E+00;  3.9489367E+04;  1.3938619E-01;  0.0000000E+00;  5.7637912E-01;  6.5136606E+03;
  1.1623667E+00;  9.9999998E-03;  3.0104386E-02;8274;  8.6284620E-01;  0.0000000E+00;  1.9699614E-02;  1.0011833E+03;  2.0026797E-01;  9.7964801E+02;3;  1.0559238E+02;  0.0000000E+00;  5.1445889E+00;0;  7.1576625E-01;  1.0125655E+04;  0.0000000E+00;  8.6953342E-02;  4.0000000E+04;  0.0000000E+00;  3.9489367E+04;  1.3938658E-01;  0.0000000E+00;  5.7637966E-01;  6.5136357E+03;
  1.1623900E+00;  9.9999998E-03; -4.0165544E-02;8267;  8.6539471E-01;  0.0000000E+00; -2.6296740E-02;  1.0013389E+03;  2.0023656E-01;  1.1085436E+03;3;  1.0547083E+02;  0.0000000E+00; -6.7453737E+00;0;  7.4021560E-01;  1.0132376E+04;  0.0000000E+00;  1.3949861E-01;  4.0000000E+04;  0.0000000E+00;  3.9485750E+04;  1.6517186E-01;  0.0000000E+00;  5.7504374E-01;  6.0473730E+03;
  1.1623900E+00;  9.9999998E-03;  4.0165547E-02;8275;  8.6539465E-01;  0.0000000E+00;  2.6297180E-02;  1.0013390E+03;  2.0023696E-01;  1.1085436E+03;3;  1.0547165E+02;  0.0000000E+00;  6.7454381E+00;0;  7.4021649E-01;  1.0132375E+04;  0.0000000E+00;  1.3948889E-01;  4.0000000E+04;  0.0000000E+00;  3.9485746E+04;  1.6517256E-01;  0.0000000E+00;  5.7504392E-01;  6.0473271E+03;
  1.1623790E+00;  9.9999998E-03; -5.0250694E-02;8266;  8.6872214E-01;  0.0000000E+00; -3.2958079E-02;  1.0015554E+03;  2.0020819E-01;  1.2876753E+03;3;  1.0499699E+02;  0.0000000E+00; -8.3665333E+00;0;  7.7308643E-01;  1.0139892E+04;  0.0000000E+00;  1.8905935E-01;  4.0000000E+04;  0.0000000E+00;  3.9481965E+04;  1.9968279E-01;  0.0000000E+00;  5.7340366E-01;  5.5242944E+03;
  1.1623790E+00;  9.9999998E-03;  5.0250698E-02;8276;  8.6872214E-01;  0.0000000E+00;  3.2958537E-02;  1.0015547E+03;  2.0020728E-01;  1.2871819E+03;3;  1.0499673E+02;  0.0000000E+00;  8.3665867E+00;0;  7.7308691E-01;  1.0139894E+04;  0.0000000E+00;  1.8904924E-01;  4.0000000E+04;  0.0000000E+00;  3.9481965E+04;  1.9968317E-01;  0.0000000E+00;  5.7340372E-01;  5.5242666E+03;
  1.1622564E+00;  9.9999998E-03; -6.0361352E-02;8265;  8.7286448E-01;  0.0000000E+00; -3.9772417E-02;  1.0018334E+03;  2.0020303E-01;  1.5179330E+03;3;  1.0432191E+02;  0.0000000E+00; -9.9727545E+00;0;  8.1661761E-01;  1.0146163E+04;  0.0000000E+00;  2.2386646E-01;  4.0000000E+04;  0.0000000E+00;  3.9477762E+04;  2.4499114E-01;  0.0000000E+00;  5.7162648E-01;  4.9738838E+03;
  1.1622564E+00;  9.9999998E-03;  6.0361352E-02;8277;  8.7286443E-01;  0.0000000E+00;  3.9772857E-02;  1.0018334E+03;  2.0020303E-01;  1.5179330E+03;3;  1.0432193E+02;  0.0000000E+00;  9.9728355E+00;0;  8.1661808E-01;  1.0146160E+04;  0.0000000E+00;  2.2385922E-01;  4.0000000E+04;  0.0000000E+00;  3.9477766E+04;  2.4499181E-01;  0.0000000E+00;  5.7162625E-01;  4.9738789E+03;
  1.1621393E+00;  9.9999998E-03; -7.0467122E-02;8264;  8.7778699E-01;  0.0000000E+00; -4.6763472E-02;  1.0021680E+03;  2.0019168E-01;  1.7949727E+03;3;  1.0334465E+02;  0.0000000E+00; -1.1456116E+01;0;  8.6858630E-01;  1.0153871E+04;  0.0000000E+00;  2.3647170E-01;  4.0000000E+04;  0.0000000E+00;  3.9473887E+04;  2.9933664E-01;  0.0000000E+00;  5.6924969E-01;  4.4708784E+03;
  1.1620574E+00;  9.9999998E-03; -8.0552638E-02;8263;  8.8349724E-01;  0.0000000E+00; -5.3925566E-02;  1.0025595E+03;  2.0017223E-01;  2.1190901E+03;3;  1.0222920E+02;  0.0000000E+00; -1.2863651E+01;0;  9.2855275E-01;  1.0163366E+04;  0.0000000E+00;  2.2431532E-01;  4.0000000E+04;  0.0000000E+00;  3.9470414E+04;  3.6241147E-01;  0.0000000E+00;  5.6614125E-01;  4.0257847E+03;
  1.1620381E+00;  9.9999998E-03; -9.0621680E-02;8262;  8.8992673E-01;  0.0000000E+00; -6.1164122E-02;  1.0029861E+03;  2.0013806E-01;  2.4722229E+03;3;  1.0077563E+02;  0.0000000E+00; -1.4057474E+01;0;  9.9605000E-01;  1.0174838E+04;  0.0000000E+00;  1.9062461E-01;  4.0000000E+04;  0.0000000E+00;  3.9466684E+04;  4.3384013E-01;  0.0000000E+00;  5.6220990E-01;  3.6147620E+03;
  1.1620884E+00;  9.9999998E-03; -1.0067638E-01;8261;  8.9713824E-01;  0.0000000E+00; -6.8326548E-02;  1.0034358E+03;  2.0009157E-01;  2.8445994E+03;3;  9.9478271E+01;  0.0000000E+00; -1.5066619E+01;0;  1.0708718E+00;  1.0188282E+04;  0.0000000E+00;  1.4233889E-01;  4.0000000E+04;  0.0000000E+00;  3.9462840E+04;  5.1343596E-01;  0.0000000E+00;  5.5743587E-01;  3.1993525E+03;
  1.1819835E+00;  9.9999998E-03; -1.0056463E-01;8322;  8.9333802E-01;  0.0000000E+00; -5.5843487E-02;  1.0013307E+03;  1.9304127E-01;  1.1014766E+03;3;  9.9963921E+01;  0.0000000E+00; -1.6345013E+01;0;  6.0643685E-01;  1.0880653E+04;  0.0000000E+00;  5.7308424E-01;  4.0000000E+04;  0.0000000E+00;  3.9508816E+04;  1.1610843E-01;  0.0000000E+00;  4.9032840E-01;  7.6617051E+03;
  1.1821495E+00;  9.9999998E-03; -9.0518266E-02;8323;  8.8585722E-01;  0.0000000E+00; -4.9710669E-02;  1.0008457E+03;  1.9302234E-01;  6.9997821E+02;3;  1.0159093E+02;  0.0000000E+00; -1.5106185E+01;0;  5.5526966E-01;  1.0871910E+04;  0.0000000E+00;  6.2448823E-01;  4.0000000E+04;  0.0000000E+00;  3.9513547E+04;  6.4666584E-02;  0.0000000E+00;  4.9060306E-01;  8.3052305E+03;
  1.1823578E+00;  9.9999998E-03; -8.0457002E-02;8324;  8.7911576E-01;  0.0000000E+00; -4.3729227E-02;  1.0003979E+03;  1.9299373E-01;  3.2936575E+02;3;  1.0304126E+02;  0.0000000E+00; -1.3571799E+01;0;  5.0964743E-01;  1.0865262E+04;  0.0000000E+00;  6.1665225E-01;  4.0000000E+04;  0.0000000E+00;  3.9518105E+04;  1.9374207E-02;  0.0000000E+00;  4.9027321E-01;  8.9200684E+03;
  1.1825294E+00;  9.9999998E-03; -7.0367046E-02;8325;  8.7317491E-01;  0.0000000E+00; -3.7951607E-02;  1.0000059E+03;  1.9297451E-01;  4.8348961E+00;3;  1.0416812E+02;  0.0000000E+00; -1.1946419E+01;0;  4.7055528E-01;  1.0858796E+04;  0.0000000E+00;  5.5815566E-01;  4.0000000E+04;  0.0000000E+00;  3.9522500E+04; -1.9126147E-02;  0.0000000E+00;  4.8968142E-01;  9.5191748E+03;
  1.1826057E+00;  9.9999998E-03; -6.0272019E-02;8326;  8.6807323E-01;  0.0000000E+00; -3.2366134E-02;  9.9967407E+02;  1.9297995E-01; -2.6976721E+02;3;  1.0506432E+02;  0.0000000E+00; -1.0296902E+01;0;  4.3852925E-01;  1.0850814E+04;  0.0000000E+00;  4.6393126E-01;  4.0000000E+04;  0.0000000E+00;  3.9527008E+04; -5.0635025E-02;  0.0000000E+00;  4.8916426E-01;  1.0109622E+04;
  1.1826057E+00;  9.9999998E-03;  6.0272023E-02;8338;  8.6807323E-01;  0.0000000E+00;  3.2366600E-02;  9.9967426E+02;  1.9297992E-01; -2.6961920E+02;3;  1.0506463E+02;  0.0000000E+00;  1.0296891E+01;0;  4.3852907E-01;  1.0850816E+04;  0.0000000E+00;  4.6391758E-01;  4.0000000E+04;  0.0000000E+00;  3.9527004E+04; -5.0634831E-02;  0.0000000E+00;  4.8916391E-01;  1.0109585E+04;
  1.1826175E+00;  9.9999998E-03; -5.0205715E-02;8327;  8.6382198E-01;  0.0000000E+00; -2.6902083E-02;  9.9941229E+02;  1.9300188E-01; -4.8644916E+02;3;  1.0543423E+02;  0.0000000E+00; -8.6437054E+00;0;  4.1270307E-01;  1.0842453E+04;  0.0000000E+00;  3.5257408E-01;  4.0000000E+04;  0.0000000E+00;  3.9531277E+04; -7.5973459E-02;  0.0000000E+00;  4.8867652E-01;  1.0694560E+04;
  1.1826175E+00;  9.9999998E-03;  5.0205722E-02;8337;  8.6382192E-01;  0.0000000E+00;  2.6902545E-02;  9.9941229E+02;  1.9300188E-01; -4.8644916E+02;3;  1.0543446E+02;  0.0000000E+00;  8.6437035E+00;0;  4.1270342E-01;  1.0842458E+04;  0.0000000E+00;  3.5256174E-01;  4.0000000E+04;  0.0000000E+00;  3.9531277E+04; -7.5973235E-02;  0.0000000E+00;  4.8867667E-01;  1.0694605E+04;
  1.1826389E+00;  9.9999998E-03; -3.0123400E-02;8329;  8.5777086E-01;  0.0000000E+00; -1.6127920E-02;  9.9906183E+02;  1.9303206E-01; -7.7654236E+02;3;  1.0641503E+02;  0.0000000E+00; -5.2950282E+00;0;  3.7568280E-01;  1.0830337E+04;  0.0000000E+00;  1.4182587E-01;  4.0000000E+04;  0.0000000E+00;  3.9539707E+04; -1.1163250E-01;  0.0000000E+00;  4.8731530E-01;  1.1759104E+04;
  1.1826389E+00;  9.9999998E-03;  3.0123405E-02;8335;  8.5777080E-01;  0.0000000E+00;  1.6128378E-02;  9.9906201E+02;  1.9303213E-01; -7.7639441E+02;3;  1.0641518E+02;  0.0000000E+00;  5.2950130E+00;0;  3.7568337E-01;  1.0830333E+04;  0.0000000E+00;  1.4181398E-01;  4.0000000E+04;  0.0000000E+00;  3.9539703E+04; -1.1163229E-01;  0.0000000E+00;  4.8731565E-01;  1.1759035E+04;
  1.1826260E+00;  9.9999998E-03; -4.0161312E-02;8328;  8.6040545E-01;  0.0000000E+00; -2.1504370E-02;  9.9921399E+02;  1.9301915E-01; -6.5058868E+02;3;  1.0586341E+02;  0.0000000E+00; -6.9542117E+00;0;  3.9185357E-01;  1.0835557E+04;  0.0000000E+00;  2.4086665E-01;  4.0000000E+04;  0.0000000E+00;  3.9535637E+04; -9.6178576E-02;  0.0000000E+00;  4.8803213E-01;  1.1258524E+04;
  1.1826260E+00;  9.9999998E-03;  4.0161319E-02;8336;  8.6040539E-01;  0.0000000E+00;  2.1504818E-02;  9.9921405E+02;  1.9301975E-01; -6.5053937E+02;3;  1.0586344E+02;  0.0000000E+00;  6.9542179E+00;0;  3.9185411E-01;  1.0835556E+04;  0.0000000E+00;  2.4085428E-01;  4.0000000E+04;  0.0000000E+00;  3.9535629E+04; -9.6178308E-02;  0.0000000E+00;  4.8803243E-01;  1.1258506E+04;
  1.1826472E+00;  9.9999998E-03;  7.9474821E-10;8332;  8.5438156E-01;  0.0000000E+00;  2.3113343E-07;  9.9887634E+02;  1.9304988E-01; -9.3007458E+02;3;  1.0695707E+02;  0.0000000E+00;  7.7031182E-06;0;  3.5511720E-01;  1.0823494E+04;  0.0000000E+00;  9.0692877E-11;  4.0000000E+04;  0.0000000E+00;  3.9545105E+04; -1.3103764E-01;  0.0000000E+00;  4.8615485E-01;  1.2479491E+04;
  1.1826469E+00;  9.9999998E-03; -1.0042827E-02;8331;  8.5475951E-01;  0.0000000E+00; -5.3735389E-03;  9.9889856E+02;  1.9304715E-01; -9.1167249E+02;3;  1.0695915E+02;  0.0000000E+00; -1.7577037E+00;0;  3.5739034E-01;  1.0824245E+04;  0.0000000E+00;  1.6516253E-02;  4.0000000E+04;  0.0000000E+00;  3.9544590E+04; -1.2890752E-01;  0.0000000E+00;  4.8629788E-01;  1.2395499E+04;
  1.1826469E+00;  9.9999998E-03;  1.0042829E-02;8333;  8.5475951E-01;  0.0000000E+00;  5.3740125E-03;  9.9889874E+02;  1.9304787E-01; -9.1152448E+02;3;  1.0695978E+02;  0.0000000E+00;  1.7577543E+00;0;  3.5739100E-01;  1.0824247E+04;  0.0000000E+00;  1.6512262E-02;  4.0000000E+04;  0.0000000E+00;  3.9544590E+04; -1.2890726E-01;  0.0000000E+00;  4.8629826E-01;  1.2395478E+04;
  1.1826470E+00;  9.9999998E-03; -2.0083601E-02;8330;  8.5588872E-01;  0.0000000E+00; -1.0752088E-02;  9.9895880E+02;  1.9304217E-01; -8.6179413E+02;3;  1.0679510E+02;  0.0000000E+00; -3.5755615E+00;0;  3.6419973E-01;  1.0826626E+04;  0.0000000E+00;  6.4950086E-02;  4.0000000E+04;  0.0000000E+00;  3.9542734E+04; -1.2249506E-01;  0.0000000E+00;  4.8669478E-01;  1.2149776E+04;
  1.1826470E+00;  9.9999998E-03;  2.0083606E-02;8334;  8.5588866E-01;  0.0000000E+00;  1.0752553E-02;  9.9895886E+02;  1.9304150E-01; -8.6174475E+02;3;  1.0679546E+02;  0.0000000E+00;  3.5756083E+00;0;  3.6420006E-01;  1.0826624E+04;  0.0000000E+00;  6.4942122E-02;  4.0000000E+04;  0.0000000E+00;  3.9542730E+04; -1.2249485E-01;  0.0000000E+00;  4.8669490E-01;  1.2149734E+04;
  1.2009913E+00;  9.9999998E-03; -1.0049422E-01;8383;  8.8891500E-01;  0.0000000E+00; -4.2801995E-02;  9.9941376E+02;  1.8589357E-01; -4.8512277E+02;3;  1.0025167E+02;  0.0000000E+00; -1.7333382E+01;0;  3.0865029E-01;  1.1671059E+04;  0.0000000E+00;  7.3658007E-01;  4.0000000E+04;  0.0000000E+00;  3.9548344E+04; -8.4954761E-02;  0.0000000E+00;  3.9360505E-01;  1.1555563E+04;
  1.2011153E+00;  9.9999998E-03; -9.0429343E-02;8384;  8.8120794E-01;  0.0000000E+00; -3.8168922E-02;  9.9896881E+02;  1.8587171E-01; -8.5325385E+02;3;  1.0194125E+02;  0.0000000E+00; -1.5842508E+01;0;  2.7868101E-01;  1.1662437E+04;  0.0000000E+00;  7.7551532E-01;  4.0000000E+04;  0.0000000E+00;  3.9552871E+04; -1.1301629E-01;  0.0000000E+00;  3.9169729E-01;  1.2177144E+04;
  1.2012057E+00;  9.9999998E-03; -8.0330610E-02;8385;  8.7426680E-01;  0.0000000E+00; -3.3638779E-02;  9.9855164E+02;  1.8585771E-01; -1.1984991E+03;3;  1.0336640E+02;  0.0000000E+00; -1.4255448E+01;0;  2.5266010E-01;  1.1653812E+04;  0.0000000E+00;  7.3717684E-01;  4.0000000E+04;  0.0000000E+00;  3.9556781E+04; -1.3730989E-01;  0.0000000E+00;  3.8997000E-01;  1.2736561E+04;
  1.2012410E+00;  9.9999998E-03; -7.0240617E-02;8386;  8.6815423E-01;  0.0000000E+00; -2.9240018E-02;  9.9818213E+02;  1.8586083E-01; -1.5042388E+03;3;  1.0442637E+02;  0.0000000E+00; -1.2511436E+01;0;  2.3056239E-01;  1.1644438E+04;  0.0000000E+00;  6.4272535E-01;  4.0000000E+04;  0.0000000E+00;  3.9560895E+04; -1.5785187E-01;  0.0000000E+00;  3.8841426E-01;  1.3263856E+04;
  1.2012678E+00;  9.9999998E-03; -6.0177434E-02;8387;  8.6291683E-01;  0.0000000E+00; -2.4955994E-02;  9.9786572E+02;  1.8586561E-01; -1.7660334E+03;3;  1.0513162E+02;  0.0000000E+00; -1.0839547E+01;0;  2.1160667E-01;  1.1636040E+04;  0.0000000E+00;  5.1657307E-01;  4.0000000E+04;  0.0000000E+00;  3.9564965E+04; -1.7510749E-01;  0.0000000E+00;  3.8671416E-01;  1.3792554E+04;
  1.2012678E+00;  9.9999998E-03;  6.0177442E-02;8399;  8.6291671E-01;  0.0000000E+00;  2.4956459E-02;  9.9786560E+02;  1.8586536E-01; -1.7661321E+03;3;  1.0513086E+02;  0.0000000E+00;  1.0839516E+01;0;  2.1160689E-01;  1.1636036E+04;  0.0000000E+00;  5.1655972E-01;  4.0000000E+04;  0.0000000E+00;  3.9564969E+04; -1.7510724E-01;  0.0000000E+00;  3.8671413E-01;  1.3792565E+04;
  1.2012931E+00;  9.9999998E-03; -5.0134119E-02;8388;  8.5852319E-01;  0.0000000E+00; -2.0723606E-02;  9.9760919E+02;  1.8586990E-01; -1.9783096E+03;3;  1.0590990E+02;  0.0000000E+00; -9.2499161E+00;0;  1.9556436E-01;  1.1628958E+04;  0.0000000E+00;  3.8099962E-01;  4.0000000E+04;  0.0000000E+00;  3.9568887E+04; -1.8931013E-01;  0.0000000E+00;  3.8487449E-01;  1.4317098E+04;
  1.2012931E+00;  9.9999998E-03;  5.0134130E-02;8398;  8.5852313E-01;  0.0000000E+00;  2.0724060E-02;  9.9760944E+02;  1.8586992E-01; -1.9781123E+03;3;  1.0591000E+02;  0.0000000E+00;  9.2499371E+00;0;  1.9556460E-01;  1.1628953E+04;  0.0000000E+00;  3.8098398E-01;  4.0000000E+04;  0.0000000E+00;  3.9568891E+04; -1.8930992E-01;  0.0000000E+00;  3.8487452E-01;  1.4317084E+04;
  1.2013150E+00;  9.9999998E-03; -4.0101368E-02;8389;  8.5493338E-01;  0.0000000E+00; -1.6522318E-02;  9.9740503E+02;  1.8587463E-01; -2.1472329E+03;3;  1.0651210E+02;  0.0000000E+00; -7.5617442E+00;0;  1.8236840E-01;  1.1623175E+04;  0.0000000E+00;  2.5347373E-01;  4.0000000E+04;  0.0000000E+00;  3.9572805E+04; -2.0064878E-01;  0.0000000E+00;  3.8301718E-01;  1.4808946E+04;
  1.2013150E+00;  9.9999998E-03;  4.0101379E-02;8397;  8.5493332E-01;  0.0000000E+00;  1.6522773E-02;  9.9740503E+02;  1.8587463E-01; -2.1472329E+03;3;  1.0651244E+02;  0.0000000E+00;  7.5617800E+00;0;  1.8236840E-01;  1.1623178E+04;  0.0000000E+00;  2.5345990E-01;  4.0000000E+04;  0.0000000E+00;  3.9572805E+04; -2.0064867E-01;  0.0000000E+00;  3.8301706E-01;  1.4808940E+04;
  1.2013323E+00;  9.9999998E-03; -3.0073635E-02;8390;  8.5214216E-01;  0.0000000E+00; -1.2352250E-02;  9.9725610E+02;  1.8587728E-01; -2.2704849E+03;3;  1.0701718E+02;  0.0000000E+00; -5.7107182E+00;0;  1.7202136E-01;  1.1618675E+04;  0.0000000E+00;  1.4599942E-01;  4.0000000E+04;  0.0000000E+00;  3.9576199E+04; -2.0928553E-01;  0.0000000E+00;  3.8130689E-01;  1.5232107E+04;
  1.2013323E+00;  9.9999998E-03;  3.0073645E-02;8396;  8.5214216E-01;  0.0000000E+00;  1.2352734E-02;  9.9725629E+02;  1.8587741E-01; -2.2703369E+03;3;  1.0701734E+02;  0.0000000E+00;  5.7107811E+00;0;  1.7202167E-01;  1.1618679E+04;  0.0000000E+00;  1.4598872E-01;  4.0000000E+04;  0.0000000E+00;  3.9576188E+04; -2.0928539E-01;  0.0000000E+00;  3.8130707E-01;  1.5232073E+04;
  1.2013456E+00;  9.9999998E-03; -2.0046968E-02;8391;  8.5014874E-01;  0.0000000E+00; -8.2151443E-03;  9.9715259E+02;  1.8588002E-01; -2.3561545E+03;3;  1.0731319E+02;  0.0000000E+00; -3.7912829E+00;0;  1.6455440E-01;  1.1615577E+04;  0.0000000E+00;  6.5768696E-02;  4.0000000E+04;  0.0000000E+00;  3.9578660E+04; -2.1536024E-01;  0.0000000E+00;  3.7991464E-01;  1.5555214E+04;
  1.2013456E+00;  9.9999998E-03;  2.0046977E-02;8395;  8.5014874E-01;  0.0000000E+00;  8.2156314E-03;  9.9715253E+02;  1.8588029E-01; -2.3562039E+03;3;  1.0731176E+02;  0.0000000E+00;  3.7912683E+00;0;  1.6455433E-01;  1.1615576E+04;  0.0000000E+00;  6.5760784E-02;  4.0000000E+04;  0.0000000E+00;  3.9578664E+04; -2.1536040E-01;  0.0000000E+00;  3.7991473E-01;  1.5555220E+04;
  1.2013530E+00;  9.9999998E-03; -1.0022530E-02;8392;  8.4895527E-01;  0.0000000E+00; -4.1009653E-03;  9.9709119E+02;  1.8588181E-01; -2.4069546E+03;3;  1.0748064E+02;  0.0000000E+00; -1.8777115E+00;0;  1.6004324E-01;  1.1613683E+04;  0.0000000E+00;  1.6554384E-02;  4.0000000E+04;  0.0000000E+00;  3.9580203E+04; -2.1896416E-01;  0.0000000E+00;  3.7900740E-01;  1.5756256E+04;
  1.2013552E+00;  9.9999998E-03;  2.6439189E-09;8393;  8.4855801E-01;  0.0000000E+00;  2.4301787E-07;  9.9707306E+02;  1.8588236E-01; -2.4219482E+03;3;  1.0756379E+02;  0.0000000E+00;  3.0619965E-05;0;  1.5853542E-01;  1.1613024E+04;  0.0000000E+00;  1.1974263E-10;  4.0000000E+04;  0.0000000E+00;  3.9580602E+04; -2.2015733E-01;  0.0000000E+00;  3.7869275E-01;  1.5824271E+04;
  1.2013530E+00;  9.9999998E-03;  1.0022537E-02;8394;  8.4895521E-01;  0.0000000E+00;  4.1014473E-03;  9.9709125E+02;  1.8588127E-01; -2.4069053E+03;3;  1.0748124E+02;  0.0000000E+00;  1.8777453E+00;0;  1.6004328E-01;  1.1613682E+04;  0.0000000E+00;  1.6550487E-02;  4.0000000E+04;  0.0000000E+00;  3.9580203E+04; -2.1896414E-01;  0.0000000E+00;  3.7900743E-01;  1.5756249E+04;
  1.2188528E+00;  9.9999998E-03; -1.0045702E-01;8444;  8.8435876E-01;  0.0000000E+00; -3.0186281E-02;  9.9759290E+02;  1.7892094E-01; -1.9910902E+03;3;  1.0022586E+02;  0.0000000E+00; -1.8610950E+01;0;  1.2320554E-01;  1.2540308E+04;  0.0000000E+00;  6.9742638E-01;  4.0000000E+04;  0.0000000E+00;  3.9578266E+04; -1.6223776E-01;  0.0000000E+00;  2.8544331E-01;  1.4277984E+04;
  1.2189258E+00;  9.9999998E-03; -9.0366386E-02;8445;  8.7643266E-01;  0.0000000E+00; -2.6909679E-02;  9.9719019E+02;  1.7890164E-01; -2.3241755E+03;3;  1.0188050E+02;  0.0000000E+00; -1.7048740E+01;0;  1.0651985E-01;  1.2531148E+04;  0.0000000E+00;  7.1483928E-01;  4.0000000E+04;  0.0000000E+00;  3.9582246E+04; -1.7567810E-01;  0.0000000E+00;  2.8219795E-01;  1.4816230E+04;
  1.2189728E+00;  9.9999998E-03; -8.0283530E-02;8446;  8.6930114E-01;  0.0000000E+00; -2.3681510E-02;  9.9680261E+02;  1.7889316E-01; -2.6447383E+03;3;  1.0318387E+02;  0.0000000E+00; -1.5253127E+01;0;  9.1992244E-02;  1.2521370E+04;  0.0000000E+00;  6.6145849E-01;  4.0000000E+04;  0.0000000E+00;  3.9585699E+04; -1.8747477E-01;  0.0000000E+00;  2.7946702E-01;  1.5285607E+04;
  1.2190098E+00;  9.9999998E-03; -7.0220314E-02;8447;  8.6302376E-01;  0.0000000E+00; -2.0542381E-02;  9.9644574E+02;  1.7889082E-01; -2.9399595E+03;3;  1.0432304E+02;  0.0000000E+00; -1.3366434E+01;0;  7.9172209E-02;  1.2511808E+04;  0.0000000E+00;  5.6188786E-01;  4.0000000E+04;  0.0000000E+00;  3.9588918E+04; -1.9770552E-01;  0.0000000E+00;  2.7687773E-01;  1.5722589E+04;
  1.2190382E+00;  9.9999998E-03; -6.0173519E-02;8448;  8.5759664E-01;  0.0000000E+00; -1.7501736E-02;  9.9614069E+02;  1.7889200E-01; -3.1922876E+03;3;  1.0523384E+02;  0.0000000E+00; -1.1454169E+01;0;  6.7849874E-02;  1.2503185E+04;  0.0000000E+00;  4.4052908E-01;  4.0000000E+04;  0.0000000E+00;  3.9592305E+04; -2.0644504E-01;  0.0000000E+00;  2.7429491E-01;  1.6141463E+04;
  1.2190382E+00;  9.9999998E-03;  6.0173526E-02;8460;  8.5759664E-01;  0.0000000E+00;  1.7502215E-02;  9.9614075E+02;  1.7889190E-01; -3.1922383E+03;3;  1.0523318E+02;  0.0000000E+00;  1.1454115E+01;0;  6.7850098E-02;  1.2503190E+04;  0.0000000E+00;  4.4051492E-01;  4.0000000E+04;  0.0000000E+00;  3.9592309E+04; -2.0644476E-01;  0.0000000E+00;  2.7429485E-01;  1.6141482E+04;
  1.2190639E+00;  9.9999998E-03; -5.0138045E-02;8449;  8.5301602E-01;  0.0000000E+00; -1.4527223E-02;  9.9587689E+02;  1.7889433E-01; -3.4104490E+03;3;  1.0602676E+02;  0.0000000E+00; -9.5450621E+00;0;  5.7929844E-02;  1.2495748E+04;  0.0000000E+00;  3.1742659E-01;  4.0000000E+04;  0.0000000E+00;  3.9595301E+04; -2.1376020E-01;  0.0000000E+00;  2.7169004E-01;  1.6537014E+04;
  1.2190639E+00;  9.9999998E-03;  5.0138056E-02;8459;  8.5301602E-01;  0.0000000E+00;  1.4527710E-02;  9.9587689E+02;  1.7889349E-01; -3.4104490E+03;3;  1.0602599E+02;  0.0000000E+00;  9.5450153E+00;0;  5.7930246E-02;  1.2495749E+04;  0.0000000E+00;  3.1741452E-01;  4.0000000E+04;  0.0000000E+00;  3.9595289E+04; -2.1375988E-01;  0.0000000E+00;  2.7169013E-01;  1.6537023E+04;
  1.2190914E+00;  9.9999998E-03; -4.0108543E-02;8450;  8.4927052E-01;  0.0000000E+00; -1.1593711E-02;  9.9567120E+02;  1.7889443E-01; -3.5805896E+03;3;  1.0663107E+02;  0.0000000E+00; -7.6749182E+00;0;  4.9443558E-02;  1.2489898E+04;  0.0000000E+00;  2.0671403E-01;  4.0000000E+04;  0.0000000E+00;  3.9597922E+04; -2.1969838E-01;  0.0000000E+00;  2.6914194E-01;  1.6891957E+04;
  1.2190914E+00;  9.9999998E-03;  4.0108554E-02;8458;  8.4927052E-01;  0.0000000E+00;  1.1594199E-02;  9.9567096E+02;  1.7889412E-01; -3.5807869E+03;3;  1.0663152E+02;  0.0000000E+00;  7.6748447E+00;0;  4.9443647E-02;  1.2489899E+04;  0.0000000E+00;  2.0670331E-01;  4.0000000E+04;  0.0000000E+00;  3.9597918E+04; -2.1969818E-01;  0.0000000E+00;  2.6914182E-01;  1.6891939E+04;
  1.2191163E+00;  9.9999998E-03; -3.0081084E-02;8451;  8.4635609E-01;  0.0000000E+00; -8.6800307E-03;  9.9551562E+02;  1.7889509E-01; -3.7092666E+03;3;  1.0712888E+02;  0.0000000E+00; -5.8571444E+00;0;  4.2558447E-02;  1.2485498E+04;  0.0000000E+00;  1.1686986E-01;  4.0000000E+04;  0.0000000E+00;  3.9600238E+04; -2.2429331E-01;  0.0000000E+00;  2.6685175E-01;  1.7185883E+04;
  1.2191163E+00;  9.9999998E-03;  3.0081095E-02;8457;  8.4635603E-01;  0.0000000E+00;  8.6805234E-03;  9.9551569E+02;  1.7889492E-01; -3.7092173E+03;3;  1.0713046E+02;  0.0000000E+00;  5.8570867E+00;0;  4.2558208E-02;  1.2485500E+04;  0.0000000E+00;  1.1686087E-01;  4.0000000E+04;  0.0000000E+00;  3.9600242E+04; -2.2429310E-01;  0.0000000E+00;  2.6685131E-01;  1.7185846E+04;
  1.2191334E+00;  9.9999998E-03; -2.0054607E-02;8452;  8.4427088E-01;  0.0000000E+00; -5.7783201E-03;  9.9540881E+02;  1.7889665E-01; -3.7976150E+03;3;  1.0745734E+02;  0.0000000E+00; -3.9743500E+00;0;  3.7476316E-02;  1.2482432E+04;  0.0000000E+00;  5.1891096E-02;  4.0000000E+04;  0.0000000E+00;  3.9601797E+04; -2.2756861E-01;  0.0000000E+00;  2.6504493E-01;  1.7402986E+04;
  1.2191334E+00;  9.9999998E-03;  2.0054618E-02;8456;  8.4427083E-01;  0.0000000E+00;  5.7788235E-03;  9.9540887E+02;  1.7889570E-01; -3.7975657E+03;3;  1.0745786E+02;  0.0000000E+00;  3.9744275E+00;0;  3.7476346E-02;  1.2482435E+04;  0.0000000E+00;  5.1885247E-02;  4.0000000E+04;  0.0000000E+00;  3.9601797E+04; -2.2756858E-01;  0.0000000E+00;  2.6504493E-01;  1.7402938E+04;
  1.2191460E+00;  9.9999998E-03;  3.8391863E-09;8454;  8.4259868E-01;  0.0000000E+00;  2.4864664E-07;  9.9532452E+02;  1.7889620E-01; -3.8673274E+03;3;  1.0773507E+02;  0.0000000E+00;  7.2122552E-05;0;  3.3303156E-02;  1.2479953E+04;  0.0000000E+00;  1.3708808E-10;  4.0000000E+04;  0.0000000E+00;  3.9603141E+04; -2.3018710E-01;  0.0000000E+00;  2.6349026E-01;  1.7579283E+04;
  1.2191429E+00;  9.9999998E-03; -1.0027884E-02;8453;  8.4301752E-01;  0.0000000E+00; -2.8860685E-03;  9.9534698E+02;  1.7889546E-01; -3.8487900E+03;3;  1.0769123E+02;  0.0000000E+00; -2.0088520E+00;0;  3.4355879E-02;  1.2480584E+04;  0.0000000E+00;  1.2941315E-02;  4.0000000E+04;  0.0000000E+00;  3.9602867E+04; -2.2953236E-01;  0.0000000E+00;  2.6388824E-01;  1.7535074E+04;
  1.2191429E+00;  9.9999998E-03;  1.0027892E-02;8455;  8.4301752E-01;  0.0000000E+00;  2.8865696E-03;  9.9534723E+02;  1.7889547E-01; -3.8485928E+03;3;  1.0769106E+02;  0.0000000E+00;  2.0089169E+00;0;  3.4356266E-02;  1.2480580E+04;  0.0000000E+00;  1.2938284E-02;  4.0000000E+04;  0.0000000E+00;  3.9602871E+04; -2.2953227E-01;  0.0000000E+00;  2.6388854E-01;  1.7535004E+04;
  1.2361392E+00;  9.9999998E-03; -1.0043127E-01;8505;  8.7981546E-01;  0.0000000E+00; -1.7539773E-02;  9.9576178E+02;  1.7213817E-01; -3.5040713E+03;3;  9.9934792E+01;  0.0000000E+00; -2.0068436E+01;0;  1.7939702E-02;  1.3491718E+04;  0.0000000E+00;  5.4533690E-01;  4.0000000E+04;  0.0000000E+00;  3.9598387E+04; -1.5575948E-01;  0.0000000E+00;  1.7369919E-01;  1.5860347E+04;
  1.2361761E+00;  9.9999998E-03; -9.0376608E-02;8506;  8.7172043E-01;  0.0000000E+00; -1.5625043E-02;  9.9538818E+02;  1.7213330E-01; -3.8129021E+03;3;  1.0148858E+02;  0.0000000E+00; -1.8304876E+01;0;  1.0639116E-02;  1.3480104E+04;  0.0000000E+00;  5.3579789E-01;  4.0000000E+04;  0.0000000E+00;  3.9601930E+04; -1.5833409E-01;  0.0000000E+00;  1.6897321E-01;  1.6320551E+04;
  1.2362108E+00;  9.9999998E-03; -8.0328859E-02;8507;  8.6443889E-01;  0.0000000E+00; -1.3733923E-02;  9.9501154E+02;  1.7213236E-01; -4.1243442E+03;3;  1.0282821E+02;  0.0000000E+00; -1.6433397E+01;0;  4.1998923E-03;  1.3468366E+04;  0.0000000E+00;  4.7843888E-01;  4.0000000E+04;  0.0000000E+00;  3.9604715E+04; -1.6070923E-01;  0.0000000E+00;  1.6490912E-01;  1.6711062E+04;
  1.2362428E+00;  9.9999998E-03; -7.0287630E-02;8508;  8.5799116E-01;  0.0000000E+00; -1.1877623E-02;  9.9466272E+02;  1.7213352E-01; -4.4127227E+03;3;  1.0397270E+02;  0.0000000E+00; -1.4595447E+01;0; -1.7201006E-03;  1.3457253E+04;  0.0000000E+00;  3.9343753E-01;  4.0000000E+04;  0.0000000E+00;  3.9607250E+04; -1.6288245E-01;  0.0000000E+00;  1.6116235E-01;  1.7049469E+04;
  1.2362772E+00;  9.9999998E-03; -6.0249504E-02;8509;  8.5237813E-01;  0.0000000E+00; -1.0056069E-02;  9.9434448E+02;  1.7213520E-01; -4.6758208E+03;3;  1.0493975E+02;  0.0000000E+00; -1.2640896E+01;0; -7.2931945E-03;  1.3447400E+04;  0.0000000E+00;  2.9899248E-01;  4.0000000E+04;  0.0000000E+00;  3.9609301E+04; -1.6482559E-01;  0.0000000E+00;  1.5753239E-01;  1.7346217E+04;
  1.2362772E+00;  9.9999998E-03;  6.0249515E-02;8521;  8.5237813E-01;  0.0000000E+00;  1.0056579E-02;  9.9434442E+02;  1.7213579E-01; -4.6758701E+03;3;  1.0493917E+02;  0.0000000E+00;  1.2640893E+01;0; -7.2928220E-03;  1.3447396E+04;  0.0000000E+00;  2.9898486E-01;  4.0000000E+04;  0.0000000E+00;  3.9609305E+04; -1.6482501E-01;  0.0000000E+00;  1.5753219E-01;  1.7346236E+04;
  1.2363130E+00;  9.9999998E-03; -5.0212391E-02;8510;  8.4761214E-01;  0.0000000E+00; -8.2832817E-03;  9.9407684E+02;  1.7213693E-01; -4.8970796E+03;3;  1.0570002E+02;  0.0000000E+00; -1.0560968E+01;0; -1.2504011E-02;  1.3439131E+04;  0.0000000E+00;  2.0899482E-01;  4.0000000E+04;  0.0000000E+00;  3.9611316E+04; -1.6653030E-01;  0.0000000E+00;  1.5402628E-01;  1.7601236E+04;
  1.2363130E+00;  9.9999998E-03;  5.0212402E-02;8520;  8.4761214E-01;  0.0000000E+00;  8.2837781E-03;  9.9407672E+02;  1.7213702E-01; -4.8971782E+03;3;  1.0570054E+02;  0.0000000E+00;  1.0560906E+01;0; -1.2503773E-02;  1.3439132E+04;  0.0000000E+00;  2.0898616E-01;  4.0000000E+04;  0.0000000E+00;  3.9611309E+04; -1.6652997E-01;  0.0000000E+00;  1.5402620E-01;  1.7601242E+04;
  1.2363485E+00;  9.9999998E-03; -4.0174548E-02;8511;  8.4370100E-01;  0.0000000E+00; -6.5632164E-03;  9.9386267E+02;  1.7213811E-01; -5.0741343E+03;3;  1.0627380E+02;  0.0000000E+00; -8.4478207E+00;0; -1.7211214E-02;  1.3432710E+04;  0.0000000E+00;  1.3219105E-01;  4.0000000E+04;  0.0000000E+00;  3.9612723E+04; -1.6797580E-01;  0.0000000E+00;  1.5076458E-01;  1.7809949E+04;
  1.2363485E+00;  9.9999998E-03;  4.0174559E-02;8519;  8.4370095E-01;  0.0000000E+00;  6.5637073E-03;  9.9386273E+02;  1.7213802E-01; -5.0740850E+03;3;  1.0627443E+02;  0.0000000E+00;  8.4476833E+00;0; -1.7211065E-02;  1.3432709E+04;  0.0000000E+00;  1.3218418E-01;  4.0000000E+04;  0.0000000E+00;  3.9612723E+04; -1.6797563E-01;  0.0000000E+00;  1.5076457E-01;  1.7809936E+04;
  1.2363805E+00;  9.9999998E-03; -3.0134169E-02;8512;  8.4065551E-01;  0.0000000E+00; -4.8888749E-03;  9.9369360E+02;  1.7213744E-01; -5.2139341E+03;3;  1.0674094E+02;  0.0000000E+00; -6.3549271E+00;0; -2.1202311E-02;  1.3427939E+04;  0.0000000E+00;  7.2767809E-02;  4.0000000E+04;  0.0000000E+00;  3.9613840E+04; -1.6914245E-01;  0.0000000E+00;  1.4794014E-01;  1.7968625E+04;
  1.2363806E+00;  9.9999998E-03;  3.0134181E-02;8518;  8.4065557E-01;  0.0000000E+00;  4.8893671E-03;  9.9369366E+02;  1.7213750E-01; -5.2138853E+03;3;  1.0674042E+02;  0.0000000E+00;  6.3548913E+00;0; -2.1202073E-02;  1.3427938E+04;  0.0000000E+00;  7.2764181E-02;  4.0000000E+04;  0.0000000E+00;  3.9613840E+04; -1.6914228E-01;  0.0000000E+00;  1.4794020E-01;  1.7968594E+04;
  1.2364047E+00;  9.9999998E-03; -2.0091303E-02;8513;  8.3847696E-01;  0.0000000E+00; -3.2427837E-03;  9.9357794E+02;  1.7213599E-01; -5.3095317E+03;3;  1.0704544E+02;  0.0000000E+00; -4.2232251E+00;0; -2.4250075E-02;  1.3424729E+04;  0.0000000E+00;  3.1598888E-02;  4.0000000E+04;  0.0000000E+00;  3.9614734E+04; -1.7000987E-01;  0.0000000E+00;  1.4575979E-01;  1.8076850E+04;
  1.2364185E+00;  9.9999998E-03; -1.0046412E-02;8514;  8.3717090E-01;  0.0000000E+00; -1.6153960E-03;  9.9350830E+02;  1.7213570E-01; -5.3671367E+03;3;  1.0726999E+02;  0.0000000E+00; -2.1078384E+00;0; -2.6162371E-02;  1.3422831E+04;  0.0000000E+00;  7.7634170E-03;  4.0000000E+04;  0.0000000E+00;  3.9615148E+04; -1.7055342E-01;  0.0000000E+00;  1.4439104E-01;  1.8138379E+04;
  1.2364228E+00;  9.9999998E-03;  3.6501306E-09;8515;  8.3673406E-01;  0.0000000E+00;  2.5576585E-07;  9.9348401E+02;  1.7213628E-01; -5.3871929E+03;3;  1.0734021E+02;  0.0000000E+00;  7.4775686E-05;0; -2.6814252E-02;  1.3422181E+04;  0.0000000E+00;  1.2657994E-10;  4.0000000E+04;  0.0000000E+00;  3.9615277E+04; -1.7074032E-01;  0.0000000E+00;  1.4392607E-01;  1.8158125E+04;
  1.2364185E+00;  9.9999998E-03;  1.0046420E-02;8516;  8.3717084E-01;  0.0000000E+00;  1.6159071E-03;  9.9350836E+02;  1.7213553E-01; -5.3670874E+03;3;  1.0726989E+02;  0.0000000E+00;  2.1079488E+00;0; -2.6162490E-02;  1.3422836E+04;  0.0000000E+00;  7.7626649E-03;  4.0000000E+04;  0.0000000E+00;  3.9615152E+04; -1.7055337E-01;  0.0000000E+00;  1.4439088E-01;  1.8138355E+04;
  1.2364047E+00;  9.9999998E-03;  2.0091312E-02;8517;  8.3847690E-01;  0.0000000E+00;  3.2432911E-03;  9.9357806E+02;  1.7213590E-01; -5.3094331E+03;3;  1.0704510E+02;  0.0000000E+00;  4.2232885E+00;0; -2.4249867E-02;  1.3424729E+04;  0.0000000E+00;  3.1597238E-02;  4.0000000E+04;  0.0000000E+00;  3.9614734E+04; -1.7000961E-01;  0.0000000E+00;  1.4575975E-01;  1.8076838E+04;
  1.2531178E+00;  9.9999998E-03; -4.0248040E-02;8572;  8.3851039E-01;  0.0000000E+00; -1.5245992E-03;  9.9200464E+02;  1.6569890E-01; -6.6064204E+03;3;  1.0538107E+02;  0.0000000E+00; -9.8777180E+00;0;  4.9532577E-04;  1.4441542E+04;  0.0000000E+00;  5.1579829E-02;  4.0000000E+04;  0.0000000E+00;  3.9619430E+04; -3.1891875E-02;  0.0000000E+00;  3.2387201E-02;  1.7880258E+04;
  1.2531514E+00;  9.9999998E-03; -3.0189276E-02;8573;  8.3536309E-01;  0.0000000E+00; -1.0911319E-03;  9.9182831E+02;  1.6570041E-01; -6.7520933E+03;3;  1.0583356E+02;  0.0000000E+00; -7.4785872E+00;0;  2.9536709E-04;  1.4435980E+04;  0.0000000E+00;  2.6094079E-02;  4.0000000E+04;  0.0000000E+00;  3.9619660E+04; -2.8602138E-02;  0.0000000E+00;  2.8897505E-02;  1.7931742E+04;
  1.2531514E+00;  9.9999998E-03;  3.0189285E-02;8579;  8.3536309E-01;  0.0000000E+00;  1.0916418E-03;  9.9182837E+02;  1.6570073E-01; -6.7520439E+03;3;  1.0583429E+02;  0.0000000E+00;  7.4785423E+00;0;  2.9581040E-04;  1.4435984E+04;  0.0000000E+00;  2.6094060E-02;  4.0000000E+04;  0.0000000E+00;  3.9619664E+04; -2.8601706E-02;  0.0000000E+00;  2.8897516E-02;  1.7931721E+04;
  1.2531178E+00;  9.9999998E-03;  4.0248051E-02;8580;  8.3851027E-01;  0.0000000E+00;  1.5251018E-03;  9.9200458E+02;  1.6569880E-01; -6.6064697E+03;3;  1.0538174E+02;  0.0000000E+00;  9.8777542E+00;0;  4.9584731E-04;  1.4441538E+04;  0.0000000E+00;  5.1579397E-02;  4.0000000E+04;  0.0000000E+00;  3.9619426E+04; -3.1891465E-02;  0.0000000E+00;  3.2387313E-02;  1.7880188E+04;
  1.2530571E+00;  9.9999998E-03; -6.0345188E-02;8570;  8.4744632E-01;  0.0000000E+00; -2.5255405E-03;  9.9251654E+02;  1.6568772E-01; -6.1834746E+03;3;  1.0421229E+02;  0.0000000E+00; -1.4414610E+01;0; -1.3466924E-05;  1.4459561E+04;  0.0000000E+00;  1.3665517E-01;  4.0000000E+04;  0.0000000E+00;  3.9617895E+04; -4.1179679E-02;  0.0000000E+00;  4.1166212E-02;  1.7640863E+04;
  1.2530844E+00;  9.9999998E-03; -5.0301351E-02;8571;  8.4254050E-01;  0.0000000E+00; -2.0024718E-03;  9.9223071E+02;  1.6569509E-01; -6.4196226E+03;3;  1.0483051E+02;  0.0000000E+00; -1.2192516E+01;0;  4.4615194E-04;  1.4449348E+04;  0.0000000E+00;  8.8518001E-02;  4.0000000E+04;  0.0000000E+00;  3.9618883E+04; -3.6092624E-02;  0.0000000E+00;  3.6538776E-02;  1.7785898E+04;
  1.2531784E+00;  9.9999998E-03; -2.0128258E-02;8574;  8.3310902E-01;  0.0000000E+00; -6.9939886E-04;  9.9170782E+02;  1.6570017E-01; -6.8516694E+03;3;  1.0602538E+02;  0.0000000E+00; -4.9377408E+00;0;  4.2133033E-06;  1.4432303E+04;  0.0000000E+00;  1.0482494E-02;  4.0000000E+04;  0.0000000E+00;  3.9619711E+04; -2.6260635E-02;  0.0000000E+00;  2.6264848E-02;  1.7952412E+04;
  1.2531945E+00;  9.9999998E-03; -1.0065331E-02;8575;  8.3175749E-01;  0.0000000E+00; -3.4202344E-04;  9.9163574E+02;  1.6570094E-01; -6.9112085E+03;3;  1.0620558E+02;  0.0000000E+00; -2.4664021E+00;0; -2.4016574E-04;  1.4430099E+04;  0.0000000E+00;  2.4329934E-03;  4.0000000E+04;  0.0000000E+00;  3.9619660E+04; -2.4876958E-02;  0.0000000E+00;  2.4636792E-02;  1.7956732E+04;
  1.2531997E+00;  9.9999998E-03;  3.6605619E-09;8576;  8.3130479E-01;  0.0000000E+00;  2.6099934E-07;  9.9161200E+02;  1.6570123E-01; -6.9308081E+03;3;  1.0625555E+02;  0.0000000E+00;  2.2885177E-05;0; -3.3388846E-04;  1.4429385E+04;  0.0000000E+00;  9.2534945E-11;  4.0000000E+04;  0.0000000E+00;  3.9619562E+04; -2.4419826E-02;  0.0000000E+00;  2.4085937E-02;  1.7956686E+04;
  1.2531945E+00;  9.9999998E-03;  1.0065340E-02;8577;  8.3175743E-01;  0.0000000E+00;  3.4253890E-04;  9.9163593E+02;  1.6570063E-01; -6.9110605E+03;3;  1.0620529E+02;  0.0000000E+00;  2.4664881E+00;0; -2.4000555E-04;  1.4430104E+04;  0.0000000E+00;  2.4338337E-03;  4.0000000E+04;  0.0000000E+00;  3.9619660E+04; -2.4876611E-02;  0.0000000E+00;  2.4636606E-02;  1.7956736E+04;
  1.2531784E+00;  9.9999998E-03;  2.0128265E-02;8578;  8.3310902E-01;  0.0000000E+00;  6.9991691E-04;  9.9170770E+02;  1.6570081E-01; -6.8517676E+03;3;  1.0602525E+02;  0.0000000E+00;  4.9378381E+00;0;  4.4461340E-06;  1.4432307E+04;  0.0000000E+00;  1.0483409E-02;  4.0000000E+04;  0.0000000E+00;  3.9619711E+04; -2.6260449E-02;  0.0000000E+00;  2.6264895E-02;  1.7952357E+04;
  1.2530844E+00;  9.9999998E-03;  5.0301362E-02;8581;  8.4254050E-01;  0.0000000E+00;  2.0029689E-03;  9.9223083E+02;  1.6569529E-01; -6.4195239E+03;3;  1.0483004E+02;  0.0000000E+00;  1.2192413E+01;0;  4.4672191E-04;  1.4449348E+04;  0.0000000E+00;  8.8514037E-02;  4.0000000E+04;  0.0000000E+00;  3.9618875E+04; -3.6092021E-02;  0.0000000E+00;  3.6538742E-02;  1.7785859E+04;
  1.2530571E+00;  9.9999998E-03;  6.0345199E-02;8582;  8.4744626E-01;  0.0000000E+00;  2.5260504E-03;  9.9251672E+02;  1.6568771E-01; -6.1833271E+03;3;  1.0421159E+02;  0.0000000E+00;  1.4414621E+01;0; -1.2803823E-05;  1.4459564E+04;  0.0000000E+00;  1.3664964E-01;  4.0000000E+04;  0.0000000E+00;  3.9617891E+04; -4.1178949E-02;  0.0000000E+00;  4.1166145E-02;  1.7640846E+04;
  1.2530357E+00;  9.9999998E-03; -7.0378967E-02;8569;  8.5321754E-01;  0.0000000E+00; -3.0875811E-03;  9.9283917E+02;  1.6567729E-01; -5.9168877E+03;3;  1.0333712E+02;  0.0000000E+00; -1.6503019E+01;0; -1.0129325E-03;  1.4472022E+04;  0.0000000E+00;  1.9301210E-01;  4.0000000E+04;  0.0000000E+00;  3.9616754E+04; -4.7178533E-02;  0.0000000E+00;  4.6165600E-02;  1.7439256E+04;
  1.2530231E+00;  9.9999998E-03; -8.0404349E-02;8568;  8.5984159E-01;  0.0000000E+00; -3.6834104E-03;  9.9319940E+02;  1.6566327E-01; -5.6192212E+03;3;  1.0222507E+02;  0.0000000E+00; -1.8553085E+01;0; -2.5609732E-03;  1.4486268E+04;  0.0000000E+00;  2.5126562E-01;  4.0000000E+04;  0.0000000E+00;  3.9614738E+04; -5.4068256E-02;  0.0000000E+00;  5.1507283E-02;  1.7175244E+04;
  1.2530310E+00;  9.9999998E-03; -9.0422645E-02;8567;  8.6728233E-01;  0.0000000E+00; -4.2859716E-03;  9.9357092E+02;  1.6564544E-01; -5.3122422E+03;3;  1.0095959E+02;  0.0000000E+00; -2.0436361E+01;0; -4.4826381E-03;  1.4502298E+04;  0.0000000E+00;  3.0182356E-01;  4.0000000E+04;  0.0000000E+00;  3.9612309E+04; -6.1743844E-02;  0.0000000E+00;  5.7261206E-02;  1.6842178E+04;
  1.2530597E+00;  9.9999998E-03; -1.0044101E-01;8566;  8.7551892E-01;  0.0000000E+00; -4.8886677E-03;  9.9393140E+02;  1.6562591E-01; -5.0143706E+03;3;  9.9445587E+01;  0.0000000E+00; -2.2261375E+01;0; -6.4393207E-03;  1.4519239E+04;  0.0000000E+00;  3.3300692E-01;  4.0000000E+04;  0.0000000E+00;  3.9609352E+04; -7.0215218E-02;  0.0000000E+00;  6.3775897E-02;  1.6434451E+04;
  1.2694529E+00;  9.9999998E-03; -2.0139351E-02;8635;  8.2872552E-01;  0.0000000E+00;  1.9112428E-03;  9.8998383E+02;  1.5965247E-01; -8.2701221E+03;3;  1.0323827E+02;  0.0000000E+00; -5.4056678E+00;0;  1.3694613E-01;  1.5497167E+04;  0.0000000E+00; -7.5197127E-03;  4.0000000E+04;  0.0000000E+00;  3.9618926E+04;  2.2623461E-01;  0.0000000E+00; -8.9288488E-02;  1.7336297E+04;
  1.2694671E+00;  9.9999998E-03; -1.0070773E-02;8636;  8.2735389E-01;  0.0000000E+00;  9.6332870E-04;  9.8990930E+02;  1.5965340E-01; -8.3316338E+03;3;  1.0335051E+02;  0.0000000E+00; -2.6912193E+00;0;  1.3909669E-01;  1.5494630E+04;  0.0000000E+00; -2.0593309E-03;  4.0000000E+04;  0.0000000E+00;  3.9618547E+04;  2.3034190E-01;  0.0000000E+00; -9.1245204E-02;  1.7305141E+04;
  1.2694716E+00;  9.9999998E-03;  4.5748387E-09;8637;  8.2689810E-01;  0.0000000E+00;  2.6925852E-07;  9.8988354E+02;  1.5965429E-01; -8.3528916E+03;3;  1.0344595E+02;  0.0000000E+00;  1.0446832E-04;0;  1.3980412E-01;  1.5493785E+04;  0.0000000E+00;  4.7223458E-11;  4.0000000E+04;  0.0000000E+00;  3.9618383E+04;  2.3170695E-01;  0.0000000E+00; -9.1902815E-02;  1.7292582E+04;
  1.2694671E+00;  9.9999998E-03;  1.0070782E-02;8638;  8.2735389E-01;  0.0000000E+00; -9.6279645E-04;  9.8990948E+02;  1.5965341E-01; -8.3314854E+03;3;  1.0335044E+02;  0.0000000E+00;  2.6912906E+00;0;  1.3909721E-01;  1.5494630E+04;  0.0000000E+00; -2.0578583E-03;  4.0000000E+04;  0.0000000E+00;  3.9618547E+04;  2.3034251E-01;  0.0000000E+00; -9.1245294E-02;  1.7305104E+04;
  1.2694529E+00;  9.9999998E-03;  2.0139363E-02;8639;  8.2872558E-01;  0.0000000E+00; -1.9107130E-03;  9.8998346E+02;  1.5965214E-01; -8.2704170E+03;3;  1.0323923E+02;  0.0000000E+00;  5.4057527E+00;0;  1.3694662E-01;  1.5497169E+04;  0.0000000E+00; -7.5173206E-03;  4.0000000E+04;  0.0000000E+00;  3.9618926E+04;  2.2623512E-01;  0.0000000E+00; -8.9288495E-02;  1.7336264E+04;
  1.2694316E+00;  9.9999998E-03; -3.0205548E-02;8634;  8.3100671E-01;  0.0000000E+00;  2.8344772E-03;  9.9010828E+02;  1.5964919E-01; -8.1673726E+03;3;  1.0304036E+02;  0.0000000E+00; -8.0610018E+00;0;  1.3331783E-01;  1.5501656E+04;  0.0000000E+00; -1.4418801E-02;  4.0000000E+04;  0.0000000E+00;  3.9619375E+04;  2.1942377E-01;  0.0000000E+00; -8.6105935E-02;  1.7368643E+04;
  1.2694316E+00;  9.9999998E-03;  3.0205561E-02;8640;  8.3100671E-01;  0.0000000E+00; -2.8339536E-03;  9.9010858E+02;  1.5964933E-01; -8.1670771E+03;3;  1.0303998E+02;  0.0000000E+00;  8.0609303E+00;0;  1.3331859E-01;  1.5501654E+04;  0.0000000E+00; -1.4416308E-02;  4.0000000E+04;  0.0000000E+00;  3.9619379E+04;  2.1942452E-01;  0.0000000E+00; -8.6105928E-02;  1.7368602E+04;
  1.2694079E+00;  9.9999998E-03; -4.0270124E-02;8633;  8.3420074E-01;  0.0000000E+00;  3.7140646E-03;  9.9028662E+02;  1.5964369E-01; -8.0200830E+03;3;  1.0271592E+02;  0.0000000E+00; -1.0688677E+01;0;  1.2817244E-01;  1.5508459E+04;  0.0000000E+00; -2.0021066E-02;  4.0000000E+04;  0.0000000E+00;  3.9619605E+04;  2.0998874E-01;  0.0000000E+00; -8.1816301E-02;  1.7379504E+04;
  1.2694079E+00;  9.9999998E-03;  4.0270139E-02;8641;  8.3420080E-01;  0.0000000E+00; -3.7135489E-03;  9.9028668E+02;  1.5964305E-01; -8.0200342E+03;3;  1.0271533E+02;  0.0000000E+00;  1.0688632E+01;0;  1.2817332E-01;  1.5508468E+04;  0.0000000E+00; -2.0019000E-02;  4.0000000E+04;  0.0000000E+00;  3.9619609E+04;  2.0998965E-01;  0.0000000E+00; -8.1816331E-02;  1.7379484E+04;
  1.2693853E+00;  9.9999998E-03; -5.0332282E-02;8632;  8.3829188E-01;  0.0000000E+00;  4.5504351E-03;  9.9052075E+02;  1.5963401E-01; -7.8267803E+03;3;  1.0232130E+02;  0.0000000E+00; -1.3180076E+01;0;  1.2144288E-01;  1.5517963E+04;  0.0000000E+00; -2.1353865E-02;  4.0000000E+04;  0.0000000E+00;  3.9619723E+04;  1.9799450E-01;  0.0000000E+00; -7.6551616E-02;  1.7347166E+04;
  1.2693853E+00;  9.9999998E-03;  5.0332297E-02;8642;  8.3829188E-01;  0.0000000E+00; -4.5499131E-03;  9.9052094E+02;  1.5963440E-01; -7.8266323E+03;3;  1.0232183E+02;  0.0000000E+00;  1.3180104E+01;0;  1.2144369E-01;  1.5517962E+04;  0.0000000E+00; -2.1353211E-02;  4.0000000E+04;  0.0000000E+00;  3.9619727E+04;  1.9799526E-01;  0.0000000E+00; -7.6551571E-02;  1.7347084E+04;
  1.2693639E+00;  9.9999998E-03; -6.0388822E-02;8631;  8.4329200E-01;  0.0000000E+00;  5.3295665E-03;  9.9081201E+02;  1.5962192E-01; -7.5863271E+03;3;  1.0189184E+02;  0.0000000E+00; -1.5702736E+01;0;  1.1303902E-01;  1.5529995E+04;  0.0000000E+00; -1.5691580E-02;  4.0000000E+04;  0.0000000E+00;  3.9619211E+04;  1.8346426E-01;  0.0000000E+00; -7.0425242E-02;  1.7254658E+04;
  1.2693639E+00;  9.9999998E-03;  6.0388837E-02;8643;  8.4329194E-01;  0.0000000E+00; -5.3290334E-03;  9.9081226E+02;  1.5962188E-01; -7.5861304E+03;3;  1.0189127E+02;  0.0000000E+00;  1.5702793E+01;0;  1.1303976E-01;  1.5529997E+04;  0.0000000E+00; -1.5697772E-02;  4.0000000E+04;  0.0000000E+00;  3.9619207E+04;  1.8346487E-01;  0.0000000E+00; -7.0425108E-02;  1.7254643E+04;
  1.2693450E+00;  9.9999998E-03; -7.0431486E-02;8630;  8.4917623E-01;  0.0000000E+00;  6.0517211E-03;  9.9114185E+02;  1.5960567E-01; -7.3139824E+03;3;  1.0108242E+02;  0.0000000E+00; -1.8033484E+01;0;  1.0295187E-01;  1.5544607E+04;  0.0000000E+00; -1.0480764E-03;  4.0000000E+04;  0.0000000E+00;  3.9618180E+04;  1.6649809E-01;  0.0000000E+00; -6.3546225E-02;  1.7092096E+04;
  1.2693437E+00;  9.9999998E-03; -8.0455475E-02;8629;  8.5590726E-01;  0.0000000E+00;  6.7175245E-03;  9.9150470E+02;  1.5958445E-01; -7.0143667E+03;3;  1.0022679E+02;  0.0000000E+00; -2.0230961E+01;0;  9.1398425E-02;  1.5561854E+04;  0.0000000E+00;  2.3287321E-02;  4.0000000E+04;  0.0000000E+00;  3.9616426E+04;  1.4744948E-01;  0.0000000E+00; -5.6051053E-02;  1.6854357E+04;
  1.2693676E+00;  9.9999998E-03; -9.0465032E-02;8628;  8.6347175E-01;  0.0000000E+00;  7.3342579E-03;  9.9187463E+02;  1.5955567E-01; -6.7089346E+03;3;  9.9213661E+01;  0.0000000E+00; -2.2337261E+01;0;  7.8625441E-02;  1.5581400E+04;  0.0000000E+00;  5.6577213E-02;  4.0000000E+04;  0.0000000E+00;  3.9614195E+04;  1.2652148E-01;  0.0000000E+00; -4.7896039E-02;  1.6540076E+04;
  1.2694252E+00;  9.9999998E-03; -1.0047219E-01;8627;  8.7182128E-01;  0.0000000E+00;  7.9101184E-03;  9.9223926E+02;  1.5951860E-01; -6.4078721E+03;3;  9.8027550E+01;  0.0000000E+00; -2.4261948E+01;0;  6.5055981E-02;  1.5602891E+04;  0.0000000E+00;  9.6170887E-02;  4.0000000E+04;  0.0000000E+00;  3.9611293E+04;  1.0390534E-01;  0.0000000E+00; -3.8849350E-02;  1.6154896E+04;
  1.2852275E+00;  9.9999998E-03;  4.6456767E-09;8698;  8.2368809E-01;  0.0000000E+00;  2.7306274E-07;  9.8853827E+02;  1.5403624E-01; -9.4551475E+03;3;  1.0241559E+02;  0.0000000E+00;  1.1945313E-05;0;  4.1141078E-01;  1.6607572E+04;  0.0000000E+00;  1.2049235E-11;  4.0000000E+04;  0.0000000E+00;  3.9613039E+04;  6.1090529E-01;  0.0000000E+00; -1.9949451E-01;  1.6347933E+04;
  1.2852197E+00;  9.9999998E-03; -2.0129904E-02;8696;  8.2552844E-01;  0.0000000E+00;  4.5639961E-03;  9.8863397E+02;  1.5403214E-01; -9.3761855E+03;3;  1.0220583E+02;  0.0000000E+00; -5.9756770E+00;0;  4.0456867E-01;  1.6611645E+04;  0.0000000E+00; -1.8414253E-02;  4.0000000E+04;  0.0000000E+00;  3.9613789E+04;  6.0099316E-01;  0.0000000E+00; -1.9642450E-01;  1.6405182E+04;
  1.2852260E+00;  9.9999998E-03; -1.0065868E-02;8697;  8.2414991E-01;  0.0000000E+00;  2.2878943E-03;  9.8856177E+02;  1.5403512E-01; -9.4357754E+03;3;  1.0238947E+02;  0.0000000E+00; -3.0836155E+00;0;  4.0971148E-01;  1.6608625E+04;  0.0000000E+00; -4.6931007E-03;  4.0000000E+04;  0.0000000E+00;  3.9613242E+04;  6.0843724E-01;  0.0000000E+00; -1.9872577E-01;  1.6364217E+04;
  1.2852260E+00;  9.9999998E-03;  1.0065876E-02;8699;  8.2414979E-01;  0.0000000E+00; -2.2873543E-03;  9.8856177E+02;  1.5403509E-01; -9.4357754E+03;3;  1.0238932E+02;  0.0000000E+00;  3.0835829E+00;0;  4.0971202E-01;  1.6608627E+04;  0.0000000E+00; -4.6917568E-03;  4.0000000E+04;  0.0000000E+00;  3.9613238E+04;  6.0843796E-01;  0.0000000E+00; -1.9872594E-01;  1.6364208E+04;
  1.2852197E+00;  9.9999998E-03;  2.0129913E-02;8700;  8.2552832E-01;  0.0000000E+00; -4.5634587E-03;  9.8863403E+02;  1.5403238E-01; -9.3761357E+03;3;  1.0220560E+02;  0.0000000E+00;  5.9757056E+00;0;  4.0456909E-01;  1.6611646E+04;  0.0000000E+00; -1.8411964E-02;  4.0000000E+04;  0.0000000E+00;  3.9613785E+04;  6.0099357E-01;  0.0000000E+00; -1.9642447E-01;  1.6405160E+04;
  1.2852080E+00;  9.9999998E-03; -3.0191584E-02;8695;  8.2783294E-01;  0.0000000E+00;  6.7944960E-03;  9.8875702E+02;  1.5402648E-01; -9.2747061E+03;3;  1.0199722E+02;  0.0000000E+00; -8.9427519E+00;0;  3.9594668E-01;  1.6616842E+04;  0.0000000E+00; -4.0067114E-02;  4.0000000E+04;  0.0000000E+00;  3.9614074E+04;  5.8857393E-01;  0.0000000E+00; -1.9262725E-01;  1.6449994E+04;
  1.2852080E+00;  9.9999998E-03;  3.0191597E-02;8701;  8.2783294E-01;  0.0000000E+00; -6.7939651E-03;  9.8875702E+02;  1.5402670E-01; -9.2747061E+03;3;  1.0199680E+02;  0.0000000E+00;  8.9428349E+00;0;  3.9594784E-01;  1.6616838E+04;  0.0000000E+00; -4.0064529E-02;  4.0000000E+04;  0.0000000E+00;  3.9614066E+04;  5.8857507E-01;  0.0000000E+00; -1.9262722E-01;  1.6449945E+04;
  1.2851956E+00;  9.9999998E-03; -4.0250845E-02;8694;  8.3105314E-01;  0.0000000E+00;  8.9690266E-03;  9.8893292E+02;  1.5401806E-01; -9.1296123E+03;3;  1.0155530E+02;  0.0000000E+00; -1.1793399E+01;0;  3.8391834E-01;  1.6624582E+04;  0.0000000E+00; -6.7742862E-02;  4.0000000E+04;  0.0000000E+00;  3.9614578E+04;  5.7134640E-01;  0.0000000E+00; -1.8742807E-01;  1.6471756E+04;
  1.2851956E+00;  9.9999998E-03;  4.0250860E-02;8702;  8.3105320E-01;  0.0000000E+00; -8.9684809E-03;  9.8893298E+02;  1.5401793E-01; -9.1295635E+03;3;  1.0155602E+02;  0.0000000E+00;  1.1793510E+01;0;  3.8392013E-01;  1.6624584E+04;  0.0000000E+00; -6.7740567E-02;  4.0000000E+04;  0.0000000E+00;  3.9614582E+04;  5.7134831E-01;  0.0000000E+00; -1.8742816E-01;  1.6471686E+04;
  1.2851844E+00;  9.9999998E-03; -5.0307631E-02;8693;  8.3518624E-01;  0.0000000E+00;  1.1068738E-02;  9.8916132E+02;  1.5400606E-01; -8.9412002E+03;3;  1.0076195E+02;  0.0000000E+00; -1.4521810E+01;0;  3.6851078E-01;  1.6635225E+04;  0.0000000E+00; -9.8628312E-02;  4.0000000E+04;  0.0000000E+00;  3.9614445E+04;  5.4942918E-01;  0.0000000E+00; -1.8091838E-01;  1.6444654E+04;
  1.2851844E+00;  9.9999998E-03;  5.0307646E-02;8703;  8.3518624E-01;  0.0000000E+00; -1.1068184E-02;  9.8916101E+02;  1.5400578E-01; -8.9414453E+03;3;  1.0076041E+02;  0.0000000E+00;  1.4521964E+01;0;  3.6851206E-01;  1.6635223E+04;  0.0000000E+00; -9.8626748E-02;  4.0000000E+04;  0.0000000E+00;  3.9614441E+04;  5.4943031E-01;  0.0000000E+00; -1.8091825E-01;  1.6444611E+04;
  1.2851719E+00;  9.9999998E-03; -6.0361098E-02;8692;  8.4023124E-01;  0.0000000E+00;  1.3080847E-02;  9.8944403E+02;  1.5399046E-01; -8.7079951E+03;3;  9.9979179E+01;  0.0000000E+00; -1.7204308E+01;0;  3.4969342E-01;  1.6648590E+04;  0.0000000E+00; -1.2884849E-01;  4.0000000E+04;  0.0000000E+00;  3.9614000E+04;  5.2286345E-01;  0.0000000E+00; -1.7317003E-01;  1.6349742E+04;
  1.2851719E+00;  9.9999998E-03;  6.0361110E-02;8704;  8.4023124E-01;  0.0000000E+00; -1.3080314E-02;  9.8944379E+02;  1.5399039E-01; -8.7081914E+03;3;  9.9979729E+01;  0.0000000E+00;  1.7204073E+01;0;  3.4969407E-01;  1.6648594E+04;  0.0000000E+00; -1.2885389E-01;  4.0000000E+04;  0.0000000E+00;  3.9614000E+04;  5.2286386E-01;  0.0000000E+00; -1.7316978E-01;  1.6349746E+04;
  1.2851547E+00;  9.9999998E-03; -7.0409067E-02;8691;  8.4617525E-01;  0.0000000E+00;  1.4988419E-02;  9.8976404E+02;  1.5397219E-01; -8.4440098E+03;3;  9.9293579E+01;  0.0000000E+00; -1.9749514E+01;0;  3.2749939E-01;  1.6664496E+04;  0.0000000E+00; -1.5329444E-01;  4.0000000E+04;  0.0000000E+00;  3.9612988E+04;  4.9174783E-01;  0.0000000E+00; -1.6424844E-01;  1.6176804E+04;
  1.2851318E+00;  9.9999998E-03; -8.0447786E-02;8690;  8.5298216E-01;  0.0000000E+00;  1.6779304E-02;  9.9012012E+02;  1.5395184E-01; -8.1502808E+03;3;  9.8528366E+01;  0.0000000E+00; -2.2086607E+01;0;  3.0212203E-01;  1.6682357E+04;  0.0000000E+00; -1.6561747E-01;  4.0000000E+04;  0.0000000E+00;  3.9611098E+04;  4.5633283E-01;  0.0000000E+00; -1.5421081E-01;  1.5925143E+04;
  1.2851200E+00;  9.9999998E-03; -9.0472296E-02;8689;  8.6063629E-01;  0.0000000E+00;  1.8442582E-02;  9.9048187E+02;  1.5392767E-01; -7.8518735E+03;3;  9.7767570E+01;  0.0000000E+00; -2.4348675E+01;0;  2.7419233E-01;  1.6702182E+04;  0.0000000E+00; -1.5904647E-01;  4.0000000E+04;  0.0000000E+00;  3.9608605E+04;  4.1734233E-01;  0.0000000E+00; -1.4315000E-01;  1.5605189E+04;
  1.2851353E+00;  9.9999998E-03; -1.0048586E-01;8688;  8.6906737E-01;  0.0000000E+00;  2.0001823E-02;  9.9084442E+02;  1.5389501E-01; -7.5527651E+03;3;  9.6602211E+01;  0.0000000E+00; -2.6312771E+01;0;  2.4442805E-01;  1.6724008E+04;  0.0000000E+00; -1.2796269E-01;  4.0000000E+04;  0.0000000E+00;  3.9605895E+04;  3.7542471E-01;  0.0000000E+00; -1.3099666E-01;  1.5238555E+04;
  1.3004525E+00;  9.9999998E-03;  4.8815516E-09;8759;  8.2143068E-01;  0.0000000E+00;  2.7778353E-07;  9.8775378E+02;  1.4887841E-01; -1.0091239E+04;3;  1.0043658E+02;  0.0000000E+00; -2.0294794E-05;0;  8.1223589E-01;  1.7760254E+04;  0.0000000E+00; -1.3573758E-11;  4.0000000E+04;  0.0000000E+00;  3.9603930E+04;  1.1062342E+00;  0.0000000E+00; -2.9399830E-01;  1.5184839E+04;
  1.3004524E+00;  9.9999998E-03; -2.0118076E-02;8757;  8.2328421E-01;  0.0000000E+00;  7.1767536E-03;  9.8783893E+02;  1.4887342E-01; -1.0021102E+04;3;  1.0033115E+02;  0.0000000E+00; -6.5879750E+00;0;  8.0080330E-01;  1.7764467E+04;  0.0000000E+00; -1.8984599E-02;  4.0000000E+04;  0.0000000E+00;  3.9604480E+04;  1.0912977E+00;  0.0000000E+00; -2.9049444E-01;  1.5225548E+04;
  1.3004528E+00;  9.9999998E-03; -1.0060050E-02;8758;  8.2189518E-01;  0.0000000E+00;  3.6011962E-03;  9.8777484E+02;  1.4887738E-01; -1.0073901E+04;3;  1.0041158E+02;  0.0000000E+00; -3.3492715E+00;0;  8.0938685E-01;  1.7761273E+04;  0.0000000E+00; -4.6794740E-03;  4.0000000E+04;  0.0000000E+00;  3.9604230E+04;  1.1025089E+00;  0.0000000E+00; -2.9312202E-01;  1.5197038E+04;
  1.3004528E+00;  9.9999998E-03;  1.0060059E-02;8760;  8.2189518E-01;  0.0000000E+00; -3.6006470E-03;  9.8777484E+02;  1.4887771E-01; -1.0073901E+04;3;  1.0041164E+02;  0.0000000E+00;  3.3491504E+00;0;  8.0938613E-01;  1.7761273E+04;  0.0000000E+00; -4.6787541E-03;  4.0000000E+04;  0.0000000E+00;  3.9604230E+04;  1.1025079E+00;  0.0000000E+00; -2.9312181E-01;  1.5197042E+04;
  1.3004524E+00;  9.9999998E-03;  2.0118088E-02;8761;  8.2328421E-01;  0.0000000E+00; -7.1762083E-03;  9.8783899E+02;  1.4887318E-01; -1.0021053E+04;3;  1.0033105E+02;  0.0000000E+00;  6.5879359E+00;0;  8.0080307E-01;  1.7764463E+04;  0.0000000E+00; -1.8983481E-02;  4.0000000E+04;  0.0000000E+00;  3.9604480E+04;  1.0912975E+00;  0.0000000E+00; -2.9049441E-01;  1.5225503E+04;
  1.3004508E+00;  9.9999998E-03; -3.0173190E-02;8756;  8.2559103E-01;  0.0000000E+00;  1.0711692E-02;  9.8795013E+02;  1.4886720E-01; -9.9294512E+03;3;  1.0010947E+02;  0.0000000E+00; -9.6528177E+00;0;  7.8649545E-01;  1.7769941E+04;  0.0000000E+00; -4.3504033E-02;  4.0000000E+04;  0.0000000E+00;  3.9604660E+04;  1.0726383E+00;  0.0000000E+00; -2.8614283E-01;  1.5248897E+04;
  1.3004508E+00;  9.9999998E-03;  3.0173201E-02;8762;  8.2559103E-01;  0.0000000E+00; -1.0711137E-02;  9.8795007E+02;  1.4886695E-01; -9.9295010E+03;3;  1.0010910E+02;  0.0000000E+00;  9.6528959E+00;0;  7.8649890E-01;  1.7769947E+04;  0.0000000E+00; -4.3501802E-02;  4.0000000E+04;  0.0000000E+00;  3.9604660E+04;  1.0726414E+00;  0.0000000E+00; -2.8614250E-01;  1.5248844E+04;
  1.3004467E+00;  9.9999998E-03; -4.0225070E-02;8755;  8.2882529E-01;  0.0000000E+00;  1.4163203E-02;  9.8811267E+02;  1.4885791E-01; -9.7955156E+03;3;  9.9938393E+01;  0.0000000E+00; -1.2897181E+01;0;  7.6646554E-01;  1.7777875E+04;  0.0000000E+00; -7.8585453E-02;  4.0000000E+04;  0.0000000E+00;  3.9604793E+04;  1.0465688E+00;  0.0000000E+00; -2.8010321E-01;  1.5240150E+04;
  1.3004467E+00;  9.9999998E-03;  4.0225085E-02;8763;  8.2882524E-01;  0.0000000E+00; -1.4162640E-02;  9.8811267E+02;  1.4885785E-01; -9.7955156E+03;3;  9.9938026E+01;  0.0000000E+00;  1.2897202E+01;0;  7.6646650E-01;  1.7777875E+04;  0.0000000E+00; -7.8585088E-02;  4.0000000E+04;  0.0000000E+00;  3.9604793E+04;  1.0465692E+00;  0.0000000E+00; -2.8010276E-01;  1.5240100E+04;
  1.3004353E+00;  9.9999998E-03; -5.0273728E-02;8754;  8.3298808E-01;  0.0000000E+00;  1.7499980E-02;  9.8832031E+02;  1.4884771E-01; -9.6244541E+03;3;  9.9617767E+01;  0.0000000E+00; -1.6000000E+01;0;  7.4065650E-01;  1.7788312E+04;  0.0000000E+00; -1.2357458E-01;  4.0000000E+04;  0.0000000E+00;  3.9604523E+04;  1.0130662E+00;  0.0000000E+00; -2.7240971E-01;  1.5175379E+04;
  1.3004353E+00;  9.9999998E-03;  5.0273743E-02;8764;  8.3298808E-01;  0.0000000E+00; -1.7499428E-02;  9.8832031E+02;  1.4884731E-01; -9.6244541E+03;3;  9.9617249E+01;  0.0000000E+00;  1.6000017E+01;0;  7.4065757E-01;  1.7788312E+04;  0.0000000E+00; -1.2357190E-01;  4.0000000E+04;  0.0000000E+00;  3.9604531E+04;  1.0130672E+00;  0.0000000E+00; -2.7240968E-01;  1.5175333E+04;
  1.3004181E+00;  9.9999998E-03; -6.0318958E-02;8753;  8.3802986E-01;  0.0000000E+00;  2.0720754E-02;  9.8857166E+02;  1.4883369E-01; -9.4173438E+03;3;  9.8648132E+01;  0.0000000E+00; -1.8793293E+01;0;  7.0926422E-01;  1.7801211E+04;  0.0000000E+00; -1.7584674E-01;  4.0000000E+04;  0.0000000E+00;  3.9603523E+04;  9.7240984E-01;  0.0000000E+00; -2.6314563E-01;  1.5039722E+04;
  1.3004181E+00;  9.9999998E-03;  6.0318969E-02;8765;  8.3802986E-01;  0.0000000E+00; -2.0720202E-02;  9.8857153E+02;  1.4883444E-01; -9.4174414E+03;3;  9.8647583E+01;  0.0000000E+00;  1.8793306E+01;0;  7.0926589E-01;  1.7801209E+04;  0.0000000E+00; -1.7585024E-01;  4.0000000E+04;  0.0000000E+00;  3.9603527E+04;  9.7241133E-01;  0.0000000E+00; -2.6314545E-01;  1.5039684E+04;
  1.3003961E+00;  9.9999998E-03; -7.0361800E-02;8752;  8.4398764E-01;  0.0000000E+00;  2.3774980E-02;  9.8886523E+02;  1.4881751E-01; -9.1754131E+03;3;  9.7807648E+01;  0.0000000E+00; -2.1744305E+01;0;  6.7253399E-01;  1.7816779E+04;  0.0000000E+00; -2.2987343E-01;  4.0000000E+04;  0.0000000E+00;  3.9601953E+04;  9.2492974E-01;  0.0000000E+00; -2.5239578E-01;  1.4829975E+04;
  1.3003675E+00;  9.9999998E-03; -8.0402479E-02;8751;  8.5079557E-01;  0.0000000E+00;  2.6659826E-02;  9.8918781E+02;  1.4879864E-01; -8.9096660E+03;3;  9.6737648E+01;  0.0000000E+00; -2.4178951E+01;0;  6.3073796E-01;  1.7834359E+04;  0.0000000E+00; -2.7657712E-01;  4.0000000E+04;  0.0000000E+00;  3.9599797E+04;  8.7095815E-01;  0.0000000E+00; -2.4022020E-01;  1.4554944E+04;
  1.3003315E+00;  9.9999998E-03; -9.0439908E-02;8750;  8.5846514E-01;  0.0000000E+00;  2.9339949E-02;  9.8952472E+02;  1.4877759E-01; -8.6320352E+03;3;  9.6178284E+01;  0.0000000E+00; -2.6696348E+01;0;  5.8430803E-01;  1.7853547E+04;  0.0000000E+00; -3.0390352E-01;  4.0000000E+04;  0.0000000E+00;  3.9597320E+04;  8.1096113E-01;  0.0000000E+00; -2.2665310E-01;  1.4235806E+04;
  1.3002858E+00;  9.9999998E-03; -1.0047355E-01;8749;  8.6692441E-01;  0.0000000E+00;  3.1813286E-02;  9.8985864E+02;  1.4875504E-01; -8.3569141E+03;3;  9.5206215E+01;  0.0000000E+00; -2.8663458E+01;0;  5.3381300E-01;  1.7872992E+04;  0.0000000E+00; -2.9885265E-01;  4.0000000E+04;  0.0000000E+00;  3.9594629E+04;  7.4543893E-01;  0.0000000E+00; -2.1162595E-01;  1.3905822E+04;
  1.3151544E+00;  9.9999998E-03;  4.9795577E-09;8820;  8.2036394E-01;  0.0000000E+00;  2.8096034E-07;  9.8759991E+02;  1.4419267E-01; -1.0204624E+04;3;  9.8187820E+01;  0.0000000E+00; -8.4546657E-05;0;  1.3143144E+00;  1.8938895E+04;  0.0000000E+00; -2.3961326E-11;  4.0000000E+04;  0.0000000E+00;  3.9590633E+04;  1.6857406E+00;  0.0000000E+00; -3.7142619E-01;  1.3794616E+04;
  1.3151565E+00;  9.9999998E-03; -2.0107949E-02;8818;  8.2220066E-01;  0.0000000E+00;  9.7152339E-03;  9.8767181E+02;  1.4418837E-01; -1.0145466E+04;3;  9.7942093E+01;  0.0000000E+00; -6.6784077E+00;0;  1.2980361E+00;  1.8942570E+04;  0.0000000E+00; -9.0039838E-03;  4.0000000E+04;  0.0000000E+00;  3.9590867E+04;  1.6656605E+00;  0.0000000E+00; -3.6762440E-01;  1.3802688E+04;
  1.3151561E+00;  9.9999998E-03; -1.0055123E-02;8819;  8.2082385E-01;  0.0000000E+00;  4.8712888E-03;  9.8761908E+02;  1.4419106E-01; -1.0188827E+04;3;  9.8127777E+01;  0.0000000E+00; -3.3802586E+00;0;  1.3102851E+00;  1.8939789E+04;  0.0000000E+00; -1.9962657E-03;  4.0000000E+04;  0.0000000E+00;  3.9590824E+04;  1.6807649E+00;  0.0000000E+00; -3.7047976E-01;  1.3798395E+04;
  1.3151561E+00;  9.9999998E-03;  1.0055133E-02;8821;  8.2082385E-01;  0.0000000E+00; -4.8707221E-03;  9.8761890E+02;  1.4419121E-01; -1.0188975E+04;3;  9.8127747E+01;  0.0000000E+00;  3.3803504E+00;0;  1.3102864E+00;  1.8939789E+04;  0.0000000E+00; -1.9962969E-03;  4.0000000E+04;  0.0000000E+00;  3.9590824E+04;  1.6807659E+00;  0.0000000E+00; -3.7047949E-01;  1.3798416E+04;
  1.3151565E+00;  9.9999998E-03;  2.0107958E-02;8822;  8.2220066E-01;  0.0000000E+00; -9.7146677E-03;  9.8767181E+02;  1.4418872E-01; -1.0145466E+04;3;  9.7941994E+01;  0.0000000E+00;  6.6784058E+00;0;  1.2980366E+00;  1.8942568E+04;  0.0000000E+00; -9.0039978E-03;  4.0000000E+04;  0.0000000E+00;  3.9590867E+04;  1.6656611E+00;  0.0000000E+00; -3.6762446E-01;  1.3802660E+04;
  1.3151548E+00;  9.9999998E-03; -3.0158173E-02;8817;  8.2449073E-01;  0.0000000E+00;  1.4503542E-02;  9.8776239E+02;  1.4418449E-01; -1.0070910E+04;3;  9.7610756E+01;  0.0000000E+00; -9.8446360E+00;0;  1.2776151E+00;  1.8947322E+04;  0.0000000E+00; -2.3801202E-02;  4.0000000E+04;  0.0000000E+00;  3.9590852E+04;  1.6404899E+00;  0.0000000E+00; -3.6287481E-01;  1.3788771E+04;
  1.3151548E+00;  9.9999998E-03;  3.0158184E-02;8823;  8.2449067E-01;  0.0000000E+00; -1.4502965E-02;  9.8776263E+02;  1.4418383E-01; -1.0070714E+04;3;  9.7611160E+01;  0.0000000E+00;  9.8448095E+00;0;  1.2776166E+00;  1.8947322E+04;  0.0000000E+00; -2.3800863E-02;  4.0000000E+04;  0.0000000E+00;  3.9590859E+04;  1.6404912E+00;  0.0000000E+00; -3.6287466E-01;  1.3788791E+04;
  1.3151487E+00;  9.9999998E-03; -4.0205576E-02;8816;  8.2769656E-01;  0.0000000E+00;  1.9186821E-02;  9.8789404E+02;  1.4417745E-01; -9.9625605E+03;3;  9.7251587E+01;  0.0000000E+00; -1.3148648E+01;0;  1.2490482E+00;  1.8954154E+04;  0.0000000E+00; -5.0071836E-02;  4.0000000E+04;  0.0000000E+00;  3.9590555E+04;  1.6052982E+00;  0.0000000E+00; -3.5624990E-01;  1.3734044E+04;
  1.3151487E+00;  9.9999998E-03;  4.0205587E-02;8824;  8.2769650E-01;  0.0000000E+00; -1.9186255E-02;  9.8789410E+02;  1.4417781E-01; -9.9625117E+03;3;  9.7252098E+01;  0.0000000E+00;  1.3148670E+01;0;  1.2490504E+00;  1.8954154E+04;  0.0000000E+00; -5.0070710E-02;  4.0000000E+04;  0.0000000E+00;  3.9590559E+04;  1.6052998E+00;  0.0000000E+00; -3.5624945E-01;  1.3734031E+04;
  1.3151336E+00;  9.9999998E-03; -5.0249707E-02;8815;  8.3179957E-01;  0.0000000E+00;  2.3748169E-02;  9.8806171E+02;  1.4417006E-01; -9.8245938E+03;3;  9.6811806E+01;  0.0000000E+00; -1.6432400E+01;0;  1.2123444E+00;  1.8963064E+04;  0.0000000E+00; -9.1034867E-02;  4.0000000E+04;  0.0000000E+00;  3.9589621E+04;  1.5601152E+00;  0.0000000E+00; -3.4777087E-01;  1.3620783E+04;
  1.3151336E+00;  9.9999998E-03;  5.0249718E-02;8825;  8.3179945E-01;  0.0000000E+00; -2.3747608E-02;  9.8806183E+02;  1.4417011E-01; -9.8244951E+03;3;  9.6812172E+01;  0.0000000E+00;  1.6432440E+01;0;  1.2123471E+00;  1.8963061E+04;  0.0000000E+00; -9.1035657E-02;  4.0000000E+04;  0.0000000E+00;  3.9589621E+04;  1.5601181E+00;  0.0000000E+00; -3.4777090E-01;  1.3620713E+04;
  1.3151052E+00;  9.9999998E-03; -6.0290504E-02;8814;  8.3680606E-01;  0.0000000E+00;  2.8124047E-02;  9.8827081E+02;  1.4416200E-01; -9.6525479E+03;3;  9.6373665E+01;  0.0000000E+00; -1.9820148E+01;0;  1.1676166E+00;  1.8974029E+04;  0.0000000E+00; -1.4766191E-01;  4.0000000E+04;  0.0000000E+00;  3.9588273E+04;  1.5050942E+00;  0.0000000E+00; -3.3747754E-01;  1.3442064E+04;
  1.3151052E+00;  9.9999998E-03;  6.0290519E-02;8826;  8.3680600E-01;  0.0000000E+00; -2.8123489E-02;  9.8827124E+02;  1.4416204E-01; -9.6522041E+03;3;  9.6373985E+01;  0.0000000E+00;  1.9820143E+01;0;  1.1676173E+00;  1.8974025E+04;  0.0000000E+00; -1.4766231E-01;  4.0000000E+04;  0.0000000E+00;  3.9588266E+04;  1.5050946E+00;  0.0000000E+00; -3.3747727E-01;  1.3442018E+04;
  1.3150663E+00;  9.9999998E-03; -7.0327990E-02;8813;  8.4268039E-01;  0.0000000E+00;  3.2312658E-02;  9.8850549E+02;  1.4415096E-01; -9.4594688E+03;3;  9.5642441E+01;  0.0000000E+00; -2.2548376E+01;0;  1.1152868E+00;  1.8987158E+04;  0.0000000E+00; -2.1675155E-01;  4.0000000E+04;  0.0000000E+00;  3.9586418E+04;  1.4407382E+00;  0.0000000E+00; -3.2545134E-01;  1.3204174E+04;
  1.3150152E+00;  9.9999998E-03; -8.0364801E-02;8812;  8.4942502E-01;  0.0000000E+00;  3.6245726E-02;  9.8877350E+02;  1.4413603E-01; -9.2389277E+03;3;  9.5274345E+01;  0.0000000E+00; -2.5609030E+01;0;  1.0557060E+00;  1.9002078E+04;  0.0000000E+00; -2.8964695E-01;  4.0000000E+04;  0.0000000E+00;  3.9584168E+04;  1.3674564E+00;  0.0000000E+00; -3.1175041E-01;  1.2926496E+04;
  1.3149438E+00;  9.9999998E-03; -9.0404630E-02;8811;  8.5701305E-01;  0.0000000E+00;  3.9908037E-02;  9.8904706E+02;  1.4412276E-01; -9.0138916E+03;3;  9.4594521E+01;  0.0000000E+00; -2.8208416E+01;0;  9.8913294E-01;  1.9017822E+04;  0.0000000E+00; -3.5221308E-01;  4.0000000E+04;  0.0000000E+00;  3.9581645E+04;  1.2855226E+00;  0.0000000E+00; -2.9638964E-01;  1.2639505E+04;
  1.3148479E+00;  9.9999998E-03; -1.0044674E-01;8810;  8.6540496E-01;  0.0000000E+00;  4.3261703E-02;  9.8932928E+02;  1.4411090E-01; -8.7817109E+03;3;  9.3751862E+01;  0.0000000E+00; -3.0678751E+01;0;  9.1616994E-01;  1.9033340E+04;  0.0000000E+00; -3.8666511E-01;  4.0000000E+04;  0.0000000E+00;  3.9579676E+04;  1.1955187E+00;  0.0000000E+00; -2.7934879E-01;  1.2382722E+04;
  1.3293601E+00;  9.9999998E-03; -1.0051267E-02;8880;  8.2366973E-01;  0.0000000E+00;  5.9973630E-03;  9.8806641E+02;  1.3997009E-01; -9.8052764E+03;3;  5.4322308E+01;  0.0000000E+00; -2.8235383E+00;0;  1.8590679E+00;  2.0129475E+04;  0.0000000E+00;  2.4652826E-03;  4.0000000E+04;  0.0000000E+00;  3.9573004E+04;  2.2871723E+00;  0.0000000E+00; -4.2810434E-01;  1.2152931E+04;
  1.3293595E+00;  9.9999998E-03;  5.4042157E-09;8881;  8.2323229E-01;  0.0000000E+00;  3.0277769E-07;  9.8805615E+02;  1.3997114E-01; -9.8137500E+03;3;  5.4104031E+01;  0.0000000E+00;  9.6938486E-05;0;  1.8642182E+00;  2.0128887E+04;  0.0000000E+00; -2.7192944E-11;  4.0000000E+04;  0.0000000E+00;  3.9572980E+04;  2.2932868E+00;  0.0000000E+00; -4.2906854E-01;  1.2157228E+04;
  1.3293601E+00;  9.9999998E-03;  1.0051278E-02;8882;  8.2366973E-01;  0.0000000E+00; -5.9967684E-03;  9.8806641E+02;  1.3997060E-01; -9.8052764E+03;3;  5.4322712E+01;  0.0000000E+00;  2.8235061E+00;0;  1.8590661E+00;  2.0129473E+04;  0.0000000E+00;  2.4644127E-03;  4.0000000E+04;  0.0000000E+00;  3.9573008E+04;  2.2871706E+00;  0.0000000E+00; -4.2810452E-01;  1.2152923E+04;
  1.3293602E+00;  9.9999998E-03; -2.0100499E-02;8879;  8.2497448E-01;  0.0000000E+00;  1.1960582E-02;  9.8810406E+02;  1.3996878E-01; -9.7743740E+03;3;  5.5047573E+01;  0.0000000E+00; -5.6658640E+00;0;  1.8435860E+00;  2.0131463E+04;  0.0000000E+00;  8.0634318E-03;  4.0000000E+04;  0.0000000E+00;  3.9572863E+04;  2.2687981E+00;  0.0000000E+00; -4.2521214E-01;  1.2134823E+04;
  1.3293602E+00;  9.9999998E-03;  2.0100510E-02;8883;  8.2497448E-01;  0.0000000E+00; -1.1959989E-02;  9.8810406E+02;  1.3996914E-01; -9.7743740E+03;3;  5.5047516E+01;  0.0000000E+00;  5.6657748E+00;0;  1.8435874E+00;  2.0131463E+04;  0.0000000E+00;  8.0627184E-03;  4.0000000E+04;  0.0000000E+00;  3.9572867E+04;  2.2687995E+00;  0.0000000E+00; -4.2521214E-01;  1.2134775E+04;
  1.3293567E+00;  9.9999998E-03; -3.0147539E-02;8878;  8.2712084E-01;  0.0000000E+00;  1.7866489E-02;  9.8816022E+02;  1.3996634E-01; -9.7282441E+03;3;  5.6435204E+01;  0.0000000E+00; -8.4276800E+00;0;  1.8177633E+00;  2.0134816E+04;  0.0000000E+00;  1.1746204E-02;  4.0000000E+04;  0.0000000E+00;  3.9572559E+04;  2.2381504E+00;  0.0000000E+00; -4.2038706E-01;  1.2089833E+04;
  1.3293567E+00;  9.9999998E-03;  3.0147551E-02;8884;  8.2712096E-01;  0.0000000E+00; -1.7865891E-02;  9.8816034E+02;  1.3996625E-01; -9.7281465E+03;3;  5.6434563E+01;  0.0000000E+00;  8.4277792E+00;0;  1.8177617E+00;  2.0134818E+04;  0.0000000E+00;  1.1745135E-02;  4.0000000E+04;  0.0000000E+00;  3.9572559E+04;  2.2381485E+00;  0.0000000E+00; -4.2038679E-01;  1.2089779E+04;
  1.3293470E+00;  9.9999998E-03; -4.0192623E-02;8877;  8.3008039E-01;  0.0000000E+00;  2.3667093E-02;  9.8824445E+02;  1.3996358E-01; -9.6590049E+03;3;  5.8863873E+01;  0.0000000E+00; -1.1287449E+01;0;  1.7816695E+00;  2.0139678E+04;  0.0000000E+00;  6.2383031E-03;  4.0000000E+04;  0.0000000E+00;  3.9571711E+04;  2.1953025E+00;  0.0000000E+00; -4.1363302E-01;  1.2002887E+04;
  1.3293471E+00;  9.9999998E-03;  4.0192634E-02;8885;  8.3008045E-01;  0.0000000E+00; -2.3666497E-02;  9.8824445E+02;  1.3996358E-01; -9.6590049E+03;3;  5.8863152E+01;  0.0000000E+00;  1.1287511E+01;0;  1.7816716E+00;  2.0139682E+04;  0.0000000E+00;  6.2360242E-03;  4.0000000E+04;  0.0000000E+00;  3.9571715E+04;  2.1953046E+00;  0.0000000E+00; -4.1363299E-01;  1.2002876E+04;
  1.3293253E+00;  9.9999998E-03; -5.0235797E-02;8876;  8.3382976E-01;  0.0000000E+00;  2.9324545E-02;  9.8835199E+02;  1.3995852E-01; -9.5706807E+03;3;  6.2830593E+01;  0.0000000E+00; -1.4168644E+01;0;  1.7353270E+00;  2.0145992E+04;  0.0000000E+00; -1.6225740E-02;  4.0000000E+04;  0.0000000E+00;  3.9570598E+04;  2.1402795E+00;  0.0000000E+00; -4.0495256E-01;  1.1864603E+04;
  1.3293253E+00;  9.9999998E-03;  5.0235804E-02;8886;  8.3382976E-01;  0.0000000E+00; -2.9323956E-02;  9.8835199E+02;  1.3995866E-01; -9.5706807E+03;3;  6.2830231E+01;  0.0000000E+00;  1.4168465E+01;0;  1.7353284E+00;  2.0145990E+04;  0.0000000E+00; -1.6226741E-02;  4.0000000E+04;  0.0000000E+00;  3.9570598E+04;  2.1402812E+00;  0.0000000E+00; -4.0495279E-01;  1.1864583E+04;
  1.3292865E+00;  9.9999998E-03; -6.0276877E-02;8875;  8.3834696E-01;  0.0000000E+00;  3.4797646E-02;  9.8848456E+02;  1.3995323E-01; -9.4618066E+03;3;  6.7977737E+01;  0.0000000E+00; -1.7121969E+01;0;  1.6788542E+00;  2.0153828E+04;  0.0000000E+00; -6.1496813E-02;  4.0000000E+04;  0.0000000E+00;  3.9569129E+04;  2.0732126E+00;  0.0000000E+00; -3.9435834E-01;  1.1676005E+04;
  1.3292865E+00;  9.9999998E-03;  6.0276888E-02;8887;  8.3834696E-01;  0.0000000E+00; -3.4797080E-02;  9.8848474E+02;  1.3995318E-01; -9.4616592E+03;3;  6.7977287E+01;  0.0000000E+00;  1.7122042E+01;0;  1.6788568E+00;  2.0153822E+04;  0.0000000E+00; -6.1497509E-02;  4.0000000E+04;  0.0000000E+00;  3.9569121E+04;  2.0732152E+00;  0.0000000E+00; -3.9435843E-01;  1.1675958E+04;
  1.3292277E+00;  9.9999998E-03; -7.0315480E-02;8874;  8.4364623E-01;  0.0000000E+00;  4.0054362E-02;  9.8865228E+02;  1.3994820E-01; -9.3240586E+03;3;  7.3595642E+01;  0.0000000E+00; -2.0278105E+01;0;  1.6125269E+00;  2.0163186E+04;  0.0000000E+00; -1.3080868E-01;  4.0000000E+04;  0.0000000E+00;  3.9567250E+04;  1.9944108E+00;  0.0000000E+00; -3.8188380E-01;  1.1450806E+04;
  1.3291496E+00;  9.9999998E-03; -8.0352426E-02;8873;  8.4979039E-01;  0.0000000E+00;  4.5036383E-02;  9.8883337E+02;  1.3994089E-01; -9.1753584E+03;3;  7.9324181E+01;  0.0000000E+00; -2.3401123E+01;0;  1.5368196E+00;  2.0173666E+04;  0.0000000E+00; -2.1855392E-01;  4.0000000E+04;  0.0000000E+00;  3.9565277E+04;  1.9043968E+00;  0.0000000E+00; -3.6757720E-01;  1.1214620E+04;
  1.3290466E+00;  9.9999998E-03; -9.0390705E-02;8872;  8.5681033E-01;  0.0000000E+00;  4.9668141E-02;  9.8903064E+02;  1.3993393E-01; -9.0133613E+03;3;  8.4091484E+01;  0.0000000E+00; -2.6933594E+01;0;  1.4520440E+00;  2.0184639E+04;  0.0000000E+00; -3.1151471E-01;  4.0000000E+04;  0.0000000E+00;  3.9563461E+04;  1.8035018E+00;  0.0000000E+00; -3.5145777E-01;  1.1003021E+04;
  1.3289112E+00;  9.9999998E-03; -1.0043666E-01;8871;  8.6472762E-01;  0.0000000E+00;  5.3897694E-02;  9.8922400E+02;  1.3992804E-01; -8.8546289E+03;3;  8.7291634E+01;  0.0000000E+00; -3.0337954E+01;0;  1.3585758E+00;  2.0195031E+04;  0.0000000E+00; -3.8993716E-01;  4.0000000E+04;  0.0000000E+00;  3.9562328E+04;  1.6920699E+00;  0.0000000E+00; -3.3349413E-01;  1.0856930E+04;
  1.3425814E+00;  9.9999998E-03; -1.0045231E-01;8931;  8.8057941E-01;  0.0000000E+00;  6.0862221E-02;  9.8950189E+02;  1.3617323E-01; -8.6104238E+03;3; -3.2349518E+01;  0.0000000E+00; -1.5803932E+01;0;  1.8141315E+00;  2.1347574E+04;  0.0000000E+00; -3.3001548E-01;  4.0000000E+04;  0.0000000E+00;  3.9543316E+04;  2.1876445E+00;  0.0000000E+00; -3.7351292E-01;  9.4588564E+03;
  1.3427337E+00;  9.9999998E-03; -9.0404108E-02;8932;  8.7986416E-01;  0.0000000E+00;  5.5509105E-02;  9.8939429E+02;  1.3617539E-01; -8.6984668E+03;3; -4.5962540E+01;  0.0000000E+00; -1.3639385E+01;0;  1.9209849E+00;  2.1342395E+04;  0.0000000E+00; -2.1430470E-01;  4.0000000E+04;  0.0000000E+00;  3.9543281E+04;  2.3122261E+00;  0.0000000E+00; -3.9124122E-01;  9.4694971E+03;
  1.3428556E+00;  9.9999998E-03; -8.0359548E-02;8933;  8.7928563E-01;  0.0000000E+00;  4.9926337E-02;  9.8929767E+02;  1.3617842E-01; -8.7775518E+03;3; -5.5147121E+01;  0.0000000E+00; -1.1898205E+01;0;  2.0174963E+00;  2.1336764E+04;  0.0000000E+00; -1.0163343E-01;  4.0000000E+04;  0.0000000E+00;  3.9544258E+04;  2.4245310E+00;  0.0000000E+00; -4.0703461E-01;  9.5652451E+03;
  1.3429493E+00;  9.9999998E-03; -7.0315294E-02;8934;  8.7851727E-01;  0.0000000E+00;  4.4144668E-02;  9.8920477E+02;  1.3618198E-01; -8.8536396E+03;3; -6.1247589E+01;  0.0000000E+00; -9.7492886E+00;0;  2.1033432E+00;  2.1331295E+04;  0.0000000E+00; -1.1017523E-02;  4.0000000E+04;  0.0000000E+00;  3.9545367E+04;  2.5242746E+00;  0.0000000E+00; -4.2093134E-01;  9.7075381E+03;
  1.3430842E+00;  9.9999998E-03;  6.0545933E-09;8941;  8.7024355E-01;  0.0000000E+00;  3.2855723E-07;  9.8899170E+02;  1.3619821E-01; -9.0282197E+03;3; -7.6017738E+01;  0.0000000E+00; -5.6809331E-06;0;  2.3868814E+00;  2.1313121E+04;  0.0000000E+00; -2.2621354E-11;  4.0000000E+04;  0.0000000E+00;  3.9550695E+04;  2.8526940E+00;  0.0000000E+00; -4.6581271E-01;  1.0289597E+04;
  1.3430594E+00;  9.9999998E-03; -5.0229743E-02;8936;  8.7596494E-01;  0.0000000E+00;  3.2033142E-02;  9.8908618E+02;  1.3618906E-01; -8.9507236E+03;3; -6.9493073E+01;  0.0000000E+00; -6.8057714E+00;0;  2.2418380E+00;  2.1322209E+04;  0.0000000E+00;  7.2327442E-02;  4.0000000E+04;  0.0000000E+00;  3.9548141E+04;  2.6848848E+00;  0.0000000E+00; -4.4304681E-01;  1.0005517E+04;
  1.3430594E+00;  9.9999998E-03;  5.0229754E-02;8946;  8.7596536E-01;  0.0000000E+00; -3.2032494E-02;  9.8908618E+02;  1.3618933E-01; -8.9507236E+03;3; -6.9493484E+01;  0.0000000E+00;  6.8057337E+00;0;  2.2418387E+00;  2.1322213E+04;  0.0000000E+00;  7.2323069E-02;  4.0000000E+04;  0.0000000E+00;  3.9548141E+04;  2.6848850E+00;  0.0000000E+00; -4.4304636E-01;  1.0005492E+04;
  1.3430165E+00;  9.9999998E-03; -6.0271733E-02;8935;  8.7739515E-01;  0.0000000E+00;  3.8161378E-02;  9.8913806E+02;  1.3618632E-01; -8.9082520E+03;3; -6.6052505E+01;  0.0000000E+00; -8.3163986E+00;0;  2.1782165E+00;  2.1326414E+04;  0.0000000E+00;  4.7369786E-02;  4.0000000E+04;  0.0000000E+00;  3.9546652E+04;  2.6111507E+00;  0.0000000E+00; -4.3293437E-01;  9.8625547E+03;
  1.3430165E+00;  9.9999998E-03;  6.0271744E-02;8947;  8.7739545E-01;  0.0000000E+00; -3.8160734E-02;  9.8913818E+02;  1.3618581E-01; -8.9081543E+03;3; -6.6052887E+01;  0.0000000E+00;  8.3165245E+00;0;  2.1782205E+00;  2.1326400E+04;  0.0000000E+00;  4.7365531E-02;  4.0000000E+04;  0.0000000E+00;  3.9546660E+04;  2.6111543E+00;  0.0000000E+00; -4.3293372E-01;  9.8625713E+03;
  1.3430877E+00;  9.9999998E-03; -2.0097809E-02;8939;  8.7143946E-01;  0.0000000E+00;  1.3002406E-02;  9.8900238E+02;  1.3619688E-01; -9.0194150E+03;3; -7.5072128E+01;  0.0000000E+00; -2.5070546E+00;0;  2.3636200E+00;  2.1314473E+04;  0.0000000E+00;  2.6375825E-02;  4.0000000E+04;  0.0000000E+00;  3.9550312E+04;  2.8258114E+00;  0.0000000E+00; -4.6219131E-01;  1.0255535E+04;
  1.3430851E+00;  9.9999998E-03; -1.0049492E-02;8940;  8.7055117E-01;  0.0000000E+00;  6.5145358E-03;  9.8899432E+02;  1.3619748E-01; -9.0260664E+03;3; -7.5768898E+01;  0.0000000E+00; -1.2354767E+00;0;  2.3810527E+00;  2.1313377E+04;  0.0000000E+00;  7.1940827E-03;  4.0000000E+04;  0.0000000E+00;  3.9550621E+04;  2.8459604E+00;  0.0000000E+00; -4.6490759E-01;  1.0281799E+04;
  1.3430851E+00;  9.9999998E-03;  1.0049505E-02;8942;  8.7055111E-01;  0.0000000E+00; -6.5138633E-03;  9.8899432E+02;  1.3619748E-01; -9.0260664E+03;3; -7.5768822E+01;  0.0000000E+00;  1.2353960E+00;0;  2.3810556E+00;  2.1313387E+04;  0.0000000E+00;  7.1930834E-03;  4.0000000E+04;  0.0000000E+00;  3.9550621E+04;  2.8459635E+00;  0.0000000E+00; -4.6490780E-01;  1.0281781E+04;
  1.3430877E+00;  9.9999998E-03;  2.0097820E-02;8943;  8.7143970E-01;  0.0000000E+00; -1.3001730E-02;  9.8900232E+02;  1.3619684E-01; -9.0194639E+03;3; -7.5072098E+01;  0.0000000E+00;  2.5070801E+00;0;  2.3636220E+00;  2.1314473E+04;  0.0000000E+00;  2.6374046E-02;  4.0000000E+04;  0.0000000E+00;  3.9550316E+04;  2.8258135E+00;  0.0000000E+00; -4.6219158E-01;  1.0255520E+04;
  1.3430873E+00;  9.9999998E-03; -3.0143922E-02;8938;  8.7276226E-01;  0.0000000E+00;  1.9438572E-02;  9.8902045E+02;  1.3619475E-01; -9.0046045E+03;3; -7.3844872E+01;  0.0000000E+00; -3.8237064E+00;0;  2.3345582E+00;  2.1316146E+04;  0.0000000E+00;  5.0698195E-02;  4.0000000E+04;  0.0000000E+00;  3.9549867E+04;  2.7922106E+00;  0.0000000E+00; -4.5765236E-01;  1.0204408E+04;
  1.3430873E+00;  9.9999998E-03;  3.0143933E-02;8944;  8.7276280E-01;  0.0000000E+00; -1.9437913E-02;  9.8902020E+02;  1.3619460E-01; -9.0047998E+03;3; -7.3845055E+01;  0.0000000E+00;  3.8235631E+00;0;  2.3345578E+00;  2.1316150E+04;  0.0000000E+00;  5.0695468E-02;  4.0000000E+04;  0.0000000E+00;  3.9549867E+04;  2.7922101E+00;  0.0000000E+00; -4.5765230E-01;  1.0204353E+04;
  1.3430803E+00;  9.9999998E-03; -4.0187832E-02;8937;  8.7434560E-01;  0.0000000E+00;  2.5792621E-02;  9.8904456E+02;  1.3619162E-01; -8.9848652E+03;3; -7.2018501E+01;  0.0000000E+00; -5.2396603E+00;0;  2.2939537E+00;  2.1318816E+04;  0.0000000E+00;  6.9927149E-02;  4.0000000E+04;  0.0000000E+00;  3.9549078E+04;  2.7452314E+00;  0.0000000E+00; -4.5127764E-01;  1.0121537E+04;
  1.3430803E+00;  9.9999998E-03;  4.0187843E-02;8945;  8.7434620E-01;  0.0000000E+00; -2.5791975E-02;  9.8904449E+02;  1.3619135E-01; -8.9849141E+03;3; -7.2018906E+01;  0.0000000E+00;  5.2395597E+00;0;  2.2939556E+00;  2.1318828E+04;  0.0000000E+00;  6.9925092E-02;  4.0000000E+04;  0.0000000E+00;  3.9549078E+04;  2.7452333E+00;  0.0000000E+00; -4.5127767E-01;  1.0121491E+04;
  1.3558843E+00;  9.9999998E-03; -1.0050546E-01;8990;  9.3529528E-01;  0.0000000E+00;  6.1736457E-02;  9.9007587E+02;  1.3282092E-01; -8.1219121E+03;3; -7.6314323E+01;  0.0000000E+00; -6.5511737E+00;0;  2.2306569E+00;  2.2477408E+04;  0.0000000E+00; -2.3793833E-01;  4.0000000E+04;  0.0000000E+00;  3.9523133E+04;  2.6294768E+00;  0.0000000E+00; -3.9881986E-01;  8.2655371E+03;
  1.3560439E+00;  9.9999998E-03; -9.0440668E-02;8991;  9.3827486E-01;  0.0000000E+00;  5.6061067E-02;  9.9006146E+02;  1.3282105E-01; -8.1334829E+03;3; -8.1596680E+01;  0.0000000E+00; -5.3975096E+00;0;  2.3426044E+00;  2.2477555E+04;  0.0000000E+00; -1.0049631E-01;  4.0000000E+04;  0.0000000E+00;  3.9521926E+04;  2.7579551E+00;  0.0000000E+00; -4.1535074E-01;  8.1309277E+03;
  1.3561757E+00;  9.9999998E-03; -8.0379874E-02;8992;  9.4069791E-01;  0.0000000E+00;  5.0209977E-02;  9.9005646E+02;  1.3282157E-01; -8.1373862E+03;3; -8.5923309E+01;  0.0000000E+00; -4.3629923E+00;0;  2.4430408E+00;  2.2477527E+04;  0.0000000E+00;  1.7487546E-02;  4.0000000E+04;  0.0000000E+00;  3.9521453E+04;  2.8729291E+00;  0.0000000E+00; -4.2988837E-01;  8.0804868E+03;
  1.3562731E+00;  9.9999998E-03; -7.0327766E-02;8993;  9.4236106E-01;  0.0000000E+00;  4.4217348E-02;  9.9006891E+02;  1.3282436E-01; -8.1270488E+03;3; -8.9572762E+01;  0.0000000E+00; -3.4900250E+00;0;  2.5317068E+00;  2.2477146E+04;  0.0000000E+00;  1.0018343E-01;  4.0000000E+04;  0.0000000E+00;  3.9521523E+04;  2.9742136E+00;  0.0000000E+00; -4.4250691E-01;  8.0843442E+03;
  1.3563375E+00;  9.9999998E-03; -6.0281217E-02;8994;  9.4324726E-01;  0.0000000E+00;  3.8112931E-02;  9.9008984E+02;  1.3282755E-01; -8.1098330E+03;3; -9.2570518E+01;  0.0000000E+00; -2.7748618E+00;0;  2.6086063E+00;  2.2476736E+04;  0.0000000E+00;  1.4182054E-01;  4.0000000E+04;  0.0000000E+00;  3.9521863E+04;  3.0618863E+00;  0.0000000E+00; -4.5328000E-01;  8.1155630E+03;
  1.3563375E+00;  9.9999998E-03;  6.0281232E-02;9006;  9.4324797E-01;  0.0000000E+00; -3.8112227E-02;  9.9008984E+02;  1.3282780E-01; -8.1098330E+03;3; -9.2570610E+01;  0.0000000E+00;  2.7748623E+00;0;  2.6086073E+00;  2.2476742E+04;  0.0000000E+00;  1.4182220E-01;  4.0000000E+04;  0.0000000E+00;  3.9521844E+04;  3.0618875E+00;  0.0000000E+00; -4.5328015E-01;  8.1155273E+03;
  1.3563777E+00;  9.9999998E-03; -5.0236769E-02;8995;  9.4352132E-01;  0.0000000E+00;  3.1920731E-02;  9.9011798E+02;  1.3282929E-01; -8.0867515E+03;3; -9.5008499E+01;  0.0000000E+00; -2.1975706E+00;0;  2.6738539E+00;  2.2476461E+04;  0.0000000E+00;  1.4541276E-01;  4.0000000E+04;  0.0000000E+00;  3.9522441E+04;  3.1361315E+00;  0.0000000E+00; -4.6227762E-01;  8.1553145E+03;
  1.3563777E+00;  9.9999998E-03;  5.0236780E-02;9005;  9.4352204E-01;  0.0000000E+00; -3.1920027E-02;  9.9011804E+02;  1.3282928E-01; -8.0867026E+03;3; -9.5008698E+01;  0.0000000E+00;  2.1975646E+00;0;  2.6738563E+00;  2.2476467E+04;  0.0000000E+00;  1.4541264E-01;  4.0000000E+04;  0.0000000E+00;  3.9522438E+04;  3.1361344E+00;  0.0000000E+00; -4.6227819E-01;  8.1553218E+03;
  1.3563980E+00;  9.9999998E-03; -1.0050560E-02;8999;  9.4161898E-01;  0.0000000E+00;  6.4724218E-03;  9.9024030E+02;  1.3283820E-01; -7.9866328E+03;3; -1.0001339E+02;  0.0000000E+00; -3.0750543E-01;0;  2.8169458E+00;  2.2477018E+04;  0.0000000E+00;  1.0775039E-02;  4.0000000E+04;  0.0000000E+00;  3.9523824E+04;  3.2984710E+00;  0.0000000E+00; -4.8152527E-01;  8.2550654E+03;
  1.3563964E+00;  9.9999998E-03;  6.2834657E-09;9000;  9.4146514E-01;  0.0000000E+00;  3.3802854E-07;  9.9024762E+02;  1.3283932E-01; -7.9806357E+03;3; -1.0020628E+02;  0.0000000E+00; -5.6756453E-05;0;  2.8229413E+00;  2.2477020E+04;  0.0000000E+00; -2.0576854E-11;  4.0000000E+04;  0.0000000E+00;  3.9523742E+04;  3.3052583E+00;  0.0000000E+00; -4.8231703E-01;  8.2585117E+03;
  1.3563980E+00;  9.9999998E-03;  1.0050572E-02;9001;  9.4161886E-01;  0.0000000E+00; -6.4717396E-03;  9.9024023E+02;  1.3283849E-01; -7.9866816E+03;3; -1.0001357E+02;  0.0000000E+00;  3.0753031E-01;0;  2.8169463E+00;  2.2477012E+04;  0.0000000E+00;  1.0773595E-02;  4.0000000E+04;  0.0000000E+00;  3.9523828E+04;  3.2984719E+00;  0.0000000E+00; -4.8152566E-01;  8.2550801E+03;
  1.3564012E+00;  9.9999998E-03; -2.0100003E-02;8998;  9.4205892E-01;  0.0000000E+00;  1.2915961E-02;  9.9022229E+02;  1.3283728E-01; -8.0013589E+03;3; -9.9400879E+01;  0.0000000E+00; -7.2148967E-01;0;  2.7989831E+00;  2.2476795E+04;  0.0000000E+00;  4.0369585E-02;  4.0000000E+04;  0.0000000E+00;  3.9523547E+04;  3.2781293E+00;  0.0000000E+00; -4.7914627E-01;  8.2438398E+03;
  1.3564012E+00;  9.9999998E-03;  2.0100014E-02;9002;  9.4205910E-01;  0.0000000E+00; -1.2915273E-02;  9.9022205E+02;  1.3283761E-01; -8.0015542E+03;3; -9.9401024E+01;  0.0000000E+00;  7.2148556E-01;0;  2.7989817E+00;  2.2476803E+04;  0.0000000E+00;  4.0367451E-02;  4.0000000E+04;  0.0000000E+00;  3.9523551E+04;  3.2781279E+00;  0.0000000E+00; -4.7914633E-01;  8.2438350E+03;
  1.3564024E+00;  9.9999998E-03; -3.0147284E-02;8997;  9.4267523E-01;  0.0000000E+00;  1.9316599E-02;  9.9019073E+02;  1.3283591E-01; -8.0271592E+03;3; -9.8391876E+01;  0.0000000E+00; -1.1791141E+00;0;  2.7690907E+00;  2.2476562E+04;  0.0000000E+00;  8.0947191E-02;  4.0000000E+04;  0.0000000E+00;  3.9523352E+04;  3.2442558E+00;  0.0000000E+00; -4.7516504E-01;  8.2234570E+03;
  1.3564024E+00;  9.9999998E-03;  3.0147295E-02;9003;  9.4267577E-01;  0.0000000E+00; -1.9315910E-02;  9.9019092E+02;  1.3283612E-01; -8.0270127E+03;3; -9.8391869E+01;  0.0000000E+00;  1.1791694E+00;0;  2.7690892E+00;  2.2476570E+04;  0.0000000E+00;  8.0944166E-02;  4.0000000E+04;  0.0000000E+00;  3.9523352E+04;  3.2442544E+00;  0.0000000E+00; -4.7516504E-01;  8.2234277E+03;
  1.3563973E+00;  9.9999998E-03; -4.0192612E-02;8996;  9.4326347E-01;  0.0000000E+00;  2.5655674E-02;  9.9015430E+02;  1.3283285E-01; -8.0569697E+03;3; -9.6940804E+01;  0.0000000E+00; -1.6859468E+00;0;  2.7273710E+00;  2.2476477E+04;  0.0000000E+00;  1.2063839E-01;  4.0000000E+04;  0.0000000E+00;  3.9522984E+04;  3.1969266E+00;  0.0000000E+00; -4.6955559E-01;  8.1931309E+03;
  1.3563973E+00;  9.9999998E-03;  4.0192623E-02;9004;  9.4326377E-01;  0.0000000E+00; -2.5654992E-02;  9.9015430E+02;  1.3283285E-01; -8.0569697E+03;3; -9.6940704E+01;  0.0000000E+00;  1.6859362E+00;0;  2.7273676E+00;  2.2476475E+04;  0.0000000E+00;  1.2063525E-01;  4.0000000E+04;  0.0000000E+00;  3.9522984E+04;  3.1969233E+00;  0.0000000E+00; -4.6955565E-01;  8.1931162E+03;
  1.3688514E+00;  9.9999998E-03; -1.0057393E-01;9049;  9.9514580E-01;  0.0000000E+00;  5.9522707E-02;  9.9087152E+02;  1.2984182E-01; -7.4515708E+03;3; -9.0108879E+01;  0.0000000E+00; -8.9119524E-01;0;  2.5703790E+00;  2.3571695E+04;  0.0000000E+00; -1.4337794E-01;  4.0000000E+04;  0.0000000E+00;  3.9502086E+04;  2.9799979E+00;  0.0000000E+00; -4.0961894E-01;  7.2840640E+03;
  1.3690170E+00;  9.9999998E-03; -9.0490825E-02;9050;  1.0003105E+00;  0.0000000E+00;  5.3888973E-02;  9.9092773E+02;  1.2983993E-01; -7.4054224E+03;3; -9.4036453E+01;  0.0000000E+00; -4.3117550E-01;0;  2.6789598E+00;  2.3577203E+04;  0.0000000E+00; -3.8726290E-03;  4.0000000E+04;  0.0000000E+00;  3.9499543E+04;  3.1031680E+00;  0.0000000E+00; -4.2420816E-01;  7.0178828E+03;
  1.3691454E+00;  9.9999998E-03; -8.0421954E-02;9051;  1.0046427E+00;  0.0000000E+00;  4.8142705E-02;  9.9100616E+02;  1.2983951E-01; -7.3412378E+03;3; -9.7473213E+01;  0.0000000E+00; -9.0025708E-02;0;  2.7751768E+00;  2.3582037E+04;  0.0000000E+00;  1.0468927E-01;  4.0000000E+04;  0.0000000E+00;  3.9497613E+04;  3.2119586E+00;  0.0000000E+00; -4.3678182E-01;  6.8169326E+03;
  1.3692385E+00;  9.9999998E-03; -7.0362397E-02;9052;  1.0081247E+00;  0.0000000E+00;  4.2312853E-02;  9.9110712E+02;  1.2984285E-01; -7.2586733E+03;3; -1.0044239E+02;  0.0000000E+00;  1.5090774E-01;0;  2.8595676E+00;  2.3586531E+04;  0.0000000E+00;  1.7164038E-01;  4.0000000E+04;  0.0000000E+00;  3.9496234E+04;  3.3070788E+00;  0.0000000E+00; -4.4751117E-01;  6.6612061E+03;
  1.3693027E+00;  9.9999998E-03; -6.0307875E-02;9053;  1.0107918E+00;  0.0000000E+00;  3.6405236E-02;  9.9121069E+02;  1.2984459E-01; -7.1740171E+03;3; -1.0298327E+02;  0.0000000E+00;  3.3699474E-01;0;  2.9325767E+00;  2.3590793E+04;  0.0000000E+00;  1.9571011E-01;  4.0000000E+04;  0.0000000E+00;  3.9495281E+04;  3.3891180E+00;  0.0000000E+00; -4.5654127E-01;  6.5337954E+03;
  1.3693029E+00;  9.9999998E-03;  6.0307890E-02;9065;  1.0107921E+00;  0.0000000E+00; -3.6404513E-02;  9.9121069E+02;  1.2984464E-01; -7.1740171E+03;3; -1.0298333E+02;  0.0000000E+00; -3.3691522E-01;0;  2.9325831E+00;  2.3590791E+04;  0.0000000E+00;  1.9570941E-01;  4.0000000E+04;  0.0000000E+00;  3.9495281E+04;  3.3891242E+00;  0.0000000E+00; -4.5654097E-01;  6.5337959E+03;
  1.3693507E+00;  9.9999998E-03; -1.0054356E-02;9058;  1.0145743E+00;  0.0000000E+00;  6.1450121E-03;  9.9162488E+02;  1.2985760E-01; -6.8358721E+03;3; -1.0942828E+02;  0.0000000E+00;  1.0962711E-01;0;  3.1298180E+00;  2.3604557E+04;  0.0000000E+00;  1.2227957E-02;  4.0000000E+04;  0.0000000E+00;  3.9493168E+04;  3.6095188E+00;  0.0000000E+00; -4.7970083E-01;  6.1936577E+03;
  1.3693486E+00;  9.9999998E-03;  6.5559500E-09;9059;  1.0145829E+00;  0.0000000E+00;  3.5728428E-07;  9.9164325E+02;  1.2985845E-01; -6.8208911E+03;3; -1.0960454E+02;  0.0000000E+00;  1.4529349E-05;0;  3.1355002E+00;  2.3605000E+04;  0.0000000E+00; -1.5358980E-11;  4.0000000E+04;  0.0000000E+00;  3.9492941E+04;  3.6158409E+00;  0.0000000E+00; -4.8034063E-01;  6.1841577E+03;
  1.3693508E+00;  9.9999998E-03;  1.0054369E-02;9060;  1.0145744E+00;  0.0000000E+00; -6.1442987E-03;  9.9162494E+02;  1.2985761E-01; -6.8358237E+03;3; -1.0942818E+02;  0.0000000E+00; -1.0956926E-01;0;  3.1298151E+00;  2.3604553E+04;  0.0000000E+00;  1.2226246E-02;  4.0000000E+04;  0.0000000E+00;  3.9493172E+04;  3.6095159E+00;  0.0000000E+00; -4.7970077E-01;  6.1936748E+03;
  1.3693557E+00;  9.9999998E-03; -2.0107487E-02;9057;  1.0145186E+00;  0.0000000E+00;  1.2273830E-02;  9.9157977E+02;  1.2985614E-01; -6.8726924E+03;3; -1.0889253E+02;  0.0000000E+00;  2.1869728E-01;0;  3.1127975E+00;  2.3603076E+04;  0.0000000E+00;  4.6220958E-02;  4.0000000E+04;  0.0000000E+00;  3.9493375E+04;  3.5905716E+00;  0.0000000E+00; -4.7777408E-01;  6.2223457E+03;
  1.3693557E+00;  9.9999998E-03;  2.0107500E-02;9061;  1.0145189E+00;  0.0000000E+00; -1.2273119E-02;  9.9157977E+02;  1.2985614E-01; -6.8726924E+03;3; -1.0889247E+02;  0.0000000E+00; -2.1864992E-01;0;  3.1127980E+00;  2.3603086E+04;  0.0000000E+00;  4.6218216E-02;  4.0000000E+04;  0.0000000E+00;  3.9493375E+04;  3.5905721E+00;  0.0000000E+00; -4.7777423E-01;  6.2223281E+03;
  1.3693602E+00;  9.9999998E-03; -3.0158380E-02;9056;  1.0142791E+00;  0.0000000E+00;  1.8370874E-02;  9.9150848E+02;  1.2985404E-01; -6.9308711E+03;3; -1.0797207E+02;  0.0000000E+00;  3.3172712E-01;0;  3.0845129E+00;  2.3600973E+04;  0.0000000E+00;  9.4227858E-02;  4.0000000E+04;  0.0000000E+00;  3.9493480E+04;  3.5590544E+00;  0.0000000E+00; -4.7454143E-01;  6.2704272E+03;
  1.3693602E+00;  9.9999998E-03;  3.0158391E-02;9062;  1.0142795E+00;  0.0000000E+00; -1.8370155E-02;  9.9150848E+02;  1.2985404E-01; -6.9308711E+03;3; -1.0797215E+02;  0.0000000E+00; -3.3171171E-01;0;  3.0845115E+00;  2.3600982E+04;  0.0000000E+00;  9.4224408E-02;  4.0000000E+04;  0.0000000E+00;  3.9493480E+04;  3.5590529E+00;  0.0000000E+00; -4.7454134E-01;  6.2703926E+03;
  1.3693579E+00;  9.9999998E-03; -4.0207677E-02;9055;  1.0137246E+00;  0.0000000E+00;  2.4429889E-02;  9.9141809E+02;  1.2985009E-01; -7.0046768E+03;3; -1.0669511E+02;  0.0000000E+00;  4.3065301E-01;0;  3.0450270E+00;  2.3598143E+04;  0.0000000E+00;  1.4447302E-01;  4.0000000E+04;  0.0000000E+00;  3.9493848E+04;  3.5149930E+00;  0.0000000E+00; -4.6996602E-01;  6.3386040E+03;
  1.3693579E+00;  9.9999998E-03;  4.0207688E-02;9063;  1.0137252E+00;  0.0000000E+00; -2.4429178E-02;  9.9141809E+02;  1.2985057E-01; -7.0046768E+03;3; -1.0669507E+02;  0.0000000E+00; -4.3070927E-01;0;  3.0450311E+00;  2.3598146E+04;  0.0000000E+00;  1.4446978E-01;  4.0000000E+04;  0.0000000E+00;  3.9493852E+04;  3.5149968E+00;  0.0000000E+00; -4.6996570E-01;  6.3385996E+03;
  1.3693413E+00;  9.9999998E-03; -5.0256997E-02;9054;  1.0126362E+00;  0.0000000E+00;  3.0446161E-02;  9.9131573E+02;  1.2984724E-01; -7.0882344E+03;3; -1.0504151E+02;  0.0000000E+00;  4.3683654E-01;0;  2.9943802E+00;  2.3594756E+04;  0.0000000E+00;  1.8293349E-01;  4.0000000E+04;  0.0000000E+00;  3.9494488E+04;  3.4583724E+00;  0.0000000E+00; -4.6399221E-01;  6.4266777E+03;
  1.3693413E+00;  9.9999998E-03;  5.0257009E-02;9064;  1.0126367E+00;  0.0000000E+00; -3.0445443E-02;  9.9131561E+02;  1.2984736E-01; -7.0883315E+03;3; -1.0504158E+02;  0.0000000E+00; -4.3674639E-01;0;  2.9943852E+00;  2.3594762E+04;  0.0000000E+00;  1.8293178E-01;  4.0000000E+04;  0.0000000E+00;  3.9494492E+04;  3.4583769E+00;  0.0000000E+00; -4.6399161E-01;  6.4266362E+03;
  1.3815100E+00;  9.9999998E-03; -1.0066029E-01;9108;  1.0537245E+00;  0.0000000E+00;  5.5587597E-02;  9.9180573E+02;  1.2720613E-01; -6.6688706E+03;3; -9.6761261E+01;  0.0000000E+00;  3.3584764E+00;0;  2.8104472E+00;  2.4620148E+04;  0.0000000E+00; -6.8817012E-02;  4.0000000E+04;  0.0000000E+00;  3.9479219E+04;  3.2173679E+00;  0.0000000E+00; -4.0692055E-01;  6.4632798E+03;
  1.3816628E+00;  9.9999998E-03; -9.0568602E-02;9109;  1.0603300E+00;  0.0000000E+00;  5.0196022E-02;  9.9191016E+02;  1.2720445E-01; -6.5836201E+03;3; -9.9819214E+01;  0.0000000E+00;  3.2331672E+00;0;  2.9080999E+00;  2.4628721E+04;  0.0000000E+00;  5.4224901E-02;  4.0000000E+04;  0.0000000E+00;  3.9475570E+04;  3.3271747E+00;  0.0000000E+00; -4.1907477E-01;  6.1131006E+03;
  1.3817843E+00;  9.9999998E-03; -8.0487497E-02;9110;  1.0662297E+00;  0.0000000E+00;  4.4764310E-02;  9.9204297E+02;  1.2720390E-01; -6.4753418E+03;3; -1.0253235E+02;  0.0000000E+00;  3.1211736E+00;0;  2.9937334E+00;  2.4637525E+04;  0.0000000E+00;  1.4203091E-01;  4.0000000E+04;  0.0000000E+00;  3.9472594E+04;  3.4230022E+00;  0.0000000E+00; -4.2926878E-01;  5.7869771E+03;
  1.3818789E+00;  9.9999998E-03; -7.0415728E-02;9111;  1.0713646E+00;  0.0000000E+00;  3.9276127E-02;  9.9219965E+02;  1.2720412E-01; -6.3476641E+03;3; -1.0494064E+02;  0.0000000E+00;  2.8629508E+00;0;  3.0683069E+00;  2.4646654E+04;  0.0000000E+00;  1.8929949E-01;  4.0000000E+04;  0.0000000E+00;  3.9469852E+04;  3.5060377E+00;  0.0000000E+00; -4.3773073E-01;  5.4792617E+03;
  1.3819438E+00;  9.9999998E-03; -6.0351659E-02;9112;  1.0755956E+00;  0.0000000E+00;  3.3747695E-02;  9.9236871E+02;  1.2720650E-01; -6.2100000E+03;3; -1.0702294E+02;  0.0000000E+00;  2.5583541E+00;0;  3.1324110E+00;  2.4655166E+04;  0.0000000E+00;  1.9851117E-01;  4.0000000E+04;  0.0000000E+00;  3.9467301E+04;  3.5770905E+00;  0.0000000E+00; -4.4467938E-01;  5.1876191E+03;
  1.3819438E+00;  9.9999998E-03;  6.0351670E-02;9124;  1.0755965E+00;  0.0000000E+00; -3.3746965E-02;  9.9236859E+02;  1.2720646E-01; -6.2100972E+03;3; -1.0702290E+02;  0.0000000E+00; -2.5583100E+00;0;  3.1324151E+00;  2.4655162E+04;  0.0000000E+00;  1.9850913E-01;  4.0000000E+04;  0.0000000E+00;  3.9467301E+04;  3.5770938E+00;  0.0000000E+00; -4.4467878E-01;  5.1875981E+03;
  1.3820062E+00;  9.9999998E-03; -1.0060398E-02;9117;  1.0850862E+00;  0.0000000E+00;  5.6766747E-03;  9.9299463E+02;  1.2721914E-01; -5.7005718E+03;3; -1.1237658E+02;  0.0000000E+00;  4.7862202E-01;0;  3.3050704E+00;  2.4682641E+04;  0.0000000E+00;  1.1168927E-02;  4.0000000E+04;  0.0000000E+00;  3.9459426E+04;  3.7669089E+00;  0.0000000E+00; -4.6183845E-01;  4.2474668E+03;
  1.3820053E+00;  9.9999998E-03;  6.3449894E-09;9118;  1.0852990E+00;  0.0000000E+00;  3.6741940E-07;  9.9301599E+02;  1.2721950E-01; -5.6831602E+03;3; -1.1252837E+02;  0.0000000E+00;  2.3745553E-05;0;  3.3100610E+00;  2.4683564E+04;  0.0000000E+00; -1.3144000E-11;  4.0000000E+04;  0.0000000E+00;  3.9458996E+04;  3.7723606E+00;  0.0000000E+00; -4.6229964E-01;  4.2178130E+03;
  1.3820062E+00;  9.9999998E-03;  1.0060411E-02;9119;  1.0850863E+00;  0.0000000E+00; -5.6759440E-03;  9.9299463E+02;  1.2721914E-01; -5.7005718E+03;3; -1.1237677E+02;  0.0000000E+00; -4.7855186E-01;0;  3.3050759E+00;  2.4682635E+04;  0.0000000E+00;  1.1167684E-02;  4.0000000E+04;  0.0000000E+00;  3.9459426E+04;  3.7669141E+00;  0.0000000E+00; -4.6183830E-01;  4.2474800E+03;
  1.3820089E+00;  9.9999998E-03; -3.0177334E-02;9115;  1.0832694E+00;  0.0000000E+00;  1.6981773E-02;  9.9282239E+02;  1.2721492E-01; -5.8406919E+03;3; -1.1119437E+02;  0.0000000E+00;  1.4104062E+00;0;  3.2653782E+00;  2.4675586E+04;  0.0000000E+00;  8.7411352E-02;  4.0000000E+04;  0.0000000E+00;  3.9461262E+04;  3.7234712E+00;  0.0000000E+00; -4.5809302E-01;  4.4805889E+03;
  1.3820086E+00;  9.9999998E-03; -2.0119475E-02;9116;  1.0844297E+00;  0.0000000E+00;  1.1337949E-02;  9.9292749E+02;  1.2721790E-01; -5.7551821E+03;3; -1.1192074E+02;  0.0000000E+00;  9.4508439E-01;0;  3.2901585E+00;  2.4679854E+04;  0.0000000E+00;  4.2447641E-02;  4.0000000E+04;  0.0000000E+00;  3.9460086E+04;  3.7506032E+00;  0.0000000E+00; -4.6044475E-01;  4.3357095E+03;
  1.3820086E+00;  9.9999998E-03;  2.0119488E-02;9120;  1.0844299E+00;  0.0000000E+00; -1.1337208E-02;  9.9292761E+02;  1.2721764E-01; -5.7550850E+03;3; -1.1192082E+02;  0.0000000E+00; -9.4503981E-01;0;  3.2901607E+00;  2.4679852E+04;  0.0000000E+00;  4.2445011E-02;  4.0000000E+04;  0.0000000E+00;  3.9460086E+04;  3.7506056E+00;  0.0000000E+00; -4.6044496E-01;  4.3357148E+03;
  1.3820090E+00;  9.9999998E-03;  3.0177347E-02;9121;  1.0832695E+00;  0.0000000E+00; -1.6981049E-02;  9.9282220E+02;  1.2721482E-01; -5.8408374E+03;3; -1.1119417E+02;  0.0000000E+00; -1.4104365E+00;0;  3.2653766E+00;  2.4675584E+04;  0.0000000E+00;  8.7408982E-02;  4.0000000E+04;  0.0000000E+00;  3.9461266E+04;  3.7234695E+00;  0.0000000E+00; -4.5809302E-01;  4.4805718E+03;
  1.3820022E+00;  9.9999998E-03; -4.0234391E-02;9114;  1.0814629E+00;  0.0000000E+00;  2.2601781E-02;  9.9269043E+02;  1.2721217E-01; -5.9480874E+03;3; -1.1012930E+02;  0.0000000E+00;  1.8249189E+00;0;  3.2308104E+00;  2.4669842E+04;  0.0000000E+00;  1.3627151E-01;  4.0000000E+04;  0.0000000E+00;  3.9463047E+04;  3.6855469E+00;  0.0000000E+00; -4.5473638E-01;  4.6772437E+03;
  1.3820024E+00;  9.9999998E-03;  4.0234402E-02;9122;  1.0814633E+00;  0.0000000E+00; -2.2601055E-02;  9.9269043E+02;  1.2721217E-01; -5.9480874E+03;3; -1.1012914E+02;  0.0000000E+00; -1.8248489E+00;0;  3.2308071E+00;  2.4669836E+04;  0.0000000E+00;  1.3626830E-01;  4.0000000E+04;  0.0000000E+00;  3.9463047E+04;  3.6855433E+00;  0.0000000E+00; -4.5473626E-01;  4.6772632E+03;
  1.3819830E+00;  9.9999998E-03; -5.0291989E-02;9113;  1.0789385E+00;  0.0000000E+00;  2.8185815E-02;  9.9253473E+02;  1.2720923E-01; -6.0748066E+03;3; -1.0874725E+02;  0.0000000E+00;  2.2244604E+00;0;  3.1865084E+00;  2.4662936E+04;  0.0000000E+00;  1.7729613E-01;  4.0000000E+04;  0.0000000E+00;  3.9464969E+04;  3.6368079E+00;  0.0000000E+00; -4.5029950E-01;  4.9167822E+03;
  1.3819830E+00;  9.9999998E-03;  5.0292000E-02;9123;  1.0789393E+00;  0.0000000E+00; -2.8185084E-02;  9.9253491E+02;  1.2720910E-01; -6.0746611E+03;3; -1.0874742E+02;  0.0000000E+00; -2.2244937E+00;0;  3.1865106E+00;  2.4662934E+04;  0.0000000E+00;  1.7729525E-01;  4.0000000E+04;  0.0000000E+00;  3.9464965E+04;  3.6368101E+00;  0.0000000E+00; -4.5029962E-01;  4.9167783E+03;
  1.3938789E+00;  9.9999998E-03; -1.0076158E-01;9166;  1.1090634E+00;  0.0000000E+00;  5.0463166E-02;  9.9282361E+02;  1.2488400E-01; -5.8199829E+03;3; -9.8722397E+01;  0.0000000E+00;  6.6432967E+00;0;  2.9446540E+00;  2.5614244E+04;  0.0000000E+00; -2.5685376E-02;  4.0000000E+04;  0.0000000E+00;  3.9453230E+04;  3.3370609E+00;  0.0000000E+00; -3.9240697E-01;  5.7075132E+03;
  1.3940136E+00;  9.9999998E-03; -9.0658888E-02;9167;  1.1165420E+00;  0.0000000E+00;  4.5440700E-02;  9.9293365E+02;  1.2488195E-01; -5.7305103E+03;3; -1.0107455E+02;  0.0000000E+00;  6.1607733E+00;0;  3.0263674E+00;  2.5623996E+04;  0.0000000E+00;  6.7549445E-02;  4.0000000E+04;  0.0000000E+00;  3.9449625E+04;  3.4282613E+00;  0.0000000E+00; -4.0189382E-01;  5.3463623E+03;
  1.3941292E+00;  9.9999998E-03; -8.0566995E-02;9168;  1.1235795E+00;  0.0000000E+00;  4.0427651E-02;  9.9309503E+02;  1.2488024E-01; -5.5994141E+03;3; -1.0317820E+02;  0.0000000E+00;  5.6059437E+00;0;  3.0968723E+00;  2.5635232E+04;  0.0000000E+00;  1.2783448E-01;  4.0000000E+04;  0.0000000E+00;  3.9445598E+04;  3.5063484E+00;  0.0000000E+00; -4.0947601E-01;  4.9513906E+03;
  1.3942206E+00;  9.9999998E-03; -7.0485272E-02;9169;  1.1299858E+00;  0.0000000E+00;  3.5413161E-02;  9.9328607E+02;  1.2488129E-01; -5.4443452E+03;3; -1.0499377E+02;  0.0000000E+00;  4.9823709E+00;0;  3.1574054E+00;  2.5647047E+04;  0.0000000E+00;  1.5507555E-01;  4.0000000E+04;  0.0000000E+00;  3.9441859E+04;  3.5728662E+00;  0.0000000E+00; -4.1546094E-01;  4.5334443E+03;
  1.3943893E+00;  9.9999998E-03; -1.0068832E-02;9175;  1.1503652E+00;  0.0000000E+00;  5.0872611E-03;  9.9423120E+02;  1.2489310E-01; -4.6776733E+03;3; -1.1065706E+02;  0.0000000E+00;  7.6691872E-01;0;  3.3463783E+00;  2.5698354E+04;  0.0000000E+00;  7.9600280E-03;  4.0000000E+04;  0.0000000E+00;  3.9423750E+04;  3.7770443E+00;  0.0000000E+00; -4.3066603E-01;  2.5689016E+03;
  1.3943900E+00;  9.9999998E-03;  5.7793086E-09;9176;  1.1507792E+00;  0.0000000E+00;  3.4104610E-07;  9.9426050E+02;  1.2489302E-01; -4.6539419E+03;3; -1.1076555E+02;  0.0000000E+00;  1.3171892E-05;0;  3.3503337E+00;  2.5699652E+04;  0.0000000E+00; -1.7506562E-11;  4.0000000E+04;  0.0000000E+00;  3.9423367E+04;  3.7812634E+00;  0.0000000E+00; -4.3092954E-01;  2.5164375E+03;
  1.3943893E+00;  9.9999998E-03;  1.0068843E-02;9177;  1.1503651E+00;  0.0000000E+00; -5.0865747E-03;  9.9423108E+02;  1.2489293E-01; -4.6777700E+03;3; -1.1065678E+02;  0.0000000E+00; -7.6688135E-01;0;  3.3463795E+00;  2.5698361E+04;  0.0000000E+00;  7.9593901E-03;  4.0000000E+04;  0.0000000E+00;  3.9423750E+04;  3.7770455E+00;  0.0000000E+00; -4.3066603E-01;  2.5688967E+03;
  1.3943863E+00;  9.9999998E-03; -2.0136898E-02;9174;  1.1491112E+00;  0.0000000E+00;  1.0172943E-02;  9.9414966E+02;  1.2489156E-01; -4.7437944E+03;3; -1.1032659E+02;  0.0000000E+00;  1.5080820E+00;0;  3.3345394E+00;  2.5694352E+04;  0.0000000E+00;  3.0397575E-02;  4.0000000E+04;  0.0000000E+00;  3.9425047E+04;  3.7644036E+00;  0.0000000E+00; -4.2986408E-01;  2.7236375E+03;
  1.3943863E+00;  9.9999998E-03;  2.0136910E-02;9178;  1.1491112E+00;  0.0000000E+00; -1.0172244E-02;  9.9414960E+02;  1.2489186E-01; -4.7438428E+03;3; -1.1032664E+02;  0.0000000E+00; -1.5080665E+00;0;  3.3345413E+00;  2.5694352E+04;  0.0000000E+00;  3.0396182E-02;  4.0000000E+04;  0.0000000E+00;  3.9425047E+04;  3.7644050E+00;  0.0000000E+00; -4.2986375E-01;  2.7236143E+03;
  1.3943793E+00;  9.9999998E-03; -3.0204555E-02;9173;  1.1470686E+00;  0.0000000E+00;  1.5248543E-02;  9.9402765E+02;  1.2488950E-01; -4.8427393E+03;3; -1.0975186E+02;  0.0000000E+00;  2.2235515E+00;0;  3.3148532E+00;  2.5688014E+04;  0.0000000E+00;  6.3172229E-02;  4.0000000E+04;  0.0000000E+00;  3.9427457E+04;  3.7433417E+00;  0.0000000E+00; -4.2848861E-01;  2.9724861E+03;
  1.3943793E+00;  9.9999998E-03;  3.0204566E-02;9179;  1.1470689E+00;  0.0000000E+00; -1.5247834E-02;  9.9402771E+02;  1.2488940E-01; -4.8426909E+03;3; -1.0975191E+02;  0.0000000E+00; -2.2235289E+00;0;  3.3148541E+00;  2.5688012E+04;  0.0000000E+00;  6.3170537E-02;  4.0000000E+04;  0.0000000E+00;  3.9427453E+04;  3.7433429E+00;  0.0000000E+00; -4.2848876E-01;  2.9724546E+03;
  1.3943629E+00;  9.9999998E-03; -4.0271804E-02;9172;  1.1441586E+00;  0.0000000E+00;  2.0309564E-02;  9.9387268E+02;  1.2488746E-01; -4.9684258E+03;3; -1.0893573E+02;  0.0000000E+00;  2.9022877E+00;0;  3.2873945E+00;  2.5679719E+04;  0.0000000E+00;  9.9977538E-02;  4.0000000E+04;  0.0000000E+00;  3.9430484E+04;  3.7138770E+00;  0.0000000E+00; -4.2648253E-01;  3.3006362E+03;
  1.3943629E+00;  9.9999998E-03;  4.0271815E-02;9180;  1.1441593E+00;  0.0000000E+00; -2.0308856E-02;  9.9387292E+02;  1.2488752E-01; -4.9682324E+03;3; -1.0893578E+02;  0.0000000E+00; -2.9022384E+00;0;  3.2873976E+00;  2.5679721E+04;  0.0000000E+00;  9.9974602E-02;  4.0000000E+04;  0.0000000E+00;  3.9430480E+04;  3.7138796E+00;  0.0000000E+00; -4.2648199E-01;  3.3006296E+03;
  1.3943347E+00;  9.9999998E-03; -5.0340094E-02;9171;  1.1403478E+00;  0.0000000E+00;  2.5359118E-02;  9.9368524E+02;  1.2488467E-01; -5.1204731E+03;3; -1.0785542E+02;  0.0000000E+00;  3.6116600E+00;0;  3.2521405E+00;  2.5669785E+04;  0.0000000E+00;  1.3312756E-01;  4.0000000E+04;  0.0000000E+00;  3.9433918E+04;  3.6758842E+00;  0.0000000E+00; -4.2374378E-01;  3.6866216E+03;
  1.3943347E+00;  9.9999998E-03;  5.0340105E-02;9181;  1.1403484E+00;  0.0000000E+00; -2.5358405E-02;  9.9368518E+02;  1.2488465E-01; -5.1205215E+03;3; -1.0785497E+02;  0.0000000E+00; -3.6117074E+00;0;  3.2521389E+00;  2.5669787E+04;  0.0000000E+00;  1.3312531E-01;  4.0000000E+04;  0.0000000E+00;  3.9433918E+04;  3.6758826E+00;  0.0000000E+00; -4.2374375E-01;  3.6866062E+03;
  1.3942883E+00;  9.9999998E-03; -6.0410738E-02;9170;  1.1356095E+00;  0.0000000E+00;  3.0392841E-02;  9.9348566E+02;  1.2488207E-01; -5.2824131E+03;3; -1.0653989E+02;  0.0000000E+00;  4.3291230E+00;0;  3.2089362E+00;  2.5658822E+04;  0.0000000E+00;  1.5429994E-01;  4.0000000E+04;  0.0000000E+00;  3.9437723E+04;  3.6290717E+00;  0.0000000E+00; -4.2013550E-01;  4.1055239E+03;
  1.3942883E+00;  9.9999998E-03;  6.0410749E-02;9182;  1.1356103E+00;  0.0000000E+00; -3.0392118E-02;  9.9348560E+02;  1.2488206E-01; -5.2824614E+03;3; -1.0653928E+02;  0.0000000E+00; -4.3291411E+00;0;  3.2089357E+00;  2.5658824E+04;  0.0000000E+00;  1.5429926E-01;  4.0000000E+04;  0.0000000E+00;  3.9437723E+04;  3.6290705E+00;  0.0000000E+00; -4.2013487E-01;  4.1055264E+03;
  1.4060506E+00;  9.9999998E-03; -1.0085019E-01;9223;  1.1607527E+00;  0.0000000E+00;  4.4380032E-02;  9.9387683E+02;  1.2283839E-01; -4.9454722E+03;3; -9.6987923E+01;  0.0000000E+00;  8.8301907E+00;0;  2.9802907E+00;  2.6552170E+04;  0.0000000E+00; -1.9206380E-02;  4.0000000E+04;  0.0000000E+00;  3.9422512E+04;  3.3483098E+00;  0.0000000E+00; -3.6801913E-01;  4.8861113E+03;
  1.4065187E+00;  9.9999998E-03; -1.0078620E-02;9232;  1.2082319E+00;  0.0000000E+00;  4.4238833E-03;  9.9526166E+02;  1.2284842E-01; -3.8263162E+03;3; -1.0534097E+02;  0.0000000E+00;  9.0611875E-01;0;  3.2716897E+00;  2.6642170E+04;  0.0000000E+00;  3.5270494E-03;  4.0000000E+04;  0.0000000E+00;  3.9387055E+04;  3.6606691E+00;  0.0000000E+00; -3.8897946E-01;  1.2730977E+03;
  1.4065210E+00;  9.9999998E-03;  5.4330549E-09;9233;  1.2087859E+00;  0.0000000E+00;  3.4077135E-07;  9.9529199E+02;  1.2284869E-01; -3.8018137E+03;3; -1.0540089E+02;  0.0000000E+00;  1.7967322E-06;0;  3.2743907E+00;  2.6643693E+04;  0.0000000E+00; -1.9426414E-11;  4.0000000E+04;  0.0000000E+00;  3.9386336E+04;  3.6634252E+00;  0.0000000E+00; -3.8903439E-01;  1.2006820E+03;
  1.4065187E+00;  9.9999998E-03;  1.0078630E-02;9234;  1.2082319E+00;  0.0000000E+00; -4.4231941E-03;  9.9526166E+02;  1.2284842E-01; -3.8263162E+03;3; -1.0534085E+02;  0.0000000E+00; -9.0610975E-01;0;  3.2716856E+00;  2.6642172E+04;  0.0000000E+00;  3.5270811E-03;  4.0000000E+04;  0.0000000E+00;  3.9387055E+04;  3.6606648E+00;  0.0000000E+00; -3.8897929E-01;  1.2730905E+03;
  1.4064982E+00;  9.9999998E-03; -3.0235067E-02;9230;  1.2038800E+00;  0.0000000E+00;  1.3267749E-02;  9.9505133E+02;  1.2284541E-01; -3.9962046E+03;3; -1.0473707E+02;  0.0000000E+00;  2.7249026E+00;0;  3.2500961E+00;  2.6629836E+04;  0.0000000E+00;  2.8686948E-02;  4.0000000E+04;  0.0000000E+00;  3.9392355E+04;  3.6385498E+00;  0.0000000E+00; -3.8845363E-01;  1.8206956E+03;
  1.4065111E+00;  9.9999998E-03; -2.0156991E-02;9231;  1.2065905E+00;  0.0000000E+00;  8.8458611E-03;  9.9518054E+02;  1.2284749E-01; -3.8918352E+03;3; -1.0512880E+02;  0.0000000E+00;  1.7980148E+00;0;  3.2635889E+00;  2.6637361E+04;  0.0000000E+00;  1.3581192E-02;  4.0000000E+04;  0.0000000E+00;  3.9389031E+04;  3.6523914E+00;  0.0000000E+00; -3.8880262E-01;  1.4851315E+03;
  1.4065111E+00;  9.9999998E-03;  2.0157000E-02;9235;  1.2065905E+00;  0.0000000E+00; -8.8451644E-03;  9.9518054E+02;  1.2284749E-01; -3.8918352E+03;3; -1.0512881E+02;  0.0000000E+00; -1.7979676E+00;0;  3.2635894E+00;  2.6637367E+04;  0.0000000E+00;  1.3580830E-02;  4.0000000E+04;  0.0000000E+00;  3.9389031E+04;  3.6523919E+00;  0.0000000E+00; -3.8880256E-01;  1.4851278E+03;
  1.4064982E+00;  9.9999998E-03;  3.0235076E-02;9236;  1.2038800E+00;  0.0000000E+00; -1.3267048E-02;  9.9505127E+02;  1.2284514E-01; -3.9962527E+03;3; -1.0473696E+02;  0.0000000E+00; -2.7249053E+00;0;  3.2500970E+00;  2.6629838E+04;  0.0000000E+00;  2.8686613E-02;  4.0000000E+04;  0.0000000E+00;  3.9392359E+04;  3.6385505E+00;  0.0000000E+00; -3.8845348E-01;  1.8206765E+03;
  1.4061550E+00;  9.9999998E-03; -9.0747550E-02;9224;  1.1684303E+00;  0.0000000E+00;  3.9871380E-02;  9.9396564E+02;  1.2283696E-01; -4.8735557E+03;3; -9.8773376E+01;  0.0000000E+00;  8.0319519E+00;0;  3.0430171E+00;  2.6559990E+04;  0.0000000E+00;  4.2760093E-02;  4.0000000E+04;  0.0000000E+00;  3.9419758E+04;  3.4177597E+00;  0.0000000E+00; -3.7474254E-01;  4.6078267E+03;
  1.4064766E+00;  9.9999998E-03; -4.0313136E-02;9229;  1.2001082E+00;  0.0000000E+00;  1.7686708E-02;  9.9488550E+02;  1.2284259E-01; -4.1301421E+03;3; -1.0418128E+02;  0.0000000E+00;  3.6436801E+00;0;  3.2311931E+00;  2.6620035E+04;  0.0000000E+00;  4.6648424E-02;  4.0000000E+04;  0.0000000E+00;  3.9396379E+04;  3.6190529E+00;  0.0000000E+00; -3.8785973E-01;  2.2533008E+03;
  1.4064766E+00;  9.9999998E-03;  4.0313143E-02;9237;  1.2001078E+00;  0.0000000E+00; -1.7685995E-02;  9.9488544E+02;  1.2284292E-01; -4.1301904E+03;3; -1.0418132E+02;  0.0000000E+00; -3.6436598E+00;0;  3.2311957E+00;  2.6620035E+04;  0.0000000E+00;  4.6646353E-02;  4.0000000E+04;  0.0000000E+00;  3.9396387E+04;  3.6190543E+00;  0.0000000E+00; -3.8785872E-01;  2.2533059E+03;
  1.4064424E+00;  9.9999998E-03; -5.0392412E-02;9228;  1.1952876E+00;  0.0000000E+00;  2.2098538E-02;  9.9469916E+02;  1.2284049E-01; -4.2806602E+03;3; -1.0346951E+02;  0.0000000E+00;  4.5909348E+00;0;  3.2067523E+00;  2.6608332E+04;  0.0000000E+00;  6.4617373E-02;  4.0000000E+04;  0.0000000E+00;  3.9401332E+04;  3.5936489E+00;  0.0000000E+00; -3.8689664E-01;  2.7483406E+03;
  1.4064424E+00;  9.9999998E-03;  5.0392419E-02;9238;  1.1952875E+00;  0.0000000E+00; -2.2097822E-02;  9.9469916E+02;  1.2284049E-01; -4.2806602E+03;3; -1.0346955E+02;  0.0000000E+00; -4.5909715E+00;0;  3.2067561E+00;  2.6608334E+04;  0.0000000E+00;  6.4617418E-02;  4.0000000E+04;  0.0000000E+00;  3.9401332E+04;  3.5936527E+00;  0.0000000E+00; -3.8689661E-01;  2.7483660E+03;
  1.4063933E+00;  9.9999998E-03; -6.0474206E-02;9227;  1.1895360E+00;  0.0000000E+00;  2.6517652E-02;  9.9449530E+02;  1.2283879E-01; -4.4454058E+03;3; -1.0260764E+02;  0.0000000E+00;  5.4776745E+00;0;  3.1764641E+00;  2.6595709E+04;  0.0000000E+00;  7.8809194E-02;  4.0000000E+04;  0.0000000E+00;  3.9406449E+04;  3.5618472E+00;  0.0000000E+00; -3.8538316E-01;  3.2670474E+03;
  1.4063933E+00;  9.9999998E-03;  6.0474213E-02;9239;  1.1895360E+00;  0.0000000E+00; -2.6516931E-02;  9.9449542E+02;  1.2283917E-01; -4.4452612E+03;3; -1.0260773E+02;  0.0000000E+00; -5.4776640E+00;0;  3.1764688E+00;  2.6595709E+04;  0.0000000E+00;  7.8809492E-02;  4.0000000E+04;  0.0000000E+00;  3.9406449E+04;  3.5618517E+00;  0.0000000E+00; -3.8538301E-01;  3.2670557E+03;
  1.4063286E+00;  9.9999998E-03; -7.0559740E-02;9226;  1.1830047E+00;  0.0000000E+00;  3.0950580E-02;  9.9429327E+02;  1.2283765E-01; -4.6086431E+03;3; -1.0154852E+02;  0.0000000E+00;  6.3597040E+00;0;  3.1397262E+00;  2.6582822E+04;  0.0000000E+00;  8.4119275E-02;  4.0000000E+04;  0.0000000E+00;  3.9411312E+04;  3.5227933E+00;  0.0000000E+00; -3.8306701E-01;  3.7714363E+03;
  1.4062492E+00;  9.9999998E-03; -8.0650561E-02;9225;  1.1759077E+00;  0.0000000E+00;  3.5398435E-02;  9.9410828E+02;  1.2283602E-01; -4.7581943E+03;3; -1.0027940E+02;  0.0000000E+00;  7.1901450E+00;0;  3.0956521E+00;  2.6570572E+04;  0.0000000E+00;  7.4282296E-02;  4.0000000E+04;  0.0000000E+00;  3.9415848E+04;  3.4752872E+00;  0.0000000E+00; -3.7963513E-01;  4.2278105E+03;
  1.4180499E+00;  9.9999998E-03; -1.0091943E-01;9280;  1.2083929E+00;  0.0000000E+00;  3.7704021E-02;  9.9492694E+02;  1.2104008E-01; -4.0777568E+03;3; -9.2529823E+01;  0.0000000E+00;  9.7832403E+00;0;  2.9316921E+00;  2.7431025E+04;  0.0000000E+00; -5.3077932E-02;  4.0000000E+04;  0.0000000E+00;  3.9385387E+04;  3.2675457E+00;  0.0000000E+00; -3.3585352E-01;  3.8787754E+03;
  1.4184237E+00;  9.9999998E-03; -1.0087887E-02;9289;  1.2577120E+00;  0.0000000E+00;  3.7218858E-03;  9.9607404E+02;  1.2105785E-01; -3.1552083E+03;3; -9.7468880E+01;  0.0000000E+00;  9.5367604E-01;0;  3.1074581E+00;  2.7509115E+04;  0.0000000E+00; -1.0230937E-03;  4.0000000E+04;  0.0000000E+00;  3.9349398E+04;  3.4467988E+00;  0.0000000E+00; -3.3934075E-01;  4.0643246E+02;
  1.4184269E+00;  9.9999998E-03;  5.3778479E-09;9290;  1.2583268E+00;  0.0000000E+00;  3.6683585E-07;  9.9609741E+02;  1.2105804E-01; -3.1364258E+03;3; -9.7509537E+01;  0.0000000E+00;  9.5030264E-06;0;  3.1088068E+00;  2.7510734E+04;  0.0000000E+00; -2.1346187E-11;  4.0000000E+04;  0.0000000E+00;  3.9348508E+04;  3.4479878E+00;  0.0000000E+00; -3.3918101E-01;  3.2170059E+02;
  1.4184237E+00;  9.9999998E-03;  1.0087897E-02;9291;  1.2577119E+00;  0.0000000E+00; -3.7211578E-03;  9.9607410E+02;  1.2105786E-01; -3.1551604E+03;3; -9.7469002E+01;  0.0000000E+00; -9.5362860E-01;0;  3.1074607E+00;  2.7509119E+04;  0.0000000E+00; -1.0225937E-03;  4.0000000E+04;  0.0000000E+00;  3.9349402E+04;  3.4468012E+00;  0.0000000E+00; -3.3934042E-01;  4.0645740E+02;
  1.4183980E+00;  9.9999998E-03; -3.0264147E-02;9287;  1.2526954E+00;  0.0000000E+00;  1.1155169E-02;  9.9588861E+02;  1.2105541E-01; -3.3042703E+03;3; -9.7195206E+01;  0.0000000E+00;  2.9642730E+00;0;  3.0965178E+00;  2.7496387E+04;  0.0000000E+00; -7.2243321E-03;  4.0000000E+04;  0.0000000E+00;  3.9355875E+04;  3.4370146E+00;  0.0000000E+00; -3.4049672E-01;  1.0376908E+03;
  1.4184144E+00;  9.9999998E-03; -2.0175930E-02;9288;  1.2558193E+00;  0.0000000E+00;  7.4376832E-03;  9.9600208E+02;  1.2105674E-01; -3.2130396E+03;3; -9.7361504E+01;  0.0000000E+00;  1.9557832E+00;0;  3.1033814E+00;  2.7504170E+04;  0.0000000E+00; -3.7695554E-03;  4.0000000E+04;  0.0000000E+00;  3.9351887E+04;  3.4431782E+00;  0.0000000E+00; -3.3979684E-01;  6.5292145E+02;
  1.4184144E+00;  9.9999998E-03;  2.0175939E-02;9292;  1.2558192E+00;  0.0000000E+00; -7.4369605E-03;  9.9600195E+02;  1.2105674E-01; -3.2131355E+03;3; -9.7361511E+01;  0.0000000E+00; -1.9557883E+00;0;  3.1033776E+00;  2.7504172E+04;  0.0000000E+00; -3.7687109E-03;  4.0000000E+04;  0.0000000E+00;  3.9351883E+04;  3.4431744E+00;  0.0000000E+00; -3.3979672E-01;  6.5292328E+02;
  1.4183980E+00;  9.9999998E-03;  3.0264156E-02;9293;  1.2526957E+00;  0.0000000E+00; -1.1154446E-02;  9.9588867E+02;  1.2105510E-01; -3.3042222E+03;3; -9.7195206E+01;  0.0000000E+00; -2.9642515E+00;0;  3.0965171E+00;  2.7496395E+04;  0.0000000E+00; -7.2233127E-03;  4.0000000E+04;  0.0000000E+00;  3.9355875E+04;  3.4370136E+00;  0.0000000E+00; -3.4049648E-01;  1.0376965E+03;
  1.4181186E+00;  9.9999998E-03; -9.0823837E-02;9281;  1.2156661E+00;  0.0000000E+00;  3.3807687E-02;  9.9497351E+02;  1.2104174E-01; -4.0401709E+03;3; -9.3756752E+01;  0.0000000E+00;  8.8504562E+00;0;  2.9744909E+00;  2.7434410E+04;  0.0000000E+00; -1.1241755E-02;  4.0000000E+04;  0.0000000E+00;  3.9384094E+04;  3.3142686E+00;  0.0000000E+00; -3.3977774E-01;  3.7727563E+03;
  1.4183726E+00;  9.9999998E-03; -4.0352743E-02;9286;  1.2483871E+00;  0.0000000E+00;  1.4878803E-02;  9.9574023E+02;  1.2105282E-01; -3.4235391E+03;3; -9.6941238E+01;  0.0000000E+00;  3.9939663E+00;0;  3.0867310E+00;  2.7486322E+04;  0.0000000E+00; -9.7393943E-03;  4.0000000E+04;  0.0000000E+00;  3.9360852E+04;  3.4280756E+00;  0.0000000E+00; -3.4134451E-01;  1.5237980E+03;
  1.4183726E+00;  9.9999998E-03;  4.0352754E-02;9294;  1.2483870E+00;  0.0000000E+00; -1.4878083E-02;  9.9573999E+02;  1.2105262E-01; -3.4237307E+03;3; -9.6941231E+01;  0.0000000E+00; -3.9939666E+00;0;  3.0867314E+00;  2.7486322E+04;  0.0000000E+00; -9.7393235E-03;  4.0000000E+04;  0.0000000E+00;  3.9360848E+04;  3.4280753E+00;  0.0000000E+00; -3.4134397E-01;  1.5237762E+03;
  1.4183369E+00;  9.9999998E-03; -5.0442569E-02;9285;  1.2430202E+00;  0.0000000E+00;  1.8605404E-02;  9.9556171E+02;  1.2105010E-01; -3.5670667E+03;3; -9.6628990E+01;  0.0000000E+00;  4.9926310E+00;0;  3.0737312E+00;  2.7474740E+04;  0.0000000E+00; -9.5791891E-03;  4.0000000E+04;  0.0000000E+00;  3.9366598E+04;  3.4159155E+00;  0.0000000E+00; -3.4218433E-01;  2.0644209E+03;
  1.4183369E+00;  9.9999998E-03;  5.0442576E-02;9295;  1.2430204E+00;  0.0000000E+00; -1.8604696E-02;  9.9556177E+02;  1.2104982E-01; -3.5670188E+03;3; -9.6629097E+01;  0.0000000E+00; -4.9926476E+00;0;  3.0737333E+00;  2.7474736E+04;  0.0000000E+00; -9.5794331E-03;  4.0000000E+04;  0.0000000E+00;  3.9366602E+04;  3.4159174E+00;  0.0000000E+00; -3.4218395E-01;  2.0644297E+03;
  1.4182919E+00;  9.9999998E-03; -6.0534757E-02;9284;  1.2368137E+00;  0.0000000E+00;  2.2363080E-02;  9.9538403E+02;  1.2104800E-01; -3.7099421E+03;3; -9.6176811E+01;  0.0000000E+00;  5.9952960E+00;0;  3.0569608E+00;  2.7462654E+04;  0.0000000E+00; -6.0076141E-03;  4.0000000E+04;  0.0000000E+00;  3.9372066E+04;  3.3997450E+00;  0.0000000E+00; -3.4278411E-01;  2.6081533E+03;
  1.4182919E+00;  9.9999998E-03;  6.0534764E-02;9296;  1.2368138E+00;  0.0000000E+00; -2.2362366E-02;  9.9538403E+02;  1.2104773E-01; -3.7099421E+03;3; -9.6176857E+01;  0.0000000E+00; -5.9952908E+00;0;  3.0569651E+00;  2.7462654E+04;  0.0000000E+00; -6.0086376E-03;  4.0000000E+04;  0.0000000E+00;  3.9372074E+04;  3.3997486E+00;  0.0000000E+00; -3.4278348E-01;  2.6081401E+03;
  1.4182400E+00;  9.9999998E-03; -7.0629224E-02;9283;  1.2300160E+00;  0.0000000E+00;  2.6144709E-02;  9.9521649E+02;  1.2104565E-01; -3.8446912E+03;3; -9.5572151E+01;  0.0000000E+00;  6.9620833E+00;0;  3.0356152E+00;  2.7451197E+04;  0.0000000E+00; -4.4945598E-04;  4.0000000E+04;  0.0000000E+00;  3.9377238E+04;  3.3784516E+00;  0.0000000E+00; -3.4283644E-01;  3.1040461E+03;
  1.4181815E+00;  9.9999998E-03; -8.0725931E-02;9282;  1.2228967E+00;  0.0000000E+00;  2.9954499E-02;  9.9507025E+02;  1.2104378E-01; -3.9623064E+03;3; -9.4744728E+01;  0.0000000E+00;  7.8781595E+00;0;  3.0085917E+00;  2.7441359E+04;  0.0000000E+00;  2.0393301E-03;  4.0000000E+04;  0.0000000E+00;  3.9381355E+04;  3.3505642E+00;  0.0000000E+00; -3.4197250E-01;  3.5055190E+03;
  1.4301354E+00;  9.9999998E-03;  5.1436286E-09;9346;  1.2992686E+00;  0.0000000E+00;  3.5719148E-07;  9.9669855E+02;  1.1949314E-01; -2.6386741E+03;3; -8.8086601E+01;  0.0000000E+00;  2.2511187E-05;0;  2.8834600E+00;  2.8300090E+04;  0.0000000E+00; -2.4647721E-11;  4.0000000E+04;  0.0000000E+00;  3.9309340E+04;  3.1670258E+00;  0.0000000E+00; -2.8356570E-01;  1.5267291E+02;
  1.4301275E+00;  9.9999998E-03; -2.0191943E-02;9344;  1.2966496E+00;  0.0000000E+00;  6.0192784E-03;  9.9662079E+02;  1.1949155E-01; -2.7008540E+03;3; -8.8094383E+01;  0.0000000E+00;  1.9651836E+00;0;  2.8831706E+00;  2.8294299E+04;  0.0000000E+00; -1.8171199E-02;  4.0000000E+04;  0.0000000E+00;  3.9313207E+04;  3.1681800E+00;  0.0000000E+00; -2.8500935E-01;  1.8461865E+02;
  1.4301339E+00;  9.9999998E-03; -1.0096122E-02;9345;  1.2986245E+00;  0.0000000E+00;  3.0105833E-03;  9.9667908E+02;  1.1949266E-01; -2.6542542E+03;3; -8.8070999E+01;  0.0000000E+00;  9.7998703E-01;0;  2.8833904E+00;  2.8298602E+04;  0.0000000E+00; -4.7932533E-03;  4.0000000E+04;  0.0000000E+00;  3.9310438E+04;  3.1673203E+00;  0.0000000E+00; -2.8392971E-01;  6.6480774E+01;
  1.4301339E+00;  9.9999998E-03;  1.0096132E-02;9347;  1.2986246E+00;  0.0000000E+00; -3.0098713E-03;  9.9667908E+02;  1.1949266E-01; -2.6542542E+03;3; -8.8070976E+01;  0.0000000E+00; -9.7997892E-01;0;  2.8833919E+00;  2.8298605E+04;  0.0000000E+00; -4.7924253E-03;  4.0000000E+04;  0.0000000E+00;  3.9310430E+04;  3.1673214E+00;  0.0000000E+00; -2.8392953E-01;  6.6472710E+01;
  1.4301275E+00;  9.9999998E-03;  2.0191954E-02;9348;  1.2966495E+00;  0.0000000E+00; -6.0185571E-03;  9.9662079E+02;  1.1949130E-01; -2.7008540E+03;3; -8.8094368E+01;  0.0000000E+00; -1.9651587E+00;0;  2.8831677E+00;  2.8294299E+04;  0.0000000E+00; -1.8169833E-02;  4.0000000E+04;  0.0000000E+00;  3.9313207E+04;  3.1681774E+00;  0.0000000E+00; -2.8500959E-01;  1.8462239E+02;
  1.4301140E+00;  9.9999998E-03; -3.0288177E-02;9343;  1.2934101E+00;  0.0000000E+00;  9.0340208E-03;  9.9653400E+02;  1.1948976E-01; -2.7702354E+03;3; -8.8133102E+01;  0.0000000E+00;  2.9657393E+00;0;  2.8826814E+00;  2.8287600E+04;  0.0000000E+00; -3.7166897E-02;  4.0000000E+04;  0.0000000E+00;  3.9317301E+04;  3.1694291E+00;  0.0000000E+00; -2.8674766E-01;  5.6837604E+02;
  1.4301140E+00;  9.9999998E-03;  3.0288186E-02;9349;  1.2934102E+00;  0.0000000E+00; -9.0332981E-03;  9.9653394E+02;  1.1948980E-01; -2.7702830E+03;3; -8.8133194E+01;  0.0000000E+00; -2.9657552E+00;0;  2.8826852E+00;  2.8287602E+04;  0.0000000E+00; -3.7165329E-02;  4.0000000E+04;  0.0000000E+00;  3.9317301E+04;  3.1694329E+00;  0.0000000E+00; -2.8674778E-01;  5.6837207E+02;
  1.4300926E+00;  9.9999998E-03; -4.0385064E-02;9342;  1.2890000E+00;  0.0000000E+00;  1.2055743E-02;  9.9642188E+02;  1.1948709E-01; -2.8598767E+03;3; -8.8177650E+01;  0.0000000E+00;  3.9848022E+00;0;  2.8816516E+00;  2.8279031E+04;  0.0000000E+00; -5.7163317E-02;  4.0000000E+04;  0.0000000E+00;  3.9322625E+04;  3.1706779E+00;  0.0000000E+00; -2.8902626E-01;  1.0414115E+03;
  1.4300926E+00;  9.9999998E-03;  4.0385075E-02;9350;  1.2890003E+00;  0.0000000E+00; -1.2055019E-02;  9.9642194E+02;  1.1948717E-01; -2.8598289E+03;3; -8.8177551E+01;  0.0000000E+00; -3.9848030E+00;0;  2.8816493E+00;  2.8279031E+04;  0.0000000E+00; -5.7162262E-02;  4.0000000E+04;  0.0000000E+00;  3.9322625E+04;  3.1706755E+00;  0.0000000E+00; -2.8902617E-01;  1.0413973E+03;
  1.4300660E+00;  9.9999998E-03; -5.0483018E-02;9341;  1.2836549E+00;  0.0000000E+00;  1.5094515E-02;  9.9629639E+02;  1.1948485E-01; -2.9601987E+03;3; -8.8183556E+01;  0.0000000E+00;  4.9851246E+00;0;  2.8795264E+00;  2.8269729E+04;  0.0000000E+00; -7.2842196E-02;  4.0000000E+04;  0.0000000E+00;  3.9328152E+04;  3.1711736E+00;  0.0000000E+00; -2.9164717E-01;  1.5477612E+03;
  1.4300660E+00;  9.9999998E-03;  5.0483026E-02;9351;  1.2836550E+00;  0.0000000E+00; -1.5093795E-02;  9.9629639E+02;  1.1948485E-01; -2.9601987E+03;3; -8.8183731E+01;  0.0000000E+00; -4.9851294E+00;0;  2.8795278E+00;  2.8269738E+04;  0.0000000E+00; -7.2840825E-02;  4.0000000E+04;  0.0000000E+00;  3.9328148E+04;  3.1711755E+00;  0.0000000E+00; -2.9164773E-01;  1.5477645E+03;
  1.4300373E+00;  9.9999998E-03; -6.0582183E-02;9340;  1.2776427E+00;  0.0000000E+00;  1.8161757E-02;  9.9617108E+02;  1.1948148E-01; -3.0604319E+03;3; -8.8094933E+01;  0.0000000E+00;  5.9709573E+00;0;  2.8755496E+00;  2.8260691E+04;  0.0000000E+00; -7.9918869E-02;  4.0000000E+04;  0.0000000E+00;  3.9333449E+04;  3.1698883E+00;  0.0000000E+00; -2.9433861E-01;  2.0265868E+03;
  1.4300373E+00;  9.9999998E-03;  6.0582194E-02;9352;  1.2776427E+00;  0.0000000E+00; -1.8161034E-02;  9.9617102E+02;  1.1948122E-01; -3.0604795E+03;3; -8.8094978E+01;  0.0000000E+00; -5.9709554E+00;0;  2.8755479E+00;  2.8260693E+04;  0.0000000E+00; -7.9919592E-02;  4.0000000E+04;  0.0000000E+00;  3.9333441E+04;  3.1698864E+00;  0.0000000E+00; -2.9433843E-01;  2.0266093E+03;
  1.4300079E+00;  9.9999998E-03; -7.0681803E-02;9339;  1.2712790E+00;  0.0000000E+00;  2.1267666E-02;  9.9606201E+02;  1.1947750E-01; -3.1476150E+03;3; -8.7853172E+01;  0.0000000E+00;  6.9229708E+00;0;  2.8687236E+00;  2.8253486E+04;  0.0000000E+00; -7.9212159E-02;  4.0000000E+04;  0.0000000E+00;  3.9337617E+04;  3.1654751E+00;  0.0000000E+00; -2.9675156E-01;  2.4177656E+03;
  1.4299791E+00;  9.9999998E-03; -8.0780126E-02;9338;  1.2647719E+00;  0.0000000E+00;  2.4418842E-02;  9.9598456E+02;  1.1947405E-01; -3.2095967E+03;3; -8.7456421E+01;  0.0000000E+00;  7.8789477E+00;0;  2.8578115E+00;  2.8248803E+04;  0.0000000E+00; -8.0434509E-02;  4.0000000E+04;  0.0000000E+00;  3.9340398E+04;  3.1562705E+00;  0.0000000E+00; -2.9845899E-01;  2.6687417E+03;
  1.4299484E+00;  9.9999998E-03; -9.0873405E-02;9337;  1.2582372E+00;  0.0000000E+00;  2.7629301E-02;  9.9595166E+02;  1.1947085E-01; -3.2359456E+03;3; -8.6932167E+01;  0.0000000E+00;  8.7807903E+00;0;  2.8413966E+00;  2.8247502E+04;  0.0000000E+00; -9.2915878E-02;  4.0000000E+04;  0.0000000E+00;  3.9341016E+04;  3.1404130E+00;  0.0000000E+00; -2.9901654E-01;  2.7420154E+03;
  1.4299126E+00;  9.9999998E-03; -1.0095718E-01;9336;  1.2517004E+00;  0.0000000E+00;  3.0895727E-02;  9.9595563E+02;  1.1946750E-01; -3.2328127E+03;3; -8.6295670E+01;  0.0000000E+00;  9.7028875E+00;0;  2.8180881E+00;  2.8249502E+04;  0.0000000E+00; -1.0752379E-01;  4.0000000E+04;  0.0000000E+00;  3.9339656E+04;  3.1161749E+00;  0.0000000E+00; -2.9808685E-01;  2.6262742E+03;
  1.4416951E+00;  9.9999998E-03; -1.0102524E-02;9400;  1.3315319E+00;  0.0000000E+00;  2.3377747E-03;  9.9715930E+02;  1.1813030E-01; -2.2560159E+03;3; -7.7924408E+01;  0.0000000E+00;  9.4439536E-01;0;  2.6282687E+00;  2.9015598E+04;  0.0000000E+00; -7.3294234E-03;  4.0000000E+04;  0.0000000E+00;  3.9268859E+04;  2.8526793E+00;  0.0000000E+00; -2.2441053E-01;  2.5595844E+02;
  1.4416929E+00;  9.9999998E-03;  5.0260334E-09;9401;  1.3321522E+00;  0.0000000E+00;  3.6116975E-07;  9.9717188E+02;  1.1813082E-01; -2.2460308E+03;3; -7.7886383E+01;  0.0000000E+00;  2.4868641E-06;0;  2.6272435E+00;  2.9016424E+04;  0.0000000E+00; -2.6591427E-11;  4.0000000E+04;  0.0000000E+00;  3.9268199E+04;  2.8510914E+00;  0.0000000E+00; -2.2384776E-01;  3.3253543E+02;
  1.4416951E+00;  9.9999998E-03;  1.0102535E-02;9402;  1.3315319E+00;  0.0000000E+00; -2.3370553E-03;  9.9715930E+02;  1.1813030E-01; -2.2560159E+03;3; -7.7924500E+01;  0.0000000E+00; -9.4437897E-01;0;  2.6282706E+00;  2.9015592E+04;  0.0000000E+00; -7.3280092E-03;  4.0000000E+04;  0.0000000E+00;  3.9268855E+04;  2.8526812E+00;  0.0000000E+00; -2.2441050E-01;  2.5595874E+02;
  1.4416970E+00;  9.9999998E-03; -2.0204198E-02;9399;  1.3296819E+00;  0.0000000E+00;  4.6694744E-03;  9.9711633E+02;  1.1812752E-01; -2.2901428E+03;3; -7.8050659E+01;  0.0000000E+00;  1.9011049E+00;0;  2.6313872E+00;  2.9012621E+04;  0.0000000E+00; -2.7881954E-02;  4.0000000E+04;  0.0000000E+00;  3.9271523E+04;  2.8574834E+00;  0.0000000E+00; -2.2609620E-01;  4.8396984E+01;
  1.4416970E+00;  9.9999998E-03;  2.0204207E-02;9403;  1.3296819E+00;  0.0000000E+00; -4.6687522E-03;  9.9711646E+02;  1.1812725E-01; -2.2900483E+03;3; -7.8050507E+01;  0.0000000E+00; -1.9010930E+00;0;  2.6313837E+00;  2.9012627E+04;  0.0000000E+00; -2.7880065E-02;  4.0000000E+04;  0.0000000E+00;  3.9271523E+04;  2.8574798E+00;  0.0000000E+00; -2.2609614E-01;  4.8401691E+01;
  1.4416957E+00;  9.9999998E-03; -3.0306261E-02;9398;  1.3266635E+00;  0.0000000E+00;  7.0036887E-03;  9.9706335E+02;  1.1812469E-01; -2.3322271E+03;3; -7.8239700E+01;  0.0000000E+00;  2.8617010E+00;0;  2.6364043E+00;  2.9008373E+04;  0.0000000E+00; -5.7512559E-02;  4.0000000E+04;  0.0000000E+00;  3.9275535E+04;  2.8652463E+00;  0.0000000E+00; -2.2884208E-01;  2.9796875E+02;
  1.4416957E+00;  9.9999998E-03;  3.0306270E-02;9404;  1.3266636E+00;  0.0000000E+00; -7.0029669E-03;  9.9706335E+02;  1.1812421E-01; -2.3322271E+03;3; -7.8239609E+01;  0.0000000E+00; -2.8616922E+00;0;  2.6364031E+00;  2.9008367E+04;  0.0000000E+00; -5.7510015E-02;  4.0000000E+04;  0.0000000E+00;  3.9275539E+04;  2.8652451E+00;  0.0000000E+00; -2.2884205E-01;  2.9797403E+02;
  1.4416919E+00;  9.9999998E-03; -4.0409379E-02;9397;  1.3226154E+00;  0.0000000E+00;  9.3401540E-03;  9.9699664E+02;  1.1812053E-01; -2.3852021E+03;3; -7.8506294E+01;  0.0000000E+00;  3.8115766E+00;0;  2.6428742E+00;  2.9003320E+04;  0.0000000E+00; -9.0110309E-02;  4.0000000E+04;  0.0000000E+00;  3.9279977E+04;  2.8753800E+00;  0.0000000E+00; -2.3250592E-01;  6.8713202E+02;
  1.4416919E+00;  9.9999998E-03;  4.0409390E-02;9405;  1.3226155E+00;  0.0000000E+00; -9.3394313E-03;  9.9699658E+02;  1.1812057E-01; -2.3852495E+03;3; -7.8506355E+01;  0.0000000E+00; -3.8115668E+00;0;  2.6428702E+00;  2.9003314E+04;  0.0000000E+00; -9.0107545E-02;  4.0000000E+04;  0.0000000E+00;  3.9279977E+04;  2.8753760E+00;  0.0000000E+00; -2.3250575E-01;  6.8713080E+02;
  1.4416893E+00;  9.9999998E-03; -5.0512619E-02;9396;  1.3178296E+00;  0.0000000E+00;  1.1704127E-02;  9.9693274E+02;  1.1811589E-01; -2.4359509E+03;3; -7.8747520E+01;  0.0000000E+00;  4.7363415E+00;0;  2.6500683E+00;  2.8998633E+04;  0.0000000E+00; -1.1935733E-01;  4.0000000E+04;  0.0000000E+00;  3.9284652E+04;  2.8869314E+00;  0.0000000E+00; -2.3686318E-01;  1.0775220E+03;
  1.4416893E+00;  9.9999998E-03;  5.0512630E-02;9406;  1.3178295E+00;  0.0000000E+00; -1.1703398E-02;  9.9693274E+02;  1.1811610E-01; -2.4359509E+03;3; -7.8747398E+01;  0.0000000E+00; -4.7363591E+00;0;  2.6500680E+00;  2.8998631E+04;  0.0000000E+00; -1.1935314E-01;  4.0000000E+04;  0.0000000E+00;  3.9284652E+04;  2.8869309E+00;  0.0000000E+00; -2.3686299E-01;  1.0775135E+03;
  1.4416897E+00;  9.9999998E-03; -6.0615506E-02;9395;  1.3125969E+00;  0.0000000E+00;  1.4112391E-02;  9.9688623E+02;  1.1811165E-01; -2.4728728E+03;3; -7.8917038E+01;  0.0000000E+00;  5.6694884E+00;0;  2.6570652E+00;  2.8995215E+04;  0.0000000E+00; -1.4231503E-01;  4.0000000E+04;  0.0000000E+00;  3.9288445E+04;  2.8986826E+00;  0.0000000E+00; -2.4161735E-01;  1.4043555E+03;
  1.4416897E+00;  9.9999998E-03;  6.0615513E-02;9407;  1.3125969E+00;  0.0000000E+00; -1.4111663E-02;  9.9688623E+02;  1.1811165E-01; -2.4728728E+03;3; -7.8917038E+01;  0.0000000E+00; -5.6694798E+00;0;  2.6570649E+00;  2.8995219E+04;  0.0000000E+00; -1.4231461E-01;  4.0000000E+04;  0.0000000E+00;  3.9288449E+04;  2.8986821E+00;  0.0000000E+00; -2.4161726E-01;  1.4043536E+03;
  1.4416938E+00;  9.9999998E-03; -7.0715286E-02;9394;  1.3071855E+00;  0.0000000E+00;  1.6562982E-02;  9.9685437E+02;  1.1810594E-01; -2.4981919E+03;3; -7.8959671E+01;  0.0000000E+00;  6.5625844E+00;0;  2.6627567E+00;  2.8994250E+04;  0.0000000E+00; -1.6253784E-01;  4.0000000E+04;  0.0000000E+00;  3.9290766E+04;  2.9091449E+00;  0.0000000E+00; -2.4638814E-01;  1.6089222E+03;
  1.4416977E+00;  9.9999998E-03; -8.0808893E-02;9393;  1.3017417E+00;  0.0000000E+00;  1.9086249E-02;  9.9685248E+02;  1.1810164E-01; -2.4997009E+03;3; -7.8964775E+01;  0.0000000E+00;  7.4577475E+00;0;  2.6659827E+00;  2.8995902E+04;  0.0000000E+00; -1.8134059E-01;  4.0000000E+04;  0.0000000E+00;  3.9291000E+04;  2.9167435E+00;  0.0000000E+00; -2.5076088E-01;  1.6467793E+03;
  1.4416956E+00;  9.9999998E-03; -9.0891480E-02;9392;  1.2962873E+00;  0.0000000E+00;  2.1677414E-02;  9.9687152E+02;  1.1809719E-01; -2.4845564E+03;3; -7.8900131E+01;  0.0000000E+00;  8.2464819E+00;0;  2.6656342E+00;  2.9000312E+04;  0.0000000E+00; -1.8758374E-01;  4.0000000E+04;  0.0000000E+00;  3.9289152E+04;  2.9199739E+00;  0.0000000E+00; -2.5433972E-01;  1.4943542E+03;
  1.4416783E+00;  9.9999998E-03; -1.0095930E-01;9391;  1.2906557E+00;  0.0000000E+00;  2.4391709E-02;  9.9690118E+02;  1.1809395E-01; -2.4610552E+03;3; -7.8880447E+01;  0.0000000E+00;  9.1039314E+00;0;  2.6608200E+00;  2.9006012E+04;  0.0000000E+00; -1.4173524E-01;  4.0000000E+04;  0.0000000E+00;  3.9285055E+04;  2.9177072E+00;  0.0000000E+00; -2.5688714E-01;  1.1621028E+03;
  1.4531469E+00;  9.9999998E-03;  4.7797202E-09;9455;  1.3580160E+00;  0.0000000E+00;  3.6434224E-07;  9.9756647E+02;  1.1694402E-01; -1.9185417E+03;3; -6.7493202E+01;  0.0000000E+00;  1.3019722E-05;0;  2.3653982E+00;  2.9667951E+04;  0.0000000E+00; -2.5903734E-11;  4.0000000E+04;  0.0000000E+00;  3.9222488E+04;  2.5266619E+00;  0.0000000E+00; -1.6126369E-01;  3.8111960E+02;
  1.4531559E+00;  9.9999998E-03; -1.0107651E-02;9454;  1.3574885E+00;  0.0000000E+00;  1.7057051E-03;  9.9756647E+02;  1.1694334E-01; -1.9185299E+03;3; -6.7557541E+01;  0.0000000E+00;  9.0636206E-01;0;  2.3672471E+00;  2.9667574E+04;  0.0000000E+00; -9.1383364E-03;  4.0000000E+04;  0.0000000E+00;  3.9223043E+04;  2.5292585E+00;  0.0000000E+00; -1.6201134E-01;  3.2435065E+02;
  1.4531559E+00;  9.9999998E-03;  1.0107661E-02;9456;  1.3574886E+00;  0.0000000E+00; -1.7049764E-03;  9.9756653E+02;  1.1694334E-01; -1.9184829E+03;3; -6.7557465E+01;  0.0000000E+00; -9.0634102E-01;0;  2.3672464E+00;  2.9667574E+04;  0.0000000E+00; -9.1371629E-03;  4.0000000E+04;  0.0000000E+00;  3.9223043E+04;  2.5292578E+00;  0.0000000E+00; -1.6201143E-01;  3.2436002E+02;
  1.4531742E+00;  9.9999998E-03; -2.0213732E-02;9453;  1.3559352E+00;  0.0000000E+00;  3.3891362E-03;  9.9756000E+02;  1.1694023E-01; -1.9235804E+03;3; -6.7725174E+01;  0.0000000E+00;  1.7968769E+00;0;  2.3728702E+00;  2.9667215E+04;  0.0000000E+00; -3.5231709E-02;  4.0000000E+04;  0.0000000E+00;  3.9225168E+04;  2.5371413E+00;  0.0000000E+00; -1.6427107E-01;  1.6915923E+02;
  1.4531742E+00;  9.9999998E-03;  2.0213742E-02;9457;  1.3559352E+00;  0.0000000E+00; -3.3884072E-03;  9.9756006E+02;  1.1694021E-01; -1.9235334E+03;3; -6.7725151E+01;  0.0000000E+00; -1.7968630E+00;0;  2.3728697E+00;  2.9667215E+04;  0.0000000E+00; -3.5229970E-02;  4.0000000E+04;  0.0000000E+00;  3.9225168E+04;  2.5371408E+00;  0.0000000E+00; -1.6427113E-01;  1.6917108E+02;
  1.4531956E+00;  9.9999998E-03; -3.0319344E-02;9452;  1.3534045E+00;  0.0000000E+00;  5.0862399E-03;  9.9754742E+02;  1.1693602E-01; -1.9334670E+03;3; -6.8026306E+01;  0.0000000E+00;  2.6861854E+00;0;  2.3820944E+00;  2.9666580E+04;  0.0000000E+00; -7.4613780E-02;  4.0000000E+04;  0.0000000E+00;  3.9227945E+04;  2.5500801E+00;  0.0000000E+00; -1.6798559E-01;  9.5787842E+01;
  1.4531956E+00;  9.9999998E-03;  3.0319354E-02;9458;  1.3534044E+00;  0.0000000E+00; -5.0855060E-03;  9.9754742E+02;  1.1693602E-01; -1.9334670E+03;3; -6.8026283E+01;  0.0000000E+00; -2.6861742E+00;0;  2.3820949E+00;  2.9666588E+04;  0.0000000E+00; -7.4611194E-02;  4.0000000E+04;  0.0000000E+00;  3.9227945E+04;  2.5500805E+00;  0.0000000E+00; -1.6798568E-01;  9.5799904E+01;
  1.4532198E+00;  9.9999998E-03; -4.0425215E-02;9451;  1.3501074E+00;  0.0000000E+00;  6.8031619E-03;  9.9754358E+02;  1.1693093E-01; -1.9364891E+03;3; -6.8383385E+01;  0.0000000E+00;  3.5494285E+00;0;  2.3943729E+00;  2.9666348E+04;  0.0000000E+00; -1.2215232E-01;  4.0000000E+04;  0.0000000E+00;  3.9231156E+04;  2.5673738E+00;  0.0000000E+00; -1.7300090E-01;  3.3112860E+02;
  1.4532198E+00;  9.9999998E-03;  4.0425222E-02;9459;  1.3501074E+00;  0.0000000E+00; -6.8024299E-03;  9.9754370E+02;  1.1693121E-01; -1.9363951E+03;3; -6.8383331E+01;  0.0000000E+00; -3.5494232E+00;0;  2.3943725E+00;  2.9666338E+04;  0.0000000E+00; -1.2214860E-01;  4.0000000E+04;  0.0000000E+00;  3.9231156E+04;  2.5673733E+00;  0.0000000E+00; -1.7300084E-01;  3.3113074E+02;
  1.4532479E+00;  9.9999998E-03; -5.0530277E-02;9450;  1.3462896E+00;  0.0000000E+00;  8.5511189E-03;  9.9754620E+02;  1.1692535E-01; -1.9343840E+03;3; -6.8745895E+01;  0.0000000E+00;  4.4301567E+00;0;  2.4088862E+00;  2.9667641E+04;  0.0000000E+00; -1.7312297E-01;  4.0000000E+04;  0.0000000E+00;  3.9233578E+04;  2.5879734E+00;  0.0000000E+00; -1.7908706E-01;  5.4512268E+02;
  1.4532479E+00;  9.9999998E-03;  5.0530285E-02;9460;  1.3462895E+00;  0.0000000E+00; -8.5503841E-03;  9.9754614E+02;  1.1692535E-01; -1.9344310E+03;3; -6.8745804E+01;  0.0000000E+00; -4.4301395E+00;0;  2.4088840E+00;  2.9667641E+04;  0.0000000E+00; -1.7312258E-01;  4.0000000E+04;  0.0000000E+00;  3.9233578E+04;  2.5879712E+00;  0.0000000E+00; -1.7908725E-01;  5.4512665E+02;
  1.4532794E+00;  9.9999998E-03; -6.0632374E-02;9449;  1.3422056E+00;  0.0000000E+00;  1.0350199E-02;  9.9757440E+02;  1.1692015E-01; -1.9121176E+03;3; -6.9081032E+01;  0.0000000E+00;  5.2801127E+00;0;  2.4246528E+00;  2.9670533E+04;  0.0000000E+00; -2.2592704E-01;  4.0000000E+04;  0.0000000E+00;  3.9235258E+04;  2.6106055E+00;  0.0000000E+00; -1.8595262E-01;  6.7030750E+02;
  1.4532794E+00;  9.9999998E-03;  6.0632382E-02;9461;  1.3422056E+00;  0.0000000E+00; -1.0349466E-02;  9.9757465E+02;  1.1692015E-01; -1.9119296E+03;3; -6.9081024E+01;  0.0000000E+00; -5.2801056E+00;0;  2.4246550E+00;  2.9670537E+04;  0.0000000E+00; -2.2592774E-01;  4.0000000E+04;  0.0000000E+00;  3.9235258E+04;  2.6106076E+00;  0.0000000E+00; -1.8595265E-01;  6.7031195E+02;
  1.4533119E+00;  9.9999998E-03; -7.0728108E-02;9448;  1.3380626E+00;  0.0000000E+00;  1.2191631E-02;  9.9761426E+02;  1.1691515E-01; -1.8806411E+03;3; -6.9353973E+01;  0.0000000E+00;  6.0752730E+00;0;  2.4406509E+00;  2.9675490E+04;  0.0000000E+00; -2.7565086E-01;  4.0000000E+04;  0.0000000E+00;  3.9235090E+04;  2.6339128E+00;  0.0000000E+00; -1.9326182E-01;  6.6234015E+02;
  1.4533374E+00;  9.9999998E-03; -8.0813110E-02;9447;  1.3339456E+00;  0.0000000E+00;  1.4117328E-02;  9.9765735E+02;  1.1690887E-01; -1.8466379E+03;3; -6.9650383E+01;  0.0000000E+00;  6.9171643E+00;0;  2.4559636E+00;  2.9682414E+04;  0.0000000E+00; -3.0493227E-01;  4.0000000E+04;  0.0000000E+00;  3.9232734E+04;  2.6566231E+00;  0.0000000E+00; -2.0065957E-01;  4.9190170E+02;
  1.4533461E+00;  9.9999998E-03; -9.0883173E-02;9446;  1.3297185E+00;  0.0000000E+00;  1.6190968E-02;  9.9770129E+02;  1.1690471E-01; -1.8119996E+03;3; -7.0016022E+01;  0.0000000E+00;  7.6824021E+00;0;  2.4699025E+00;  2.9689951E+04;  0.0000000E+00; -2.7235052E-01;  4.0000000E+04;  0.0000000E+00;  3.9228145E+04;  2.6777060E+00;  0.0000000E+00; -2.0780340E-01;  1.5065900E+02;
  1.4533243E+00;  9.9999998E-03; -1.0093556E-01;9445;  1.3249708E+00;  0.0000000E+00;  1.8366013E-02;  9.9772388E+02;  1.1690316E-01; -1.7942195E+03;3; -7.0737946E+01;  0.0000000E+00;  8.4821234E+00;0;  2.4821048E+00;  2.9696570E+04;  0.0000000E+00; -9.8049857E-02;  4.0000000E+04;  0.0000000E+00;  3.9221961E+04;  2.6965725E+00;  0.0000000E+00; -2.1446767E-01;  4.1636807E+02;
  1.4645498E+00;  9.9999998E-03;  4.5468664E-09;9508;  1.3781124E+00;  0.0000000E+00;  3.6853851E-07;  9.9798462E+02;  1.1591578E-01; -1.5754922E+03;3; -5.7358665E+01;  0.0000000E+00;  7.2288440E-06;0;  2.1176472E+00;  3.0263553E+04;  0.0000000E+00; -2.7330008E-11;  4.0000000E+04;  0.0000000E+00;  3.9169891E+04;  2.2143543E+00;  0.0000000E+00; -9.6707046E-02;  4.6831589E+02;
  1.4645643E+00;  9.9999998E-03; -1.0113251E-02;9507;  1.3777233E+00;  0.0000000E+00;  1.1039898E-03;  9.9799078E+02;  1.1591341E-01; -1.5706746E+03;3; -5.7436131E+01;  0.0000000E+00;  8.0189592E-01;0;  2.1201117E+00;  3.0264232E+04;  0.0000000E+00; -1.2797310E-02;  4.0000000E+04;  0.0000000E+00;  3.9170414E+04;  2.2177627E+00;  0.0000000E+00; -9.7651005E-02;  4.3760513E+02;
  1.4645643E+00;  9.9999998E-03;  1.0113260E-02;9509;  1.3777233E+00;  0.0000000E+00; -1.1032532E-03;  9.9799084E+02;  1.1591341E-01; -1.5706281E+03;3; -5.7436131E+01;  0.0000000E+00; -8.0186504E-01;0;  2.1201108E+00;  3.0264234E+04;  0.0000000E+00; -1.2796395E-02;  4.0000000E+04;  0.0000000E+00;  3.9170414E+04;  2.2177618E+00;  0.0000000E+00; -9.7651079E-02;  4.3761237E+02;
  1.4645975E+00;  9.9999998E-03; -2.0223007E-02;9506;  1.3765658E+00;  0.0000000E+00;  2.2156520E-03;  9.9800873E+02;  1.1591025E-01; -1.5566085E+03;3; -5.7655209E+01;  0.0000000E+00;  1.6258174E+00;0;  2.1275897E+00;  3.0266262E+04;  0.0000000E+00; -5.0154068E-02;  4.0000000E+04;  0.0000000E+00;  3.9171578E+04;  2.2280960E+00;  0.0000000E+00; -1.0050619E-01;  3.5860059E+02;
  1.4645975E+00;  9.9999998E-03;  2.0223016E-02;9510;  1.3765658E+00;  0.0000000E+00; -2.2149140E-03;  9.9800873E+02;  1.1590993E-01; -1.5566085E+03;3; -5.7655186E+01;  0.0000000E+00; -1.6258016E+00;0;  2.1275856E+00;  3.0266258E+04;  0.0000000E+00; -5.0152577E-02;  4.0000000E+04;  0.0000000E+00;  3.9171574E+04;  2.2280920E+00;  0.0000000E+00; -1.0050632E-01;  3.5860410E+02;
  1.4646392E+00;  9.9999998E-03; -3.0329445E-02;9505;  1.3747400E+00;  0.0000000E+00;  3.3396131E-03;  9.9804065E+02;  1.1590560E-01; -1.5315833E+03;3; -5.7972599E+01;  0.0000000E+00;  2.4300716E+00;0;  2.1399195E+00;  3.0269072E+04;  0.0000000E+00; -1.0906553E-01;  4.0000000E+04;  0.0000000E+00;  3.9172910E+04;  2.2451398E+00;  0.0000000E+00; -1.0522028E-01;  2.7035974E+02;
  1.4646392E+00;  9.9999998E-03;  3.0329453E-02;9511;  1.3747400E+00;  0.0000000E+00; -3.3388766E-03;  9.9804077E+02;  1.1590558E-01; -1.5314901E+03;3; -5.7972496E+01;  0.0000000E+00; -2.4300554E+00;0;  2.1399162E+00;  3.0269078E+04;  0.0000000E+00; -1.0906286E-01;  4.0000000E+04;  0.0000000E+00;  3.9172914E+04;  2.2451367E+00;  0.0000000E+00; -1.0522047E-01;  2.7036469E+02;
  1.4646879E+00;  9.9999998E-03; -4.0434498E-02;9504;  1.3724236E+00;  0.0000000E+00;  4.4835624E-03;  9.9808258E+02;  1.1589977E-01; -1.4987708E+03;3; -5.8346653E+01;  0.0000000E+00;  3.2579985E+00;0;  2.1565185E+00;  3.0273729E+04;  0.0000000E+00; -1.8541463E-01;  4.0000000E+04;  0.0000000E+00;  3.9174055E+04;  2.2681577E+00;  0.0000000E+00; -1.1163914E-01;  2.3200839E+02;
  1.4646879E+00;  9.9999998E-03;  4.0434506E-02;9512;  1.3724235E+00;  0.0000000E+00; -4.4828225E-03;  9.9808264E+02;  1.1589979E-01; -1.4987241E+03;3; -5.8346584E+01;  0.0000000E+00; -3.2579789E+00;0;  2.1565180E+00;  3.0273729E+04;  0.0000000E+00; -1.8541034E-01;  4.0000000E+04;  0.0000000E+00;  3.9174059E+04;  2.2681570E+00;  0.0000000E+00; -1.1163912E-01;  2.3200012E+02;
  1.4647440E+00;  9.9999998E-03; -5.0537147E-02;9503;  1.3698461E+00;  0.0000000E+00;  5.6524118E-03;  9.9814270E+02;  1.1589367E-01; -1.4516963E+03;3; -5.8737446E+01;  0.0000000E+00;  4.0747194E+00;0;  2.1765261E+00;  3.0280236E+04;  0.0000000E+00; -2.7473229E-01;  4.0000000E+04;  0.0000000E+00;  3.9174363E+04;  2.2960770E+00;  0.0000000E+00; -1.1955093E-01;  2.7279773E+02;
  1.4647440E+00;  9.9999998E-03;  5.0537154E-02;9513;  1.3698462E+00;  0.0000000E+00; -5.6516724E-03;  9.9814282E+02;  1.1589363E-01; -1.4516030E+03;3; -5.8737389E+01;  0.0000000E+00; -4.0747137E+00;0;  2.1765234E+00;  3.0280238E+04;  0.0000000E+00; -2.7472743E-01;  4.0000000E+04;  0.0000000E+00;  3.9174363E+04;  2.2960744E+00;  0.0000000E+00; -1.1955094E-01;  2.7279749E+02;
  1.4648023E+00;  9.9999998E-03; -6.0634784E-02;9502;  1.3671820E+00;  0.0000000E+00;  6.8492694E-03;  9.9821991E+02;  1.1588816E-01; -1.3912994E+03;3; -5.9114864E+01;  0.0000000E+00;  4.8413415E+00;0;  2.1990404E+00;  3.0288309E+04;  0.0000000E+00; -3.6851078E-01;  4.0000000E+04;  0.0000000E+00;  3.9173086E+04;  2.3277795E+00;  0.0000000E+00; -1.2873906E-01;  3.7685333E+02;
  1.4648023E+00;  9.9999998E-03;  6.0634792E-02;9514;  1.3671821E+00;  0.0000000E+00; -6.8485253E-03;  9.9821997E+02;  1.1588815E-01; -1.3912528E+03;3; -5.9114861E+01;  0.0000000E+00; -4.8413701E+00;0;  2.1990395E+00;  3.0288301E+04;  0.0000000E+00; -3.6850676E-01;  4.0000000E+04;  0.0000000E+00;  3.9173086E+04;  2.3277783E+00;  0.0000000E+00; -1.2873897E-01;  3.7685449E+02;
  1.4648554E+00;  9.9999998E-03; -7.0723251E-02;9501;  1.3644947E+00;  0.0000000E+00;  8.1254877E-03;  9.9829620E+02;  1.1588329E-01; -1.3316125E+03;3; -5.9515530E+01;  0.0000000E+00;  5.7705073E+00;0;  2.2232013E+00;  3.0297453E+04;  0.0000000E+00; -4.4380459E-01;  4.0000000E+04;  0.0000000E+00;  3.9170055E+04;  2.3621471E+00;  0.0000000E+00; -1.3894585E-01;  5.6051807E+02;
  1.4648522E+00;  9.9999998E-03; -1.0089679E-01;9498;  1.3547212E+00;  0.0000000E+00;  1.2703019E-02;  9.9836200E+02;  1.1587649E-01; -1.2801868E+03;3; -6.2182850E+01;  0.0000000E+00;  8.1348543E+00;0;  2.3014667E+00;  3.0318645E+04;  0.0000000E+00;  1.3140513E-01;  4.0000000E+04;  0.0000000E+00;  3.9152066E+04;  2.4740181E+00;  0.0000000E+00; -1.7255129E-01;  1.8676472E+03;
  1.4648905E+00;  9.9999998E-03; -8.0798022E-02;9500;  1.3617812E+00;  0.0000000E+00;  9.5187454E-03;  9.9835925E+02;  1.1587952E-01; -1.2822904E+03;3; -5.9939240E+01;  0.0000000E+00;  6.5000615E+00;0;  2.2484276E+00;  3.0306822E+04;  0.0000000E+00; -4.5214528E-01;  4.0000000E+04;  0.0000000E+00;  3.9165375E+04;  2.3982968E+00;  0.0000000E+00; -1.4986913E-01;  8.5329016E+02;
  1.4648923E+00;  9.9999998E-03; -9.0856671E-02;9499;  1.3586979E+00;  0.0000000E+00;  1.1042895E-02;  9.9838568E+02;  1.1587675E-01; -1.2616523E+03;3; -6.0775570E+01;  0.0000000E+00;  7.3545790E+00;0;  2.2744989E+00;  3.0314574E+04;  0.0000000E+00; -3.0674604E-01;  4.0000000E+04;  0.0000000E+00;  3.9158930E+04;  2.4356811E+00;  0.0000000E+00; -1.6118225E-01;  1.2728481E+03;
  1.4759265E+00;  9.9999998E-03; -1.0116847E-02;9559;  1.3936290E+00;  0.0000000E+00;  5.1173859E-04;  9.9841913E+02;  1.1502307E-01; -1.2239253E+03;3; -4.8265247E+01;  0.0000000E+00;  1.0293962E+00;0;  1.9023279E+00;  3.0809748E+04;  0.0000000E+00; -2.1608101E-02;  4.0000000E+04;  0.0000000E+00;  3.9108762E+04;  1.9347010E+00;  0.0000000E+00; -3.2373101E-02;  7.0000439E+02;
  1.4759060E+00;  9.9999998E-03;  4.3913468E-09;9560;  1.3938267E+00;  0.0000000E+00;  3.6866402E-07;  9.9840491E+02;  1.1502515E-01; -1.2349312E+03;3; -4.8217930E+01;  0.0000000E+00; -4.3773689E-06;0;  1.8994604E+00;  3.0808322E+04;  0.0000000E+00; -2.2482578E-11;  4.0000000E+04;  0.0000000E+00;  3.9108723E+04;  1.9306868E+00;  0.0000000E+00; -3.1226384E-02;  7.0410419E+02;
  1.4759265E+00;  9.9999998E-03;  1.0116856E-02;9561;  1.3936290E+00;  0.0000000E+00; -5.1100063E-04;  9.9841907E+02;  1.1502309E-01; -1.2239714E+03;3; -4.8265194E+01;  0.0000000E+00; -1.0293961E+00;0;  1.9023259E+00;  3.0809742E+04;  0.0000000E+00; -2.1607146E-02;  4.0000000E+04;  0.0000000E+00;  3.9108762E+04;  1.9346992E+00;  0.0000000E+00; -3.2373294E-02;  7.0000317E+02;
  1.4759761E+00;  9.9999998E-03; -2.0229448E-02;9558;  1.3930445E+00;  0.0000000E+00;  1.0397426E-03;  9.9845483E+02;  1.1501924E-01; -1.1962299E+03;3; -4.8408298E+01;  0.0000000E+00;  1.9247239E+00;0;  1.9110138E+00;  3.0813805E+04;  0.0000000E+00; -8.4821083E-02;  4.0000000E+04;  0.0000000E+00;  3.9108801E+04;  1.9468511E+00;  0.0000000E+00; -3.5837315E-02;  6.9879565E+02;
  1.4759761E+00;  9.9999998E-03;  2.0229457E-02;9562;  1.3930444E+00;  0.0000000E+00; -1.0390031E-03;  9.9845483E+02;  1.1501924E-01; -1.1962299E+03;3; -4.8408287E+01;  0.0000000E+00; -1.9247134E+00;0;  1.9110126E+00;  3.0813805E+04;  0.0000000E+00; -8.4818773E-02;  4.0000000E+04;  0.0000000E+00;  3.9108801E+04;  1.9468502E+00;  0.0000000E+00; -3.5837494E-02;  6.9879797E+02;
  1.4760391E+00;  9.9999998E-03; -3.0336972E-02;9557;  1.3921374E+00;  0.0000000E+00;  1.5841234E-03;  9.9852594E+02;  1.1501621E-01; -1.1411147E+03;3; -4.8629601E+01;  0.0000000E+00;  2.7766659E+00;0;  1.9253937E+00;  3.0820053E+04;  0.0000000E+00; -1.8530951E-01;  4.0000000E+04;  0.0000000E+00;  3.9108578E+04;  1.9669880E+00;  0.0000000E+00; -4.1594252E-02;  7.2854980E+02;
  1.4760391E+00;  9.9999998E-03;  3.0336982E-02;9563;  1.3921375E+00;  0.0000000E+00; -1.5833795E-03;  9.9852594E+02;  1.1501621E-01; -1.1411147E+03;3; -4.8629547E+01;  0.0000000E+00; -2.7766511E+00;0;  1.9253922E+00;  3.0820049E+04;  0.0000000E+00; -1.8530592E-01;  4.0000000E+04;  0.0000000E+00;  3.9108582E+04;  1.9669865E+00;  0.0000000E+00; -4.1594397E-02;  7.2855548E+02;
  1.4761144E+00;  9.9999998E-03; -4.0439758E-02;9556;  1.3910234E+00;  0.0000000E+00;  2.1409907E-03;  9.9861090E+02;  1.1501114E-01; -1.0752435E+03;3; -4.8894215E+01;  0.0000000E+00;  3.6008067E+00;0;  1.9448179E+00;  3.0828359E+04;  0.0000000E+00; -3.1485423E-01;  4.0000000E+04;  0.0000000E+00;  3.9107602E+04;  1.9943175E+00;  0.0000000E+00; -4.9499687E-02;  8.2161157E+02;
  1.4761144E+00;  9.9999998E-03;  4.0439766E-02;9564;  1.3910236E+00;  0.0000000E+00; -2.1402405E-03;  9.9861108E+02;  1.1501111E-01; -1.0751051E+03;3; -4.8894207E+01;  0.0000000E+00; -3.6007981E+00;0;  1.9448189E+00;  3.0828359E+04;  0.0000000E+00; -3.1485024E-01;  4.0000000E+04;  0.0000000E+00;  3.9107605E+04;  1.9943187E+00;  0.0000000E+00; -4.9499888E-02;  8.2161786E+02;
  1.4761972E+00;  9.9999998E-03; -5.0538059E-02;9555;  1.3898529E+00;  0.0000000E+00;  2.7183208E-03;  9.9870520E+02;  1.1500560E-01; -1.0021774E+03;3; -4.9179798E+01;  0.0000000E+00;  4.3888288E+00;0;  1.9685228E+00;  3.0838645E+04;  0.0000000E+00; -4.6053529E-01;  4.0000000E+04;  0.0000000E+00;  3.9105480E+04;  2.0279419E+00;  0.0000000E+00; -5.9419159E-02;  9.9759747E+02;
  1.4761972E+00;  9.9999998E-03;  5.0538070E-02;9565;  1.3898530E+00;  0.0000000E+00; -2.7175674E-03;  9.9870514E+02;  1.1500557E-01; -1.0022235E+03;3; -4.9179794E+01;  0.0000000E+00; -4.3888192E+00;0;  1.9685221E+00;  3.0838646E+04;  0.0000000E+00; -4.6053326E-01;  4.0000000E+04;  0.0000000E+00;  3.9105477E+04;  2.0279415E+00;  0.0000000E+00; -5.9419345E-02;  9.9760901E+02;
  1.4762787E+00;  9.9999998E-03; -6.0630199E-02;9554;  1.3886771E+00;  0.0000000E+00;  3.3189135E-03;  9.9879523E+02;  1.1500021E-01; -9.3244482E+02;3; -4.9512875E+01;  0.0000000E+00;  5.1667786E+00;0;  1.9957198E+00;  3.0849621E+04;  0.0000000E+00; -5.9496319E-01;  4.0000000E+04;  0.0000000E+00;  3.9101762E+04;  2.0669415E+00;  0.0000000E+00; -7.1221709E-02;  1.2574984E+03;
  1.4762787E+00;  9.9999998E-03;  6.0630206E-02;9566;  1.3886772E+00;  0.0000000E+00; -3.3181533E-03;  9.9879523E+02;  1.1500021E-01; -9.3244482E+02;3; -4.9512875E+01;  0.0000000E+00; -5.1667752E+00;0;  1.9957203E+00;  3.0849619E+04;  0.0000000E+00; -5.9496671E-01;  4.0000000E+04;  0.0000000E+00;  3.9101758E+04;  2.0669422E+00;  0.0000000E+00; -7.1221977E-02;  1.2574976E+03;
  1.4762946E+00;  9.9999998E-03; -1.0086135E-01;9550;  1.3804625E+00;  0.0000000E+00;  6.9497954E-03;  9.9875555E+02;  1.1499099E-01; -9.6310785E+02;3; -5.3906715E+01;  0.0000000E+00;  8.4034538E+00;0;  2.1334679E+00;  3.0871213E+04;  0.0000000E+00;  8.0446243E-01;  4.0000000E+04;  0.0000000E+00;  3.9078223E+04;  2.2655840E+00;  0.0000000E+00; -1.3211618E-01;  3.1247568E+03;
  1.4763590E+00;  9.9999998E-03; -9.0827294E-02;9551;  1.3837868E+00;  0.0000000E+00;  5.6909947E-03;  9.9886829E+02;  1.1499059E-01; -8.7582385E+02;3; -5.2019444E+01;  0.0000000E+00;  7.3288770E+00;0;  2.0944102E+00;  3.0873197E+04;  0.0000000E+00; -1.4510749E-01;  4.0000000E+04;  0.0000000E+00;  3.9083781E+04;  2.2100213E+00;  0.0000000E+00; -1.1561101E-01;  2.4433352E+03;
  1.4763724E+00;  9.9999998E-03; -8.0778405E-02;9552;  1.3859202E+00;  0.0000000E+00;  4.7537326E-03;  9.9890314E+02;  1.1499232E-01; -8.4882886E+02;3; -5.0753548E+01;  0.0000000E+00;  6.6307492E+00;0;  2.0587184E+00;  3.0868809E+04;  0.0000000E+00; -5.6215245E-01;  4.0000000E+04;  0.0000000E+00;  3.9090289E+04;  2.1583881E+00;  0.0000000E+00; -9.9669583E-02;  1.9779021E+03;
  1.4763427E+00;  9.9999998E-03; -7.0711598E-02;9553;  1.3874149E+00;  0.0000000E+00;  3.9812326E-03;  9.9886823E+02;  1.1499559E-01; -8.7588300E+02;3; -4.9991768E+01;  0.0000000E+00;  5.9045157E+00;0;  2.0258601E+00;  3.0860354E+04;  0.0000000E+00; -6.6155577E-01;  4.0000000E+04;  0.0000000E+00;  3.9096668E+04;  2.1105933E+00;  0.0000000E+00; -8.4733181E-02;  1.5889713E+03;
  1.4872093E+00;  9.9999998E-03;  4.6112847E-09;9610;  1.4069372E+00;  0.0000000E+00;  3.9285590E-07;  9.9883948E+02;  1.1426326E-01; -8.8861731E+02;3; -4.0028313E+01;  0.0000000E+00; -2.6637987E-05;0;  1.7205033E+00;  3.1304689E+04;  0.0000000E+00; -2.1940352E-11;  4.0000000E+04;  0.0000000E+00;  3.9037230E+04;  1.6866161E+00;  0.0000000E+00;  3.3887241E-02;  1.1046753E+03;
  1.4872351E+00;  9.9999998E-03; -1.0121637E-02;9609;  1.4069389E+00;  0.0000000E+00; -1.4222679E-03;  9.9885828E+02;  1.1426244E-01; -8.7421710E+02;3; -3.9931210E+01;  0.0000000E+00;  2.0161564E+00;0;  1.7235723E+00;  3.1306715E+04;  0.0000000E+00; -3.7634935E-02;  4.0000000E+04;  0.0000000E+00;  3.9037000E+04;  1.6910467E+00;  0.0000000E+00;  3.2525554E-02;  1.1228224E+03;
  1.4872351E+00;  9.9999998E-03;  1.0121646E-02;9611;  1.4069389E+00;  0.0000000E+00;  1.4230364E-03;  9.9885815E+02;  1.1426246E-01; -8.7430841E+02;3; -3.9931255E+01;  0.0000000E+00; -2.0161810E+00;0;  1.7235714E+00;  3.1306721E+04;  0.0000000E+00; -3.7634470E-02;  4.0000000E+04;  0.0000000E+00;  3.9037000E+04;  1.6910460E+00;  0.0000000E+00;  3.2525416E-02;  1.1228230E+03;
  1.4872992E+00;  9.9999998E-03; -2.0237667E-02;9608;  1.4069424E+00;  0.0000000E+00; -2.0742863E-03;  9.9890436E+02;  1.1425857E-01; -8.3888202E+02;3; -3.9843758E+01;  0.0000000E+00;  3.5422671E+00;0;  1.7328379E+00;  3.1312373E+04;  0.0000000E+00; -1.4654946E-01;  4.0000000E+04;  0.0000000E+00;  3.9036125E+04;  1.7044208E+00;  0.0000000E+00;  2.8417151E-02;  1.1856875E+03;
  1.4872992E+00;  9.9999998E-03;  2.0237677E-02;9612;  1.4069426E+00;  0.0000000E+00;  2.0750754E-03;  9.9890430E+02;  1.1425859E-01; -8.3892767E+02;3; -3.9843765E+01;  0.0000000E+00; -3.5423050E+00;0;  1.7328359E+00;  3.1312377E+04;  0.0000000E+00; -1.4654934E-01;  4.0000000E+04;  0.0000000E+00;  3.9036125E+04;  1.7044190E+00;  0.0000000E+00;  2.8416891E-02;  1.1856957E+03;
  1.4873859E+00;  9.9999998E-03; -3.0345928E-02;9607;  1.4069585E+00;  0.0000000E+00; -2.2416522E-03;  9.9897437E+02;  1.1425366E-01; -7.8518878E+02;3; -3.9850296E+01;  0.0000000E+00;  4.6494079E+00;0;  1.7481337E+00;  3.1320812E+04;  0.0000000E+00; -3.1398457E-01;  4.0000000E+04;  0.0000000E+00;  3.9034406E+04;  1.7265477E+00;  0.0000000E+00;  2.1585982E-02;  1.3121313E+03;
  1.4873859E+00;  9.9999998E-03;  3.0345937E-02;9613;  1.4069585E+00;  0.0000000E+00;  2.2424164E-03;  9.9897437E+02;  1.1425366E-01; -7.8518878E+02;3; -3.9850304E+01;  0.0000000E+00; -4.6493735E+00;0;  1.7481318E+00;  3.1320812E+04;  0.0000000E+00; -3.1398532E-01;  4.0000000E+04;  0.0000000E+00;  3.9034406E+04;  1.7265462E+00;  0.0000000E+00;  2.1585586E-02;  1.3121281E+03;
  1.4874921E+00;  9.9999998E-03; -4.0447664E-02;9606;  1.4070445E+00;  0.0000000E+00; -2.2262246E-03;  9.9906360E+02;  1.1424780E-01; -7.1679822E+02;3; -3.9931747E+01;  0.0000000E+00;  5.3940649E+00;0;  1.7688730E+00;  3.1331312E+04;  0.0000000E+00; -5.1767904E-01;  4.0000000E+04;  0.0000000E+00;  3.9031488E+04;  1.7567403E+00;  0.0000000E+00;  1.2132699E-02;  1.5164534E+03;
  1.4874921E+00;  9.9999998E-03;  4.0447671E-02;9614;  1.4070446E+00;  0.0000000E+00;  2.2270037E-03;  9.9906348E+02;  1.1424781E-01; -7.1688947E+02;3; -3.9931736E+01;  0.0000000E+00; -5.3940244E+00;0;  1.7688737E+00;  3.1331314E+04;  0.0000000E+00; -5.1767880E-01;  4.0000000E+04;  0.0000000E+00;  3.9031488E+04;  1.7567414E+00;  0.0000000E+00;  1.2132253E-02;  1.5164575E+03;
  1.4876062E+00;  9.9999998E-03; -5.0543450E-02;9605;  1.4072092E+00;  0.0000000E+00; -2.1343564E-03;  9.9915289E+02;  1.1424247E-01; -6.4837183E+02;3; -4.0084465E+01;  0.0000000E+00;  5.9089336E+00;0;  1.7944373E+00;  3.1343012E+04;  0.0000000E+00; -7.1942645E-01;  4.0000000E+04;  0.0000000E+00;  3.9027367E+04;  1.7943447E+00;  0.0000000E+00;  9.2627568E-05;  1.7945032E+03;
  1.4876062E+00;  9.9999998E-03;  5.0543457E-02;9615;  1.4072092E+00;  0.0000000E+00;  2.1351366E-03;  9.9915295E+02;  1.1424278E-01; -6.4832617E+02;3; -4.0084335E+01;  0.0000000E+00; -5.9089060E+00;0;  1.7944357E+00;  3.1343008E+04;  0.0000000E+00; -7.1943039E-01;  4.0000000E+04;  0.0000000E+00;  3.9027367E+04;  1.7943435E+00;  0.0000000E+00;  9.2227128E-05;  1.7945017E+03;
  1.4877101E+00;  9.9999998E-03; -6.0631823E-02;9604;  1.4074041E+00;  0.0000000E+00; -1.9503153E-03;  9.9923462E+02;  1.1423859E-01; -5.8576111E+02;3; -4.0332607E+01;  0.0000000E+00;  6.3564277E+00;0;  1.8243173E+00;  3.1354258E+04;  0.0000000E+00; -8.5212314E-01;  4.0000000E+04;  0.0000000E+00;  3.9021898E+04;  1.8388164E+00;  0.0000000E+00; -1.4499073E-02;  2.1241326E+03;
  1.4877101E+00;  9.9999998E-03;  6.0631834E-02;9616;  1.4074044E+00;  0.0000000E+00;  1.9511264E-03;  9.9923450E+02;  1.1423861E-01; -5.8585236E+02;3; -4.0332584E+01;  0.0000000E+00; -6.3564324E+00;0;  1.8243154E+00;  3.1354258E+04;  0.0000000E+00; -8.5213071E-01;  4.0000000E+04;  0.0000000E+00;  3.9021898E+04;  1.8388150E+00;  0.0000000E+00; -1.4499494E-02;  2.1241245E+03;
  1.4876357E+00;  9.9999998E-03; -1.0085861E-01;9600;  1.4025624E+00;  0.0000000E+00;  3.2655214E-04;  9.9890070E+02;  1.1423497E-01; -8.4137006E+02;3; -4.6150356E+01;  0.0000000E+00;  8.6004057E+00;0;  1.9883919E+00;  3.1352096E+04;  0.0000000E+00;  2.3808420E+00;  4.0000000E+04;  0.0000000E+00;  3.9003074E+04;  2.0817971E+00;  0.0000000E+00; -9.3405187E-02;  4.2972056E+03;
  1.4877551E+00;  9.9999998E-03; -9.0815894E-02;9601;  1.4055175E+00;  0.0000000E+00; -7.1193831E-04;  9.9911609E+02;  1.1423395E-01; -6.7646033E+02;3; -4.3645947E+01;  0.0000000E+00;  7.4627156E+00;0;  1.9396155E+00;  3.1363916E+04;  0.0000000E+00;  5.5016083E-01;  4.0000000E+04;  0.0000000E+00;  3.9004773E+04;  2.0111051E+00;  0.0000000E+00; -7.1489520E-02;  3.3313662E+03;
  1.4877982E+00;  9.9999998E-03; -8.0769494E-02;9602;  1.4069395E+00;  0.0000000E+00; -1.3235090E-03;  9.9923505E+02;  1.1423448E-01; -5.8538763E+02;3; -4.1923695E+01;  0.0000000E+00;  6.9489398E+00;0;  1.8965695E+00;  3.1366961E+04;  0.0000000E+00; -4.1484579E-01;  4.0000000E+04;  0.0000000E+00;  3.9009586E+04;  1.9472589E+00;  0.0000000E+00; -5.0689455E-02;  2.8415012E+03;
  1.4877794E+00;  9.9999998E-03; -7.0708342E-02;9603;  1.4074199E+00;  0.0000000E+00; -1.7044868E-03;  9.9927081E+02;  1.1423539E-01; -5.5803131E+02;3; -4.0890907E+01;  0.0000000E+00;  6.6216812E+00;0;  1.8583224E+00;  3.1363072E+04;  0.0000000E+00; -8.0596220E-01;  4.0000000E+04;  0.0000000E+00;  3.9015941E+04;  1.8898534E+00;  0.0000000E+00; -3.1530935E-02;  2.4748623E+03;
  1.4984903E+00;  9.9999998E-03; -1.0130187E-02;9657;  1.4186068E+00;  0.0000000E+00; -3.3314563E-03;  9.9923291E+02;  1.1361137E-01; -5.8007672E+02;3; -3.2212074E+01;  0.0000000E+00; -2.2253025E-02;0;  1.5855472E+00;  3.1757609E+04;  0.0000000E+00; -5.8259126E-02;  4.0000000E+04;  0.0000000E+00;  3.8955309E+04;  1.4899604E+00;  0.0000000E+00;  9.5586836E-02;  1.6427754E+03;
  1.4984571E+00;  9.9999998E-03;  4.6913673E-09;9658;  1.4185623E+00;  0.0000000E+00;  4.2816848E-07;  9.9921564E+02;  1.1361257E-01; -5.9312592E+02;3; -3.2308739E+01;  0.0000000E+00; -1.1095748E-05;0;  1.5824978E+00;  3.1755490E+04;  0.0000000E+00; -2.0781894E-11;  4.0000000E+04;  0.0000000E+00;  3.8955641E+04;  1.4853803E+00;  0.0000000E+00;  9.7117580E-02;  1.6107240E+03;
  1.4984903E+00;  9.9999998E-03;  1.0130196E-02;9659;  1.4186068E+00;  0.0000000E+00;  3.3323183E-03;  9.9923297E+02;  1.1361139E-01; -5.8003168E+02;3; -3.2212070E+01;  0.0000000E+00;  2.2202529E-02;0;  1.5855478E+00;  3.1757604E+04;  0.0000000E+00; -5.8259815E-02;  4.0000000E+04;  0.0000000E+00;  3.8955309E+04;  1.4899611E+00;  0.0000000E+00;  9.5586643E-02;  1.6427777E+03;
  1.4985750E+00;  9.9999998E-03; -2.0254821E-02;9656;  1.4188964E+00;  0.0000000E+00; -5.6502600E-03;  9.9928357E+02;  1.1360891E-01; -5.4171130E+02;3; -3.1822575E+01;  0.0000000E+00;  1.4939120E+00;0;  1.5947590E+00;  3.1763533E+04;  0.0000000E+00; -2.2283173E-01;  4.0000000E+04;  0.0000000E+00;  3.8953520E+04;  1.5038160E+00;  0.0000000E+00;  9.0943009E-02;  1.7447008E+03;
  1.4985750E+00;  9.9999998E-03;  2.0254830E-02;9660;  1.4188966E+00;  0.0000000E+00;  5.6510698E-03;  9.9928345E+02;  1.1360894E-01; -5.4180151E+02;3; -3.1822567E+01;  0.0000000E+00; -1.4939475E+00;0;  1.5947611E+00;  3.1763529E+04;  0.0000000E+00; -2.2283435E-01;  4.0000000E+04;  0.0000000E+00;  3.8953520E+04;  1.5038185E+00;  0.0000000E+00;  9.0942658E-02;  1.7446956E+03;
  1.4986866E+00;  9.9999998E-03; -3.0370558E-02;9655;  1.4196092E+00;  0.0000000E+00; -6.7385891E-03;  9.9934991E+02;  1.1360461E-01; -4.9148630E+02;3; -3.1492880E+01;  0.0000000E+00;  2.6155403E+00;0;  1.6100887E+00;  3.1772266E+04;  0.0000000E+00; -4.6255976E-01;  4.0000000E+04;  0.0000000E+00;  3.8950613E+04;  1.5269608E+00;  0.0000000E+00;  8.3127812E-02;  1.9252246E+03;
  1.4986866E+00;  9.9999998E-03;  3.0370569E-02;9661;  1.4196093E+00;  0.0000000E+00;  6.7393645E-03;  9.9934985E+02;  1.1360463E-01; -4.9153137E+02;3; -3.1492870E+01;  0.0000000E+00; -2.6155396E+00;0;  1.6100888E+00;  3.1772262E+04;  0.0000000E+00; -4.6256286E-01;  4.0000000E+04;  0.0000000E+00;  3.8950613E+04;  1.5269614E+00;  0.0000000E+00;  8.3127365E-02;  1.9252242E+03;
  1.4987916E+00;  9.9999998E-03; -1.0091966E-01;9648;  1.4201032E+00;  0.0000000E+00; -6.7192377E-03;  9.9879016E+02;  1.1359336E-01; -9.1454553E+02;3; -3.9347534E+01;  0.0000000E+00;  6.9014368E+00;0;  1.8709229E+00;  3.1763762E+04;  0.0000000E+00;  5.4682302E+00;  4.0000000E+04;  0.0000000E+00;  3.8928770E+04;  1.9271171E+00;  0.0000000E+00; -5.6194142E-02;  5.8714297E+03;
  1.4988157E+00;  9.9999998E-03; -4.0475935E-02;9654;  1.4206721E+00;  0.0000000E+00; -7.3656342E-03;  9.9941882E+02;  1.1359940E-01; -4.3932797E+02;3; -3.1332602E+01;  0.0000000E+00;  3.1978557E+00;0;  1.6311035E+00;  3.1782420E+04;  0.0000000E+00; -7.2351164E-01;  4.0000000E+04;  0.0000000E+00;  3.8946344E+04;  1.5589387E+00;  0.0000000E+00;  7.2164714E-02;  2.1776201E+03;
  1.4988157E+00;  9.9999998E-03;  4.0475946E-02;9662;  1.4206721E+00;  0.0000000E+00;  7.3664072E-03;  9.9941895E+02;  1.1359919E-01; -4.3919281E+02;3; -3.1332518E+01;  0.0000000E+00; -3.1978207E+00;0;  1.6311010E+00;  3.1782426E+04;  0.0000000E+00; -7.2351819E-01;  4.0000000E+04;  0.0000000E+00;  3.8946348E+04;  1.5589368E+00;  0.0000000E+00;  7.2164148E-02;  2.1776145E+03;
  1.4989879E+00;  9.9999998E-03; -9.0851188E-02;9649;  1.4230694E+00;  0.0000000E+00; -7.5463527E-03;  9.9904944E+02;  1.1358886E-01; -7.1838470E+02;3; -3.6007515E+01;  0.0000000E+00;  5.8859820E+00;0;  1.8153251E+00;  3.1784898E+04;  0.0000000E+00;  2.3059046E+00;  4.0000000E+04;  0.0000000E+00;  3.8924641E+04;  1.8442363E+00;  0.0000000E+00; -2.8911091E-02;  4.1581924E+03;
  1.4989439E+00;  9.9999998E-03; -5.0570142E-02;9653;  1.4219222E+00;  0.0000000E+00; -7.8761913E-03;  9.9946643E+02;  1.1359476E-01; -4.0326791E+02;3; -3.1350975E+01;  0.0000000E+00;  3.7158298E+00;0;  1.6573895E+00;  3.1792342E+04;  0.0000000E+00; -9.2185807E-01;  4.0000000E+04;  0.0000000E+00;  3.8941133E+04;  1.5993779E+00;  0.0000000E+00;  5.8011655E-02;  2.4729072E+03;
  1.4989439E+00;  9.9999998E-03;  5.0570153E-02;9663;  1.4219223E+00;  0.0000000E+00;  7.8769997E-03;  9.9946649E+02;  1.1359475E-01; -4.0322287E+02;3; -3.1350883E+01;  0.0000000E+00; -3.7157876E+00;0;  1.6573863E+00;  3.1792338E+04;  0.0000000E+00; -9.2186487E-01;  4.0000000E+04;  0.0000000E+00;  3.8941137E+04;  1.5993752E+00;  0.0000000E+00;  5.8011051E-02;  2.4729084E+03;
  1.4990877E+00;  9.9999998E-03; -8.0791570E-02;9650;  1.4242382E+00;  0.0000000E+00; -7.9952246E-03;  9.9927203E+02;  1.1358796E-01; -5.5007471E+02;3; -3.3685150E+01;  0.0000000E+00;  5.4298906E+00;0;  1.7670624E+00;  3.1797727E+04;  0.0000000E+00;  4.1097087E-01;  4.0000000E+04;  0.0000000E+00;  3.8925664E+04;  1.7703117E+00;  0.0000000E+00; -3.2492732E-03;  3.4047695E+03;
  1.4990470E+00;  9.9999998E-03; -6.0654473E-02;9652;  1.4231510E+00;  0.0000000E+00; -8.1987372E-03;  9.9947284E+02;  1.1359128E-01; -3.9835391E+02;3; -3.1593662E+01;  0.0000000E+00;  4.5055442E+00;0;  1.6887158E+00;  3.1799781E+04;  0.0000000E+00; -9.3016988E-01;  4.0000000E+04;  0.0000000E+00;  3.8935160E+04;  1.6480833E+00;  0.0000000E+00;  4.0632468E-02;  2.7712368E+03;
  1.4990470E+00;  9.9999998E-03;  6.0654484E-02;9664;  1.4231511E+00;  0.0000000E+00;  8.1995456E-03;  9.9947290E+02;  1.1359127E-01; -3.9830887E+02;3; -3.1593542E+01;  0.0000000E+00; -4.5054946E+00;0;  1.6887121E+00;  3.1799775E+04;  0.0000000E+00; -9.3018103E-01;  4.0000000E+04;  0.0000000E+00;  3.8935160E+04;  1.6480802E+00;  0.0000000E+00;  4.0631868E-02;  2.7712295E+03;
  1.4991014E+00;  9.9999998E-03; -7.0728324E-02;9651;  1.4240860E+00;  0.0000000E+00; -8.1850253E-03;  9.9941199E+02;  1.1358864E-01; -4.4431335E+02;3; -3.2264061E+01;  0.0000000E+00;  5.1157598E+00;0;  1.7251341E+00;  3.1802281E+04;  0.0000000E+00; -5.6682658E-01;  4.0000000E+04;  0.0000000E+00;  3.8929688E+04;  1.7050288E+00;  0.0000000E+00;  2.0105386E-02;  3.0534746E+03;
  1.5096829E+00;  9.9999998E-03;  4.7263056E-09;9705;  1.4295413E+00;  0.0000000E+00;  4.5039516E-07;  9.9954144E+02;  1.1306038E-01; -3.4190118E+02;3; -2.4836159E+01;  0.0000000E+00;  9.1973343E-06;0;  1.4807086E+00;  3.2162609E+04;  0.0000000E+00; -1.7253629E-11;  4.0000000E+04;  0.0000000E+00;  3.8865426E+04;  1.3235646E+00;  0.0000000E+00;  1.5714392E-01;  2.1100454E+03;
  1.5097096E+00;  9.9999998E-03; -1.0106689E-01;9695;  1.4334925E+00;  0.0000000E+00; -1.3741227E-02;  9.9862622E+02;  1.1305235E-01; -1.0242894E+03;3; -3.4027634E+01;  0.0000000E+00;  4.6437702E+00;0;  1.7788843E+00;  3.2122531E+04;  0.0000000E+00;  1.0614522E+01;  4.0000000E+04;  0.0000000E+00;  3.8853562E+04;  1.7986928E+00;  0.0000000E+00; -1.9808574E-02;  8.2944814E+03;
  1.5097170E+00;  9.9999998E-03; -1.0149092E-02;9704;  1.4296830E+00;  0.0000000E+00; -3.8089182E-03;  9.9954474E+02;  1.1306001E-01; -3.3944138E+02;3; -2.4814007E+01;  0.0000000E+00; -8.7227726E-01;0;  1.4837081E+00;  3.2164193E+04;  0.0000000E+00; -7.3476933E-02;  4.0000000E+04;  0.0000000E+00;  3.8864406E+04;  1.3282367E+00;  0.0000000E+00;  1.5547149E-01;  2.1469792E+03;
  1.5097170E+00;  9.9999998E-03;  1.0149103E-02;9706;  1.4296831E+00;  0.0000000E+00;  3.8098297E-03;  9.9954486E+02;  1.1305968E-01; -3.3935251E+02;3; -2.4813917E+01;  0.0000000E+00;  8.7226909E-01;0;  1.4837066E+00;  3.2164193E+04;  0.0000000E+00; -7.3479600E-02;  4.0000000E+04;  0.0000000E+00;  3.8864406E+04;  1.3282354E+00;  0.0000000E+00;  1.5547125E-01;  2.1469771E+03;
  1.5098063E+00;  9.9999998E-03; -2.0283094E-02;9703;  1.4301431E+00;  0.0000000E+00; -7.5116223E-03;  9.9956580E+02;  1.1305770E-01; -3.2371518E+02;3; -2.4699043E+01;  0.0000000E+00; -1.4497499E+00;0;  1.4927123E+00;  3.2168492E+04;  0.0000000E+00; -2.7252901E-01;  4.0000000E+04;  0.0000000E+00;  3.8862129E+04;  1.3423047E+00;  0.0000000E+00;  1.5040754E-01;  2.2582510E+03;
  1.5098063E+00;  9.9999998E-03;  2.0283103E-02;9707;  1.4301431E+00;  0.0000000E+00;  7.5125126E-03;  9.9956573E+02;  1.1305767E-01; -3.2375961E+02;3; -2.4699011E+01;  0.0000000E+00;  1.4497101E+00;0;  1.4927104E+00;  3.2168492E+04;  0.0000000E+00; -2.7253383E-01;  4.0000000E+04;  0.0000000E+00;  3.8862129E+04;  1.3423033E+00;  0.0000000E+00;  1.5040708E-01;  2.2582542E+03;
  1.5099232E+00;  9.9999998E-03; -3.0405596E-02;9702;  1.4310848E+00;  0.0000000E+00; -1.0370955E-02;  9.9958557E+02;  1.1305428E-01; -3.0891434E+02;3; -2.4270962E+01;  0.0000000E+00; -4.6673656E-01;0;  1.5077168E+00;  3.2174793E+04;  0.0000000E+00; -5.3622150E-01;  4.0000000E+04;  0.0000000E+00;  3.8858594E+04;  1.3658963E+00;  0.0000000E+00;  1.4182039E-01;  2.4407615E+03;
  1.5099232E+00;  9.9999998E-03;  3.0405605E-02;9708;  1.4310849E+00;  0.0000000E+00;  1.0371801E-02;  9.9958557E+02;  1.1305428E-01; -3.0891434E+02;3; -2.4270891E+01;  0.0000000E+00;  4.6668342E-01;0;  1.5077159E+00;  3.2174797E+04;  0.0000000E+00; -5.3623247E-01;  4.0000000E+04;  0.0000000E+00;  3.8858594E+04;  1.3658961E+00;  0.0000000E+00;  1.4181979E-01;  2.4407654E+03;
  1.5099906E+00;  9.9999998E-03; -9.0954088E-02;9696;  1.4361961E+00;  0.0000000E+00; -1.4242249E-02;  9.9881439E+02;  1.1304628E-01; -8.8365643E+02;3; -2.9729944E+01;  0.0000000E+00;  3.9721191E+00;0;  1.7192813E+00;  3.2145660E+04;  0.0000000E+00;  5.7130547E+00;  4.0000000E+04;  0.0000000E+00;  3.8843777E+04;  1.7068173E+00;  0.0000000E+00;  1.2464070E-02;  5.4988521E+03;
  1.5100504E+00;  9.9999998E-03; -4.0515151E-02;9701;  1.4326245E+00;  0.0000000E+00; -1.1925525E-02;  9.9958105E+02;  1.1304975E-01; -3.1223792E+02;3; -2.3836672E+01;  0.0000000E+00;  5.6593698E-01;0;  1.5285374E+00;  3.2181031E+04;  0.0000000E+00; -7.6239192E-01;  4.0000000E+04;  0.0000000E+00;  3.8853699E+04;  1.3989619E+00;  0.0000000E+00;  1.2957554E-01;  2.6679561E+03;
  1.5100504E+00;  9.9999998E-03;  4.0515162E-02;9709;  1.4326245E+00;  0.0000000E+00;  1.1926319E-02;  9.9958105E+02;  1.1304975E-01; -3.1223792E+02;3; -2.3836592E+01;  0.0000000E+00; -5.6595105E-01;0;  1.5285361E+00;  3.2181023E+04;  0.0000000E+00; -7.6240557E-01;  4.0000000E+04;  0.0000000E+00;  3.8853699E+04;  1.3989613E+00;  0.0000000E+00;  1.2957472E-01;  2.6679512E+03;
  1.5101665E+00;  9.9999998E-03; -5.0612193E-02;9700;  1.4344474E+00;  0.0000000E+00; -1.3031039E-02;  9.9953497E+02;  1.1304557E-01; -3.4652191E+02;3; -2.3766495E+01;  0.0000000E+00;  9.0469623E-01;0;  1.5549396E+00;  3.2185012E+04;  0.0000000E+00; -8.0293870E-01;  4.0000000E+04;  0.0000000E+00;  3.8848461E+04;  1.4413691E+00;  0.0000000E+00;  1.1357059E-01;  2.8975898E+03;
  1.5101665E+00;  9.9999998E-03;  5.0612204E-02;9710;  1.4344475E+00;  0.0000000E+00;  1.3031841E-02;  9.9953503E+02;  1.1304556E-01; -3.4647751E+02;3; -2.3766399E+01;  0.0000000E+00; -9.0464914E-01;0;  1.5549392E+00;  3.2185010E+04;  0.0000000E+00; -8.0294627E-01;  4.0000000E+04;  0.0000000E+00;  3.8848457E+04;  1.4413692E+00;  0.0000000E+00;  1.1356993E-01;  2.8975874E+03;
  1.5101733E+00;  9.9999998E-03; -8.0863893E-02;9697;  1.4374131E+00;  0.0000000E+00; -1.4528413E-02;  9.9903900E+02;  1.1304211E-01; -7.1608844E+02;3; -2.6810030E+01;  0.0000000E+00;  3.3039367E+00;0;  1.6683193E+00;  3.2164805E+04;  0.0000000E+00;  2.4659710E+00;  4.0000000E+04;  0.0000000E+00;  3.8839641E+04;  1.6255792E+00;  0.0000000E+00;  4.2740136E-02;  3.9909644E+03;
  1.5102448E+00;  9.9999998E-03; -6.0700107E-02;9699;  1.4360925E+00;  0.0000000E+00; -1.3959616E-02;  9.9942291E+02;  1.1304221E-01; -4.2997607E+02;3; -2.4146032E+01;  0.0000000E+00;  1.3146437E+00;0;  1.5868201E+00;  3.2184545E+04;  0.0000000E+00; -4.5925143E-01;  4.0000000E+04;  0.0000000E+00;  3.8843371E+04;  1.4930924E+00;  0.0000000E+00;  9.3727730E-02;  3.1055339E+03;
  1.5102448E+00;  9.9999998E-03;  6.0700115E-02;9711;  1.4360925E+00;  0.0000000E+00;  1.3960402E-02;  9.9942285E+02;  1.1304199E-01; -4.3002051E+02;3; -2.4146017E+01;  0.0000000E+00; -1.3146642E+00;0;  1.5868189E+00;  3.2184541E+04;  0.0000000E+00; -4.5926562E-01;  4.0000000E+04;  0.0000000E+00;  3.8843371E+04;  1.4930921E+00;  0.0000000E+00;  9.3726888E-02;  3.1055305E+03;
  1.5102545E+00;  9.9999998E-03; -7.0782512E-02;9698;  1.4372369E+00;  0.0000000E+00; -1.4473361E-02;  9.9925067E+02;  1.1304065E-01; -5.5831329E+02;3; -2.5013275E+01;  0.0000000E+00;  2.4422915E+00;0;  1.6244495E+00;  3.2178039E+04;  0.0000000E+00;  5.2542681E-01;  4.0000000E+04;  0.0000000E+00;  3.8839891E+04;  1.5544145E+00;  0.0000000E+00;  7.0034988E-02;  3.3676680E+03;
  1.5204574E+00;  9.9999998E-03; -1.0131715E-01;9741;  1.4459022E+00;  0.0000000E+00; -2.1334285E-02;  9.9861371E+02;  1.1259708E-01; -1.0181262E+03;3; -3.0007515E+01;  0.0000000E+00;  1.9916773E+00;0;  1.7106552E+00;  3.2452469E+04;  0.0000000E+00;  1.7597509E+01;  4.0000000E+04;  0.0000000E+00;  3.8772414E+04;  1.6928855E+00;  0.0000000E+00;  1.7769657E-02;  1.1216889E+04;
  1.5207628E+00;  9.9999998E-03; -9.1133952E-02;9742;  1.4464612E+00;  0.0000000E+00; -2.0936595E-02;  9.9868719E+02;  1.1258948E-01; -9.6371442E+02;3; -2.5264126E+01;  0.0000000E+00;  4.8810035E-01;0;  1.6449229E+00;  3.2470996E+04;  0.0000000E+00;  1.1086593E+01;  4.0000000E+04;  0.0000000E+00;  3.8760707E+04;  1.5913891E+00;  0.0000000E+00;  5.3533804E-02;  7.6382549E+03;
  1.5208848E+00;  9.9999998E-03;  4.9382005E-09;9751;  1.4405004E+00;  0.0000000E+00;  4.6827785E-07;  9.9969153E+02;  1.1259317E-01; -2.2639355E+02;3; -1.7700022E+01;  0.0000000E+00;  1.4025718E-06;0;  1.4084436E+00;  3.2523570E+04;  0.0000000E+00; -1.1664020E-11;  4.0000000E+04;  0.0000000E+00;  3.8767516E+04;  1.1956782E+00;  0.0000000E+00;  2.1276538E-01;  2.4564402E+03;
  1.5209111E+00;  9.9999998E-03; -1.0158311E-02;9750;  1.4407319E+00;  0.0000000E+00; -3.8358406E-03;  9.9968542E+02;  1.1259290E-01; -2.3089055E+02;3; -1.7675030E+01;  0.0000000E+00; -9.1566330E-01;0;  1.4113907E+00;  3.2524078E+04;  0.0000000E+00; -6.6780746E-02;  4.0000000E+04;  0.0000000E+00;  3.8766590E+04;  1.2004112E+00;  0.0000000E+00;  2.1097942E-01;  2.4893875E+03;
  1.5209111E+00;  9.9999998E-03;  1.0158320E-02;9752;  1.4407320E+00;  0.0000000E+00;  3.8367906E-03;  9.9968549E+02;  1.1259291E-01; -2.3084680E+02;3; -1.7674990E+01;  0.0000000E+00;  9.1567069E-01;0;  1.4113894E+00;  3.2524074E+04;  0.0000000E+00; -6.6786066E-02;  4.0000000E+04;  0.0000000E+00;  3.8766590E+04;  1.2004101E+00;  0.0000000E+00;  2.1097925E-01;  2.4893870E+03;
  1.5210203E+00;  9.9999998E-03; -8.0990426E-02;9743;  1.4470028E+00;  0.0000000E+00; -2.0418797E-02;  9.9879620E+02;  1.1258665E-01; -8.8334735E+02;3; -2.1896688E+01;  0.0000000E+00; -7.7824134E-01;0;  1.5922513E+00;  3.2486590E+04;  0.0000000E+00;  6.2335668E+00;  4.0000000E+04;  0.0000000E+00;  3.8752230E+04;  1.5048628E+00;  0.0000000E+00;  8.7388471E-02;  5.1748872E+03;
  1.5209852E+00;  9.9999998E-03; -2.0298846E-02;9749;  1.4414030E+00;  0.0000000E+00; -7.5570648E-03;  9.9965308E+02;  1.1259094E-01; -2.5457272E+02;3; -1.7622890E+01;  0.0000000E+00; -1.8103337E+00;0;  1.4201646E+00;  3.2525143E+04;  0.0000000E+00; -2.3011735E-01;  4.0000000E+04;  0.0000000E+00;  3.8763973E+04;  1.2145697E+00;  0.0000000E+00;  2.0559484E-01;  2.5796260E+03;
  1.5209851E+00;  9.9999998E-03;  2.0298855E-02;9753;  1.4414035E+00;  0.0000000E+00;  7.5580073E-03;  9.9965308E+02;  1.1259094E-01; -2.5457272E+02;3; -1.7622858E+01;  0.0000000E+00;  1.8103557E+00;0;  1.4201648E+00;  3.2525143E+04;  0.0000000E+00; -2.3012775E-01;  4.0000000E+04;  0.0000000E+00;  3.8763973E+04;  1.2145705E+00;  0.0000000E+00;  2.0559430E-01;  2.5796343E+03;
  1.5210857E+00;  9.9999998E-03; -3.0428177E-02;9748;  1.4424913E+00;  0.0000000E+00; -1.1024067E-02;  9.9960071E+02;  1.1258958E-01; -2.9297717E+02;3; -1.7583700E+01;  0.0000000E+00; -2.6632276E+00;0;  1.4347109E+00;  3.2525893E+04;  0.0000000E+00; -3.9190799E-01;  4.0000000E+04;  0.0000000E+00;  3.8760129E+04;  1.2382457E+00;  0.0000000E+00;  1.9646513E-01;  2.7123066E+03;
  1.5210857E+00;  9.9999998E-03;  3.0428188E-02;9754;  1.4424912E+00;  0.0000000E+00;  1.1024986E-02;  9.9960065E+02;  1.1258970E-01; -2.9302090E+02;3; -1.7583700E+01;  0.0000000E+00;  2.6632206E+00;0;  1.4347076E+00;  3.2525896E+04;  0.0000000E+00; -3.9192581E-01;  4.0000000E+04;  0.0000000E+00;  3.8760129E+04;  1.2382431E+00;  0.0000000E+00;  1.9646449E-01;  2.7123040E+03;
  1.5211926E+00;  9.9999998E-03; -7.0868403E-02;9744;  1.4470303E+00;  0.0000000E+00; -1.9628426E-02;  9.9896661E+02;  1.1258499E-01; -7.5810364E+02;3; -1.9666592E+01;  0.0000000E+00; -1.7340696E+00;0;  1.5485619E+00;  3.2500695E+04;  0.0000000E+00;  2.9719353E+00;  4.0000000E+04;  0.0000000E+00;  3.8748410E+04;  1.4306263E+00;  0.0000000E+00;  1.1793566E-01;  3.8051355E+03;
  1.5211873E+00;  9.9999998E-03; -4.0545296E-02;9747;  1.4438367E+00;  0.0000000E+00; -1.4116177E-02;  9.9950153E+02;  1.1258740E-01; -3.6569595E+02;3; -1.7655489E+01;  0.0000000E+00; -3.4129121E+00;0;  1.4548657E+00;  3.2524875E+04;  0.0000000E+00; -3.9344549E-01;  4.0000000E+04;  0.0000000E+00;  3.8755660E+04;  1.2714777E+00;  0.0000000E+00;  1.8338794E-01;  2.8569275E+03;
  1.5211873E+00;  9.9999998E-03;  4.0545307E-02;9755;  1.4438367E+00;  0.0000000E+00;  1.4117075E-02;  9.9950159E+02;  1.1258741E-01; -3.6565225E+02;3; -1.7655373E+01;  0.0000000E+00;  3.4129360E+00;0;  1.4548630E+00;  3.2524869E+04;  0.0000000E+00; -3.9346686E-01;  4.0000000E+04;  0.0000000E+00;  3.8755664E+04;  1.2714759E+00;  0.0000000E+00;  1.8338701E-01;  2.8569246E+03;
  1.5212593E+00;  9.9999998E-03; -5.0652780E-02;9746;  1.4452069E+00;  0.0000000E+00; -1.6643548E-02;  9.9935083E+02;  1.1258577E-01; -4.7618881E+02;3; -1.7871916E+01;  0.0000000E+00; -3.3737993E+00;0;  1.4804903E+00;  3.2520516E+04;  0.0000000E+00; -1.7526621E-02;  4.0000000E+04;  0.0000000E+00;  3.8751383E+04;  1.3143909E+00;  0.0000000E+00;  1.6609946E-01;  3.0000012E+03;
  1.5212594E+00;  9.9999998E-03;  5.0652787E-02;9756;  1.4452074E+00;  0.0000000E+00;  1.6644478E-02;  9.9935089E+02;  1.1258598E-01; -4.7614508E+02;3; -1.7871769E+01;  0.0000000E+00;  3.3737905E+00;0;  1.4804897E+00;  3.2520527E+04;  0.0000000E+00; -1.7542386E-02;  4.0000000E+04;  0.0000000E+00;  3.8751387E+04;  1.3143910E+00;  0.0000000E+00;  1.6609868E-01;  3.0000002E+03;
  1.5212688E+00;  9.9999998E-03; -6.0757898E-02;9745;  1.4463607E+00;  0.0000000E+00; -1.8428676E-02;  9.9916309E+02;  1.1258405E-01; -6.1390790E+02;3; -1.8391920E+01;  0.0000000E+00; -2.5099053E+00;0;  1.5116098E+00;  3.2512348E+04;  0.0000000E+00;  1.0019205E+00;  4.0000000E+04;  0.0000000E+00;  3.8748508E+04;  1.3673124E+00;  0.0000000E+00;  1.4429739E-01;  3.2239382E+03;
  1.5212688E+00;  9.9999998E-03;  6.0757909E-02;9757;  1.4463606E+00;  0.0000000E+00;  1.8429426E-02;  9.9916302E+02;  1.1258401E-01; -6.1395166E+02;3; -1.8391935E+01;  0.0000000E+00;  2.5098488E+00;0;  1.5116048E+00;  3.2512350E+04;  0.0000000E+00;  1.0019095E+00;  4.0000000E+04;  0.0000000E+00;  3.8748508E+04;  1.3673085E+00;  0.0000000E+00;  1.4429633E-01;  3.2239319E+03;
  1.5311831E+00;  9.9999998E-03; -1.0167139E-01;9785;  1.4611385E+00;  0.0000000E+00; -2.9505270E-02;  9.9859784E+02;  1.1220821E-01; -1.0127048E+03;3; -2.6377762E+01;  0.0000000E+00; -5.7383996E-01;0;  1.6746358E+00;  3.2759592E+04;  0.0000000E+00;  2.4141870E+01;  4.0000000E+04;  0.0000000E+00;  3.8675301E+04;  1.6156387E+00;  0.0000000E+00;  5.8997050E-02;  1.3269739E+04;
  1.5314366E+00;  9.9999998E-03; -9.1410413E-02;9786;  1.4586023E+00;  0.0000000E+00; -2.7871728E-02;  9.9878918E+02;  1.1220440E-01; -8.7415198E+02;3; -2.1313519E+01;  0.0000000E+00; -2.6509309E+00;0;  1.5950686E+00;  3.2780215E+04;  0.0000000E+00;  1.7420460E+01;  4.0000000E+04;  0.0000000E+00;  3.8668730E+04;  1.4991217E+00;  0.0000000E+00;  9.5946871E-02;  9.8382783E+03;
  1.5316886E+00;  9.9999998E-03; -8.1186451E-02;9787;  1.4565291E+00;  0.0000000E+00; -2.5864597E-02;  9.9883618E+02;  1.1220141E-01; -8.3989526E+02;3; -1.8004520E+01;  0.0000000E+00; -4.2290354E+00;0;  1.5342519E+00;  3.2791332E+04;  0.0000000E+00;  1.1566854E+01;  4.0000000E+04;  0.0000000E+00;  3.8661234E+04;  1.4030298E+00;  0.0000000E+00;  1.3122214E-01;  6.9588149E+03;
  1.5319111E+00;  9.9999998E-03; -7.0987791E-02;9788;  1.4552542E+00;  0.0000000E+00; -2.3058990E-02;  9.9886365E+02;  1.1220014E-01; -8.1976569E+02;3; -1.5732533E+01;  0.0000000E+00; -5.4034820E+00;0;  1.4878401E+00;  3.2798145E+04;  0.0000000E+00;  7.0673890E+00;  4.0000000E+04;  0.0000000E+00;  3.8656074E+04;  1.3248519E+00;  0.0000000E+00;  1.6298822E-01;  4.8667383E+03;
  1.5320275E+00;  9.9999998E-03;  5.1033542E-09;9795;  1.4508764E+00;  0.0000000E+00;  4.8773575E-07;  9.9955780E+02;  1.1220035E-01; -3.1894446E+02;3; -1.1145338E+01;  0.0000000E+00;  1.2534205E-05;0;  1.3583601E+00;  3.2832199E+04;  0.0000000E+00; -9.0779953E-12;  4.0000000E+04;  0.0000000E+00;  3.8664168E+04;  1.0952003E+00;  0.0000000E+00;  2.6315972E-01;  2.4942925E+03;
  1.5320444E+00;  9.9999998E-03; -1.0152871E-02;9794;  1.4510791E+00;  0.0000000E+00; -3.6638025E-03;  9.9953290E+02;  1.1220039E-01; -3.3690497E+02;3; -1.1160952E+01;  0.0000000E+00; -9.0392429E-01;0;  1.3610917E+00;  3.2831238E+04;  0.0000000E+00; -1.7135989E-02;  4.0000000E+04;  0.0000000E+00;  3.8663203E+04;  1.0997759E+00;  0.0000000E+00;  2.6131585E-01;  2.5122402E+03;
  1.5320444E+00;  9.9999998E-03;  1.0152881E-02;9796;  1.4510791E+00;  0.0000000E+00;  3.6647709E-03;  9.9953290E+02;  1.1220039E-01; -3.3690497E+02;3; -1.1160927E+01;  0.0000000E+00;  9.0394741E-01;0;  1.3610902E+00;  3.2831246E+04;  0.0000000E+00; -1.7144488E-02;  4.0000000E+04;  0.0000000E+00;  3.8663207E+04;  1.0997746E+00;  0.0000000E+00;  2.6131564E-01;  2.5122395E+03;
  1.5320877E+00;  9.9999998E-03; -2.0291682E-02;9793;  1.4516382E+00;  0.0000000E+00; -7.1710511E-03;  9.9945898E+02;  1.1219981E-01; -3.9018356E+02;3; -1.1234662E+01;  0.0000000E+00; -1.7803789E+00;0;  1.3691851E+00;  3.2829004E+04;  0.0000000E+00; -1.4519140E-02;  4.0000000E+04;  0.0000000E+00;  3.8661117E+04;  1.1134809E+00;  0.0000000E+00;  2.5570413E-01;  2.5586301E+03;
  1.5320877E+00;  9.9999998E-03;  2.0291694E-02;9797;  1.4516383E+00;  0.0000000E+00;  7.1720439E-03;  9.9945905E+02;  1.1219978E-01; -3.9014053E+02;3; -1.1234558E+01;  0.0000000E+00;  1.7804114E+00;0;  1.3691845E+00;  3.2828996E+04;  0.0000000E+00; -1.4540624E-02;  4.0000000E+04;  0.0000000E+00;  3.8661121E+04;  1.1134810E+00;  0.0000000E+00;  2.5570351E-01;  2.5586140E+03;
  1.5320697E+00;  9.9999998E-03; -6.0819983E-02;9789;  1.4545926E+00;  0.0000000E+00; -1.9406037E-02;  9.9891638E+02;  1.1219762E-01; -7.8150787E+02;3; -1.3936955E+01;  0.0000000E+00; -4.8216147E+00;0;  1.4518667E+00;  3.2804676E+04;  0.0000000E+00;  3.8730714E+00;  4.0000000E+04;  0.0000000E+00;  3.8653285E+04;  1.2615081E+00;  0.0000000E+00;  1.9035865E-01;  3.5797571E+03;
  1.5320697E+00;  9.9999998E-03;  6.0819991E-02;9801;  1.4545928E+00;  0.0000000E+00;  1.9406850E-02;  9.9891638E+02;  1.1219762E-01; -7.8150787E+02;3; -1.3936892E+01;  0.0000000E+00;  4.8216538E+00;0;  1.4518657E+00;  3.2804672E+04;  0.0000000E+00;  3.8730567E+00;  4.0000000E+04;  0.0000000E+00;  3.8653285E+04;  1.2615081E+00;  0.0000000E+00;  1.9035755E-01;  3.5797605E+03;
  1.5321388E+00;  9.9999998E-03; -3.0421406E-02;9792;  1.4524294E+00;  0.0000000E+00; -1.0382729E-02;  9.9933887E+02;  1.1219902E-01; -4.7676007E+02;3; -1.1439220E+01;  0.0000000E+00; -2.6072741E+00;0;  1.3824030E+00;  3.2824785E+04;  0.0000000E+00;  1.4546908E-01;  4.0000000E+04;  0.0000000E+00;  3.8657934E+04;  1.1363168E+00;  0.0000000E+00;  2.4608621E-01;  2.6233059E+03;
  1.5321387E+00;  9.9999998E-03;  3.0421415E-02;9798;  1.4524292E+00;  0.0000000E+00;  1.0383609E-02;  9.9933881E+02;  1.1219905E-01; -4.7680304E+02;3; -1.1439244E+01;  0.0000000E+00;  2.6073005E+00;0;  1.3824024E+00;  3.2824793E+04;  0.0000000E+00;  1.4544833E-01;  4.0000000E+04;  0.0000000E+00;  3.8657934E+04;  1.1363170E+00;  0.0000000E+00;  2.4608542E-01;  2.6233118E+03;
  1.5321707E+00;  9.9999998E-03; -4.0547520E-02;9791;  1.4532797E+00;  0.0000000E+00; -1.3329182E-02;  9.9918903E+02;  1.1219813E-01; -5.8478693E+02;3; -1.1877296E+01;  0.0000000E+00; -3.3735778E+00;0;  1.4005035E+00;  3.2818789E+04;  0.0000000E+00;  6.6968966E-01;  4.0000000E+04;  0.0000000E+00;  3.8654906E+04;  1.1683745E+00;  0.0000000E+00;  2.3212898E-01;  2.7223254E+03;
  1.5321707E+00;  9.9999998E-03;  4.0547527E-02;9799;  1.4532800E+00;  0.0000000E+00;  1.3330122E-02;  9.9918903E+02;  1.1219813E-01; -5.8478693E+02;3; -1.1877228E+01;  0.0000000E+00;  3.3736110E+00;0;  1.4005017E+00;  3.2818797E+04;  0.0000000E+00;  6.6966689E-01;  4.0000000E+04;  0.0000000E+00;  3.8654906E+04;  1.1683735E+00;  0.0000000E+00;  2.3212820E-01;  2.7223279E+03;
  1.5321546E+00;  9.9999998E-03; -5.0677195E-02;9790;  1.4540175E+00;  0.0000000E+00; -1.6237259E-02;  9.9903833E+02;  1.1219773E-01; -6.9345892E+02;3; -1.2668221E+01;  0.0000000E+00; -4.0933375E+00;0;  1.4234524E+00;  3.2811789E+04;  0.0000000E+00;  1.8188764E+00;  4.0000000E+04;  0.0000000E+00;  3.8653156E+04;  1.2098943E+00;  0.0000000E+00;  2.1355805E-01;  2.9592009E+03;
  1.5321546E+00;  9.9999998E-03;  5.0677206E-02;9800;  1.4540186E+00;  0.0000000E+00;  1.6238237E-02;  9.9903839E+02;  1.1219773E-01; -6.9341589E+02;3; -1.2668044E+01;  0.0000000E+00;  4.0933962E+00;0;  1.4234512E+00;  3.2811781E+04;  0.0000000E+00;  1.8188363E+00;  4.0000000E+04;  0.0000000E+00;  3.8653164E+04;  1.2098941E+00;  0.0000000E+00;  2.1355718E-01;  2.9591775E+03;
  1.5419431E+00;  9.9999998E-03; -1.0205694E-01;9827;  1.4797006E+00;  0.0000000E+00; -3.7890941E-02;  9.9850696E+02;  1.1188187E-01; -1.0586538E+03;3; -2.2662159E+01;  0.0000000E+00; -2.5457990E+00;0;  1.6841491E+00;  3.3043301E+04;  0.0000000E+00;  2.6721636E+01;  4.0000000E+04;  0.0000000E+00;  3.8561652E+04;  1.5782402E+00;  0.0000000E+00;  1.0590896E-01;  1.3098545E+04;
  1.5421423E+00;  9.9999998E-03; -9.1752604E-02;9828;  1.4747097E+00;  0.0000000E+00; -3.5535563E-02;  9.9889166E+02;  1.1187870E-01; -7.8560583E+02;3; -1.7114342E+01;  0.0000000E+00; -5.1973453E+00;0;  1.5838559E+00;  3.3069262E+04;  0.0000000E+00;  2.1821865E+01;  4.0000000E+04;  0.0000000E+00;  3.8562555E+04;  1.4415035E+00;  0.0000000E+00;  1.4235236E-01;  1.0715389E+04;
  1.5423484E+00;  9.9999998E-03; -8.1464514E-02;9829;  1.4695802E+00;  0.0000000E+00; -3.2087389E-02;  9.9904980E+02;  1.1187630E-01; -6.7327191E+02;3; -1.3738977E+01;  0.0000000E+00; -7.1461363E+00;0;  1.5041208E+00;  3.3083168E+04;  0.0000000E+00;  1.6567577E+01;  4.0000000E+04;  0.0000000E+00;  3.8560969E+04;  1.3275894E+00;  0.0000000E+00;  1.7653140E-01;  8.2795967E+03;
  1.5425497E+00;  9.9999998E-03; -7.1185961E-02;9830;  1.4657340E+00;  0.0000000E+00; -2.6564522E-02;  9.9909064E+02;  1.1187520E-01; -6.4410925E+02;3; -1.1306637E+01;  0.0000000E+00; -6.6771126E+00;0;  1.4449151E+00;  3.3087762E+04;  0.0000000E+00;  1.1868005E+01;  4.0000000E+04;  0.0000000E+00;  3.8559180E+04;  1.2386717E+00;  0.0000000E+00;  2.0624344E-01;  6.1503896E+03;
  1.5427235E+00;  9.9999998E-03; -6.0944397E-02;9831;  1.4632493E+00;  0.0000000E+00; -2.0937590E-02;  9.9905701E+02;  1.1187392E-01; -6.6771069E+02;3; -9.4828281E+00;  0.0000000E+00; -5.3664703E+00;0;  1.4035854E+00;  3.3088758E+04;  0.0000000E+00;  7.8667660E+00;  4.0000000E+04;  0.0000000E+00;  3.8556801E+04;  1.1706749E+00;  0.0000000E+00;  2.3291053E-01;  4.4425957E+03;
  1.5427235E+00;  9.9999998E-03;  6.0944401E-02;9843;  1.4632492E+00;  0.0000000E+00;  2.0938242E-02;  9.9905695E+02;  1.1187393E-01; -6.6775287E+02;3; -9.4828768E+00;  0.0000000E+00;  5.3664832E+00;0;  1.4035813E+00;  3.3088754E+04;  0.0000000E+00;  7.8667974E+00;  4.0000000E+04;  0.0000000E+00;  3.8556801E+04;  1.1706723E+00;  0.0000000E+00;  2.3290899E-01;  4.4426226E+03;
  1.5428565E+00;  9.9999998E-03; -5.0736617E-02;9832;  1.4616276E+00;  0.0000000E+00; -1.6457651E-02;  9.9903857E+02;  1.1187332E-01; -6.8058856E+02;3; -8.1555376E+00;  0.0000000E+00; -4.3076830E+00;0;  1.3746419E+00;  3.3089047E+04;  0.0000000E+00;  4.7832236E+00;  4.0000000E+04;  0.0000000E+00;  3.8554980E+04;  1.1182859E+00;  0.0000000E+00;  2.5635597E-01;  3.2631694E+03;
  1.5428565E+00;  9.9999998E-03;  5.0736625E-02;9842;  1.4616277E+00;  0.0000000E+00;  1.6458575E-02;  9.9903857E+02;  1.1187332E-01; -6.8058856E+02;3; -8.1554861E+00;  0.0000000E+00;  4.3077116E+00;0;  1.3746412E+00;  3.3089039E+04;  0.0000000E+00;  4.7832026E+00;  4.0000000E+04;  0.0000000E+00;  3.8554984E+04;  1.1182864E+00;  0.0000000E+00;  2.5635481E-01;  3.2631655E+03;
  1.5429432E+00;  9.9999998E-03; -4.0557962E-02;9833;  1.4605315E+00;  0.0000000E+00; -1.2876210E-02;  9.9906104E+02;  1.1187359E-01; -6.6457727E+02;3; -7.2023988E+00;  0.0000000E+00; -3.3999336E+00;0;  1.3537118E+00;  3.3090133E+04;  0.0000000E+00;  2.6244040E+00;  4.0000000E+04;  0.0000000E+00;  3.8554551E+04;  1.0781677E+00;  0.0000000E+00;  2.7554420E-01;  2.6020254E+03;
  1.5429432E+00;  9.9999998E-03;  4.0557969E-02;9841;  1.4605315E+00;  0.0000000E+00;  1.2877163E-02;  9.9906104E+02;  1.1187359E-01; -6.6457727E+02;3; -7.2023373E+00;  0.0000000E+00;  3.3999560E+00;0;  1.3537085E+00;  3.3090141E+04;  0.0000000E+00;  2.6243777E+00;  4.0000000E+04;  0.0000000E+00;  3.8554547E+04;  1.0781649E+00;  0.0000000E+00;  2.7554360E-01;  2.6020178E+03;
  1.5429982E+00;  9.9999998E-03;  5.3795848E-09;9837;  1.4587681E+00;  0.0000000E+00;  5.0022243E-07;  9.9923627E+02;  1.1187333E-01; -5.4049286E+02;3; -5.8440785E+00;  0.0000000E+00;  2.0009466E-05;0;  1.3189909E+00;  3.3097266E+04;  0.0000000E+00; -7.0165449E-12;  4.0000000E+04;  0.0000000E+00;  3.8557453E+04;  1.0112085E+00;  0.0000000E+00;  3.0778238E-01;  2.2181804E+03;
  1.5430005E+00;  9.9999998E-03; -1.0143066E-02;9836;  1.4588994E+00;  0.0000000E+00; -3.3733246E-03;  9.9921869E+02;  1.1187387E-01; -5.5293463E+02;3; -5.9093971E+00;  0.0000000E+00; -8.6298174E-01;0;  1.3212121E+00;  3.3096449E+04;  0.0000000E+00;  9.5666908E-02;  4.0000000E+04;  0.0000000E+00;  3.8556875E+04;  1.0153283E+00;  0.0000000E+00;  3.0588382E-01;  2.2235630E+03;
  1.5430005E+00;  9.9999998E-03;  1.0143078E-02;9838;  1.4588993E+00;  0.0000000E+00;  3.3743216E-03;  9.9921869E+02;  1.1187387E-01; -5.5293457E+02;3; -5.9094296E+00;  0.0000000E+00;  8.6301535E-01;0;  1.3212104E+00;  3.3096434E+04;  0.0000000E+00;  9.5652848E-02;  4.0000000E+04;  0.0000000E+00;  3.8556871E+04;  1.0153270E+00;  0.0000000E+00;  3.0588347E-01;  2.2235239E+03;
  1.5430014E+00;  9.9999998E-03; -2.0274753E-02;9835;  1.4592369E+00;  0.0000000E+00; -6.6174325E-03;  9.9916956E+02;  1.1187355E-01; -5.8773450E+02;3; -6.1333995E+00;  0.0000000E+00; -1.7126068E+00;0;  1.3276993E+00;  3.3094367E+04;  0.0000000E+00;  4.5612261E-01;  4.0000000E+04;  0.0000000E+00;  3.8556035E+04;  1.0276195E+00;  0.0000000E+00;  3.0007979E-01;  2.2434553E+03;
  1.5430014E+00;  9.9999998E-03;  2.0274764E-02;9839;  1.4592370E+00;  0.0000000E+00;  6.6184225E-03;  9.9916956E+02;  1.1187355E-01; -5.8773450E+02;3; -6.1333737E+00;  0.0000000E+00;  1.7126387E+00;0;  1.3276997E+00;  3.3094371E+04;  0.0000000E+00;  4.5609787E-01;  4.0000000E+04;  0.0000000E+00;  3.8556039E+04;  1.0276206E+00;  0.0000000E+00;  3.0007917E-01;  2.2434534E+03;
  1.5429876E+00;  9.9999998E-03; -3.0406309E-02;9834;  1.4597659E+00;  0.0000000E+00; -9.7241495E-03;  9.9911084E+02;  1.1187361E-01; -6.2930048E+02;3; -6.5492291E+00;  0.0000000E+00; -2.5513527E+00;0;  1.3384130E+00;  3.3092027E+04;  0.0000000E+00;  1.2422680E+00;  4.0000000E+04;  0.0000000E+00;  3.8555113E+04;  1.0483342E+00;  0.0000000E+00;  2.9007873E-01;  2.3243945E+03;
  1.5429876E+00;  9.9999998E-03;  3.0406320E-02;9840;  1.4597657E+00;  0.0000000E+00;  9.7250426E-03;  9.9911078E+02;  1.1187363E-01; -6.2934265E+02;3; -6.5492964E+00;  0.0000000E+00;  2.5513442E+00;0;  1.3384105E+00;  3.3092027E+04;  0.0000000E+00;  1.2422429E+00;  4.0000000E+04;  0.0000000E+00;  3.8555117E+04;  1.0483327E+00;  0.0000000E+00;  2.9007778E-01;  2.3244036E+03;
  1.5528971E+00;  9.9999998E-03; -9.2089243E-02;9867;  1.4918795E+00;  0.0000000E+00; -4.2768765E-02;  9.9890973E+02;  1.1160540E-01; -7.5740369E+02;3; -1.3044438E+01;  0.0000000E+00; -7.4396830E+00;0;  1.6105524E+00;  3.3333766E+04;  0.0000000E+00;  2.1158207E+01;  4.0000000E+04;  0.0000000E+00;  3.8446945E+04;  1.4180183E+00;  0.0000000E+00;  1.9253406E-01;  9.4040400E+03;
  1.5530653E+00;  9.9999998E-03; -8.1775129E-02;9868;  1.4852479E+00;  0.0000000E+00; -3.8404442E-02;  9.9920972E+02;  1.1160365E-01; -5.4882599E+02;3; -9.1674471E+00;  0.0000000E+00; -9.4875231E+00;0;  1.5101748E+00;  3.3351547E+04;  0.0000000E+00;  1.8186775E+01;  4.0000000E+04;  0.0000000E+00;  3.8450848E+04;  1.2862539E+00;  0.0000000E+00;  2.2392078E-01;  8.0141445E+03;
  1.5532302E+00;  9.9999998E-03; -7.1455352E-02;9869;  1.4792358E+00;  0.0000000E+00; -3.1410959E-02;  9.9936536E+02;  1.1160292E-01; -4.4060785E+02;3; -6.3861823E+00;  0.0000000E+00; -7.9995694E+00;0;  1.4307282E+00;  3.3359922E+04;  0.0000000E+00;  1.4772231E+01;  4.0000000E+04;  0.0000000E+00;  3.8454070E+04;  1.1807294E+00;  0.0000000E+00;  2.4999884E-01;  6.5014316E+03;
  1.5533831E+00;  9.9999998E-03; -6.1156038E-02;9870;  1.4744468E+00;  0.0000000E+00; -2.4432037E-02;  9.9938989E+02;  1.1160237E-01; -4.2343304E+02;3; -4.5738859E+00;  0.0000000E+00; -6.3969936E+00;0;  1.3746035E+00;  3.3361238E+04;  0.0000000E+00;  1.1161220E+01;  4.0000000E+04;  0.0000000E+00;  3.8454895E+04;  1.1004047E+00;  0.0000000E+00;  2.7419877E-01;  5.0025498E+03;
  1.5533831E+00;  9.9999998E-03;  6.1156049E-02;9882;  1.4744463E+00;  0.0000000E+00;  2.4432892E-02;  9.9938989E+02;  1.1160237E-01; -4.2343301E+02;3; -4.5739207E+00;  0.0000000E+00;  6.3969932E+00;0;  1.3745977E+00;  3.3361223E+04;  0.0000000E+00;  1.1161120E+01;  4.0000000E+04;  0.0000000E+00;  3.8454891E+04;  1.1004001E+00;  0.0000000E+00;  2.7419758E-01;  5.0025171E+03;
  1.5535119E+00;  9.9999998E-03; -5.0883785E-02;9871;  1.4710494E+00;  0.0000000E+00; -1.8447764E-02;  9.9935522E+02;  1.1160150E-01; -4.4739590E+02;3; -3.3382337E+00;  0.0000000E+00; -4.9767137E+00;0;  1.3377178E+00;  3.3360117E+04;  0.0000000E+00;  7.8031545E+00;  4.0000000E+04;  0.0000000E+00;  3.8454258E+04;  1.0416453E+00;  0.0000000E+00;  2.9607245E-01;  3.7010251E+03;
  1.5535119E+00;  9.9999998E-03;  5.0883789E-02;9881;  1.4710492E+00;  0.0000000E+00;  1.8448560E-02;  9.9935516E+02;  1.1160152E-01; -4.4743726E+02;3; -3.3383362E+00;  0.0000000E+00;  4.9766722E+00;0;  1.3377140E+00;  3.3360113E+04;  0.0000000E+00;  7.8031626E+00;  4.0000000E+04;  0.0000000E+00;  3.8454258E+04;  1.0416429E+00;  0.0000000E+00;  2.9607102E-01;  3.7010371E+03;
  1.5536109E+00;  9.9999998E-03; -4.0633652E-02;9872;  1.4687766E+00;  0.0000000E+00; -1.3718127E-02;  9.9932507E+02;  1.1160046E-01; -4.6819037E+02;3; -2.4505126E+00;  0.0000000E+00; -3.7712262E+00;0;  1.3140948E+00;  3.3358500E+04;  0.0000000E+00;  5.0232301E+00;  4.0000000E+04;  0.0000000E+00;  3.8453949E+04;  9.9944818E-01;  0.0000000E+00;  3.1464657E-01;  2.7268633E+03;
  1.5536109E+00;  9.9999998E-03;  4.0633664E-02;9880;  1.4687765E+00;  0.0000000E+00;  1.3719070E-02;  9.9932507E+02;  1.1160046E-01; -4.6819031E+02;3; -2.4505057E+00;  0.0000000E+00;  3.7712684E+00;0;  1.3140922E+00;  3.3358492E+04;  0.0000000E+00;  5.0231733E+00;  4.0000000E+04;  0.0000000E+00;  3.8453949E+04;  9.9944681E-01;  0.0000000E+00;  3.1464541E-01;  2.7268381E+03;
  1.5536815E+00;  9.9999998E-03; -3.0427370E-02;9873;  1.4672729E+00;  0.0000000E+00; -9.8143229E-03;  9.9928357E+02;  1.1160042E-01; -4.9694159E+02;3; -1.8334939E+00;  0.0000000E+00; -2.7021620E+00;0;  1.2987330E+00;  3.3356488E+04;  0.0000000E+00;  2.7997851E+00;  4.0000000E+04;  0.0000000E+00;  3.8452512E+04;  9.6970040E-01;  0.0000000E+00;  3.2903266E-01;  2.1292009E+03;
  1.5536815E+00;  9.9999998E-03;  3.0427387E-02;9879;  1.4672724E+00;  0.0000000E+00;  9.8152542E-03;  9.9928357E+02;  1.1160042E-01; -4.9694156E+02;3; -1.8336228E+00;  0.0000000E+00;  2.7022369E+00;0;  1.2987289E+00;  3.3356473E+04;  0.0000000E+00;  2.7997074E+00;  4.0000000E+04;  0.0000000E+00;  3.8452508E+04;  9.6969724E-01;  0.0000000E+00;  3.2903174E-01;  2.1291299E+03;
  1.5537575E+00;  9.9999998E-03;  5.3113745E-09;9876;  1.4657874E+00;  0.0000000E+00;  5.0147366E-07;  9.9921552E+02;  1.1160045E-01; -5.4403278E+02;3; -1.1100272E+00;  0.0000000E+00;  2.7881935E-05;0;  1.2823992E+00;  3.3353578E+04;  0.0000000E+00; -1.2949568E-13;  4.0000000E+04;  0.0000000E+00;  3.8449727E+04;  9.3550438E-01;  0.0000000E+00;  3.4689474E-01;  1.8718749E+03;
  1.5537268E+00;  9.9999998E-03; -2.0269776E-02;9874;  1.4663808E+00;  0.0000000E+00; -6.3825417E-03;  9.9924072E+02;  1.1160001E-01; -5.2662024E+02;3; -1.4291489E+00;  0.0000000E+00; -1.7395101E+00;0;  1.2892363E+00;  3.3354855E+04;  0.0000000E+00;  1.1969429E+00;  4.0000000E+04;  0.0000000E+00;  3.8450883E+04;  9.5015562E-01;  0.0000000E+00;  3.3908066E-01;  1.8977690E+03;
  1.5537506E+00;  9.9999998E-03; -1.0138165E-02;9875;  1.4659268E+00;  0.0000000E+00; -3.1659070E-03;  9.9921881E+02;  1.1160024E-01; -5.4176648E+02;3; -1.1904453E+00;  0.0000000E+00; -8.5343206E-01;0;  1.2840576E+00;  3.3353727E+04;  0.0000000E+00;  2.7950850E-01;  4.0000000E+04;  0.0000000E+00;  3.8450137E+04;  9.3909419E-01;  0.0000000E+00;  3.4496340E-01;  1.8672498E+03;
  1.5537506E+00;  9.9999998E-03;  1.0138176E-02;9877;  1.4659269E+00;  0.0000000E+00;  3.1669082E-03;  9.9921881E+02;  1.1160055E-01; -5.4176648E+02;3; -1.1904317E+00;  0.0000000E+00;  8.5347301E-01;0;  1.2840574E+00;  3.3353723E+04;  0.0000000E+00;  2.7949247E-01;  4.0000000E+04;  0.0000000E+00;  3.8450137E+04;  9.3909460E-01;  0.0000000E+00;  3.4496284E-01;  1.8672496E+03;
  1.5537269E+00;  9.9999998E-03;  2.0269789E-02;9878;  1.4663810E+00;  0.0000000E+00;  6.3835727E-03;  9.9924078E+02;  1.1160003E-01; -5.2657892E+02;3; -1.4290764E+00;  0.0000000E+00;  1.7395754E+00;0;  1.2892354E+00;  3.3354840E+04;  0.0000000E+00;  1.1969025E+00;  4.0000000E+04;  0.0000000E+00;  3.8450883E+04;  9.5015550E-01;  0.0000000E+00;  3.3907986E-01;  1.8977086E+03;
  1.5636687E+00;  9.9999998E-03; -9.2369676E-02;9903;  1.5068314E+00;  0.0000000E+00; -4.7758464E-02;  9.9904211E+02;  1.1137706E-01; -6.5110583E+02;3; -9.6527796E+00;  0.0000000E+00; -1.0080632E+01;0;  1.6488378E+00;  3.3581023E+04;  0.0000000E+00;  1.4380381E+01;  4.0000000E+04;  0.0000000E+00;  3.8331293E+04;  1.4074832E+00;  0.0000000E+00;  2.4135464E-01;  6.2000840E+03;
  1.5638138E+00;  9.9999998E-03; -8.2060888E-02;9904;  1.5004457E+00;  0.0000000E+00; -4.1930944E-02;  9.9935901E+02;  1.1137519E-01; -4.3555881E+02;3; -4.8048930E+00;  0.0000000E+00; -1.0021613E+01;0;  1.5375501E+00;  3.3598660E+04;  0.0000000E+00;  1.4384419E+01;  4.0000000E+04;  0.0000000E+00;  3.8336961E+04;  1.2702160E+00;  0.0000000E+00;  2.6733410E-01;  5.9289170E+03;
  1.5639528E+00;  9.9999998E-03; -7.1737312E-02;9905;  1.4936463E+00;  0.0000000E+00; -3.5126094E-02;  9.9958380E+02;  1.1137448E-01; -2.8274319E+02;3; -1.5114483E+00;  0.0000000E+00; -8.8881159E+00;0;  1.4430833E+00;  3.3609559E+04;  0.0000000E+00;  1.3253417E+01;  4.0000000E+04;  0.0000000E+00;  3.8342578E+04;  1.1516604E+00;  0.0000000E+00;  2.9142290E-01;  5.2981704E+03;
  1.5640814E+00;  9.9999998E-03; -6.1408900E-02;9906;  1.4874318E+00;  0.0000000E+00; -2.8249182E-02;  9.9971588E+02;  1.1137403E-01; -1.9296478E+02;3;  5.8174473E-01;  0.0000000E+00; -7.4624186E+00;0;  1.3706553E+00;  3.3614934E+04;  0.0000000E+00;  1.1354573E+01;  4.0000000E+04;  0.0000000E+00;  3.8347242E+04;  1.0568215E+00;  0.0000000E+00;  3.1383380E-01;  4.4551929E+03;
  1.5640814E+00;  9.9999998E-03;  6.1408907E-02;9918;  1.4874309E+00;  0.0000000E+00;  2.8249793E-02;  9.9971582E+02;  1.1137402E-01; -1.9300526E+02;3;  5.8159840E-01;  0.0000000E+00;  7.4623098E+00;0;  1.3706453E+00;  3.3614938E+04;  0.0000000E+00;  1.1354634E+01;  4.0000000E+04;  0.0000000E+00;  3.8347242E+04;  1.0568134E+00;  0.0000000E+00;  3.1383198E-01;  4.4552236E+03;
  1.5641943E+00;  9.9999998E-03; -5.1090006E-02;9907;  1.4823753E+00;  0.0000000E+00; -2.1616127E-02;  9.9975671E+02;  1.1137293E-01; -1.6519731E+02;3;  1.8670942E+00;  0.0000000E+00; -5.9381337E+00;0;  1.3194391E+00;  3.3615785E+04;  0.0000000E+00;  8.9765539E+00;  4.0000000E+04;  0.0000000E+00;  3.8349863E+04;  9.8582286E-01;  0.0000000E+00;  3.3361623E-01;  3.5249822E+03;
  1.5641943E+00;  9.9999998E-03;  5.1090013E-02;9917;  1.4823759E+00;  0.0000000E+00;  2.1617217E-02;  9.9975677E+02;  1.1137291E-01; -1.6515685E+02;3;  1.8673750E+00;  0.0000000E+00;  5.9382253E+00;0;  1.3194417E+00;  3.3615793E+04;  0.0000000E+00;  8.9765635E+00;  4.0000000E+04;  0.0000000E+00;  3.8349867E+04;  9.8582631E-01;  0.0000000E+00;  3.3361536E-01;  3.5249761E+03;
  1.5642880E+00;  9.9999998E-03; -4.0789358E-02;9908;  1.4786283E+00;  0.0000000E+00; -1.5791217E-02;  9.9973938E+02;  1.1137260E-01; -1.7689870E+02;3;  2.6693635E+00;  0.0000000E+00; -4.4767966E+00;0;  1.2860662E+00;  3.3614336E+04;  0.0000000E+00;  6.4551578E+00;  4.0000000E+04;  0.0000000E+00;  3.8350832E+04;  9.3553168E-01;  0.0000000E+00;  3.5053450E-01;  2.6396091E+03;
  1.5642880E+00;  9.9999998E-03;  4.0789366E-02;9916;  1.4786284E+00;  0.0000000E+00;  1.5792191E-02;  9.9973944E+02;  1.1137260E-01; -1.7685822E+02;3;  2.6696734E+00;  0.0000000E+00;  4.4768806E+00;0;  1.2860653E+00;  3.3614352E+04;  0.0000000E+00;  6.4551644E+00;  4.0000000E+04;  0.0000000E+00;  3.8350836E+04;  9.3553180E-01;  0.0000000E+00;  3.5053360E-01;  2.6396050E+03;
  1.5643610E+00;  9.9999998E-03; -3.0521234E-02;9909;  1.4760621E+00;  0.0000000E+00; -1.0893728E-02;  9.9968280E+02;  1.1137242E-01; -2.1530432E+02;3;  3.1978617E+00;  0.0000000E+00; -3.1415217E+00;0;  1.2657065E+00;  3.3611215E+04;  0.0000000E+00;  4.0260572E+00;  4.0000000E+04;  0.0000000E+00;  3.8349598E+04;  9.0165466E-01;  0.0000000E+00;  3.6405182E-01;  1.9269801E+03;
  1.5643610E+00;  9.9999998E-03;  3.0521238E-02;9915;  1.4760621E+00;  0.0000000E+00;  1.0894714E-02;  9.9968280E+02;  1.1137242E-01; -2.1530432E+02;3;  3.1978893E+00;  0.0000000E+00;  3.1415775E+00;0;  1.2657050E+00;  3.3611223E+04;  0.0000000E+00;  4.0260572E+00;  4.0000000E+04;  0.0000000E+00;  3.8349602E+04;  9.0165466E-01;  0.0000000E+00;  3.6405030E-01;  1.9269817E+03;
  1.5644128E+00;  9.9999998E-03; -2.0313337E-02;9910;  1.4744872E+00;  0.0000000E+00; -6.7852493E-03;  9.9959064E+02;  1.1137179E-01; -2.7781821E+02;3;  3.5336759E+00;  0.0000000E+00; -1.9533899E+00;0;  1.2543442E+00;  3.3607762E+04;  0.0000000E+00;  1.8946217E+00;  4.0000000E+04;  0.0000000E+00;  3.8346527E+04;  8.8056880E-01;  0.0000000E+00;  3.7377548E-01;  1.5343228E+03;
  1.5644128E+00;  9.9999998E-03;  2.0313349E-02;9914;  1.4744869E+00;  0.0000000E+00;  6.7862547E-03;  9.9959064E+02;  1.1137182E-01; -2.7781821E+02;3;  3.5336776E+00;  0.0000000E+00;  1.9534457E+00;0;  1.2543416E+00;  3.3607766E+04;  0.0000000E+00;  1.8945819E+00;  4.0000000E+04;  0.0000000E+00;  3.8346527E+04;  8.8056701E-01;  0.0000000E+00;  3.7377459E-01;  1.5343132E+03;
  1.5644439E+00;  9.9999998E-03; -1.0154180E-02;9911;  1.4737493E+00;  0.0000000E+00; -3.2342717E-03;  9.9951733E+02;  1.1137253E-01; -3.2755170E+02;3;  3.7346210E+00;  0.0000000E+00; -9.2867255E-01;0;  1.2493682E+00;  3.3604980E+04;  0.0000000E+00;  4.6902201E-01;  4.0000000E+04;  0.0000000E+00;  3.8343656E+04;  8.6976504E-01;  0.0000000E+00;  3.7960309E-01;  1.4632582E+03;
  1.5644540E+00;  9.9999998E-03;  5.1216791E-09;9912;  1.4735330E+00;  0.0000000E+00;  5.0349803E-07;  9.9949469E+02;  1.1137188E-01; -3.4291486E+02;3;  3.8049517E+00;  0.0000000E+00;  2.8744340E-05;0;  1.2479738E+00;  3.3604266E+04;  0.0000000E+00;  3.2481520E-12;  4.0000000E+04;  0.0000000E+00;  3.8342766E+04;  8.6642480E-01;  0.0000000E+00;  3.8154903E-01;  1.4758617E+03;
  1.5644439E+00;  9.9999998E-03;  1.0154190E-02;9913;  1.4737493E+00;  0.0000000E+00;  3.2352807E-03;  9.9951733E+02;  1.1137199E-01; -3.2755170E+02;3;  3.7346101E+00;  0.0000000E+00;  9.2871767E-01;0;  1.2493684E+00;  3.3604980E+04;  0.0000000E+00;  4.6900314E-01;  4.0000000E+04;  0.0000000E+00;  3.8343652E+04;  8.6976564E-01;  0.0000000E+00;  3.7960276E-01;  1.4632521E+03;
  1.5744399E+00;  9.9999998E-03; -9.2560336E-02;9937;  1.5177153E+00;  0.0000000E+00; -4.7839873E-02;  9.9948059E+02;  1.1118618E-01; -3.4491656E+02;3; -6.9925327E+00;  0.0000000E+00; -9.5523109E+00;0;  1.6482782E+00;  3.3815973E+04;  0.0000000E+00;  4.3958631E+00;  4.0000000E+04;  0.0000000E+00;  3.8229996E+04;  1.3727386E+00;  0.0000000E+00;  2.7553958E-01;  2.4888416E+03;
  1.5745677E+00;  9.9999998E-03; -8.2269035E-02;9938;  1.5129628E+00;  0.0000000E+00; -4.3053247E-02;  9.9973615E+02;  1.1118539E-01; -1.7517914E+02;3; -1.2112116E+00;  0.0000000E+00; -9.8387976E+00;0;  1.5572772E+00;  3.3831551E+04;  0.0000000E+00;  6.5887299E+00;  4.0000000E+04;  0.0000000E+00;  3.8232004E+04;  1.2537124E+00;  0.0000000E+00;  3.0356476E-01;  2.9401353E+03;
  1.5746886E+00;  9.9999998E-03; -7.1958549E-02;9939;  1.5070676E+00;  0.0000000E+00; -3.7303440E-02;  9.9994989E+02;  1.1118513E-01; -3.3269928E+01;3;  2.8491650E+00;  0.0000000E+00; -9.3336544E+00;0;  1.4689608E+00;  3.3843184E+04;  0.0000000E+00;  7.6461887E+00;  4.0000000E+04;  0.0000000E+00;  3.8235938E+04;  1.1406790E+00;  0.0000000E+00;  3.2828173E-01;  3.0398320E+03;
  1.5748004E+00;  9.9999998E-03; -6.1635889E-02;9940;  1.5005778E+00;  0.0000000E+00; -3.1058395E-02;  1.0001030E+03;  1.1118434E-01;  6.8342560E+01;3;  5.4955420E+00;  0.0000000E+00; -8.2694998E+00;0;  1.3879875E+00;  3.3849898E+04;  0.0000000E+00;  7.6634831E+00;  4.0000000E+04;  0.0000000E+00;  3.8240262E+04;  1.0380852E+00;  0.0000000E+00;  3.4990224E-01;  2.8459080E+03;
  1.5748004E+00;  9.9999998E-03;  6.1635893E-02;9952;  1.5005779E+00;  0.0000000E+00;  3.1059356E-02;  1.0001030E+03;  1.1118434E-01;  6.8342560E+01;3;  5.4956779E+00;  0.0000000E+00;  8.2694912E+00;0;  1.3879883E+00;  3.3849910E+04;  0.0000000E+00;  7.6635461E+00;  4.0000000E+04;  0.0000000E+00;  3.8240262E+04;  1.0380872E+00;  0.0000000E+00;  3.4990114E-01;  2.8459280E+03;
  1.5749000E+00;  9.9999998E-03; -5.1307477E-02;9941;  1.4943200E+00;  0.0000000E+00; -2.4604507E-02;  1.0001831E+03;  1.1118396E-01;  1.2147086E+02;3;  7.0361357E+00;  0.0000000E+00; -6.8750863E+00;0;  1.3202000E+00;  3.3852586E+04;  0.0000000E+00;  6.8788257E+00;  4.0000000E+04;  0.0000000E+00;  3.8243938E+04;  9.5196611E-01;  0.0000000E+00;  3.6823386E-01;  2.4498357E+03;
  1.5749000E+00;  9.9999998E-03;  5.1307488E-02;9951;  1.4943193E+00;  0.0000000E+00;  2.4605112E-02;  1.0001830E+03;  1.1118428E-01;  1.2139177E+02;3;  7.0353675E+00;  0.0000000E+00;  6.8749905E+00;0;  1.3201907E+00;  3.3852582E+04;  0.0000000E+00;  6.8787618E+00;  4.0000000E+04;  0.0000000E+00;  3.8243934E+04;  9.5195830E-01;  0.0000000E+00;  3.6823243E-01;  2.4498184E+03;
  1.5749850E+00;  9.9999998E-03; -4.0984318E-02;9942;  1.4892485E+00;  0.0000000E+00; -1.8388849E-02;  1.0001973E+03;  1.1118387E-01;  1.3085683E+02;3;  7.8961172E+00;  0.0000000E+00; -5.3377500E+00;0;  1.2717996E+00;  3.3851965E+04;  0.0000000E+00;  5.5001168E+00;  4.0000000E+04;  0.0000000E+00;  3.8246000E+04;  8.8828784E-01;  0.0000000E+00;  3.8351175E-01;  1.9406995E+03;
  1.5749850E+00;  9.9999998E-03;  4.0984325E-02;9950;  1.4892485E+00;  0.0000000E+00;  1.8389819E-02;  1.0001973E+03;  1.1118387E-01;  1.3085683E+02;3;  7.8961163E+00;  0.0000000E+00;  5.3377957E+00;0;  1.2717980E+00;  3.3851988E+04;  0.0000000E+00;  5.5001092E+00;  4.0000000E+04;  0.0000000E+00;  3.8246000E+04;  8.8828731E-01;  0.0000000E+00;  3.8351071E-01;  1.9406914E+03;
  1.5750533E+00;  9.9999998E-03; -3.0684335E-02;9943;  1.4855880E+00;  0.0000000E+00; -1.2687264E-02;  1.0001499E+03;  1.1118414E-01;  9.9372780E+01;3;  8.3887129E+00;  0.0000000E+00; -3.7940450E+00;0;  1.2410324E+00;  3.3849434E+04;  0.0000000E+00;  3.7138057E+00;  4.0000000E+04;  0.0000000E+00;  3.8245160E+04;  8.4532654E-01;  0.0000000E+00;  3.9570588E-01;  1.4199283E+03;
  1.5751032E+00;  9.9999998E-03; -2.0421457E-02;9944;  1.4832307E+00;  0.0000000E+00; -7.8068622E-03;  1.0000652E+03;  1.1118348E-01;  4.3238552E+01;3;  8.6885281E+00;  0.0000000E+00; -2.3698609E+00;0;  1.2237568E+00;  3.3846270E+04;  0.0000000E+00;  1.8903103E+00;  4.0000000E+04;  0.0000000E+00;  3.8242254E+04;  8.1896454E-01;  0.0000000E+00;  4.0479219E-01;  1.0589166E+03;
  1.5751032E+00;  9.9999998E-03;  2.0421464E-02;9948;  1.4832307E+00;  0.0000000E+00;  7.8078764E-03;  1.0000652E+03;  1.1118348E-01;  4.3238552E+01;3;  8.6884794E+00;  0.0000000E+00;  2.3699250E+00;0;  1.2237556E+00;  3.3846270E+04;  0.0000000E+00;  1.8902842E+00;  4.0000000E+04;  0.0000000E+00;  3.8242254E+04;  8.1896424E-01;  0.0000000E+00;  4.0479136E-01;  1.0589027E+03;
  1.5750533E+00;  9.9999998E-03;  3.0684343E-02;9949;  1.4855884E+00;  0.0000000E+00;  1.2688231E-02;  1.0001499E+03;  1.1118414E-01;  9.9372780E+01;3;  8.3888187E+00;  0.0000000E+00;  3.7940855E+00;0;  1.2410355E+00;  3.3849434E+04;  0.0000000E+00;  3.7137985E+00;  4.0000000E+04;  0.0000000E+00;  3.8245156E+04;  8.4533054E-01;  0.0000000E+00;  3.9570495E-01;  1.4199330E+03;
  1.5751339E+00;  9.9999998E-03; -1.0202582E-02;9945;  1.4820461E+00;  0.0000000E+00; -3.6941287E-03;  9.9998303E+02;  1.1118364E-01; -1.1263384E+01;3;  8.8495693E+00;  0.0000000E+00; -1.1210440E+00;0;  1.2163974E+00;  3.3843199E+04;  0.0000000E+00;  4.9925858E-01;  4.0000000E+04;  0.0000000E+00;  3.8239246E+04;  8.0596226E-01;  0.0000000E+00;  4.1043511E-01;  9.7012518E+02;
  1.5751439E+00;  9.9999998E-03;  4.1819259E-09;9946;  1.4817203E+00;  0.0000000E+00;  5.0768085E-07;  9.9995111E+02;  1.1118384E-01; -3.2406204E+01;3;  8.9038973E+00;  0.0000000E+00;  3.4108758E-05;0;  1.2147126E+00;  3.3842387E+04;  0.0000000E+00;  1.1623627E-11;  4.0000000E+04;  0.0000000E+00;  3.8237859E+04;  8.0236459E-01;  0.0000000E+00;  4.1234803E-01;  9.8648810E+02;
  1.5751339E+00;  9.9999998E-03;  1.0202591E-02;9947;  1.4820470E+00;  0.0000000E+00;  3.6952111E-03;  9.9998309E+02;  1.1118372E-01; -1.1223862E+01;3;  8.8498707E+00;  0.0000000E+00;  1.1211246E+00;0;  1.2164042E+00;  3.3843191E+04;  0.0000000E+00;  4.9923876E-01;  4.0000000E+04;  0.0000000E+00;  3.8239246E+04;  8.0596918E-01;  0.0000000E+00;  4.1043502E-01;  9.7011108E+02;
  1.5852003E+00;  9.9999998E-03; -9.2700958E-02;9968;  1.5251577E+00;  0.0000000E+00; -4.8509110E-02;  1.0001027E+03;  1.1102620E-01;  6.6580780E+01;3; -5.2061582E+00;  0.0000000E+00; -9.8827896E+00;0;  1.6030722E+00;  3.4036105E+04;  0.0000000E+00; -3.9527140E+00;  4.0000000E+04;  0.0000000E+00;  3.8138992E+04;  1.2945480E+00;  0.0000000E+00;  3.0852413E-01;  4.3358749E+02;
  1.5853156E+00;  9.9999998E-03; -8.2427926E-02;9969;  1.5211679E+00;  0.0000000E+00; -4.3535277E-02;  1.0002629E+03;  1.1102572E-01;  1.7026794E+02;3;  1.2142612E+00;  0.0000000E+00; -1.0071196E+01;0;  1.5295397E+00;  3.4049977E+04;  0.0000000E+00; -1.8062299E+00;  4.0000000E+04;  0.0000000E+00;  3.8135934E+04;  1.1949555E+00;  0.0000000E+00;  3.3458421E-01;  3.3701834E+02;
  1.5854238E+00;  9.9999998E-03; -7.2134972E-02;9970;  1.5160917E+00;  0.0000000E+00; -3.8086344E-02;  1.0004167E+03;  1.1102547E-01;  2.6988922E+02;3;  6.0325913E+00;  0.0000000E+00; -9.7478523E+00;0;  1.4549648E+00;  3.4060941E+04;  0.0000000E+00;  7.3273279E-02;  4.0000000E+04;  0.0000000E+00;  3.8135594E+04;  1.0962175E+00;  0.0000000E+00;  3.5874727E-01;  6.4813428E+02;
  1.5855229E+00;  9.9999998E-03; -6.1823625E-02;9971;  1.5106976E+00;  0.0000000E+00; -3.2550126E-02;  1.0005519E+03;  1.1102518E-01;  3.5735037E+02;3;  9.3822556E+00;  0.0000000E+00; -8.9657450E+00;0;  1.3875407E+00;  3.4068309E+04;  0.0000000E+00;  1.4219806E+00;  4.0000000E+04;  0.0000000E+00;  3.8137633E+04;  1.0068742E+00;  0.0000000E+00;  3.8066649E-01;  8.4654077E+02;
  1.5855229E+00;  9.9999998E-03;  6.1823625E-02;9983;  1.5106977E+00;  0.0000000E+00;  3.2550547E-02;  1.0005519E+03;  1.1102519E-01;  3.5735037E+02;3;  9.3825541E+00;  0.0000000E+00;  8.9657049E+00;0;  1.3875399E+00;  3.4068320E+04;  0.0000000E+00;  1.4222491E+00;  4.0000000E+04;  0.0000000E+00;  3.8137633E+04;  1.0068758E+00;  0.0000000E+00;  3.8066408E-01;  8.4661560E+02;
  1.5856106E+00;  9.9999998E-03; -5.1499095E-02;9972;  1.5048648E+00;  0.0000000E+00; -2.6799312E-02;  1.0006523E+03;  1.1102507E-01;  4.2225027E+02;3;  1.1553382E+01;  0.0000000E+00; -7.7810779E+00;0;  1.3216695E+00;  3.4072988E+04;  0.0000000E+00;  2.1447608E+00;  4.0000000E+04;  0.0000000E+00;  3.8140414E+04;  9.2270768E-01;  0.0000000E+00;  3.9896175E-01;  8.8982947E+02;
  1.5856106E+00;  9.9999998E-03;  5.1499113E-02;9982;  1.5048653E+00;  0.0000000E+00;  2.6800506E-02;  1.0006523E+03;  1.1102513E-01;  4.2225027E+02;3;  1.1552971E+01;  0.0000000E+00;  7.7811394E+00;0;  1.3216766E+00;  3.4072973E+04;  0.0000000E+00;  2.1444728E+00;  4.0000000E+04;  0.0000000E+00;  3.8140418E+04;  9.2271549E-01;  0.0000000E+00;  3.9896110E-01;  8.8973877E+02;
  1.5856860E+00;  9.9999998E-03; -4.1170724E-02;9973;  1.4992989E+00;  0.0000000E+00; -2.0850049E-02;  1.0006958E+03;  1.1102508E-01;  4.5033612E+02;3;  1.2797492E+01;  0.0000000E+00; -6.2891154E+00;0;  1.2635312E+00;  3.4074078E+04;  0.0000000E+00;  2.2277374E+00;  4.0000000E+04;  0.0000000E+00;  3.8142332E+04;  8.5009861E-01;  0.0000000E+00;  4.1343266E-01;  7.9636237E+02;
  1.5856860E+00;  9.9999998E-03;  4.1170727E-02;9981;  1.4992971E+00;  0.0000000E+00;  2.0850653E-02;  1.0006957E+03;  1.1102510E-01;  4.5025897E+02;3;  1.2797543E+01;  0.0000000E+00;  6.2891483E+00;0;  1.2635071E+00;  3.4074078E+04;  0.0000000E+00;  2.2277627E+00;  4.0000000E+04;  0.0000000E+00;  3.8142332E+04;  8.5007620E-01;  0.0000000E+00;  4.1343090E-01;  7.9637170E+02;
  1.5857474E+00;  9.9999998E-03; -3.0853702E-02;9974;  1.4947411E+00;  0.0000000E+00; -1.4870561E-02;  1.0006730E+03;  1.1102566E-01;  4.3546014E+02;3;  1.3431538E+01;  0.0000000E+00; -4.6305981E+00;0;  1.2195549E+00;  3.4072777E+04;  0.0000000E+00;  1.7267112E+00;  4.0000000E+04;  0.0000000E+00;  3.8142039E+04;  7.9509121E-01;  0.0000000E+00;  4.2446366E-01;  6.1134143E+02;
  1.5857474E+00;  9.9999998E-03;  3.0853711E-02;9980;  1.4947407E+00;  0.0000000E+00;  1.4871568E-02;  1.0006730E+03;  1.1102538E-01;  4.3546014E+02;3;  1.3431417E+01;  0.0000000E+00;  4.6306663E+00;0;  1.2195494E+00;  3.4072773E+04;  0.0000000E+00;  1.7267014E+00;  4.0000000E+04;  0.0000000E+00;  3.8142039E+04;  7.9508644E-01;  0.0000000E+00;  4.2446294E-01;  6.1132751E+02;
  1.5858201E+00;  9.9999998E-03; -1.0281787E-02;9976;  1.4900552E+00;  0.0000000E+00; -4.4792444E-03;  1.0005557E+03;  1.1102541E-01;  3.5956931E+02;3;  1.3963343E+01;  0.0000000E+00; -1.4466779E+00;0;  1.1810338E+00;  3.4068562E+04;  0.0000000E+00;  2.2874004E-01;  4.0000000E+04;  0.0000000E+00;  3.8137434E+04;  7.4317932E-01;  0.0000000E+00;  4.3785456E-01;  4.0567294E+02;
  1.5858201E+00;  9.9999998E-03;  1.0281798E-02;9978;  1.4900542E+00;  0.0000000E+00;  4.4802930E-03;  1.0005557E+03;  1.1102539E-01;  3.5956931E+02;3;  1.3962976E+01;  0.0000000E+00;  1.4467723E+00;0;  1.1810235E+00;  3.4068551E+04;  0.0000000E+00;  2.2871575E-01;  4.0000000E+04;  0.0000000E+00;  3.8137430E+04;  7.4316871E-01;  0.0000000E+00;  4.3785477E-01;  4.0561844E+02;
  1.5857927E+00;  9.9999998E-03; -2.0559296E-02;9975;  1.4916877E+00;  0.0000000E+00; -9.3348427E-03;  1.0006103E+03;  1.1102539E-01;  3.9484207E+02;3;  1.3771579E+01;  0.0000000E+00; -2.9807081E+00;0;  1.1932322E+00;  3.4070297E+04;  0.0000000E+00;  9.0872240E-01;  4.0000000E+04;  0.0000000E+00;  3.8139863E+04;  7.6059389E-01;  0.0000000E+00;  4.3263832E-01;  4.4517270E+02;
  1.5857927E+00;  9.9999998E-03;  2.0559305E-02;9979;  1.4916874E+00;  0.0000000E+00;  9.3357861E-03;  1.0006103E+03;  1.1102539E-01;  3.9484207E+02;3;  1.3771542E+01;  0.0000000E+00;  2.9807873E+00;0;  1.1932290E+00;  3.4070297E+04;  0.0000000E+00;  9.0869635E-01;  4.0000000E+04;  0.0000000E+00;  3.8139863E+04;  7.6059103E-01;  0.0000000E+00;  4.3263790E-01;  4.4516373E+02;
  1.5858294E+00;  9.9999998E-03;  4.5547459E-09;9977;  1.4895619E+00;  0.0000000E+00;  5.0293374E-07;  1.0005388E+03;  1.1102560E-01;  3.4860953E+02;3;  1.4016087E+01;  0.0000000E+00;  4.0665269E-05;0;  1.1777728E+00;  3.4067777E+04;  0.0000000E+00;  1.6454097E-11;  4.0000000E+04;  0.0000000E+00;  3.8136984E+04;  7.3812282E-01;  0.0000000E+00;  4.3964991E-01;  4.1145923E+02;
  1.5959388E+00;  9.9999998E-03; -9.2826627E-02;9995;  1.5298530E+00;  0.0000000E+00; -5.1725548E-02;  1.0006755E+03;  1.1089562E-01;  4.2662439E+02;3; -3.6383214E+00;  0.0000000E+00; -1.1875712E+01;0;  1.5222141E+00;  3.4238285E+04;  0.0000000E+00; -2.3069041E+00;  4.0000000E+04;  0.0000000E+00;  3.8046328E+04;  1.1697721E+00;  0.0000000E+00;  3.5244191E-01;  8.0136426E+02;
  1.5960475E+00;  9.9999998E-03; -8.2568564E-02;9996;  1.5275165E+00;  0.0000000E+00; -4.6065778E-02;  1.0007693E+03;  1.1089507E-01;  4.8574283E+02;3;  2.8125412E+00;  0.0000000E+00; -1.1630839E+01;0;  1.4798124E+00;  3.4250910E+04;  0.0000000E+00; -4.0154872E+00;  4.0000000E+04;  0.0000000E+00;  3.8039727E+04;  1.1082737E+00;  0.0000000E+00;  3.7153864E-01;  8.0905548E+02;
  1.5961454E+00;  9.9999998E-03; -7.2294191E-02;9997;  1.5235358E+00;  0.0000000E+00; -4.0736660E-02;  1.0008848E+03;  1.1089411E-01;  5.5846350E+02;3;  8.3900061E+00;  0.0000000E+00; -1.0993625E+01;0;  1.4269645E+00;  3.4263242E+04;  0.0000000E+00; -4.1065044E+00;  4.0000000E+04;  0.0000000E+00;  3.8035418E+04;  1.0339096E+00;  0.0000000E+00;  3.9305490E-01;  7.0264514E+02;
  1.5962340E+00;  9.9999998E-03; -6.2002867E-02;9998;  1.5189414E+00;  0.0000000E+00; -3.5352439E-02;  1.0009932E+03;  1.1089297E-01;  6.2672540E+02;3;  1.2422215E+01;  0.0000000E+00; -1.0140895E+01;0;  1.3735713E+00;  3.4272742E+04;  0.0000000E+00; -3.4831760E+00;  4.0000000E+04;  0.0000000E+00;  3.8033785E+04;  9.6074152E-01;  0.0000000E+00;  4.1282979E-01;  5.4573224E+02;
  1.5962340E+00;  9.9999998E-03;  6.2002890E-02;10010;  1.5189419E+00;  0.0000000E+00;  3.5353750E-02;  1.0009932E+03;  1.1089294E-01;  6.2680060E+02;3;  1.2421674E+01;  0.0000000E+00;  1.0140976E+01;0;  1.3735793E+00;  3.4272695E+04;  0.0000000E+00; -3.4835198E+00;  4.0000000E+04;  0.0000000E+00;  3.8033785E+04;  9.6074915E-01;  0.0000000E+00;  4.1283014E-01;  5.4581427E+02;
  1.5963123E+00;  9.9999998E-03; -5.1692721E-02;9999;  1.5144833E+00;  0.0000000E+00; -2.9688749E-02;  1.0010941E+03;  1.1089168E-01;  6.9031177E+02;3;  1.5465245E+01;  0.0000000E+00; -8.8724747E+00;0;  1.3265874E+00;  3.4279129E+04;  0.0000000E+00; -2.5979838E+00;  4.0000000E+04;  0.0000000E+00;  3.8034734E+04;  8.9743710E-01;  0.0000000E+00;  4.2915037E-01;  3.8715848E+02;
  1.5963123E+00;  9.9999998E-03;  5.1692721E-02;10009;  1.5144832E+00;  0.0000000E+00;  2.9689103E-02;  1.0010941E+03;  1.1089166E-01;  6.9031177E+02;3;  1.5464642E+01;  0.0000000E+00;  8.8721952E+00;0;  1.3265834E+00;  3.4279156E+04;  0.0000000E+00; -2.5978413E+00;  4.0000000E+04;  0.0000000E+00;  3.8034734E+04;  8.9743596E-01;  0.0000000E+00;  4.2914745E-01;  3.8711612E+02;
  1.5963784E+00;  9.9999998E-03; -4.1368213E-02;10000;  1.5103275E+00;  0.0000000E+00; -2.4008742E-02;  1.0011845E+03;  1.1089107E-01;  7.4720331E+02;3;  1.7417646E+01;  0.0000000E+00; -7.4080267E+00;0;  1.2859807E+00;  3.4283320E+04;  0.0000000E+00; -1.7152098E+00;  4.0000000E+04;  0.0000000E+00;  3.8036938E+04;  8.4360373E-01;  0.0000000E+00;  4.4237703E-01;  2.5945422E+02;
  1.5963784E+00;  9.9999998E-03;  4.1368227E-02;10008;  1.5103267E+00;  0.0000000E+00;  2.4009239E-02;  1.0011844E+03;  1.1089101E-01;  7.4720331E+02;3;  1.7416796E+01;  0.0000000E+00;  7.4078746E+00;0;  1.2859672E+00;  3.4283324E+04;  0.0000000E+00; -1.7152987E+00;  4.0000000E+04;  0.0000000E+00;  3.8036938E+04;  8.4359241E-01;  0.0000000E+00;  4.4237480E-01;  2.5945660E+02;
  1.5964693E+00;  9.9999998E-03; -2.0706048E-02;10002;  1.5044070E+00;  0.0000000E+00; -1.2087487E-02;  1.0012729E+03;  1.1089103E-01;  8.0282501E+02;3;  1.9387020E+01;  0.0000000E+00; -3.8461359E+00;0;  1.2332532E+00;  3.4286641E+04;  0.0000000E+00; -5.0429004E-01;  4.0000000E+04;  0.0000000E+00;  3.8039969E+04;  7.7465075E-01;  0.0000000E+00;  4.5860243E-01;  1.6033960E+02;
  1.5964924E+00;  9.9999998E-03; -1.0364969E-02;10003;  1.5028578E+00;  0.0000000E+00; -5.9913890E-03;  1.0012958E+03;  1.1089041E-01;  8.1721448E+02;3;  1.9777292E+01;  0.0000000E+00; -1.9407946E+00;0;  1.2203636E+00;  3.4287160E+04;  0.0000000E+00; -1.6210717E-01;  4.0000000E+04;  0.0000000E+00;  3.8041047E+04;  7.5795627E-01;  0.0000000E+00;  4.6240735E-01;  1.6404839E+02;
  1.5964924E+00;  9.9999998E-03;  1.0364977E-02;10005;  1.5028582E+00;  0.0000000E+00;  5.9922654E-03;  1.0012958E+03;  1.1089028E-01;  8.1721448E+02;3;  1.9776653E+01;  0.0000000E+00;  1.9408315E+00;0;  1.2203677E+00;  3.4287164E+04;  0.0000000E+00; -1.6210985E-01;  4.0000000E+04;  0.0000000E+00;  3.8041051E+04;  7.5796092E-01;  0.0000000E+00;  4.6240678E-01;  1.6399243E+02;
  1.5964693E+00;  9.9999998E-03;  2.0706056E-02;10006;  1.5044056E+00;  0.0000000E+00;  1.2088102E-02;  1.0012729E+03;  1.1089107E-01;  8.0282501E+02;3;  1.9386782E+01;  0.0000000E+00;  3.8462291E+00;0;  1.2332317E+00;  3.4286625E+04;  0.0000000E+00; -5.0427729E-01;  4.0000000E+04;  0.0000000E+00;  3.8039969E+04;  7.7463001E-01;  0.0000000E+00;  4.5860168E-01;  1.6036362E+02;
  1.5964310E+00;  9.9999998E-03; -3.1035403E-02;10001;  1.5068989E+00;  0.0000000E+00; -1.8176170E-02;  1.0012481E+03;  1.1089088E-01;  7.8726019E+02;3;  1.8667351E+01;  0.0000000E+00; -5.7061100E+00;0;  1.2546865E+00;  3.4285789E+04;  0.0000000E+00; -9.7735602E-01;  4.0000000E+04;  0.0000000E+00;  3.8039039E+04;  8.0254418E-01;  0.0000000E+00;  4.5214233E-01;  1.8582954E+02;
  1.5964310E+00;  9.9999998E-03;  3.1035410E-02;10007;  1.5068986E+00;  0.0000000E+00;  1.8177683E-02;  1.0012480E+03;  1.1089088E-01;  7.8718500E+02;3;  1.8666182E+01;  0.0000000E+00;  5.7060556E+00;0;  1.2546835E+00;  3.4285824E+04;  0.0000000E+00; -9.7734576E-01;  4.0000000E+04;  0.0000000E+00;  3.8039043E+04;  8.0254155E-01;  0.0000000E+00;  4.5214194E-01;  1.8583093E+02;
  1.5965000E+00;  9.9999998E-03;  5.3274971E-09;10004;  1.5023003E+00;  0.0000000E+00;  5.1494953E-07;  1.0013129E+03;  1.1089035E-01;  8.2794995E+02;3;  1.9920603E+01;  0.0000000E+00;  4.7653913E-05;0;  1.2156200E+00;  3.4287680E+04;  0.0000000E+00;  2.6393899E-11;  4.0000000E+04;  0.0000000E+00;  3.8041777E+04;  7.5192457E-01;  0.0000000E+00;  4.6369553E-01;  1.7664752E+02;
  1.6066339E+00;  9.9999998E-03; -9.2877306E-02;10017;  1.5302818E+00;  0.0000000E+00; -5.6283921E-02;  1.0015668E+03;  1.1078414E-01;  9.6363977E+02;3; -2.7033968E+00;  0.0000000E+00; -1.5717811E+01;0;  1.3854530E+00;  3.4432238E+04;  0.0000000E+00;  1.7822594E+01;  4.0000000E+04;  0.0000000E+00;  3.7971957E+04;  9.7734600E-01;  0.0000000E+00;  4.0810692E-01;  3.4408423E+03;
  1.6067457E+00;  9.9999998E-03; -8.2646854E-02;10018;  1.5290260E+00;  0.0000000E+00; -5.0071076E-02;  1.0014603E+03;  1.1078457E-01;  8.9791412E+02;3;  3.5838523E+00;  0.0000000E+00; -1.5051866E+01;0;  1.3626800E+00;  3.4440652E+04;  0.0000000E+00;  8.7006359E+00;  4.0000000E+04;  0.0000000E+00;  3.7955355E+04;  9.4502652E-01;  0.0000000E+00;  4.1765347E-01;  1.9436511E+03;
  1.6068434E+00;  9.9999998E-03; -7.2394192E-02;10019;  1.5266906E+00;  0.0000000E+00; -4.4116028E-02;  1.0014503E+03;  1.1078487E-01;  8.9153931E+02;3;  9.0332308E+00;  0.0000000E+00; -1.3994547E+01;0;  1.3382249E+00;  3.4450027E+04;  0.0000000E+00;  3.2558520E+00;  4.0000000E+04;  0.0000000E+00;  3.7944504E+04;  9.0683818E-01;  0.0000000E+00;  4.3138665E-01;  1.1339608E+03;
  1.6069274E+00;  9.9999998E-03; -6.2127210E-02;10020;  1.5228698E+00;  0.0000000E+00; -3.8506351E-02;  1.0014852E+03;  1.1078439E-01;  9.1274561E+02;3;  1.3701885E+01;  0.0000000E+00; -1.2683633E+01;0;  1.2990692E+00;  3.4459582E+04;  0.0000000E+00;  2.9577392E-01;  4.0000000E+04;  0.0000000E+00;  3.7936582E+04;  8.5249949E-01;  0.0000000E+00;  4.4656968E-01;  7.5489191E+02;
  1.6069274E+00;  9.9999998E-03;  6.2127214E-02;10032;  1.5228698E+00;  0.0000000E+00;  3.8507193E-02;  1.0014852E+03;  1.1078439E-01;  9.1274561E+02;3;  1.3701839E+01;  0.0000000E+00;  1.2683601E+01;0;  1.2990685E+00;  3.4459602E+04;  0.0000000E+00;  2.9577550E-01;  4.0000000E+04;  0.0000000E+00;  3.7936582E+04;  8.5250032E-01;  0.0000000E+00;  4.4656819E-01;  7.5489301E+02;
  1.6069996E+00;  9.9999998E-03; -5.1838849E-02;10021;  1.5188954E+00;  0.0000000E+00; -3.2866854E-02;  1.0015610E+03;  1.1078358E-01;  9.5924255E+02;3;  1.7053629E+01;  0.0000000E+00; -1.1030138E+01;0;  1.2613738E+00;  3.4467730E+04;  0.0000000E+00; -1.0833405E+00;  4.0000000E+04;  0.0000000E+00;  3.7933648E+04;  8.0146247E-01;  0.0000000E+00;  4.5991135E-01;  6.4446564E+02;
  1.6069996E+00;  9.9999998E-03;  5.1838830E-02;10031;  1.5188956E+00;  0.0000000E+00;  3.2867789E-02;  1.0015610E+03;  1.1078370E-01;  9.5924255E+02;3;  1.7053570E+01;  0.0000000E+00;  1.1030166E+01;0;  1.2613779E+00;  3.4467719E+04;  0.0000000E+00; -1.0832447E+00;  4.0000000E+04;  0.0000000E+00;  3.7933668E+04;  8.0146712E-01;  0.0000000E+00;  4.5991078E-01;  6.4445526E+02;
  1.6070595E+00;  9.9999998E-03; -4.1529395E-02;10022;  1.5153004E+00;  0.0000000E+00; -2.7180916E-02;  1.0016694E+03;  1.1078294E-01;  1.0256753E+03;3;  1.9723236E+01;  0.0000000E+00; -9.2211390E+00;0;  1.2299314E+00;  3.4474402E+04;  0.0000000E+00; -1.4678483E+00;  4.0000000E+04;  0.0000000E+00;  3.7934289E+04;  7.5928020E-01;  0.0000000E+00;  4.7065112E-01;  6.2736011E+02;
  1.6070595E+00;  9.9999998E-03;  4.1529410E-02;10030;  1.5153008E+00;  0.0000000E+00;  2.7181899E-02;  1.0016694E+03;  1.1078294E-01;  1.0256753E+03;3;  1.9723269E+01;  0.0000000E+00;  9.2211695E+00;0;  1.2299368E+00;  3.4474414E+04;  0.0000000E+00; -1.4678714E+00;  4.0000000E+04;  0.0000000E+00;  3.7934289E+04;  7.5928652E-01;  0.0000000E+00;  4.7065026E-01;  6.2735864E+02;
  1.6071057E+00;  9.9999998E-03; -3.1192381E-02;10023;  1.5123689E+00;  0.0000000E+00; -2.1396942E-02;  1.0018178E+03;  1.1078250E-01;  1.1167322E+03;3;  2.1576042E+01;  0.0000000E+00; -7.2763147E+00;0;  1.2062483E+00;  3.4480203E+04;  0.0000000E+00; -1.2419026E+00;  4.0000000E+04;  0.0000000E+00;  3.7939047E+04;  7.2781855E-01;  0.0000000E+00;  4.7842976E-01;  6.5920135E+02;
  1.6071057E+00;  9.9999998E-03;  3.1192387E-02;10029;  1.5123684E+00;  0.0000000E+00;  2.1397829E-02;  1.0018178E+03;  1.1078250E-01;  1.1167322E+03;3;  2.1575932E+01;  0.0000000E+00;  7.2763824E+00;0;  1.2062395E+00;  3.4480203E+04;  0.0000000E+00; -1.2418907E+00;  4.0000000E+04;  0.0000000E+00;  3.7939047E+04;  7.2781050E-01;  0.0000000E+00;  4.7842899E-01;  6.5920496E+02;
  1.6071382E+00;  9.9999998E-03; -2.0826688E-02;10024;  1.5102181E+00;  0.0000000E+00; -1.5025373E-02;  1.0019736E+03;  1.1078265E-01;  1.2123492E+03;3;  2.2778746E+01;  0.0000000E+00; -5.0881743E+00;0;  1.1891223E+00;  3.4485156E+04;  0.0000000E+00; -7.2661597E-01;  4.0000000E+04;  0.0000000E+00;  3.7945402E+04;  7.0640999E-01;  0.0000000E+00;  4.8271236E-01;  7.3138751E+02;
  1.6071575E+00;  9.9999998E-03; -1.0433757E-02;10025;  1.5088828E+00;  0.0000000E+00; -7.8386702E-03;  1.0020984E+03;  1.1078192E-01;  1.2889559E+03;3;  2.3454689E+01;  0.0000000E+00; -2.6392143E+00;0;  1.1780005E+00;  3.4488156E+04;  0.0000000E+00; -2.2798635E-01;  4.0000000E+04;  0.0000000E+00;  3.7951336E+04;  6.9365519E-01;  0.0000000E+00;  4.8434526E-01;  8.1539838E+02;
  1.6071637E+00;  9.9999998E-03;  3.8772394E-09;10026;  1.5084022E+00;  0.0000000E+00;  4.6503405E-07;  1.0021556E+03;  1.1078146E-01;  1.3240095E+03;3;  2.3679989E+01;  0.0000000E+00;  5.1289797E-05;0;  1.1736321E+00;  3.4489637E+04;  0.0000000E+00;  1.0270397E-11;  4.0000000E+04;  0.0000000E+00;  3.7954098E+04;  6.8896961E-01;  0.0000000E+00;  4.8466247E-01;  8.6183887E+02;
  1.6071575E+00;  9.9999998E-03;  1.0433768E-02;10027;  1.5088829E+00;  0.0000000E+00;  7.8397086E-03;  1.0020984E+03;  1.1078191E-01;  1.2889559E+03;3;  2.3454571E+01;  0.0000000E+00;  2.6393015E+00;0;  1.1780020E+00;  3.4488152E+04;  0.0000000E+00; -2.2799245E-01;  4.0000000E+04;  0.0000000E+00;  3.7951336E+04;  6.9365674E-01;  0.0000000E+00;  4.8434526E-01;  8.1537891E+02;
  1.6071382E+00;  9.9999998E-03;  2.0826688E-02;10028;  1.5102172E+00;  0.0000000E+00;  1.5025886E-02;  1.0019734E+03;  1.1078268E-01;  1.2122028E+03;3;  2.2778585E+01;  0.0000000E+00;  5.0881066E+00;0;  1.1891062E+00;  3.4485176E+04;  0.0000000E+00; -7.2658300E-01;  4.0000000E+04;  0.0000000E+00;  3.7945402E+04;  7.0639521E-01;  0.0000000E+00;  4.8271099E-01;  7.3130188E+02;
  1.6176623E+00;  9.9999998E-03; -5.1878382E-02;10036;  1.5175802E+00;  0.0000000E+00; -3.3586591E-02;  1.0022464E+03;  1.1069230E-01;  1.3437468E+03;3;  1.7455481E+01;  0.0000000E+00; -1.4186239E+01;0;  1.0999317E+00;  3.4642336E+04;  0.0000000E+00;  1.0045276E+01;  4.0000000E+04;  0.0000000E+00;  3.7852391E+04;  6.1657566E-01;  0.0000000E+00;  4.8335606E-01;  2.1061624E+03;
  1.6176623E+00;  9.9999998E-03;  5.1878393E-02;10046;  1.5175803E+00;  0.0000000E+00;  3.3587519E-02;  1.0022464E+03;  1.1069226E-01;  1.3437468E+03;3;  1.7455568E+01;  0.0000000E+00;  1.4186188E+01;0;  1.0999334E+00;  3.4642328E+04;  0.0000000E+00;  1.0045378E+01;  4.0000000E+04;  0.0000000E+00;  3.7852391E+04;  6.1657846E-01;  0.0000000E+00;  4.8335499E-01;  2.1061726E+03;
  1.6177207E+00;  9.9999998E-03; -4.1591320E-02;10037;  1.5137241E+00;  0.0000000E+00; -2.7584275E-02;  1.0022825E+03;  1.1069171E-01;  1.3651512E+03;3;  2.0443707E+01;  0.0000000E+00; -1.1919440E+01;0;  1.0634344E+00;  3.4649066E+04;  0.0000000E+00;  6.2431445E+00;  4.0000000E+04;  0.0000000E+00;  3.7847457E+04;  5.7181436E-01;  0.0000000E+00;  4.9162006E-01;  1.6098737E+03;
  1.6177207E+00;  9.9999998E-03;  4.1591339E-02;10045;  1.5137247E+00;  0.0000000E+00;  2.7585855E-02;  1.0022825E+03;  1.1069168E-01;  1.3651511E+03;3;  2.0443176E+01;  0.0000000E+00;  1.1919491E+01;0;  1.0634462E+00;  3.4649059E+04;  0.0000000E+00;  6.2433176E+00;  4.0000000E+04;  0.0000000E+00;  3.7847457E+04;  5.7182503E-01;  0.0000000E+00;  4.9162114E-01;  1.6099260E+03;
  1.6177651E+00;  9.9999998E-03; -3.1272300E-02;10038;  1.5104616E+00;  0.0000000E+00; -2.1745032E-02;  1.0024125E+03;  1.1069173E-01;  1.4427042E+03;3;  2.2825396E+01;  0.0000000E+00; -9.4383297E+00;0;  1.0339845E+00;  3.4655672E+04;  0.0000000E+00;  3.5654304E+00;  4.0000000E+04;  0.0000000E+00;  3.7849809E+04;  5.3568047E-01;  0.0000000E+00;  4.9830404E-01;  1.4025891E+03;
  1.6177949E+00;  9.9999998E-03; -2.0895397E-02;10039;  1.5080483E+00;  0.0000000E+00; -1.5651355E-02;  1.0026450E+03;  1.1069171E-01;  1.5816721E+03;3;  2.4532856E+01;  0.0000000E+00; -6.7310433E+00;0;  1.0125217E+00;  3.4662551E+04;  0.0000000E+00;  1.6124361E+00;  4.0000000E+04;  0.0000000E+00;  3.7859625E+04;  5.1034522E-01;  0.0000000E+00;  5.0217658E-01;  1.4523826E+03;
  1.6178118E+00;  9.9999998E-03; -1.0459823E-02;10040;  1.5065575E+00;  0.0000000E+00; -8.4125474E-03;  1.0028658E+03;  1.1069120E-01;  1.7136185E+03;3;  2.5538961E+01;  0.0000000E+00; -3.5560873E+00;0;  9.9815810E-01;  3.4667734E+04;  0.0000000E+00;  3.9778942E-01;  4.0000000E+04;  0.0000000E+00;  3.7870590E+04;  4.9523541E-01;  0.0000000E+00;  5.0292265E-01;  1.5992922E+03;
  1.6178173E+00;  9.9999998E-03;  4.0624286E-09;10041;  1.5060326E+00;  0.0000000E+00;  4.9012590E-07;  1.0029519E+03;  1.1069126E-01;  1.7650598E+03;3;  2.5890409E+01;  0.0000000E+00;  5.1796436E-05;0;  9.9251080E-01;  3.4669648E+04;  0.0000000E+00;  7.4368688E-12;  4.0000000E+04;  0.0000000E+00;  3.7874742E+04;  4.8984018E-01;  0.0000000E+00;  5.0267065E-01;  1.6645034E+03;
  1.6178118E+00;  9.9999998E-03;  1.0459841E-02;10042;  1.5065566E+00;  0.0000000E+00;  8.4135206E-03;  1.0028658E+03;  1.1069120E-01;  1.7136185E+03;3;  2.5538872E+01;  0.0000000E+00;  3.5562010E+00;0;  9.9814308E-01;  3.4667719E+04;  0.0000000E+00;  3.9782229E-01;  4.0000000E+04;  0.0000000E+00;  3.7870594E+04;  4.9522063E-01;  0.0000000E+00;  5.0292248E-01;  1.5993231E+03;
  1.6177949E+00;  9.9999998E-03;  2.0895399E-02;10043;  1.5080482E+00;  0.0000000E+00;  1.5652539E-02;  1.0026451E+03;  1.1069115E-01;  1.5817434E+03;3;  2.4532106E+01;  0.0000000E+00;  6.7311440E+00;0;  1.0125204E+00;  3.4662535E+04;  0.0000000E+00;  1.6124356E+00;  4.0000000E+04;  0.0000000E+00;  3.7859621E+04;  5.1034385E-01;  0.0000000E+00;  5.0217658E-01;  1.4524292E+03;
  1.6177651E+00;  9.9999998E-03;  3.1272307E-02;10044;  1.5104610E+00;  0.0000000E+00;  2.1745227E-02;  1.0024125E+03;  1.1069176E-01;  1.4427755E+03;3;  2.2826519E+01;  0.0000000E+00;  9.4385471E+00;0;  1.0339726E+00;  3.4655676E+04;  0.0000000E+00;  3.5654685E+00;  4.0000000E+04;  0.0000000E+00;  3.7849805E+04;  5.3567106E-01;  0.0000000E+00;  4.9830157E-01;  1.4026000E+03;
  3.2612623E-03;  9.9999998E-03;  6.9961146E-02;2484;  8.8219848E-03;  0.0000000E+00; -1.8423281E-04;  9.8407709E+02;  1.0000000E-01; -1.3191824E+04;3;  8.7168365E+01;  0.0000000E+00;  6.1680861E-02;0;  3.4356281E-02;  3.8753043E+04;  0.0000000E+00; -4.4822330E-03;  4.0000000E+04;  0.0000000E+00;  3.9998898E+04;  3.6309771E-02;  0.0000000E+00; -1.9534896E-03;  1.1855535E+03;
  3.2706149E-03;  9.9999998E-03;  7.9964213E-02;2485;  8.8499011E-03;  0.0000000E+00; -2.5942907E-04;  9.8406927E+02;  1.0000000E-01; -1.3198293E+04;3;  8.6849037E+01;  0.0000000E+00; -4.4721536E-02;0;  3.4232263E-02;  3.8752844E+04;  0.0000000E+00; -6.2109013E-03;  4.0000000E+04;  0.0000000E+00;  3.9998531E+04;  3.6158208E-02;  0.0000000E+00; -1.9259439E-03;  1.1265349E+03;
  3.2795765E-03;  9.9999998E-03;  8.9969948E-02;2486;  8.8550756E-03;  0.0000000E+00; -3.3268516E-04;  9.8406012E+02;  1.0000000E-01; -1.3205898E+04;3;  8.6872032E+01;  0.0000000E+00; -2.4303378E-01;0;  3.4060653E-02;  3.8752273E+04;  0.0000000E+00; -9.8071601E-03;  4.0000000E+04;  0.0000000E+00;  3.9998195E+04;  3.5934031E-02;  0.0000000E+00; -1.8733792E-03;  1.1141208E+03;
  3.2877717E-03;  9.9999998E-03;  9.9977374E-02;2487;  8.8354433E-03;  0.0000000E+00; -3.9720038E-04;  9.8405084E+02;  1.0000000E-01; -1.3213552E+04;3;  8.7224884E+01;  0.0000000E+00; -5.5878943E-01;0;  3.3853374E-02;  3.8751336E+04;  0.0000000E+00; -1.6999478E-02;  4.0000000E+04;  0.0000000E+00;  3.9998324E+04;  3.5654396E-02;  0.0000000E+00; -1.8010201E-03;  1.1425173E+03;
  3.2943301E-03;  9.9999998E-03;  1.0998462E-01;2488;  8.7930653E-03;  0.0000000E+00; -4.4763746E-04;  9.8404559E+02;  1.0000000E-01; -1.3217947E+04;3;  8.7847008E+01;  0.0000000E+00; -1.0147138E+00;0;  3.3631265E-02;  3.8750508E+04;  0.0000000E+00; -3.0078793E-02;  4.0000000E+04;  0.0000000E+00;  3.9998398E+04;  3.5348918E-02;  0.0000000E+00; -1.7176545E-03;  1.2019082E+03;
  3.2979310E-03;  9.9999998E-03;  1.1998965E-01;2489;  8.7345876E-03;  0.0000000E+00; -4.8189764E-04;  9.8404468E+02;  1.0000000E-01; -1.3218688E+04;3;  8.8699989E+01;  0.0000000E+00; -1.6293572E+00;0;  3.3420585E-02;  3.8750102E+04;  0.0000000E+00; -5.1618751E-02;  4.0000000E+04;  0.0000000E+00;  3.9999504E+04;  3.5055470E-02;  0.0000000E+00; -1.6348852E-03;  1.2824501E+03;
  3.2969248E-03;  9.9999998E-03;  1.2999120E-01;2490;  8.6700832E-03;  0.0000000E+00; -4.9840333E-04;  9.8405762E+02;  1.0000000E-01; -1.3207972E+04;3;  8.9687904E+01;  0.0000000E+00; -2.4164720E+00;0;  3.3248853E-02;  3.8750363E+04;  0.0000000E+00; -8.3973043E-02;  4.0000000E+04;  0.0000000E+00;  4.0000719E+04;  3.4814581E-02;  0.0000000E+00; -1.5657296E-03;  1.3782288E+03;
  3.2890721E-03;  9.9999998E-03;  1.3998897E-01;2491;  8.6118225E-03;  0.0000000E+00; -4.9700658E-04;  9.8409607E+02;  1.0000000E-01; -1.3176121E+04;3;  9.0723000E+01;  0.0000000E+00; -3.3861399E+00;0;  3.3140022E-02;  3.8752859E+04;  0.0000000E+00; -1.2860160E-01;  4.0000000E+04;  0.0000000E+00;  4.0001305E+04;  3.4661476E-02;  0.0000000E+00; -1.5214533E-03;  1.4904723E+03;
  3.2717255E-03;  9.9999998E-03;  1.4998476E-01;2492;  8.5716369E-03;  0.0000000E+00; -4.8094062E-04;  9.8417810E+02;  1.0000000E-01; -1.3108123E+04;3;  9.1702461E+01;  0.0000000E+00; -4.5534019E+00;0;  3.3112042E-02;  3.8758242E+04;  0.0000000E+00; -1.8557633E-01;  4.0000000E+04;  0.0000000E+00;  4.0002789E+04;  3.4618583E-02;  0.0000000E+00; -1.5065406E-03;  1.6277896E+03;
  3.2414831E-03;  9.9999998E-03;  1.5997921E-01;2493;  8.5579343E-03;  0.0000000E+00; -4.5811123E-04;  9.8432220E+02;  1.0000000E-01; -1.2988769E+04;3;  9.2522919E+01;  0.0000000E+00; -5.9596963E+00;0;  3.3171948E-02;  3.8768426E+04;  0.0000000E+00; -2.5368589E-01;  4.0000000E+04;  0.0000000E+00;  4.0003293E+04;  3.4688335E-02;  0.0000000E+00; -1.5163878E-03;  1.8012787E+03;
  3.1931656E-03;  9.9999998E-03;  1.6997167E-01;2494;  8.5724648E-03;  0.0000000E+00; -4.4103240E-04;  9.8454797E+02;  1.0000000E-01; -1.2801712E+04;3;  9.3055450E+01;  0.0000000E+00; -7.6709094E+00;0;  3.3312209E-02;  3.8784258E+04;  0.0000000E+00; -3.3006278E-01;  4.0000000E+04;  0.0000000E+00;  4.0005453E+04;  3.4850191E-02;  0.0000000E+00; -1.5379806E-03;  2.0192593E+03;
  3.1200638E-03;  9.9999998E-03;  1.7996204E-01;2495;  8.6073773E-03;  0.0000000E+00; -4.4195741E-04;  9.8487854E+02;  1.0000000E-01; -1.2527843E+04;3;  9.3100677E+01;  0.0000000E+00; -9.7558651E+00;0;  3.3506967E-02;  3.8807848E+04;  0.0000000E+00; -4.0996000E-01;  4.0000000E+04;  0.0000000E+00;  4.0007441E+04;  3.5058405E-02;  0.0000000E+00; -1.5514374E-03;  2.2825051E+03;
  3.0155338E-03;  9.9999998E-03;  1.8995073E-01;2496;  8.6438041E-03;  0.0000000E+00; -4.7015923E-04;  9.8532922E+02;  1.0000000E-01; -1.2154471E+04;3;  9.2452110E+01;  0.0000000E+00; -1.2244810E+01;0;  3.3711072E-02;  3.8840480E+04;  0.0000000E+00; -4.8692563E-01;  4.0000000E+04;  0.0000000E+00;  4.0010219E+04;  3.5242531E-02;  0.0000000E+00; -1.5314594E-03;  2.5793406E+03;
  2.8723909E-03;  9.9999998E-03;  1.9993842E-01;2497;  8.6523611E-03;  0.0000000E+00; -5.3041184E-04;  9.8591504E+02;  1.0000000E-01; -1.1669103E+04;3;  9.0829559E+01;  0.0000000E+00; -1.5090126E+01;0;  3.3862453E-02;  3.8883184E+04;  0.0000000E+00; -5.5356097E-01;  4.0000000E+04;  0.0000000E+00;  4.0013078E+04;  3.5311375E-02;  0.0000000E+00; -1.4489213E-03;  2.8819180E+03;
  2.6863231E-03;  9.9999998E-03;  2.0992483E-01;2498;  8.5956147E-03;  0.0000000E+00; -6.2741706E-04;  9.8664655E+02;  1.0000000E-01; -1.1063095E+04;3;  8.7905960E+01;  0.0000000E+00; -1.8145916E+01;0;  3.3886943E-02;  3.8936680E+04;  0.0000000E+00; -6.0287040E-01;  4.0000000E+04;  0.0000000E+00;  4.0015555E+04;  3.5159867E-02;  0.0000000E+00; -1.2729241E-03;  3.1439426E+03;
  2.4539488E-03;  9.9999998E-03;  2.1990941E-01;2499;  8.4334407E-03;  0.0000000E+00; -7.6213089E-04;  9.8751459E+02;  1.0000000E-01; -1.0343905E+04;3;  8.3462502E+01;  0.0000000E+00; -2.1189913E+01;0;  3.3704370E-02;  3.9001707E+04;  0.0000000E+00; -6.2986106E-01;  4.0000000E+04;  0.0000000E+00;  4.0017414E+04;  3.4679387E-02;  0.0000000E+00; -9.7501802E-04;  3.3037676E+03;
  2.1774608E-03;  9.9999998E-03;  2.2989203E-01;2500;  8.1280954E-03;  0.0000000E+00; -9.2960219E-04;  9.8850793E+02;  1.0000000E-01; -9.5209648E+03;3;  7.7324631E+01;  0.0000000E+00; -2.3995392E+01;0;  3.3236310E-02;  3.9077531E+04;  0.0000000E+00; -6.3291389E-01;  4.0000000E+04;  0.0000000E+00;  4.0017770E+04;  3.3771466E-02;  0.0000000E+00; -5.3515658E-04;  3.2934678E+03;
  1.2968197E-02;  9.9999998E-03;  6.9973178E-02;2544;  7.4342573E-03;  0.0000000E+00; -1.9803249E-04;  9.8689996E+02;  1.0000000E-01; -1.0853125E+04;3;  5.6095287E+01;  0.0000000E+00;  5.6833241E-02;0;  3.1542547E-02;  3.8969645E+04;  0.0000000E+00; -7.1260561E-03;  4.0000000E+04;  0.0000000E+00;  3.9998332E+04;  3.3755679E-02;  0.0000000E+00; -2.2131307E-03;  9.5006842E+02;
  1.2973712E-02;  9.9999998E-03;  7.9976313E-02;2545;  7.4664671E-03;  0.0000000E+00; -2.6589862E-04;  9.8690100E+02;  1.0000000E-01; -1.0852286E+04;3;  5.5852081E+01;  0.0000000E+00; -3.3306375E-02;0;  3.1325564E-02;  3.8969879E+04;  0.0000000E+00; -9.4451066E-03;  4.0000000E+04;  0.0000000E+00;  3.9998219E+04;  3.3498347E-02;  0.0000000E+00; -2.1727828E-03;  9.1570422E+02;
  1.2979308E-02;  9.9999998E-03;  8.9981608E-02;2546;  7.4710334E-03;  0.0000000E+00; -3.3191583E-04;  9.8689386E+02;  1.0000000E-01; -1.0858211E+04;3;  5.6002247E+01;  0.0000000E+00; -2.0075601E-01;0;  3.1050501E-02;  3.8969441E+04;  0.0000000E+00; -1.4013334E-02;  4.0000000E+04;  0.0000000E+00;  3.9998742E+04;  3.3158209E-02;  0.0000000E+00; -2.1077071E-03;  9.3031256E+02;
  1.2984947E-02;  9.9999998E-03;  9.9988230E-02;2547;  7.4454905E-03;  0.0000000E+00; -3.9076793E-04;  9.8688782E+02;  1.0000000E-01; -1.0863199E+04;3;  5.6454929E+01;  0.0000000E+00; -4.6686497E-01;0;  3.0732268E-02;  3.8968578E+04;  0.0000000E+00; -2.3053912E-02;  4.0000000E+04;  0.0000000E+00;  3.9999191E+04;  3.2755516E-02;  0.0000000E+00; -2.0232478E-03;  9.8271576E+02;
  1.2990473E-02;  9.9999998E-03;  1.0999482E-01;2548;  7.3929047E-03;  0.0000000E+00; -4.3840654E-04;  9.8687799E+02;  1.0000000E-01; -1.0871347E+04;3;  5.7190025E+01;  0.0000000E+00; -8.5089022E-01;0;  3.0394701E-02;  3.8967152E+04;  0.0000000E+00; -3.9590199E-02;  4.0000000E+04;  0.0000000E+00;  3.9999891E+04;  3.2322772E-02;  0.0000000E+00; -1.9280702E-03;  1.0575775E+03;
  1.2995370E-02;  9.9999998E-03;  1.2000006E-01;2549;  7.3215258E-03;  0.0000000E+00; -4.7265072E-04;  9.8686755E+02;  1.0000000E-01; -1.0879988E+04;3;  5.8132626E+01;  0.0000000E+00; -1.3687260E+00;0;  3.0067977E-02;  3.8965855E+04;  0.0000000E+00; -6.7095459E-02;  4.0000000E+04;  0.0000000E+00;  4.0000086E+04;  3.1901367E-02;  0.0000000E+00; -1.8333901E-03;  1.1410623E+03;
  1.2998467E-02;  9.9999998E-03;  1.3000302E-01;2550;  7.2443965E-03;  0.0000000E+00; -4.9332308E-04;  9.8685815E+02;  1.0000000E-01; -1.0887791E+04;3;  5.9235798E+01;  0.0000000E+00; -2.0324461E+00;0;  2.9784115E-02;  3.8964730E+04;  0.0000000E+00; -1.0883594E-01;  4.0000000E+04;  0.0000000E+00;  4.0001035E+04;  3.1535476E-02;  0.0000000E+00; -1.7513621E-03;  1.2263213E+03;
  1.2997835E-02;  9.9999998E-03;  1.4000377E-01;2551;  7.1772952E-03;  0.0000000E+00; -5.0215767E-04;  9.8686401E+02;  1.0000000E-01; -1.0882902E+04;3;  6.0409397E+01;  0.0000000E+00; -2.8504512E+00;0;  2.9573003E-02;  3.8964879E+04;  0.0000000E+00; -1.6692741E-01;  4.0000000E+04;  0.0000000E+00;  4.0000914E+04;  3.1264775E-02;  0.0000000E+00; -1.6917724E-03;  1.3175818E+03;
  1.2990799E-02;  9.9999998E-03;  1.5000278E-01;2552;  7.1364725E-03;  0.0000000E+00; -5.0173514E-04;  9.8689465E+02;  1.0000000E-01; -1.0857521E+04;3;  6.1636673E+01;  0.0000000E+00; -3.8355491E+00;0;  2.9459530E-02;  3.8966645E+04;  0.0000000E+00; -2.4149686E-01;  4.0000000E+04;  0.0000000E+00;  4.0001609E+04;  3.1116944E-02;  0.0000000E+00; -1.6574127E-03;  1.4297167E+03;
  1.2974028E-02;  9.9999998E-03;  1.6000104E-01;2553;  7.1346276E-03;  0.0000000E+00; -4.9714820E-04;  9.8696851E+02;  1.0000000E-01; -1.0796337E+04;3;  6.2857033E+01;  0.0000000E+00; -5.0247345E+00;0;  2.9459057E-02;  3.8971699E+04;  0.0000000E+00; -3.3052969E-01;  4.0000000E+04;  0.0000000E+00;  4.0003320E+04;  3.1101653E-02;  0.0000000E+00; -1.6425960E-03;  1.5815186E+03;
  1.2943459E-02;  9.9999998E-03;  1.6999950E-01;2554;  7.1768858E-03;  0.0000000E+00; -4.9599149E-04;  9.8711060E+02;  1.0000000E-01; -1.0678611E+04;3;  6.3961636E+01;  0.0000000E+00; -6.4799857E+00;0;  2.9571926E-02;  3.8981422E+04;  0.0000000E+00; -4.2943084E-01;  4.0000000E+04;  0.0000000E+00;  4.0004199E+04;  3.1206544E-02;  0.0000000E+00; -1.6346188E-03;  1.7894204E+03;
  1.2892449E-02;  9.9999998E-03;  1.7999700E-01;2555;  7.2581181E-03;  0.0000000E+00; -5.0631171E-04;  9.8733234E+02;  1.0000000E-01; -1.0494913E+04;3;  6.4901344E+01;  0.0000000E+00; -8.2658958E+00;0;  2.9780351E-02;  3.8996922E+04;  0.0000000E+00; -5.3089821E-01;  4.0000000E+04;  0.0000000E+00;  4.0006613E+04;  3.1395610E-02;  0.0000000E+00; -1.6152592E-03;  2.0606021E+03;
  1.2814125E-02;  9.9999998E-03;  1.8999241E-01;2556;  7.3599834E-03;  0.0000000E+00; -5.3523120E-04;  9.8765430E+02;  1.0000000E-01; -1.0228204E+04;3;  6.5494316E+01;  0.0000000E+00; -1.0412276E+01;0;  3.0047311E-02;  3.9019578E+04;  0.0000000E+00; -6.2550169E-01;  4.0000000E+04;  0.0000000E+00;  4.0009344E+04;  3.1608783E-02;  0.0000000E+00; -1.5614718E-03;  2.3874714E+03;
  1.2701645E-02;  9.9999998E-03;  1.9998534E-01;2557;  7.4516232E-03;  0.0000000E+00; -5.8921846E-04;  9.8808929E+02;  1.0000000E-01; -9.8677705E+03;3;  6.5516609E+01;  0.0000000E+00; -1.2871666E+01;0;  3.0318046E-02;  3.9050516E+04;  0.0000000E+00; -7.0305115E-01;  4.0000000E+04;  0.0000000E+00;  4.0012660E+04;  3.1763777E-02;  0.0000000E+00; -1.4457314E-03;  2.7438909E+03;
  1.2550015E-02;  9.9999998E-03;  2.0997487E-01;2558;  7.4922279E-03;  0.0000000E+00; -6.7249464E-04;  9.8864587E+02;  1.0000000E-01; -9.4066973E+03;3;  6.4671921E+01;  0.0000000E+00; -1.5500532E+01;0;  3.0524079E-02;  3.9090730E+04;  0.0000000E+00; -7.5470531E-01;  4.0000000E+04;  0.0000000E+00;  4.0015867E+04;  3.1761900E-02;  0.0000000E+00; -1.2378211E-03;  3.0825068E+03;
  1.2354827E-02;  9.9999998E-03;  2.1995941E-01;2559;  7.4368394E-03;  0.0000000E+00; -7.8676629E-04;  9.8932727E+02;  1.0000000E-01; -8.8421699E+03;3;  6.2626087E+01;  0.0000000E+00; -1.8083603E+01;0;  3.0588837E-02;  3.9140793E+04;  0.0000000E+00; -7.7528006E-01;  4.0000000E+04;  0.0000000E+00;  4.0018531E+04;  3.1497501E-02;  0.0000000E+00; -9.0866309E-04;  3.3354438E+03;
  1.2114599E-02;  9.9999998E-03;  2.2993796E-01;2560;  7.2429003E-03;  0.0000000E+00; -9.3003648E-04;  9.9011530E+02;  1.0000000E-01; -8.1892993E+03;3;  5.9181076E+01;  0.0000000E+00; -2.0425673E+01;0;  3.0433895E-02;  3.9200410E+04;  0.0000000E+00; -7.6491785E-01;  4.0000000E+04;  0.0000000E+00;  4.0019785E+04;  3.0870052E-02;  0.0000000E+00; -4.3615699E-04;  3.4229788E+03;
  2.2647666E-02;  9.9999998E-03;  6.9982491E-02;2605;  6.0597272E-03;  0.0000000E+00; -2.1055772E-04;  9.9027356E+02;  1.0000000E-01; -8.0581919E+03;3;  2.4568188E+01;  0.0000000E+00;  5.2337680E-02;0;  3.0008243E-02;  3.9232547E+04;  0.0000000E+00; -9.8949978E-03;  4.0000000E+04;  0.0000000E+00;  3.9999184E+04;  3.2450568E-02;  0.0000000E+00; -2.4423245E-03;  6.9351654E+02;
  2.2649609E-02;  9.9999998E-03;  7.9984389E-02;2606;  6.0954443E-03;  0.0000000E+00; -2.7121612E-04;  9.9027930E+02;  1.0000000E-01; -8.0534019E+03;3;  2.4473602E+01;  0.0000000E+00; -1.9924311E-02;0;  2.9686041E-02;  3.9232926E+04;  0.0000000E+00; -1.2868123E-02;  4.0000000E+04;  0.0000000E+00;  3.9999559E+04;  3.2073356E-02;  0.0000000E+00; -2.3873160E-03;  6.9426245E+02;
  2.2651883E-02;  9.9999998E-03;  8.9986928E-02;2607;  6.0996474E-03;  0.0000000E+00; -3.2959410E-04;  9.9028381E+02;  1.0000000E-01; -8.0496982E+03;3;  2.4703873E+01;  0.0000000E+00; -1.5487473E-01;0;  2.9292002E-02;  3.9232855E+04;  0.0000000E+00; -1.8206960E-02;  4.0000000E+04;  0.0000000E+00;  3.9999336E+04;  3.1602155E-02;  0.0000000E+00; -2.3101536E-03;  7.4481616E+02;
  2.2654796E-02;  9.9999998E-03;  9.9989794E-02;2608;  6.0703256E-03;  0.0000000E+00; -3.8163387E-04;  9.9028015E+02;  1.0000000E-01; -8.0527104E+03;3;  2.5249222E+01;  0.0000000E+00; -3.6957932E-01;0;  2.8842472E-02;  3.9232020E+04;  0.0000000E+00; -2.8384244E-02;  4.0000000E+04;  0.0000000E+00;  4.0000055E+04;  3.1058718E-02;  0.0000000E+00; -2.2162457E-03;  8.2675116E+02;
  2.2658885E-02;  9.9999998E-03;  1.0999288E-01;2609;  6.0109631E-03;  0.0000000E+00; -4.2455707E-04;  9.9026965E+02;  1.0000000E-01; -8.0614019E+03;3;  2.6022171E+01;  0.0000000E+00; -6.7986178E-01;0;  2.8363615E-02;  3.9230633E+04;  0.0000000E+00; -4.6864673E-02;  4.0000000E+04;  0.0000000E+00;  4.0000789E+04;  3.0477328E-02;  0.0000000E+00; -2.1137127E-03;  9.1747882E+02;
  2.2664033E-02;  9.9999998E-03;  1.1999603E-01;2610;  5.9313793E-03;  0.0000000E+00; -4.5719987E-04;  9.9024939E+02;  1.0000000E-01; -8.0781914E+03;3;  2.6969561E+01;  0.0000000E+00; -1.0987176E+00;0;  2.7888719E-02;  3.9228363E+04;  0.0000000E+00; -7.7746958E-02;  4.0000000E+04;  0.0000000E+00;  4.0001457E+04;  2.9901169E-02;  0.0000000E+00; -2.0124507E-03;  9.9806366E+02;
  2.2670081E-02;  9.9999998E-03;  1.2999865E-01;2611;  5.8465996E-03;  0.0000000E+00; -4.7992953E-04;  9.9022260E+02;  1.0000000E-01; -8.1004131E+03;3;  2.8030613E+01;  0.0000000E+00; -1.6362650E+00;0;  2.7454033E-02;  3.9225895E+04;  0.0000000E+00; -1.2500831E-01;  4.0000000E+04;  0.0000000E+00;  4.0001844E+04;  2.9376542E-02;  0.0000000E+00; -1.9225089E-03;  1.0607252E+03;
  2.2675432E-02;  9.9999998E-03;  1.4000052E-01;2612;  5.7752682E-03;  0.0000000E+00; -4.9408944E-04;  9.9019495E+02;  1.0000000E-01; -8.1233257E+03;3;  2.9186701E+01;  0.0000000E+00; -2.2994335E+00;0;  2.7095228E-02;  3.9223480E+04;  0.0000000E+00; -1.9137590E-01;  4.0000000E+04;  0.0000000E+00;  4.0001355E+04;  2.8946208E-02;  0.0000000E+00; -1.8509786E-03;  1.1141328E+03;
  2.2677723E-02;  9.9999998E-03;  1.5000197E-01;2613;  5.7366542E-03;  0.0000000E+00; -5.0165626E-04;  9.9017596E+02;  1.0000000E-01; -8.1390293E+03;3;  3.0446993E+01;  0.0000000E+00; -3.0971525E+00;0;  2.6844438E-02;  3.9221828E+04;  0.0000000E+00; -2.7714589E-01;  4.0000000E+04;  0.0000000E+00;  4.0002340E+04;  2.8642580E-02;  0.0000000E+00; -1.7981423E-03;  1.1823167E+03;
  2.2673987E-02;  9.9999998E-03;  1.6000357E-01;2614;  5.7467497E-03;  0.0000000E+00; -5.0593703E-04;  9.9018030E+02;  1.0000000E-01; -8.1354243E+03;3;  3.1820251E+01;  0.0000000E+00; -4.0550814E+00;0;  2.6725357E-02;  3.9221977E+04;  0.0000000E+00; -3.7977469E-01;  4.0000000E+04;  0.0000000E+00;  4.0002766E+04;  2.8482225E-02;  0.0000000E+00; -1.7568675E-03;  1.2942708E+03;
  2.2660246E-02;  9.9999998E-03;  1.7000619E-01;2615;  5.8139744E-03;  0.0000000E+00; -5.1156920E-04;  9.9022949E+02;  1.0000000E-01; -8.0946846E+03;3;  3.3283745E+01;  0.0000000E+00; -5.2183867E+00;0;  2.6747027E-02;  3.9224941E+04;  0.0000000E+00; -4.9341184E-01;  4.0000000E+04;  0.0000000E+00;  4.0004480E+04;  2.8461892E-02;  0.0000000E+00; -1.7148643E-03;  1.4737356E+03;
  2.2630630E-02;  9.9999998E-03;  1.8001041E-01;2616;  5.9354487E-03;  0.0000000E+00; -5.2416633E-04;  9.9033521E+02;  1.0000000E-01; -8.0070820E+03;3;  3.4852280E+01;  0.0000000E+00; -6.6355014E+00;0;  2.6900008E-02;  3.9231691E+04;  0.0000000E+00; -6.0892314E-01;  4.0000000E+04;  0.0000000E+00;  4.0005418E+04;  2.8556094E-02;  0.0000000E+00; -1.6560848E-03;  1.7322880E+03;
  2.2577878E-02;  9.9999998E-03;  1.9001538E-01;2617;  6.0940892E-03;  0.0000000E+00; -5.4941443E-04;  9.9051526E+02;  1.0000000E-01; -7.8579507E+03;3;  3.6438641E+01;  0.0000000E+00; -8.3235826E+00;0;  2.7155351E-02;  3.9243520E+04;  0.0000000E+00; -7.1481562E-01;  4.0000000E+04;  0.0000000E+00;  4.0007625E+04;  2.8715668E-02;  0.0000000E+00; -1.5603167E-03;  2.0670483E+03;
  2.2494089E-02;  9.9999998E-03;  2.0001921E-01;2618;  6.2587154E-03;  0.0000000E+00; -5.9244508E-04;  9.9078369E+02;  1.0000000E-01; -7.6355371E+03;3;  3.7873257E+01;  0.0000000E+00; -1.0228687E+01;0;  2.7465967E-02;  3.9261406E+04;  0.0000000E+00; -7.9907274E-01;  4.0000000E+04;  0.0000000E+00;  4.0011379E+04;  2.8868875E-02;  0.0000000E+00; -1.4029068E-03;  2.4573657E+03;
  2.2373075E-02;  9.9999998E-03;  2.1002011E-01;2619;  6.3864454E-03;  0.0000000E+00; -6.5732870E-04;  9.9114807E+02;  1.0000000E-01; -7.3336689E+03;3;  3.8906895E+01;  0.0000000E+00; -1.2209053E+01;0;  2.7769335E-02;  3.9286305E+04;  0.0000000E+00; -8.5179812E-01;  4.0000000E+04;  0.0000000E+00;  4.0014988E+04;  2.8925279E-02;  0.0000000E+00; -1.1559455E-03;  2.8594739E+03;
  2.2210235E-02;  9.9999998E-03;  2.2001547E-01;2620;  6.4283004E-03;  0.0000000E+00; -7.4634200E-04;  9.9161084E+02;  1.0000000E-01; -6.9502725E+03;3;  3.9218636E+01;  0.0000000E+00; -1.4065413E+01;0;  2.7992811E-02;  3.9318820E+04;  0.0000000E+00; -8.6798543E-01;  4.0000000E+04;  0.0000000E+00;  4.0018055E+04;  2.8784243E-02;  0.0000000E+00; -7.9143158E-04;  3.2031521E+03;
  2.2001592E-02;  9.9999998E-03;  2.3000258E-01;2621;  6.3390355E-03;  0.0000000E+00; -8.6108182E-04;  9.9216339E+02;  1.0000000E-01; -6.4924585E+03;3;  3.8509037E+01;  0.0000000E+00; -1.5642014E+01;0;  2.8058877E-02;  3.9359371E+04;  0.0000000E+00; -8.4943932E-01;  4.0000000E+04;  0.0000000E+00;  4.0020547E+04;  2.8345721E-02;  0.0000000E+00; -2.8684363E-04;  3.3985515E+03;
  3.2331910E-02;  9.9999998E-03;  6.9991313E-02;2666;  4.8956871E-03;  0.0000000E+00; -2.2254526E-04;  9.9375574E+02;  1.0000000E-01; -5.1732363E+03;3; -1.2490833E+00;  0.0000000E+00;  4.6866752E-02;0;  3.0688465E-02;  3.9507598E+04;  0.0000000E+00; -1.1636647E-02;  4.0000000E+04;  0.0000000E+00;  3.9999121E+04;  3.3327125E-02;  0.0000000E+00; -2.6386604E-03;  4.5832645E+02;
  3.2330576E-02;  9.9999998E-03;  7.9992034E-02;2667;  4.9329349E-03;  0.0000000E+00; -2.7612262E-04;  9.9376776E+02;  1.0000000E-01; -5.1633105E+03;3; -1.2063527E+00;  0.0000000E+00; -8.1097176E-03;0;  3.0258333E-02;  3.9508273E+04;  0.0000000E+00; -1.5233175E-02;  4.0000000E+04;  0.0000000E+00;  3.9999758E+04;  3.2826349E-02;  0.0000000E+00; -2.5680154E-03;  5.0163055E+02;
  3.2329816E-02;  9.9999998E-03;  8.9992329E-02;2668;  4.9363757E-03;  0.0000000E+00; -3.2656954E-04;  9.9377374E+02;  1.0000000E-01; -5.1583232E+03;3; -8.4932798E-01;  0.0000000E+00; -1.1177835E-01;0;  2.9738067E-02;  3.9508383E+04;  0.0000000E+00; -2.1100704E-02;  4.0000000E+04;  0.0000000E+00;  4.0000727E+04;  3.2218277E-02;  0.0000000E+00; -2.4802107E-03;  5.9482538E+02;
  3.2330319E-02;  9.9999998E-03;  9.9992126E-02;2669;  4.9037025E-03;  0.0000000E+00; -3.7102660E-04;  9.9377966E+02;  1.0000000E-01; -5.1534346E+03;3; -2.8341770E-01;  0.0000000E+00; -2.7782080E-01;0;  2.9144272E-02;  3.9507688E+04;  0.0000000E+00; -3.1626489E-02;  4.0000000E+04;  0.0000000E+00;  4.0001281E+04;  3.1525068E-02;  0.0000000E+00; -2.3807965E-03;  7.1100403E+02;
  3.2333110E-02;  9.9999998E-03;  1.0999183E-01;2670;  4.8392219E-03;  0.0000000E+00; -4.0799429E-04;  9.9377087E+02;  1.0000000E-01; -5.1606934E+03;3;  4.6961838E-01;  0.0000000E+00; -5.1839030E-01;0;  2.8504282E-02;  3.9506102E+04;  0.0000000E+00; -5.0271001E-02;  4.0000000E+04;  0.0000000E+00;  4.0002523E+04;  3.0781213E-02;  0.0000000E+00; -2.2769314E-03;  8.1890619E+02;
  3.2338671E-02;  9.9999998E-03;  1.1999169E-01;2671;  4.7535589E-03;  0.0000000E+00; -4.3750257E-04;  9.9374530E+02;  1.0000000E-01; -5.1818779E+03;3;  1.3355166E+00;  0.0000000E+00; -8.4402668E-01;0;  2.7853683E-02;  3.9503305E+04;  0.0000000E+00; -8.1226893E-02;  4.0000000E+04;  0.0000000E+00;  4.0003203E+04;  3.0030025E-02;  0.0000000E+00; -2.1763430E-03;  8.9311127E+02;
  3.2347474E-02;  9.9999998E-03;  1.2999196E-01;2672;  4.6629659E-03;  0.0000000E+00; -4.6073861E-04;  9.9370422E+02;  1.0000000E-01; -5.2159512E+03;3;  2.2618661E+00;  0.0000000E+00; -1.2626772E+00;0;  2.7232954E-02;  3.9499953E+04;  0.0000000E+00; -1.2864940E-01;  4.0000000E+04;  0.0000000E+00;  4.0003352E+04;  2.9318698E-02;  0.0000000E+00; -2.0857437E-03;  9.2386627E+02;
  3.2358754E-02;  9.9999998E-03;  1.3999261E-01;2673;  4.5876298E-03;  0.0000000E+00; -4.7906657E-04;  9.9364844E+02;  1.0000000E-01; -5.2621724E+03;3;  3.2663710E+00;  0.0000000E+00; -1.7797756E+00;0;  2.6683692E-02;  3.9495684E+04;  0.0000000E+00; -1.9549201E-01;  4.0000000E+04;  0.0000000E+00;  4.0002484E+04;  2.8692028E-02;  0.0000000E+00; -2.0083357E-03;  9.2493835E+02;
  3.2370348E-02;  9.9999998E-03;  1.4999382E-01;2674;  4.5487285E-03;  0.0000000E+00; -4.9318443E-04;  9.9358594E+02;  1.0000000E-01; -5.3139238E+03;3;  4.3909998E+00;  0.0000000E+00; -2.3995609E+00;0;  2.6245562E-02;  3.9491371E+04;  0.0000000E+00; -2.8207588E-01;  4.0000000E+04;  0.0000000E+00;  4.0002266E+04;  2.8186541E-02;  0.0000000E+00; -1.9409789E-03;  9.3251385E+02;
  3.2378994E-02;  9.9999998E-03;  1.5999621E-01;2675;  4.5651630E-03;  0.0000000E+00; -5.0356466E-04;  9.9353186E+02;  1.0000000E-01; -5.3587124E+03;3;  5.6825914E+00;  0.0000000E+00; -3.1314754E+00;0;  2.5950767E-02;  3.9487043E+04;  0.0000000E+00; -3.8548735E-01;  4.0000000E+04;  0.0000000E+00;  4.0002008E+04;  2.7825372E-02;  0.0000000E+00; -1.8746045E-03;  9.8947894E+02;
  3.2380719E-02;  9.9999998E-03;  1.7000051E-01;2676;  4.6491772E-03;  0.0000000E+00; -5.1161705E-04;  9.9349445E+02;  1.0000000E-01; -5.3897241E+03;3;  7.2422919E+00;  0.0000000E+00; -3.9951277E+00;0;  2.5816876E-02;  3.9483711E+04;  0.0000000E+00; -4.9928185E-01;  4.0000000E+04;  0.0000000E+00;  4.0002273E+04;  2.7614109E-02;  0.0000000E+00; -1.7972330E-03;  1.1247238E+03;
  3.2370098E-02;  9.9999998E-03;  1.8000729E-01;2677;  4.8019285E-03;  0.0000000E+00; -5.1985949E-04;  9.9349237E+02;  1.0000000E-01; -5.3914526E+03;3;  9.1003094E+00;  0.0000000E+00; -5.0121455E+00;0;  2.5842393E-02;  3.9482094E+04;  0.0000000E+00; -6.1371815E-01;  4.0000000E+04;  0.0000000E+00;  4.0004027E+04;  2.7537208E-02;  0.0000000E+00; -1.6948152E-03;  1.3472123E+03;
  3.2340001E-02;  9.9999998E-03;  1.9001655E-01;2678;  5.0063678E-03;  0.0000000E+00; -5.3450972E-04;  9.9353644E+02;  1.0000000E-01; -5.3549595E+03;3;  1.1268608E+01;  0.0000000E+00; -6.1790886E+00;0;  2.6006611E-02;  3.9483312E+04;  0.0000000E+00; -7.1694040E-01;  4.0000000E+04;  0.0000000E+00;  4.0006074E+04;  2.7556883E-02;  0.0000000E+00; -1.5502725E-03;  1.6577723E+03;
  3.2283597E-02;  9.9999998E-03;  2.0002721E-01;2679;  5.2290396E-03;  0.0000000E+00; -5.6143617E-04;  9.9364081E+02;  1.0000000E-01; -5.2684932E+03;3;  1.3641520E+01;  0.0000000E+00; -7.4303255E+00;0;  2.6269348E-02;  3.9488102E+04;  0.0000000E+00; -7.9711461E-01;  4.0000000E+04;  0.0000000E+00;  4.0009457E+04;  2.7612273E-02;  0.0000000E+00; -1.3429241E-03;  2.0488013E+03;
  3.2192826E-02;  9.9999998E-03;  2.1003675E-01;2680;  5.4273000E-03;  0.0000000E+00; -6.0392322E-04;  9.9381818E+02;  1.0000000E-01; -5.1215342E+03;3;  1.5998818E+01;  0.0000000E+00; -8.6208725E+00;0;  2.6572615E-02;  3.9497730E+04;  0.0000000E+00; -8.4514976E-01;  4.0000000E+04;  0.0000000E+00;  4.0013094E+04;  2.7621511E-02;  0.0000000E+00; -1.0488956E-03;  2.4878157E+03;
  3.2061800E-02;  9.9999998E-03;  2.2004227E-01;2681;  5.5491864E-03;  0.0000000E+00; -6.6513347E-04;  9.9406116E+02;  1.0000000E-01; -4.9202065E+03;3;  1.8111763E+01;  0.0000000E+00; -9.5782127E+00;0;  2.6847180E-02;  3.9512734E+04;  0.0000000E+00; -8.5741323E-01;  4.0000000E+04;  0.0000000E+00;  4.0016969E+04;  2.7490370E-02;  0.0000000E+00; -6.4319081E-04;  2.9065762E+03;
  3.1884965E-02;  9.9999998E-03;  2.3003973E-01;2682;  5.5442466E-03;  0.0000000E+00; -7.4869028E-04;  9.9437292E+02;  1.0000000E-01; -4.6619424E+03;3;  1.9624506E+01;  0.0000000E+00; -1.0193117E+01;0;  2.7016655E-02;  3.9533504E+04;  0.0000000E+00; -8.3752036E-01;  4.0000000E+04;  0.0000000E+00;  4.0019938E+04;  2.7121251E-02;  0.0000000E+00; -1.0459742E-04;  3.2059797E+03;
  4.2039804E-02;  9.9999998E-03;  6.9999158E-02;2727;  3.9982838E-03;  0.0000000E+00; -2.3384894E-04;  9.9695282E+02;  1.0000000E-01; -2.5245212E+03;3; -1.7967257E+01;  0.0000000E+00;  3.8542464E-02;0;  3.4209192E-02;  3.9763684E+04;  0.0000000E+00; -1.1120648E-02;  4.0000000E+04;  0.0000000E+00;  4.0000332E+04;  3.7013758E-02;  0.0000000E+00; -2.8045673E-03;  2.8029202E+02;
  4.2035591E-02;  9.9999998E-03;  7.9999968E-02;2728;  4.0363325E-03;  0.0000000E+00; -2.7995114E-04;  9.9696857E+02;  1.0000000E-01; -2.5114846E+03;3; -1.7812038E+01;  0.0000000E+00; -1.1726295E-03;0;  3.3680994E-02;  3.9764430E+04;  0.0000000E+00; -1.5121520E-02;  4.0000000E+04;  0.0000000E+00;  4.0001160E+04;  3.6399439E-02;  0.0000000E+00; -2.7184440E-03;  3.6935208E+02;
  4.2032022E-02;  9.9999998E-03;  8.9999653E-02;2729;  4.0374598E-03;  0.0000000E+00; -3.2189273E-04;  9.9698749E+02;  1.0000000E-01; -2.4958306E+03;3; -1.7428341E+01;  0.0000000E+00; -7.7257998E-02;0;  3.3041157E-02;  3.9764531E+04;  0.0000000E+00; -2.1215808E-02;  4.0000000E+04;  0.0000000E+00;  4.0002152E+04;  3.5663601E-02;  0.0000000E+00; -2.6224444E-03;  5.0869485E+02;
  4.2030778E-02;  9.9999998E-03;  9.9997975E-02;2730;  4.0000980E-03;  0.0000000E+00; -3.5790130E-04;  9.9699719E+02;  1.0000000E-01; -2.4877815E+03;3; -1.6849493E+01;  0.0000000E+00; -2.0029099E-01;0;  3.2304469E-02;  3.9764184E+04;  0.0000000E+00; -3.1406544E-02;  4.0000000E+04;  0.0000000E+00;  4.0003188E+04;  3.4826919E-02;  0.0000000E+00; -2.5224495E-03;  6.6225720E+02;
  4.2032983E-02;  9.9999998E-03;  1.0999510E-01;2731;  3.9290544E-03;  0.0000000E+00; -3.8783881E-04;  9.9699390E+02;  1.0000000E-01; -2.4904976E+03;3; -1.6167639E+01;  0.0000000E+00; -3.7954357E-01;0;  3.1497460E-02;  3.9762672E+04;  0.0000000E+00; -4.8660461E-02;  4.0000000E+04;  0.0000000E+00;  4.0004562E+04;  3.3921860E-02;  0.0000000E+00; -2.4244012E-03;  7.8911749E+02;
  4.2039521E-02;  9.9999998E-03;  1.1999139E-01;2732;  3.8353424E-03;  0.0000000E+00; -4.1334215E-04;  9.9696735E+02;  1.0000000E-01; -2.5124722E+03;3; -1.5432378E+01;  0.0000000E+00; -6.2272173E-01;0;  3.0656794E-02;  3.9760016E+04;  0.0000000E+00; -7.6611161E-02;  4.0000000E+04;  0.0000000E+00;  4.0005309E+04;  3.2989919E-02;  0.0000000E+00; -2.3331253E-03;  8.5583038E+02;
  4.2051319E-02;  9.9999998E-03;  1.2998775E-01;2733;  3.7363821E-03;  0.0000000E+00; -4.3743700E-04;  9.9691748E+02;  1.0000000E-01; -2.5538042E+03;3; -1.4690171E+01;  0.0000000E+00; -9.3567675E-01;0;  2.9825989E-02;  3.9756379E+04;  0.0000000E+00; -1.1884358E-01;  4.0000000E+04;  0.0000000E+00;  4.0004301E+04;  3.2077007E-02;  0.0000000E+00; -2.2510171E-03;  8.4898584E+02;
  4.2068280E-02;  9.9999998E-03;  1.3998520E-01;2734;  3.6525053E-03;  0.0000000E+00; -4.6247506E-04;  9.9684564E+02;  1.0000000E-01; -2.6133088E+03;3; -1.3924213E+01;  0.0000000E+00; -1.3227168E+00;0;  2.9052310E-02;  3.9751105E+04;  0.0000000E+00; -1.7779779E-01;  4.0000000E+04;  0.0000000E+00;  4.0004312E+04;  3.1228669E-02;  0.0000000E+00; -2.1763586E-03;  7.8577679E+02;
  4.2088624E-02;  9.9999998E-03;  1.4998442E-01;2735;  3.6062119E-03;  0.0000000E+00; -4.8873801E-04;  9.9675220E+02;  1.0000000E-01; -2.6907388E+03;3; -1.3041697E+01;  0.0000000E+00; -1.7838653E+00;0;  2.8382277E-02;  3.9744770E+04;  0.0000000E+00; -2.5330487E-01;  4.0000000E+04;  0.0000000E+00;  4.0002484E+04;  3.0484118E-02;  0.0000000E+00; -2.1018400E-03;  7.1686884E+02;
  4.2108972E-02;  9.9999998E-03;  1.5998565E-01;2736;  3.6179449E-03;  0.0000000E+00; -5.1462499E-04;  9.9664783E+02;  1.0000000E-01; -2.7772053E+03;3; -1.1947904E+01;  0.0000000E+00; -2.3110337E+00;0;  2.7856290E-02;  3.9737113E+04;  0.0000000E+00; -3.4189507E-01;  4.0000000E+04;  0.0000000E+00;  4.0002289E+04;  2.9872313E-02;  0.0000000E+00; -2.0160235E-03;  7.0598792E+02;
  4.2125087E-02;  9.9999998E-03;  1.6999030E-01;2737;  3.7031148E-03;  0.0000000E+00; -5.3681043E-04;  9.9654663E+02;  1.0000000E-01; -2.8610549E+03;3; -1.0540089E+01;  0.0000000E+00; -2.8941967E+00;0;  2.7500432E-02;  3.9728844E+04;  0.0000000E+00; -4.3698049E-01;  4.0000000E+04;  0.0000000E+00;  4.0001664E+04;  2.9406983E-02;  0.0000000E+00; -1.9065521E-03;  7.8463470E+02;
  4.2131182E-02;  9.9999998E-03;  1.7999835E-01;2738;  3.8679633E-03;  0.0000000E+00; -5.4970838E-04;  9.9645422E+02;  1.0000000E-01; -2.9375959E+03;3; -8.6918879E+00;  0.0000000E+00; -3.5229225E+00;0;  2.7321298E-02;  3.9720562E+04;  0.0000000E+00; -5.2954513E-01;  4.0000000E+04;  0.0000000E+00;  4.0002332E+04;  2.9081710E-02;  0.0000000E+00; -1.7604119E-03;  9.4583301E+02;
  4.2120274E-02;  9.9999998E-03;  1.9000921E-01;2739;  4.1052112E-03;  0.0000000E+00; -5.4512010E-04;  9.9638367E+02;  1.0000000E-01; -2.9960635E+03;3; -6.3632851E+00;  0.0000000E+00; -4.1662102E+00;0;  2.7303418E-02;  3.9712527E+04;  0.0000000E+00; -6.0957229E-01;  4.0000000E+04;  0.0000000E+00;  4.0003957E+04;  2.8866842E-02;  0.0000000E+00; -1.5634240E-03;  1.1952224E+03;
  4.2085584E-02;  9.9999998E-03;  2.0002213E-01;2740;  4.3852981E-03;  0.0000000E+00; -5.3206034E-04;  9.9634668E+02;  1.0000000E-01; -3.0267292E+03;3; -3.6000030E+00;  0.0000000E+00; -4.7418795E+00;0;  2.7411886E-02;  3.9705836E+04;  0.0000000E+00; -6.6816628E-01;  4.0000000E+04;  0.0000000E+00;  4.0007695E+04;  2.8711734E-02;  0.0000000E+00; -1.2998496E-03;  1.5532227E+03;
  4.2020742E-02;  9.9999998E-03;  2.1003558E-01;2741;  4.6521765E-03;  0.0000000E+00; -5.3480425E-04;  9.9635016E+02;  1.0000000E-01; -3.0238157E+03;3; -5.3623021E-01;  0.0000000E+00; -5.1069436E+00;0;  2.7596559E-02;  3.9701289E+04;  0.0000000E+00; -6.9978482E-01;  4.0000000E+04;  0.0000000E+00;  4.0011363E+04;  2.8548144E-02;  0.0000000E+00; -9.5158350E-04;  2.0077220E+03;
  4.1918393E-02;  9.9999998E-03;  2.2004607E-01;2742;  4.8363162E-03;  0.0000000E+00; -5.6411617E-04;  9.9639752E+02;  1.0000000E-01; -2.9846069E+03;3;  2.6001415E+00;  0.0000000E+00; -5.1071377E+00;0;  2.7793888E-02;  3.9699852E+04;  0.0000000E+00; -7.0442432E-01;  4.0000000E+04;  0.0000000E+00;  4.0015785E+04;  2.8292410E-02;  0.0000000E+00; -4.9852289E-04;  2.4900120E+03;
  4.1771993E-02;  9.9999998E-03;  2.3005010E-01;2743;  4.8964606E-03;  0.0000000E+00; -6.1342277E-04;  9.9648560E+02;  1.0000000E-01; -2.9116213E+03;3;  5.5337448E+00;  0.0000000E+00; -4.6963582E+00;0;  2.7924765E-02;  3.9702344E+04;  0.0000000E+00; -6.8843037E-01;  4.0000000E+04;  0.0000000E+00;  4.0019465E+04;  2.7846808E-02;  0.0000000E+00;  7.7958102E-05;  2.8875349E+03;
  5.1782921E-02;  9.9999998E-03;  7.0007592E-02;2788;  3.3348098E-03;  0.0000000E+00; -2.4344955E-04;  9.9958368E+02;  1.0000000E-01; -3.4492853E+02;3; -2.5349178E+01;  0.0000000E+00;  2.5930706E-02;0;  4.0749766E-02;  3.9976551E+04;  0.0000000E+00; -7.8466153E-03;  4.0000000E+04;  0.0000000E+00;  4.0001559E+04;  4.3695461E-02;  0.0000000E+00; -2.9456948E-03;  1.8575262E+02;
  5.1777117E-02;  9.9999998E-03;  8.0009744E-02;2789;  3.3737728E-03;  0.0000000E+00; -2.8029832E-04;  9.9960303E+02;  1.0000000E-01; -3.2887958E+02;3; -2.5135780E+01;  0.0000000E+00; -1.0218333E-03;0;  4.0150695E-02;  3.9976996E+04;  0.0000000E+00; -1.1807724E-02;  4.0000000E+04;  0.0000000E+00;  4.0002188E+04;  4.2996142E-02;  0.0000000E+00; -2.8454487E-03;  3.1946664E+02;
  5.1772162E-02;  9.9999998E-03;  9.0010241E-02;2790;  3.3742576E-03;  0.0000000E+00; -3.1190019E-04;  9.9962708E+02;  1.0000000E-01; -3.0897891E+02;3; -2.4737358E+01;  0.0000000E+00; -5.4186091E-02;0;  3.9416082E-02;  3.9977305E+04;  0.0000000E+00; -1.7724246E-02;  4.0000000E+04;  0.0000000E+00;  4.0003637E+04;  4.2160660E-02;  0.0000000E+00; -2.7445774E-03;  5.0497275E+02;
  5.1769696E-02;  9.9999998E-03;  1.0000847E-01;2791;  3.3343125E-03;  0.0000000E+00; -3.3808220E-04;  9.9964160E+02;  1.0000000E-01; -2.9692987E+02;3; -2.4194559E+01;  0.0000000E+00; -1.4105755E-01;0;  3.8556382E-02;  3.9977121E+04;  0.0000000E+00; -2.7029503E-02;  4.0000000E+04;  0.0000000E+00;  4.0005637E+04;  4.1205920E-02;  0.0000000E+00; -2.6495398E-03;  6.9700421E+02;
  5.1772129E-02;  9.9999998E-03;  1.1000400E-01;2792;  3.2584046E-03;  0.0000000E+00; -3.6030047E-04;  9.9964301E+02;  1.0000000E-01; -2.9574472E+02;3; -2.3602440E+01;  0.0000000E+00; -2.6848671E-01;0;  3.7595637E-02;  3.9976059E+04;  0.0000000E+00; -4.1819043E-02;  4.0000000E+04;  0.0000000E+00;  4.0006730E+04;  4.0160660E-02;  0.0000000E+00; -2.5650240E-03;  8.4430554E+02;
  5.1780727E-02;  9.9999998E-03;  1.1999696E-01;2793;  3.1590220E-03;  0.0000000E+00; -3.8139659E-04;  9.9962354E+02;  1.0000000E-01; -3.1189243E+02;3; -2.3028227E+01;  0.0000000E+00; -4.4172424E-01;0;  3.6568791E-02;  3.9974051E+04;  0.0000000E+00; -6.4593770E-02;  4.0000000E+04;  0.0000000E+00;  4.0007211E+04;  3.9061300E-02;  0.0000000E+00; -2.4925102E-03;  9.0441199E+02;
  5.1796079E-02;  9.9999998E-03;  1.2998901E-01;2794;  3.0535986E-03;  0.0000000E+00; -4.0531246E-04;  9.9957922E+02;  1.0000000E-01; -3.4858273E+02;3; -2.2504717E+01;  0.0000000E+00; -6.6574228E-01;0;  3.5520088E-02;  3.9970449E+04;  0.0000000E+00; -9.7608790E-02;  4.0000000E+04;  0.0000000E+00;  4.0006699E+04;  3.7949443E-02;  0.0000000E+00; -2.4293549E-03;  8.5843079E+02;
  5.1818397E-02;  9.9999998E-03;  1.3998207E-01;2795;  2.9637741E-03;  0.0000000E+00; -4.3555419E-04;  9.9950024E+02;  1.0000000E-01; -4.1406238E+02;3; -2.1975903E+01;  0.0000000E+00; -9.4298106E-01;0;  3.4499958E-02;  3.9965402E+04;  0.0000000E+00; -1.4190614E-01;  4.0000000E+04;  0.0000000E+00;  4.0004770E+04;  3.6868129E-02;  0.0000000E+00; -2.3681712E-03;  7.2349390E+02;
  5.1846344E-02;  9.9999998E-03;  1.4997780E-01;2796;  2.9115276E-03;  0.0000000E+00; -4.7340625E-04;  9.9939624E+02;  1.0000000E-01; -5.0018338E+02;3; -2.1380913E+01;  0.0000000E+00; -1.2703071E+00;0;  3.3560559E-02;  3.9958297E+04;  0.0000000E+00; -1.9604665E-01;  4.0000000E+04;  0.0000000E+00;  4.0004246E+04;  3.5857521E-02;  0.0000000E+00; -2.2969623E-03;  5.6016864E+02;
  5.1876407E-02;  9.9999998E-03;  1.5997674E-01;2797;  2.9171407E-03;  0.0000000E+00; -5.1629712E-04;  9.9926611E+02;  1.0000000E-01; -6.0803217E+02;3; -2.0574562E+01;  0.0000000E+00; -1.6245255E+00;0;  3.2749157E-02;  3.9949125E+04;  0.0000000E+00; -2.5544506E-01;  4.0000000E+04;  0.0000000E+00;  4.0001750E+04;  3.4950767E-02;  0.0000000E+00; -2.2016084E-03;  4.6308093E+02;
  5.1904123E-02;  9.9999998E-03;  1.6997951E-01;2798;  2.9938545E-03;  0.0000000E+00; -5.5877742E-04;  9.9911871E+02;  1.0000000E-01; -7.3015216E+02;3; -1.9422953E+01;  0.0000000E+00; -1.9652594E+00;0;  3.2101274E-02;  3.9937773E+04;  0.0000000E+00; -3.1336817E-01;  4.0000000E+04;  0.0000000E+00;  4.0000223E+04;  3.4169689E-02;  0.0000000E+00; -2.0684137E-03;  4.7817844E+02;
  5.1923502E-02;  9.9999998E-03;  1.7998739E-01;2799;  3.1508775E-03;  0.0000000E+00; -5.8940041E-04;  9.9896173E+02;  1.0000000E-01; -8.6017322E+02;3; -1.7802376E+01;  0.0000000E+00; -2.2514510E+00;0;  3.1632464E-02;  3.9924348E+04;  0.0000000E+00; -3.6244020E-01;  4.0000000E+04;  0.0000000E+00;  4.0000895E+04;  3.3516631E-02;  0.0000000E+00; -1.8841663E-03;  5.5424738E+02;
  5.1927377E-02;  9.9999998E-03;  1.8999898E-01;2800;  3.3895646E-03;  0.0000000E+00; -5.9493107E-04;  9.9880811E+02;  1.0000000E-01; -9.8747827E+02;3; -1.5653598E+01;  0.0000000E+00; -2.4241457E+00;0;  3.1334724E-02;  3.9909543E+04;  0.0000000E+00; -3.9651346E-01;  4.0000000E+04;  0.0000000E+00;  4.0002754E+04;  3.2971516E-02;  0.0000000E+00; -1.6367936E-03;  7.0360559E+02;
  5.1908739E-02;  9.9999998E-03;  2.0001301E-01;2801;  3.6914074E-03;  0.0000000E+00; -5.6824432E-04;  9.9866138E+02;  1.0000000E-01; -1.1090056E+03;3; -1.2959274E+01;  0.0000000E+00; -2.3839533E+00;0;  3.1177914E-02;  3.9893801E+04;  0.0000000E+00; -4.1243201E-01;  4.0000000E+04;  0.0000000E+00;  4.0005453E+04;  3.2493275E-02;  0.0000000E+00; -1.3153616E-03;  1.0141825E+03;
  5.1862366E-02;  9.9999998E-03;  2.1002774E-01;2802;  4.0162951E-03;  0.0000000E+00; -5.0805713E-04;  9.9852869E+02;  1.0000000E-01; -1.2189779E+03;3; -9.7980223E+00;  0.0000000E+00; -1.9695963E+00;0;  3.1113777E-02;  3.9877898E+04;  0.0000000E+00; -4.1129300E-01;  4.0000000E+04;  0.0000000E+00;  4.0010125E+04;  3.2022212E-02;  0.0000000E+00; -9.0843427E-04;  1.4939730E+03;
  5.1782712E-02;  9.9999998E-03;  2.2004086E-01;2803;  4.2859083E-03;  0.0000000E+00; -4.5431766E-04;  9.9841095E+02;  1.0000000E-01; -1.3165060E+03;3; -6.3240848E+00;  0.0000000E+00; -1.0453964E+00;0;  3.1082945E-02;  3.9862762E+04;  0.0000000E+00; -3.9947945E-01;  4.0000000E+04;  0.0000000E+00;  4.0014566E+04;  3.1485356E-02;  0.0000000E+00; -4.0241214E-04;  2.0497046E+03;
  5.1662404E-02;  9.9999998E-03;  2.3004802E-01;2804;  4.4090506E-03;  0.0000000E+00; -4.5922957E-04;  9.9831519E+02;  1.0000000E-01; -1.3958124E+03;3; -2.7904990E+00;  0.0000000E+00;  3.6467251E-01;0;  3.1015784E-02;  3.9849699E+04;  0.0000000E+00; -3.8810855E-01;  4.0000000E+04;  0.0000000E+00;  4.0018508E+04;  3.0798443E-02;  0.0000000E+00;  2.1734129E-04;  2.5445537E+03;
  6.1569452E-02;  9.9999998E-03;  7.0018135E-02;2849;  2.9082750E-03;  0.0000000E+00; -2.5558658E-04;  1.0014798E+03;  1.0000000E-01;  1.2259407E+03;3; -2.5376684E+01;  0.0000000E+00;  9.2185102E-03;0;  4.9933102E-02;  4.0130969E+04;  0.0000000E+00; -2.6427854E-03;  4.0000000E+04;  0.0000000E+00;  4.0002664E+04;  5.3002082E-02;  0.0000000E+00; -3.0689782E-03;  1.9079317E+02;
  6.1563581E-02;  9.9999998E-03;  8.0022573E-02;2850;  2.9459505E-03;  0.0000000E+00; -2.8168128E-04;  1.0014978E+03;  1.0000000E-01;  1.2408538E+03;3; -2.5142435E+01;  0.0000000E+00; -8.4440280E-03;0;  4.9309965E-02;  4.0131086E+04;  0.0000000E+00; -6.0352464E-03;  4.0000000E+04;  0.0000000E+00;  4.0004422E+04;  5.2267015E-02;  0.0000000E+00; -2.9570488E-03;  3.6433163E+02;
  6.1559219E-02;  9.9999998E-03;  9.0024441E-02;2851;  2.9428373E-03;  0.0000000E+00; -3.0106195E-04;  1.0015217E+03;  1.0000000E-01;  1.2607051E+03;3; -2.4762018E+01;  0.0000000E+00; -4.4249240E-02;0;  4.8529238E-02;  4.0131383E+04;  0.0000000E+00; -1.1282545E-02;  4.0000000E+04;  0.0000000E+00;  4.0005590E+04;  5.1384389E-02;  0.0000000E+00; -2.8551514E-03;  5.9259509E+02;
  6.1557859E-02;  9.9999998E-03;  1.0002279E-01;2852;  2.8963776E-03;  0.0000000E+00; -3.1452224E-04;  1.0015453E+03;  1.0000000E-01;  1.2802601E+03;3; -2.4300991E+01;  0.0000000E+00; -1.0313947E-01;0;  4.7593351E-02;  4.0131301E+04;  0.0000000E+00; -1.9214991E-02;  4.0000000E+04;  0.0000000E+00;  4.0007891E+04;  5.0364129E-02;  0.0000000E+00; -2.7707766E-03;  8.2143799E+02;
  6.1561376E-02;  9.9999998E-03;  1.1001713E-01;2853;  2.8129132E-03;  0.0000000E+00; -3.2497768E-04;  1.0015588E+03;  1.0000000E-01;  1.2914203E+03;3; -2.3832390E+01;  0.0000000E+00; -1.8972741E-01;0;  4.6518691E-02;  4.0130973E+04;  0.0000000E+00; -3.0905716E-02;  4.0000000E+04;  0.0000000E+00;  4.0009199E+04;  4.9226180E-02;  0.0000000E+00; -2.7074877E-03;  9.8941840E+02;
  6.1572023E-02;  9.9999998E-03;  1.2000734E-01;2854;  2.7043223E-03;  0.0000000E+00; -3.3822117E-04;  1.0015498E+03;  1.0000000E-01;  1.2840131E+03;3; -2.3407932E+01;  0.0000000E+00; -3.0788615E-01;0;  4.5336138E-02;  4.0129848E+04;  0.0000000E+00; -4.7402065E-02;  4.0000000E+04;  0.0000000E+00;  4.0009652E+04;  4.7999423E-02;  0.0000000E+00; -2.6632852E-03;  1.0449135E+03;
  6.1590999E-02;  9.9999998E-03;  1.2999502E-01;2855;  2.5905399E-03;  0.0000000E+00; -3.5939272E-04;  1.0015130E+03;  1.0000000E-01;  1.2534954E+03;3; -2.3057064E+01;  0.0000000E+00; -4.5924786E-01;0;  4.4087455E-02;  4.0127441E+04;  0.0000000E+00; -6.9108389E-02;  4.0000000E+04;  0.0000000E+00;  4.0008711E+04;  4.6717592E-02;  0.0000000E+00; -2.6301371E-03;  9.6306909E+02;
  6.1617870E-02;  9.9999998E-03;  1.3998358E-01;2856;  2.4950444E-03;  0.0000000E+00; -3.9391205E-04;  1.0014439E+03;  1.0000000E-01;  1.1962131E+03;3; -2.2748098E+01;  0.0000000E+00; -6.4750487E-01;0;  4.2821936E-02;  4.0123223E+04;  0.0000000E+00; -9.4938628E-02;  4.0000000E+04;  0.0000000E+00;  4.0007074E+04;  4.5416467E-02;  0.0000000E+00; -2.5945306E-03;  7.5845288E+02;
  6.1651353E-02;  9.9999998E-03;  1.4997543E-01;2857;  2.4389536E-03;  0.0000000E+00; -4.4323428E-04;  1.0013414E+03;  1.0000000E-01;  1.1113760E+03;3; -2.2393127E+01;  0.0000000E+00; -8.6705548E-01;0;  4.1593961E-02;  4.0116879E+04;  0.0000000E+00; -1.2142202E-01;  4.0000000E+04;  0.0000000E+00;  4.0004348E+04;  4.4133414E-02;  0.0000000E+00; -2.5394505E-03;  4.9034030E+02;
  6.1688140E-02;  9.9999998E-03;  1.5997125E-01;2858;  2.4382307E-03;  0.0000000E+00; -5.0298462E-04;  1.0012039E+03;  1.0000000E-01;  9.9740387E+02;3; -2.1857512E+01;  0.0000000E+00; -1.0825021E+00;0;  4.0456086E-02;  4.0107625E+04;  0.0000000E+00; -1.4215890E-01;  4.0000000E+04;  0.0000000E+00;  4.0002684E+04;  4.2903829E-02;  0.0000000E+00; -2.4477446E-03;  2.6817438E+02;
  6.1723426E-02;  9.9999998E-03;  1.6997157E-01;2859;  2.5108911E-03;  0.0000000E+00; -5.6225876E-04;  1.0010430E+03;  1.0000000E-01;  8.6417310E+02;3; -2.1024456E+01;  0.0000000E+00; -1.2304035E+00;0;  3.9450757E-02;  4.0095375E+04;  0.0000000E+00; -1.4982024E-01;  4.0000000E+04;  0.0000000E+00;  4.0000516E+04;  4.1753985E-02;  0.0000000E+00; -2.3032278E-03;  2.1379204E+02;
  6.1751533E-02;  9.9999998E-03;  1.7997734E-01;2860;  2.6715547E-03;  0.0000000E+00; -6.0822867E-04;  1.0008536E+03;  1.0000000E-01;  7.0723926E+02;3; -1.9749022E+01;  0.0000000E+00; -1.2391045E+00;0;  3.8603686E-02;  4.0079613E+04;  0.0000000E+00; -1.3892092E-01;  4.0000000E+04;  0.0000000E+00;  4.0000613E+04;  4.0695280E-02;  0.0000000E+00; -2.0915926E-03;  2.0015135E+02;
  6.1765108E-02;  9.9999998E-03;  1.8998876E-01;2861;  2.9077714E-03;  0.0000000E+00; -6.2241964E-04;  1.0006492E+03;  1.0000000E-01;  5.3786133E+02;3; -1.7971010E+01;  0.0000000E+00; -1.0249872E+00;0;  3.7919696E-02;  4.0060668E+04;  0.0000000E+00; -1.0826157E-01;  4.0000000E+04;  0.0000000E+00;  4.0001430E+04;  3.9721943E-02;  0.0000000E+00; -1.8022486E-03;  2.1783386E+02;
  6.1756987E-02;  9.9999998E-03;  2.0000350E-01;2862;  3.2103206E-03;  0.0000000E+00; -5.9433666E-04;  1.0004317E+03;  1.0000000E-01;  3.5761951E+02;3; -1.5651610E+01;  0.0000000E+00; -4.6912083E-01;0;  3.7376925E-02;  4.0038762E+04;  0.0000000E+00; -6.2235069E-02;  4.0000000E+04;  0.0000000E+00;  4.0004840E+04;  3.8805634E-02;  0.0000000E+00; -1.4287089E-03;  5.6998169E+02;
  6.1722450E-02;  9.9999998E-03;  2.1001939E-01;2863;  3.5478901E-03;  0.0000000E+00; -5.1279523E-04;  1.0002027E+03;  1.0000000E-01;  1.6789648E+02;3; -1.2812763E+01;  0.0000000E+00;  5.9127063E-01;0;  3.6933396E-02;  4.0014746E+04;  0.0000000E+00; -1.1074597E-02;  4.0000000E+04;  0.0000000E+00;  4.0009500E+04;  3.7898816E-02;  0.0000000E+00; -9.6541987E-04;  1.1372419E+03;
  6.1658137E-02;  9.9999998E-03;  2.2003429E-01;2864;  3.8592834E-03;  0.0000000E+00; -3.9090513E-04;  9.9996820E+02;  1.0000000E-01; -2.6369625E+01;3; -9.5470018E+00;  0.0000000E+00;  2.3137221E+00;0;  3.6533579E-02;  3.9989602E+04;  0.0000000E+00;  2.9775741E-02;  4.0000000E+04;  0.0000000E+00;  4.0013766E+04;  3.6937520E-02;  0.0000000E+00; -4.0393946E-04;  1.7792256E+03;
  6.1557744E-02;  9.9999998E-03;  2.3004398E-01;2865;  4.0518176E-03;  0.0000000E+00; -2.9155953E-04;  9.9972961E+02;  1.0000000E-01; -2.2399367E+02;3; -6.0056696E+00;  0.0000000E+00;  4.6497722E+00;0;  3.6111537E-02;  3.9964457E+04;  0.0000000E+00;  4.1424260E-02;  4.0000000E+04;  0.0000000E+00;  4.0018402E+04;  3.5844572E-02;  0.0000000E+00;  2.6696525E-04;  2.3531409E+03;
  7.1408607E-02;  9.9999998E-03;  7.0028640E-02;2910;  2.7125385E-03;  0.0000000E+00; -2.7174284E-04;  1.0025977E+03;  1.0000000E-01;  2.1521367E+03;3; -2.1031174E+01;  0.0000000E+00; -1.1076692E-02;0;  6.0858451E-02;  4.0221840E+04;  0.0000000E+00;  2.3906364E-03;  4.0000000E+04;  0.0000000E+00;  4.0004465E+04;  6.4039022E-02;  0.0000000E+00; -3.1805728E-03;  3.0034076E+02;
  7.1403824E-02;  9.9999998E-03;  8.0035895E-02;2911;  2.7426051E-03;  0.0000000E+00; -2.8594607E-04;  1.0026110E+03;  1.0000000E-01;  2.1630994E+03;3; -2.0814108E+01;  0.0000000E+00; -2.3013527E-02;0;  6.0275614E-02;  4.0221340E+04;  0.0000000E+00; -9.2499904E-05;  4.0000000E+04;  0.0000000E+00;  4.0006168E+04;  6.3335843E-02;  0.0000000E+00; -3.0602280E-03;  5.0565918E+02;
  7.1401216E-02;  9.9999998E-03;  9.0039603E-02;2912;  2.7315500E-03;  0.0000000E+00; -2.9045524E-04;  1.0026364E+03;  1.0000000E-01;  2.1842346E+03;3; -2.0494789E+01;  0.0000000E+00; -4.6246007E-02;0;  5.9518486E-02;  4.0221414E+04;  0.0000000E+00; -4.2618872E-03;  4.0000000E+04;  0.0000000E+00;  4.0007961E+04;  6.2479768E-02;  0.0000000E+00; -2.9612812E-03;  7.6992542E+02;
  7.1402363E-02;  9.9999998E-03;  1.0003839E-01;2913;  2.6773971E-03;  0.0000000E+00; -2.8751290E-04;  1.0026638E+03;  1.0000000E-01;  2.2069500E+03;3; -2.0121830E+01;  0.0000000E+00; -8.4448986E-02;0;  5.8577914E-02;  4.0221660E+04;  0.0000000E+00; -1.0413802E-02;  4.0000000E+04;  0.0000000E+00;  4.0010305E+04;  6.1470773E-02;  0.0000000E+00; -2.8928577E-03;  1.0308563E+03;
  7.1408443E-02;  9.9999998E-03;  1.1003148E-01;2914;  2.5866304E-03;  0.0000000E+00; -2.8247884E-04;  1.0026884E+03;  1.0000000E-01;  2.2272949E+03;3; -1.9768082E+01;  0.0000000E+00; -1.4041506E-01;0;  5.7458352E-02;  4.0222004E+04;  0.0000000E+00; -1.8660013E-02;  4.0000000E+04;  0.0000000E+00;  4.0011773E+04;  6.0316201E-02;  0.0000000E+00; -2.8578504E-03;  1.2174159E+03;
  7.1420990E-02;  9.9999998E-03;  1.2001924E-01;2915;  2.4726989E-03;  0.0000000E+00; -2.8490767E-04;  1.0026931E+03;  1.0000000E-01;  2.2311467E+03;3; -1.9473858E+01;  0.0000000E+00; -2.1598315E-01;0;  5.6180354E-02;  4.0222195E+04;  0.0000000E+00; -2.8587600E-02;  4.0000000E+04;  0.0000000E+00;  4.0012035E+04;  5.9031282E-02;  0.0000000E+00; -2.8509286E-03;  1.2694585E+03;
  7.1441755E-02;  9.9999998E-03;  1.3000338E-01;2916;  2.3553655E-03;  0.0000000E+00; -3.0232852E-04;  1.0026769E+03;  1.0000000E-01;  2.2177151E+03;3; -1.9270834E+01;  0.0000000E+00; -3.1243402E-01;0;  5.4779019E-02;  4.0221426E+04;  0.0000000E+00; -3.8638595E-02;  4.0000000E+04;  0.0000000E+00;  4.0010672E+04;  5.7637572E-02;  0.0000000E+00; -2.8585547E-03;  1.1572286E+03;
  7.1470715E-02;  9.9999998E-03;  1.3998750E-01;2917;  2.2568442E-03;  0.0000000E+00; -3.4074724E-04;  1.0026246E+03;  1.0000000E-01;  2.1744570E+03;3; -1.9114906E+01;  0.0000000E+00; -4.3176407E-01;0;  5.3299192E-02;  4.0219148E+04;  0.0000000E+00; -4.5311779E-02;  4.0000000E+04;  0.0000000E+00;  4.0008633E+04;  5.6160174E-02;  0.0000000E+00; -2.8609820E-03;  8.9459991E+02;
  7.1506396E-02;  9.9999998E-03;  1.4997548E-01;2918;  2.1959872E-03;  0.0000000E+00; -3.9911611E-04;  1.0025417E+03;  1.0000000E-01;  2.1057183E+03;3; -1.8944044E+01;  0.0000000E+00; -5.6842601E-01;0;  5.1792368E-02;  4.0214633E+04;  0.0000000E+00; -4.2610537E-02;  4.0000000E+04;  0.0000000E+00;  4.0006004E+04;  5.4628395E-02;  0.0000000E+00; -2.8360272E-03;  5.4057196E+02;
  7.1545757E-02;  9.9999998E-03;  1.5996847E-01;2919;  2.1949734E-03;  0.0000000E+00; -4.6874816E-04;  1.0024186E+03;  1.0000000E-01;  2.0037952E+03;3; -1.8632465E+01;  0.0000000E+00; -6.8108469E-01;0;  5.0311744E-02;  4.0206988E+04;  0.0000000E+00; -2.1945804E-02;  4.0000000E+04;  0.0000000E+00;  4.0003125E+04;  5.3074755E-02;  0.0000000E+00; -2.7630096E-03;  1.8657826E+02;
  7.1584173E-02;  9.9999998E-03;  1.6996627E-01;2920;  2.2671113E-03;  0.0000000E+00; -5.3884881E-04;  1.0022591E+03;  1.0000000E-01;  1.8716508E+03;3; -1.8067108E+01;  0.0000000E+00; -6.8762183E-01;0;  4.8907246E-02;  4.0195672E+04;  0.0000000E+00;  2.5164438E-02;  4.0000000E+04;  0.0000000E+00;  4.0000945E+04;  5.1529750E-02;  0.0000000E+00; -2.6225031E-03;  7.5441643E+01;
  7.1615770E-02;  9.9999998E-03;  1.7996973E-01;2921;  2.4238306E-03;  0.0000000E+00; -5.9178250E-04;  1.0020713E+03;  1.0000000E-01;  1.7160009E+03;3; -1.7157730E+01;  0.0000000E+00; -4.9419922E-01;0;  4.7615927E-02;  4.0179852E+04;  0.0000000E+00;  1.0274695E-01;  4.0000000E+04;  0.0000000E+00;  4.0000578E+04;  5.0014488E-02;  0.0000000E+00; -2.3985631E-03;  1.9587398E+02;
  7.1634404E-02;  9.9999998E-03;  1.8998013E-01;2922;  2.6602496E-03;  0.0000000E+00; -6.1131001E-04;  1.0018503E+03;  1.0000000E-01;  1.5328949E+03;3; -1.5813921E+01;  0.0000000E+00;  7.2019976E-03;0;  4.6454731E-02;  4.0159578E+04;  0.0000000E+00;  2.0739238E-01;  4.0000000E+04;  0.0000000E+00;  4.0001746E+04;  4.8536420E-02;  0.0000000E+00; -2.0816883E-03;  3.0138654E+02;
  7.1632147E-02;  9.9999998E-03;  1.9999534E-01;2923;  2.9635148E-03;  0.0000000E+00; -5.7501497E-04;  1.0016001E+03;  1.0000000E-01;  1.3256909E+03;3; -1.3994601E+01;  0.0000000E+00;  9.5737886E-01;0;  4.5413863E-02;  4.0134832E+04;  0.0000000E+00;  3.2719889E-01;  4.0000000E+04;  0.0000000E+00;  4.0004910E+04;  4.7082100E-02;  0.0000000E+00; -1.6682355E-03;  6.5721490E+02;
  7.1604535E-02;  9.9999998E-03;  2.1001297E-01;2924;  3.3073807E-03;  0.0000000E+00; -4.6502420E-04;  1.0013204E+03;  1.0000000E-01;  1.0939938E+03;3; -1.1683975E+01;  0.0000000E+00;  2.5390174E+00;0;  4.4463553E-02;  4.0106086E+04;  0.0000000E+00;  4.4194919E-01;  4.0000000E+04;  0.0000000E+00;  4.0009332E+04;  4.5620047E-02;  0.0000000E+00; -1.1564922E-03;  1.2366012E+03;
  7.1549185E-02;  9.9999998E-03;  2.2002964E-01;2925;  3.6360251E-03;  0.0000000E+00; -2.8492510E-04;  1.0010118E+03;  1.0000000E-01;  8.3819849E+02;3; -8.9025707E+00;  0.0000000E+00;  4.9129667E+00;0;  4.3560676E-02;  4.0074527E+04;  0.0000000E+00;  5.2436751E-01;  4.0000000E+04;  0.0000000E+00;  4.0015047E+04;  4.4102106E-02;  0.0000000E+00; -5.4142927E-04;  1.9013242E+03;
  7.1462251E-02;  9.9999998E-03;  2.3004174E-01;2926;  3.8493061E-03;  0.0000000E+00; -9.9388730E-05;  1.0006796E+03;  1.0000000E-01;  5.6304578E+02;3; -5.7285438E+00;  0.0000000E+00;  8.0397863E+00;0;  4.2652465E-02;  4.0041352E+04;  0.0000000E+00;  5.4697108E-01;  4.0000000E+04;  0.0000000E+00;  4.0019344E+04;  4.2465832E-02;  0.0000000E+00;  1.8663221E-04;  2.4939700E+03;
  8.1313245E-02;  9.9999998E-03;  7.0034534E-02;2971;  2.7760160E-03;  0.0000000E+00; -2.9026830E-04;  1.0030013E+03;  1.0000000E-01;  2.4865469E+03;3; -1.5123858E+01;  0.0000000E+00; -2.9777214E-02;0;  7.2187580E-02;  4.0253227E+04;  0.0000000E+00;  4.6101338E-03;  4.0000000E+04;  0.0000000E+00;  4.0005918E+04;  7.5471282E-02;  0.0000000E+00; -3.2837032E-03;  5.0661890E+02;
  8.1309363E-02;  9.9999998E-03;  8.0045126E-02;2972;  2.7947112E-03;  0.0000000E+00; -3.0020226E-04;  1.0030031E+03;  1.0000000E-01;  2.4879297E+03;3; -1.4942630E+01;  0.0000000E+00; -3.8607746E-02;0;  7.1721323E-02;  4.0251996E+04;  0.0000000E+00;  2.9324936E-03;  4.0000000E+04;  0.0000000E+00;  4.0008180E+04;  7.4880086E-02;  0.0000000E+00; -3.1587635E-03;  7.3394507E+02;
  8.1308179E-02;  9.9999998E-03;  9.0051405E-02;2973;  2.7734614E-03;  0.0000000E+00; -2.9308934E-04;  1.0030221E+03;  1.0000000E-01;  2.5037317E+03;3; -1.4691777E+01;  0.0000000E+00; -5.5186287E-02;0;  7.1075276E-02;  4.0251402E+04;  0.0000000E+00; -6.5151180E-05;  4.0000000E+04;  0.0000000E+00;  4.0010418E+04;  7.4141897E-02;  0.0000000E+00; -3.0666254E-03;  1.0247393E+03;
  8.1310891E-02;  9.9999998E-03;  1.0005146E-01;2974;  2.7112316E-03;  0.0000000E+00; -2.7357636E-04;  1.0030536E+03;  1.0000000E-01;  2.5299038E+03;3; -1.4416008E+01;  0.0000000E+00; -8.0733970E-02;0;  7.0224866E-02;  4.0251863E+04;  0.0000000E+00; -4.2372178E-03;  4.0000000E+04;  0.0000000E+00;  4.0012984E+04;  7.3243544E-02;  0.0000000E+00; -3.0186800E-03;  1.3098947E+03;
  8.1318252E-02;  9.9999998E-03;  1.1004408E-01;2975;  2.6153082E-03;  0.0000000E+00; -2.5305102E-04;  1.0030875E+03;  1.0000000E-01;  2.5579524E+03;3; -1.4165722E+01;  0.0000000E+00; -1.1499013E-01;0;  6.9158994E-02;  4.0252895E+04;  0.0000000E+00; -8.9102797E-03;  4.0000000E+04;  0.0000000E+00;  4.0014395E+04;  7.2176814E-02;  0.0000000E+00; -3.0178211E-03;  1.5099451E+03;
  8.1330635E-02;  9.9999998E-03;  1.2002984E-01;2976;  2.4981995E-03;  0.0000000E+00; -2.4376025E-04;  1.0031099E+03;  1.0000000E-01;  2.5764209E+03;3; -1.3976983E+01;  0.0000000E+00; -1.5965392E-01;0;  6.7881770E-02;  4.0254363E+04;  0.0000000E+00; -1.2462508E-02;  4.0000000E+04;  0.0000000E+00;  4.0014523E+04;  7.0937529E-02;  0.0000000E+00; -3.0557620E-03;  1.5572576E+03;
  8.1349276E-02;  9.9999998E-03;  1.3001116E-01;2977;  2.3776067E-03;  0.0000000E+00; -2.5621586E-04;  1.0031141E+03;  1.0000000E-01;  2.5799763E+03;3; -1.3868404E+01;  0.0000000E+00; -2.1699262E-01;0;  6.6413887E-02;  4.0255516E+04;  0.0000000E+00; -1.1650087E-02;  4.0000000E+04;  0.0000000E+00;  4.0014020E+04;  6.9527492E-02;  0.0000000E+00; -3.1136018E-03;  1.4184897E+03;
  8.1375472E-02;  9.9999998E-03;  1.3999167E-01;2978;  2.2743579E-03;  0.0000000E+00; -2.9287217E-04;  1.0030909E+03;  1.0000000E-01;  2.5608164E+03;3; -1.3813437E+01;  0.0000000E+00; -2.8684565E-01;0;  6.4790100E-02;  4.0255848E+04;  0.0000000E+00; -7.9568889E-04;  4.0000000E+04;  0.0000000E+00;  4.0011883E+04;  6.7955568E-02;  0.0000000E+00; -3.1654690E-03;  1.1097433E+03;
  8.1407972E-02;  9.9999998E-03;  1.4997591E-01;2979;  2.2100778E-03;  0.0000000E+00; -3.5092828E-04;  1.0030343E+03;  1.0000000E-01;  2.5139043E+03;3; -1.3750788E+01;  0.0000000E+00; -3.6406454E-01;0;  6.3053071E-02;  4.0254266E+04;  0.0000000E+00;  2.8608387E-02;  4.0000000E+04;  0.0000000E+00;  4.0007949E+04;  6.6237234E-02;  0.0000000E+00; -3.1841637E-03;  6.9980914E+02;
  8.1445307E-02;  9.9999998E-03;  1.5996662E-01;2980;  2.2011329E-03;  0.0000000E+00; -4.2649943E-04;  1.0029438E+03;  1.0000000E-01;  2.4388445E+03;3; -1.3595856E+01;  0.0000000E+00; -4.0487716E-01;0;  6.1254740E-02;  4.0249469E+04;  0.0000000E+00;  8.7214865E-02;  4.0000000E+04;  0.0000000E+00;  4.0004500E+04;  6.4399876E-02;  0.0000000E+00; -3.1451376E-03;  3.1560587E+02;
  8.1482552E-02;  9.9999998E-03;  1.6996284E-01;2981;  2.2645425E-03;  0.0000000E+00; -4.9829879E-04;  1.0028128E+03;  1.0000000E-01;  2.3304033E+03;3; -1.3250321E+01;  0.0000000E+00; -3.1736580E-01;0;  5.9448995E-02;  4.0240637E+04;  0.0000000E+00;  1.8476640E-01;  4.0000000E+04;  0.0000000E+00;  4.0001875E+04;  6.2474582E-02;  0.0000000E+00; -3.0255893E-03;  2.6436823E+02;
  8.1514478E-02;  9.9999998E-03;  1.7996480E-01;2982;  2.4106731E-03;  0.0000000E+00; -5.5563805E-04;  1.0026476E+03;  1.0000000E-01;  2.1935183E+03;3; -1.2642811E+01;  0.0000000E+00;  6.6478900E-03;0;  5.7683960E-02;  4.0226855E+04;  0.0000000E+00;  3.2464555E-01;  4.0000000E+04;  0.0000000E+00;  4.0000883E+04;  6.0492035E-02;  0.0000000E+00; -2.8080759E-03;  4.7286618E+02;
  8.1534229E-02;  9.9999998E-03;  1.8997401E-01;2983;  2.6369391E-03;  0.0000000E+00; -5.6959526E-04;  1.0024387E+03;  1.0000000E-01;  2.0203873E+03;3; -1.1695726E+01;  0.0000000E+00;  6.9777685E-01;0;  5.5988744E-02;  4.0207711E+04;  0.0000000E+00;  5.0058872E-01;  4.0000000E+04;  0.0000000E+00;  4.0002434E+04;  5.8471538E-02;  0.0000000E+00; -2.4827956E-03;  7.1931421E+02;
  8.1533961E-02;  9.9999998E-03;  1.9998953E-01;2984;  2.9370871E-03;  0.0000000E+00; -5.1711610E-04;  1.0021882E+03;  1.0000000E-01;  1.8128870E+03;3; -1.0362531E+01;  0.0000000E+00;  1.9215957E+00;0;  5.4369487E-02;  4.0182680E+04;  0.0000000E+00;  6.9501358E-01;  4.0000000E+04;  0.0000000E+00;  4.0005730E+04;  5.6416128E-02;  0.0000000E+00; -2.0466396E-03;  1.1181965E+03;
  8.1509776E-02;  9.9999998E-03;  2.1000865E-01;2985;  3.2886346E-03;  0.0000000E+00; -3.5692996E-04;  1.0018925E+03;  1.0000000E-01;  1.5679557E+03;3; -8.5981483E+00;  0.0000000E+00;  3.8955157E+00;0;  5.2816592E-02;  4.0152574E+04;  0.0000000E+00;  8.7823427E-01;  4.0000000E+04;  0.0000000E+00;  4.0010785E+04;  5.4315481E-02;  0.0000000E+00; -1.4988901E-03;  1.7056547E+03;
  8.1458665E-02;  9.9999998E-03;  2.2002752E-01;2986;  3.6242686E-03;  0.0000000E+00; -6.8003203E-05;  1.0015562E+03;  1.0000000E-01;  1.2892474E+03;3; -6.3758650E+00;  0.0000000E+00;  6.8624501E+00;0;  5.1310141E-02;  4.0117871E+04;  0.0000000E+00;  1.0157160E+00;  4.0000000E+04;  0.0000000E+00;  4.0016172E+04;  5.2144434E-02;  0.0000000E+00; -8.3429395E-04;  2.3809663E+03;
  8.1379935E-02;  9.9999998E-03;  2.3004252E-01;2987;  3.8249064E-03;  0.0000000E+00;  2.4916918E-04;  1.0011731E+03;  1.0000000E-01;  9.7192316E+02;3; -3.6772511E+00;  0.0000000E+00;  1.0716879E+01;0;  4.9823463E-02;  4.0080160E+04;  0.0000000E+00;  1.0783449E+00;  4.0000000E+04;  0.0000000E+00;  4.0021520E+04;  4.9865503E-02;  0.0000000E+00; -4.2039086E-05;  2.9807341E+03;
  9.1296725E-02;  9.9999998E-03;  7.0029959E-02;3032;  3.1495006E-03;  0.0000000E+00; -3.2902608E-04;  1.0028192E+03;  1.0000000E-01;  2.3356377E+03;3; -9.6056414E+00;  0.0000000E+00; -3.8928583E-02;0;  8.2285509E-02;  4.0236090E+04;  0.0000000E+00;  1.9394174E-03;  4.0000000E+04;  0.0000000E+00;  4.0008395E+04;  8.5662499E-02;  0.0000000E+00; -3.3769882E-03;  7.8987201E+02;
  9.1290914E-02;  9.9999998E-03;  8.0045193E-02;3033;  3.1539986E-03;  0.0000000E+00; -3.4479238E-04;  1.0028128E+03;  1.0000000E-01;  2.3304033E+03;3; -9.4761057E+00;  0.0000000E+00; -4.7310237E-02;0;  8.2019746E-02;  4.0233656E+04;  0.0000000E+00;  3.9612109E-04;  4.0000000E+04;  0.0000000E+00;  4.0010262E+04;  8.5271575E-02;  0.0000000E+00; -3.2518273E-03;  1.0293430E+03;
  9.1287002E-02;  9.9999998E-03;  9.0055756E-02;3034;  3.1132726E-03;  0.0000000E+00; -3.2950335E-04;  1.0028239E+03;  1.0000000E-01;  2.3394895E+03;3; -9.2978125E+00;  0.0000000E+00; -6.3551866E-02;0;  8.1586130E-02;  4.0232414E+04;  0.0000000E+00; -1.8375587E-03;  4.0000000E+04;  0.0000000E+00;  4.0012574E+04;  8.4756501E-02;  0.0000000E+00; -3.1703678E-03;  1.3358264E+03;
  9.1286108E-02;  9.9999998E-03;  1.0005856E-01;3035;  3.0283532E-03;  0.0000000E+00; -2.9004985E-04;  1.0028538E+03;  1.0000000E-01;  2.3642788E+03;3; -9.1076975E+00;  0.0000000E+00; -8.3796926E-02;0;  8.0943212E-02;  4.0232613E+04;  0.0000000E+00; -4.2215763E-03;  4.0000000E+04;  0.0000000E+00;  4.0015398E+04;  8.4089801E-02;  0.0000000E+00; -3.1465914E-03;  1.6350013E+03;
  9.1288850E-02;  9.9999998E-03;  1.1005228E-01;3036;  2.9068391E-03;  0.0000000E+00; -2.4657941E-04;  1.0028912E+03;  1.0000000E-01;  2.3952903E+03;3; -8.9405727E+00;  0.0000000E+00; -1.0584176E-01;0;  8.0059394E-02;  4.0234195E+04;  0.0000000E+00; -5.4880627E-03;  4.0000000E+04;  0.0000000E+00;  4.0016484E+04;  8.3243445E-02;  0.0000000E+00; -3.1840492E-03;  1.8404598E+03;
  9.1295235E-02;  9.9999998E-03;  1.2003718E-01;3037;  2.7684416E-03;  0.0000000E+00; -2.1803188E-04;  1.0029277E+03;  1.0000000E-01;  2.4256104E+03;3; -8.8253355E+00;  0.0000000E+00; -1.3213770E-01;0;  7.8917451E-02;  4.0237012E+04;  0.0000000E+00; -3.1572571E-03;  4.0000000E+04;  0.0000000E+00;  4.0017289E+04;  8.2189523E-02;  0.0000000E+00; -3.2720685E-03;  1.8786088E+03;
  9.1306128E-02;  9.9999998E-03;  1.3001613E-01;3038;  2.6289723E-03;  0.0000000E+00; -2.2247386E-04;  1.0029557E+03;  1.0000000E-01;  2.4488196E+03;3; -8.7735586E+00;  0.0000000E+00; -1.6286460E-01;0;  7.7515513E-02;  4.0240285E+04;  0.0000000E+00;  7.1794316E-03;  4.0000000E+04;  0.0000000E+00;  4.0016082E+04;  8.0902241E-02;  0.0000000E+00; -3.3867322E-03;  1.7136941E+03;
  9.1323204E-02;  9.9999998E-03;  1.3999374E-01;3039;  2.5108082E-03;  0.0000000E+00; -2.5519365E-04;  1.0029636E+03;  1.0000000E-01;  2.4553379E+03;3; -8.7671309E+00;  0.0000000E+00; -2.0140654E-01;0;  7.5867802E-02;  4.0243301E+04;  0.0000000E+00;  3.2713156E-02;  4.0000000E+04;  0.0000000E+00;  4.0013328E+04;  7.9364352E-02;  0.0000000E+00; -3.4965526E-03;  1.3654777E+03;
  9.1347784E-02;  9.9999998E-03;  1.4997491E-01;3040;  2.4342395E-03;  0.0000000E+00; -3.1064526E-04;  1.0029417E+03;  1.0000000E-01;  2.4371655E+03;3; -8.7575092E+00;  0.0000000E+00; -2.4033251E-01;0;  7.4003309E-02;  4.0244992E+04;  0.0000000E+00;  8.3821177E-02;  4.0000000E+04;  0.0000000E+00;  4.0009555E+04;  7.7573203E-02;  0.0000000E+00; -3.5698919E-03;  9.1490771E+02;
  9.1378525E-02;  9.9999998E-03;  1.5996407E-01;3041;  2.4133660E-03;  0.0000000E+00; -3.8367015E-04;  1.0028893E+03;  1.0000000E-01;  2.3938088E+03;3; -8.6878653E+00;  0.0000000E+00; -2.3332807E-01;0;  7.1965583E-02;  4.0244090E+04;  0.0000000E+00;  1.7270216E-01;  4.0000000E+04;  0.0000000E+00;  4.0005691E+04;  7.5543962E-02;  0.0000000E+00; -3.5783772E-03;  5.1757611E+02;
  9.1411881E-02;  9.9999998E-03;  1.6996017E-01;3042;  2.4641841E-03;  0.0000000E+00; -4.5681695E-04;  1.0028048E+03;  1.0000000E-01;  2.3236873E+03;3; -8.4920216E+00;  0.0000000E+00; -9.2883505E-02;0;  6.9810614E-02;  4.0238863E+04;  0.0000000E+00;  3.0976295E-01;  4.0000000E+04;  0.0000000E+00;  4.0003055E+04;  7.3307343E-02;  0.0000000E+00; -3.4967298E-03;  4.6117374E+02;
  9.1441862E-02;  9.9999998E-03;  1.7996182E-01;3043;  2.5998093E-03;  0.0000000E+00; -5.0619704E-04;  1.0026774E+03;  1.0000000E-01;  2.2181101E+03;3; -8.1041632E+00;  0.0000000E+00;  3.0208868E-01;0;  6.7594431E-02;  4.0228625E+04;  0.0000000E+00;  4.9866322E-01;  4.0000000E+04;  0.0000000E+00;  4.0002207E+04;  7.0900075E-02;  0.0000000E+00; -3.3056417E-03;  7.1222821E+02;
  9.1461405E-02;  9.9999998E-03;  1.8997057E-01;3044;  2.8216483E-03;  0.0000000E+00; -5.0848589E-04;  1.0025049E+03;  1.0000000E-01;  2.0752993E+03;3; -7.4702468E+00;  0.0000000E+00;  1.0994940E+00;0;  6.5360032E-02;  4.0212031E+04;  0.0000000E+00;  7.3256195E-01;  4.0000000E+04;  0.0000000E+00;  4.0003723E+04;  6.8353198E-02;  0.0000000E+00; -2.9931674E-03;  1.0686774E+03;
  9.1461740E-02;  9.9999998E-03;  1.9998604E-01;3045;  3.1278508E-03;  0.0000000E+00; -4.1824704E-04;  1.0022835E+03;  1.0000000E-01;  1.8917983E+03;3; -6.5366764E+00;  0.0000000E+00;  2.5026181E+00;0;  6.3133277E-02;  4.0189277E+04;  0.0000000E+00;  9.9075586E-01;  4.0000000E+04;  0.0000000E+00;  4.0007387E+04;  6.5687448E-02;  0.0000000E+00; -2.5541733E-03;  1.5776543E+03;
  9.1437034E-02;  9.9999998E-03;  2.1000603E-01;3046;  3.4934320E-03;  0.0000000E+00; -1.4973059E-04;  1.0020026E+03;  1.0000000E-01;  1.6591135E+03;3; -5.2363963E+00;  0.0000000E+00;  4.8126721E+00;0;  6.0933162E-02;  4.0159660E+04;  0.0000000E+00;  1.2431166E+00;  4.0000000E+04;  0.0000000E+00;  4.0012500E+04;  6.2918521E-02;  0.0000000E+00; -1.9853597E-03;  2.2591631E+03;
  9.1388464E-02;  9.9999998E-03;  2.2002620E-01;3047;  3.8244417E-03;  0.0000000E+00;  2.4318753E-04;  1.0016628E+03;  1.0000000E-01;  1.3776400E+03;3; -3.4998763E+00;  0.0000000E+00;  8.2115383E+00;0;  5.8777966E-02;  4.0124742E+04;  0.0000000E+00;  1.4598945E+00;  4.0000000E+04;  0.0000000E+00;  4.0018734E+04;  6.0057271E-02;  0.0000000E+00; -1.2793042E-03;  3.0235083E+03;
  9.1313288E-02;  9.9999998E-03;  2.3004325E-01;3048;  4.0171379E-03;  0.0000000E+00;  5.1870552E-04;  1.0012634E+03;  1.0000000E-01;  1.0466864E+03;3; -1.3009363E+00;  0.0000000E+00;  1.2527514E+01;0;  5.6670092E-02;  4.0085453E+04;  0.0000000E+00;  1.6187495E+00;  4.0000000E+04;  0.0000000E+00;  4.0024293E+04;  5.7096109E-02;  0.0000000E+00; -4.2601669E-04;  3.7094285E+03;
  1.0133350E-01;  9.9999998E-03;  6.9995426E-02;3093;  4.3000742E-03;  0.0000000E+00; -4.7856351E-04;  1.0022436E+03;  1.0000000E-01;  1.8588116E+03;3; -5.4724288E+00;  0.0000000E+00; -2.9278100E-02;0;  8.9426614E-02;  4.0185164E+04;  0.0000000E+00; -5.9363311E-03;  4.0000000E+04;  0.0000000E+00;  4.0010812E+04;  9.2881367E-02;  0.0000000E+00; -3.4547516E-03;  1.1174351E+03;
  1.0131823E-01;  9.9999998E-03;  8.0020577E-02;3094;  4.2576366E-03;  0.0000000E+00; -5.1542564E-04;  1.0022201E+03;  1.0000000E-01;  1.8392566E+03;3; -5.3815746E+00;  0.0000000E+00; -3.8809489E-02;0;  8.9444168E-02;  4.0181613E+04;  0.0000000E+00; -8.4996456E-03;  4.0000000E+04;  0.0000000E+00;  4.0012574E+04;  9.2778355E-02;  0.0000000E+00; -3.3341898E-03;  1.3617467E+03;
  1.0130473E-01;  9.9999998E-03;  9.0040959E-02;3095;  4.1305674E-03;  0.0000000E+00; -4.8825328E-04;  1.0022209E+03;  1.0000000E-01;  1.8400468E+03;3; -5.2640214E+00;  0.0000000E+00; -5.4620724E-02;0;  8.9333482E-02;  4.0179629E+04;  0.0000000E+00; -1.0947807E-02;  4.0000000E+04;  0.0000000E+00;  4.0015070E+04;  9.2600890E-02;  0.0000000E+00; -3.2674079E-03;  1.6742155E+03;
  1.0129464E-01;  9.9999998E-03;  1.0005128E-01;3096;  3.9404104E-03;  0.0000000E+00; -3.7267408E-04;  1.0022421E+03;  1.0000000E-01;  1.8575277E+03;3; -5.1376677E+00;  0.0000000E+00; -8.5405819E-02;0;  8.9035302E-02;  4.0179301E+04;  0.0000000E+00; -1.2312358E-02;  4.0000000E+04;  0.0000000E+00;  4.0017543E+04;  9.2306003E-02;  0.0000000E+00; -3.2707031E-03;  1.9768346E+03;
  1.0128836E-01;  9.9999998E-03;  1.1004978E-01;3097;  3.7182425E-03;  0.0000000E+00; -2.4583560E-04;  1.0022859E+03;  1.0000000E-01;  1.8937736E+03;3; -5.0250487E+00;  0.0000000E+00; -1.1168163E-01;0;  8.8493161E-02;  4.0181129E+04;  0.0000000E+00; -1.0832080E-02;  4.0000000E+04;  0.0000000E+00;  4.0019227E+04;  9.1841601E-02;  0.0000000E+00; -3.3484420E-03;  2.1782053E+03;
  1.0128650E-01;  9.9999998E-03;  1.2003694E-01;3098;  3.4845548E-03;  0.0000000E+00; -1.8705860E-04;  1.0023343E+03;  1.0000000E-01;  1.9338712E+03;3; -4.9534822E+00;  0.0000000E+00; -1.2717360E-01;0;  8.7661237E-02;  4.0184715E+04;  0.0000000E+00; -3.4712644E-03;  4.0000000E+04;  0.0000000E+00;  4.0019434E+04;  9.1149278E-02;  0.0000000E+00; -3.4880405E-03;  2.2004683E+03;
  1.0128892E-01;  9.9999998E-03;  1.3001563E-01;3099;  3.2495635E-03;  0.0000000E+00; -1.8332851E-04;  1.0023775E+03;  1.0000000E-01;  1.9697220E+03;3; -4.9232984E+00;  0.0000000E+00; -1.4138463E-01;0;  8.6505048E-02;  4.0189863E+04;  0.0000000E+00;  1.4790913E-02;  4.0000000E+04;  0.0000000E+00;  4.0017785E+04;  9.0166554E-02;  0.0000000E+00; -3.6615047E-03;  2.0066001E+03;
  1.0129698E-01;  9.9999998E-03;  1.3999148E-01;3100;  3.0571918E-03;  0.0000000E+00; -2.1479053E-04;  1.0024120E+03;  1.0000000E-01;  1.9982645E+03;3; -4.9246616E+00;  0.0000000E+00; -1.5733942E-01;0;  8.5009903E-02;  4.0195680E+04;  0.0000000E+00;  5.1817928E-02;  4.0000000E+04;  0.0000000E+00;  4.0015004E+04;  8.8842630E-02;  0.0000000E+00; -3.8327312E-03;  1.6202819E+03;
  1.0131288E-01;  9.9999998E-03;  1.4997070E-01;3101;  2.9232339E-03;  0.0000000E+00; -2.7244459E-04;  1.0024299E+03;  1.0000000E-01;  2.0131776E+03;3; -4.9288993E+00;  0.0000000E+00; -1.7367895E-01;0;  8.3179779E-02;  4.0200824E+04;  0.0000000E+00;  1.1876394E-01;  4.0000000E+04;  0.0000000E+00;  4.0011055E+04;  8.7146617E-02;  0.0000000E+00; -3.9668377E-03;  1.1325197E+03;
  1.0133707E-01;  9.9999998E-03;  1.5995885E-01;3102;  2.8654039E-03;  0.0000000E+00; -3.4179148E-04;  1.0024236E+03;  1.0000000E-01;  2.0079432E+03;3; -4.8979125E+00;  0.0000000E+00; -1.4358391E-01;0;  8.1045106E-02;  4.0203801E+04;  0.0000000E+00;  2.2841927E-01;  4.0000000E+04;  0.0000000E+00;  4.0006727E+04;  8.5077889E-02;  0.0000000E+00; -4.0327818E-03;  7.1159961E+02;
  1.0136648E-01;  9.9999998E-03;  1.6995680E-01;3103;  2.8898236E-03;  0.0000000E+00; -4.1366814E-04;  1.0023857E+03;  1.0000000E-01;  1.9765367E+03;3; -4.7853780E+00;  0.0000000E+00;  1.8545633E-02;0;  7.8657478E-02;  4.0203070E+04;  0.0000000E+00;  3.9096615E-01;  4.0000000E+04;  0.0000000E+00;  4.0004293E+04;  8.2660884E-02;  0.0000000E+00; -4.0034023E-03;  6.2805261E+02;
  1.0139405E-01;  9.9999998E-03;  1.7995982E-01;3104;  3.0091729E-03;  0.0000000E+00; -4.6344305E-04;  1.0023068E+03;  1.0000000E-01;  1.9111559E+03;3; -4.5424929E+00;  0.0000000E+00;  4.3989524E-01;0;  7.6077275E-02;  4.0196801E+04;  0.0000000E+00;  6.1087477E-01;  4.0000000E+04;  0.0000000E+00;  4.0003441E+04;  7.9933763E-02;  0.0000000E+00; -3.8564841E-03;  8.9376453E+02;
  1.0141210E-01;  9.9999998E-03;  1.8996826E-01;3105;  3.2363757E-03;  0.0000000E+00; -4.6020653E-04;  1.0021846E+03;  1.0000000E-01;  1.8099241E+03;3; -4.1268716E+00;  0.0000000E+00;  1.2808998E+00;0;  7.3362380E-02;  4.0184164E+04;  0.0000000E+00;  8.8229448E-01;  4.0000000E+04;  0.0000000E+00;  4.0004855E+04;  7.6938920E-02;  0.0000000E+00; -3.5765367E-03;  1.3288120E+03;
  1.0141224E-01;  9.9999998E-03;  1.9998336E-01;3106;  3.5627515E-03;  0.0000000E+00; -3.3806689E-04;  1.0020055E+03;  1.0000000E-01;  1.6614839E+03;3; -3.4866204E+00;  0.0000000E+00;  2.7806818E+00;0;  7.0565104E-02;  4.0164398E+04;  0.0000000E+00;  1.1898644E+00;  4.0000000E+04;  0.0000000E+00;  4.0009293E+04;  7.3720030E-02;  0.0000000E+00; -3.1549265E-03;  1.9541711E+03;
  1.0138866E-01;  9.9999998E-03;  2.1000190E-01;3107;  3.9618886E-03;  0.0000000E+00; -5.9314567E-05;  1.0017586E+03;  1.0000000E-01;  1.4569464E+03;3; -2.5520253E+00;  0.0000000E+00;  5.2380333E+00;0;  6.7743056E-02;  4.0137512E+04;  0.0000000E+00;  1.5166453E+00;  4.0000000E+04;  0.0000000E+00;  4.0015570E+04;  7.0327342E-02;  0.0000000E+00; -2.5842881E-03;  2.7813960E+03;
  1.0133816E-01;  9.9999998E-03;  2.2002108E-01;3108;  4.3575913E-03;  0.0000000E+00;  1.8551118E-04;  1.0014402E+03;  1.0000000E-01;  1.1932502E+03;3; -1.2429426E+00;  0.0000000E+00;  8.7897482E+00;0;  6.4956069E-02;  4.0103758E+04;  0.0000000E+00;  1.8511924E+00;  4.0000000E+04;  0.0000000E+00;  4.0021785E+04;  6.6810466E-02;  0.0000000E+00; -1.8543953E-03;  3.7206672E+03;
  1.0126831E-01;  9.9999998E-03;  2.3003650E-01;3109;  4.7608907E-03;  0.0000000E+00;  2.6487384E-04;  1.0010507E+03;  1.0000000E-01;  8.7049390E+02;3;  5.1544112E-01;  0.0000000E+00;  1.3220448E+01;0;  6.2267225E-02;  4.0065109E+04;  0.0000000E+00;  2.1876452E+00;  4.0000000E+04;  0.0000000E+00;  4.0027652E+04;  6.3218400E-02;  0.0000000E+00; -9.5117535E-04;  4.6102729E+03;
  1.1178304E-01;  9.9999998E-03;  6.9958933E-02;3154;  1.2178259E-02;  0.0000000E+00; -7.9486688E-04;  1.0014305E+03;  1.0000000E-01;  1.1851516E+03;3; -6.6424298E-01;  0.0000000E+00; -1.3483676E-01;0;  9.2641905E-02;  4.0114691E+04;  0.0000000E+00; -1.7053301E-02;  4.0000000E+04;  0.0000000E+00;  4.0012605E+04;  9.6153423E-02;  0.0000000E+00; -3.5115217E-03;  1.4417343E+03;
  1.1173712E-01;  9.9999998E-03;  7.9966791E-02;3155;  1.1745419E-02;  0.0000000E+00; -8.9370529E-04;  1.0013940E+03;  1.0000000E-01;  1.1549303E+03;3; -8.3842754E-01;  0.0000000E+00; -1.5658633E-01;0;  9.3008250E-02;  4.0110012E+04;  0.0000000E+00; -2.1944048E-02;  4.0000000E+04;  0.0000000E+00;  4.0014730E+04;  9.6408956E-02;  0.0000000E+00; -3.4007088E-03;  1.6888750E+03;
  1.1165327E-01;  9.9999998E-03;  8.9986540E-02;3156;  1.0868047E-02;  0.0000000E+00; -9.4803981E-04;  1.0013904E+03;  1.0000000E-01;  1.1519674E+03;3; -1.1958243E+00;  0.0000000E+00; -1.7199673E-01;0;  9.3296073E-02;  4.0107340E+04;  0.0000000E+00; -2.5978180E-02;  4.0000000E+04;  0.0000000E+00;  4.0017457E+04;  9.6648581E-02;  0.0000000E+00; -3.3525098E-03;  2.0019344E+03;
  1.1155194E-01;  9.9999998E-03;  1.0000405E-01;3157;  9.4436519E-03;  0.0000000E+00; -9.0852188E-04;  1.0014090E+03;  1.0000000E-01;  1.1673744E+03;3; -1.7588304E+00;  0.0000000E+00; -1.6515276E-01;0;  9.3408309E-02;  4.0106980E+04;  0.0000000E+00; -2.7678141E-02;  4.0000000E+04;  0.0000000E+00;  4.0019383E+04;  9.6791960E-02;  0.0000000E+00; -3.3836507E-03;  2.3008335E+03;
  1.1140541E-01;  9.9999998E-03;  1.1001717E-01;3158;  7.6664984E-03;  0.0000000E+00; -6.7385432E-04;  1.0014580E+03;  1.0000000E-01;  1.2079658E+03;3; -2.3045523E+00;  0.0000000E+00; -1.2758471E-01;0;  9.3255028E-02;  4.0109422E+04;  0.0000000E+00; -2.4793699E-02;  4.0000000E+04;  0.0000000E+00;  4.0021230E+04;  9.6753724E-02;  0.0000000E+00; -3.4986951E-03;  2.4907781E+03;
  1.1132920E-01;  9.9999998E-03;  1.2001684E-01;3159;  6.1946148E-03;  0.0000000E+00; -3.8231825E-04;  1.0015133E+03;  1.0000000E-01;  1.2537917E+03;3; -2.4483383E+00;  0.0000000E+00; -1.3602436E-01;0;  9.2821591E-02;  4.0114035E+04;  0.0000000E+00; -1.3910123E-02;  4.0000000E+04;  0.0000000E+00;  4.0020773E+04;  9.6507601E-02;  0.0000000E+00; -3.6860092E-03;  2.4908728E+03;
  1.1130483E-01;  9.9999998E-03;  1.3000110E-01;3160;  5.2354862E-03;  0.0000000E+00; -2.6209935E-04;  1.0015743E+03;  1.0000000E-01;  1.3043582E+03;3; -2.4380672E+00;  0.0000000E+00; -1.5766425E-01;0;  9.2060767E-02;  4.0120676E+04;  0.0000000E+00;  1.0225333E-02;  4.0000000E+04;  0.0000000E+00;  4.0019410E+04;  9.5974699E-02;  0.0000000E+00; -3.9139292E-03;  2.2637917E+03;
  1.1129659E-01;  9.9999998E-03;  1.3997944E-01;3161;  4.5604040E-03;  0.0000000E+00; -2.6743431E-04;  1.0016310E+03;  1.0000000E-01;  1.3512704E+03;3; -2.4385068E+00;  0.0000000E+00; -1.7392322E-01;0;  9.0893909E-02;  4.0128773E+04;  0.0000000E+00;  5.5423301E-02;  4.0000000E+04;  0.0000000E+00;  4.0016496E+04;  9.5036879E-02;  0.0000000E+00; -4.1429671E-03;  1.8371781E+03;
  1.1130057E-01;  9.9999998E-03;  1.4995895E-01;3162;  4.1472516E-03;  0.0000000E+00; -3.4617478E-04;  1.0016787E+03;  1.0000000E-01;  1.3907755E+03;3; -2.4323325E+00;  0.0000000E+00; -1.8371089E-01;0;  8.9288332E-02;  4.0137098E+04;  0.0000000E+00;  1.3246475E-01;  4.0000000E+04;  0.0000000E+00;  4.0011340E+04;  9.3625501E-02;  0.0000000E+00; -4.3371660E-03;  1.3097065E+03;
  1.1131721E-01;  9.9999998E-03;  1.5994795E-01;3163;  3.8981840E-03;  0.0000000E+00; -4.4622322E-04;  1.0017140E+03;  1.0000000E-01;  1.4200093E+03;3; -2.4097588E+00;  0.0000000E+00; -1.4642285E-01;0;  8.7243088E-02;  4.0143746E+04;  0.0000000E+00;  2.5331095E-01;  4.0000000E+04;  0.0000000E+00;  4.0007332E+04;  9.1707803E-02;  0.0000000E+00; -4.4647143E-03;  8.5572833E+02;
  1.1134293E-01;  9.9999998E-03;  1.6994962E-01;3164;  3.8228510E-03;  0.0000000E+00; -5.4466503E-04;  1.0017255E+03;  1.0000000E-01;  1.4295892E+03;3; -2.3378856E+00;  0.0000000E+00;  1.8401071E-02;0;  8.4796086E-02;  4.0147262E+04;  0.0000000E+00;  4.2746514E-01;  4.0000000E+04;  0.0000000E+00;  4.0004660E+04;  8.9292206E-02;  0.0000000E+00; -4.4961162E-03;  7.3871515E+02;
  1.1136895E-01;  9.9999998E-03;  1.7995523E-01;3165;  3.9179651E-03;  0.0000000E+00; -6.2766415E-04;  1.0017003E+03;  1.0000000E-01;  1.4086515E+03;3; -2.1823466E+00;  0.0000000E+00;  4.2935553E-01;0;  8.2006663E-02;  4.0145516E+04;  0.0000000E+00;  6.5954119E-01;  4.0000000E+04;  0.0000000E+00;  4.0004043E+04;  8.6411804E-02;  0.0000000E+00; -4.4051376E-03;  1.0016600E+03;
  1.1138691E-01;  9.9999998E-03;  1.8996447E-01;3166;  4.1935518E-03;  0.0000000E+00; -6.7942857E-04;  1.0016294E+03;  1.0000000E-01;  1.3498877E+03;3; -1.9081578E+00;  0.0000000E+00;  1.2517322E+00;0;  7.8945734E-02;  4.0137082E+04;  0.0000000E+00;  9.4912547E-01;  4.0000000E+04;  0.0000000E+00;  4.0006285E+04;  8.3118647E-02;  0.0000000E+00; -4.1729133E-03;  1.4909270E+03;
  1.1138676E-01;  9.9999998E-03;  1.9997792E-01;3167;  4.6891659E-03;  0.0000000E+00; -7.0102833E-04;  1.0014980E+03;  1.0000000E-01;  1.2411500E+03;3; -1.4613421E+00;  0.0000000E+00;  2.7147856E+00;0;  7.5698569E-02;  4.0120941E+04;  0.0000000E+00;  1.2965542E+00;  4.0000000E+04;  0.0000000E+00;  4.0010918E+04;  7.9485931E-02;  0.0000000E+00; -3.7873629E-03;  2.2331958E+03;
  1.1136673E-01;  9.9999998E-03;  2.0999187E-01;3168;  5.5639455E-03;  0.0000000E+00; -7.2258560E-04;  1.0012944E+03;  1.0000000E-01;  1.0723647E+03;3; -7.2559035E-01;  0.0000000E+00;  5.1143937E+00;0;  7.2378859E-02;  4.0096949E+04;  0.0000000E+00;  1.7109355E+00;  4.0000000E+04;  0.0000000E+00;  4.0018105E+04;  7.5617693E-02;  0.0000000E+00; -3.2388372E-03;  3.2436982E+03;
  1.1132295E-01;  9.9999998E-03;  2.2000478E-01;3169;  7.0420103E-03;  0.0000000E+00; -8.6054410E-04;  1.0010114E+03;  1.0000000E-01;  8.3790222E+02;3;  5.7524437E-01;  0.0000000E+00;  8.6727858E+00;0;  6.9123641E-02;  4.0065383E+04;  0.0000000E+00;  2.2122235E+00;  4.0000000E+04;  0.0000000E+00;  4.0025859E+04;  7.1639784E-02;  0.0000000E+00; -2.5161423E-03;  4.4356294E+03;
  1.1125664E-01;  9.9999998E-03;  2.3001495E-01;3170;  8.5390843E-03;  0.0000000E+00; -1.1368997E-03;  1.0006399E+03;  1.0000000E-01;  5.3015784E+02;3;  2.5927415E+00;  0.0000000E+00;  1.3230542E+01;0;  6.6040277E-02;  4.0027633E+04;  0.0000000E+00;  2.8207808E+00;  4.0000000E+04;  0.0000000E+00;  4.0032164E+04;  6.7646004E-02;  0.0000000E+00; -1.6057303E-03;  5.6593125E+03;
  1.2175635E-01;  9.9999998E-03;  6.9957256E-02;3215;  1.5017368E-02;  0.0000000E+00; -3.2373867E-04;  1.0005963E+03;  1.0000000E-01;  4.9401071E+02;3;  1.7561054E+00;  0.0000000E+00; -1.4065598E-01;0;  9.0372838E-02;  4.0042820E+04;  0.0000000E+00; -2.6960701E-02;  4.0000000E+04;  0.0000000E+00;  4.0014133E+04;  9.3909033E-02;  0.0000000E+00; -3.5361929E-03;  1.7124448E+03;
  1.2177484E-01;  9.9999998E-03;  7.9959236E-02;3216;  1.5046750E-02;  0.0000000E+00; -3.8774713E-04;  1.0005518E+03;  1.0000000E-01;  4.5707349E+02;3;  1.7455032E+00;  0.0000000E+00; -1.6892055E-01;0;  9.1103874E-02;  4.0037418E+04;  0.0000000E+00; -3.5015598E-02;  4.0000000E+04;  0.0000000E+00;  4.0016414E+04;  9.4540969E-02;  0.0000000E+00; -3.4370946E-03;  1.9652529E+03;
  1.2179615E-01;  9.9999998E-03;  8.9960508E-02;3217;  1.5057590E-02;  0.0000000E+00; -4.5055291E-04;  1.0005307E+03;  1.0000000E-01;  4.3969125E+02;3;  1.7332522E+00;  0.0000000E+00; -2.0048931E-01;0;  9.1893874E-02;  4.0033383E+04;  0.0000000E+00; -4.2124357E-02;  4.0000000E+04;  0.0000000E+00;  4.0018172E+04;  9.5303878E-02;  0.0000000E+00; -3.4100027E-03;  2.2778604E+03;
  1.2181570E-01;  9.9999998E-03;  9.9957898E-02;3218;  1.5034736E-02;  0.0000000E+00; -5.1871769E-04;  1.0005360E+03;  1.0000000E-01;  4.4403683E+02;3;  1.7129796E+00;  0.0000000E+00; -2.3412807E-01;0;  9.2654333E-02;  4.0032102E+04;  0.0000000E+00; -4.6182033E-02;  4.0000000E+04;  0.0000000E+00;  4.0020973E+04;  9.6124791E-02;  0.0000000E+00; -3.4704595E-03;  2.5685601E+03;
  1.2181870E-01;  9.9999998E-03;  1.0994989E-01;3219;  1.4946776E-02;  0.0000000E+00; -6.0549448E-04;  1.0005686E+03;  1.0000000E-01;  4.7109778E+02;3;  1.6828099E+00;  0.0000000E+00; -2.6446167E-01;0;  9.3272381E-02;  4.0033320E+04;  0.0000000E+00; -4.4264376E-02;  4.0000000E+04;  0.0000000E+00;  4.0022332E+04;  9.6893176E-02;  0.0000000E+00; -3.6207982E-03;  2.7413728E+03;
  1.2174278E-01;  9.9999998E-03;  1.1995110E-01;3220;  1.4742744E-02;  0.0000000E+00; -7.2594517E-04;  1.0006262E+03;  1.0000000E-01;  5.1880017E+02;3;  1.6245201E+00;  0.0000000E+00; -2.9800409E-01;0;  9.3631357E-02;  4.0038266E+04;  0.0000000E+00; -3.2395586E-02;  4.0000000E+04;  0.0000000E+00;  4.0022066E+04;  9.7477205E-02;  0.0000000E+00; -3.8458467E-03;  2.7163918E+03;
  1.2161645E-01;  9.9999998E-03;  1.2994908E-01;3221;  1.4322032E-02;  0.0000000E+00; -8.8070385E-04;  1.0007002E+03;  1.0000000E-01;  5.8013171E+02;3;  1.5169231E+00;  0.0000000E+00; -3.2413432E-01;0;  9.3583912E-02;  4.0046398E+04;  0.0000000E+00; -5.3782742E-03;  4.0000000E+04;  0.0000000E+00;  4.0020434E+04;  9.7698085E-02;  0.0000000E+00; -4.1141757E-03;  2.4550647E+03;
  1.2148484E-01;  9.9999998E-03;  1.3993920E-01;3222;  1.3467148E-02;  0.0000000E+00; -1.0401157E-03;  1.0007806E+03;  1.0000000E-01;  6.4669775E+02;3;  1.2524954E+00;  0.0000000E+00; -3.3479682E-01;0;  9.3000084E-02;  4.0056828E+04;  0.0000000E+00;  4.4073004E-02;  4.0000000E+04;  0.0000000E+00;  4.0016199E+04;  9.7387627E-02;  0.0000000E+00; -4.3875421E-03;  1.9862826E+03;
  1.2139919E-01;  9.9999998E-03;  1.4992563E-01;3223;  1.1823126E-02;  0.0000000E+00; -1.1116804E-03;  1.0008632E+03;  1.0000000E-01;  7.1514026E+02;3;  6.9081062E-01;  0.0000000E+00; -3.1428173E-01;0;  9.1781929E-02;  4.0067941E+04;  0.0000000E+00;  1.2552585E-01;  4.0000000E+04;  0.0000000E+00;  4.0012000E+04;  9.6415155E-02;  0.0000000E+00; -4.6332288E-03;  1.4140122E+03;
  1.2136576E-01;  9.9999998E-03;  1.5991952E-01;3224;  9.9268127E-03;  0.0000000E+00; -1.1675352E-03;  1.0009342E+03;  1.0000000E-01;  7.7400281E+02;3;  1.3305561E-01;  0.0000000E+00; -2.6735824E-01;0;  8.9950398E-02;  4.0078047E+04;  0.0000000E+00;  2.4891454E-01;  4.0000000E+04;  0.0000000E+00;  4.0007348E+04;  9.4769545E-02;  0.0000000E+00; -4.8191492E-03;  9.1792480E+02;
  1.2137223E-01;  9.9999998E-03;  1.6992839E-01;3225;  8.7218424E-03;  0.0000000E+00; -1.2587435E-03;  1.0009876E+03;  1.0000000E-01;  8.1824847E+02;3; -1.6868460E-01;  0.0000000E+00; -1.1702366E-01;0;  8.7591685E-02;  4.0085535E+04;  0.0000000E+00;  4.2232791E-01;  4.0000000E+04;  0.0000000E+00;  4.0004402E+04;  9.2503317E-02;  0.0000000E+00; -4.9116309E-03;  7.6471332E+02;
  1.2139148E-01;  9.9999998E-03;  1.7994039E-01;3226;  8.4962687E-03;  0.0000000E+00; -1.3876172E-03;  1.0010097E+03;  1.0000000E-01;  8.3651953E+02;3; -8.7673105E-02;  0.0000000E+00;  2.7174041E-01;0;  8.4776253E-02;  4.0087801E+04;  0.0000000E+00;  6.5178448E-01;  4.0000000E+04;  0.0000000E+00;  4.0003961E+04;  8.9656726E-02;  0.0000000E+00; -4.8804744E-03;  1.0177306E+03;
  1.2140944E-01;  9.9999998E-03;  1.8995170E-01;3227;  9.2062326E-03;  0.0000000E+00; -1.5405689E-03;  1.0009894E+03;  1.0000000E-01;  8.1972992E+02;3;  3.7035337E-01;  0.0000000E+00;  1.0720521E+00;0;  8.1583820E-02;  4.0083266E+04;  0.0000000E+00;  9.4739711E-01;  4.0000000E+04;  0.0000000E+00;  4.0006543E+04;  8.6288899E-02;  0.0000000E+00; -4.7050798E-03;  1.5462488E+03;
  1.2141387E-01;  9.9999998E-03;  1.9996221E-01;3228;  1.0431082E-02;  0.0000000E+00; -1.7437002E-03;  1.0009079E+03;  1.0000000E-01;  7.5217627E+02;3;  1.1261718E+00;  0.0000000E+00;  2.5297642E+00;0;  7.8114599E-02;  4.0070754E+04;  0.0000000E+00;  1.3333240E+00;  4.0000000E+04;  0.0000000E+00;  4.0012301E+04;  8.2486339E-02;  0.0000000E+00; -4.3717418E-03;  2.4068906E+03;
  1.2139779E-01;  9.9999998E-03;  2.0996951E-01;3229;  1.1187307E-02;  0.0000000E+00; -1.9753715E-03;  1.0007490E+03;  1.0000000E-01;  6.2052563E+02;3;  1.7711872E+00;  0.0000000E+00;  4.9510603E+00;0;  7.4486457E-02;  4.0049457E+04;  0.0000000E+00;  1.8542179E+00;  4.0000000E+04;  0.0000000E+00;  4.0020102E+04;  7.8356378E-02;  0.0000000E+00; -3.8699226E-03;  3.6300332E+03;
  1.2136514E-01;  9.9999998E-03;  2.1997361E-01;3230;  1.1376354E-02;  0.0000000E+00; -2.1467747E-03;  1.0004929E+03;  1.0000000E-01;  4.0828476E+02;3;  2.5154033E+00;  0.0000000E+00;  8.5213890E+00;0;  7.0891455E-02;  4.0019707E+04;  0.0000000E+00;  2.5711257E+00;  4.0000000E+04;  0.0000000E+00;  4.0029430E+04;  7.4074022E-02;  0.0000000E+00; -3.1825665E-03;  5.1435415E+03;
  1.2130535E-01;  9.9999998E-03;  2.2997363E-01;3231;  1.1248567E-02;  0.0000000E+00; -2.2612303E-03;  1.0001368E+03;  1.0000000E-01;  1.1337951E+02;3;  3.6263008E+00;  0.0000000E+00;  1.3068578E+01;0;  6.7532927E-02;  3.9982441E+04;  0.0000000E+00;  3.5405271E+00;  4.0000000E+04;  0.0000000E+00;  4.0036668E+04;  6.9815658E-02;  0.0000000E+00; -2.2827275E-03;  6.8340327E+03;
  1.3165970E-01;  9.9999998E-03;  6.9947049E-02;3276;  1.5298693E-02;  0.0000000E+00; -2.5011803E-04;  9.9979907E+02;  1.0000000E-01; -1.6646443E+02;3;  2.3934736E+00;  0.0000000E+00; -1.4839152E-01;0;  8.3923839E-02;  3.9975062E+04;  0.0000000E+00; -3.1705048E-02;  4.0000000E+04;  0.0000000E+00;  4.0014961E+04;  8.7473936E-02;  0.0000000E+00; -3.5500962E-03;  1.8792283E+03;
  1.3168672E-01;  9.9999998E-03;  7.9950228E-02;3277;  1.5364088E-02;  0.0000000E+00; -2.8306423E-04;  9.9975995E+02;  1.0000000E-01; -1.9885857E+02;3;  2.3709564E+00;  0.0000000E+00; -1.7347392E-01;0;  8.4905744E-02;  3.9969848E+04;  0.0000000E+00; -4.2294621E-02;  4.0000000E+04;  0.0000000E+00;  4.0017090E+04;  8.8361531E-02;  0.0000000E+00; -3.4557842E-03;  2.1407019E+03;
  1.3171980E-01;  9.9999998E-03;  8.9952603E-02;3278;  1.5430472E-02;  0.0000000E+00; -3.1098921E-04;  9.9974500E+02;  1.0000000E-01; -2.1125328E+02;3;  2.3393919E+00;  0.0000000E+00; -2.0436892E-01;0;  8.6032063E-02;  3.9966559E+04;  0.0000000E+00; -5.2628294E-02;  4.0000000E+04;  0.0000000E+00;  4.0019766E+04;  8.9471526E-02;  0.0000000E+00; -3.4394672E-03;  2.4560254E+03;
  1.3175485E-01;  9.9999998E-03;  9.9951185E-02;3279;  1.5486731E-02;  0.0000000E+00; -3.4270893E-04;  9.9975964E+02;  1.0000000E-01; -1.9915486E+02;3;  2.3033671E+00;  0.0000000E+00; -2.3453468E-01;0;  8.7214708E-02;  3.9965633E+04;  0.0000000E+00; -6.0332175E-02;  4.0000000E+04;  0.0000000E+00;  4.0021930E+04;  9.0730608E-02;  0.0000000E+00; -3.5159029E-03;  2.7419031E+03;
  1.3178769E-01;  9.9999998E-03;  1.0994182E-01;3280;  1.5519565E-02;  0.0000000E+00; -3.9887152E-04;  9.9979907E+02;  1.0000000E-01; -1.6646443E+02;3;  2.2557120E+00;  0.0000000E+00; -2.6852545E-01;0;  8.8333569E-02;  3.9967727E+04;  0.0000000E+00; -6.2045559E-02;  4.0000000E+04;  0.0000000E+00;  4.0023000E+04;  9.2019483E-02;  0.0000000E+00; -3.6859163E-03;  2.9010776E+03;
  1.3181466E-01;  9.9999998E-03;  1.1992301E-01;3281;  1.5505913E-02;  0.0000000E+00; -4.9713871E-04;  9.9985895E+02;  1.0000000E-01; -1.1683620E+02;3;  2.2111118E+00;  0.0000000E+00; -2.9258555E-01;0;  8.9248717E-02;  3.9973121E+04;  0.0000000E+00; -5.3335808E-02;  4.0000000E+04;  0.0000000E+00;  4.0022426E+04;  9.3182489E-02;  0.0000000E+00; -3.9337697E-03;  2.8510527E+03;
  1.3182876E-01;  9.9999998E-03;  1.2989572E-01;3282;  1.5426623E-02;  0.0000000E+00; -6.3617027E-04;  9.9993243E+02;  1.0000000E-01; -5.5998417E+01;3;  2.1671147E+00;  0.0000000E+00; -3.1123644E-01;0;  8.9820206E-02;  3.9981520E+04;  0.0000000E+00; -2.8525408E-02;  4.0000000E+04;  0.0000000E+00;  4.0020195E+04;  9.4049796E-02;  0.0000000E+00; -4.2295922E-03;  2.5543721E+03;
  1.3180691E-01;  9.9999998E-03;  1.3986777E-01;3283;  1.5258888E-02;  0.0000000E+00; -8.1602501E-04;  1.0000198E+03;  1.0000000E-01;  1.6394598E+01;3;  2.1161189E+00;  0.0000000E+00; -3.3018097E-01;0;  8.9925066E-02;  3.9992809E+04;  0.0000000E+00;  1.9502463E-02;  4.0000000E+04;  0.0000000E+00;  4.0016219E+04;  9.4462968E-02;  0.0000000E+00; -4.5379004E-03;  2.0423380E+03;
  1.3171139E-01;  9.9999998E-03;  1.4986147E-01;3284;  1.4979029E-02;  0.0000000E+00; -1.0314952E-03;  1.0001198E+03;  1.0000000E-01;  9.9256454E+01;3;  2.0585098E+00;  0.0000000E+00; -3.4713864E-01;0;  8.9459404E-02;  4.0005859E+04;  0.0000000E+00;  9.8810345E-02;  4.0000000E+04;  0.0000000E+00;  4.0011453E+04;  9.4286226E-02;  0.0000000E+00; -4.8268237E-03;  1.4232330E+03;
  1.3159311E-01;  9.9999998E-03;  1.5987189E-01;3285;  1.4588702E-02;  0.0000000E+00; -1.2618183E-03;  1.0002188E+03;  1.0000000E-01;  1.8122945E+02;3;  1.9950141E+00;  0.0000000E+00; -3.2061109E-01;0;  8.8313811E-02;  4.0018793E+04;  0.0000000E+00;  2.1660686E-01;  4.0000000E+04;  0.0000000E+00;  4.0007094E+04;  9.3375735E-02;  0.0000000E+00; -5.0619235E-03;  8.7779022E+02;
  1.3152754E-01;  9.9999998E-03;  1.6989529E-01;3286;  1.4135188E-02;  0.0000000E+00; -1.4875119E-03;  1.0003094E+03;  1.0000000E-01;  2.5628906E+02;3;  1.9362150E+00;  0.0000000E+00; -1.7392214E-01;0;  8.6436808E-02;  4.0029172E+04;  0.0000000E+00;  3.7932876E-01;  4.0000000E+04;  0.0000000E+00;  4.0003875E+04;  9.1643758E-02;  0.0000000E+00; -5.2069486E-03;  6.8624127E+02;
  1.3150500E-01;  9.9999998E-03;  1.7991857E-01;3287;  1.3681904E-02;  0.0000000E+00; -1.6971226E-03;  1.0003724E+03;  1.0000000E-01;  3.0853448E+02;3;  1.8889374E+00;  0.0000000E+00;  2.0945625E-01;0;  8.3882265E-02;  4.0034895E+04;  0.0000000E+00;  5.9736323E-01;  4.0000000E+04;  0.0000000E+00;  4.0003531E+04;  8.9113355E-02;  0.0000000E+00; -5.2310894E-03;  9.2905939E+02;
  1.3150081E-01;  9.9999998E-03;  1.8993622E-01;3288;  1.3315490E-02;  0.0000000E+00; -1.8898636E-03;  1.0003947E+03;  1.0000000E-01;  3.2700308E+02;3;  1.8995020E+00;  0.0000000E+00;  9.9346375E-01;0;  8.0775604E-02;  4.0033957E+04;  0.0000000E+00;  8.9556688E-01;  4.0000000E+04;  0.0000000E+00;  4.0006191E+04;  8.5888207E-02;  0.0000000E+00; -5.1126038E-03;  1.4833435E+03;
  1.3149478E-01;  9.9999998E-03;  1.9994745E-01;3289;  1.3001077E-02;  0.0000000E+00; -2.0693096E-03;  1.0003527E+03;  1.0000000E-01;  2.9213989E+02;3;  1.9896052E+00;  0.0000000E+00;  2.4242697E+00;0;  7.7295601E-02;  4.0024176E+04;  0.0000000E+00;  1.3253917E+00;  4.0000000E+04;  0.0000000E+00;  4.0013016E+04;  8.2131274E-02;  0.0000000E+00; -4.8356717E-03;  2.4568755E+03;
  1.3147029E-01;  9.9999998E-03;  2.0995007E-01;3290;  1.2679103E-02;  0.0000000E+00; -2.2174055E-03;  1.0002270E+03;  1.0000000E-01;  1.8804407E+02;3;  2.2135572E+00;  0.0000000E+00;  4.8179851E+00;0;  7.3665552E-02;  4.0004980E+04;  0.0000000E+00;  1.9706262E+00;  4.0000000E+04;  0.0000000E+00;  4.0021742E+04;  7.8050032E-02;  0.0000000E+00; -4.3844776E-03;  3.9069363E+03;
  1.3142009E-01;  9.9999998E-03;  2.1994585E-01;3291;  1.2293817E-02;  0.0000000E+00; -2.3236682E-03;  9.9999408E+02;  1.0000000E-01; -4.8887506E+00;3;  2.6906185E+00;  0.0000000E+00;  8.3873873E+00;0;  7.0124269E-02;  3.9975961E+04;  0.0000000E+00;  2.9378860E+00;  4.0000000E+04;  0.0000000E+00;  4.0031797E+04;  7.3861130E-02;  0.0000000E+00; -3.7368576E-03;  5.7929443E+03;
  1.3133761E-01;  9.9999998E-03;  2.2993395E-01;3292;  1.1851483E-02;  0.0000000E+00; -2.3873602E-03;  9.9964716E+02;  1.0000000E-01; -2.9233740E+02;3;  3.6146255E+00;  0.0000000E+00;  1.3026214E+01;0;  6.6899791E-02;  3.9938840E+04;  0.0000000E+00;  4.3289390E+00;  4.0000000E+04;  0.0000000E+00;  4.0040938E+04;  6.9761924E-02;  0.0000000E+00; -2.8621294E-03;  8.0652915E+03;
  1.4155528E-01;  9.9999998E-03;  6.9930486E-02;3337;  1.5279626E-02;  0.0000000E+00; -2.4637306E-04;  9.9910077E+02;  1.0000000E-01; -7.4501599E+02;3;  2.6333423E+00;  0.0000000E+00; -1.3667399E-01;0;  7.4901894E-02;  3.9915848E+04;  0.0000000E+00; -3.0153496E-02;  4.0000000E+04;  0.0000000E+00;  4.0014750E+04;  7.8478105E-02;  0.0000000E+00; -3.5762093E-03;  1.9076239E+03;
  1.4158852E-01;  9.9999998E-03;  7.9935268E-02;3338;  1.5356052E-02;  0.0000000E+00; -2.6783822E-04;  9.9907684E+02;  1.0000000E-01; -7.6481787E+02;3;  2.6048868E+00;  0.0000000E+00; -1.6111159E-01;0;  7.6038815E-02;  3.9912020E+04;  0.0000000E+00; -4.1470733E-02;  4.0000000E+04;  0.0000000E+00;  4.0016676E+04;  7.9515271E-02;  0.0000000E+00; -3.4764544E-03;  2.1795718E+03;
  1.4162792E-01;  9.9999998E-03;  8.9940332E-02;3339;  1.5445441E-02;  0.0000000E+00; -2.8254197E-04;  9.9907990E+02;  1.0000000E-01; -7.6229944E+02;3;  2.5680909E+00;  0.0000000E+00; -1.8990733E-01;0;  7.7397943E-02;  3.9910074E+04;  0.0000000E+00; -5.3838197E-02;  4.0000000E+04;  0.0000000E+00;  4.0019168E+04;  8.0854222E-02;  0.0000000E+00; -3.4562803E-03;  2.5000154E+03;
  1.4167060E-01;  9.9999998E-03;  9.9941596E-02;3340;  1.5543729E-02;  0.0000000E+00; -3.0316290E-04;  9.9911285E+02;  1.0000000E-01; -7.3499158E+02;3;  2.5179930E+00;  0.0000000E+00; -2.2692524E-01;0;  7.8897394E-02;  3.9910691E+04;  0.0000000E+00; -6.5184072E-02;  4.0000000E+04;  0.0000000E+00;  4.0021562E+04;  8.2427382E-02;  0.0000000E+00; -3.5299917E-03;  2.7844102E+03;
  1.4171216E-01;  9.9999998E-03;  1.0993540E-01;3341;  1.5630407E-02;  0.0000000E+00; -3.4077631E-04;  9.9917169E+02;  1.0000000E-01; -6.8625220E+02;3;  2.4582145E+00;  0.0000000E+00; -2.6228642E-01;0;  8.0418617E-02;  3.9914582E+04;  0.0000000E+00; -7.2190076E-02;  4.0000000E+04;  0.0000000E+00;  4.0022715E+04;  8.4116943E-02;  0.0000000E+00; -3.6983229E-03;  2.9354600E+03;
  1.4174888E-01;  9.9999998E-03;  1.1991929E-01;3342;  1.5683813E-02;  0.0000000E+00; -4.0858577E-04;  9.9925500E+02;  1.0000000E-01; -6.1721710E+02;3;  2.3922501E+00;  0.0000000E+00; -2.8729555E-01;0;  8.1815988E-02;  3.9921773E+04;  0.0000000E+00; -7.0199348E-02;  4.0000000E+04;  0.0000000E+00;  4.0022344E+04;  8.5762538E-02;  0.0000000E+00; -3.9465521E-03;  2.8700854E+03;
  1.4177832E-01;  9.9999998E-03;  1.2989394E-01;3343;  1.5686842E-02;  0.0000000E+00; -5.1322387E-04;  9.9935004E+02;  1.0000000E-01; -5.3850330E+02;3;  2.3432560E+00;  0.0000000E+00; -2.9933867E-01;0;  8.2931742E-02;  3.9932270E+04;  0.0000000E+00; -5.3223811E-02;  4.0000000E+04;  0.0000000E+00;  4.0019844E+04;  8.7179102E-02;  0.0000000E+00; -4.2473599E-03;  2.5494409E+03;
  1.4179768E-01;  9.9999998E-03;  1.3986264E-01;3344;  1.5621741E-02;  0.0000000E+00; -6.5638986E-04;  9.9945508E+02;  1.0000000E-01; -4.5144403E+02;3;  2.2970929E+00;  0.0000000E+00; -3.0969390E-01;0;  8.3610930E-02;  3.9945387E+04;  0.0000000E+00; -1.4208780E-02;  4.0000000E+04;  0.0000000E+00;  4.0015656E+04;  8.8180251E-02;  0.0000000E+00; -4.5693200E-03;  2.0028365E+03;
  1.4180234E-01;  9.9999998E-03;  1.4983207E-01;3345;  1.5474742E-02;  0.0000000E+00; -8.3575607E-04;  9.9956982E+02;  1.0000000E-01; -3.5638498E+02;3;  2.2556057E+00;  0.0000000E+00; -3.1496739E-01;0;  8.3714366E-02;  3.9960000E+04;  0.0000000E+00;  5.3908266E-02;  4.0000000E+04;  0.0000000E+00;  4.0010453E+04;  8.8598564E-02;  0.0000000E+00; -4.8841983E-03;  1.3354810E+03;
  1.4178041E-01;  9.9999998E-03;  1.5981640E-01;3346;  1.5240496E-02;  0.0000000E+00; -1.0422011E-03;  9.9968347E+02;  1.0000000E-01; -2.6221481E+02;3;  2.2191465E+00;  0.0000000E+00; -2.8105128E-01;0;  8.3142579E-02;  3.9974562E+04;  0.0000000E+00;  1.5669690E-01;  4.0000000E+04;  0.0000000E+00;  4.0005699E+04;  8.8299394E-02;  0.0000000E+00; -5.1568137E-03;  7.2835382E+02;
  1.4172222E-01;  9.9999998E-03;  1.6983919E-01;3347;  1.4911953E-02;  0.0000000E+00; -1.2625899E-03;  9.9979443E+02;  1.0000000E-01; -1.7031618E+02;3;  2.1807139E+00;  0.0000000E+00; -1.3486807E-01;0;  8.1841931E-02;  3.9987020E+04;  0.0000000E+00;  3.0078077E-01;  4.0000000E+04;  0.0000000E+00;  4.0001684E+04;  8.7189779E-02;  0.0000000E+00; -5.3478447E-03;  5.0182510E+02;
  1.4164083E-01;  9.9999998E-03;  1.7988907E-01;3348;  1.4501923E-02;  0.0000000E+00; -1.4807530E-03;  9.9988660E+02;  1.0000000E-01; -9.3972649E+01;3;  2.1387734E+00;  0.0000000E+00;  2.3144972E-01;0;  7.9821646E-02;  3.9995281E+04;  0.0000000E+00;  5.0341910E-01;  4.0000000E+04;  0.0000000E+00;  4.0001383E+04;  8.5244931E-02;  0.0000000E+00; -5.4232879E-03;  7.4492010E+02;
  1.4158006E-01;  9.9999998E-03;  1.8992658E-01;3349;  1.4042923E-02;  0.0000000E+00; -1.6793091E-03;  9.9993732E+02;  1.0000000E-01; -5.1949146E+01;3;  2.1028574E+00;  0.0000000E+00;  9.7825754E-01;0;  7.7176809E-02;  3.9996594E+04;  0.0000000E+00;  8.0622816E-01;  4.0000000E+04;  0.0000000E+00;  4.0004895E+04;  8.2536027E-02;  0.0000000E+00; -5.3592194E-03;  1.2984382E+03;
  1.4154409E-01;  9.9999998E-03;  1.9994424E-01;3350;  1.3554824E-02;  0.0000000E+00; -1.8511815E-03;  9.9992230E+02;  1.0000000E-01; -6.4393242E+01;3;  2.0940130E+00;  0.0000000E+00;  2.3505824E+00;0;  7.4104376E-02;  3.9988824E+04;  0.0000000E+00;  1.2874212E+00;  4.0000000E+04;  0.0000000E+00;  4.0011984E+04;  7.9243220E-02;  0.0000000E+00; -5.1388415E-03;  2.3612732E+03;
  1.4150731E-01;  9.9999998E-03;  2.0994461E-01;3351;  1.3052624E-02;  0.0000000E+00; -1.9858368E-03;  9.9981696E+02;  1.0000000E-01; -1.5165002E+02;3;  2.1957722E+00;  0.0000000E+00;  4.6759229E+00;0;  7.0864305E-02;  3.9970613E+04;  0.0000000E+00;  2.0659647E+00;  4.0000000E+04;  0.0000000E+00;  4.0021844E+04;  7.5608350E-02;  0.0000000E+00; -4.7440436E-03;  4.0288406E+03;
  1.4144699E-01;  9.9999998E-03;  2.1993384E-01;3352;  1.2512717E-02;  0.0000000E+00; -2.0818333E-03;  9.9959503E+02;  1.0000000E-01; -3.3549667E+02;3;  2.5518091E+00;  0.0000000E+00;  8.2154512E+00;0;  6.7729689E-02;  3.9941754E+04;  0.0000000E+00;  3.2918272E+00;  4.0000000E+04;  0.0000000E+00;  4.0032734E+04;  7.1878284E-02;  0.0000000E+00; -4.1485932E-03;  6.3050581E+03;
  1.4135656E-01;  9.9999998E-03;  2.2991328E-01;3353;  1.1941172E-02;  0.0000000E+00; -2.1480047E-03;  9.9924414E+02;  1.0000000E-01; -6.2620453E+02;3;  3.4128778E+00;  0.0000000E+00;  1.2924416E+01;0;  6.4950712E-02;  3.9903145E+04;  0.0000000E+00;  5.1172743E+00;  4.0000000E+04;  0.0000000E+00;  4.0043410E+04;  6.8268940E-02;  0.0000000E+00; -3.3182302E-03;  9.2205049E+03;
  1.5146790E-01;  9.9999998E-03;  6.9927394E-02;3398;  1.5102964E-02;  0.0000000E+00; -2.6392235E-04;  9.9853839E+02;  1.0000000E-01; -1.2109287E+03;3;  2.6997547E+00;  0.0000000E+00; -1.1310767E-01;0;  6.4909101E-02;  3.9869441E+04;  0.0000000E+00; -2.4926148E-02;  4.0000000E+04;  0.0000000E+00;  4.0013168E+04;  6.8556331E-02;  0.0000000E+00; -3.6472306E-03;  1.7849305E+03;
  1.5150928E-01;  9.9999998E-03;  7.9926908E-02;3399;  1.5180429E-02;  0.0000000E+00; -2.8263940E-04;  9.9853607E+02;  1.0000000E-01; -1.2128546E+03;3;  2.6743264E+00;  0.0000000E+00; -1.3083032E-01;0;  6.6088207E-02;  3.9867277E+04;  0.0000000E+00; -3.4646761E-02;  4.0000000E+04;  0.0000000E+00;  4.0015742E+04;  6.9619045E-02;  0.0000000E+00; -3.5308371E-03;  2.0670591E+03;
  1.5155391E-01;  9.9999998E-03;  8.9927092E-02;3400;  1.5281536E-02;  0.0000000E+00; -2.9262638E-04;  9.9856610E+02;  1.0000000E-01; -1.1879664E+03;3;  2.6417947E+00;  0.0000000E+00; -1.5189439E-01;0;  6.7562945E-02;  3.9867094E+04;  0.0000000E+00; -4.6823792E-02;  4.0000000E+04;  0.0000000E+00;  4.0018039E+04;  7.1053423E-02;  0.0000000E+00; -3.4904759E-03;  2.3925613E+03;
  1.5160103E-01;  9.9999998E-03;  9.9926919E-02;3401;  1.5402597E-02;  0.0000000E+00; -2.9732814E-04;  9.9862366E+02;  1.0000000E-01; -1.1402640E+03;3;  2.5909452E+00;  0.0000000E+00; -1.8630007E-01;0;  6.9260813E-02;  3.9869980E+04;  0.0000000E+00; -6.0356524E-02;  4.0000000E+04;  0.0000000E+00;  4.0020480E+04;  7.2801493E-02;  0.0000000E+00; -3.5406777E-03;  2.6777383E+03;
  1.5164533E-01;  9.9999998E-03;  1.0992353E-01;3402;  1.5532262E-02;  0.0000000E+00; -3.0315277E-04;  9.9871167E+02;  1.0000000E-01; -1.0673772E+03;3;  2.5262415E+00;  0.0000000E+00; -2.2642748E-01;0;  7.1071684E-02;  3.9876109E+04;  0.0000000E+00; -7.2710149E-02;  4.0000000E+04;  0.0000000E+00;  4.0021551E+04;  7.4755520E-02;  0.0000000E+00; -3.6838371E-03;  2.8266262E+03;
  1.5168326E-01;  9.9999998E-03;  1.1991196E-01;3403;  1.5642917E-02;  0.0000000E+00; -3.3407344E-04;  9.9882166E+02;  1.0000000E-01; -9.7621930E+02;3;  2.4476166E+00;  0.0000000E+00; -2.6462689E-01;0;  7.2849721E-02;  3.9885684E+04;  0.0000000E+00; -7.9714552E-02;  4.0000000E+04;  0.0000000E+00;  4.0021004E+04;  7.6757945E-02;  0.0000000E+00; -3.9082249E-03;  2.7563044E+03;
  1.5171456E-01;  9.9999998E-03;  1.2989108E-01;3404;  1.5701355E-02;  0.0000000E+00; -4.0532029E-04;  9.9894873E+02;  1.0000000E-01; -8.7093835E+02;3;  2.3841305E+00;  0.0000000E+00; -2.7745533E-01;0;  7.4426822E-02;  3.9898613E+04;  0.0000000E+00; -7.5565495E-02;  4.0000000E+04;  0.0000000E+00;  4.0018500E+04;  7.8617476E-02;  0.0000000E+00; -4.1906536E-03;  2.4259717E+03;
  1.5173797E-01;  9.9999998E-03;  1.3986471E-01;3405;  1.5694479E-02;  0.0000000E+00; -5.1379326E-04;  9.9907916E+02;  1.0000000E-01; -7.6289203E+02;3;  2.3381038E+00;  0.0000000E+00; -2.8262201E-01;0;  7.5632021E-02;  3.9914051E+04;  0.0000000E+00; -5.3318787E-02;  4.0000000E+04;  0.0000000E+00;  4.0014207E+04;  8.0136396E-02;  0.0000000E+00; -4.5043714E-03;  1.8611321E+03;
  1.5175444E-01;  9.9999998E-03;  1.4983802E-01;3406;  1.5604790E-02;  0.0000000E+00; -6.5573456E-04;  9.9921515E+02;  1.0000000E-01; -6.5025323E+02;3;  2.2988827E+00;  0.0000000E+00; -2.8324375E-01;0;  7.6301843E-02;  3.9930820E+04;  0.0000000E+00; -6.2653888E-03;  4.0000000E+04;  0.0000000E+00;  4.0009133E+04;  8.1125751E-02;  0.0000000E+00; -4.8239091E-03;  1.1609087E+03;
  1.5176442E-01;  9.9999998E-03;  1.5982145E-01;3407;  1.5419490E-02;  0.0000000E+00; -8.2330225E-04;  9.9935229E+02;  1.0000000E-01; -5.3662677E+02;3;  2.2620559E+00;  0.0000000E+00; -2.4447894E-01;0;  7.6312073E-02;  3.9947637E+04;  0.0000000E+00;  7.1055278E-02;  4.0000000E+04;  0.0000000E+00;  4.0003465E+04;  8.1425600E-02;  0.0000000E+00; -5.1135253E-03;  4.9196432E+02;
  1.5176153E-01;  9.9999998E-03;  1.6983373E-01;3408;  1.5134203E-02;  0.0000000E+00; -1.0062061E-03;  9.9948065E+02;  1.0000000E-01; -4.3025943E+02;3;  2.2233949E+00;  0.0000000E+00; -9.7346567E-02;0;  7.5601578E-02;  3.9962023E+04;  0.0000000E+00;  1.8859561E-01;  4.0000000E+04;  0.0000000E+00;  3.9999758E+04;  8.0935575E-02;  0.0000000E+00; -5.3339987E-03;  2.7086331E+02;
  1.5172613E-01;  9.9999998E-03;  1.7987278E-01;3409;  1.4749904E-02;  0.0000000E+00; -1.1918927E-03;  9.9958600E+02;  1.0000000E-01; -3.4300266E+02;3;  2.1686499E+00;  0.0000000E+00;  2.5138843E-01;0;  7.4193090E-02;  3.9972008E+04;  0.0000000E+00;  3.7346879E-01;  4.0000000E+04;  0.0000000E+00;  3.9998949E+04;  7.9643920E-02;  0.0000000E+00; -5.4508317E-03;  5.4379712E+02;
  1.5165642E-01;  9.9999998E-03;  1.8991873E-01;3410;  1.4275106E-02;  0.0000000E+00; -1.3665656E-03;  9.9965131E+02;  1.0000000E-01; -2.8888071E+02;3;  2.0921042E+00;  0.0000000E+00;  9.5171613E-01;0;  7.2188631E-02;  3.9974734E+04;  0.0000000E+00;  6.8402678E-01;  4.0000000E+04;  0.0000000E+00;  4.0001977E+04;  7.7625930E-02;  0.0000000E+00; -5.4373019E-03;  1.0216314E+03;
  1.5158367E-01;  9.9999998E-03;  1.9995344E-01;3411;  1.3725081E-02;  0.0000000E+00; -1.5153587E-03;  9.9964911E+02;  1.0000000E-01; -2.9070782E+02;3;  2.0093458E+00;  0.0000000E+00;  2.2477801E+00;0;  6.9760866E-02;  3.9967996E+04;  0.0000000E+00;  1.2202910E+00;  4.0000000E+04;  0.0000000E+00;  4.0009289E+04;  7.5033732E-02;  0.0000000E+00; -5.2728625E-03;  2.1145417E+03;
  1.5151404E-01;  9.9999998E-03;  2.0996064E-01;3412;  1.3119127E-02;  0.0000000E+00; -1.6283741E-03;  9.9955023E+02;  1.0000000E-01; -3.7263144E+02;3;  2.0091941E+00;  0.0000000E+00;  4.4551783E+00;0;  6.7164414E-02;  3.9950199E+04;  0.0000000E+00;  2.1275246E+00;  4.0000000E+04;  0.0000000E+00;  4.0019715E+04;  7.2100490E-02;  0.0000000E+00; -4.9360739E-03;  3.9531545E+03;
  1.5145022E-01;  9.9999998E-03;  2.1995066E-01;3413;  1.2477473E-02;  0.0000000E+00; -1.7012866E-03;  9.9932556E+02;  1.0000000E-01; -5.5874963E+02;3;  2.2845330E+00;  0.0000000E+00;  7.8726764E+00;0;  6.4676657E-02;  3.9920406E+04;  0.0000000E+00;  3.5872455E+00;  4.0000000E+04;  0.0000000E+00;  4.0032004E+04;  6.9071941E-02;  0.0000000E+00; -4.3952875E-03;  6.5792217E+03;
  1.5138093E-01;  9.9999998E-03;  2.2992350E-01;3414;  1.1812131E-02;  0.0000000E+00; -1.7523285E-03;  9.9896008E+02;  1.0000000E-01; -8.6155591E+02;3;  3.1712611E+00;  0.0000000E+00;  1.2533774E+01;0;  6.2565327E-02;  3.9879074E+04;  0.0000000E+00;  5.7979240E+00;  4.0000000E+04;  0.0000000E+00;  4.0044121E+04;  6.6176526E-02;  0.0000000E+00; -3.6112031E-03;  1.0107876E+04;
  1.6147009E-01;  9.9999998E-03;  6.9960497E-02;3459;  1.4860903E-02;  0.0000000E+00; -2.8314930E-04;  9.9814270E+02;  1.0000000E-01; -1.5387219E+03;3;  2.7128193E+00;  0.0000000E+00; -8.9243889E-02;0;  5.5452317E-02;  3.9838066E+04;  0.0000000E+00; -2.0967824E-02;  4.0000000E+04;  0.0000000E+00;  4.0010941E+04;  5.9254590E-02;  0.0000000E+00; -3.8022720E-03;  1.5223708E+03;
  1.6151464E-01;  9.9999998E-03;  7.9959221E-02;3460;  1.4934527E-02;  0.0000000E+00; -3.0406719E-04;  9.9816290E+02;  1.0000000E-01; -1.5219817E+03;3;  2.6881075E+00;  0.0000000E+00; -9.9751756E-02;0;  5.6560375E-02;  3.9837414E+04;  0.0000000E+00; -2.7017606E-02;  4.0000000E+04;  0.0000000E+00;  4.0013340E+04;  6.0220223E-02;  0.0000000E+00; -3.6598472E-03;  1.8155623E+03;
  1.6156143E-01;  9.9999998E-03;  8.9957483E-02;3461;  1.5031149E-02;  0.0000000E+00; -3.1180296E-04;  9.9821570E+02;  1.0000000E-01; -1.4782792E+03;3;  2.6571121E+00;  0.0000000E+00; -1.1468390E-01;0;  5.8026198E-02;  3.9839246E+04;  0.0000000E+00; -3.6389709E-02;  4.0000000E+04;  0.0000000E+00;  4.0016145E+04;  6.1611347E-02;  0.0000000E+00; -3.5851486E-03;  2.1484304E+03;
  1.6160657E-01;  9.9999998E-03;  9.9953756E-02;3462;  1.5161757E-02;  0.0000000E+00; -3.0550332E-04;  9.9830115E+02;  1.0000000E-01; -1.4074663E+03;3;  2.6184790E+00;  0.0000000E+00; -1.3711528E-01;0;  5.9795495E-02;  3.9843879E+04;  0.0000000E+00; -4.9552687E-02;  4.0000000E+04;  0.0000000E+00;  4.0018332E+04;  6.3388772E-02;  0.0000000E+00; -3.5932779E-03;  2.4373884E+03;
  1.6164581E-01;  9.9999998E-03;  1.0994575E-01;3463;  1.5313506E-02;  0.0000000E+00; -2.8844172E-04;  9.9841870E+02;  1.0000000E-01; -1.3100864E+03;3;  2.5598264E+00;  0.0000000E+00; -1.7386732E-01;0;  6.1768159E-02;  3.9852340E+04;  0.0000000E+00; -6.5605968E-02;  4.0000000E+04;  0.0000000E+00;  4.0020035E+04;  6.5457471E-02;  0.0000000E+00; -3.6893121E-03;  2.5884460E+03;
  1.6167581E-01;  9.9999998E-03;  1.1993033E-01;3464;  1.5465192E-02;  0.0000000E+00; -2.7586328E-04;  9.9855457E+02;  1.0000000E-01; -1.1974969E+03;3;  2.4772878E+00;  0.0000000E+00; -2.2779287E-01;0;  6.3804850E-02;  3.9864215E+04;  0.0000000E+00; -8.1820518E-02;  4.0000000E+04;  0.0000000E+00;  4.0019555E+04;  6.7671292E-02;  0.0000000E+00; -3.8664399E-03;  2.5210432E+03;
  1.6169623E-01;  9.9999998E-03;  1.2990686E-01;3465;  1.5584794E-02;  0.0000000E+00; -2.9961063E-04;  9.9870844E+02;  1.0000000E-01; -1.0700438E+03;3;  2.3875070E+00;  0.0000000E+00; -2.6773411E-01;0;  6.5737940E-02;  3.9879320E+04;  0.0000000E+00; -9.3477264E-02;  4.0000000E+04;  0.0000000E+00;  4.0016473E+04;  6.9845393E-02;  0.0000000E+00; -4.1074529E-03;  2.1942087E+03;
  1.6170853E-01;  9.9999998E-03;  1.3987941E-01;3466;  1.5628999E-02;  0.0000000E+00; -3.7476435E-04;  9.9887164E+02;  1.0000000E-01; -9.3483777E+02;3;  2.3298333E+00;  0.0000000E+00; -2.6065698E-01;0;  6.7387819E-02;  3.9897227E+04;  0.0000000E+00; -9.4265021E-02;  4.0000000E+04;  0.0000000E+00;  4.0012035E+04;  7.1778432E-02;  0.0000000E+00; -4.3906085E-03;  1.6292861E+03;
  1.6171937E-01;  9.9999998E-03;  1.4985412E-01;3467;  1.5588581E-02;  0.0000000E+00; -4.7509695E-04;  9.9903345E+02;  1.0000000E-01; -8.0076746E+02;3;  2.2934854E+00;  0.0000000E+00; -2.5446907E-01;0;  6.8574481E-02;  3.9916328E+04;  0.0000000E+00; -7.7469267E-02;  4.0000000E+04;  0.0000000E+00;  4.0006625E+04;  7.3267221E-02;  0.0000000E+00; -4.6927384E-03;  9.1880090E+02;
  1.6173200E-01;  9.9999998E-03;  1.5984078E-01;3468;  1.5443575E-02;  0.0000000E+00; -5.9867307E-04;  9.9918854E+02;  1.0000000E-01; -6.7227728E+02;3;  2.2562685E+00;  0.0000000E+00; -2.1339138E-01;0;  6.9159798E-02;  3.9935020E+04;  0.0000000E+00; -3.5771750E-02;  4.0000000E+04;  0.0000000E+00;  4.0000965E+04;  7.4138649E-02;  0.0000000E+00; -4.9788509E-03;  2.1136342E+02;
  1.6174184E-01;  9.9999998E-03;  1.6985631E-01;3469;  1.5181974E-02;  0.0000000E+00; -7.3705323E-04;  9.9933325E+02;  1.0000000E-01; -5.5237946E+02;3;  2.2106009E+00;  0.0000000E+00; -6.7025624E-02;0;  6.9074318E-02;  3.9951289E+04;  0.0000000E+00;  4.7374122E-02;  4.0000000E+04;  0.0000000E+00;  3.9997125E+04;  7.4284196E-02;  0.0000000E+00; -5.2098748E-03;  3.2280814E+02;
  1.6173324E-01;  9.9999998E-03;  1.7989555E-01;3470;  1.4803393E-02;  0.0000000E+00; -8.8014302E-04;  9.9945032E+02;  1.0000000E-01; -4.5539453E+02;3;  2.1340458E+00;  0.0000000E+00;  2.6287994E-01;0;  6.8332709E-02;  3.9962688E+04;  0.0000000E+00;  2.1140434E-01;  4.0000000E+04;  0.0000000E+00;  3.9995855E+04;  7.3682919E-02;  0.0000000E+00; -5.3502079E-03;  5.6266528E+02;
  1.6169529E-01;  9.9999998E-03;  1.8993716E-01;3471;  1.4309258E-02;  0.0000000E+00; -1.0123722E-03;  9.9951929E+02;  1.0000000E-01; -3.9826035E+02;3;  2.0009441E+00;  0.0000000E+00;  9.0884340E-01;0;  6.7035072E-02;  3.9966461E+04;  0.0000000E+00;  5.3032851E-01;  4.0000000E+04;  0.0000000E+00;  3.9998656E+04;  7.2406821E-02;  0.0000000E+00; -5.3717480E-03;  7.7454449E+02;
  1.6159469E-01;  9.9999998E-03;  1.9997290E-01;3472;  1.3710602E-02;  0.0000000E+00; -1.1192224E-03;  9.9952008E+02;  1.0000000E-01; -3.9761838E+02;3;  1.8425479E+00;  0.0000000E+00;  2.1016066E+00;0;  6.5372027E-02;  3.9960363E+04;  0.0000000E+00;  1.1192627E+00;  4.0000000E+04;  0.0000000E+00;  4.0005285E+04;  7.0623003E-02;  0.0000000E+00; -5.2509774E-03;  1.7593608E+03;
  1.6149256E-01;  9.9999998E-03;  2.0999630E-01;3473;  1.3019483E-02;  0.0000000E+00; -1.1872555E-03;  9.9941858E+02;  1.0000000E-01; -4.8171478E+02;3;  1.7400531E+00;  0.0000000E+00;  4.1296005E+00;0;  6.3557230E-02;  3.9942566E+04;  0.0000000E+00;  2.1362402E+00;  4.0000000E+04;  0.0000000E+00;  4.0015648E+04;  6.8514928E-02;  0.0000000E+00; -4.9576983E-03;  3.6744019E+03;
  1.6143428E-01;  9.9999998E-03;  2.1999434E-01;3474;  1.2294399E-02;  0.0000000E+00; -1.2259777E-03;  9.9918262E+02;  1.0000000E-01; -6.7716602E+02;3;  1.9485911E+00;  0.0000000E+00;  7.2656527E+00;0;  6.1861526E-02;  3.9911961E+04;  0.0000000E+00;  3.7759626E+00;  4.0000000E+04;  0.0000000E+00;  4.0028285E+04;  6.6313528E-02;  0.0000000E+00; -4.4520027E-03;  6.5420146E+03;
  1.6140531E-01;  9.9999998E-03;  2.2996750E-01;3475;  1.1573088E-02;  0.0000000E+00; -1.2593470E-03;  9.9879474E+02;  1.0000000E-01; -9.9853967E+02;3;  2.8926406E+00;  0.0000000E+00;  1.1616488E+01;0;  6.0566142E-02;  3.9868234E+04;  0.0000000E+00;  6.2604094E+00;  4.0000000E+04;  0.0000000E+00;  4.0041246E+04;  6.4256027E-02;  0.0000000E+00; -3.6898856E-03;  1.0530629E+04;
  1.7148189E-01;  9.9999998E-03;  7.0022680E-02;3520;  1.4597910E-02;  0.0000000E+00; -3.0218990E-04;  9.9793262E+02;  1.0000000E-01; -1.7127910E+03;3;  2.7180676E+00;  0.0000000E+00; -7.0103869E-02;0;  4.7975272E-02;  3.9822691E+04;  0.0000000E+00; -2.2462236E-02;  4.0000000E+04;  0.0000000E+00;  4.0007559E+04;  5.2054565E-02;  0.0000000E+00; -4.0792944E-03;  1.1393185E+03;
  1.7152579E-01;  9.9999998E-03;  8.0024935E-02;3521;  1.4670874E-02;  0.0000000E+00; -3.2559305E-04;  9.9796472E+02;  1.0000000E-01; -1.6861746E+03;3;  2.6936121E+00;  0.0000000E+00; -7.7832244E-02;0;  4.8889901E-02;  3.9822875E+04;  0.0000000E+00; -2.3718713E-02;  4.0000000E+04;  0.0000000E+00;  4.0009980E+04;  5.2795690E-02;  0.0000000E+00; -3.9057897E-03;  1.4421512E+03;
  1.7157543E-01;  9.9999998E-03;  9.0024076E-02;3522;  1.4769911E-02;  0.0000000E+00; -3.3307000E-04;  9.9802856E+02;  1.0000000E-01; -1.6332871E+03;3;  2.6642685E+00;  0.0000000E+00; -8.7040335E-02;0;  5.0209805E-02;  3.9825863E+04;  0.0000000E+00; -2.8090928E-02;  4.0000000E+04;  0.0000000E+00;  4.0012938E+04;  5.3997666E-02;  0.0000000E+00; -3.7878589E-03;  1.7834115E+03;
  1.7162727E-01;  9.9999998E-03;  1.0001967E-01;3523;  1.4897021E-02;  0.0000000E+00; -3.2171080E-04;  9.9813232E+02;  1.0000000E-01; -1.5473142E+03;3;  2.6276600E+00;  0.0000000E+00; -1.0004873E-01;0;  5.1898070E-02;  3.9831848E+04;  0.0000000E+00; -3.7894428E-02;  4.0000000E+04;  0.0000000E+00;  4.0015430E+04;  5.5639252E-02;  0.0000000E+00; -3.7411805E-03;  2.0805471E+03;
  1.7167601E-01;  9.9999998E-03;  1.1001057E-01;3524;  1.5053837E-02;  0.0000000E+00; -2.9036129E-04;  9.9826959E+02;  1.0000000E-01; -1.4335891E+03;3;  2.5789337E+00;  0.0000000E+00; -1.2336893E-01;0;  5.3870618E-02;  3.9841684E+04;  0.0000000E+00; -5.4512955E-02;  4.0000000E+04;  0.0000000E+00;  4.0016852E+04;  5.7644520E-02;  0.0000000E+00; -3.7739028E-03;  2.2423413E+03;
  1.7171420E-01;  9.9999998E-03;  1.1999450E-01;3525;  1.5233399E-02;  0.0000000E+00; -2.4004119E-04;  9.9842761E+02;  1.0000000E-01; -1.3026792E+03;3;  2.5062170E+00;  0.0000000E+00; -1.6838852E-01;0;  5.6002326E-02;  3.9855223E+04;  0.0000000E+00; -7.7673182E-02;  4.0000000E+04;  0.0000000E+00;  4.0016219E+04;  5.9887487E-02;  0.0000000E+00; -3.8851602E-03;  2.1908667E+03;
  1.7173536E-01;  9.9999998E-03;  1.2997104E-01;3526;  1.5394593E-02;  0.0000000E+00; -2.0332093E-04;  9.9860425E+02;  1.0000000E-01; -1.1563623E+03;3;  2.4118552E+00;  0.0000000E+00; -2.2976141E-01;0;  5.8137603E-02;  3.9872102E+04;  0.0000000E+00; -1.0493151E-01;  4.0000000E+04;  0.0000000E+00;  4.0014035E+04;  6.2202848E-02;  0.0000000E+00; -4.0652449E-03;  1.8853861E+03;
  1.7174301E-01;  9.9999998E-03;  1.3994320E-01;3527;  1.5503993E-02;  0.0000000E+00; -2.2192024E-04;  9.9878448E+02;  1.0000000E-01; -1.0070333E+03;3;  2.3140500E+00;  0.0000000E+00; -2.7346388E-01;0;  6.0096361E-02;  3.9891336E+04;  0.0000000E+00; -1.3158228E-01;  4.0000000E+04;  0.0000000E+00;  4.0009980E+04;  6.4394273E-02;  0.0000000E+00; -4.2979117E-03;  1.3443748E+03;
  1.7174470E-01;  9.9999998E-03;  1.4991552E-01;3528;  1.5494592E-02;  0.0000000E+00; -2.9254099E-04;  9.9896918E+02;  1.0000000E-01; -8.5400055E+02;3;  2.2703705E+00;  0.0000000E+00; -2.5928032E-01;0;  6.1696492E-02;  3.9912062E+04;  0.0000000E+00; -1.5110169E-01;  4.0000000E+04;  0.0000000E+00;  4.0004371E+04;  6.6257730E-02;  0.0000000E+00; -4.5612375E-03;  6.6274774E+02;
  1.7174698E-01;  9.9999998E-03;  1.5989719E-01;3529;  1.5380023E-02;  0.0000000E+00; -3.7434229E-04;  9.9914343E+02;  1.0000000E-01; -7.0965894E+02;3;  2.2459981E+00;  0.0000000E+00; -1.8766394E-01;0;  6.2790476E-02;  3.9932180E+04;  0.0000000E+00; -1.5282910E-01;  4.0000000E+04;  0.0000000E+00;  3.9998859E+04;  6.7612857E-02;  0.0000000E+00; -4.8223827E-03;  2.3498170E+02;
  1.7175066E-01;  9.9999998E-03;  1.6990061E-01;3530;  1.5140753E-02;  0.0000000E+00; -4.6300577E-04;  9.9929828E+02;  1.0000000E-01; -5.8136627E+02;3;  2.1900249E+00;  0.0000000E+00; -4.6324059E-02;0;  6.3298851E-02;  3.9949812E+04;  0.0000000E+00; -1.1105575E-01;  4.0000000E+04;  0.0000000E+00;  3.9994242E+04;  6.8340622E-02;  0.0000000E+00; -5.0417711E-03;  6.7018787E+02;
  1.7173684E-01;  9.9999998E-03;  1.7993033E-01;3531;  1.4762595E-02;  0.0000000E+00; -5.5571116E-04;  9.9941943E+02;  1.0000000E-01; -4.8097406E+02;3;  2.0839379E+00;  0.0000000E+00;  2.6378274E-01;0;  6.3228443E-02;  3.9962172E+04;  0.0000000E+00;  2.7942127E-02;  4.0000000E+04;  0.0000000E+00;  3.9992707E+04;  6.8410672E-02;  0.0000000E+00; -5.1822304E-03;  8.8088458E+02;
  1.7167582E-01;  9.9999998E-03;  1.8996237E-01;3532;  1.4246903E-02;  0.0000000E+00; -6.4000644E-04;  9.9949048E+02;  1.0000000E-01; -4.2211151E+02;3;  1.8861364E+00;  0.0000000E+00;  8.5121846E-01;0;  6.2671907E-02;  3.9966984E+04;  0.0000000E+00;  3.5237572E-01;  4.0000000E+04;  0.0000000E+00;  3.9994551E+04;  6.7885675E-02;  0.0000000E+00; -5.2137692E-03;  8.2277588E+02;
  1.7156956E-01;  9.9999998E-03;  2.0000097E-01;3533;  1.3580071E-02;  0.0000000E+00; -6.7578105E-04;  9.9948560E+02;  1.0000000E-01; -4.2616080E+02;3;  1.5997617E+00;  0.0000000E+00;  1.9265714E+00;0;  6.1788224E-02;  3.9961344E+04;  0.0000000E+00;  9.8556006E-01;  4.0000000E+04;  0.0000000E+00;  4.0000320E+04;  6.6894233E-02;  0.0000000E+00; -5.1060091E-03;  1.4288480E+03;
  1.7145544E-01;  9.9999998E-03;  2.1004178E-01;3534;  1.2833023E-02;  0.0000000E+00; -6.8068504E-04;  9.9937408E+02;  1.0000000E-01; -5.1855322E+02;3;  1.4363281E+00;  0.0000000E+00;  3.7046671E+00;0;  6.0797445E-02;  3.9944367E+04;  0.0000000E+00;  2.0851791E+00;  4.0000000E+04;  0.0000000E+00;  4.0009480E+04;  6.5615334E-02;  0.0000000E+00; -4.8178877E-03;  3.2707097E+03;
  1.7140082E-01;  9.9999998E-03;  2.2005694E-01;3535;  1.2075444E-02;  0.0000000E+00; -6.9027359E-04;  9.9912665E+02;  1.0000000E-01; -7.2353510E+02;3;  1.5621359E+00;  0.0000000E+00;  6.3704615E+00;0;  5.9965760E-02;  3.9913895E+04;  0.0000000E+00;  3.8371451E+00;  4.0000000E+04;  0.0000000E+00;  4.0020910E+04;  6.4268462E-02;  0.0000000E+00; -4.3027028E-03;  6.2105576E+03;
  1.7140804E-01;  9.9999998E-03;  2.3004206E-01;3536;  1.1286119E-02;  0.0000000E+00; -6.9394498E-04;  9.9870825E+02;  1.0000000E-01; -1.0701919E+03;3;  2.5094705E+00;  0.0000000E+00;  1.0021884E+01;0;  5.9573296E-02;  3.9868656E+04;  0.0000000E+00;  6.4469280E+00;  4.0000000E+04;  0.0000000E+00;  4.0033039E+04;  6.3071601E-02;  0.0000000E+00; -3.4983032E-03;  1.0389560E+04;
  1.8157284E-01;  9.9999998E-03;  7.0068739E-02;3581;  1.4341480E-02;  0.0000000E+00; -3.1919009E-04;  9.9789880E+02;  1.0000000E-01; -1.7407903E+03;3;  2.7233047E+00;  0.0000000E+00; -5.4187022E-02;0;  4.3410458E-02;  3.9822750E+04;  0.0000000E+00; -2.8396070E-02;  4.0000000E+04;  0.0000000E+00;  4.0003809E+04;  4.7924884E-02;  0.0000000E+00; -4.5144255E-03;  6.6340894E+02;
  1.8157323E-01;  9.9999998E-03;  8.0074482E-02;3582;  1.4413755E-02;  0.0000000E+00; -3.4665159E-04;  9.9792029E+02;  1.0000000E-01; -1.7230129E+03;3;  2.6989901E+00;  0.0000000E+00; -5.8650292E-02;0;  4.4014167E-02;  3.9822465E+04;  0.0000000E+00; -2.4630174E-02;  4.0000000E+04;  0.0000000E+00;  4.0006109E+04;  4.8322178E-02;  0.0000000E+00; -4.3080114E-03;  9.6763812E+02;
  1.8159018E-01;  9.9999998E-03;  9.0075329E-02;3583;  1.4515494E-02;  0.0000000E+00; -3.5717565E-04;  9.9798810E+02;  1.0000000E-01; -1.6668170E+03;3;  2.6689026E+00;  0.0000000E+00; -6.4482130E-02;0;  4.5058563E-02;  3.9825055E+04;  0.0000000E+00; -2.2581240E-02;  4.0000000E+04;  0.0000000E+00;  4.0009180E+04;  4.9201343E-02;  0.0000000E+00; -4.1427817E-03;  1.3132622E+03;
  1.8162237E-01;  9.9999998E-03;  1.0007186E-01;3584;  1.4648057E-02;  0.0000000E+00; -3.4480423E-04;  9.9809302E+02;  1.0000000E-01; -1.5799059E+03;3;  2.6325393E+00;  0.0000000E+00; -7.3777892E-02;0;  4.6524547E-02;  3.9831125E+04;  0.0000000E+00; -2.6298787E-02;  4.0000000E+04;  0.0000000E+00;  4.0011574E+04;  5.0559465E-02;  0.0000000E+00; -4.0349178E-03;  1.6196057E+03;
  1.8166077E-01;  9.9999998E-03;  1.1006367E-01;3585;  1.4809635E-02;  0.0000000E+00; -3.0556342E-04;  9.9823218E+02;  1.0000000E-01; -1.4646006E+03;3;  2.5888410E+00;  0.0000000E+00; -8.6661860E-02;0;  4.8346322E-02;  3.9841074E+04;  0.0000000E+00; -3.9665774E-02;  4.0000000E+04;  0.0000000E+00;  4.0013301E+04;  5.2341804E-02;  0.0000000E+00; -3.9954809E-03;  1.7992997E+03;
  1.8169558E-01;  9.9999998E-03;  1.2004977E-01;3586;  1.4997968E-02;  0.0000000E+00; -2.3478305E-04;  9.9839929E+02;  1.0000000E-01; -1.3261354E+03;3;  2.5234315E+00;  0.0000000E+00; -1.2150437E-01;0;  5.0413631E-02;  3.9854973E+04;  0.0000000E+00; -6.5533452E-02;  4.0000000E+04;  0.0000000E+00;  4.0013145E+04;  5.4443162E-02;  0.0000000E+00; -4.0295301E-03;  1.7777681E+03;
  1.8172120E-01;  9.9999998E-03;  1.3002931E-01;3587;  1.5202426E-02;  0.0000000E+00; -1.3153156E-04;  9.9858289E+02;  1.0000000E-01; -1.1740409E+03;3;  2.4235632E+00;  0.0000000E+00; -1.9766869E-01;0;  5.2580096E-02;  3.9872113E+04;  0.0000000E+00; -1.0480436E-01;  4.0000000E+04;  0.0000000E+00;  4.0011285E+04;  5.6715630E-02;  0.0000000E+00; -4.1355360E-03;  1.5146354E+03;
  1.8173663E-01;  9.9999998E-03;  1.4000288E-01;3588;  1.5363242E-02;  0.0000000E+00; -6.6762484E-05;  9.9877161E+02;  1.0000000E-01; -1.0176996E+03;3;  2.3252926E+00;  0.0000000E+00; -2.6056820E-01;0;  5.4677088E-02;  3.9891746E+04;  0.0000000E+00; -1.5553926E-01;  4.0000000E+04;  0.0000000E+00;  4.0007172E+04;  5.8979757E-02;  0.0000000E+00; -4.3026689E-03;  1.0272511E+03;
  1.8174084E-01;  9.9999998E-03;  1.4997439E-01;3589;  1.5400220E-02;  0.0000000E+00; -7.9422520E-05;  9.9896338E+02;  1.0000000E-01; -8.5883990E+02;3;  2.2423553E+00;  0.0000000E+00; -2.7918333E-01;0;  5.6533333E-02;  3.9912773E+04;  0.0000000E+00; -2.1223567E-01;  4.0000000E+04;  0.0000000E+00;  4.0001902E+04;  6.1043367E-02;  0.0000000E+00; -4.5100339E-03;  4.5027051E+02;
  1.8173528E-01;  9.9999998E-03;  1.5995111E-01;3590;  1.5294145E-02;  0.0000000E+00; -1.3356403E-04;  9.9914343E+02;  1.0000000E-01; -7.0965894E+02;3;  2.2090292E+00;  0.0000000E+00; -2.2783236E-01;0;  5.8003694E-02;  3.9933383E+04;  0.0000000E+00; -2.6053864E-01;  4.0000000E+04;  0.0000000E+00;  3.9996410E+04;  6.2729351E-02;  0.0000000E+00; -4.7256583E-03;  5.2526392E+02;
  1.8172082E-01;  9.9999998E-03;  1.6994289E-01;3591;  1.5060980E-02;  0.0000000E+00; -1.9821034E-04;  9.9930096E+02;  1.0000000E-01; -5.7914410E+02;3;  2.1702502E+00;  0.0000000E+00; -9.6008986E-02;0;  5.9001695E-02;  3.9951633E+04;  0.0000000E+00; -2.6430237E-01;  4.0000000E+04;  0.0000000E+00;  3.9992098E+04;  6.3910745E-02;  0.0000000E+00; -4.9090497E-03;  1.0288090E+03;
  1.8168363E-01;  9.9999998E-03;  1.7995477E-01;3592;  1.4693121E-02;  0.0000000E+00; -2.6418097E-04;  9.9942328E+02;  1.0000000E-01; -4.7781366E+02;3;  2.0525827E+00;  0.0000000E+00;  1.9502179E-01;0;  5.9518903E-02;  3.9964332E+04;  0.0000000E+00; -1.5494500E-01;  4.0000000E+04;  0.0000000E+00;  3.9989543E+04;  6.4539939E-02;  0.0000000E+00; -5.0210347E-03;  1.2755531E+03;
  1.8160851E-01;  9.9999998E-03;  1.8998611E-01;3593;  1.4126084E-02;  0.0000000E+00; -2.7352877E-04;  9.9948901E+02;  1.0000000E-01; -4.2334604E+02;3;  1.7620648E+00;  0.0000000E+00;  7.5569618E-01;0;  5.9626162E-02;  3.9969723E+04;  0.0000000E+00;  1.6876937E-01;  4.0000000E+04;  0.0000000E+00;  3.9990316E+04;  6.4653397E-02;  0.0000000E+00; -5.0272346E-03;  1.1734335E+03;
  1.8151230E-01;  9.9999998E-03;  2.0003067E-01;3594;  1.3394603E-02;  0.0000000E+00; -2.0988101E-04;  9.9947455E+02;  1.0000000E-01; -4.3534570E+02;3;  1.3904080E+00;  0.0000000E+00;  1.6854165E+00;0;  5.9472263E-02;  3.9965234E+04;  0.0000000E+00;  8.3346456E-01;  4.0000000E+04;  0.0000000E+00;  3.9994855E+04;  6.4356141E-02;  0.0000000E+00; -4.8838779E-03;  1.3519246E+03;
  1.8140513E-01;  9.9999998E-03;  2.1008559E-01;3595;  1.2640196E-02;  0.0000000E+00; -1.5321712E-04;  9.9935468E+02;  1.0000000E-01; -5.3465155E+02;3;  1.0998161E+00;  0.0000000E+00;  3.1343455E+00;0;  5.9282567E-02;  3.9949500E+04;  0.0000000E+00;  1.9872502E+00;  4.0000000E+04;  0.0000000E+00;  4.0002098E+04;  6.3824363E-02;  0.0000000E+00; -4.5417943E-03;  2.9206296E+03;
  1.8134451E-01;  9.9999998E-03;  2.2012801E-01;3596;  1.1862809E-02;  0.0000000E+00; -1.1904239E-04;  9.9909381E+02;  1.0000000E-01; -7.5074420E+02;3;  1.1218306E+00;  0.0000000E+00;  5.1841521E+00;0;  5.9324447E-02;  3.9920801E+04;  0.0000000E+00;  3.7917604E+00;  4.0000000E+04;  0.0000000E+00;  4.0011031E+04;  6.3264251E-02;  0.0000000E+00; -3.9398037E-03;  5.7471099E+03;
  1.8136783E-01;  9.9999998E-03;  2.3013738E-01;3597;  1.1032404E-02;  0.0000000E+00; -1.0175141E-04;  9.9865295E+02;  1.0000000E-01; -1.1160178E+03;3;  1.9035454E+00;  0.0000000E+00;  7.6922975E+00;0;  5.9867933E-02;  3.9876574E+04;  0.0000000E+00;  6.3971915E+00;  4.0000000E+04;  0.0000000E+00;  4.0020805E+04;  6.2870808E-02;  0.0000000E+00; -3.0028734E-03;  9.8194414E+03;
  1.9171633E-01;  9.9999998E-03;  7.0085630E-02;3642;  1.4113642E-02;  0.0000000E+00; -3.3409218E-04;  9.9802679E+02;  1.0000000E-01; -1.6347686E+03;3;  2.7257116E+00;  0.0000000E+00; -3.8501129E-02;0;  4.2253405E-02;  3.9836648E+04;  0.0000000E+00; -3.1866703E-02;  4.0000000E+04;  0.0000000E+00;  3.9999797E+04;  4.7381625E-02;  0.0000000E+00; -5.1282216E-03;  1.5267485E+02;
  1.9168955E-01;  9.9999998E-03;  8.0093279E-02;3643;  1.4183622E-02;  0.0000000E+00; -3.6685952E-04;  9.9802887E+02;  1.0000000E-01; -1.6330403E+03;3;  2.7015345E+00;  0.0000000E+00; -4.0112488E-02;0;  4.2394623E-02;  3.9834586E+04;  0.0000000E+00; -2.3700843E-02;  4.0000000E+04;  0.0000000E+00;  4.0002102E+04;  4.7289323E-02;  0.0000000E+00; -4.8947008E-03;  4.3979788E+02;
  1.9166619E-01;  9.9999998E-03;  9.0097010E-02;3644;  1.4287077E-02;  0.0000000E+00; -3.8291365E-04;  9.9807196E+02;  1.0000000E-01; -1.5973375E+03;3;  2.6710045E+00;  0.0000000E+00; -4.4421431E-02;0;  4.2999920E-02;  3.9835301E+04;  0.0000000E+00; -1.4806380E-02;  4.0000000E+04;  0.0000000E+00;  4.0004750E+04;  4.7684796E-02;  0.0000000E+00; -4.6848753E-03;  7.8173468E+02;
  1.9165309E-01;  9.9999998E-03;  1.0009696E-01;3645;  1.4424286E-02;  0.0000000E+00; -3.7364269E-04;  9.9815601E+02;  1.0000000E-01; -1.5277098E+03;3;  2.6377552E+00;  0.0000000E+00; -4.8947513E-02;0;  4.4074237E-02;  3.9839680E+04;  0.0000000E+00; -1.0280250E-02;  4.0000000E+04;  0.0000000E+00;  4.0007379E+04;  4.8589993E-02;  0.0000000E+00; -4.5157541E-03;  1.0962103E+03;
  1.9165358E-01;  9.9999998E-03;  1.1009263E-01;3646;  1.4594764E-02;  0.0000000E+00; -3.3150736E-04;  9.9827472E+02;  1.0000000E-01; -1.4293423E+03;3;  2.5950437E+00;  0.0000000E+00; -5.8734316E-02;0;  4.5569077E-02;  3.9847824E+04;  0.0000000E+00; -1.6268378E-02;  4.0000000E+04;  0.0000000E+00;  4.0009203E+04;  4.9971137E-02;  0.0000000E+00; -4.4020596E-03;  1.2985986E+03;
  1.9166470E-01;  9.9999998E-03;  1.2008303E-01;3647;  1.4794170E-02;  0.0000000E+00; -2.4805727E-04;  9.9842767E+02;  1.0000000E-01; -1.3026299E+03;3;  2.5298734E+00;  0.0000000E+00; -9.7452864E-02;0;  4.7388878E-02;  3.9860168E+04;  0.0000000E+00; -3.8988180E-02;  4.0000000E+04;  0.0000000E+00;  4.0009402E+04;  5.1743593E-02;  0.0000000E+00; -4.3547144E-03;  1.3173497E+03;
  1.9167751E-01;  9.9999998E-03;  1.3006733E-01;3648;  1.5017153E-02;  0.0000000E+00; -1.1459106E-04;  9.9860059E+02;  1.0000000E-01; -1.1593746E+03;3;  2.4380069E+00;  0.0000000E+00; -1.7053862E-01;0;  4.9401350E-02;  3.9875754E+04;  0.0000000E+00; -8.3361134E-02;  4.0000000E+04;  0.0000000E+00;  4.0008074E+04;  5.3780410E-02;  0.0000000E+00; -4.3790615E-03;  1.1130074E+03;
  1.9168445E-01;  9.9999998E-03;  1.4004551E-01;3649;  1.5220599E-02;  0.0000000E+00;  3.6639995E-05;  9.9878052E+02;  1.0000000E-01; -1.0103418E+03;3;  2.3201065E+00;  0.0000000E+00; -2.7208561E-01;0;  5.1451009E-02;  3.9894168E+04;  0.0000000E+00; -1.5131342E-01;  4.0000000E+04;  0.0000000E+00;  4.0004508E+04;  5.5921514E-02;  0.0000000E+00; -4.4705039E-03;  7.0524518E+02;
  1.9168127E-01;  9.9999998E-03;  1.5001976E-01;3650;  1.5307582E-02;  0.0000000E+00;  1.0731754E-04;  9.9896490E+02;  1.0000000E-01; -8.5755597E+02;3;  2.2072566E+00;  0.0000000E+00; -3.5374790E-01;0;  5.3378388E-02;  3.9914219E+04;  0.0000000E+00; -2.3966575E-01;  4.0000000E+04;  0.0000000E+00;  3.9999836E+04;  5.7987425E-02;  0.0000000E+00; -4.6090358E-03;  3.4734750E+02;
  1.9166718E-01;  9.9999998E-03;  1.5999524E-01;3651;  1.5213069E-02;  0.0000000E+00;  9.5669886E-05;  9.9913745E+02;  1.0000000E-01; -7.1459705E+02;3;  2.1699009E+00;  0.0000000E+00; -3.3944932E-01;0;  5.5044811E-02;  3.9933887E+04;  0.0000000E+00; -3.3141583E-01;  4.0000000E+04;  0.0000000E+00;  3.9994914E+04;  5.9806179E-02;  0.0000000E+00; -4.7613685E-03;  7.6195807E+02;
  1.9163927E-01;  9.9999998E-03;  1.6997865E-01;3652;  1.4968419E-02;  0.0000000E+00;  6.6404929E-05;  9.9928558E+02;  1.0000000E-01; -5.9188452E+02;3;  2.1449163E+00;  0.0000000E+00; -1.9121782E-01;0;  5.6362271E-02;  3.9951137E+04;  0.0000000E+00; -3.8079455E-01;  4.0000000E+04;  0.0000000E+00;  3.9989906E+04;  6.1246749E-02;  0.0000000E+00; -4.8844777E-03;  1.3045319E+03;
  1.9159259E-01;  9.9999998E-03;  1.7997853E-01;3653;  1.4585450E-02;  0.0000000E+00;  5.0020481E-05;  9.9940149E+02;  1.0000000E-01; -4.9583783E+02;3;  1.9847889E+00;  0.0000000E+00;  1.1117741E-01;0;  5.7311051E-02;  3.9963996E+04;  0.0000000E+00; -3.0550152E-01;  4.0000000E+04;  0.0000000E+00;  3.9987254E+04;  6.2246468E-02;  0.0000000E+00; -4.9354192E-03;  1.6052158E+03;
  1.9152059E-01;  9.9999998E-03;  1.9000468E-01;3654;  1.4005559E-02;  0.0000000E+00;  1.0287164E-04;  9.9945837E+02;  1.0000000E-01; -4.4872806E+02;3;  1.6814026E+00;  0.0000000E+00;  6.2107992E-01;0;  5.7950597E-02;  3.9969918E+04;  0.0000000E+00;  7.4267131E-03;  4.0000000E+04;  0.0000000E+00;  3.9987098E+04;  6.2823243E-02;  0.0000000E+00; -4.8726462E-03;  1.5625728E+03;
  1.9143446E-01;  9.9999998E-03;  2.0005387E-01;3655;  1.3269727E-02;  0.0000000E+00;  2.0981993E-04;  9.9943915E+02;  1.0000000E-01; -4.6467822E+02;3;  1.2465849E+00;  0.0000000E+00;  1.3903340E+00;0;  5.8423307E-02;  3.9966758E+04;  0.0000000E+00;  6.8635184E-01;  4.0000000E+04;  0.0000000E+00;  3.9989836E+04;  6.3066989E-02;  0.0000000E+00; -4.6436819E-03;  1.5825204E+03;
  1.9134723E-01;  9.9999998E-03;  2.1011515E-01;3656;  1.2508177E-02;  0.0000000E+00;  3.0197142E-04;  9.9931470E+02;  1.0000000E-01; -5.6773700E+02;3;  8.0836552E-01;  0.0000000E+00;  2.4720194E+00;0;  5.8948986E-02;  3.9953172E+04;  0.0000000E+00;  1.8665484E+00;  4.0000000E+04;  0.0000000E+00;  3.9994973E+04;  6.3137382E-02;  0.0000000E+00; -4.1883965E-03;  2.8082593E+03;
  1.9127519E-01;  9.9999998E-03;  2.2018611E-01;3657;  1.1712436E-02;  0.0000000E+00;  3.8823471E-04;  9.9904388E+02;  1.0000000E-01; -7.9212573E+02;3;  6.1523056E-01;  0.0000000E+00;  3.8028467E+00;0;  5.9810154E-02;  3.9927789E+04;  0.0000000E+00;  3.6855893E+00;  4.0000000E+04;  0.0000000E+00;  3.9999816E+04;  6.3224308E-02;  0.0000000E+00; -3.4141536E-03;  5.4349927E+03;
  1.9128555E-01;  9.9999998E-03;  2.3022601E-01;3658;  1.0870418E-02;  0.0000000E+00;  4.2544110E-04;  9.9858563E+02;  1.0000000E-01; -1.1717693E+03;3;  1.0934743E+00;  0.0000000E+00;  4.9346027E+00;0;  6.1256457E-02;  3.9887957E+04;  0.0000000E+00;  6.2321696E+00;  4.0000000E+04;  0.0000000E+00;  4.0003555E+04;  6.3503906E-02;  0.0000000E+00; -2.2474504E-03;  9.2698301E+03;
  2.0187253E-01;  9.9999998E-03;  7.0069008E-02;3703;  1.3924947E-02;  0.0000000E+00; -3.4849293E-04;  9.9829596E+02;  1.0000000E-01; -1.4117626E+03;3;  2.7282801E+00;  0.0000000E+00; -2.9788531E-02;0;  4.4407614E-02;  3.9861707E+04;  0.0000000E+00; -2.4835970E-02;  4.0000000E+04;  0.0000000E+00;  3.9996062E+04;  5.0325274E-02;  0.0000000E+00; -5.9176600E-03;  3.4661554E+02;
  2.0182778E-01;  9.9999998E-03;  8.0084153E-02;3704;  1.3993092E-02;  0.0000000E+00; -3.8851789E-04;  9.9826141E+02;  1.0000000E-01; -1.4404037E+03;3;  2.7020853E+00;  0.0000000E+00; -3.0694237E-02;0;  4.3974359E-02;  3.9857047E+04;  0.0000000E+00; -1.2883577E-02;  4.0000000E+04;  0.0000000E+00;  3.9998371E+04;  4.9642395E-02;  0.0000000E+00; -5.6680366E-03;  7.8824890E+01;
  2.0177945E-01;  9.9999998E-03;  9.0094529E-02;3705;  1.4094091E-02;  0.0000000E+00; -4.1180191E-04;  9.9826392E+02;  1.0000000E-01; -1.4383297E+03;3;  2.6727648E+00;  0.0000000E+00; -3.2771837E-02;0;  4.3996409E-02;  3.9854742E+04;  0.0000000E+00;  2.4743134E-03;  4.0000000E+04;  0.0000000E+00;  4.0000723E+04;  4.9420506E-02;  0.0000000E+00; -5.4240976E-03;  2.5375031E+02;
  2.0173296E-01;  9.9999998E-03;  1.0010058E-01;3706;  1.4234671E-02;  0.0000000E+00; -4.0986305E-04;  9.9830670E+02;  1.0000000E-01; -1.4028739E+03;3;  2.6396656E+00;  0.0000000E+00; -3.3925757E-02;0;  4.4504415E-02;  3.9855789E+04;  0.0000000E+00;  1.6280578E-02;  4.0000000E+04;  0.0000000E+00;  4.0003371E+04;  4.9706776E-02;  0.0000000E+00; -5.2023591E-03;  5.7182263E+02;
  2.0169425E-01;  9.9999998E-03;  1.1010219E-01;3707;  1.4412152E-02;  0.0000000E+00; -3.7422922E-04;  9.9838544E+02;  1.0000000E-01; -1.3376412E+03;3;  2.5926149E+00;  0.0000000E+00; -4.9794342E-02;0;  4.5476366E-02;  3.9860363E+04;  0.0000000E+00;  2.1225479E-02;  4.0000000E+04;  0.0000000E+00;  4.0005441E+04;  5.0496470E-02;  0.0000000E+00; -5.0201053E-03;  7.9757648E+02;
  2.0166525E-01;  9.9999998E-03;  1.2009916E-01;3708;  1.4625285E-02;  0.0000000E+00; -2.8833948E-04;  9.9849603E+02;  1.0000000E-01; -1.2459895E+03;3;  2.5254827E+00;  0.0000000E+00; -9.2389800E-02;0;  4.6839230E-02;  3.9868898E+04;  0.0000000E+00;  8.3409538E-03;  4.0000000E+04;  0.0000000E+00;  4.0005984E+04;  5.1732697E-02;  0.0000000E+00; -4.8934673E-03;  8.6228174E+02;
  2.0164521E-01;  9.9999998E-03;  1.3008982E-01;3709;  1.4862811E-02;  0.0000000E+00; -1.3869281E-04;  9.9863062E+02;  1.0000000E-01; -1.1344865E+03;3;  2.4272122E+00;  0.0000000E+00; -1.9204085E-01;0;  4.8479117E-02;  3.9881055E+04;  0.0000000E+00; -3.1451594E-02;  4.0000000E+04;  0.0000000E+00;  4.0005156E+04;  5.3313438E-02;  0.0000000E+00; -4.8343190E-03;  7.2475684E+02;
  2.0163101E-01;  9.9999998E-03;  1.4007384E-01;3710;  1.5093992E-02;  0.0000000E+00;  7.8617166E-05;  9.9878345E+02;  1.0000000E-01; -1.0078727E+03;3;  2.2770617E+00;  0.0000000E+00; -3.8782263E-01;0;  5.0256070E-02;  3.9896102E+04;  0.0000000E+00; -1.0480163E-01;  4.0000000E+04;  0.0000000E+00;  4.0002070E+04;  5.5100065E-02;  0.0000000E+00; -4.8439940E-03;  4.0413306E+02;
  2.0161428E-01;  9.9999998E-03;  1.5005228E-01;3711;  1.5192675E-02;  0.0000000E+00;  2.5976676E-04;  9.9893939E+02;  1.0000000E-01; -8.7869122E+02;3;  2.1503861E+00;  0.0000000E+00; -4.9176824E-01;0;  5.2025802E-02;  3.9913168E+04;  0.0000000E+00; -2.1247487E-01;  4.0000000E+04;  0.0000000E+00;  3.9998109E+04;  5.6930024E-02;  0.0000000E+00; -4.9042231E-03;  3.3207275E+02;
  2.0158833E-01;  9.9999998E-03;  1.6002908E-01;3712;  1.5106497E-02;  0.0000000E+00;  3.2182725E-04;  9.9908624E+02;  1.0000000E-01; -7.5701562E+02;3;  2.1209633E+00;  0.0000000E+00; -4.4092029E-01;0;  5.3662743E-02;  3.9930430E+04;  0.0000000E+00; -3.3735904E-01;  4.0000000E+04;  0.0000000E+00;  3.9993730E+04;  5.8640826E-02;  0.0000000E+00; -4.9780840E-03;  8.7858862E+02;
  2.0154834E-01;  9.9999998E-03;  1.7000954E-01;3713;  1.4891531E-02;  0.0000000E+00;  3.1228716E-04;  9.9921686E+02;  1.0000000E-01; -6.4882117E+02;3;  2.0835464E+00;  0.0000000E+00; -3.2704198E-01;0;  5.5083342E-02;  3.9945957E+04;  0.0000000E+00; -4.2728293E-01;  4.0000000E+04;  0.0000000E+00;  3.9989238E+04;  6.0101289E-02;  0.0000000E+00; -5.0179465E-03;  1.4346360E+03;
  2.0149454E-01;  9.9999998E-03;  1.8000104E-01;3714;  1.4566450E-02;  0.0000000E+00;  2.8635742E-04;  9.9931519E+02;  1.0000000E-01; -5.6734198E+02;3;  1.9789348E+00;  0.0000000E+00; -2.8422466E-02;0;  5.6263626E-02;  3.9957555E+04;  0.0000000E+00; -3.8944685E-01;  4.0000000E+04;  0.0000000E+00;  3.9986164E+04;  6.1242137E-02;  0.0000000E+00; -4.9785110E-03;  1.7840029E+03;
  2.0142502E-01;  9.9999998E-03;  1.9001633E-01;3715;  1.4047751E-02;  0.0000000E+00;  3.2847383E-04;  9.9936523E+02;  1.0000000E-01; -5.2591107E+02;3;  1.6602958E+00;  0.0000000E+00;  4.0013129E-01;0;  5.7254788E-02;  3.9963535E+04;  0.0000000E+00; -1.0119750E-01;  4.0000000E+04;  0.0000000E+00;  3.9985426E+04;  6.2070698E-02;  0.0000000E+00; -4.8159100E-03;  1.8256694E+03;
  2.0134354E-01;  9.9999998E-03;  2.0006341E-01;3716;  1.3310893E-02;  0.0000000E+00;  4.5521828E-04;  9.9933856E+02;  1.0000000E-01; -5.4798450E+02;3;  1.1856221E+00;  0.0000000E+00;  1.0512460E+00;0;  5.8194958E-02;  3.9961992E+04;  0.0000000E+00;  5.6855923E-01;  4.0000000E+04;  0.0000000E+00;  3.9986145E+04;  6.2661603E-02;  0.0000000E+00; -4.4666454E-03;  1.8764172E+03;
  2.0127599E-01;  9.9999998E-03;  2.1012093E-01;3717;  1.2501511E-02;  0.0000000E+00;  5.9494370E-04;  9.9922217E+02;  1.0000000E-01; -6.4442621E+02;3;  6.3111490E-01;  0.0000000E+00;  1.8663222E+00;0;  5.9298333E-02;  3.9951082E+04;  0.0000000E+00;  1.7450955E+00;  4.0000000E+04;  0.0000000E+00;  3.9989219E+04;  6.3147977E-02;  0.0000000E+00; -3.8496430E-03;  2.9044143E+03;
  2.0120762E-01;  9.9999998E-03;  2.2020189E-01;3718;  1.1672526E-02;  0.0000000E+00;  7.0692674E-04;  9.9895764E+02;  1.0000000E-01; -8.6358051E+02;3;  1.9185671E-01;  0.0000000E+00;  2.5591488E+00;0;  6.0835544E-02;  3.9930215E+04;  0.0000000E+00;  3.5488751E+00;  4.0000000E+04;  0.0000000E+00;  3.9989684E+04;  6.3698113E-02;  0.0000000E+00; -2.8625692E-03;  5.3829316E+03;
  2.0119211E-01;  9.9999998E-03;  2.3026498E-01;3719;  1.0843468E-02;  0.0000000E+00;  7.5022085E-04;  9.9850580E+02;  1.0000000E-01; -1.2379403E+03;3;  2.4754967E-01;  0.0000000E+00;  2.5033989E+00;0;  6.3049711E-02;  3.9897070E+04;  0.0000000E+00;  6.0507703E+00;  4.0000000E+04;  0.0000000E+00;  3.9988164E+04;  6.4475685E-02;  0.0000000E+00; -1.4259741E-03;  9.1075459E+03;
  2.1204601E-01;  9.9999998E-03;  7.0006996E-02;3764;  1.3784152E-02;  0.0000000E+00; -3.7205496E-04;  9.9864929E+02;  1.0000000E-01; -1.1190300E+03;3;  2.7289855E+00;  0.0000000E+00; -2.5029041E-02;0;  4.9238265E-02;  3.9893801E+04;  0.0000000E+00; -4.0684803E-03;  4.0000000E+04;  0.0000000E+00;  3.9993016E+04;  5.6093805E-02;  0.0000000E+00; -6.8555381E-03;  7.5298920E+02;
  2.1203998E-01;  9.9999998E-03;  8.0019683E-02;3765;  1.3846679E-02;  0.0000000E+00; -4.1833409E-04;  9.9858618E+02;  1.0000000E-01; -1.1713250E+03;3;  2.7027674E+00;  0.0000000E+00; -2.4402466E-02;0;  4.8194997E-02;  3.9886754E+04;  0.0000000E+00;  1.1485865E-02;  4.0000000E+04;  0.0000000E+00;  3.9994750E+04;  5.4804530E-02;  0.0000000E+00; -6.6095334E-03;  5.2625476E+02;
  2.1200264E-01;  9.9999998E-03;  9.0032876E-02;3766;  1.3947852E-02;  0.0000000E+00; -4.5167457E-04;  9.9854572E+02;  1.0000000E-01; -1.2048549E+03;3;  2.6694047E+00;  0.0000000E+00; -3.1522650E-02;0;  4.7544498E-02;  3.9881086E+04;  0.0000000E+00;  3.2599892E-02;  4.0000000E+04;  0.0000000E+00;  3.9997215E+04;  5.3893533E-02;  0.0000000E+00; -6.3490346E-03;  2.2529370E+02;
  2.1193098E-01;  9.9999998E-03;  1.0004963E-01;3767;  1.4091681E-02;  0.0000000E+00; -4.6145014E-04;  9.9853455E+02;  1.0000000E-01; -1.2140891E+03;3;  2.6351547E+00;  0.0000000E+00; -3.3863906E-02;0;  4.7342855E-02;  3.9877824E+04;  0.0000000E+00;  5.5702481E-02;  4.0000000E+04;  0.0000000E+00;  3.9999484E+04;  5.3431168E-02;  0.0000000E+00; -6.0883113E-03;  1.2349741E+02;
  2.1183144E-01;  9.9999998E-03;  1.1007163E-01;3768;  1.4273962E-02;  0.0000000E+00; -4.3972040E-04;  9.9855518E+02;  1.0000000E-01; -1.1970032E+03;3;  2.5874763E+00;  0.0000000E+00; -5.1391762E-02;0;  4.7602218E-02;  3.9877355E+04;  0.0000000E+00;  7.3924802E-02;  4.0000000E+04;  0.0000000E+00;  4.0002102E+04;  5.3448372E-02;  0.0000000E+00; -5.8461549E-03;  3.6167358E+02;
  2.1173352E-01;  9.9999998E-03;  1.2009059E-01;3769;  1.4494477E-02;  0.0000000E+00; -3.6972598E-04;  9.9860217E+02;  1.0000000E-01; -1.1580907E+03;3;  2.5180223E+00;  0.0000000E+00; -1.0859160E-01;0;  4.8289366E-02;  3.9880430E+04;  0.0000000E+00;  7.7010386E-02;  4.0000000E+04;  0.0000000E+00;  4.0002746E+04;  5.3934570E-02;  0.0000000E+00; -5.6452029E-03;  4.7706247E+02;
  2.1166015E-01;  9.9999998E-03;  1.3009748E-01;3770;  1.4740300E-02;  0.0000000E+00; -2.2422537E-04;  9.9867780E+02;  1.0000000E-01; -1.0954258E+03;3;  2.4223659E+00;  0.0000000E+00; -2.5430924E-01;0;  4.9318738E-02;  3.9887152E+04;  0.0000000E+00;  5.2632522E-02;  4.0000000E+04;  0.0000000E+00;  4.0002121E+04;  5.4822966E-02;  0.0000000E+00; -5.5042263E-03;  4.1096643E+02;
  2.1160382E-01;  9.9999998E-03;  1.4009321E-01;3771;  1.4966107E-02;  0.0000000E+00;  5.8354995E-05;  9.9877118E+02;  1.0000000E-01; -1.0180453E+03;3;  2.2484593E+00;  0.0000000E+00; -5.6301117E-01;0;  5.0569285E-02;  3.9896887E+04;  0.0000000E+00; -1.0789149E-02;  4.0000000E+04;  0.0000000E+00;  4.0000477E+04;  5.5998202E-02;  0.0000000E+00; -5.4289191E-03;  1.5585342E+02;
  2.1155673E-01;  9.9999998E-03;  1.5007816E-01;3772;  1.5087605E-02;  0.0000000E+00;  2.6254210E-04;  9.9887732E+02;  1.0000000E-01; -9.3009717E+02;3;  2.1389027E+00;  0.0000000E+00; -6.9759423E-01;0;  5.1917702E-02;  3.9908938E+04;  0.0000000E+00; -1.1947438E-01;  4.0000000E+04;  0.0000000E+00;  3.9997242E+04;  5.7319336E-02;  0.0000000E+00; -5.4016327E-03;  3.0432745E+02;
  2.1151301E-01;  9.9999998E-03;  1.6005723E-01;3773;  1.5084963E-02;  0.0000000E+00;  3.2287691E-04;  9.9898248E+02;  1.0000000E-01; -8.4298853E+02;3;  2.1322420E+00;  0.0000000E+00; -6.7938942E-01;0;  5.3256471E-02;  3.9921945E+04;  0.0000000E+00; -2.5994307E-01;  4.0000000E+04;  0.0000000E+00;  3.9993184E+04;  5.8640439E-02;  0.0000000E+00; -5.3839698E-03;  8.4422797E+02;
  2.1146454E-01;  9.9999998E-03;  1.7003521E-01;3774;  1.5032380E-02;  0.0000000E+00;  2.6374351E-04;  9.9907886E+02;  1.0000000E-01; -7.6313892E+02;3;  2.1082830E+00;  0.0000000E+00; -5.6252038E-01;0;  5.4515522E-02;  3.9934125E+04;  0.0000000E+00; -3.7922257E-01;  4.0000000E+04;  0.0000000E+00;  3.9989328E+04;  5.9842058E-02;  0.0000000E+00; -5.3265342E-03;  1.3806182E+03;
  2.1140651E-01;  9.9999998E-03;  1.8001942E-01;3775;  1.4924735E-02;  0.0000000E+00;  1.5153337E-04;  9.9914948E+02;  1.0000000E-01; -7.0462207E+02;3;  1.9741038E+00;  0.0000000E+00; -3.1866461E-01;0;  5.5674385E-02;  3.9943871E+04;  0.0000000E+00; -3.7980700E-01;  4.0000000E+04;  0.0000000E+00;  3.9985953E+04;  6.0864165E-02;  0.0000000E+00; -5.1897815E-03;  1.7607595E+03;
  2.1134113E-01;  9.9999998E-03;  1.9001968E-01;3776;  1.4523818E-02;  0.0000000E+00;  1.5573099E-04;  9.9918622E+02;  1.0000000E-01; -6.7420312E+02;3;  1.7502939E+00;  0.0000000E+00;  9.5022336E-02;0;  5.6780640E-02;  3.9949312E+04;  0.0000000E+00; -1.3339756E-01;  4.0000000E+04;  0.0000000E+00;  3.9984480E+04;  6.1714370E-02;  0.0000000E+00; -4.9337302E-03;  1.8812681E+03;
  2.1126477E-01;  9.9999998E-03;  2.0005064E-01;3777;  1.3791748E-02;  0.0000000E+00;  3.0934860E-04;  9.9917114E+02;  1.0000000E-01; -6.8669666E+02;3;  1.2807835E+00;  0.0000000E+00;  6.4963466E-01;0;  5.7973057E-02;  3.9949008E+04;  0.0000000E+00;  4.9470380E-01;  4.0000000E+04;  0.0000000E+00;  3.9984543E+04;  6.2453002E-02;  0.0000000E+00; -4.4799438E-03;  1.9990547E+03;
  2.1120641E-01;  9.9999998E-03;  2.1009777E-01;3778;  1.2806752E-02;  0.0000000E+00;  5.5876886E-04;  9.9906537E+02;  1.0000000E-01; -7.7434845E+02;3;  6.3060772E-01;  0.0000000E+00;  1.3179930E+00;0;  5.9466455E-02;  3.9941203E+04;  0.0000000E+00;  1.6261389E+00;  4.0000000E+04;  0.0000000E+00;  3.9986070E+04;  6.3162558E-02;  0.0000000E+00; -3.6961040E-03;  2.9573743E+03;
  2.1115749E-01;  9.9999998E-03;  2.2016343E-01;3779;  1.1861553E-02;  0.0000000E+00;  7.3534594E-04;  9.9883673E+02;  1.0000000E-01; -9.6372583E+02;3;  1.9862000E-02;  0.0000000E+00;  1.7575883E+00;0;  6.1490379E-02;  3.9924988E+04;  0.0000000E+00;  3.3676205E+00;  4.0000000E+04;  0.0000000E+00;  3.9985266E+04;  6.3983075E-02;  0.0000000E+00; -2.4926956E-03;  5.2921382E+03;
  2.1112058E-01;  9.9999998E-03;  2.3023652E-01;3780;  1.1010168E-02;  0.0000000E+00;  7.6497876E-04;  9.9843250E+02;  1.0000000E-01; -1.2986299E+03;3; -3.1466603E-01;  0.0000000E+00;  1.1217622E+00;0;  6.4213738E-02;  3.9899363E+04;  0.0000000E+00;  5.8235364E+00;  4.0000000E+04;  0.0000000E+00;  3.9979488E+04;  6.5064877E-02;  0.0000000E+00; -8.5113721E-04;  8.9987334E+03;
  2.2204086E-01;  9.9999998E-03;  6.9981135E-02;3825;  1.3711559E-02;  0.0000000E+00; -4.2090399E-04;  9.9901678E+02;  1.0000000E-01; -8.1459424E+02;3;  2.7344263E+00;  0.0000000E+00; -1.3894243E-02;0;  5.5528402E-02;  3.9925863E+04;  0.0000000E+00;  2.6052762E-02;  4.0000000E+04;  0.0000000E+00;  3.9991129E+04;  6.3391790E-02;  0.0000000E+00; -7.8633856E-03;  1.0235515E+03;
  2.2207865E-01;  9.9999998E-03;  7.9987057E-02;3826;  1.3760217E-02;  0.0000000E+00; -4.8180719E-04;  9.9893280E+02;  1.0000000E-01; -8.8417255E+02;3;  2.7045755E+00;  0.0000000E+00; -2.7216753E-02;0;  5.3904116E-02;  3.9917754E+04;  0.0000000E+00;  4.4995788E-02;  4.0000000E+04;  0.0000000E+00;  3.9992684E+04;  6.1540887E-02;  0.0000000E+00; -7.6367697E-03;  8.4275647E+02;
  2.2209483E-01;  9.9999998E-03;  8.9990765E-02;3827;  1.3853952E-02;  0.0000000E+00; -5.2741036E-04;  9.9886139E+02;  1.0000000E-01; -9.4333136E+02;3;  2.6696863E+00;  0.0000000E+00; -3.7809394E-02;0;  5.2589536E-02;  3.9909883E+04;  0.0000000E+00;  7.0877492E-02;  4.0000000E+04;  0.0000000E+00;  3.9994695E+04;  5.9970226E-02;  0.0000000E+00; -7.3806895E-03;  5.7550049E+02;
  2.2208183E-01;  9.9999998E-03;  9.9996179E-02;3828;  1.3993558E-02;  0.0000000E+00; -5.5355753E-04;  9.9880768E+02;  1.0000000E-01; -9.8782391E+02;3;  2.6333299E+00;  0.0000000E+00; -5.0386369E-02;0;  5.1649418E-02;  3.9903086E+04;  0.0000000E+00;  1.0231332E-01;  4.0000000E+04;  0.0000000E+00;  3.9997023E+04;  5.8755640E-02;  0.0000000E+00; -7.1062208E-03;  3.0194208E+02;
  2.2202997E-01;  9.9999998E-03;  1.1000734E-01;3829;  1.4177462E-02;  0.0000000E+00; -5.5598083E-04;  9.9876514E+02;  1.0000000E-01; -1.0230822E+03;3;  2.5896802E+00;  0.0000000E+00; -6.9074206E-02;0;  5.1107999E-02;  3.9897508E+04;  0.0000000E+00;  1.3447566E-01;  4.0000000E+04;  0.0000000E+00;  3.9999180E+04;  5.7937685E-02;  0.0000000E+00; -6.8296879E-03;  1.9212912E+02;
  2.2193301E-01;  9.9999998E-03;  1.2002787E-01;3830;  1.4400029E-02;  0.0000000E+00; -5.2713184E-04;  9.9874329E+02;  1.0000000E-01; -1.0411558E+03;3;  2.5266783E+00;  0.0000000E+00; -1.3787262E-01;0;  5.0952785E-02;  3.9894535E+04;  0.0000000E+00;  1.5788153E-01;  4.0000000E+04;  0.0000000E+00;  4.0000375E+04;  5.7524350E-02;  0.0000000E+00; -6.5715644E-03;  2.7828873E+02;
  2.2179231E-01;  9.9999998E-03;  1.3005872E-01;3831;  1.4653058E-02;  0.0000000E+00; -4.3925332E-04;  9.9874335E+02;  1.0000000E-01; -1.0411063E+03;3;  2.4542205E+00;  0.0000000E+00; -2.9017308E-01;0;  5.1138703E-02;  3.9894145E+04;  0.0000000E+00;  1.5858576E-01;  4.0000000E+04;  0.0000000E+00;  4.0000738E+04;  5.7490796E-02;  0.0000000E+00; -6.3520935E-03;  2.9185995E+02;
  2.2165352E-01;  9.9999998E-03;  1.4008439E-01;3832;  1.4908171E-02;  0.0000000E+00; -2.9145021E-04;  9.9875964E+02;  1.0000000E-01; -1.0276252E+03;3;  2.3444860E+00;  0.0000000E+00; -6.4069080E-01;0;  5.1599041E-02;  3.9897000E+04;  0.0000000E+00;  1.2093225E-01;  4.0000000E+04;  0.0000000E+00;  3.9999305E+04;  5.7784457E-02;  0.0000000E+00; -6.1854161E-03;  1.7914214E+02;
  2.2155038E-01;  9.9999998E-03;  1.5008792E-01;3833;  1.5142282E-02;  0.0000000E+00; -2.0351500E-04;  9.9879327E+02;  1.0000000E-01; -9.9977417E+02;3;  2.3226452E+00;  0.0000000E+00; -8.4237319E-01;0;  5.2243263E-02;  3.9902457E+04;  0.0000000E+00;  3.2708492E-02;  4.0000000E+04;  0.0000000E+00;  3.9997203E+04;  5.8304779E-02;  0.0000000E+00; -6.0615176E-03;  2.6031992E+02;
  2.2147377E-01;  9.9999998E-03;  1.6007450E-01;3834;  1.5882824E-02;  0.0000000E+00; -3.8610536E-04;  9.9883893E+02;  1.0000000E-01; -9.6194812E+02;3;  2.0625160E+00;  0.0000000E+00; -9.1811752E-01;0;  5.2990831E-02;  3.9909477E+04;  0.0000000E+00; -1.0026212E-01;  4.0000000E+04;  0.0000000E+00;  3.9993992E+04;  5.8935083E-02;  0.0000000E+00; -5.9442502E-03;  6.7044592E+02;
  2.2141224E-01;  9.9999998E-03;  1.7005196E-01;3835;  1.7467434E-02;  0.0000000E+00; -6.8377296E-04;  9.9888123E+02;  1.0000000E-01; -9.2688739E+02;3;  1.2689534E+00;  0.0000000E+00; -7.4410051E-01;0;  5.3805135E-02;  3.9917082E+04;  0.0000000E+00; -2.3139663E-01;  4.0000000E+04;  0.0000000E+00;  3.9990562E+04;  5.9604414E-02;  0.0000000E+00; -5.7992768E-03;  1.1417179E+03;
  2.2135057E-01;  9.9999998E-03;  1.8002936E-01;3836;  1.7803902E-02;  0.0000000E+00; -9.3504193E-04;  9.9891656E+02;  1.0000000E-01; -8.9760425E+02;3;  8.8311172E-01;  0.0000000E+00; -5.8595580E-01;0;  5.4652907E-02;  3.9923750E+04;  0.0000000E+00; -2.6663983E-01;  4.0000000E+04;  0.0000000E+00;  3.9987500E+04;  6.0265854E-02;  0.0000000E+00; -5.6129461E-03;  1.5244706E+03;
  2.2128350E-01;  9.9999998E-03;  1.9001678E-01;3837;  1.7207319E-02;  0.0000000E+00; -1.0133635E-03;  9.9893372E+02;  1.0000000E-01; -8.8338245E+02;3;  1.0474285E+00;  0.0000000E+00; -2.7135682E-01;0;  5.5569328E-02;  3.9927711E+04;  0.0000000E+00; -7.8435458E-02;  4.0000000E+04;  0.0000000E+00;  3.9985902E+04;  6.0941011E-02;  0.0000000E+00; -5.3716823E-03;  1.7102568E+03;
  2.2121367E-01;  9.9999998E-03;  2.0002587E-01;3838;  1.5708564E-02;  0.0000000E+00; -7.3920906E-04;  9.9891895E+02;  1.0000000E-01; -8.9562897E+02;3;  1.3308529E+00;  0.0000000E+00;  2.0860614E-01;0;  5.6684192E-02;  3.9928020E+04;  0.0000000E+00;  4.6910223E-01;  4.0000000E+04;  0.0000000E+00;  3.9985406E+04;  6.1641149E-02;  0.0000000E+00; -4.9569574E-03;  1.8836412E+03;
  2.2115500E-01;  9.9999998E-03;  2.1005642E-01;3839;  1.4207143E-02;  0.0000000E+00; -2.7360418E-04;  9.9884326E+02;  1.0000000E-01; -9.5834326E+02;3;  8.9051294E-01;  0.0000000E+00;  7.6222187E-01;0;  5.8268122E-02;  3.9922957E+04;  0.0000000E+00;  1.4992354E+00;  4.0000000E+04;  0.0000000E+00;  3.9986043E+04;  6.2433444E-02;  0.0000000E+00; -4.1653211E-03;  2.7881562E+03;
  2.2112454E-01;  9.9999998E-03;  2.2009805E-01;3840;  1.2767954E-02;  0.0000000E+00;  1.7033388E-04;  9.9867615E+02;  1.0000000E-01; -1.0968085E+03;3;  2.1909539E-01;  0.0000000E+00;  1.2293875E+00;0;  6.0545523E-02;  3.9911461E+04;  0.0000000E+00;  3.1086941E+00;  4.0000000E+04;  0.0000000E+00;  3.9985922E+04;  6.3356675E-02;  0.0000000E+00; -2.8111513E-03;  4.9096211E+03;
  2.2110403E-01;  9.9999998E-03;  2.3015556E-01;3841;  1.1660751E-02;  0.0000000E+00;  3.2674673E-04;  9.9836121E+02;  1.0000000E-01; -1.3576899E+03;3; -3.2033148E-01;  0.0000000E+00;  8.2001990E-01;0;  6.3525282E-02;  3.9892207E+04;  0.0000000E+00;  5.3883405E+00;  4.0000000E+04;  0.0000000E+00;  3.9981484E+04;  6.4558156E-02;  0.0000000E+00; -1.0328740E-03;  8.3282305E+03;
  2.3194163E-01;  9.9999998E-03;  6.9984294E-02;3886;  1.3727558E-02;  0.0000000E+00; -5.1127380E-04;  9.9932446E+02;  1.0000000E-01; -5.5968787E+02;3;  2.7352197E+00;  0.0000000E+00;  8.2576424E-03;0;  6.1955482E-02;  3.9952324E+04;  0.0000000E+00;  5.7007730E-02;  4.0000000E+04;  0.0000000E+00;  3.9990332E+04;  7.0823625E-02;  0.0000000E+00; -8.8681439E-03;  1.1632605E+03;
  2.3200446E-01;  9.9999998E-03;  7.9987168E-02;3887;  1.3756102E-02;  0.0000000E+00; -5.9987040E-04;  9.9924237E+02;  1.0000000E-01; -6.2768597E+02;3;  2.7125843E+00;  0.0000000E+00;  6.1521209E-03;0;  5.9809335E-02;  3.9944547E+04;  0.0000000E+00;  7.8229271E-02;  4.0000000E+04;  0.0000000E+00;  3.9991535E+04;  6.8480439E-02;  0.0000000E+00; -8.6711068E-03;  1.0244067E+03;
  2.3205346E-01;  9.9999998E-03;  8.9985371E-02;3888;  1.3837860E-02;  0.0000000E+00; -6.7438377E-04;  9.9916101E+02;  1.0000000E-01; -6.9509143E+02;3;  2.6810434E+00;  0.0000000E+00; -5.8527249E-03;0;  5.7860699E-02;  3.9936020E+04;  0.0000000E+00;  1.0683695E-01;  4.0000000E+04;  0.0000000E+00;  3.9993195E+04;  6.6291474E-02;  0.0000000E+00; -8.4307753E-03;  7.8685114E+02;
  2.3208487E-01;  9.9999998E-03;  9.9982277E-02;3889;  1.3971941E-02;  0.0000000E+00; -7.3675322E-04;  9.9907922E+02;  1.0000000E-01; -7.6284265E+02;3;  2.6438422E+00;  0.0000000E+00; -2.1094672E-02;0;  5.6179862E-02;  3.9927137E+04;  0.0000000E+00;  1.4396635E-01;  4.0000000E+04;  0.0000000E+00;  3.9995367E+04;  6.4335257E-02;  0.0000000E+00; -8.1553934E-03;  5.2119592E+02;
  2.3208851E-01;  9.9999998E-03;  1.0998254E-01;3890;  1.4158043E-02;  0.0000000E+00; -7.8323699E-04;  9.9899451E+02;  1.0000000E-01; -8.3301349E+02;3;  2.6073005E+00;  0.0000000E+00; -3.4210950E-02;0;  5.4800481E-02;  3.9918152E+04;  0.0000000E+00;  1.8785757E-01;  4.0000000E+04;  0.0000000E+00;  3.9997777E+04;  6.2659979E-02;  0.0000000E+00; -7.8594983E-03;  3.3624799E+02;
  2.3205152E-01;  9.9999998E-03;  1.1998945E-01;3891;  1.4400481E-02;  0.0000000E+00; -8.1392407E-04;  9.9890955E+02;  1.0000000E-01; -9.0343121E+02;3;  2.5649652E+00;  0.0000000E+00; -5.4135874E-02;0;  5.3725522E-02;  3.9909629E+04;  0.0000000E+00;  2.3188516E-01;  4.0000000E+04;  0.0000000E+00;  3.9999055E+04;  6.1288159E-02;  0.0000000E+00; -7.5626383E-03;  3.3186755E+02;
  2.3196173E-01;  9.9999998E-03;  1.3000348E-01;3892;  1.4697221E-02;  0.0000000E+00; -8.5268193E-04;  9.9883167E+02;  1.0000000E-01; -9.6792322E+02;3;  2.5215056E+00;  0.0000000E+00; -1.0253830E-01;0;  5.2934144E-02;  3.9902746E+04;  0.0000000E+00;  2.6343852E-01;  4.0000000E+04;  0.0000000E+00;  3.9999719E+04;  6.0218554E-02;  0.0000000E+00; -7.2844089E-03;  3.8817587E+02;
  2.3181383E-01;  9.9999998E-03;  1.4002977E-01;3893;  1.5078358E-02;  0.0000000E+00; -9.0466434E-04;  9.9876416E+02;  1.0000000E-01; -1.0238723E+03;3;  2.4780598E+00;  0.0000000E+00; -1.7417401E-01;0;  5.2394539E-02;  3.9897734E+04;  0.0000000E+00;  2.6476216E-01;  4.0000000E+04;  0.0000000E+00;  3.9999418E+04;  5.9430242E-02;  0.0000000E+00; -7.0357025E-03;  3.8304709E+02;
  2.3164342E-01;  9.9999998E-03;  1.5006001E-01;3894;  1.6196840E-02;  0.0000000E+00; -1.0221046E-03;  9.9871466E+02;  1.0000000E-01; -1.0648588E+03;3;  2.2257092E+00;  0.0000000E+00; -2.9247463E-01;0;  5.2079394E-02;  3.9895375E+04;  0.0000000E+00;  2.1741107E-01;  4.0000000E+04;  0.0000000E+00;  3.9998098E+04;  5.8891430E-02;  0.0000000E+00; -6.8120346E-03;  3.4289142E+02;
  2.3151514E-01;  9.9999998E-03;  1.6006853E-01;3895;  1.8964920E-02;  0.0000000E+00; -1.3244121E-03;  9.9868146E+02;  1.0000000E-01; -1.0923641E+03;3;  8.7485671E-01;  0.0000000E+00; -5.6892020E-01;0;  5.1978588E-02;  3.9895375E+04;  0.0000000E+00;  1.1685658E-01;  4.0000000E+04;  0.0000000E+00;  3.9995762E+04;  5.8574595E-02;  0.0000000E+00; -6.5960060E-03;  4.5882773E+02;
  2.3141979E-01;  9.9999998E-03;  1.7005400E-01;3896;  2.0065123E-02;  0.0000000E+00; -1.7841524E-03;  9.9866101E+02;  1.0000000E-01; -1.1093513E+03;3; -8.8886565E-01;  0.0000000E+00; -5.0513524E-01;0;  5.2058894E-02;  3.9897129E+04;  0.0000000E+00; -3.7637877E-03;  4.0000000E+04;  0.0000000E+00;  3.9992988E+04;  5.8434289E-02;  0.0000000E+00; -6.3753938E-03;  7.7635260E+02;
  2.3133948E-01;  9.9999998E-03;  1.8002999E-01;3897;  2.0250991E-02;  0.0000000E+00; -2.1423229E-03;  9.9864740E+02;  1.0000000E-01; -1.1206102E+03;3; -1.8041229E+00;  0.0000000E+00; -1.5867288E-01;0;  5.2318167E-02;  3.9899207E+04;  0.0000000E+00; -6.3057885E-02;  4.0000000E+04;  0.0000000E+00;  3.9990188E+04;  5.8488518E-02;  0.0000000E+00; -6.1703525E-03;  1.1174004E+03;
  2.3126449E-01;  9.9999998E-03;  1.9000871E-01;3898;  2.0003688E-02;  0.0000000E+00; -2.3806451E-03;  9.9863397E+02;  1.0000000E-01; -1.1317211E+03;3; -2.1005220E+00;  0.0000000E+00;  1.9894910E-01;0;  5.2778047E-02;  3.9901012E+04;  0.0000000E+00;  5.7084091E-02;  4.0000000E+04;  0.0000000E+00;  3.9988309E+04;  5.8799613E-02;  0.0000000E+00; -6.0215653E-03;  1.3469358E+03;
  2.3119462E-01;  9.9999998E-03;  1.9999994E-01;3899;  1.9327557E-02;  0.0000000E+00; -2.4393625E-03;  9.9861536E+02;  1.0000000E-01; -1.1471281E+03;3; -1.6908790E+00;  0.0000000E+00;  3.9474541E-01;0;  5.3488567E-02;  3.9900824E+04;  0.0000000E+00;  4.8790994E-01;  4.0000000E+04;  0.0000000E+00;  3.9988008E+04;  5.9422702E-02;  0.0000000E+00; -5.9341341E-03;  1.5726173E+03;
  2.3113468E-01;  9.9999998E-03;  2.1001044E-01;3900;  1.7829593E-02;  0.0000000E+00; -2.1174853E-03;  9.9857080E+02;  1.0000000E-01; -1.1840653E+03;3; -3.6286008E-01;  0.0000000E+00;  4.5190132E-01;0;  5.4650158E-02;  3.9897875E+04;  0.0000000E+00;  1.3537338E+00;  4.0000000E+04;  0.0000000E+00;  3.9988820E+04;  6.0316555E-02;  0.0000000E+00; -5.6663989E-03;  2.3941243E+03;
  2.3110375E-01;  9.9999998E-03;  2.2003479E-01;3901;  1.5562486E-02;  0.0000000E+00; -1.4315611E-03;  9.9847388E+02;  1.0000000E-01; -1.2643593E+03;3;  3.2361054E-01;  0.0000000E+00;  7.6967776E-01;0;  5.6635696E-02;  3.9891070E+04;  0.0000000E+00;  2.7555752E+00;  4.0000000E+04;  0.0000000E+00;  3.9989848E+04;  6.1326638E-02;  0.0000000E+00; -4.6909400E-03;  4.2646157E+03;
  2.3110771E-01;  9.9999998E-03;  2.3006874E-01;3902;  1.3802598E-02;  0.0000000E+00; -1.0133263E-03;  9.9827228E+02;  1.0000000E-01; -1.4313669E+03;3;  8.3124749E-02;  0.0000000E+00;  7.8818613E-01;0;  5.9365571E-02;  3.9877852E+04;  0.0000000E+00;  4.7343807E+00;  4.0000000E+04;  0.0000000E+00;  3.9988789E+04;  6.2603347E-02;  0.0000000E+00; -3.2377774E-03;  7.1819751E+03;
  2.4181527E-01;  9.9999998E-03;  6.9994815E-02;3947;  1.3859562E-02;  0.0000000E+00; -6.6048553E-04;  9.9951343E+02;  1.0000000E-01; -4.0309970E+02;3;  2.7337847E+00;  0.0000000E+00;  8.0180585E-02;0;  6.7146301E-02;  3.9968895E+04;  0.0000000E+00;  7.9389386E-02;  4.0000000E+04;  0.0000000E+00;  3.9990262E+04;  7.6926917E-02;  0.0000000E+00; -9.7806128E-03;  1.1908964E+03;
  2.4188960E-01;  9.9999998E-03;  7.9997770E-02;3948;  1.3868748E-02;  0.0000000E+00; -7.9807499E-04;  9.9945618E+02;  1.0000000E-01; -4.5055515E+02;3;  2.6979253E+00;  0.0000000E+00;  8.2602270E-02;0;  6.4596511E-02;  3.9963469E+04;  0.0000000E+00;  1.0099477E-01;  4.0000000E+04;  0.0000000E+00;  3.9990910E+04;  7.4217290E-02;  0.0000000E+00; -9.6207755E-03;  1.0906963E+03;
  2.4195574E-01;  9.9999998E-03;  8.9995235E-02;3949;  1.3934609E-02;  0.0000000E+00; -9.2529622E-04;  9.9938843E+02;  1.0000000E-01; -5.0665234E+02;3;  2.6698778E+00;  0.0000000E+00;  1.0039932E-01;0;  6.2100202E-02;  3.9956000E+04;  0.0000000E+00;  1.2963091E-01;  4.0000000E+04;  0.0000000E+00;  3.9992625E+04;  7.1504533E-02;  0.0000000E+00; -9.4043324E-03;  8.7903485E+02;
  2.4201073E-01;  9.9999998E-03;  9.9989928E-02;3950;  1.4072453E-02;  0.0000000E+00; -1.0393778E-03;  9.9930530E+02;  1.0000000E-01; -5.7553931E+02;3;  2.6381106E+00;  0.0000000E+00;  1.1463921E-01;0;  5.9724875E-02;  3.9946836E+04;  0.0000000E+00;  1.6865964E-01;  4.0000000E+04;  0.0000000E+00;  3.9994957E+04;  6.8860568E-02;  0.0000000E+00; -9.1356942E-03;  6.2013971E+02;
  2.4204998E-01;  9.9999998E-03;  1.0998490E-01;3951;  1.4288717E-02;  0.0000000E+00; -1.1566463E-03;  9.9919971E+02;  1.0000000E-01; -6.6304297E+02;3;  2.5926054E+00;  0.0000000E+00;  1.1713115E-01;0;  5.7512823E-02;  3.9936070E+04;  0.0000000E+00;  2.1964049E-01;  4.0000000E+04;  0.0000000E+00;  3.9997227E+04;  6.6340670E-02;  0.0000000E+00; -8.8278474E-03;  4.1852383E+02;
  2.4206336E-01;  9.9999998E-03;  1.1998105E-01;3952;  1.4598982E-02;  0.0000000E+00; -1.2895808E-03;  9.9907495E+02;  1.0000000E-01; -7.6639807E+02;3;  2.5634866E+00;  0.0000000E+00;  1.3436925E-01;0;  5.5483926E-02;  3.9924156E+04;  0.0000000E+00;  2.7992335E-01;  4.0000000E+04;  0.0000000E+00;  3.9999012E+04;  6.3984022E-02;  0.0000000E+00; -8.5000955E-03;  4.0139087E+02;
  2.4203315E-01;  9.9999998E-03;  1.2998091E-01;3953;  1.5065046E-02;  0.0000000E+00; -1.4474065E-03;  9.9893951E+02;  1.0000000E-01; -8.7859241E+02;3;  2.5606461E+00;  0.0000000E+00;  1.4975345E-01;0;  5.3641241E-02;  3.9911871E+04;  0.0000000E+00;  3.4052187E-01;  4.0000000E+04;  0.0000000E+00;  4.0000191E+04;  6.1813291E-02;  0.0000000E+00; -8.1720501E-03;  5.0302444E+02;
  2.4194890E-01;  9.9999998E-03;  1.3998753E-01;3954;  1.6270101E-02;  0.0000000E+00; -1.6645220E-03;  9.9880017E+02;  1.0000000E-01; -9.9404596E+02;3;  2.6616149E+00;  0.0000000E+00;  2.0671028E-01;0;  5.1986910E-02;  3.9900340E+04;  0.0000000E+00;  3.8529527E-01;  4.0000000E+04;  0.0000000E+00;  4.0000656E+04;  5.9843283E-02;  0.0000000E+00; -7.8563737E-03;  5.7676172E+02;
  2.4181800E-01;  9.9999998E-03;  1.5000704E-01;3955;  2.0140812E-02;  0.0000000E+00; -1.9614766E-03;  9.9866577E+02;  1.0000000E-01; -1.1054009E+03;3;  9.2735392E-01;  0.0000000E+00; -1.7331374E-01;0;  5.0562371E-02;  3.9890207E+04;  0.0000000E+00;  3.9285430E-01;  4.0000000E+04;  0.0000000E+00;  3.9999719E+04;  5.8112714E-02;  0.0000000E+00; -7.5503443E-03;  5.7188959E+02;
  2.4166094E-01;  9.9999998E-03;  1.6002816E-01;3956;  2.1352846E-02;  0.0000000E+00; -2.5020605E-03;  9.9854834E+02;  1.0000000E-01; -1.2026820E+03;3; -3.0315123E+00;  0.0000000E+00;  2.9391465E-01;0;  4.9443454E-02;  3.9882383E+04;  0.0000000E+00;  3.4676540E-01;  4.0000000E+04;  0.0000000E+00;  3.9998332E+04;  5.6693297E-02;  0.0000000E+00; -7.2498452E-03;  5.0754678E+02;
  2.4151064E-01;  9.9999998E-03;  1.7003176E-01;3957;  2.1383271E-02;  0.0000000E+00; -2.8044730E-03;  9.9845355E+02;  1.0000000E-01; -1.2811984E+03;3; -4.2412567E+00;  0.0000000E+00;  1.0017976E+00;0;  4.8645869E-02;  3.9877219E+04;  0.0000000E+00;  2.6083386E-01;  4.0000000E+04;  0.0000000E+00;  3.9996109E+04;  5.5613991E-02;  0.0000000E+00; -6.9681224E-03;  5.0909683E+02;
  2.4138367E-01;  9.9999998E-03;  1.8001767E-01;3958;  2.1171724E-02;  0.0000000E+00; -3.0188281E-03;  9.9837885E+02;  1.0000000E-01; -1.3430731E+03;3; -4.5270615E+00;  0.0000000E+00;  1.4446366E+00;0;  4.8180602E-02;  3.9874078E+04;  0.0000000E+00;  1.9540337E-01;  4.0000000E+04;  0.0000000E+00;  3.9994066E+04;  5.4927994E-02;  0.0000000E+00; -6.7473897E-03;  6.7938867E+02;
  2.4128155E-01;  9.9999998E-03;  1.8999574E-01;3959;  2.0839764E-02;  0.0000000E+00; -3.1884455E-03;  9.9832373E+02;  1.0000000E-01; -1.3887509E+03;3; -4.6513128E+00;  0.0000000E+00;  1.7670833E+00;0;  4.8037484E-02;  3.9872168E+04;  0.0000000E+00;  2.5023326E-01;  4.0000000E+04;  0.0000000E+00;  3.9992293E+04;  5.4688472E-02;  0.0000000E+00; -6.6509885E-03;  9.0144238E+02;
  2.4119776E-01;  9.9999998E-03;  1.9997761E-01;3960;  2.0396154E-02;  0.0000000E+00; -3.3355099E-03;  9.9829169E+02;  1.0000000E-01; -1.4153180E+03;3; -4.7483401E+00;  0.0000000E+00;  2.1185462E+00;0;  4.8183545E-02;  3.9870910E+04;  0.0000000E+00;  5.4465222E-01;  4.0000000E+04;  0.0000000E+00;  3.9992266E+04;  5.4946516E-02;  0.0000000E+00; -6.7629684E-03;  1.1825737E+03;
  2.4113776E-01;  9.9999998E-03;  2.0997067E-01;3961;  1.9808995E-02;  0.0000000E+00; -3.4362914E-03;  9.9826709E+02;  1.0000000E-01; -1.4356631E+03;3; -4.7094755E+00;  0.0000000E+00;  2.3600461E+00;0;  4.8585348E-02;  3.9868988E+04;  0.0000000E+00;  1.1975415E+00;  4.0000000E+04;  0.0000000E+00;  3.9993703E+04;  5.5734470E-02;  0.0000000E+00; -7.1491241E-03;  1.9143018E+03;
  2.4110575E-01;  9.9999998E-03;  2.1997984E-01;3962;  1.8827727E-02;  0.0000000E+00; -3.3089654E-03;  9.9823389E+02;  1.0000000E-01; -1.4631685E+03;3; -3.4464958E+00;  0.0000000E+00;  1.7969316E+00;0;  4.9456861E-02;  3.9865508E+04;  0.0000000E+00;  2.3119185E+00;  4.0000000E+04;  0.0000000E+00;  3.9996129E+04;  5.7005286E-02;  0.0000000E+00; -7.5484239E-03;  3.4762107E+03;
  2.4111065E-01;  9.9999998E-03;  2.3000363E-01;3963;  1.7066721E-02;  0.0000000E+00; -2.7709056E-03;  9.9813788E+02;  1.0000000E-01; -1.5427218E+03;3; -1.1508369E+00;  0.0000000E+00;  9.3890291E-01;0;  5.1451530E-02;  3.9858590E+04;  0.0000000E+00;  3.9315269E+00;  4.0000000E+04;  0.0000000E+00;  3.9997121E+04;  5.8497254E-02;  0.0000000E+00; -7.0457226E-03;  5.8898203E+03;
  2.5169566E-01;  9.9999998E-03;  7.0004448E-02;4008;  1.4211323E-02;  0.0000000E+00; -9.1644190E-04;  9.9956567E+02;  1.0000000E-01; -3.5984167E+02;3;  2.6569071E+00;  0.0000000E+00;  2.3571800E-01;0;  6.9769844E-02;  3.9973559E+04;  0.0000000E+00;  8.5740939E-02;  4.0000000E+04;  0.0000000E+00;  3.9990668E+04;  8.0267854E-02;  0.0000000E+00; -1.0498011E-02;  1.1259152E+03;
  2.5177053E-01;  9.9999998E-03;  8.0008350E-02;4009;  1.4199110E-02;  0.0000000E+00; -1.0956341E-03;  9.9955176E+02;  1.0000000E-01; -3.7134753E+02;3;  2.6303329E+00;  0.0000000E+00;  2.7733752E-01;0;  6.7005247E-02;  3.9971906E+04;  0.0000000E+00;  1.0525677E-01;  4.0000000E+04;  0.0000000E+00;  3.9991105E+04;  7.7386126E-02;  0.0000000E+00; -1.0380879E-02;  1.0637129E+03;
  2.5184280E-01;  9.9999998E-03;  9.0006985E-02;4010;  1.4278944E-02;  0.0000000E+00; -1.2968992E-03;  9.9951691E+02;  1.0000000E-01; -4.0023560E+02;3;  2.5810647E+00;  0.0000000E+00;  2.8761658E-01;0;  6.4118780E-02;  3.9967340E+04;  0.0000000E+00;  1.3098644E-01;  4.0000000E+04;  0.0000000E+00;  3.9992832E+04;  7.4313454E-02;  0.0000000E+00; -1.0194677E-02;  8.7795001E+02;
  2.5191036E-01;  9.9999998E-03;  1.0000192E-01;4011;  1.4464072E-02;  0.0000000E+00; -1.5297991E-03;  9.9945538E+02;  1.0000000E-01; -4.5119711E+02;3;  2.5327523E+00;  0.0000000E+00;  3.5129571E-01;0;  6.1169617E-02;  3.9960023E+04;  0.0000000E+00;  1.6788913E-01;  4.0000000E+04;  0.0000000E+00;  3.9995000E+04;  7.1109638E-02;  0.0000000E+00; -9.9400189E-03;  6.2475470E+02;
  2.5196967E-01;  9.9999998E-03;  1.0999523E-01;4012;  1.4808755E-02;  0.0000000E+00; -1.7778249E-03;  9.9935608E+02;  1.0000000E-01; -5.3346637E+02;3;  2.4613543E+00;  0.0000000E+00;  4.4382304E-01;0;  5.8206759E-02;  3.9949301E+04;  0.0000000E+00;  2.2034179E-01;  4.0000000E+04;  0.0000000E+00;  3.9997422E+04;  6.7834206E-02;  0.0000000E+00; -9.6274447E-03;  4.1134103E+02;
  2.5201386E-01;  9.9999998E-03;  1.1998689E-01;4013;  1.5475212E-02;  0.0000000E+00; -2.0482673E-03;  9.9922113E+02;  1.0000000E-01; -6.4526569E+02;3;  2.4150150E+00;  0.0000000E+00;  5.7213521E-01;0;  5.5269688E-02;  3.9936195E+04;  0.0000000E+00;  2.8970194E-01;  4.0000000E+04;  0.0000000E+00;  3.9999680E+04;  6.4545773E-02;  0.0000000E+00; -9.2760837E-03;  4.1429132E+02;
  2.5203186E-01;  9.9999998E-03;  1.2997758E-01;4014;  1.7288983E-02;  0.0000000E+00; -2.2994899E-03;  9.9905328E+02;  1.0000000E-01; -7.8432349E+02;3;  2.6769719E+00;  0.0000000E+00;  7.7925020E-01;0;  5.2390017E-02;  3.9920859E+04;  0.0000000E+00;  3.7166408E-01;  4.0000000E+04;  0.0000000E+00;  4.0001332E+04;  6.1296895E-02;  0.0000000E+00; -8.9068776E-03;  5.8482343E+02;
  2.5201601E-01;  9.9999998E-03;  1.3997276E-01;4015;  2.1255584E-02;  0.0000000E+00; -2.5379753E-03;  9.9886127E+02;  1.0000000E-01; -9.4343011E+02;3;  3.8597530E-01;  0.0000000E+00;  4.0705651E-01;0;  4.9626213E-02;  3.9904336E+04;  0.0000000E+00;  4.5412412E-01;  4.0000000E+04;  0.0000000E+00;  4.0002211E+04;  5.8161307E-02;  0.0000000E+00; -8.5350946E-03;  7.4828040E+02;
  2.5195435E-01;  9.9999998E-03;  1.4997558E-01;4016;  2.1883549E-02;  0.0000000E+00; -2.8584306E-03;  9.9866302E+02;  1.0000000E-01; -1.1076724E+03;3; -5.0981436E+00;  0.0000000E+00;  1.5736548E+00;0;  4.7143035E-02;  3.9888117E+04;  0.0000000E+00;  5.1699805E-01;  4.0000000E+04;  0.0000000E+00;  4.0002121E+04;  5.5308364E-02;  0.0000000E+00; -8.1653297E-03;  8.3918408E+02;
  2.5182742E-01;  9.9999998E-03;  1.5998513E-01;4017;  2.1707203E-02;  0.0000000E+00; -2.9917734E-03;  9.9846625E+02;  1.0000000E-01; -1.2706801E+03;3; -5.1758232E+00;  0.0000000E+00;  1.7841198E+00;0;  4.5050748E-02;  3.9873309E+04;  0.0000000E+00;  5.3692603E-01;  4.0000000E+04;  0.0000000E+00;  4.0001605E+04;  5.2848671E-02;  0.0000000E+00; -7.7979239E-03;  8.3548340E+02;
  2.5166142E-01;  9.9999998E-03;  1.6999379E-01;4018;  2.1481056E-02;  0.0000000E+00; -3.1148526E-03;  9.9829614E+02;  1.0000000E-01; -1.4116144E+03;3; -5.0769877E+00;  0.0000000E+00;  1.9603914E+00;0;  4.3420658E-02;  3.9861078E+04;  0.0000000E+00;  5.0655347E-01;  4.0000000E+04;  0.0000000E+00;  4.0000188E+04;  5.0883383E-02;  0.0000000E+00; -7.4627255E-03;  7.4970709E+02;
  2.5149620E-01;  9.9999998E-03;  1.7999108E-01;4019;  2.1194467E-02;  0.0000000E+00; -3.2309836E-03;  9.9815228E+02;  1.0000000E-01; -1.5308209E+03;3; -5.0335045E+00;  0.0000000E+00;  2.0799325E+00;0;  4.2264719E-02;  3.9851676E+04;  0.0000000E+00;  4.5816734E-01;  4.0000000E+04;  0.0000000E+00;  3.9998586E+04;  4.9472399E-02;  0.0000000E+00; -7.2076810E-03;  6.6539319E+02;
  2.5135303E-01;  9.9999998E-03;  1.8997674E-01;4020;  2.0839633E-02;  0.0000000E+00; -3.3544842E-03;  9.9804626E+02;  1.0000000E-01; -1.6186208E+03;3; -4.9895530E+00;  0.0000000E+00;  2.2872994E+00;0;  4.1544542E-02;  3.9845191E+04;  0.0000000E+00;  4.6491775E-01;  4.0000000E+04;  0.0000000E+00;  3.9997238E+04;  4.8646860E-02;  0.0000000E+00; -7.1023195E-03;  7.0760327E+02;
  2.5123912E-01;  9.9999998E-03;  1.9995749E-01;4021;  2.0412516E-02;  0.0000000E+00; -3.4755047E-03;  9.9798450E+02;  1.0000000E-01; -1.6698293E+03;3; -5.0567846E+00;  0.0000000E+00;  2.5478110E+00;0;  4.1189354E-02;  3.9841438E+04;  0.0000000E+00;  6.2610865E-01;  4.0000000E+04;  0.0000000E+00;  3.9997250E+04;  4.8422195E-02;  0.0000000E+00; -7.2328425E-03;  9.5324103E+02;
  2.5115749E-01;  9.9999998E-03;  2.0994306E-01;4022;  1.9903971E-02;  0.0000000E+00; -3.5899018E-03;  9.9796667E+02;  1.0000000E-01; -1.6845944E+03;3; -5.2208858E+00;  0.0000000E+00;  2.9109325E+00;0;  4.1101731E-02;  3.9839531E+04;  0.0000000E+00;  1.0514526E+00;  4.0000000E+04;  0.0000000E+00;  3.9998840E+04;  4.8799578E-02;  0.0000000E+00; -7.6978477E-03;  1.5778372E+03;
  2.5112081E-01;  9.9999998E-03;  2.1993984E-01;4023;  1.9298464E-02;  0.0000000E+00; -3.6827372E-03;  9.9798053E+02;  1.0000000E-01; -1.6730885E+03;3; -5.4371228E+00;  0.0000000E+00;  3.3568037E+00;0;  4.1181311E-02;  3.9838309E+04;  0.0000000E+00;  1.8383034E+00;  4.0000000E+04;  0.0000000E+00;  4.0002797E+04;  4.9757294E-02;  0.0000000E+00; -8.5759815E-03;  2.8097520E+03;
  2.5112075E-01;  9.9999998E-03;  2.2995739E-01;4024;  1.8554756E-02;  0.0000000E+00; -3.7340671E-03;  9.9797003E+02;  1.0000000E-01; -1.6817795E+03;3; -5.3585734E+00;  0.0000000E+00;  3.4968560E+00;0;  4.1419141E-02;  3.9836500E+04;  0.0000000E+00;  3.0435343E+00;  4.0000000E+04;  0.0000000E+00;  4.0005875E+04;  5.1265262E-02;  0.0000000E+00; -9.8461192E-03;  4.6659863E+03;
  2.6160324E-01;  9.9999998E-03;  7.0008591E-02;4069;  1.7206490E-02;  0.0000000E+00; -1.4632004E-03;  9.9948657E+02;  1.0000000E-01; -4.2537070E+02;3;  2.4634757E+00;  0.0000000E+00;  5.6312633E-01;0;  6.8795793E-02;  3.9967074E+04;  0.0000000E+00;  7.3345348E-02;  4.0000000E+04;  0.0000000E+00;  3.9991801E+04;  7.9711035E-02;  0.0000000E+00; -1.0915240E-02;  9.8801141E+02;
  2.6166847E-01;  9.9999998E-03;  8.0013707E-02;4070;  1.5959010E-02;  0.0000000E+00; -1.6898429E-03;  9.9952441E+02;  1.0000000E-01; -3.9401355E+02;3;  2.3071160E+00;  0.0000000E+00;  6.2779015E-01;0;  6.6035517E-02;  3.9969840E+04;  0.0000000E+00;  8.7981850E-02;  4.0000000E+04;  0.0000000E+00;  3.9992129E+04;  7.6882161E-02;  0.0000000E+00; -1.0846646E-02;  9.6592914E+02;
  2.6173824E-01;  9.9999998E-03;  9.0014257E-02;4071;  1.5871169E-02;  0.0000000E+00; -1.9683021E-03;  9.9953723E+02;  1.0000000E-01; -3.8339658E+02;3;  2.2380836E+00;  0.0000000E+00;  7.3940599E-01;0;  6.2970951E-02;  3.9969461E+04;  0.0000000E+00;  1.0790005E-01;  4.0000000E+04;  0.0000000E+00;  3.9993527E+04;  7.3668703E-02;  0.0000000E+00; -1.0697750E-02;  8.1044312E+02;
  2.6180986E-01;  9.9999998E-03;  1.0001110E-01;4072;  1.6293831E-02;  0.0000000E+00; -2.2777279E-03;  9.9951019E+02;  1.0000000E-01; -4.0581567E+02;3;  2.2014115E+00;  0.0000000E+00;  8.7738699E-01;0;  5.9640568E-02;  3.9965375E+04;  0.0000000E+00;  1.3891514E-01;  4.0000000E+04;  0.0000000E+00;  3.9995477E+04;  7.0106596E-02;  0.0000000E+00; -1.0466028E-02;  5.6604828E+02;
  2.6188105E-01;  9.9999998E-03;  1.1000469E-01;4073;  1.7330315E-02;  0.0000000E+00; -2.5602854E-03;  9.9944385E+02;  1.0000000E-01; -4.6077710E+02;3;  2.2250931E+00;  0.0000000E+00;  1.1201392E+00;0;  5.6101713E-02;  3.9957031E+04;  0.0000000E+00;  1.8732756E-01;  4.0000000E+04;  0.0000000E+00;  3.9998215E+04;  6.6261500E-02;  0.0000000E+00; -1.0159787E-02;  3.3953363E+02;
  2.6194721E-01;  9.9999998E-03;  1.1999564E-01;4074;  1.9414123E-02;  0.0000000E+00; -2.7191024E-03;  9.9932281E+02;  1.0000000E-01; -5.6102118E+02;3;  2.2653108E+00;  0.0000000E+00;  1.5174652E+00;0;  5.2422043E-02;  3.9944691E+04;  0.0000000E+00;  2.5777179E-01;  4.0000000E+04;  0.0000000E+00;  4.0000500E+04;  6.2218480E-02;  0.0000000E+00; -9.7964369E-03;  3.8500906E+02;
  2.6200360E-01;  9.9999998E-03;  1.2998448E-01;4075;  2.2138311E-02;  0.0000000E+00; -2.7714504E-03;  9.9915399E+02;  1.0000000E-01; -7.0091846E+02;3; -3.8234906E+00;  0.0000000E+00;  1.6420959E+00;0;  4.8696071E-02;  3.9928621E+04;  0.0000000E+00;  3.5043544E-01;  4.0000000E+04;  0.0000000E+00;  4.0002672E+04;  5.8094211E-02;  0.0000000E+00; -9.3981409E-03;  6.3773999E+02;
  2.6203835E-01;  9.9999998E-03;  1.3997389E-01;4076;  2.2051129E-02;  0.0000000E+00; -2.8604225E-03;  9.9894086E+02;  1.0000000E-01; -8.7745667E+02;3; -5.5513225E+00;  0.0000000E+00;  1.9141512E+00;0;  4.5095801E-02;  3.9909844E+04;  0.0000000E+00;  4.5822051E-01;  4.0000000E+04;  0.0000000E+00;  4.0003934E+04;  5.4081894E-02;  0.0000000E+00; -8.9860922E-03;  8.8888678E+02;
  2.6202062E-01;  9.9999998E-03;  1.4996633E-01;4077;  2.1829022E-02;  0.0000000E+00; -2.9351860E-03;  9.9870105E+02;  1.0000000E-01; -1.0761671E+03;3; -5.4233427E+00;  0.0000000E+00;  2.0014150E+00;0;  4.1784689E-02;  3.9889508E+04;  0.0000000E+00;  5.6500000E-01;  4.0000000E+04;  0.0000000E+00;  4.0004668E+04;  5.0354764E-02;  0.0000000E+00; -8.5700760E-03;  1.0794778E+03;
  2.6193663E-01;  9.9999998E-03;  1.5996455E-01;4078;  2.1600811E-02;  0.0000000E+00; -3.0072590E-03;  9.9845062E+02;  1.0000000E-01; -1.2836180E+03;3; -5.2841039E+00;  0.0000000E+00;  2.0961130E+00;0;  3.8925029E-02;  3.9869332E+04;  0.0000000E+00;  6.4690310E-01;  4.0000000E+04;  0.0000000E+00;  4.0004762E+04;  4.7088150E-02;  0.0000000E+00; -8.1631187E-03;  1.1860490E+03;
  2.6179931E-01;  9.9999998E-03;  1.6996734E-01;4079;  2.1342220E-02;  0.0000000E+00; -3.0853329E-03;  9.9820825E+02;  1.0000000E-01; -1.4844519E+03;3; -5.1484680E+00;  0.0000000E+00;  2.1610866E+00;0;  3.6610089E-02;  3.9850770E+04;  0.0000000E+00;  6.8165016E-01;  4.0000000E+04;  0.0000000E+00;  4.0004121E+04;  4.4405438E-02;  0.0000000E+00; -7.7953497E-03;  1.1964327E+03;
  2.6163554E-01;  9.9999998E-03;  1.7996746E-01;4080;  2.1048995E-02;  0.0000000E+00; -3.1670609E-03;  9.9799933E+02;  1.0000000E-01; -1.6575333E+03;3; -5.0396533E+00;  0.0000000E+00;  2.2605517E+00;0;  3.4860533E-02;  3.9835270E+04;  0.0000000E+00;  6.7257726E-01;  4.0000000E+04;  0.0000000E+00;  4.0003215E+04;  4.2373881E-02;  0.0000000E+00; -7.5133489E-03;  1.1325680E+03;
  2.6147234E-01;  9.9999998E-03;  1.8995942E-01;4081;  2.0691548E-02;  0.0000000E+00; -3.2685536E-03;  9.9783551E+02;  1.0000000E-01; -1.7932333E+03;3; -4.9766002E+00;  0.0000000E+00;  2.4061575E+00;0;  3.3631243E-02;  3.9823598E+04;  0.0000000E+00;  6.6015965E-01;  4.0000000E+04;  0.0000000E+00;  4.0002340E+04;  4.1014686E-02;  0.0000000E+00; -7.3834420E-03;  1.0764332E+03;
  2.6132837E-01;  9.9999998E-03;  1.9994389E-01;4082;  2.0276034E-02;  0.0000000E+00; -3.3764355E-03;  9.9773053E+02;  1.0000000E-01; -1.8801937E+03;3; -4.9930239E+00;  0.0000000E+00;  2.5895569E+00;0;  3.2831758E-02;  3.9816047E+04;  0.0000000E+00;  7.1568531E-01;  4.0000000E+04;  0.0000000E+00;  4.0002426E+04;  4.0318526E-02;  0.0000000E+00; -7.4867685E-03;  1.1675968E+03;
  2.6121649E-01;  9.9999998E-03;  2.0992638E-01;4083;  1.9783052E-02;  0.0000000E+00; -3.4867187E-03;  9.9769904E+02;  1.0000000E-01; -1.9063164E+03;3; -5.0965056E+00;  0.0000000E+00;  2.8788176E+00;0;  3.2330304E-02;  3.9812672E+04;  0.0000000E+00;  9.3069208E-01;  4.0000000E+04;  0.0000000E+00;  4.0004527E+04;  4.0252589E-02;  0.0000000E+00; -7.9222843E-03;  1.5860957E+03;
  2.6114994E-01;  9.9999998E-03;  2.1991767E-01;4084;  1.9216115E-02;  0.0000000E+00; -3.5742063E-03;  9.9772864E+02;  1.0000000E-01; -1.8817739E+03;3; -5.2628665E+00;  0.0000000E+00;  3.2773042E+00;0;  3.2006804E-02;  3.9812547E+04;  0.0000000E+00;  1.4028401E+00;  4.0000000E+04;  0.0000000E+00;  4.0009145E+04;  4.0767469E-02;  0.0000000E+00; -8.7606646E-03;  2.4853333E+03;
  2.6113647E-01;  9.9999998E-03;  2.2992800E-01;4085;  1.8553672E-02;  0.0000000E+00; -3.6389346E-03;  9.9778290E+02;  1.0000000E-01; -1.8368369E+03;3; -5.4668169E+00;  0.0000000E+00;  3.7301831E+00;0;  3.1759322E-02;  3.9814148E+04;  0.0000000E+00;  2.1931474E+00;  4.0000000E+04;  0.0000000E+00;  4.0013348E+04;  4.1804958E-02;  0.0000000E+00; -1.0045636E-02;  3.8041831E+03;
  2.7160183E-01;  9.9999998E-03;  7.0005380E-02;4130;  2.4228293E-02;  0.0000000E+00; -1.5174536E-03;  9.9930292E+02;  1.0000000E-01; -5.7751453E+02;3; -6.5072203E+00;  0.0000000E+00;  1.1215619E+00;0;  6.3854665E-02;  3.9951805E+04;  0.0000000E+00;  4.5604311E-02;  4.0000000E+04;  0.0000000E+00;  3.9993312E+04;  7.4798100E-02;  0.0000000E+00; -1.0943432E-02;  7.9714337E+02;
  2.7164045E-01;  9.9999998E-03;  8.0012672E-02;4131;  2.3873191E-02;  0.0000000E+00; -1.7638619E-03;  9.9939465E+02;  1.0000000E-01; -5.0151669E+02;3; -6.3880057E+00;  0.0000000E+00;  1.2799225E+00;0;  6.1300207E-02;  3.9959227E+04;  0.0000000E+00;  5.2706037E-02;  4.0000000E+04;  0.0000000E+00;  3.9993039E+04;  7.2232060E-02;  0.0000000E+00; -1.0931852E-02;  8.1913556E+02;
  2.7168638E-01;  9.9999998E-03;  9.0016298E-02;4132;  2.3486335E-02;  0.0000000E+00; -1.9944794E-03;  9.9946161E+02;  1.0000000E-01; -4.4606146E+02;3; -5.9278789E+00;  0.0000000E+00;  1.3900105E+00;0;  5.8261149E-02;  3.9963613E+04;  0.0000000E+00;  6.4147249E-02;  4.0000000E+04;  0.0000000E+00;  3.9994004E+04;  6.9091715E-02;  0.0000000E+00; -1.0830565E-02;  7.0243640E+02;
  2.7174518E-01;  9.9999998E-03;  1.0001574E-01;4133;  2.3041829E-02;  0.0000000E+00; -2.1939822E-03;  9.9948962E+02;  1.0000000E-01; -4.2285223E+02;3; -4.6539135E+00;  0.0000000E+00;  1.5312212E+00;0;  5.4782316E-02;  3.9963707E+04;  0.0000000E+00;  8.5982956E-02;  4.0000000E+04;  0.0000000E+00;  3.9995934E+04;  6.5416515E-02;  0.0000000E+00; -1.0634201E-02;  4.7591522E+02;
  2.7181607E-01;  9.9999998E-03;  1.1001185E-01;4134;  2.2765586E-02;  0.0000000E+00; -2.3589057E-03;  9.9946375E+02;  1.0000000E-01; -4.4428372E+02;3; -5.2229819E+00;  0.0000000E+00;  1.6615645E+00;0;  5.0943870E-02;  3.9959082E+04;  0.0000000E+00;  1.2549973E-01;  4.0000000E+04;  0.0000000E+00;  3.9998594E+04;  6.1293025E-02;  0.0000000E+00; -1.0349155E-02;  2.3071901E+02;
  2.7189267E-01;  9.9999998E-03;  1.2000544E-01;4135;  2.2506826E-02;  0.0000000E+00; -2.4903063E-03;  9.9937793E+02;  1.0000000E-01; -5.1539282E+02;3; -5.8427544E+00;  0.0000000E+00;  1.7854903E+00;0;  4.6855323E-02;  3.9949398E+04;  0.0000000E+00;  1.8950592E-01;  4.0000000E+04;  0.0000000E+00;  4.0001316E+04;  5.6848317E-02;  0.0000000E+00; -9.9929962E-03;  3.3511868E+02;
  2.7196637E-01;  9.9999998E-03;  1.2999627E-01;4136;  2.2218706E-02;  0.0000000E+00; -2.5930745E-03;  9.9922827E+02;  1.0000000E-01; -6.3933997E+02;3; -5.7548118E+00;  0.0000000E+00;  1.8759551E+00;0;  4.2668954E-02;  3.9934734E+04;  0.0000000E+00;  2.8176686E-01;  4.0000000E+04;  0.0000000E+00;  4.0003676E+04;  5.2258674E-02;  0.0000000E+00; -9.5897187E-03;  6.6210242E+02;
  2.7201775E-01;  9.9999998E-03;  1.3998438E-01;4137;  2.1946780E-02;  0.0000000E+00; -2.6774313E-03;  9.9902313E+02;  1.0000000E-01; -8.0931042E+02;3; -5.5942211E+00;  0.0000000E+00;  1.9653662E+00;0;  3.8576327E-02;  3.9915871E+04;  0.0000000E+00;  3.9992064E-01;  4.0000000E+04;  0.0000000E+00;  4.0005699E+04;  4.7739144E-02;  0.0000000E+00; -9.1628190E-03;  9.8312640E+02;
  2.7202532E-01;  9.9999998E-03;  1.4997204E-01;4138;  2.1690626E-02;  0.0000000E+00; -2.7487134E-03;  9.9877014E+02;  1.0000000E-01; -1.0189341E+03;3; -5.4413400E+00;  0.0000000E+00;  2.0413296E+00;0;  3.4774810E-02;  3.9893629E+04;  0.0000000E+00;  5.3282404E-01;  4.0000000E+04;  0.0000000E+00;  4.0007035E+04;  4.3505210E-02;  0.0000000E+00; -8.7304022E-03;  1.2547422E+03;
  2.7198097E-01;  9.9999998E-03;  1.5996332E-01;4139;  2.1430882E-02;  0.0000000E+00; -2.8159912E-03;  9.9848810E+02;  1.0000000E-01; -1.2526066E+03;3; -5.3202929E+00;  0.0000000E+00;  2.1023538E+00;0;  3.1429403E-02;  3.9870148E+04;  0.0000000E+00;  6.6041332E-01;  4.0000000E+04;  0.0000000E+00;  4.0007691E+04;  3.9739147E-02;  0.0000000E+00; -8.3097452E-03;  1.4579902E+03;
  2.7188751E-01;  9.9999998E-03;  1.6996017E-01;4140;  2.1155519E-02;  0.0000000E+00; -2.8832986E-03;  9.9819958E+02;  1.0000000E-01; -1.4916122E+03;3; -5.1357355E+00;  0.0000000E+00;  2.1867199E+00;0;  2.8644290E-02;  3.9847000E+04;  0.0000000E+00;  7.5524133E-01;  4.0000000E+04;  0.0000000E+00;  4.0007906E+04;  3.6573432E-02;  0.0000000E+00; -7.9291416E-03;  1.5777700E+03;
  2.7175662E-01;  9.9999998E-03;  1.7995875E-01;4141;  2.0846842E-02;  0.0000000E+00; -2.9591862E-03;  9.9793652E+02;  1.0000000E-01; -1.7095319E+03;3; -5.0301361E+00;  0.0000000E+00;  2.2632594E+00;0;  2.6453830E-02;  3.9826355E+04;  0.0000000E+00;  7.9877365E-01;  4.0000000E+04;  0.0000000E+00;  4.0007523E+04;  3.4084771E-02;  0.0000000E+00; -7.6309410E-03;  1.6100878E+03;
  2.7160710E-01;  9.9999998E-03;  1.8995312E-01;4142;  2.0485481E-02;  0.0000000E+00; -3.0457268E-03;  9.9771423E+02;  1.0000000E-01; -1.8937242E+03;3; -4.9690976E+00;  0.0000000E+00;  2.3543961E+00;0;  2.4825610E-02;  3.9809527E+04;  0.0000000E+00;  7.9920834E-01;  4.0000000E+04;  0.0000000E+00;  4.0007090E+04;  3.2297097E-02;  0.0000000E+00; -7.4714860E-03;  1.5903737E+03;
  2.7145731E-01;  9.9999998E-03;  1.9994144E-01;4143;  2.0070974E-02;  0.0000000E+00; -3.1445455E-03;  9.9755939E+02;  1.0000000E-01; -2.0220168E+03;3; -4.9078183E+00;  0.0000000E+00;  2.5062368E+00;0;  2.3668019E-02;  3.9797891E+04;  0.0000000E+00;  7.9454684E-01;  4.0000000E+04;  0.0000000E+00;  4.0007246E+04;  3.1193033E-02;  0.0000000E+00; -7.5250142E-03;  1.6154366E+03;
  2.7132526E-01;  9.9999998E-03;  2.0992500E-01;4144;  1.9590154E-02;  0.0000000E+00; -3.2535233E-03;  9.9748798E+02;  1.0000000E-01; -2.0811758E+03;3; -4.9704351E+00;  0.0000000E+00;  2.7080956E+00;0;  2.2839759E-02;  3.9791734E+04;  0.0000000E+00;  8.4804690E-01;  4.0000000E+04;  0.0000000E+00;  4.0009309E+04;  3.0724198E-02;  0.0000000E+00; -7.8844391E-03;  1.8541979E+03;
  2.7122638E-01;  9.9999998E-03;  2.1991128E-01;4145;  1.9041309E-02;  0.0000000E+00; -3.3407414E-03;  9.9751398E+02;  1.0000000E-01; -2.0596455E+03;3; -5.0526218E+00;  0.0000000E+00;  3.0420661E+00;0;  2.2209194E-02;  3.9790617E+04;  0.0000000E+00;  1.0441082E+00;  4.0000000E+04;  0.0000000E+00;  4.0013547E+04;  3.0823823E-02;  0.0000000E+00; -8.6146304E-03;  2.4824290E+03;
  2.7117518E-01;  9.9999998E-03;  2.2991376E-01;4146;  1.8412592E-02;  0.0000000E+00; -3.3914573E-03;  9.9759515E+02;  1.0000000E-01; -1.9923881E+03;3; -5.2027788E+00;  0.0000000E+00;  3.4292848E+00;0;  2.1700181E-02;  3.9793805E+04;  0.0000000E+00;  1.4626613E+00;  4.0000000E+04;  0.0000000E+00;  4.0019168E+04;  3.1416547E-02;  0.0000000E+00; -9.7163664E-03;  3.4118577E+03;
  2.8158897E-01;  9.9999998E-03;  7.0003524E-02;4191;  2.4278695E-02;  0.0000000E+00; -1.2783863E-03;  9.9906372E+02;  1.0000000E-01; -7.7568176E+02;3; -6.6000676E+00;  0.0000000E+00;  1.0725993E+00;0;  5.5287786E-02;  3.9931711E+04;  0.0000000E+00;  1.1088739E-02;  4.0000000E+04;  0.0000000E+00;  3.9994754E+04;  6.5808222E-02;  0.0000000E+00; -1.0520434E-02;  5.7271448E+02;
  2.8162503E-01;  9.9999998E-03;  8.0009207E-02;4192;  2.3934143E-02;  0.0000000E+00; -1.4920231E-03;  9.9920435E+02;  1.0000000E-01; -6.5919122E+02;3; -6.4918199E+00;  0.0000000E+00;  1.1872599E+00;0;  5.3052217E-02;  3.9943531E+04;  0.0000000E+00;  8.7759355E-03;  4.0000000E+04;  0.0000000E+00;  3.9994449E+04;  6.3631766E-02;  0.0000000E+00; -1.0579551E-02;  6.4306122E+02;
  2.8166798E-01;  9.9999998E-03;  9.0014085E-02;4193;  2.3570344E-02;  0.0000000E+00; -1.6972412E-03;  9.9932001E+02;  1.0000000E-01; -5.6334210E+02;3; -6.3847384E+00;  0.0000000E+00;  1.3216265E+00;0;  5.0252780E-02;  3.9952184E+04;  0.0000000E+00;  9.6572842E-03;  4.0000000E+04;  0.0000000E+00;  3.9994898E+04;  6.0795564E-02;  0.0000000E+00; -1.0542785E-02;  5.7637469E+02;
  2.8171918E-01;  9.9999998E-03;  1.0001681E-01;4194;  2.3199322E-02;  0.0000000E+00; -1.8835861E-03;  9.9939911E+02;  1.0000000E-01; -4.9781308E+02;3; -6.2446685E+00;  0.0000000E+00;  1.4476775E+00;0;  4.6921346E-02;  3.9956848E+04;  0.0000000E+00;  1.9637492E-02;  4.0000000E+04;  0.0000000E+00;  3.9996566E+04;  5.7324111E-02;  0.0000000E+00; -1.0402766E-02;  3.8488037E+02;
  2.8177947E-01;  9.9999998E-03;  1.1001688E-01;4195;  2.2831233E-02;  0.0000000E+00; -2.0465751E-03;  9.9942609E+02;  1.0000000E-01; -4.7549274E+02;3; -6.1143432E+00;  0.0000000E+00;  1.5807543E+00;0;  4.3137982E-02;  3.9956457E+04;  0.0000000E+00;  4.6259269E-02;  4.0000000E+04;  0.0000000E+00;  3.9998898E+04;  5.3302128E-02;  0.0000000E+00; -1.0164147E-02;  1.1619337E+02;
  2.8184617E-01;  9.9999998E-03;  1.2001413E-01;4196;  2.2479264E-02;  0.0000000E+00; -2.1818038E-03;  9.9938654E+02;  1.0000000E-01; -5.0823254E+02;3; -5.9415050E+00;  0.0000000E+00;  1.7051873E+00;0;  3.9031681E-02;  3.9950496E+04;  0.0000000E+00;  9.7453140E-02;  4.0000000E+04;  0.0000000E+00;  4.0001699E+04;  4.8874874E-02;  0.0000000E+00; -9.8431930E-03;  2.8398245E+02;
  2.8191146E-01;  9.9999998E-03;  1.3000828E-01;4197;  2.2148836E-02;  0.0000000E+00; -2.2927199E-03;  9.9927667E+02;  1.0000000E-01; -5.9924231E+02;3; -5.7901978E+00;  0.0000000E+00;  1.7958695E+00;0;  3.4776419E-02;  3.9938688E+04;  0.0000000E+00;  1.7936605E-01;  4.0000000E+04;  0.0000000E+00;  4.0004336E+04;  4.4240400E-02;  0.0000000E+00; -9.4639799E-03;  6.5409222E+02;
  2.8196266E-01;  9.9999998E-03;  1.3999888E-01;4198;  2.1840109E-02;  0.0000000E+00; -2.3851227E-03;  9.9909686E+02;  1.0000000E-01; -7.4822577E+02;3; -5.6207957E+00;  0.0000000E+00;  1.8820405E+00;0;  3.0572522E-02;  3.9921621E+04;  0.0000000E+00;  2.9345930E-01;  4.0000000E+04;  0.0000000E+00;  4.0006848E+04;  3.9624985E-02;  0.0000000E+00; -9.0524638E-03;  1.0175383E+03;
  2.8198522E-01;  9.9999998E-03;  1.4998673E-01;4199;  2.1546226E-02;  0.0000000E+00; -2.4626125E-03;  9.9885138E+02;  1.0000000E-01; -9.5162738E+02;3; -5.4787149E+00;  0.0000000E+00;  1.9633460E+00;0;  2.6617132E-02;  3.9899832E+04;  0.0000000E+00;  4.3350446E-01;  4.0000000E+04;  0.0000000E+00;  4.0008695E+04;  3.5248470E-02;  0.0000000E+00; -8.6313374E-03;  1.3447545E+03;
  2.8197110E-01;  9.9999998E-03;  1.5997484E-01;4200;  2.1255216E-02;  0.0000000E+00; -2.5320661E-03;  9.9856403E+02;  1.0000000E-01; -1.1896947E+03;3; -5.3165832E+00;  0.0000000E+00;  2.0196979E+00;0;  2.3075376E-02;  3.9875129E+04;  0.0000000E+00;  5.8460635E-01;  4.0000000E+04;  0.0000000E+00;  4.0010008E+04;  3.1296253E-02;  0.0000000E+00; -8.2208784E-03;  1.6179215E+03;
  2.8192157E-01;  9.9999998E-03;  1.6996771E-01;4201;  2.0954546E-02;  0.0000000E+00; -2.5977150E-03;  9.9825525E+02;  1.0000000E-01; -1.4454900E+03;3; -5.1500502E+00;  0.0000000E+00;  2.1038821E+00;0;  2.0057250E-02;  3.9849531E+04;  0.0000000E+00;  7.2260964E-01;  4.0000000E+04;  0.0000000E+00;  4.0010902E+04;  2.7903007E-02;  0.0000000E+00; -7.8457585E-03;  1.8243544E+03;
  2.8183806E-01;  9.9999998E-03;  1.7996395E-01;4202;  2.0623259E-02;  0.0000000E+00; -2.6658678E-03;  9.9795239E+02;  1.0000000E-01; -1.6963965E+03;3; -5.0547137E+00;  0.0000000E+00;  2.1656952E+00;0;  1.7613262E-02;  3.9825137E+04;  0.0000000E+00;  8.1867862E-01;  4.0000000E+04;  0.0000000E+00;  4.0011043E+04;  2.5154667E-02;  0.0000000E+00; -7.5414041E-03;  1.9510476E+03;
  2.8172094E-01;  9.9999998E-03;  1.8995869E-01;4203;  2.0249141E-02;  0.0000000E+00; -2.7420875E-03;  9.9768854E+02;  1.0000000E-01; -1.9150076E+03;3; -4.9469013E+00;  0.0000000E+00;  2.2546806E+00;0;  1.5734525E-02;  3.9804270E+04;  0.0000000E+00;  8.5652745E-01;  4.0000000E+04;  0.0000000E+00;  4.0011062E+04;  2.3089550E-02;  0.0000000E+00; -7.3550246E-03;  2.0024878E+03;
  2.8158960E-01;  9.9999998E-03;  1.9994792E-01;4204;  1.9828245E-02;  0.0000000E+00; -2.8310802E-03;  9.9748334E+02;  1.0000000E-01; -2.0850273E+03;3; -4.8517451E+00;  0.0000000E+00;  2.3672872E+00;0;  1.4337769E-02;  3.9788539E+04;  0.0000000E+00;  8.4259295E-01;  4.0000000E+04;  0.0000000E+00;  4.0011207E+04;  2.1686558E-02;  0.0000000E+00; -7.3487894E-03;  2.0363732E+03;
  2.8145921E-01;  9.9999998E-03;  2.0993300E-01;4205;  1.9351102E-02;  0.0000000E+00; -2.9324426E-03;  9.9736792E+02;  1.0000000E-01; -2.1806296E+03;3; -4.8706570E+00;  0.0000000E+00;  2.5104463E+00;0;  1.3290608E-02;  3.9778730E+04;  0.0000000E+00;  8.0767751E-01;  4.0000000E+04;  0.0000000E+00;  4.0012703E+04;  2.0895265E-02;  0.0000000E+00; -7.6046567E-03;  2.1801272E+03;
  2.8134710E-01;  9.9999998E-03;  2.1991752E-01;4206;  1.8808870E-02;  0.0000000E+00; -3.0261890E-03;  9.9735651E+02;  1.0000000E-01; -2.1900615E+03;3; -4.9049416E+00;  0.0000000E+00;  2.7442105E+00;0;  1.2445299E-02;  3.9775375E+04;  0.0000000E+00;  8.0640924E-01;  4.0000000E+04;  0.0000000E+00;  4.0016855E+04;  2.0642648E-02;  0.0000000E+00; -8.1973486E-03;  2.6173872E+03;
  2.8127113E-01;  9.9999998E-03;  2.2991145E-01;4207;  1.8207023E-02;  0.0000000E+00; -3.0710388E-03;  9.9743951E+02;  1.0000000E-01; -2.1213228E+03;3; -4.9695950E+00;  0.0000000E+00;  3.0634847E+00;0;  1.1761553E-02;  3.9777969E+04;  0.0000000E+00;  9.0603346E-01;  4.0000000E+04;  0.0000000E+00;  4.0022641E+04;  2.0847436E-02;  0.0000000E+00; -9.0858834E-03;  3.3546707E+03;
  2.9162252E-01;  9.9999998E-03;  7.0001714E-02;4252;  2.4234444E-02;  0.0000000E+00; -1.0309904E-03;  9.9882385E+02;  1.0000000E-01; -9.7439221E+02;3; -6.6852622E+00;  0.0000000E+00;  1.0035005E+00;0;  4.4394739E-02;  3.9911188E+04;  0.0000000E+00; -1.9781530E-02;  4.0000000E+04;  0.0000000E+00;  3.9996715E+04;  5.4005463E-02;  0.0000000E+00; -9.6107237E-03;  3.3099368E+02;
  2.9162467E-01;  9.9999998E-03;  8.0008827E-02;4253;  2.3907401E-02;  0.0000000E+00; -1.2155049E-03;  9.9899561E+02;  1.0000000E-01; -8.3212463E+02;3; -6.5757017E+00;  0.0000000E+00;  1.1294166E+00;0;  4.2559043E-02;  3.9925977E+04;  0.0000000E+00; -3.1838711E-02;  4.0000000E+04;  0.0000000E+00;  3.9995703E+04;  5.2319486E-02;  0.0000000E+00; -9.7604441E-03;  4.5191455E+02;
  2.9164642E-01;  9.9999998E-03;  9.0014204E-02;4254;  2.3552455E-02;  0.0000000E+00; -1.3958697E-03;  9.9915027E+02;  1.0000000E-01; -7.0398010E+02;3; -6.4624081E+00;  0.0000000E+00;  1.2502743E+00;0;  4.0130682E-02;  3.9938457E+04;  0.0000000E+00; -4.2414863E-02;  4.0000000E+04;  0.0000000E+00;  3.9995926E+04;  4.9941324E-02;  0.0000000E+00; -9.8106414E-03;  4.4680167E+02;
  2.9168299E-01;  9.9999998E-03;  1.0001817E-01;4255;  2.3177952E-02;  0.0000000E+00; -1.5650140E-03;  9.9927460E+02;  1.0000000E-01; -6.0097064E+02;3; -6.3283739E+00;  0.0000000E+00;  1.3655957E+00;0;  3.7135337E-02;  3.9947039E+04;  0.0000000E+00; -4.5978919E-02;  4.0000000E+04;  0.0000000E+00;  3.9997004E+04;  4.6888050E-02;  0.0000000E+00; -9.7527122E-03;  3.1583072E+02;
  2.9173014E-01;  9.9999998E-03;  1.1002083E-01;4256;  2.2796646E-02;  0.0000000E+00; -1.7178329E-03;  9.9934723E+02;  1.0000000E-01; -5.4082422E+02;3; -6.1839280E+00;  0.0000000E+00;  1.4808012E+00;0;  3.3652745E-02;  3.9950715E+04;  0.0000000E+00; -3.5182476E-02;  4.0000000E+04;  0.0000000E+00;  3.9999133E+04;  4.3242343E-02;  0.0000000E+00; -9.5895976E-03;  8.3391983E+01;
  2.9178420E-01;  9.9999998E-03;  1.2002143E-01;4257;  2.2422276E-02;  0.0000000E+00; -1.8521157E-03;  9.9935638E+02;  1.0000000E-01; -5.3321948E+02;3; -5.9911113E+00;  0.0000000E+00;  1.5923638E+00;0;  2.9812213E-02;  3.9948930E+04;  0.0000000E+00; -1.7218750E-03;  4.0000000E+04;  0.0000000E+00;  4.0001570E+04;  3.9147824E-02;  0.0000000E+00; -9.3356119E-03;  2.5214183E+02;
  2.9183927E-01;  9.9999998E-03;  1.3001922E-01;4258;  2.2064477E-02;  0.0000000E+00; -1.9656499E-03;  9.9929370E+02;  1.0000000E-01; -5.8516864E+02;3; -5.8165183E+00;  0.0000000E+00;  1.6904444E+00;0;  2.5784064E-02;  3.9940754E+04;  0.0000000E+00;  6.1918583E-02;  4.0000000E+04;  0.0000000E+00;  4.0004359E+04;  3.4797698E-02;  0.0000000E+00; -9.0136351E-03;  6.1493268E+02;
  2.9188755E-01;  9.9999998E-03;  1.4001319E-01;4259;  2.1724513E-02;  0.0000000E+00; -2.0604734E-03;  9.9914905E+02;  1.0000000E-01; -7.0501709E+02;3; -5.6411786E+00;  0.0000000E+00;  1.7745090E+00;0;  2.1758981E-02;  3.9926590E+04;  0.0000000E+00;  1.5997978E-01;  4.0000000E+04;  0.0000000E+00;  4.0007281E+04;  3.0408693E-02;  0.0000000E+00; -8.6497115E-03;  9.8939276E+02;
  2.9191855E-01;  9.9999998E-03;  1.5000312E-01;4260;  2.1397816E-02;  0.0000000E+00; -2.1401083E-03;  9.9893719E+02;  1.0000000E-01; -8.8051831E+02;3; -5.4909606E+00;  0.0000000E+00;  1.8503395E+00;0;  1.7924145E-02;  3.9906812E+04;  0.0000000E+00;  2.9051980E-01;  4.0000000E+04;  0.0000000E+00;  4.0009555E+04;  2.6192250E-02;  0.0000000E+00; -8.2681039E-03;  1.3457655E+03;
  2.9192576E-01;  9.9999998E-03;  1.5999153E-01;4261;  2.1075634E-02;  0.0000000E+00; -2.2091041E-03;  9.9866663E+02;  1.0000000E-01; -1.1046602E+03;3; -5.3348055E+00;  0.0000000E+00;  1.9190383E+00;0;  1.4437349E-02;  3.9882832E+04;  0.0000000E+00;  4.4373021E-01;  4.0000000E+04;  0.0000000E+00;  4.0011484E+04;  2.2328001E-02;  0.0000000E+00; -7.8906519E-03;  1.6627653E+03;
  2.9191115E-01;  9.9999998E-03;  1.6998234E-01;4262;  2.0744476E-02;  0.0000000E+00; -2.2708408E-03;  9.9835742E+02;  1.0000000E-01; -1.3608503E+03;3; -5.1916957E+00;  0.0000000E+00;  2.0027683E+00;0;  1.1410829E-02;  3.9856777E+04;  0.0000000E+00;  6.0212463E-01;  4.0000000E+04;  0.0000000E+00;  4.0012672E+04;  1.8949842E-02;  0.0000000E+00; -7.5390129E-03;  1.9274204E+03;
  2.9187185E-01;  9.9999998E-03;  1.7997679E-01;4263;  2.0388087E-02;  0.0000000E+00; -2.3316345E-03;  9.9804169E+02;  1.0000000E-01; -1.6224232E+03;3; -5.0839767E+00;  0.0000000E+00;  2.0656929E+00;0;  8.9067239E-03;  3.9830902E+04;  0.0000000E+00;  7.3810065E-01;  4.0000000E+04;  0.0000000E+00;  4.0013531E+04;  1.6148424E-02;  0.0000000E+00; -7.2416998E-03;  2.1265278E+03;
  2.9179689E-01;  9.9999998E-03;  1.8996993E-01;4264;  1.9997802E-02;  0.0000000E+00; -2.3970928E-03;  9.9774915E+02;  1.0000000E-01; -1.8647867E+03;3; -4.9415112E+00;  0.0000000E+00;  2.1399801E+00;0;  6.9356705E-03;  3.9807332E+04;  0.0000000E+00;  8.2273364E-01;  4.0000000E+04;  0.0000000E+00;  4.0013766E+04;  1.3972811E-02;  0.0000000E+00; -7.0371409E-03;  2.2530679E+03;
  2.9169127E-01;  9.9999998E-03;  1.9995999E-01;4265;  1.9567110E-02;  0.0000000E+00; -2.4729900E-03;  9.9750946E+02;  1.0000000E-01; -2.0633491E+03;3; -4.8513489E+00;  0.0000000E+00;  2.2225363E+00;0;  5.4385439E-03;  3.9788188E+04;  0.0000000E+00;  8.3946663E-01;  4.0000000E+04;  0.0000000E+00;  4.0014082E+04;  1.2413952E-02;  0.0000000E+00; -6.9754077E-03;  2.3285024E+03;
  2.9157984E-01;  9.9999998E-03;  2.0994504E-01;4266;  1.9086016E-02;  0.0000000E+00; -2.5606807E-03;  9.9734955E+02;  1.0000000E-01; -2.1958391E+03;3; -4.7967448E+00;  0.0000000E+00;  2.3277445E+00;0;  4.2893738E-03;  3.9775098E+04;  0.0000000E+00;  7.9037625E-01;  4.0000000E+04;  0.0000000E+00;  4.0015602E+04;  1.1413262E-02;  0.0000000E+00; -7.1238885E-03;  2.4522307E+03;
  2.9147404E-01;  9.9999998E-03;  2.1992896E-01;4267;  1.8552907E-02;  0.0000000E+00; -2.6503780E-03;  9.9729413E+02;  1.0000000E-01; -2.2417637E+03;3; -4.7641692E+00;  0.0000000E+00;  2.4736371E+00;0;  3.3461493E-03;  3.9768789E+04;  0.0000000E+00;  6.9863784E-01;  4.0000000E+04;  0.0000000E+00;  4.0018871E+04;  1.0903399E-02;  0.0000000E+00; -7.5572501E-03;  2.7808098E+03;
  2.9138842E-01;  9.9999998E-03;  2.2991943E-01;4268;  1.7969437E-02;  0.0000000E+00; -2.7101776E-03;  9.9734204E+02;  1.0000000E-01; -2.2020613E+03;3; -4.7931848E+00;  0.0000000E+00;  2.6805398E+00;0;  2.5331303E-03;  3.9769059E+04;  0.0000000E+00;  6.0538942E-01;  4.0000000E+04;  0.0000000E+00;  4.0024074E+04;  1.0807293E-02;  0.0000000E+00; -8.2741631E-03;  3.3670710E+03;
  3.0168742E-01;  9.9999998E-03;  6.9992021E-02;4313;  2.4118124E-02;  0.0000000E+00; -7.7746075E-04;  9.9862970E+02;  1.0000000E-01; -1.1352765E+03;3; -6.7527175E+00;  0.0000000E+00;  9.3905449E-01;0;  3.2478839E-02;  3.9894340E+04;  0.0000000E+00; -3.8786039E-02;  4.0000000E+04;  0.0000000E+00;  3.9998559E+04;  4.0689152E-02;  0.0000000E+00; -8.2103116E-03;  9.7168556E+01;
  3.0167705E-01;  9.9999998E-03;  7.9997860E-02;4314;  2.3810189E-02;  0.0000000E+00; -9.3257183E-04;  9.9881946E+02;  1.0000000E-01; -9.7804639E+02;3; -6.6389170E+00;  0.0000000E+00;  1.0699577E+00;0;  3.1034520E-02;  3.9910680E+04;  0.0000000E+00; -5.9050638E-02;  4.0000000E+04;  0.0000000E+00;  3.9997328E+04;  3.9501891E-02;  0.0000000E+00; -8.4673706E-03;  2.5860385E+02;
  3.0166891E-01;  9.9999998E-03;  9.0007126E-02;4315;  2.3469936E-02;  0.0000000E+00; -1.0881702E-03;  9.9899756E+02;  1.0000000E-01; -8.3049506E+02;3; -6.5226326E+00;  0.0000000E+00;  1.1823589E+00;0;  2.9045355E-02;  3.9925227E+04;  0.0000000E+00; -8.0253989E-02;  4.0000000E+04;  0.0000000E+00;  3.9997137E+04;  3.7674546E-02;  0.0000000E+00; -8.6291917E-03;  3.1977127E+02;
  3.0167130E-01;  9.9999998E-03;  1.0001633E-01;4316;  2.3103833E-02;  0.0000000E+00; -1.2381049E-03;  9.9914758E+02;  1.0000000E-01; -7.0620227E+02;3; -6.3780332E+00;  0.0000000E+00;  1.2862933E+00;0;  2.6510190E-02;  3.9936738E+04;  0.0000000E+00; -9.7463228E-02;  4.0000000E+04;  0.0000000E+00;  3.9997586E+04;  3.5192836E-02;  0.0000000E+00; -8.6826468E-03;  2.7106729E+02;
  3.0169213E-01;  9.9999998E-03;  1.1002200E-01;4317;  2.2722656E-02;  0.0000000E+00; -1.3784015E-03;  9.9925317E+02;  1.0000000E-01; -6.1874792E+02;3; -6.2180204E+00;  0.0000000E+00;  1.3868002E+00;0;  2.3484871E-02;  3.9943820E+04;  0.0000000E+00; -1.0382287E-01;  4.0000000E+04;  0.0000000E+00;  3.9999055E+04;  3.2111306E-02;  0.0000000E+00; -8.6264340E-03;  1.5718582E+02;
  3.0172583E-01;  9.9999998E-03;  1.2002522E-01;4318;  2.2340108E-02;  0.0000000E+00; -1.5046401E-03;  9.9930383E+02;  1.0000000E-01; -5.7677380E+02;3; -6.0232162E+00;  0.0000000E+00;  1.4904679E+00;0;  2.0088552E-02;  3.9945719E+04;  0.0000000E+00; -9.1121368E-02;  4.0000000E+04;  0.0000000E+00;  4.0001344E+04;  2.8561074E-02;  0.0000000E+00; -8.4725227E-03;  2.5385835E+02;
  3.0176580E-01;  9.9999998E-03;  1.3002609E-01;4319;  2.1963866E-02;  0.0000000E+00; -1.6149018E-03;  9.9928363E+02;  1.0000000E-01; -5.9351410E+02;3; -5.8446722E+00;  0.0000000E+00;  1.5831320E+00;0;  1.6478062E-02;  3.9941328E+04;  0.0000000E+00; -5.1106647E-02;  4.0000000E+04;  0.0000000E+00;  4.0003852E+04;  2.4719525E-02;  0.0000000E+00; -8.2414635E-03;  5.5589056E+02;
  3.0180612E-01;  9.9999998E-03;  1.4002353E-01;4320;  2.1598596E-02;  0.0000000E+00; -1.7085132E-03;  9.9918665E+02;  1.0000000E-01; -6.7385748E+02;3; -5.6862278E+00;  0.0000000E+00;  1.6720225E+00;0;  1.2827700E-02;  3.9930414E+04;  0.0000000E+00;  2.2451153E-02;  4.0000000E+04;  0.0000000E+00;  4.0006598E+04;  2.0785201E-02;  0.0000000E+00; -7.9575013E-03;  9.0910675E+02;
  3.0184022E-01;  9.9999998E-03;  1.5001653E-01;4321;  2.1242816E-02;  0.0000000E+00; -1.7870857E-03;  9.9901593E+02;  1.0000000E-01; -8.1528558E+02;3; -5.5185628E+00;  0.0000000E+00;  1.7507474E+00;0;  9.3090776E-03;  3.9913906E+04;  0.0000000E+00;  1.3113841E-01;  4.0000000E+04;  0.0000000E+00;  4.0009297E+04;  1.6952744E-02;  0.0000000E+00; -7.6436657E-03;  1.2686758E+03;
  3.0186266E-01;  9.9999998E-03;  1.6000669E-01;4322;  2.0889578E-02;  0.0000000E+00; -1.8535308E-03;  9.9877551E+02;  1.0000000E-01; -1.0144404E+03;3; -5.3788247E+00;  0.0000000E+00;  1.8237842E+00;0;  6.0694786E-03;  3.9892391E+04;  0.0000000E+00;  2.6988497E-01;  4.0000000E+04;  0.0000000E+00;  4.0011828E+04;  1.3390712E-02;  0.0000000E+00; -7.3212329E-03;  1.6064863E+03;
  3.0187261E-01;  9.9999998E-03;  1.6999798E-01;4323;  2.0529035E-02;  0.0000000E+00; -1.9109109E-03;  9.9848987E+02;  1.0000000E-01; -1.2511251E+03;3; -5.2310638E+00;  0.0000000E+00;  1.9023005E+00;0;  3.2192082E-03;  3.9867570E+04;  0.0000000E+00;  4.2686051E-01;  4.0000000E+04;  0.0000000E+00;  4.0013457E+04;  1.0229724E-02;  0.0000000E+00; -7.0105153E-03;  1.9043657E+03;
  3.0186495E-01;  9.9999998E-03;  1.7999145E-01;4324;  2.0148179E-02;  0.0000000E+00; -1.9649544E-03;  9.9818365E+02;  1.0000000E-01; -1.5047970E+03;3; -5.1167645E+00;  0.0000000E+00;  1.9650751E+00;0;  8.2784286E-04;  3.9841551E+04;  0.0000000E+00;  5.8238214E-01;  4.0000000E+04;  0.0000000E+00;  4.0014672E+04;  7.5626499E-03;  0.0000000E+00; -6.7348070E-03;  2.1502573E+03;
  3.0182767E-01;  9.9999998E-03;  1.8998347E-01;4325;  1.9741770E-02;  0.0000000E+00; -2.0210892E-03;  9.9788293E+02;  1.0000000E-01; -1.7539257E+03;3; -4.9566822E+00;  0.0000000E+00;  2.0331855E+00;0; -1.0846611E-03;  3.9817121E+04;  0.0000000E+00;  7.0699424E-01;  4.0000000E+04;  0.0000000E+00;  4.0015359E+04;  5.4403627E-03;  0.0000000E+00; -6.5250238E-03;  2.3361270E+03;
  3.0175826E-01;  9.9999998E-03;  1.9997379E-01;4326;  1.9299109E-02;  0.0000000E+00; -2.0856862E-03;  9.9761975E+02;  1.0000000E-01; -1.9719937E+03;3; -4.8651242E+00;  0.0000000E+00;  2.0927258E+00;0; -2.5604607E-03;  3.9796004E+04;  0.0000000E+00;  7.7206713E-01;  4.0000000E+04;  0.0000000E+00;  4.0016102E+04;  3.8614364E-03;  0.0000000E+00; -6.4218971E-03;  2.4641218E+03;
  3.0166996E-01;  9.9999998E-03;  2.0996001E-01;4327;  1.8816486E-02;  0.0000000E+00; -2.1626090E-03;  9.9742511E+02;  1.0000000E-01; -2.1332236E+03;3; -4.7586584E+00;  0.0000000E+00;  2.1660917E+00;0; -3.7029344E-03;  3.9780207E+04;  0.0000000E+00;  7.6028448E-01;  4.0000000E+04;  0.0000000E+00;  4.0016902E+04;  2.7802656E-03;  0.0000000E+00; -6.4832000E-03;  2.5959080E+03;
  3.0157924E-01;  9.9999998E-03;  2.1994358E-01;4328;  1.8290756E-02;  0.0000000E+00; -2.2460646E-03;  9.9732629E+02;  1.0000000E-01; -2.2150979E+03;3; -4.7035518E+00;  0.0000000E+00;  2.2565839E+00;0; -4.6506785E-03;  3.9770766E+04;  0.0000000E+00;  6.7075825E-01;  4.0000000E+04;  0.0000000E+00;  4.0019902E+04;  2.1283182E-03;  0.0000000E+00; -6.7789969E-03;  2.8681082E+03;
  3.0149743E-01;  9.9999998E-03;  2.2993176E-01;4329;  1.7727198E-02;  0.0000000E+00; -2.3121061E-03;  9.9733063E+02;  1.0000000E-01; -2.2115425E+03;3; -4.6544895E+00;  0.0000000E+00;  2.3866723E+00;0; -5.4993997E-03;  3.9768125E+04;  0.0000000E+00;  5.1842058E-01;  4.0000000E+04;  0.0000000E+00;  4.0024223E+04;  1.8336182E-03;  0.0000000E+00; -7.3330179E-03;  3.3466152E+03;
  3.1179845E-01;  9.9999998E-03;  6.9982715E-02;4374;  2.3949867E-02;  0.0000000E+00; -5.1916612E-04;  9.9852887E+02;  1.0000000E-01; -1.2187804E+03;3; -6.8062887E+00;  0.0000000E+00;  8.9068973E-01;0;  2.0639213E-02;  3.9884281E+04;  0.0000000E+00; -4.2393047E-02;  4.0000000E+04;  0.0000000E+00;  4.0000395E+04;  2.6974954E-02;  0.0000000E+00; -6.3357414E-03;  1.7718182E+02;
  3.1176299E-01;  9.9999998E-03;  7.9985730E-02;4375;  2.3664132E-02;  0.0000000E+00; -6.4388104E-04;  9.9871295E+02;  1.0000000E-01; -1.0662908E+03;3; -6.6815691E+00;  0.0000000E+00;  1.0034194E+00;0;  1.9578470E-02;  3.9900598E+04;  0.0000000E+00; -6.7859836E-02;  4.0000000E+04;  0.0000000E+00;  3.9998953E+04;  2.6297642E-02;  0.0000000E+00; -6.7191715E-03;  1.0187681E+02;
  3.1172639E-01;  9.9999998E-03;  8.9992583E-02;4376;  2.3342349E-02;  0.0000000E+00; -7.7270769E-04;  9.9888989E+02;  1.0000000E-01; -9.1972705E+02;3; -6.5543852E+00;  0.0000000E+00;  1.1158080E+00;0;  1.8031847E-02;  3.9915832E+04;  0.0000000E+00; -9.7154461E-02;  4.0000000E+04;  0.0000000E+00;  3.9998168E+04;  2.5046520E-02;  0.0000000E+00; -7.0146732E-03;  1.9987891E+02;
  3.1169832E-01;  9.9999998E-03;  1.0000179E-01;4377;  2.2990445E-02;  0.0000000E+00; -9.0118934E-04;  9.9904785E+02;  1.0000000E-01; -7.8881720E+02;3; -6.4066739E+00;  0.0000000E+00;  1.2139508E+00;0;  1.5986482E-02;  3.9928637E+04;  0.0000000E+00; -1.2619010E-01;  4.0000000E+04;  0.0000000E+00;  3.9998172E+04;  2.3192143E-02;  0.0000000E+00; -7.2056619E-03;  2.3353540E+02;
  3.1168351E-01;  9.9999998E-03;  1.1001282E-01;4378;  2.2617312E-02;  0.0000000E+00; -1.0245100E-03;  9.9917426E+02;  1.0000000E-01; -6.8412878E+02;3; -6.2306209E+00;  0.0000000E+00;  1.3111626E+00;0;  1.3486307E-02;  3.9937770E+04;  0.0000000E+00; -1.4889483E-01;  4.0000000E+04;  0.0000000E+00;  3.9999137E+04;  2.0773759E-02;  0.0000000E+00; -7.2874525E-03;  2.1640004E+02;
  3.1168467E-01;  9.9999998E-03;  1.2002143E-01;4379;  2.2232976E-02;  0.0000000E+00; -1.1386999E-03;  9.9925043E+02;  1.0000000E-01; -6.2101947E+02;3; -6.0597005E+00;  0.0000000E+00;  1.4058540E+00;0;  1.0625053E-02;  3.9942082E+04;  0.0000000E+00; -1.5746391E-01;  4.0000000E+04;  0.0000000E+00;  4.0000844E+04;  1.7891748E-02;  0.0000000E+00; -7.2666951E-03;  2.7762265E+02;
  3.1170332E-01;  9.9999998E-03;  1.3002625E-01;4380;  2.1846233E-02;  0.0000000E+00; -1.2404441E-03;  9.9926221E+02;  1.0000000E-01; -6.1124194E+02;3; -5.8942447E+00;  0.0000000E+00;  1.4974114E+00;0;  7.5332415E-03;  3.9940898E+04;  0.0000000E+00; -1.4329933E-01;  4.0000000E+04;  0.0000000E+00;  4.0003055E+04;  1.4692470E-02;  0.0000000E+00; -7.1592289E-03;  4.9394519E+02;
  3.1173155E-01;  9.9999998E-03;  1.4002766E-01;4381;  2.1462221E-02;  0.0000000E+00; -1.3284776E-03;  9.9920520E+02;  1.0000000E-01; -6.5849988E+02;3; -5.7231169E+00;  0.0000000E+00;  1.5800734E+00;0;  4.3684556E-03;  3.9933543E+04;  0.0000000E+00; -9.8699830E-02;  4.0000000E+04;  0.0000000E+00;  4.0005672E+04;  1.1354705E-02;  0.0000000E+00; -6.9862497E-03;  7.9743536E+02;
  3.1176344E-01;  9.9999998E-03;  1.5002438E-01;4382;  2.1081703E-02;  0.0000000E+00; -1.4028623E-03;  9.9907672E+02;  1.0000000E-01; -7.6491663E+02;3; -5.5702519E+00;  0.0000000E+00;  1.6595790E+00;0;  1.2870808E-03;  3.9920438E+04;  0.0000000E+00; -1.9205492E-02;  4.0000000E+04;  0.0000000E+00;  4.0008320E+04;  8.0547202E-03;  0.0000000E+00; -6.7676394E-03;  1.1354088E+03;
  3.1179482E-01;  9.9999998E-03;  1.6001724E-01;4383;  2.0701135E-02;  0.0000000E+00; -1.4650479E-03;  9.9888239E+02;  1.0000000E-01; -9.2589972E+02;3; -5.4201331E+00;  0.0000000E+00;  1.7380666E+00;0; -1.5756451E-03;  3.9902113E+04;  0.0000000E+00;  9.4290279E-02;  4.0000000E+04;  0.0000000E+00;  4.0011035E+04;  4.9463897E-03;  0.0000000E+00; -6.5220348E-03;  1.4728030E+03;
  3.1181985E-01;  9.9999998E-03;  1.7000999E-01;4384;  2.0313637E-02;  0.0000000E+00; -1.5179946E-03;  9.9863141E+02;  1.0000000E-01; -1.1338445E+03;3; -5.2747250E+00;  0.0000000E+00;  1.8119100E+00;0; -4.1148700E-03;  3.9879930E+04;  0.0000000E+00;  2.3470761E-01;  4.0000000E+04;  0.0000000E+00;  4.0013082E+04;  2.1542145E-03;  0.0000000E+00; -6.2690848E-03;  1.7848007E+03;
  3.1183130E-01;  9.9999998E-03;  1.8000409E-01;4385;  1.9911323E-02;  0.0000000E+00; -1.5662910E-03;  9.9834845E+02;  1.0000000E-01; -1.3682576E+03;3; -5.1360621E+00;  0.0000000E+00;  1.8713104E+00;0; -6.2615075E-03;  3.9855754E+04;  0.0000000E+00;  3.8899165E-01;  4.0000000E+04;  0.0000000E+00;  4.0014781E+04; -2.3179466E-04;  0.0000000E+00; -6.0297130E-03;  2.0555461E+03;
  3.1182203E-01;  9.9999998E-03;  1.8999693E-01;4386;  1.9487841E-02;  0.0000000E+00; -1.6144012E-03;  9.9806085E+02;  1.0000000E-01; -1.6065719E+03;3; -4.9959192E+00;  0.0000000E+00;  1.9366856E+00;0; -7.9931673E-03;  3.9831797E+04;  0.0000000E+00;  5.3558850E-01;  4.0000000E+04;  0.0000000E+00;  4.0015824E+04; -2.1639674E-03;  0.0000000E+00; -5.8292001E-03;  2.2765222E+03;
  3.1179023E-01;  9.9999998E-03;  1.9998801E-01;4387;  1.9035313E-02;  0.0000000E+00; -1.6692226E-03;  9.9779535E+02;  1.0000000E-01; -1.8265162E+03;3; -4.8726683E+00;  0.0000000E+00;  1.9860502E+00;0; -9.3419012E-03;  3.9810070E+04;  0.0000000E+00;  6.4497131E-01;  4.0000000E+04;  0.0000000E+00;  4.0016613E+04; -3.6405511E-03;  0.0000000E+00; -5.7013505E-03;  2.4449949E+03;
  3.1173649E-01;  9.9999998E-03;  2.0997620E-01;4388;  1.8549968E-02;  0.0000000E+00; -1.7361876E-03;  9.9757819E+02;  1.0000000E-01; -2.0064124E+03;3; -4.7701969E+00;  0.0000000E+00;  2.0453861E+00;0; -1.0391120E-02;  3.9792594E+04;  0.0000000E+00;  6.8985397E-01;  4.0000000E+04;  0.0000000E+00;  4.0017555E+04; -4.6935719E-03;  0.0000000E+00; -5.6975484E-03;  2.5898010E+03;
  3.1167141E-01;  9.9999998E-03;  2.1996105E-01;4389;  1.8031059E-02;  0.0000000E+00; -1.8140590E-03;  9.9744257E+02;  1.0000000E-01; -2.1188042E+03;3; -4.6688552E+00;  0.0000000E+00;  2.0999060E+00;0; -1.1269188E-02;  3.9780621E+04;  0.0000000E+00;  6.5328747E-01;  4.0000000E+04;  0.0000000E+00;  4.0019574E+04; -5.3823143E-03;  0.0000000E+00; -5.8868737E-03;  2.8123887E+03;
  3.1160489E-01;  9.9999998E-03;  2.2994740E-01;4390;  1.7484326E-02;  0.0000000E+00; -1.8834436E-03;  9.9739868E+02;  1.0000000E-01; -2.1551489E+03;3; -4.5685863E+00;  0.0000000E+00;  2.1821971E+00;0; -1.2088275E-02;  3.9774789E+04;  0.0000000E+00;  5.3089863E-01;  4.0000000E+04;  0.0000000E+00;  4.0023227E+04; -5.7745171E-03;  0.0000000E+00; -6.3137575E-03;  3.2017139E+03;
  3.2188824E-01;  9.9999998E-03;  6.9979414E-02;4435;  2.3744838E-02;  0.0000000E+00; -2.5786465E-04;  9.9853558E+02;  1.0000000E-01; -1.2132495E+03;3; -6.8523865E+00;  0.0000000E+00;  8.5068512E-01;0;  9.8066702E-03;  3.9883195E+04;  0.0000000E+00; -3.2347653E-02;  4.0000000E+04;  0.0000000E+00;  4.0002188E+04;  1.3844988E-02;  0.0000000E+00; -4.0383185E-03;  4.0263644E+02;
  3.2186508E-01;  9.9999998E-03;  7.9976931E-02;4436;  2.3482226E-02;  0.0000000E+00; -3.4934343E-04;  9.9870062E+02;  1.0000000E-01; -1.0765127E+03;3; -6.7228518E+00;  0.0000000E+00;  9.5714802E-01;0;  9.0366416E-03;  3.9898195E+04;  0.0000000E+00; -5.9261851E-02;  4.0000000E+04;  0.0000000E+00;  4.0000656E+04;  1.3589971E-02;  0.0000000E+00; -4.5533287E-03;  1.9721950E+02;
  3.2183591E-01;  9.9999998E-03;  8.9978471E-02;4437;  2.3181226E-02;  0.0000000E+00; -4.4811121E-04;  9.9886145E+02;  1.0000000E-01; -9.4328192E+02;3; -6.5783825E+00;  0.0000000E+00;  1.0582030E+00;0;  7.8558661E-03;  3.9912395E+04;  0.0000000E+00; -9.2851683E-02;  4.0000000E+04;  0.0000000E+00;  3.9999555E+04;  1.2849389E-02;  0.0000000E+00; -4.9935221E-03;  1.3375323E+02;
  3.2179821E-01;  9.9999998E-03;  9.9984750E-02;4438;  2.2846403E-02;  0.0000000E+00; -5.5076880E-04;  9.9900897E+02;  1.0000000E-01; -8.2106311E+02;3; -6.4273820E+00;  0.0000000E+00;  1.1535926E+00;0;  6.2565692E-03;  3.9924809E+04;  0.0000000E+00; -1.3014741E-01;  4.0000000E+04;  0.0000000E+00;  3.9998984E+04;  1.1597930E-02;  0.0000000E+00; -5.3413613E-03;  1.9169778E+02;
  3.2175100E-01;  9.9999998E-03;  1.0999541E-01;4439;  2.2484768E-02;  0.0000000E+00; -6.5325905E-04;  9.9912610E+02;  1.0000000E-01; -7.2402887E+02;3; -6.2692246E+00;  0.0000000E+00;  1.2456678E+00;0;  4.2724074E-03;  3.9934172E+04;  0.0000000E+00; -1.6610950E-01;  4.0000000E+04;  0.0000000E+00;  3.9999387E+04;  9.8606125E-03;  0.0000000E+00; -5.5882051E-03;  2.3741884E+02;
  3.2170641E-01;  9.9999998E-03;  1.2000881E-01;4440;  2.2104032E-02;  0.0000000E+00; -7.5144041E-04;  9.9921014E+02;  1.0000000E-01; -6.5440118E+02;3; -6.1003842E+00;  0.0000000E+00;  1.3347714E+00;0;  1.9671260E-03;  3.9939840E+04;  0.0000000E+00; -1.9361354E-01;  4.0000000E+04;  0.0000000E+00;  4.0000508E+04;  7.6999408E-03;  0.0000000E+00; -5.7328148E-03;  2.9777908E+02;
  3.2168302E-01;  9.9999998E-03;  1.3002041E-01;4441;  2.1712430E-02;  0.0000000E+00; -8.4126909E-04;  9.9924438E+02;  1.0000000E-01; -6.2600696E+02;3; -5.9283009E+00;  0.0000000E+00;  1.4187403E+00;0; -5.6463247E-04;  3.9940711E+04;  0.0000000E+00; -2.0403852E-01;  4.0000000E+04;  0.0000000E+00;  4.0002418E+04;  5.2174274E-03;  0.0000000E+00; -5.7820599E-03;  4.4260349E+02;
  3.2168496E-01;  9.9999998E-03;  1.4002645E-01;4442;  2.1315658E-02;  0.0000000E+00; -9.2013832E-04;  9.9922113E+02;  1.0000000E-01; -6.4526562E+02;3; -5.7673469E+00;  0.0000000E+00;  1.5015706E+00;0; -3.1934218E-03;  3.9936258E+04;  0.0000000E+00; -1.8866806E-01;  4.0000000E+04;  0.0000000E+00;  4.0004469E+04;  2.5570267E-03;  0.0000000E+00; -5.7504484E-03;  6.7944043E+02;
  3.2170343E-01;  9.9999998E-03;  1.5002698E-01;4443;  2.0915974E-02;  0.0000000E+00; -9.8748342E-04;  9.9913098E+02;  1.0000000E-01; -7.1997955E+02;3; -5.6141515E+00;  0.0000000E+00;  1.5798757E+00;0; -5.7765050E-03;  3.9926500E+04;  0.0000000E+00; -1.4075507E-01;  4.0000000E+04;  0.0000000E+00;  4.0007094E+04; -1.2263418E-04;  0.0000000E+00; -5.6538708E-03;  9.7449359E+02;
  3.2173136E-01;  9.9999998E-03;  1.6002271E-01;4444;  2.0513305E-02;  0.0000000E+00; -1.0439809E-03;  9.9897784E+02;  1.0000000E-01; -8.4684021E+02;3; -5.4549499E+00;  0.0000000E+00;  1.6572934E+00;0; -8.1881583E-03;  3.9911672E+04;  0.0000000E+00; -5.7602849E-02;  4.0000000E+04;  0.0000000E+00;  4.0009715E+04; -2.6807021E-03;  0.0000000E+00; -5.5074561E-03;  1.2916807E+03;
  3.2176143E-01;  9.9999998E-03;  1.7001651E-01;4445;  2.0103246E-02;  0.0000000E+00; -1.0920324E-03;  9.9877155E+02;  1.0000000E-01; -1.0177489E+03;3; -5.3060498E+00;  0.0000000E+00;  1.7255739E+00;0; -1.0333329E-02;  3.9892828E+04;  0.0000000E+00;  5.7936031E-02;  4.0000000E+04;  0.0000000E+00;  4.0012027E+04; -5.0040944E-03;  0.0000000E+00; -5.3292345E-03;  1.6017976E+03;
  3.2178539E-01;  9.9999998E-03;  1.8001121E-01;4446;  1.9681636E-02;  0.0000000E+00; -1.1348611E-03;  9.9852899E+02;  1.0000000E-01; -1.2186815E+03;3; -5.1606627E+00;  0.0000000E+00;  1.7835474E+00;0; -1.2150975E-02;  3.9871375E+04;  0.0000000E+00;  1.9699948E-01;  4.0000000E+04;  0.0000000E+00;  4.0013785E+04; -7.0110415E-03;  0.0000000E+00; -5.1399334E-03;  1.8839968E+03;
  3.2179955E-01;  9.9999998E-03;  1.9000648E-01;4447;  1.9242769E-02;  0.0000000E+00; -1.1762772E-03;  9.9826617E+02;  1.0000000E-01; -1.4364531E+03;3; -5.0202599E+00;  0.0000000E+00;  1.8403674E+00;0; -1.3619708E-02;  3.9849098E+04;  0.0000000E+00;  3.4531552E-01;  4.0000000E+04;  0.0000000E+00;  4.0015168E+04; -8.6573530E-03;  0.0000000E+00; -4.9623549E-03;  2.1224998E+03;
  3.2180205E-01;  9.9999998E-03;  2.0000058E-01;4448;  1.8780423E-02;  0.0000000E+00; -1.2224044E-03;  9.9801013E+02;  1.0000000E-01; -1.6485459E+03;3; -4.8989429E+00;  0.0000000E+00;  1.8873292E+00;0; -1.4762727E-02;  3.9828195E+04;  0.0000000E+00;  4.8065841E-01;  4.0000000E+04;  0.0000000E+00;  4.0016434E+04; -9.9364342E-03;  0.0000000E+00; -4.8262924E-03;  2.3077258E+03;
  3.2179570E-01;  9.9999998E-03;  2.0999201E-01;4449;  1.8292388E-02;  0.0000000E+00; -1.2795279E-03;  9.9778986E+02;  1.0000000E-01; -1.8310592E+03;3; -4.7813654E+00;  0.0000000E+00;  1.9343865E+00;0; -1.5652964E-02;  3.9810035E+04;  0.0000000E+00;  5.7483280E-01;  4.0000000E+04;  0.0000000E+00;  4.0016789E+04; -1.0875400E-02;  0.0000000E+00; -4.7775637E-03;  2.4494421E+03;
  3.2177186E-01;  9.9999998E-03;  2.1997796E-01;4450;  1.7778432E-02;  0.0000000E+00; -1.3491614E-03;  9.9762695E+02;  1.0000000E-01; -1.9660183E+03;3; -4.6689200E+00;  0.0000000E+00;  1.9815111E+00;0; -1.6402345E-02;  3.9796480E+04;  0.0000000E+00;  6.0274351E-01;  4.0000000E+04;  0.0000000E+00;  4.0018340E+04; -1.1516364E-02;  0.0000000E+00; -4.8859813E-03;  2.6432283E+03;
  3.2172829E-01;  9.9999998E-03;  2.2996238E-01;4451;  1.7243277E-02;  0.0000000E+00; -1.4141941E-03;  9.9754584E+02;  1.0000000E-01; -2.0332263E+03;3; -4.5602427E+00;  0.0000000E+00;  2.0445416E+00;0; -1.7118318E-02;  3.9788250E+04;  0.0000000E+00;  5.4844874E-01;  4.0000000E+04;  0.0000000E+00;  4.0021539E+04; -1.1915940E-02;  0.0000000E+00; -5.2023777E-03;  2.9953308E+03;
  3.3197948E-01;  9.9999998E-03;  6.9975659E-02;4496;  2.3511956E-02;  0.0000000E+00;  1.4097410E-05;  9.9864941E+02;  1.0000000E-01; -1.1189313E+03;3; -6.8886557E+00;  0.0000000E+00;  8.5231322E-01;0;  5.1395851E-04;  3.9891051E+04;  0.0000000E+00; -1.3619499E-02;  4.0000000E+04;  0.0000000E+00;  4.0003996E+04;  1.8774037E-03;  0.0000000E+00; -1.3634452E-03;  6.0921191E+02;
  3.3196563E-01;  9.9999998E-03;  7.9971746E-02;4497;  2.3272619E-02;  0.0000000E+00; -4.5306017E-05;  9.9878351E+02;  1.0000000E-01; -1.0078232E+03;3; -6.7549357E+00;  0.0000000E+00;  9.3343663E-01;0; -3.0096387E-05;  3.9903391E+04;  0.0000000E+00; -3.8429074E-02;  4.0000000E+04;  0.0000000E+00;  4.0002234E+04;  1.9893521E-03;  0.0000000E+00; -2.0194484E-03;  3.8608481E+02;
  3.3194172E-01;  9.9999998E-03;  8.9970380E-02;4498;  2.2993108E-02;  0.0000000E+00; -1.1344794E-04;  9.9891461E+02;  1.0000000E-01; -8.9923376E+02;3; -6.6095190E+00;  0.0000000E+00;  1.0205666E+00;0; -9.0908108E-04;  3.9915391E+04;  0.0000000E+00; -7.2233640E-02;  4.0000000E+04;  0.0000000E+00;  4.0000828E+04;  1.7085288E-03;  0.0000000E+00; -2.6176099E-03;  2.2049197E+02;
  3.3190593E-01;  9.9999998E-03;  9.9972531E-02;4499;  2.2676498E-02;  0.0000000E+00; -1.8776132E-04;  9.9903766E+02;  1.0000000E-01; -7.9726135E+02;3; -6.4540973E+00;  0.0000000E+00;  1.1056743E+00;0; -2.1344889E-03;  3.9926281E+04;  0.0000000E+00; -1.1322644E-01;  4.0000000E+04;  0.0000000E+00;  4.0000004E+04;  1.0024240E-03;  0.0000000E+00; -3.1369128E-03;  1.7660042E+02;
  3.3185932E-01;  9.9999998E-03;  1.0997855E-01;4500;  2.2328151E-02;  0.0000000E+00; -2.6507289E-04;  9.9914148E+02;  1.0000000E-01; -7.1128845E+02;3; -6.2936883E+00;  0.0000000E+00;  1.1894385E+00;0; -3.6846513E-03;  3.9934656E+04;  0.0000000E+00; -1.5753968E-01;  4.0000000E+04;  0.0000000E+00;  3.9999625E+04; -1.2091532E-04;  0.0000000E+00; -3.5637361E-03;  2.2679828E+02;
  3.3180302E-01;  9.9999998E-03;  1.1999037E-01;4501;  2.1954669E-02;  0.0000000E+00; -3.4221422E-04;  9.9921375E+02;  1.0000000E-01; -6.5138892E+02;3; -6.1301980E+00;  0.0000000E+00;  1.2727108E+00;0; -5.5038128E-03;  3.9940230E+04;  0.0000000E+00; -1.9902231E-01;  4.0000000E+04;  0.0000000E+00;  4.0000133E+04; -1.6108941E-03;  0.0000000E+00; -3.8929188E-03;  2.9669370E+02;
  3.3174410E-01;  9.9999998E-03;  1.3000832E-01;4502;  2.1562785E-02;  0.0000000E+00; -4.1597025E-04;  9.9924994E+02;  1.0000000E-01; -6.2141449E+02;3; -5.9656429E+00;  0.0000000E+00;  1.3553616E+00;0; -7.5105447E-03;  3.9941973E+04;  0.0000000E+00; -2.2949801E-01;  4.0000000E+04;  0.0000000E+00;  4.0001348E+04; -3.3852144E-03;  0.0000000E+00; -4.1253306E-03;  4.0261536E+02;
  3.3169958E-01;  9.9999998E-03;  1.4002070E-01;4503;  2.1158691E-02;  0.0000000E+00; -4.8305959E-04;  9.9924097E+02;  1.0000000E-01; -6.2882166E+02;3; -5.8052282E+00;  0.0000000E+00;  1.4340689E+00;0; -9.6050091E-03;  3.9939375E+04;  0.0000000E+00; -2.3976542E-01;  4.0000000E+04;  0.0000000E+00;  4.0003172E+04; -5.3402865E-03;  0.0000000E+00; -4.2647230E-03;  5.7584869E+02;
  3.3168232E-01;  9.9999998E-03;  1.5002470E-01;4504;  2.0746373E-02;  0.0000000E+00; -5.4152287E-04;  9.9917896E+02;  1.0000000E-01; -6.8022760E+02;3; -5.6417136E+00;  0.0000000E+00;  1.5092431E+00;0; -1.1675845E-02;  3.9932113E+04;  0.0000000E+00; -2.2138575E-01;  4.0000000E+04;  0.0000000E+00;  4.0005465E+04; -7.3587112E-03;  0.0000000E+00; -4.3171337E-03;  8.1506586E+02;
  3.3169043E-01;  9.9999998E-03;  1.6002230E-01;4505;  2.0327035E-02;  0.0000000E+00; -5.9124624E-04;  9.9906293E+02;  1.0000000E-01; -7.7632367E+02;3; -5.4797621E+00;  0.0000000E+00;  1.5788478E+00;0; -1.3613164E-02;  3.9920383E+04;  0.0000000E+00; -1.6877486E-01;  4.0000000E+04;  0.0000000E+00;  4.0008023E+04; -9.3206204E-03;  0.0000000E+00; -4.2925440E-03;  1.0956255E+03;
  3.3171666E-01;  9.9999998E-03;  1.7001694E-01;4506;  1.9899346E-02;  0.0000000E+00; -6.3347869E-04;  9.9890039E+02;  1.0000000E-01; -9.1098651E+02;3; -5.3340230E+00;  0.0000000E+00;  1.6429011E+00;0; -1.5331941E-02;  3.9904840E+04;  0.0000000E+00; -8.1126198E-02;  4.0000000E+04;  0.0000000E+00;  4.0010387E+04; -1.1125304E-02;  0.0000000E+00; -4.2066374E-03;  1.3892839E+03;
  3.3175316E-01;  9.9999998E-03;  1.8001217E-01;4507;  1.9460998E-02;  0.0000000E+00; -6.7035866E-04;  9.9869543E+02;  1.0000000E-01; -1.0808088E+03;3; -5.1882191E+00;  0.0000000E+00;  1.7025431E+00;0; -1.6780790E-02;  3.9886598E+04;  0.0000000E+00;  3.6419075E-02;  4.0000000E+04;  0.0000000E+00;  4.0012449E+04; -1.2700498E-02;  0.0000000E+00; -4.0802928E-03;  1.6730563E+03;
  3.3179599E-01;  9.9999998E-03;  1.9000931E-01;4508;  1.9007901E-02;  0.0000000E+00; -7.0485193E-04;  9.9847003E+02;  1.0000000E-01; -1.2675690E+03;3; -5.0550041E+00;  0.0000000E+00;  1.7564133E+00;0; -1.7942544E-02;  3.9867082E+04;  0.0000000E+00;  1.7305169E-01;  4.0000000E+04;  0.0000000E+00;  4.0014250E+04; -1.4005443E-02;  0.0000000E+00; -3.9371010E-03;  1.9247496E+03;
  3.3183038E-01;  9.9999998E-03;  2.0000678E-01;4509;  1.8536540E-02;  0.0000000E+00; -7.4230524E-04;  9.9824323E+02;  1.0000000E-01; -1.4554648E+03;3; -4.9328938E+00;  0.0000000E+00;  1.8050296E+00;0; -1.8830800E-02;  3.9847754E+04;  0.0000000E+00;  3.1314129E-01;  4.0000000E+04;  0.0000000E+00;  4.0015516E+04; -1.5023869E-02;  0.0000000E+00; -3.8069314E-03;  2.1230303E+03;
  3.3184260E-01;  9.9999998E-03;  2.1000113E-01;4510;  1.8045291E-02;  0.0000000E+00; -7.8973779E-04;  9.9802905E+02;  1.0000000E-01; -1.6328920E+03;3; -4.8154721E+00;  0.0000000E+00;  1.8518276E+00;0; -1.9502822E-02;  3.9830223E+04;  0.0000000E+00;  4.3532971E-01;  4.0000000E+04;  0.0000000E+00;  4.0016156E+04; -1.5769072E-02;  0.0000000E+00; -3.7337495E-03;  2.2733467E+03;
  3.3183274E-01;  9.9999998E-03;  2.1999037E-01;4511;  1.7533895E-02;  0.0000000E+00; -8.5044053E-04;  9.9785559E+02;  1.0000000E-01; -1.7765916E+03;3; -4.7029343E+00;  0.0000000E+00;  1.8949635E+00;0; -2.0066684E-02;  3.9815867E+04;  0.0000000E+00;  5.1612419E-01;  4.0000000E+04;  0.0000000E+00;  4.0017059E+04; -1.6281705E-02;  0.0000000E+00; -3.7849795E-03;  2.4399004E+03;
  3.3180308E-01;  9.9999998E-03;  2.2997601E-01;4512;  1.7006449E-02;  0.0000000E+00; -9.1173779E-04;  9.9774310E+02;  1.0000000E-01; -1.8697742E+03;3; -4.5886250E+00;  0.0000000E+00;  1.9430350E+00;0; -2.0637713E-02;  3.9805535E+04;  0.0000000E+00;  5.3654808E-01;  4.0000000E+04;  0.0000000E+00;  4.0019605E+04; -1.6613975E-02;  0.0000000E+00; -4.0237377E-03;  2.7336394E+03;
  3.4197685E-01;  9.9999998E-03;  6.9976874E-02;4557;  2.3259470E-02;  0.0000000E+00;  3.0550748E-04;  9.9884564E+02;  1.0000000E-01; -9.5636792E+02;3; -6.9184909E+00;  0.0000000E+00;  8.8137293E-01;0; -6.8880357E-03;  3.9904859E+04;  0.0000000E+00;  7.8007011E-03;  4.0000000E+04;  0.0000000E+00;  4.0005590E+04; -8.4942710E-03;  0.0000000E+00;  1.6062355E-03;  7.8307898E+02;
  3.4197325E-01;  9.9999998E-03;  7.9971224E-02;4558;  2.3042150E-02;  0.0000000E+00;  2.7476440E-04;  9.9894122E+02;  1.0000000E-01; -8.7716034E+02;3; -6.7798195E+00;  0.0000000E+00;  9.4653392E-01;0; -7.2879801E-03;  3.9914309E+04;  0.0000000E+00; -1.2058192E-02;  4.0000000E+04;  0.0000000E+00;  4.0003840E+04; -8.0932258E-03;  0.0000000E+00;  8.0524583E-04;  5.6680475E+02;
  3.4196913E-01;  9.9999998E-03;  8.9966945E-02;4559;  2.2783186E-02;  0.0000000E+00;  2.3531009E-04;  9.9903796E+02;  1.0000000E-01; -7.9701447E+02;3; -6.6333628E+00;  0.0000000E+00;  1.0138392E+00;0; -7.9602953E-03;  3.9923531E+04;  0.0000000E+00; -4.2291157E-02;  4.0000000E+04;  0.0000000E+00;  4.0002254E+04; -8.0054458E-03;  0.0000000E+00;  4.5150333E-05;  3.7295609E+02;
  3.4196314E-01;  9.9999998E-03;  9.9964723E-02;4560;  2.2484541E-02;  0.0000000E+00;  1.8967153E-04;  9.9912604E+02;  1.0000000E-01; -7.2407825E+02;3; -6.4797421E+00;  0.0000000E+00;  1.0829566E+00;0; -8.9148907E-03;  3.9932039E+04;  0.0000000E+00; -8.2212105E-02;  4.0000000E+04;  0.0000000E+00;  4.0001086E+04; -8.2651014E-03;  0.0000000E+00; -6.4978958E-04;  2.4168773E+02;
  3.4195185E-01;  9.9999998E-03;  1.0996553E-01;4561;  2.2150101E-02;  0.0000000E+00;  1.3974258E-04;  9.9920294E+02;  1.0000000E-01; -6.6032697E+02;3; -6.3199358E+00;  0.0000000E+00;  1.1536309E+00;0; -1.0132506E-02;  3.9938871E+04;  0.0000000E+00; -1.2916808E-01;  4.0000000E+04;  0.0000000E+00;  4.0000445E+04; -8.8696731E-03;  0.0000000E+00; -1.2628336E-03;  2.1892287E+02;
  3.4192905E-01;  9.9999998E-03;  1.1997094E-01;4562;  2.1785401E-02;  0.0000000E+00;  8.7556298E-05;  9.9925702E+02;  1.0000000E-01; -6.1553809E+02;3; -6.1566343E+00;  0.0000000E+00;  1.2281237E+00;0; -1.1564717E-02;  3.9943422E+04;  0.0000000E+00; -1.7816617E-01;  4.0000000E+04;  0.0000000E+00;  4.0000301E+04; -9.7801825E-03;  0.0000000E+00; -1.7845340E-03;  2.7516599E+02;
  3.4188774E-01;  9.9999998E-03;  1.2998338E-01;4563;  2.1396728E-02;  0.0000000E+00;  3.4967132E-05;  9.9928369E+02;  1.0000000E-01; -5.9346466E+02;3; -5.9943910E+00;  0.0000000E+00;  1.3024966E+00;0; -1.3139185E-02;  3.9944863E+04;  0.0000000E+00; -2.2187862E-01;  4.0000000E+04;  0.0000000E+00;  4.0001004E+04; -1.0928329E-02;  0.0000000E+00; -2.2108555E-03;  3.6446368E+02;
  3.4182778E-01;  9.9999998E-03;  1.3999891E-01;4564;  2.0990193E-02;  0.0000000E+00; -1.6105940E-05;  9.9927417E+02;  1.0000000E-01; -6.0131628E+02;3; -5.8289061E+00;  0.0000000E+00;  1.3760912E+00;0; -1.4768645E-02;  3.9943023E+04;  0.0000000E+00; -2.5125116E-01;  4.0000000E+04;  0.0000000E+00;  4.0002211E+04; -1.2229567E-02;  0.0000000E+00; -2.5390775E-03;  4.9431473E+02;
  3.4177133E-01;  9.9999998E-03;  1.5001081E-01;4565;  2.0570315E-02;  0.0000000E+00; -6.3259264E-05;  9.9922614E+02;  1.0000000E-01; -6.4111761E+02;3; -5.6641235E+00;  0.0000000E+00;  1.4469665E+00;0; -1.6365726E-02;  3.9937480E+04;  0.0000000E+00; -2.5689295E-01;  4.0000000E+04;  0.0000000E+00;  4.0004035E+04; -1.3602051E-02;  0.0000000E+00; -2.7636741E-03;  6.7908246E+02;
  3.4174287E-01;  9.9999998E-03;  1.6001488E-01;4566;  2.0139318E-02;  0.0000000E+00; -1.0464795E-04;  9.9913770E+02;  1.0000000E-01; -7.1439948E+02;3; -5.5122170E+00;  0.0000000E+00;  1.5145572E+00;0; -1.7847322E-02;  3.9928129E+04;  0.0000000E+00; -2.3112684E-01;  4.0000000E+04;  0.0000000E+00;  4.0006293E+04; -1.4963704E-02;  0.0000000E+00; -2.8836187E-03;  9.1347974E+02;
  3.4174684E-01;  9.9999998E-03;  1.7001362E-01;4567;  1.9698532E-02;  0.0000000E+00; -1.4025418E-04;  9.9901001E+02;  1.0000000E-01; -8.2017426E+02;3; -5.3642416E+00;  0.0000000E+00;  1.5760370E+00;0; -1.9144103E-02;  3.9915520E+04;  0.0000000E+00; -1.7026043E-01;  4.0000000E+04;  0.0000000E+00;  4.0008598E+04; -1.6234312E-02;  0.0000000E+00; -2.9097917E-03;  1.1777637E+03;
  3.4177402E-01;  9.9999998E-03;  1.8001083E-01;4568;  1.9247029E-02;  0.0000000E+00; -1.7132597E-04;  9.9884399E+02;  1.0000000E-01; -9.5775061E+02;3; -5.2225857E+00;  0.0000000E+00;  1.6335492E+00;0; -2.0212865E-02;  3.9900391E+04;  0.0000000E+00; -7.6279141E-02;  4.0000000E+04;  0.0000000E+00;  4.0010840E+04; -1.7349964E-02;  0.0000000E+00; -2.8629003E-03;  1.4506554E+03;
  3.4180680E-01;  9.9999998E-03;  1.9000885E-01;4569;  1.8782917E-02;  0.0000000E+00; -2.0045457E-04;  9.9865808E+02;  1.0000000E-01; -1.1117710E+03;3; -5.0935802E+00;  0.0000000E+00;  1.6857563E+00;0; -2.1040007E-02;  3.9883438E+04;  0.0000000E+00;  4.2814102E-02;  4.0000000E+04;  0.0000000E+00;  4.0012914E+04; -1.8270055E-02;  0.0000000E+00; -2.7699522E-03;  1.7103480E+03;
  3.4183154E-01;  9.9999998E-03;  2.0000832E-01;4570;  1.8304206E-02;  0.0000000E+00; -2.3180827E-04;  9.9846008E+02;  1.0000000E-01; -1.2758157E+03;3; -4.9695168E+00;  0.0000000E+00;  1.7347935E+00;0; -2.1643359E-02;  3.9866367E+04;  0.0000000E+00;  1.7393219E-01;  4.0000000E+04;  0.0000000E+00;  4.0014324E+04; -1.8980881E-02;  0.0000000E+00; -2.6624785E-03;  1.9257500E+03;
  3.4184664E-01;  9.9999998E-03;  2.1000782E-01;4571;  1.7809520E-02;  0.0000000E+00; -2.7132576E-04;  9.9826147E+02;  1.0000000E-01; -1.4403542E+03;3; -4.8531675E+00;  0.0000000E+00;  1.7795238E+00;0; -2.2078399E-02;  3.9849902E+04;  0.0000000E+00;  3.0130208E-01;  4.0000000E+04;  0.0000000E+00;  4.0015004E+04; -1.9495375E-02;  0.0000000E+00; -2.5830227E-03;  2.0621768E+03;
  3.4185219E-01;  9.9999998E-03;  2.2000237E-01;4572;  1.7299026E-02;  0.0000000E+00; -3.2581118E-04;  9.9808020E+02;  1.0000000E-01; -1.5905228E+03;3; -4.7371125E+00;  0.0000000E+00;  1.8196776E+00;0; -2.2448825E-02;  3.9835602E+04;  0.0000000E+00;  4.0778548E-01;  4.0000000E+04;  0.0000000E+00;  4.0015312E+04; -1.9844774E-02;  0.0000000E+00; -2.6040503E-03;  2.1600881E+03;
  3.4184292E-01;  9.9999998E-03;  2.2999023E-01;4573;  1.6775291E-02;  0.0000000E+00; -3.8777883E-04;  9.9794824E+02;  1.0000000E-01; -1.6998530E+03;3; -4.6247363E+00;  0.0000000E+00;  1.8590490E+00;0; -2.2882182E-02;  3.9824051E+04;  0.0000000E+00;  4.7565240E-01;  4.0000000E+04;  0.0000000E+00;  4.0016566E+04; -2.0069458E-02;  0.0000000E+00; -2.8127253E-03;  2.3613879E+03;
  3.5195529E-01;  9.9999998E-03;  6.9977410E-02;4618;  2.2984974E-02;  0.0000000E+00;  6.0973509E-04;  9.9907465E+02;  1.0000000E-01; -7.6664490E+02;3; -6.9604936E+00;  0.0000000E+00;  8.2320565E-01;0; -1.2428137E-02;  3.9921801E+04;  0.0000000E+00;  2.7367141E-02;  4.0000000E+04;  0.0000000E+00;  4.0006820E+04; -1.7265901E-02;  0.0000000E+00;  4.8377635E-03;  9.1883350E+02;
  3.5194716E-01;  9.9999998E-03;  7.9972081E-02;4619;  2.2790020E-02;  0.0000000E+00;  6.1477331E-04;  9.9913196E+02;  1.0000000E-01; -7.1914008E+02;3; -6.8190422E+00;  0.0000000E+00;  9.1531390E-01;0; -1.2759955E-02;  3.9928152E+04;  0.0000000E+00;  1.4424798E-02;  4.0000000E+04;  0.0000000E+00;  4.0005324E+04; -1.6644269E-02;  0.0000000E+00;  3.8843146E-03;  7.2569672E+02;
  3.5194016E-01;  9.9999998E-03;  8.9967556E-02;4620;  2.2551948E-02;  0.0000000E+00;  6.0569734E-04;  9.9919153E+02;  1.0000000E-01; -6.6980817E+02;3; -6.6644077E+00;  0.0000000E+00;  1.0045958E+00;0; -1.3302225E-02;  3.9934320E+04;  0.0000000E+00; -9.2113726E-03;  4.0000000E+04;  0.0000000E+00;  4.0003797E+04; -1.6252261E-02;  0.0000000E+00;  2.9500360E-03;  5.3328479E+02;
  3.5193375E-01;  9.9999998E-03;  9.9964395E-02;4621;  2.2271190E-02;  0.0000000E+00;  5.8697129E-04;  9.9924408E+02;  1.0000000E-01; -6.2625385E+02;3; -6.5016785E+00;  0.0000000E+00;  1.0757543E+00;0; -1.4060803E-02;  3.9939945E+04;  0.0000000E+00; -4.3884061E-02;  4.0000000E+04;  0.0000000E+00;  4.0002367E+04; -1.6124409E-02;  0.0000000E+00;  2.0636059E-03;  3.6799554E+02;
  3.5192701E-01;  9.9999998E-03;  1.0996298E-01;4622;  2.1951465E-02;  0.0000000E+00;  5.6190428E-04;  9.9928949E+02;  1.0000000E-01; -5.8862531E+02;3; -6.3387966E+00;  0.0000000E+00;  1.1402789E+00;0; -1.5020338E-02;  3.9944859E+04;  0.0000000E+00; -8.8119574E-02;  4.0000000E+04;  0.0000000E+00;  4.0001359E+04; -1.6268186E-02;  0.0000000E+00;  1.2478483E-03;  2.6732858E+02;
  3.5191736E-01;  9.9999998E-03;  1.1996362E-01;4623;  2.1597454E-02;  0.0000000E+00;  5.3314859E-04;  9.9932208E+02;  1.0000000E-01; -5.6166309E+02;3; -6.1754775E+00;  0.0000000E+00;  1.2028954E+00;0; -1.6142914E-02;  3.9947809E+04;  0.0000000E+00; -1.3814841E-01;  4.0000000E+04;  0.0000000E+00;  4.0000824E+04; -1.6662361E-02;  0.0000000E+00;  5.1944732E-04;  2.6172360E+02;
  3.5190055E-01;  9.9999998E-03;  1.2996675E-01;4624;  2.1214914E-02;  0.0000000E+00;  5.0223066E-04;  9.9933264E+02;  1.0000000E-01; -5.5287323E+02;3; -6.0108438E+00;  0.0000000E+00;  1.2669334E+00;0; -1.7370187E-02;  3.9948559E+04;  0.0000000E+00; -1.8770261E-01;  4.0000000E+04;  0.0000000E+00;  4.0001137E+04; -1.7260451E-02;  0.0000000E+00; -1.0973521E-04;  3.2540640E+02;
  3.5187244E-01;  9.9999998E-03;  1.3997397E-01;4625;  2.0809311E-02;  0.0000000E+00;  4.7041549E-04;  9.9931677E+02;  1.0000000E-01; -5.6605804E+02;3; -5.8477826E+00;  0.0000000E+00;  1.3312908E+00;0; -1.8629197E-02;  3.9946734E+04;  0.0000000E+00; -2.2833465E-01;  4.0000000E+04;  0.0000000E+00;  4.0001730E+04; -1.7998967E-02;  0.0000000E+00; -6.3022954E-04;  4.2846008E+02;
  3.5183236E-01;  9.9999998E-03;  1.4998591E-01;4626;  2.0385636E-02;  0.0000000E+00;  4.3884557E-04;  9.9927472E+02;  1.0000000E-01; -6.0087183E+02;3; -5.6922603E+00;  0.0000000E+00;  1.3953546E+00;0; -1.9840311E-02;  3.9942051E+04;  0.0000000E+00; -2.5048009E-01;  4.0000000E+04;  0.0000000E+00;  4.0003078E+04; -1.8807797E-02;  0.0000000E+00; -1.0325136E-03;  5.7309589E+02;
  3.5179386E-01;  9.9999998E-03;  1.5999688E-01;4627;  1.9948112E-02;  0.0000000E+00;  4.0889278E-04;  9.9919812E+02;  1.0000000E-01; -6.6432684E+02;3; -5.5393701E+00;  0.0000000E+00;  1.4578047E+00;0; -2.0931991E-02;  3.9934215E+04;  0.0000000E+00; -2.4538928E-01;  4.0000000E+04;  0.0000000E+00;  4.0005016E+04; -1.9622913E-02;  0.0000000E+00; -1.3090788E-03;  7.6491541E+02;
  3.5177085E-01;  9.9999998E-03;  1.7000259E-01;4628;  1.9498637E-02;  0.0000000E+00;  3.8135052E-04;  9.9909705E+02;  1.0000000E-01; -7.4807758E+02;3; -5.3936553E+00;  0.0000000E+00;  1.5174592E+00;0; -2.1850793E-02;  3.9923922E+04;  0.0000000E+00; -2.0754278E-01;  4.0000000E+04;  0.0000000E+00;  4.0006957E+04; -2.0387148E-02;  0.0000000E+00; -1.4636434E-03;  9.9692731E+02;
  3.5176909E-01;  9.9999998E-03;  1.8000425E-01;4629;  1.9038158E-02;  0.0000000E+00;  3.5624893E-04;  9.9896136E+02;  1.0000000E-01; -8.6046942E+02;3; -5.2535872E+00;  0.0000000E+00;  1.5743064E+00;0; -2.2567788E-02;  3.9911043E+04;  0.0000000E+00; -1.3665205E-01;  4.0000000E+04;  0.0000000E+00;  4.0009262E+04; -2.1054920E-02;  0.0000000E+00; -1.5128676E-03;  1.2537711E+03;
  3.5178486E-01;  9.9999998E-03;  1.9000542E-01;4630;  1.8566035E-02;  0.0000000E+00;  3.3254814E-04;  9.9880554E+02;  1.0000000E-01; -9.8960156E+02;3; -5.1228981E+00;  0.0000000E+00;  1.6265945E+00;0; -2.3080178E-02;  3.9896645E+04;  0.0000000E+00; -3.8297996E-02;  4.0000000E+04;  0.0000000E+00;  4.0011352E+04; -2.1596938E-02;  0.0000000E+00; -1.4832397E-03;  1.5131517E+03;
  3.5180876E-01;  9.9999998E-03;  2.0000830E-01;4631;  1.8081363E-02;  0.0000000E+00;  3.0766806E-04;  9.9863629E+02;  1.0000000E-01; -1.1297952E+03;3; -5.0003552E+00;  0.0000000E+00;  1.6710752E+00;0; -2.3411365E-02;  3.9881602E+04;  0.0000000E+00;  7.6936148E-02;  4.0000000E+04;  0.0000000E+00;  4.0012957E+04; -2.2002654E-02;  0.0000000E+00; -1.4087113E-03;  1.7339681E+03;
  3.5183161E-01;  9.9999998E-03;  2.1001190E-01;4632;  1.7583610E-02;  0.0000000E+00;  2.7602847E-04;  9.9845551E+02;  1.0000000E-01; -1.2795686E+03;3; -4.8834047E+00;  0.0000000E+00;  1.7140518E+00;0; -2.3615099E-02;  3.9866457E+04;  0.0000000E+00;  1.9543442E-01;  4.0000000E+04;  0.0000000E+00;  4.0013734E+04; -2.2279605E-02;  0.0000000E+00; -1.3354939E-03;  1.8593229E+03;
  3.5184646E-01;  9.9999998E-03;  2.2001103E-01;4633;  1.7072558E-02;  0.0000000E+00;  2.2771858E-04;  9.9827576E+02;  1.0000000E-01; -1.4285027E+03;3; -4.7692318E+00;  0.0000000E+00;  1.7564465E+00;0; -2.3793630E-02;  3.9852648E+04;  0.0000000E+00;  3.0276382E-01;  4.0000000E+04;  0.0000000E+00;  4.0013570E+04; -2.2449620E-02;  0.0000000E+00; -1.3440101E-03;  1.8969033E+03;
  3.5184589E-01;  9.9999998E-03;  2.3000136E-01;4634;  1.6549027E-02;  0.0000000E+00;  1.6388539E-04;  9.9812769E+02;  1.0000000E-01; -1.5511659E+03;3; -4.6621079E+00;  0.0000000E+00;  1.7909200E+00;0; -2.4093160E-02;  3.9840512E+04;  0.0000000E+00;  3.8549978E-01;  4.0000000E+04;  0.0000000E+00;  4.0014211E+04; -2.2542834E-02;  0.0000000E+00; -1.5503259E-03;  2.0103933E+03;
  3.6193505E-01;  9.9999998E-03;  6.9978856E-02;4679;  2.2687647E-02;  0.0000000E+00;  9.0688624E-04;  9.9929529E+02;  1.0000000E-01; -5.8383527E+02;3; -6.9896903E+00;  0.0000000E+00;  7.4886394E-01;0; -1.6244240E-02;  3.9938316E+04;  0.0000000E+00;  4.2552199E-02;  4.0000000E+04;  0.0000000E+00;  4.0007707E+04; -2.4534112E-02;  0.0000000E+00;  8.2898717E-03;  1.0140237E+03;
  3.6192253E-01;  9.9999998E-03;  7.9974316E-02;4680;  2.2512315E-02;  0.0000000E+00;  9.5789519E-04;  9.9931738E+02;  1.0000000E-01; -5.6551483E+02;3; -6.8454919E+00;  0.0000000E+00;  8.4944999E-01;0; -1.6590351E-02;  3.9941324E+04;  0.0000000E+00;  3.7425317E-02;  4.0000000E+04;  0.0000000E+00;  4.0006410E+04; -2.3773529E-02;  0.0000000E+00;  7.1831779E-03;  8.5621112E+02;
  3.6191204E-01;  9.9999998E-03;  8.9969993E-02;4681;  2.2293236E-02;  0.0000000E+00;  9.8916038E-04;  9.9933856E+02;  1.0000000E-01; -5.4798444E+02;3; -6.6908307E+00;  0.0000000E+00;  9.3997264E-01;0; -1.7093085E-02;  3.9944367E+04;  0.0000000E+00;  2.2397252E-02;  4.0000000E+04;  0.0000000E+00;  4.0005008E+04; -2.3163810E-02;  0.0000000E+00;  6.0707252E-03;  6.8502704E+02;
  3.6190349E-01;  9.9999998E-03;  9.9966317E-02;4682;  2.2030264E-02;  0.0000000E+00;  1.0049981E-03;  9.9936053E+02;  1.0000000E-01; -5.2976276E+02;3; -6.5314074E+00;  0.0000000E+00;  1.0246806E+00;0; -1.7751394E-02;  3.9947531E+04;  0.0000000E+00; -3.7981756E-03;  4.0000000E+04;  0.0000000E+00;  4.0003645E+04; -2.2737350E-02;  0.0000000E+00;  4.9859565E-03;  5.1940570E+02;
  3.6189607E-01;  9.9999998E-03;  1.0996352E-01;4683;  2.1726144E-02;  0.0000000E+00;  1.0081149E-03;  9.9937799E+02;  1.0000000E-01; -5.1534338E+02;3; -6.3666592E+00;  0.0000000E+00;  1.1013957E+00;0; -1.8548461E-02;  3.9949992E+04;  0.0000000E+00; -4.0815040E-02;  4.0000000E+04;  0.0000000E+00;  4.0002637E+04; -2.2506438E-02;  0.0000000E+00;  3.9579771E-03;  3.8456668E+02;
  3.6188731E-01;  9.9999998E-03;  1.1996171E-01;4684;  2.1384368E-02;  0.0000000E+00;  1.0031527E-03;  9.9938361E+02;  1.0000000E-01; -5.1065219E+02;3; -6.1996512E+00;  0.0000000E+00;  1.1693401E+00;0; -1.9451443E-02;  3.9951387E+04;  0.0000000E+00; -8.6140238E-02;  4.0000000E+04;  0.0000000E+00;  4.0001922E+04; -2.2462294E-02;  0.0000000E+00;  3.0108511E-03;  3.1130548E+02;
  3.6187628E-01;  9.9999998E-03;  1.2996118E-01;4685;  2.1010386E-02;  0.0000000E+00;  9.9230220E-04;  9.9937585E+02;  1.0000000E-01; -5.1707178E+02;3; -6.0355921E+00;  0.0000000E+00;  1.2299023E+00;0; -2.0413591E-02;  3.9951289E+04;  0.0000000E+00; -1.3474104E-01;  4.0000000E+04;  0.0000000E+00;  4.0001531E+04; -2.2578852E-02;  0.0000000E+00;  2.1652619E-03;  3.1758911E+02;
  3.6186135E-01;  9.9999998E-03;  1.3996273E-01;4686;  2.0609334E-02;  0.0000000E+00;  9.7851898E-04;  9.9935193E+02;  1.0000000E-01; -5.3692303E+02;3; -5.8752098E+00;  0.0000000E+00;  1.2919668E+00;0; -2.1376207E-02;  3.9948934E+04;  0.0000000E+00; -1.7913669E-01;  4.0000000E+04;  0.0000000E+00;  4.0001902E+04; -2.2815658E-02;  0.0000000E+00;  1.4394500E-03;  3.8681198E+02;
  3.6183870E-01;  9.9999998E-03;  1.4996813E-01;4687;  2.0186685E-02;  0.0000000E+00;  9.6243207E-04;  9.9930511E+02;  1.0000000E-01; -5.7568738E+02;3; -5.7179604E+00;  0.0000000E+00;  1.3508933E+00;0; -2.2273624E-02;  3.9944527E+04;  0.0000000E+00; -2.1019103E-01;  4.0000000E+04;  0.0000000E+00;  4.0002680E+04; -2.3123514E-02;  0.0000000E+00;  8.4988953E-04;  5.0127939E+02;
  3.6180651E-01;  9.9999998E-03;  1.5997820E-01;4688;  1.9746777E-02;  0.0000000E+00;  9.4524107E-04;  9.9923718E+02;  1.0000000E-01; -6.3198206E+02;3; -5.5654349E+00;  0.0000000E+00;  1.4112929E+00;0; -2.3045268E-02;  3.9937578E+04;  0.0000000E+00; -2.1897174E-01;  4.0000000E+04;  0.0000000E+00;  4.0004113E+04; -2.3453154E-02;  0.0000000E+00;  4.0788532E-04;  6.6089819E+02;
  3.6177763E-01;  9.9999998E-03;  1.6998839E-01;4689;  1.9293068E-02;  0.0000000E+00;  9.2763972E-04;  9.9914307E+02;  1.0000000E-01; -7.0995520E+02;3; -5.4188623E+00;  0.0000000E+00;  1.4660158E+00;0; -2.3649594E-02;  3.9928680E+04;  0.0000000E+00; -1.9917189E-01;  4.0000000E+04;  0.0000000E+00;  4.0005957E+04; -2.3764819E-02;  0.0000000E+00;  1.1522582E-04;  8.6572266E+02;
  3.6176389E-01;  9.9999998E-03;  1.7999555E-01;4690;  1.8827472E-02;  0.0000000E+00;  9.1069733E-04;  9.9903357E+02;  1.0000000E-01; -8.0066864E+02;3; -5.2801604E+00;  0.0000000E+00;  1.5198735E+00;0; -2.4067823E-02;  3.9917648E+04;  0.0000000E+00; -1.4917390E-01;  4.0000000E+04;  0.0000000E+00;  4.0008082E+04; -2.4026886E-02;  0.0000000E+00; -4.0936466E-05;  1.1054287E+03;
  3.6176592E-01;  9.9999998E-03;  1.9000088E-01;4691;  1.8350719E-02;  0.0000000E+00;  8.9388859E-04;  9.9889972E+02;  1.0000000E-01; -9.1157910E+02;3; -5.1481676E+00;  0.0000000E+00;  1.5716153E+00;0; -2.4304621E-02;  3.9905102E+04;  0.0000000E+00; -7.2788447E-02;  4.0000000E+04;  0.0000000E+00;  4.0010094E+04; -2.4217736E-02;  0.0000000E+00; -8.6884764E-05;  1.3582939E+03;
  3.6178029E-01;  9.9999998E-03;  2.0000637E-01;4692;  1.7862517E-02;  0.0000000E+00;  8.7562576E-04;  9.9874988E+02;  1.0000000E-01; -1.0357238E+03;3; -5.0242968E+00;  0.0000000E+00;  1.6169878E+00;0; -2.4389308E-02;  3.9891645E+04;  0.0000000E+00;  2.1536887E-02;  4.0000000E+04;  0.0000000E+00;  4.0011941E+04; -2.4330836E-02;  0.0000000E+00; -5.8471589E-05;  1.5825880E+03;
  3.6180001E-01;  9.9999998E-03;  2.1001218E-01;4693;  1.7362677E-02;  0.0000000E+00;  8.5175451E-04;  9.9859064E+02;  1.0000000E-01; -1.1676212E+03;3; -4.9037628E+00;  0.0000000E+00;  1.6620895E+00;0; -2.4378149E-02;  3.9877898E+04;  0.0000000E+00;  1.2241004E-01;  4.0000000E+04;  0.0000000E+00;  4.0012629E+04; -2.4373112E-02;  0.0000000E+00; -5.0365034E-06;  1.7127136E+03;
  3.6181340E-01;  9.9999998E-03;  2.2001398E-01;4694;  1.6850224E-02;  0.0000000E+00;  8.1091828E-04;  9.9841730E+02;  1.0000000E-01; -1.3112220E+03;3; -4.7963734E+00;  0.0000000E+00;  1.6980249E+00;0; -2.4373509E-02;  3.9864375E+04;  0.0000000E+00;  2.1716803E-01;  4.0000000E+04;  0.0000000E+00;  4.0012617E+04; -2.4360579E-02;  0.0000000E+00; -1.2931116E-05;  1.7321593E+03;
  3.6181092E-01;  9.9999998E-03;  2.3000693E-01;4695;  1.6325327E-02;  0.0000000E+00;  7.5055414E-04;  9.9826251E+02;  1.0000000E-01; -1.4394653E+03;3; -4.6957536E+00;  0.0000000E+00;  1.7315404E+00;0; -2.4532134E-02;  3.9851840E+04;  0.0000000E+00;  2.9351041E-01;  4.0000000E+04;  0.0000000E+00;  4.0012668E+04; -2.4314748E-02;  0.0000000E+00; -2.1738479E-04;  1.7865079E+03;
  3.7191796E-01;  9.9999998E-03;  6.9981344E-02;4740;  2.2370517E-02;  0.0000000E+00;  1.2018778E-03;  9.9946985E+02;  1.0000000E-01; -4.3919742E+02;3; -6.9991355E+00;  0.0000000E+00;  7.1959507E-01;0; -1.8587351E-02;  3.9951453E+04;  0.0000000E+00;  5.3139202E-02;  4.0000000E+04;  0.0000000E+00;  4.0008090E+04; -3.0507570E-02;  0.0000000E+00;  1.1920220E-02;  1.0699299E+03;
  3.7190381E-01;  9.9999998E-03;  7.9977922E-02;4741;  2.2210825E-02;  0.0000000E+00;  1.3007296E-03;  9.9945856E+02;  1.0000000E-01; -4.4857986E+02;3; -6.8559308E+00;  0.0000000E+00;  8.0783087E-01;0; -1.9015966E-02;  3.9951578E+04;  0.0000000E+00;  5.5564445E-02;  4.0000000E+04;  0.0000000E+00;  4.0007164E+04; -2.9678531E-02;  0.0000000E+00;  1.0662565E-02;  9.5569318E+02;
  3.7189126E-01;  9.9999998E-03;  8.9974500E-02;4742;  2.2007916E-02;  0.0000000E+00;  1.3787884E-03;  9.9944989E+02;  1.0000000E-01; -4.5574017E+02;3; -6.7030115E+00;  0.0000000E+00;  8.9139968E-01;0; -1.9557305E-02;  3.9951953E+04;  0.0000000E+00;  4.9801886E-02;  4.0000000E+04;  0.0000000E+00;  4.0006238E+04; -2.8928898E-02;  0.0000000E+00;  9.3715936E-03;  8.1941553E+02;
  3.7188116E-01;  9.9999998E-03;  9.9970967E-02;4743;  2.1761151E-02;  0.0000000E+00;  1.4367844E-03;  9.9944196E+02;  1.0000000E-01; -4.6230789E+02;3; -6.5441203E+00;  0.0000000E+00;  9.7619689E-01;0; -2.0201646E-02;  3.9952512E+04;  0.0000000E+00;  3.3865679E-02;  4.0000000E+04;  0.0000000E+00;  4.0005086E+04; -2.8287396E-02;  0.0000000E+00;  8.0857491E-03;  6.7512085E+02;
  3.7187222E-01;  9.9999998E-03;  1.0996728E-01;4744;  2.1471888E-02;  0.0000000E+00;  1.4772305E-03;  9.9943457E+02;  1.0000000E-01; -4.6843115E+02;3; -6.3771806E+00;  0.0000000E+00;  1.0662711E+00;0; -2.0927727E-02;  3.9952895E+04;  0.0000000E+00;  7.0909299E-03;  4.0000000E+04;  0.0000000E+00;  4.0004008E+04; -2.7768308E-02;  0.0000000E+00;  6.8405801E-03;  5.4101459E+02;
  3.7186351E-01;  9.9999998E-03;  1.1996379E-01;4745;  2.1143002E-02;  0.0000000E+00;  1.5017134E-03;  9.9941919E+02;  1.0000000E-01; -4.8117154E+02;3; -6.2113590E+00;  0.0000000E+00;  1.1524774E+00;0; -2.1704409E-02;  3.9952672E+04;  0.0000000E+00; -2.9249856E-02;  4.0000000E+04;  0.0000000E+00;  4.0002988E+04; -2.7372902E-02;  0.0000000E+00;  5.6684939E-03;  4.3887677E+02;
  3.7185463E-01;  9.9999998E-03;  1.2996082E-01;4746;  2.0779107E-02;  0.0000000E+00;  1.5132837E-03;  9.9939648E+02;  1.0000000E-01; -4.9998581E+02;3; -6.0479231E+00;  0.0000000E+00;  1.2213634E+00;0; -2.2491625E-02;  3.9951320E+04;  0.0000000E+00; -7.1485236E-02;  4.0000000E+04;  0.0000000E+00;  4.0002527E+04; -2.7090417E-02;  0.0000000E+00;  4.5987931E-03;  3.9100507E+02;
  3.7184602E-01;  9.9999998E-03;  1.3995896E-01;4747;  2.0385055E-02;  0.0000000E+00;  1.5165402E-03;  9.9935767E+02;  1.0000000E-01; -5.3218243E+02;3; -5.8876419E+00;  0.0000000E+00;  1.2832394E+00;0; -2.3241784E-02;  3.9948402E+04;  0.0000000E+00; -1.1343520E-01;  4.0000000E+04;  0.0000000E+00;  4.0002617E+04; -2.6900489E-02;  0.0000000E+00;  3.6587038E-03;  4.0898721E+02;
  3.7183514E-01;  9.9999998E-03;  1.4995910E-01;4748;  1.9966215E-02;  0.0000000E+00;  1.5138641E-03;  9.9930969E+02;  1.0000000E-01; -5.7188501E+02;3; -5.7344060E+00;  0.0000000E+00;  1.3335806E+00;0; -2.3902044E-02;  3.9943957E+04;  0.0000000E+00; -1.4695442E-01;  4.0000000E+04;  0.0000000E+00;  4.0003215E+04; -2.6774684E-02;  0.0000000E+00;  2.8726393E-03;  4.8724292E+02;
  3.7182000E-01;  9.9999998E-03;  1.5996294E-01;4749;  1.9527568E-02;  0.0000000E+00;  1.5076877E-03;  9.9923969E+02;  1.0000000E-01; -6.2990808E+02;3; -5.5841527E+00;  0.0000000E+00;  1.3834444E+00;0; -2.4424484E-02;  3.9937512E+04;  0.0000000E+00; -1.6360532E-01;  4.0000000E+04;  0.0000000E+00;  4.0004156E+04; -2.6682485E-02;  0.0000000E+00;  2.2580004E-03;  6.1915479E+02;
  3.7180048E-01;  9.9999998E-03;  1.6997157E-01;4750;  1.9073006E-02;  0.0000000E+00;  1.4997680E-03;  9.9915247E+02;  1.0000000E-01; -7.0215295E+02;3; -5.4398270E+00;  0.0000000E+00;  1.4331300E+00;0; -2.4777098E-02;  3.9929340E+04;  0.0000000E+00; -1.5713927E-01;  4.0000000E+04;  0.0000000E+00;  4.0005680E+04; -2.6595876E-02;  0.0000000E+00;  1.8187787E-03;  8.0367938E+02;
  3.7178174E-01;  9.9999998E-03;  1.7998220E-01;4751;  1.8605750E-02;  0.0000000E+00;  1.4908236E-03;  9.9905353E+02;  1.0000000E-01; -7.8412592E+02;3; -5.3023190E+00;  0.0000000E+00;  1.4786229E+00;0; -2.4949972E-02;  3.9919215E+04;  0.0000000E+00; -1.2546700E-01;  4.0000000E+04;  0.0000000E+00;  4.0007578E+04; -2.6494062E-02;  0.0000000E+00;  1.5440891E-03;  1.0322263E+03;
  3.7177017E-01;  9.9999998E-03;  1.8999192E-01;4752;  1.8127469E-02;  0.0000000E+00;  1.4813844E-03;  9.9893781E+02;  1.0000000E-01; -8.8002441E+02;3; -5.1702194E+00;  0.0000000E+00;  1.5221033E+00;0; -2.4956252E-02;  3.9907996E+04;  0.0000000E+00; -7.1207836E-02;  4.0000000E+04;  0.0000000E+00;  4.0009559E+04; -2.6365375E-02;  0.0000000E+00;  1.4091227E-03;  1.2815704E+03;
  3.7176636E-01;  9.9999998E-03;  2.0000081E-01;4753;  1.7638635E-02;  0.0000000E+00;  1.4708564E-03;  9.9880457E+02;  1.0000000E-01; -9.9039166E+02;3; -5.0433435E+00;  0.0000000E+00;  1.5665526E+00;0; -2.4830326E-02;  3.9895570E+04;  0.0000000E+00; -1.0004831E-03;  4.0000000E+04;  0.0000000E+00;  4.0011270E+04; -2.6207106E-02;  0.0000000E+00;  1.3767797E-03;  1.5079714E+03;
  3.7176692E-01;  9.9999998E-03;  2.1000852E-01;4754;  1.7138412E-02;  0.0000000E+00;  1.4550434E-03;  9.9865631E+02;  1.0000000E-01; -1.1132030E+03;3; -4.9242444E+00;  0.0000000E+00;  1.6105925E+00;0; -2.4630791E-02;  3.9882824E+04;  0.0000000E+00;  7.5954847E-02;  4.0000000E+04;  0.0000000E+00;  4.0012402E+04; -2.6025681E-02;  0.0000000E+00;  1.3948902E-03;  1.6491577E+03;
  3.7176490E-01;  9.9999998E-03;  2.2001165E-01;4755;  1.6625574E-02;  0.0000000E+00;  1.4245906E-03;  9.9849292E+02;  1.0000000E-01; -1.2486066E+03;3; -4.8165984E+00;  0.0000000E+00;  1.6510295E+00;0; -2.4457127E-02;  3.9869535E+04;  0.0000000E+00;  1.4928328E-01;  4.0000000E+04;  0.0000000E+00;  4.0012246E+04; -2.5833588E-02;  0.0000000E+00;  1.3764622E-03;  1.6846019E+03;
  3.7175453E-01;  9.9999998E-03;  2.3000646E-01;4756;  1.6098320E-02;  0.0000000E+00;  1.3745402E-03;  9.9833582E+02;  1.0000000E-01; -1.3787263E+03;3; -4.7199306E+00;  0.0000000E+00;  1.6854367E+00;0; -2.4466215E-02;  3.9856742E+04;  0.0000000E+00;  2.0887506E-01;  4.0000000E+04;  0.0000000E+00;  4.0012531E+04; -2.5645984E-02;  0.0000000E+00;  1.1797705E-03;  1.7329561E+03;
  3.8189855E-01;  9.9999998E-03;  6.9987006E-02;4801;  2.2029728E-02;  0.0000000E+00;  1.4948326E-03;  9.9957245E+02;  1.0000000E-01; -3.5421219E+02;3; -7.0063438E+00;  0.0000000E+00;  6.8093163E-01;0; -1.9784885E-02;  3.9958957E+04;  0.0000000E+00;  6.0527485E-02;  4.0000000E+04;  0.0000000E+00;  4.0008426E+04; -3.5472862E-02;  0.0000000E+00;  1.5687978E-02;  1.0916451E+03;
  3.8188782E-01;  9.9999998E-03;  7.9983905E-02;4802;  2.1882249E-02;  0.0000000E+00;  1.6479213E-03;  9.9953510E+02;  1.0000000E-01; -3.8517426E+02;3; -6.8602500E+00;  0.0000000E+00;  7.7142048E-01;0; -2.0342644E-02;  3.9956730E+04;  0.0000000E+00;  6.9317006E-02;  4.0000000E+04;  0.0000000E+00;  4.0007828E+04; -3.4626495E-02;  0.0000000E+00;  1.4283850E-02;  1.0249388E+03;
  3.8187698E-01;  9.9999998E-03;  8.9981087E-02;4803;  2.1692790E-02;  0.0000000E+00;  1.7768975E-03;  9.9950568E+02;  1.0000000E-01; -4.0951926E+02;3; -6.7053151E+00;  0.0000000E+00;  8.6839706E-01;0; -2.0979585E-02;  3.9955141E+04;  0.0000000E+00;  7.2130077E-02;  4.0000000E+04;  0.0000000E+00;  4.0006969E+04; -3.3796873E-02;  0.0000000E+00;  1.2817288E-02;  9.3194812E+02;
  3.8186720E-01;  9.9999998E-03;  9.9977970E-02;4804;  2.1460118E-02;  0.0000000E+00;  1.8794925E-03;  9.9947577E+02;  1.0000000E-01; -4.3430869E+02;3; -6.5452399E+00;  0.0000000E+00;  9.5896298E-01;0; -2.1676667E-02;  3.9953609E+04;  0.0000000E+00;  6.6593893E-02;  4.0000000E+04;  0.0000000E+00;  4.0006324E+04; -3.3008058E-02;  0.0000000E+00;  1.1331391E-02;  8.2258679E+02;
  3.8185772E-01;  9.9999998E-03;  1.0997415E-01;4805;  2.1184999E-02;  0.0000000E+00;  1.9592047E-03;  9.9944641E+02;  1.0000000E-01; -4.5865366E+02;3; -6.3820672E+00;  0.0000000E+00;  1.0378411E+00;0; -2.2407349E-02;  3.9952164E+04;  0.0000000E+00;  5.1248256E-02;  4.0000000E+04;  0.0000000E+00;  4.0005250E+04; -3.2275751E-02;  0.0000000E+00;  9.8684020E-03;  7.1046332E+02;
  3.8184914E-01;  9.9999998E-03;  1.1996964E-01;4806;  2.0869788E-02;  0.0000000E+00;  2.0178899E-03;  9.9941626E+02;  1.0000000E-01; -4.8364059E+02;3; -6.2133703E+00;  0.0000000E+00;  1.1202844E+00;0; -2.3139324E-02;  3.9950352E+04;  0.0000000E+00;  2.6217410E-02;  4.0000000E+04;  0.0000000E+00;  4.0004461E+04; -3.1608477E-02;  0.0000000E+00;  8.4691523E-03;  6.1155615E+02;
  3.8184199E-01;  9.9999998E-03;  1.2996514E-01;4807;  2.0517599E-02;  0.0000000E+00;  2.0590208E-03;  9.9937750E+02;  1.0000000E-01; -5.1573846E+02;3; -6.0452986E+00;  0.0000000E+00;  1.2020092E+00;0; -2.3835629E-02;  3.9947855E+04;  0.0000000E+00; -6.2580090E-03;  4.0000000E+04;  0.0000000E+00;  4.0003918E+04; -3.1007366E-02;  0.0000000E+00;  7.1717361E-03;  5.4371570E+02;
  3.8183540E-01;  9.9999998E-03;  1.3996129E-01;4808;  2.0133073E-02;  0.0000000E+00;  2.0835989E-03;  9.9933063E+02;  1.0000000E-01; -5.5455219E+02;3; -5.8852620E+00;  0.0000000E+00;  1.2704954E+00;0; -2.4455063E-02;  3.9944516E+04;  0.0000000E+00; -4.1577447E-02;  4.0000000E+04;  0.0000000E+00;  4.0003855E+04; -3.0466607E-02;  0.0000000E+00;  6.0115447E-03;  5.2387061E+02;
  3.8182968E-01;  9.9999998E-03;  1.4995866E-01;4809;  1.9721137E-02;  0.0000000E+00;  2.0974700E-03;  9.9927271E+02;  1.0000000E-01; -6.0255084E+02;3; -5.7293205E+00;  0.0000000E+00;  1.3384211E+00;0; -2.4954390E-02;  3.9939684E+04;  0.0000000E+00; -7.3056668E-02;  4.0000000E+04;  0.0000000E+00;  4.0003781E+04; -2.9975701E-02;  0.0000000E+00;  5.0213109E-03;  5.6244232E+02;
  3.8182521E-01;  9.9999998E-03;  1.5995830E-01;4810;  1.9286675E-02;  0.0000000E+00;  2.1027271E-03;  9.9920374E+02;  1.0000000E-01; -6.5968500E+02;3; -5.5799727E+00;  0.0000000E+00;  1.3898414E+00;0; -2.5295814E-02;  3.9933480E+04;  0.0000000E+00; -9.3377955E-02;  4.0000000E+04;  0.0000000E+00;  4.0004594E+04; -2.9520959E-02;  0.0000000E+00;  4.2251446E-03;  6.6249890E+02;
  3.8181818E-01;  9.9999998E-03;  1.6996150E-01;4811;  1.8834230E-02;  0.0000000E+00;  2.1032011E-03;  9.9912225E+02;  1.0000000E-01; -7.2718927E+02;3; -5.4379859E+00;  0.0000000E+00;  1.4376036E+00;0; -2.5456883E-02;  3.9925547E+04;  0.0000000E+00; -9.6952312E-02;  4.0000000E+04;  0.0000000E+00;  4.0005973E+04; -2.9087620E-02;  0.0000000E+00;  3.6307371E-03;  8.2462836E+02;
  3.8180536E-01;  9.9999998E-03;  1.7996888E-01;4812;  1.8367456E-02;  0.0000000E+00;  2.1010984E-03;  9.9902399E+02;  1.0000000E-01; -8.0861902E+02;3; -5.3046575E+00;  0.0000000E+00;  1.4763302E+00;0; -2.5436783E-02;  3.9916164E+04;  0.0000000E+00; -8.1651211E-02;  4.0000000E+04;  0.0000000E+00;  4.0007688E+04; -2.8664786E-02;  0.0000000E+00;  3.2280029E-03;  1.0435280E+03;
  3.8179007E-01;  9.9999998E-03;  1.8997899E-01;4813;  1.7889129E-02;  0.0000000E+00;  2.0982281E-03;  9.9891553E+02;  1.0000000E-01; -8.9844366E+02;3; -5.1775203E+00;  0.0000000E+00;  1.5151317E+00;0; -2.5256757E-02;  3.9905480E+04;  0.0000000E+00; -4.9160618E-02;  4.0000000E+04;  0.0000000E+00;  4.0009527E+04; -2.8248681E-02;  0.0000000E+00;  2.9919248E-03;  1.2958286E+03;
  3.8177541E-01;  9.9999998E-03;  1.9998969E-01;4814;  1.7400598E-02;  0.0000000E+00;  2.0954963E-03;  9.9879462E+02;  1.0000000E-01; -9.9863837E+02;3; -5.0520110E+00;  0.0000000E+00;  1.5605222E+00;0; -2.4956673E-02;  3.9893922E+04;  0.0000000E+00; -4.4020764E-03;  4.0000000E+04;  0.0000000E+00;  4.0011340E+04; -2.7841274E-02;  0.0000000E+00;  2.8846003E-03;  1.5360560E+03;
  3.8176051E-01;  9.9999998E-03;  2.0999895E-01;4815;  1.6901273E-02;  0.0000000E+00;  2.0898876E-03;  9.9865601E+02;  1.0000000E-01; -1.1134500E+03;3; -4.9334517E+00;  0.0000000E+00;  1.6047829E+00;0; -2.4595264E-02;  3.9881496E+04;  0.0000000E+00;  4.5602731E-02;  4.0000000E+04;  0.0000000E+00;  4.0012668E+04; -2.7448626E-02;  0.0000000E+00;  2.8533614E-03;  1.7047311E+03;
  3.8174286E-01;  9.9999998E-03;  2.2000355E-01;4816;  1.6388502E-02;  0.0000000E+00;  2.0723806E-03;  9.9850177E+02;  1.0000000E-01; -1.2412488E+03;3; -4.8298607E+00;  0.0000000E+00;  1.6357561E+00;0; -2.4266871E-02;  3.9868434E+04;  0.0000000E+00;  9.2977472E-02;  4.0000000E+04;  0.0000000E+00;  4.0013117E+04; -2.7079850E-02;  0.0000000E+00;  2.8129802E-03;  1.7790171E+03;
  3.8171932E-01;  9.9999998E-03;  2.3000006E-01;4817;  1.5859254E-02;  0.0000000E+00;  2.0400530E-03;  9.9834595E+02;  1.0000000E-01; -1.3703315E+03;3; -4.7391639E+00;  0.0000000E+00;  1.6543425E+00;0; -2.4111511E-02;  3.9855543E+04;  0.0000000E+00;  1.3015701E-01;  4.0000000E+04;  0.0000000E+00;  4.0013691E+04; -2.6744550E-02;  0.0000000E+00;  2.6330387E-03;  1.8653031E+03;
  3.9187786E-01;  9.9999998E-03;  6.9994181E-02;4862;  2.1659022E-02;  0.0000000E+00;  1.7844660E-03;  9.9958899E+02;  1.0000000E-01; -3.4053354E+02;3; -7.0215244E+00;  0.0000000E+00;  6.3643551E-01;0; -2.0193120E-02;  3.9960094E+04;  0.0000000E+00;  6.6303246E-02;  4.0000000E+04;  0.0000000E+00;  4.0008316E+04; -3.9752584E-02;  0.0000000E+00;  1.9559463E-02;  1.0869139E+03;
  3.9187405E-01;  9.9999998E-03;  7.9991326E-02;4863;  2.1520356E-02;  0.0000000E+00;  1.9933486E-03;  9.9954279E+02;  1.0000000E-01; -3.7880408E+02;3; -6.8648062E+00;  0.0000000E+00;  7.4168175E-01;0; -2.0901896E-02;  3.9956680E+04;  0.0000000E+00;  7.9902358E-02;  4.0000000E+04;  0.0000000E+00;  4.0008000E+04; -3.8914248E-02;  0.0000000E+00;  1.8012352E-02;  1.0676869E+03;
  3.9186826E-01;  9.9999998E-03;  8.9988917E-02;4864;  2.1341680E-02;  0.0000000E+00;  2.1756082E-03;  9.9949866E+02;  1.0000000E-01; -4.1534625E+02;3; -6.7059336E+00;  0.0000000E+00;  8.3820772E-01;0; -2.1666396E-02;  3.9953414E+04;  0.0000000E+00;  8.9689948E-02;  4.0000000E+04;  0.0000000E+00;  4.0007621E+04; -3.8040597E-02;  0.0000000E+00;  1.6374201E-02;  1.0210907E+03;
  3.9186069E-01;  9.9999998E-03;  9.9986300E-02;4865;  2.1121573E-02;  0.0000000E+00;  2.3289865E-03;  9.9945740E+02;  1.0000000E-01; -4.4951813E+02;3; -6.5429068E+00;  0.0000000E+00;  9.2917818E-01;0; -2.2458812E-02;  3.9950453E+04;  0.0000000E+00;  9.3271405E-02;  4.0000000E+04;  0.0000000E+00;  4.0007254E+04; -3.7150659E-02;  0.0000000E+00;  1.4691846E-02;  9.5375360E+02;
  3.9185208E-01;  9.9999998E-03;  1.0998283E-01;4866;  2.0859824E-02;  0.0000000E+00;  2.4524915E-03;  9.9941266E+02;  1.0000000E-01; -4.8660349E+02;3; -6.3766475E+00;  0.0000000E+00;  1.0268230E+00;0; -2.3246929E-02;  3.9947469E+04;  0.0000000E+00;  8.8713564E-02;  4.0000000E+04;  0.0000000E+00;  4.0006684E+04; -3.6261015E-02;  0.0000000E+00;  1.3014086E-02;  8.7535272E+02;
  3.9184347E-01;  9.9999998E-03;  1.1997846E-01;4867;  2.0558039E-02;  0.0000000E+00;  2.5471507E-03;  9.9936792E+02;  1.0000000E-01; -5.2368884E+02;3; -6.2096815E+00;  0.0000000E+00;  1.1075654E+00;0; -2.3995772E-02;  3.9944629E+04;  0.0000000E+00;  7.5183570E-02;  4.0000000E+04;  0.0000000E+00;  4.0005789E+04; -3.5385050E-02;  0.0000000E+00;  1.1389277E-02;  7.9809424E+02;
  3.9183545E-01;  9.9999998E-03;  1.2997349E-01;4868;  2.0219110E-02;  0.0000000E+00;  2.6175196E-03;  9.9931769E+02;  1.0000000E-01; -5.6526794E+02;3; -6.0435920E+00;  0.0000000E+00;  1.1828772E+00;0; -2.4668608E-02;  3.9941184E+04;  0.0000000E+00;  5.3521167E-02;  4.0000000E+04;  0.0000000E+00;  4.0005332E+04; -3.4532309E-02;  0.0000000E+00;  9.8636998E-03;  7.3610687E+02;
  3.9182884E-01;  9.9999998E-03;  1.3996863E-01;4869;  1.9846447E-02;  0.0000000E+00;  2.6681689E-03;  9.9926379E+02;  1.0000000E-01; -6.0990863E+02;3; -5.8802333E+00;  0.0000000E+00;  1.2536076E+00;0; -2.5227092E-02;  3.9937105E+04;  0.0000000E+00;  2.6624287E-02;  4.0000000E+04;  0.0000000E+00;  4.0005156E+04; -3.3708274E-02;  0.0000000E+00;  8.4811822E-03;  7.0494910E+02;
  3.9182541E-01;  9.9999998E-03;  1.4996466E-01;4870;  1.9444458E-02;  0.0000000E+00;  2.7012960E-03;  9.9920056E+02;  1.0000000E-01; -6.6230219E+02;3; -5.7241626E+00;  0.0000000E+00;  1.3167740E+00;0; -2.5633212E-02;  3.9931949E+04;  0.0000000E+00; -6.1042816E-04;  4.0000000E+04;  0.0000000E+00;  4.0005320E+04; -3.2915119E-02;  0.0000000E+00;  7.2819078E-03;  7.1954639E+02;
  3.9182347E-01;  9.9999998E-03;  1.5996233E-01;4871;  1.9017760E-02;  0.0000000E+00;  2.7221607E-03;  9.9913177E+02;  1.0000000E-01; -7.1928827E+02;3; -5.5724597E+00;  0.0000000E+00;  1.3762598E+00;0; -2.5855716E-02;  3.9925820E+04;  0.0000000E+00; -2.2462927E-02;  4.0000000E+04;  0.0000000E+00;  4.0005629E+04; -3.2151356E-02;  0.0000000E+00;  6.2956400E-03;  7.9104730E+02;
  3.9181936E-01;  9.9999998E-03;  1.6996232E-01;4872;  1.8570693E-02;  0.0000000E+00;  2.7336327E-03;  9.9904633E+02;  1.0000000E-01; -7.9010107E+02;3; -5.4315758E+00;  0.0000000E+00;  1.4220141E+00;0; -2.5880052E-02;  3.9918031E+04;  0.0000000E+00; -3.4359653E-02;  4.0000000E+04;  0.0000000E+00;  4.0006871E+04; -3.1415004E-02;  0.0000000E+00;  5.5349525E-03;  9.2600995E+02;
  3.9181304E-01;  9.9999998E-03;  1.7996520E-01;4873;  1.8107336E-02;  0.0000000E+00;  2.7399140E-03;  9.9895142E+02;  1.0000000E-01; -8.6871613E+02;3; -5.2977762E+00;  0.0000000E+00;  1.4679468E+00;0; -2.5713760E-02;  3.9909176E+04;  0.0000000E+00; -3.4213278E-02;  4.0000000E+04;  0.0000000E+00;  4.0008211E+04; -3.0706596E-02;  0.0000000E+00;  4.9928348E-03;  1.1241625E+03;
  3.9180255E-01;  9.9999998E-03;  1.8997087E-01;4874;  1.7631011E-02;  0.0000000E+00;  2.7451257E-03;  9.9884882E+02;  1.0000000E-01; -9.5375073E+02;3; -5.1693029E+00;  0.0000000E+00;  1.5162716E+00;0; -2.5385017E-02;  3.9898828E+04;  0.0000000E+00; -2.2767579E-02;  4.0000000E+04;  0.0000000E+00;  4.0010223E+04; -3.0028535E-02;  0.0000000E+00;  4.6435189E-03;  1.3713618E+03;
  3.9178720E-01;  9.9999998E-03;  1.9997849E-01;4875;  1.7143870E-02;  0.0000000E+00;  2.7518305E-03;  9.9873267E+02;  1.0000000E-01; -1.0499456E+03;3; -5.0465140E+00;  0.0000000E+00;  1.5658875E+00;0; -2.4937972E-02;  3.9887547E+04;  0.0000000E+00; -3.1590557E-03;  4.0000000E+04;  0.0000000E+00;  4.0012203E+04; -2.9385889E-02;  0.0000000E+00;  4.4479156E-03;  1.6311478E+03;
  3.9176813E-01;  9.9999998E-03;  2.0998599E-01;4876;  1.6645791E-02;  0.0000000E+00;  2.7598869E-03;  9.9860284E+02;  1.0000000E-01; -1.1574980E+03;3; -4.9307184E+00;  0.0000000E+00;  1.6171106E+00;0; -2.4430076E-02;  3.9875422E+04;  0.0000000E+00;  1.9956447E-02;  4.0000000E+04;  0.0000000E+00;  4.0013840E+04; -2.8785568E-02;  0.0000000E+00;  4.3554921E-03;  1.8518354E+03;
  3.9174533E-01;  9.9999998E-03;  2.1999004E-01;4877;  1.6133908E-02;  0.0000000E+00;  2.7639745E-03;  9.9846198E+02;  1.0000000E-01; -1.2742355E+03;3; -4.8262920E+00;  0.0000000E+00;  1.6644692E+00;0; -2.3941301E-02;  3.9862770E+04;  0.0000000E+00;  4.1305393E-02;  4.0000000E+04;  0.0000000E+00;  4.0014977E+04; -2.8234463E-02;  0.0000000E+00;  4.2931614E-03;  2.0120376E+03;
  3.9171755E-01;  9.9999998E-03;  2.2998783E-01;4878;  1.5604147E-02;  0.0000000E+00;  2.7652499E-03;  9.9831604E+02;  1.0000000E-01; -1.3951210E+03;3; -4.7335558E+00;  0.0000000E+00;  1.7043942E+00;0; -2.3571609E-02;  3.9849473E+04;  0.0000000E+00;  5.5902839E-02;  4.0000000E+04;  0.0000000E+00;  4.0016461E+04; -2.7738210E-02;  0.0000000E+00;  4.1666008E-03;  2.1899246E+03;
  4.0186071E-01;  9.9999998E-03;  7.0000954E-02;4923;  2.1252776E-02;  0.0000000E+00;  2.0718602E-03;  9.9953137E+02;  1.0000000E-01; -3.8823590E+02;3; -7.0284457E+00;  0.0000000E+00;  5.8919919E-01;0; -2.0146849E-02;  3.9955203E+04;  0.0000000E+00;  7.1033202E-02;  4.0000000E+04;  0.0000000E+00;  4.0008031E+04; -4.3653514E-02;  0.0000000E+00;  2.3506666E-02;  1.0654025E+03;
  4.0186393E-01;  9.9999998E-03;  7.9998679E-02;4924;  2.1119302E-02;  0.0000000E+00;  2.3377845E-03;  9.9948206E+02;  1.0000000E-01; -4.2912363E+02;3; -6.8696790E+00;  0.0000000E+00;  7.0517153E-01;0; -2.1006770E-02;  3.9951422E+04;  0.0000000E+00;  8.7962627E-02;  4.0000000E+04;  0.0000000E+00;  4.0008414E+04; -4.2823683E-02;  0.0000000E+00;  2.1816913E-02;  1.0894681E+03;
  4.0186375E-01;  9.9999998E-03;  8.9996681E-02;4925;  2.0949053E-02;  0.0000000E+00;  2.5739118E-03;  9.9943713E+02;  1.0000000E-01; -4.6630777E+02;3; -6.7038484E+00;  0.0000000E+00;  8.0874425E-01;0; -2.1908000E-02;  3.9947348E+04;  0.0000000E+00;  1.0279400E-01;  4.0000000E+04;  0.0000000E+00;  4.0008352E+04; -4.1917920E-02;  0.0000000E+00;  2.0009920E-02;  1.0876089E+03;
  4.0185955E-01;  9.9999998E-03;  9.9994637E-02;4926;  2.0739421E-02;  0.0000000E+00;  2.7778894E-03;  9.9938367E+02;  1.0000000E-01; -5.1060281E+02;3; -6.5388131E+00;  0.0000000E+00;  9.0667230E-01;0; -2.2815073E-02;  3.9943621E+04;  0.0000000E+00;  1.1332957E-01;  4.0000000E+04;  0.0000000E+00;  4.0007926E+04; -4.0950861E-02;  0.0000000E+00;  1.8135788E-02;  1.0635062E+03;
  4.0185222E-01;  9.9999998E-03;  1.0999199E-01;4927;  2.0490546E-02;  0.0000000E+00;  2.9471759E-03;  9.9933289E+02;  1.0000000E-01; -5.5267566E+02;3; -6.3704157E+00;  0.0000000E+00;  9.9702132E-01;0; -2.3689948E-02;  3.9939910E+04;  0.0000000E+00;  1.1747876E-01;  4.0000000E+04;  0.0000000E+00;  4.0007621E+04; -3.9938521E-02;  0.0000000E+00;  1.6248573E-02;  1.0236464E+03;
  4.0184304E-01;  9.9999998E-03;  1.1998841E-01;4928;  2.0202721E-02;  0.0000000E+00;  3.0830854E-03;  9.9928339E+02;  1.0000000E-01; -5.9371155E+02;3; -6.2006125E+00;  0.0000000E+00;  1.0914927E+00;0; -2.4493616E-02;  3.9936055E+04;  0.0000000E+00;  1.1374512E-01;  4.0000000E+04;  0.0000000E+00;  4.0007133E+04; -3.8896784E-02;  0.0000000E+00;  1.4403168E-02;  9.7694232E+02;
  4.0183321E-01;  9.9999998E-03;  1.2998411E-01;4929;  1.9877961E-02;  0.0000000E+00;  3.1867896E-03;  9.9922821E+02;  1.0000000E-01; -6.3938928E+02;3; -6.0322104E+00;  0.0000000E+00;  1.1763815E+00;0; -2.5187317E-02;  3.9931961E+04;  0.0000000E+00;  1.0176937E-01;  4.0000000E+04;  0.0000000E+00;  4.0006832E+04; -3.7840389E-02;  0.0000000E+00;  1.2653072E-02;  9.3453809E+02;
  4.0182555E-01;  9.9999998E-03;  1.3997951E-01;4930;  1.9519290E-02;  0.0000000E+00;  3.2634493E-03;  9.9916638E+02;  1.0000000E-01; -6.9064709E+02;3; -5.8675613E+00;  0.0000000E+00;  1.2486424E+00;0; -2.5733225E-02;  3.9927305E+04;  0.0000000E+00;  8.2809441E-02;  4.0000000E+04;  0.0000000E+00;  4.0006852E+04; -3.6782715E-02;  0.0000000E+00;  1.1049491E-02;  9.0983087E+02;
  4.0181962E-01;  9.9999998E-03;  1.4997526E-01;4931;  1.9130100E-02;  0.0000000E+00;  3.3193312E-03;  9.9910114E+02;  1.0000000E-01; -7.4467023E+02;3; -5.7077918E+00;  0.0000000E+00;  1.3159322E+00;0; -2.6095934E-02;  3.9921754E+04;  0.0000000E+00;  5.9870515E-02;  4.0000000E+04;  0.0000000E+00;  4.0006570E+04; -3.5734009E-02;  0.0000000E+00;  9.6380748E-03;  9.1772253E+02;
  4.0181392E-01;  9.9999998E-03;  1.5997200E-01;4932;  1.8714396E-02;  0.0000000E+00;  3.3571688E-03;  9.9902814E+02;  1.0000000E-01; -8.0516235E+02;3; -5.5566330E+00;  0.0000000E+00;  1.3753309E+00;0; -2.6248379E-02;  3.9915426E+04;  0.0000000E+00;  3.6905244E-02;  4.0000000E+04;  0.0000000E+00;  4.0007074E+04; -3.4702741E-02;  0.0000000E+00;  8.4543619E-03;  9.7168018E+02;
  4.0180960E-01;  9.9999998E-03;  1.6997039E-01;4933;  1.8276263E-02;  0.0000000E+00;  3.3832041E-03;  9.9894177E+02;  1.0000000E-01; -8.7671588E+02;3; -5.4124117E+00;  0.0000000E+00;  1.4308306E+00;0; -2.6180949E-02;  3.9907949E+04;  0.0000000E+00;  1.7408947E-02;  4.0000000E+04;  0.0000000E+00;  4.0007926E+04; -3.3697788E-02;  0.0000000E+00;  7.5168395E-03;  1.0814993E+03;
  4.0180451E-01;  9.9999998E-03;  1.7997065E-01;4934;  1.7819505E-02;  0.0000000E+00;  3.4011109E-03;  9.9884912E+02;  1.0000000E-01; -9.5350385E+02;3; -5.2791939E+00;  0.0000000E+00;  1.4776849E+00;0; -2.5906384E-02;  3.9899219E+04;  0.0000000E+00;  3.4496381E-03;  4.0000000E+04;  0.0000000E+00;  4.0009148E+04; -3.2727342E-02;  0.0000000E+00;  6.8209586E-03;  1.2504664E+03;
  4.0179721E-01;  9.9999998E-03;  1.8997265E-01;4935;  1.7347720E-02;  0.0000000E+00;  3.4163801E-03;  9.9874957E+02;  1.0000000E-01; -1.0359706E+03;3; -5.1523247E+00;  0.0000000E+00;  1.5280685E+00;0; -2.5458116E-02;  3.9889172E+04;  0.0000000E+00; -4.6611112E-03;  4.0000000E+04;  0.0000000E+00;  4.0010891E+04; -3.1799965E-02;  0.0000000E+00;  6.3418490E-03;  1.4713654E+03;
  4.0178606E-01;  9.9999998E-03;  1.9997576E-01;4936;  1.6863346E-02;  0.0000000E+00;  3.4335509E-03;  9.9863525E+02;  1.0000000E-01; -1.1306840E+03;3; -5.0318213E+00;  0.0000000E+00;  1.5810173E+00;0; -2.4884408E-02;  3.9878320E+04;  0.0000000E+00; -8.1556691E-03;  4.0000000E+04;  0.0000000E+00;  4.0012836E+04; -3.0924151E-02;  0.0000000E+00;  6.0397428E-03;  1.7231686E+03;
  4.0177053E-01;  9.9999998E-03;  2.0997865E-01;4937;  1.6367204E-02;  0.0000000E+00;  3.4563125E-03;  9.9851257E+02;  1.0000000E-01; -1.2323108E+03;3; -4.9185953E+00;  0.0000000E+00;  1.6365215E+00;0; -2.4241457E-02;  3.9866387E+04;  0.0000000E+00; -9.2845224E-03;  4.0000000E+04;  0.0000000E+00;  4.0014883E+04; -3.0107923E-02;  0.0000000E+00;  5.8664666E-03;  1.9763339E+03;
  4.0175036E-01;  9.9999998E-03;  2.1997893E-01;4938;  1.5857313E-02;  0.0000000E+00;  3.4870969E-03;  9.9838300E+02;  1.0000000E-01; -1.3396658E+03;3; -4.8153977E+00;  0.0000000E+00;  1.6961235E+00;0; -2.3588022E-02;  3.9853844E+04;  0.0000000E+00; -1.0710257E-02;  4.0000000E+04;  0.0000000E+00;  4.0016699E+04; -2.9357828E-02;  0.0000000E+00;  5.7698060E-03;  2.2292332E+03;
  4.0172431E-01;  9.9999998E-03;  2.2997485E-01;4939;  1.5330850E-02;  0.0000000E+00;  3.5427900E-03;  9.9825519E+02;  1.0000000E-01; -1.4455393E+03;3; -4.7191601E+00;  0.0000000E+00;  1.7615312E+00;0; -2.2935756E-02;  3.9840793E+04;  0.0000000E+00; -1.4874266E-02;  4.0000000E+04;  0.0000000E+00;  4.0019117E+04; -2.8678324E-02;  0.0000000E+00;  5.7425690E-03;  2.5508296E+03;
  4.1185537E-01;  9.9999998E-03;  7.0006259E-02;4984;  2.0805921E-02;  0.0000000E+00;  2.3621006E-03;  9.9942017E+02;  1.0000000E-01; -4.8038144E+02;3; -7.0254183E+00;  0.0000000E+00;  5.5194050E-01;0; -1.9921619E-02;  3.9946355E+04;  0.0000000E+00;  7.4200593E-02;  4.0000000E+04;  0.0000000E+00;  4.0007844E+04; -4.7427885E-02;  0.0000000E+00;  2.7506266E-02;  1.0378608E+03;
  4.1186228E-01;  9.9999998E-03;  8.0004819E-02;4985;  2.0674901E-02;  0.0000000E+00;  2.6826512E-03;  9.9937854E+02;  1.0000000E-01; -5.1484961E+02;3; -6.8692937E+00;  0.0000000E+00;  6.6730851E-01;0; -2.0918492E-02;  3.9942535E+04;  0.0000000E+00;  9.3095481E-02;  4.0000000E+04;  0.0000000E+00;  4.0008090E+04; -4.6588525E-02;  0.0000000E+00;  2.5670033E-02;  1.0972632E+03;
  4.1186443E-01;  9.9999998E-03;  9.0003416E-02;4986;  2.0510871E-02;  0.0000000E+00;  2.9718375E-03;  9.9933307E+02;  1.0000000E-01; -5.5252753E+02;3; -6.6969833E+00;  0.0000000E+00;  7.8410369E-01;0; -2.1949049E-02;  3.9938609E+04;  0.0000000E+00;  1.1100753E-01;  4.0000000E+04;  0.0000000E+00;  4.0008523E+04; -4.5643207E-02;  0.0000000E+00;  2.3694158E-02;  1.1341450E+03;
  4.1186246E-01;  9.9999998E-03;  1.0000204E-01;4987;  2.0310383E-02;  0.0000000E+00;  3.2257172E-03;  9.9928619E+02;  1.0000000E-01; -5.9139062E+02;3; -6.5293312E+00;  0.0000000E+00;  8.8107586E-01;0; -2.2970947E-02;  3.9934586E+04;  0.0000000E+00;  1.2598342E-01;  4.0000000E+04;  0.0000000E+00;  4.0008457E+04; -4.4603184E-02;  0.0000000E+00;  2.1632237E-02;  1.1495378E+03;
  4.1185561E-01;  9.9999998E-03;  1.1000037E-01;4988;  2.0073252E-02;  0.0000000E+00;  3.4410381E-03;  9.9923138E+02;  1.0000000E-01; -6.3677209E+02;3; -6.3613319E+00;  0.0000000E+00;  9.7725606E-01;0; -2.3940105E-02;  3.9930441E+04;  0.0000000E+00;  1.3595256E-01;  4.0000000E+04;  0.0000000E+00;  4.0008562E+04; -4.3482047E-02;  0.0000000E+00;  1.9541942E-02;  1.1471550E+03;
  4.1184577E-01;  9.9999998E-03;  1.1999794E-01;4989;  1.9799812E-02;  0.0000000E+00;  3.6178678E-03;  9.9917865E+02;  1.0000000E-01; -6.8047455E+02;3; -6.1891708E+00;  0.0000000E+00;  1.0684335E+00;0; -2.4812942E-02;  3.9926094E+04;  0.0000000E+00;  1.3905010E-01;  4.0000000E+04;  0.0000000E+00;  4.0008250E+04; -4.2296398E-02;  0.0000000E+00;  1.7483456E-02;  1.1329620E+03;
  4.1183585E-01;  9.9999998E-03;  1.2999475E-01;4990;  1.9490551E-02;  0.0000000E+00;  3.7582987E-03;  9.9911951E+02;  1.0000000E-01; -7.2946082E+02;3; -6.0182209E+00;  0.0000000E+00;  1.1586908E+00;0; -2.5547605E-02;  3.9921516E+04;  0.0000000E+00;  1.3406314E-01;  4.0000000E+04;  0.0000000E+00;  4.0008105E+04; -4.1063733E-02;  0.0000000E+00;  1.5516128E-02;  1.1154039E+03;
  4.1182545E-01;  9.9999998E-03;  1.3999109E-01;4991;  1.9147653E-02;  0.0000000E+00;  3.8656995E-03;  9.9905688E+02;  1.0000000E-01; -7.8136053E+02;3; -5.8500552E+00;  0.0000000E+00;  1.2434694E+00;0; -2.6105728E-02;  3.9916301E+04;  0.0000000E+00;  1.2087326E-01;  4.0000000E+04;  0.0000000E+00;  4.0008027E+04; -3.9801084E-02;  0.0000000E+00;  1.3695356E-02;  1.1057660E+03;
  4.1181535E-01;  9.9999998E-03;  1.4998740E-01;4992;  1.8774064E-02;  0.0000000E+00;  3.9458969E-03;  9.9898816E+02;  1.0000000E-01; -8.3829724E+02;3; -5.6894512E+00;  0.0000000E+00;  1.3133050E+00;0; -2.6453596E-02;  3.9910840E+04;  0.0000000E+00;  1.0079911E-01;  4.0000000E+04;  0.0000000E+00;  4.0008035E+04; -3.8525142E-02;  0.0000000E+00;  1.2071547E-02;  1.1174346E+03;
  4.1180706E-01;  9.9999998E-03;  1.5998419E-01;4993;  1.8372713E-02;  0.0000000E+00;  4.0063853E-03;  9.9890912E+02;  1.0000000E-01; -9.0377686E+02;3; -5.5340571E+00;  0.0000000E+00;  1.3814914E+00;0; -2.6566289E-02;  3.9904223E+04;  0.0000000E+00;  7.6184005E-02;  4.0000000E+04;  0.0000000E+00;  4.0008602E+04; -3.7252106E-02;  0.0000000E+00;  1.0685816E-02;  1.1634069E+03;
  4.1179997E-01;  9.9999998E-03;  1.6998194E-01;4994;  1.7946979E-02;  0.0000000E+00;  4.0498842E-03;  9.9882489E+02;  1.0000000E-01; -9.7355261E+02;3; -5.3901091E+00;  0.0000000E+00;  1.4382843E+00;0; -2.6435893E-02;  3.9896762E+04;  0.0000000E+00;  4.9566999E-02;  4.0000000E+04;  0.0000000E+00;  4.0009145E+04; -3.5996661E-02;  0.0000000E+00;  9.5607676E-03;  1.2536736E+03;
  4.1179377E-01;  9.9999998E-03;  1.7998081E-01;4995;  1.7500266E-02;  0.0000000E+00;  4.0840702E-03;  9.9873541E+02;  1.0000000E-01; -1.0476740E+03;3; -5.2563267E+00;  0.0000000E+00;  1.4934033E+00;0; -2.6077298E-02;  3.9888223E+04;  0.0000000E+00;  2.3101803E-02;  4.0000000E+04;  0.0000000E+00;  4.0010273E+04; -3.4773301E-02;  0.0000000E+00;  8.6960029E-03;  1.3924148E+03;
  4.1178685E-01;  9.9999998E-03;  1.8998057E-01;4996;  1.7035810E-02;  0.0000000E+00;  4.1125198E-03;  9.9863409E+02;  1.0000000E-01; -1.1316222E+03;3; -5.1328826E+00;  0.0000000E+00;  1.5427151E+00;0; -2.5527241E-02;  3.9878746E+04;  0.0000000E+00; -1.7948151E-03;  4.0000000E+04;  0.0000000E+00;  4.0011758E+04; -3.3595763E-02;  0.0000000E+00;  8.0685224E-03;  1.5753624E+03;
  4.1177854E-01;  9.9999998E-03;  1.9998062E-01;4997;  1.6556287E-02;  0.0000000E+00;  4.1418346E-03;  9.9852509E+02;  1.0000000E-01; -1.2219407E+03;3; -5.0147390E+00;  0.0000000E+00;  1.5983020E+00;0; -2.4837490E-02;  3.9868156E+04;  0.0000000E+00; -2.4544222E-02;  4.0000000E+04;  0.0000000E+00;  4.0013340E+04; -3.2476705E-02;  0.0000000E+00;  7.6392153E-03;  1.7898540E+03;
  4.1176748E-01;  9.9999998E-03;  2.0997962E-01;4998;  1.6062910E-02;  0.0000000E+00;  4.1771363E-03;  9.9840851E+02;  1.0000000E-01; -1.3185305E+03;3; -4.9049077E+00;  0.0000000E+00;  1.6562977E+00;0; -2.4066795E-02;  3.9856746E+04;  0.0000000E+00; -4.5187268E-02;  4.0000000E+04;  0.0000000E+00;  4.0015090E+04; -3.1427074E-02;  0.0000000E+00;  7.3602805E-03;  2.0256432E+03;
  4.1175264E-01;  9.9999998E-03;  2.1997525E-01;4999;  1.5555417E-02;  0.0000000E+00;  4.2266371E-03;  9.9828766E+02;  1.0000000E-01; -1.4186265E+03;3; -4.8011227E+00;  0.0000000E+00;  1.7208904E+00;0; -2.3265330E-02;  3.9844809E+04;  0.0000000E+00; -6.4136200E-02;  4.0000000E+04;  0.0000000E+00;  4.0017219E+04; -3.0455580E-02;  0.0000000E+00;  7.1902503E-03;  2.3178325E+03;
  4.1173366E-01;  9.9999998E-03;  2.2996719E-01;5000;  1.5033486E-02;  0.0000000E+00;  4.3278481E-03;  9.9817529E+02;  1.0000000E-01; -1.5117596E+03;3; -4.7026205E+00;  0.0000000E+00;  1.8060679E+00;0; -2.2364788E-02;  3.9832395E+04;  0.0000000E+00; -8.1729554E-02;  4.0000000E+04;  0.0000000E+00;  4.0020773E+04; -2.9568451E-02;  0.0000000E+00;  7.2036623E-03;  2.7556023E+03;
  4.2186964E-01;  9.9999998E-03;  7.0010073E-02;5045;  2.0314302E-02;  0.0000000E+00;  2.6620249E-03;  9.9928644E+02;  1.0000000E-01; -5.9119312E+02;3; -7.0172930E+00;  0.0000000E+00;  5.2294952E-01;0; -1.9715071E-02;  3.9935605E+04;  0.0000000E+00;  7.4753225E-02;  4.0000000E+04;  0.0000000E+00;  4.0007449E+04; -5.1252242E-02;  0.0000000E+00;  3.1537171E-02;  1.0145948E+03;
  4.2187613E-01;  9.9999998E-03;  8.0009528E-02;5046;  2.0184273E-02;  0.0000000E+00;  3.0335258E-03;  9.9925549E+02;  1.0000000E-01; -6.1682202E+02;3; -6.8595042E+00;  0.0000000E+00;  6.3653255E-01;0; -2.0827407E-02;  3.9932520E+04;  0.0000000E+00;  9.4235845E-02;  4.0000000E+04;  0.0000000E+00;  4.0008055E+04; -5.0374806E-02;  0.0000000E+00;  2.9547399E-02;  1.0983568E+03;
  4.2187873E-01;  9.9999998E-03;  9.0008803E-02;5047;  2.0024780E-02;  0.0000000E+00;  3.3724725E-03;  9.9921985E+02;  1.0000000E-01; -6.4635205E+02;3; -6.6886554E+00;  0.0000000E+00;  7.5669807E-01;0; -2.1968856E-02;  3.9929066E+04;  0.0000000E+00;  1.1327273E-01;  4.0000000E+04;  0.0000000E+00;  4.0008605E+04; -4.9370024E-02;  0.0000000E+00;  2.7401168E-02;  1.1644032E+03;
  4.2187518E-01;  9.9999998E-03;  1.0000809E-01;5048;  1.9832870E-02;  0.0000000E+00;  3.6732280E-03;  9.9917810E+02;  1.0000000E-01; -6.8091895E+02;3; -6.5115557E+00;  0.0000000E+00;  8.6225539E-01;0; -2.3090852E-02;  3.9925223E+04;  0.0000000E+00;  1.3010879E-01;  4.0000000E+04;  0.0000000E+00;  4.0008910E+04; -4.8244439E-02;  0.0000000E+00;  2.5153587E-02;  1.2116262E+03;
  4.2186686E-01;  9.9999998E-03;  1.1000717E-01;5049;  1.9607069E-02;  0.0000000E+00;  3.9325608E-03;  9.9913055E+02;  1.0000000E-01; -7.2032526E+02;3; -6.3482928E+00;  0.0000000E+00;  9.5160192E-01;0; -2.4144059E-02;  3.9921039E+04;  0.0000000E+00;  1.4277239E-01;  4.0000000E+04;  0.0000000E+00;  4.0008996E+04; -4.7010455E-02;  0.0000000E+00;  2.2866396E-02;  1.2410750E+03;
  4.2185631E-01;  9.9999998E-03;  1.2000576E-01;5050;  1.9348172E-02;  0.0000000E+00;  4.1494486E-03;  9.9907660E+02;  1.0000000E-01; -7.6501532E+02;3; -6.1755123E+00;  0.0000000E+00;  1.0492548E+00;0; -2.5080442E-02;  3.9916566E+04;  0.0000000E+00;  1.4926997E-01;  4.0000000E+04;  0.0000000E+00;  4.0009223E+04; -4.5683831E-02;  0.0000000E+00;  2.0603389E-02;  1.2560413E+03;
  4.2184427E-01;  9.9999998E-03;  1.3000362E-01;5051;  1.9055545E-02;  0.0000000E+00;  4.3280618E-03;  9.9901587E+02;  1.0000000E-01; -8.1533490E+02;3; -6.0018463E+00;  0.0000000E+00;  1.1433455E+00;0; -2.5855990E-02;  3.9911758E+04;  0.0000000E+00;  1.4789678E-01;  4.0000000E+04;  0.0000000E+00;  4.0009258E+04; -4.4282712E-02;  0.0000000E+00;  1.8426722E-02;  1.2626813E+03;
  4.2183205E-01;  9.9999998E-03;  1.4000095E-01;5052;  1.8730469E-02;  0.0000000E+00;  4.4694790E-03;  9.9895312E+02;  1.0000000E-01; -8.6733344E+02;3; -5.8311458E+00;  0.0000000E+00;  1.2322017E+00;0; -2.6431387E-02;  3.9906480E+04;  0.0000000E+00;  1.3761769E-01;  4.0000000E+04;  0.0000000E+00;  4.0009195E+04; -4.2826496E-02;  0.0000000E+00;  1.6395109E-02;  1.2699288E+03;
  4.2182124E-01;  9.9999998E-03;  1.4999807E-01;5053;  1.8374668E-02;  0.0000000E+00;  4.5785550E-03;  9.9888367E+02;  1.0000000E-01; -9.2486267E+02;3; -5.6668158E+00;  0.0000000E+00;  1.3148769E+00;0; -2.6773764E-02;  3.9900664E+04;  0.0000000E+00;  1.1847659E-01;  4.0000000E+04;  0.0000000E+00;  4.0009508E+04; -4.1335411E-02;  0.0000000E+00;  1.4561648E-02;  1.2895431E+03;
  4.2181182E-01;  9.9999998E-03;  1.5999529E-01;5054;  1.7990749E-02;  0.0000000E+00;  4.6632248E-03;  9.9880487E+02;  1.0000000E-01; -9.9014478E+02;3; -5.5097446E+00;  0.0000000E+00;  1.3855349E+00;0; -2.6858237E-02;  3.9894152E+04;  0.0000000E+00;  9.1567479E-02;  4.0000000E+04;  0.0000000E+00;  4.0009812E+04; -3.9828621E-02;  0.0000000E+00;  1.2970383E-02;  1.3330557E+03;
  4.2180374E-01;  9.9999998E-03;  1.6999303E-01;5055;  1.7580848E-02;  0.0000000E+00;  4.7299345E-03;  9.9872107E+02;  1.0000000E-01; -1.0595750E+03;3; -5.3642774E+00;  0.0000000E+00;  1.4530427E+00;0; -2.6677078E-02;  3.9886734E+04;  0.0000000E+00;  5.8774866E-02;  4.0000000E+04;  0.0000000E+00;  4.0010301E+04; -3.8325377E-02;  0.0000000E+00;  1.1648299E-02;  1.4091483E+03;
  4.2179686E-01;  9.9999998E-03;  1.7999130E-01;5056;  1.7147886E-02;  0.0000000E+00;  4.7823833E-03;  9.9862891E+02;  1.0000000E-01; -1.1359185E+03;3; -5.2292190E+00;  0.0000000E+00;  1.5109472E+00;0; -2.6246052E-02;  3.9878559E+04;  0.0000000E+00;  2.2433471E-02;  4.0000000E+04;  0.0000000E+00;  4.0011281E+04; -3.6845058E-02;  0.0000000E+00;  1.0599007E-02;  1.5210402E+03;
  4.2179084E-01;  9.9999998E-03;  1.8998981E-01;5057;  1.6694369E-02;  0.0000000E+00;  4.8280284E-03;  9.9853632E+02;  1.0000000E-01; -1.2126570E+03;3; -5.1035628E+00;  0.0000000E+00;  1.5684279E+00;0; -2.5603479E-02;  3.9869367E+04;  0.0000000E+00; -1.5062368E-02;  4.0000000E+04;  0.0000000E+00;  4.0012277E+04; -3.5406686E-02;  0.0000000E+00;  9.8032076E-03;  1.6650504E+03;
  4.2178470E-01;  9.9999998E-03;  1.9998772E-01;5058;  1.6222544E-02;  0.0000000E+00;  4.8710313E-03;  9.9842780E+02;  1.0000000E-01; -1.3025310E+03;3; -4.9895873E+00;  0.0000000E+00;  1.6187450E+00;0; -2.4804812E-02;  3.9859523E+04;  0.0000000E+00; -5.1616151E-02;  4.0000000E+04;  0.0000000E+00;  4.0013512E+04; -3.4028135E-02;  0.0000000E+00;  9.2233242E-03;  1.8335945E+03;
  4.2177787E-01;  9.9999998E-03;  2.0998372E-01;5059;  1.5734131E-02;  0.0000000E+00;  4.9184533E-03;  9.9831726E+02;  1.0000000E-01; -1.3941333E+03;3; -4.8842416E+00;  0.0000000E+00;  1.6805415E+00;0; -2.3912955E-02;  3.9848875E+04;  0.0000000E+00; -8.5578710E-02;  4.0000000E+04;  0.0000000E+00;  4.0015082E+04; -3.2725178E-02;  0.0000000E+00;  8.8122226E-03;  2.0312179E+03;
  4.2177010E-01;  9.9999998E-03;  2.1997544E-01;5060;  1.5230320E-02;  0.0000000E+00;  4.9820952E-03;  9.9820239E+02;  1.0000000E-01; -1.4892911E+03;3; -4.7834978E+00;  0.0000000E+00;  1.7449813E+00;0; -2.2976080E-02;  3.9837742E+04;  0.0000000E+00; -1.1577354E-01;  4.0000000E+04;  0.0000000E+00;  4.0017211E+04; -3.1510670E-02;  0.0000000E+00;  8.5345898E-03;  2.3238638E+03;
  4.2176190E-01;  9.9999998E-03;  2.2996363E-01;5061;  1.4714818E-02;  0.0000000E+00;  5.1172278E-03;  9.9811078E+02;  1.0000000E-01; -1.5651902E+03;3; -4.6828399E+00;  0.0000000E+00;  1.8417299E+00;0; -2.1867637E-02;  3.9826262E+04;  0.0000000E+00; -1.4130287E-01;  4.0000000E+04;  0.0000000E+00;  4.0021379E+04; -3.0393558E-02;  0.0000000E+00;  8.5259210E-03;  2.8260374E+03;
  4.3190271E-01;  9.9999998E-03;  7.0012093E-02;5106;  1.9775746E-02;  0.0000000E+00;  2.9779891E-03;  9.9916339E+02;  1.0000000E-01; -6.9311615E+02;3; -7.0027161E+00;  0.0000000E+00;  4.9636328E-01;0; -1.9640382E-02;  3.9925883E+04;  0.0000000E+00;  7.1649417E-02;  4.0000000E+04;  0.0000000E+00;  4.0007379E+04; -5.5217534E-02;  0.0000000E+00;  3.5577152E-02;  1.0038900E+03;
  4.3190670E-01;  9.9999998E-03;  8.0012426E-02;5107;  1.9646147E-02;  0.0000000E+00;  3.3941620E-03;  9.9914581E+02;  1.0000000E-01; -7.0768365E+02;3; -6.8447270E+00;  0.0000000E+00;  6.0924107E-01;0; -2.0843908E-02;  3.9923707E+04;  0.0000000E+00;  9.0233885E-02;  4.0000000E+04;  0.0000000E+00;  4.0008035E+04; -5.4268979E-02;  0.0000000E+00;  3.3425070E-02;  1.0992443E+03;
  4.3190631E-01;  9.9999998E-03;  9.0012483E-02;5108;  1.9490849E-02;  0.0000000E+00;  3.7787815E-03;  9.9912073E+02;  1.0000000E-01; -7.2847314E+02;3; -6.6771002E+00;  0.0000000E+00;  7.2780389E-01;0; -2.2071345E-02;  3.9920848E+04;  0.0000000E+00;  1.0843299E-01;  4.0000000E+04;  0.0000000E+00;  4.0008715E+04; -5.3175811E-02;  0.0000000E+00;  3.1104466E-02;  1.1824961E+03;
  4.3190181E-01;  9.9999998E-03;  1.0001229E-01;5109;  1.9307336E-02;  0.0000000E+00;  4.1233264E-03;  9.9908673E+02;  1.0000000E-01; -7.5662054E+02;3; -6.4942532E+00;  0.0000000E+00;  8.4232986E-01;0; -2.3270015E-02;  3.9917602E+04;  0.0000000E+00;  1.2465912E-01;  4.0000000E+04;  0.0000000E+00;  4.0009332E+04; -5.1943719E-02;  0.0000000E+00;  2.8673705E-02;  1.2508325E+03;
  4.3189293E-01;  9.9999998E-03;  1.1001185E-01;5110;  1.9093201E-02;  0.0000000E+00;  4.4233915E-03;  9.9904553E+02;  1.0000000E-01; -7.9074298E+02;3; -6.3238926E+00;  0.0000000E+00;  9.3571925E-01;0; -2.4385897E-02;  3.9913672E+04;  0.0000000E+00;  1.3709299E-01;  4.0000000E+04;  0.0000000E+00;  4.0009598E+04; -5.0581980E-02;  0.0000000E+00;  2.6196083E-02;  1.3031229E+03;
  4.3188035E-01;  9.9999998E-03;  1.2001091E-01;5111;  1.8848894E-02;  0.0000000E+00;  4.6797181E-03;  9.9899646E+02;  1.0000000E-01; -8.3143323E+02;3; -6.1580286E+00;  0.0000000E+00;  1.0271341E+00;0; -2.5368122E-02;  3.9909250E+04;  0.0000000E+00;  1.4379005E-01;  4.0000000E+04;  0.0000000E+00;  4.0009676E+04; -4.9104881E-02;  0.0000000E+00;  2.3736758E-02;  1.3403602E+03;
  4.3186644E-01;  9.9999998E-03;  1.3000941E-01;5112;  1.8574178E-02;  0.0000000E+00;  4.8944284E-03;  9.9893683E+02;  1.0000000E-01; -8.8081451E+02;3; -5.9824295E+00;  0.0000000E+00;  1.1262739E+00;0; -2.6170455E-02;  3.9904336E+04;  0.0000000E+00;  1.4291188E-01;  4.0000000E+04;  0.0000000E+00;  4.0009984E+04; -4.7530085E-02;  0.0000000E+00;  2.1359630E-02;  1.3662925E+03;
  4.3185312E-01;  9.9999998E-03;  1.4000745E-01;5113;  1.8268729E-02;  0.0000000E+00;  5.0702384E-03;  9.9887299E+02;  1.0000000E-01; -9.3370190E+02;3; -5.8089619E+00;  0.0000000E+00;  1.2208787E+00;0; -2.6753241E-02;  3.9898961E+04;  0.0000000E+00;  1.3298906E-01;  4.0000000E+04;  0.0000000E+00;  4.0010215E+04; -4.5877576E-02;  0.0000000E+00;  1.9124335E-02;  1.3879148E+03;
  4.3184146E-01;  9.9999998E-03;  1.5000516E-01;5114;  1.7933248E-02;  0.0000000E+00;  5.2116797E-03;  9.9880420E+02;  1.0000000E-01; -9.9068793E+02;3; -5.6426892E+00;  0.0000000E+00;  1.3095162E+00;0; -2.7084358E-02;  3.9893051E+04;  0.0000000E+00;  1.1331411E-01;  4.0000000E+04;  0.0000000E+00;  4.0010258E+04; -4.4168349E-02;  0.0000000E+00;  1.7083991E-02;  1.4151908E+03;
  4.3183231E-01;  9.9999998E-03;  1.6000283E-01;5115;  1.7569413E-02;  0.0000000E+00;  5.3244019E-03;  9.9872968E+02;  1.0000000E-01; -1.0524640E+03;3; -5.4832163E+00;  0.0000000E+00;  1.3920174E+00;0; -2.7139148E-02;  3.9886688E+04;  0.0000000E+00;  8.4178008E-02;  4.0000000E+04;  0.0000000E+00;  4.0010742E+04; -4.2423766E-02;  0.0000000E+00;  1.5284618E-02;  1.4580804E+03;
  4.3182546E-01;  9.9999998E-03;  1.7000073E-01;5116;  1.7178921E-02;  0.0000000E+00;  5.4169130E-03;  9.9864917E+02;  1.0000000E-01; -1.1191288E+03;3; -5.3359847E+00;  0.0000000E+00;  1.4623457E+00;0; -2.6909363E-02;  3.9879754E+04;  0.0000000E+00;  4.7093384E-02;  4.0000000E+04;  0.0000000E+00;  4.0011117E+04; -4.0666148E-02;  0.0000000E+00;  1.3756786E-02;  1.5236375E+03;
  4.3182066E-01;  9.9999998E-03;  1.7999871E-01;5117;  1.6763464E-02;  0.0000000E+00;  5.4935534E-03;  9.9856329E+02;  1.0000000E-01; -1.1902872E+03;3; -5.1993456E+00;  0.0000000E+00;  1.5305852E+00;0; -2.6410652E-02;  3.9872086E+04;  0.0000000E+00;  4.6033817E-03;  4.0000000E+04;  0.0000000E+00;  4.0011992E+04; -3.8919315E-02;  0.0000000E+00;  1.2508662E-02;  1.6139596E+03;
  4.3181756E-01;  9.9999998E-03;  1.8999630E-01;5118;  1.6324917E-02;  0.0000000E+00;  5.5589881E-03;  9.9846857E+02;  1.0000000E-01; -1.2687542E+03;3; -5.0737705E+00;  0.0000000E+00;  1.5901970E+00;0; -2.5682196E-02;  3.9863559E+04;  0.0000000E+00; -4.0177092E-02;  4.0000000E+04;  0.0000000E+00;  4.0012836E+04; -3.7207399E-02;  0.0000000E+00;  1.1525202E-02;  1.7257283E+03;
  4.3181533E-01;  9.9999998E-03;  1.9999270E-01;5119;  1.5864978E-02;  0.0000000E+00;  5.6192093E-03;  9.9836707E+02;  1.0000000E-01; -1.3528506E+03;3; -4.9601402E+00;  0.0000000E+00;  1.6503466E+00;0; -2.4781235E-02;  3.9854617E+04;  0.0000000E+00; -8.4137894E-02;  4.0000000E+04;  0.0000000E+00;  4.0013551E+04; -3.5554115E-02;  0.0000000E+00;  1.0772879E-02;  1.8552791E+03;
  4.3181401E-01;  9.9999998E-03;  2.0998639E-01;5120;  1.5385437E-02;  0.0000000E+00;  5.6796256E-03;  9.9826740E+02;  1.0000000E-01; -1.4354161E+03;3; -4.8563929E+00;  0.0000000E+00;  1.7051430E+00;0; -2.3774063E-02;  3.9844945E+04;  0.0000000E+00; -1.2458862E-01;  4.0000000E+04;  0.0000000E+00;  4.0014801E+04; -3.3980642E-02;  0.0000000E+00;  1.0206578E-02;  2.0198226E+03;
  4.3181351E-01;  9.9999998E-03;  2.1997550E-01;5121;  1.4888880E-02;  0.0000000E+00;  5.7584289E-03;  9.9816895E+02;  1.0000000E-01; -1.5169940E+03;3; -4.7591376E+00;  0.0000000E+00;  1.7731907E+00;0; -2.2703480E-02;  3.9835129E+04;  0.0000000E+00; -1.5947586E-01;  4.0000000E+04;  0.0000000E+00;  4.0017086E+04; -3.2504439E-02;  0.0000000E+00;  9.8009603E-03;  2.3024346E+03;
  4.3181372E-01;  9.9999998E-03;  2.2996168E-01;5122;  1.4383548E-02;  0.0000000E+00;  5.9200730E-03;  9.9809387E+02;  1.0000000E-01; -1.5792145E+03;3; -4.6562004E+00;  0.0000000E+00;  1.8760786E+00;0; -2.1403413E-02;  3.9824715E+04;  0.0000000E+00; -1.8730962E-01;  4.0000000E+04;  0.0000000E+00;  4.0021094E+04; -3.1137722E-02;  0.0000000E+00;  9.7343093E-03;  2.8220723E+03;
  4.4193920E-01;  9.9999998E-03;  7.0011087E-02;5167;  1.9190256E-02;  0.0000000E+00;  3.3143256E-03;  9.9908264E+02;  1.0000000E-01; -7.6002783E+02;3; -6.9825301E+00;  0.0000000E+00;  4.7504276E-01;0; -1.9736666E-02;  3.9919301E+04;  0.0000000E+00;  6.4153649E-02;  4.0000000E+04;  0.0000000E+00;  4.0007332E+04; -5.9336651E-02;  0.0000000E+00;  3.9599985E-02;  1.0116171E+03;
  4.4194177E-01;  9.9999998E-03;  8.0012247E-02;5168;  1.9061744E-02;  0.0000000E+00;  3.7697477E-03;  9.9907593E+02;  1.0000000E-01; -7.6555853E+02;3; -6.8243399E+00;  0.0000000E+00;  5.8484042E-01;0; -2.1008562E-02;  3.9917938E+04;  0.0000000E+00;  8.0262065E-02;  4.0000000E+04;  0.0000000E+00;  4.0008059E+04; -5.8285497E-02;  0.0000000E+00;  3.7276935E-02;  1.1052490E+03;
  4.4194037E-01;  9.9999998E-03;  9.0013243E-02;5169;  1.8911181E-02;  0.0000000E+00;  4.1931360E-03;  9.9905762E+02;  1.0000000E-01; -7.8076801E+02;3; -6.6557369E+00;  0.0000000E+00;  7.0002067E-01;0; -2.2297055E-02;  3.9915793E+04;  0.0000000E+00;  9.5755018E-02;  4.0000000E+04;  0.0000000E+00;  4.0008754E+04; -5.7075717E-02;  0.0000000E+00;  3.4778662E-02;  1.1925233E+03;
  4.4193497E-01;  9.9999998E-03;  1.0001381E-01;5170;  1.8736307E-02;  0.0000000E+00;  4.5751459E-03;  9.9903296E+02;  1.0000000E-01; -8.0116248E+02;3; -6.4797330E+00;  0.0000000E+00;  8.1379652E-01;0; -2.3545712E-02;  3.9913121E+04;  0.0000000E+00;  1.0921244E-01;  4.0000000E+04;  0.0000000E+00;  4.0009422E+04; -5.5711538E-02;  0.0000000E+00;  3.2165825E-02;  1.2696646E+03;
  4.4192588E-01;  9.9999998E-03;  1.1001360E-01;5171;  1.8534733E-02;  0.0000000E+00;  4.9140104E-03;  9.9899744E+02;  1.0000000E-01; -8.3059375E+02;3; -6.2979789E+00;  0.0000000E+00;  9.2120188E-01;0; -2.4698125E-02;  3.9909559E+04;  0.0000000E+00;  1.1903332E-01;  4.0000000E+04;  0.0000000E+00;  4.0009758E+04; -5.4201320E-02;  0.0000000E+00;  2.9503195E-02;  1.3338033E+03;
  4.4191408E-01;  9.9999998E-03;  1.2001263E-01;5172;  1.8305913E-02;  0.0000000E+00;  5.2064960E-03;  9.9895050E+02;  1.0000000E-01; -8.6950623E+02;3; -6.1327267E+00;  0.0000000E+00;  1.0074816E+00;0; -2.5701473E-02;  3.9905391E+04;  0.0000000E+00;  1.2351554E-01;  4.0000000E+04;  0.0000000E+00;  4.0010266E+04; -5.2557725E-02;  0.0000000E+00;  2.6856253E-02;  1.3839945E+03;
  4.4190034E-01;  9.9999998E-03;  1.3001122E-01;5173;  1.8050089E-02;  0.0000000E+00;  5.4564467E-03;  9.9889502E+02;  1.0000000E-01; -9.1543085E+02;3; -5.9593754E+00;  0.0000000E+00;  1.1043140E+00;0; -2.6509028E-02;  3.9900750E+04;  0.0000000E+00;  1.2096389E-01;  4.0000000E+04;  0.0000000E+00;  4.0010590E+04; -5.0796870E-02;  0.0000000E+00;  2.4287842E-02;  1.4220031E+03;
  4.4188723E-01;  9.9999998E-03;  1.4000948E-01;5174;  1.7765688E-02;  0.0000000E+00;  5.6661391E-03;  9.9883588E+02;  1.0000000E-01; -9.6446649E+02;3; -5.7850323E+00;  0.0000000E+00;  1.2072070E+00;0; -2.7081860E-02;  3.9895457E+04;  0.0000000E+00;  1.0990146E-01;  4.0000000E+04;  0.0000000E+00;  4.0010609E+04; -4.8938069E-02;  0.0000000E+00;  2.1856209E-02;  1.4528615E+03;
  4.4187590E-01;  9.9999998E-03;  1.5000744E-01;5175;  1.7452857E-02;  0.0000000E+00;  5.8412021E-03;  9.9877112E+02;  1.0000000E-01; -1.0180946E+03;3; -5.6167054E+00;  0.0000000E+00;  1.3024275E+00;0; -2.7389746E-02;  3.9889770E+04;  0.0000000E+00;  8.9353837E-02;  4.0000000E+04;  0.0000000E+00;  4.0010922E+04; -4.7002312E-02;  0.0000000E+00;  1.9612566E-02;  1.4848291E+03;
  4.4186750E-01;  9.9999998E-03;  1.6000517E-01;5176;  1.7112136E-02;  0.0000000E+00;  5.9851580E-03;  9.9869623E+02;  1.0000000E-01; -1.0801669E+03;3; -5.4545078E+00;  0.0000000E+00;  1.3896818E+00;0; -2.7408900E-02;  3.9883453E+04;  0.0000000E+00;  5.9227824E-02;  4.0000000E+04;  0.0000000E+00;  4.0011355E+04; -4.5012128E-02;  0.0000000E+00;  1.7603228E-02;  1.5264585E+03;
  4.4186237E-01;  9.9999998E-03;  1.7000289E-01;5177;  1.6744470E-02;  0.0000000E+00;  6.1048428E-03;  9.9862067E+02;  1.0000000E-01; -1.1427330E+03;3; -5.3042736E+00;  0.0000000E+00;  1.4689672E+00;0; -2.7130537E-02;  3.9876949E+04;  0.0000000E+00;  2.0814991E-02;  4.0000000E+04;  0.0000000E+00;  4.0011609E+04; -4.2992227E-02;  0.0000000E+00;  1.5861690E-02;  1.5837860E+03;
  4.4186053E-01;  9.9999998E-03;  1.8000051E-01;5178;  1.6350621E-02;  0.0000000E+00;  6.2087732E-03;  9.9854114E+02;  1.0000000E-01; -1.2086571E+03;3; -5.1656651E+00;  0.0000000E+00;  1.5414041E+00;0; -2.6568945E-02;  3.9869922E+04;  0.0000000E+00; -2.3251211E-02;  4.0000000E+04;  0.0000000E+00;  4.0012000E+04; -4.0969968E-02;  0.0000000E+00;  1.4401022E-02;  1.6585204E+03;
  4.4186151E-01;  9.9999998E-03;  1.8999746E-01;5179;  1.5931593E-02;  0.0000000E+00;  6.2991604E-03;  9.9845587E+02;  1.0000000E-01; -1.2792723E+03;3; -5.0383711E+00;  0.0000000E+00;  1.6154900E+00;0; -2.5762331E-02;  3.9862359E+04;  0.0000000E+00; -6.9538258E-02;  4.0000000E+04;  0.0000000E+00;  4.0012820E+04; -3.8974542E-02;  0.0000000E+00;  1.3212210E-02;  1.7486768E+03;
  4.4186446E-01;  9.9999998E-03;  1.9999282E-01;5180;  1.5488645E-02;  0.0000000E+00;  6.3795713E-03;  9.9836804E+02;  1.0000000E-01; -1.3520604E+03;3; -4.9250755E+00;  0.0000000E+00;  1.6768905E+00;0; -2.4767485E-02;  3.9854301E+04;  0.0000000E+00; -1.1450690E-01;  4.0000000E+04;  0.0000000E+00;  4.0013520E+04; -3.7034966E-02;  0.0000000E+00;  1.2267481E-02;  1.8553604E+03;
  4.4186848E-01;  9.9999998E-03;  2.0998533E-01;5181;  1.5023449E-02;  0.0000000E+00;  6.4576813E-03;  9.9827704E+02;  1.0000000E-01; -1.4274163E+03;3; -4.8198800E+00;  0.0000000E+00;  1.7375045E+00;0; -2.3649141E-02;  3.9846004E+04;  0.0000000E+00; -1.5506382E-01;  4.0000000E+04;  0.0000000E+00;  4.0014762E+04; -3.5177987E-02;  0.0000000E+00;  1.1528846E-02;  2.0023899E+03;
  4.4187310E-01;  9.9999998E-03;  2.1997400E-01;5182;  1.4539829E-02;  0.0000000E+00;  6.5543004E-03;  9.9820087E+02;  1.0000000E-01; -1.4905256E+03;3; -4.7232771E+00;  0.0000000E+00;  1.8037348E+00;0; -2.2441300E-02;  3.9837582E+04;  0.0000000E+00; -1.8884732E-01;  4.0000000E+04;  0.0000000E+00;  4.0016918E+04; -3.3425856E-02;  0.0000000E+00;  1.0984557E-02;  2.2688711E+03;
  4.4187748E-01;  9.9999998E-03;  2.2996119E-01;5183;  1.4049087E-02;  0.0000000E+00;  6.7269276E-03;  9.9813849E+02;  1.0000000E-01; -1.5422279E+03;3; -4.6215882E+00;  0.0000000E+00;  1.9020891E+00;0; -2.0983458E-02;  3.9828902E+04;  0.0000000E+00; -2.1410011E-01;  4.0000000E+04;  0.0000000E+00;  4.0020395E+04; -3.1794630E-02;  0.0000000E+00;  1.0811171E-02;  2.7422493E+03;
  4.5196629E-01;  9.9999998E-03;  7.0006356E-02;5228;  1.8559150E-02;  0.0000000E+00;  3.6707739E-03;  9.9905280E+02;  1.0000000E-01; -7.8471851E+02;3; -6.9573660E+00;  0.0000000E+00;  4.5645148E-01;0; -2.0003963E-02;  3.9916574E+04;  0.0000000E+00;  5.1854018E-02;  4.0000000E+04;  0.0000000E+00;  4.0007566E+04; -6.3586600E-02;  0.0000000E+00;  4.3582637E-02;  1.0400149E+03;
  4.5196599E-01;  9.9999998E-03;  8.0007903E-02;5229;  1.8433720E-02;  0.0000000E+00;  4.1597807E-03;  9.9905072E+02;  1.0000000E-01; -7.8644684E+02;3; -6.7985544E+00;  0.0000000E+00;  5.6353927E-01;0; -2.1322656E-02;  3.9915793E+04;  0.0000000E+00;  6.3997373E-02;  4.0000000E+04;  0.0000000E+00;  4.0008125E+04; -6.2401928E-02;  0.0000000E+00;  4.1079272E-02;  1.1200715E+03;
  4.5196319E-01;  9.9999998E-03;  9.0009376E-02;5230;  1.8289490E-02;  0.0000000E+00;  4.6159038E-03;  9.9904236E+02;  1.0000000E-01; -7.9340961E+02;3; -6.6297617E+00;  0.0000000E+00;  6.7754805E-01;0; -2.2647697E-02;  3.9914488E+04;  0.0000000E+00;  7.5181432E-02;  4.0000000E+04;  0.0000000E+00;  4.0008926E+04; -6.1046876E-02;  0.0000000E+00;  3.8399179E-02;  1.1989004E+03;
  4.5195758E-01;  9.9999998E-03;  1.0001035E-01;5231;  1.8124549E-02;  0.0000000E+00;  5.0309887E-03;  9.9902234E+02;  1.0000000E-01; -8.0995233E+02;3; -6.4536281E+00;  0.0000000E+00;  7.8893018E-01;0; -2.3920413E-02;  3.9912137E+04;  0.0000000E+00;  8.4257215E-02;  4.0000000E+04;  0.0000000E+00;  4.0009359E+04; -5.9525367E-02;  0.0000000E+00;  3.5604954E-02;  1.2723584E+03;
  4.5194945E-01;  9.9999998E-03;  1.1001049E-01;5232;  1.7936494E-02;  0.0000000E+00;  5.4034032E-03;  9.9899280E+02;  1.0000000E-01; -8.3444550E+02;3; -6.2727728E+00;  0.0000000E+00;  8.9812237E-01;0; -2.5083210E-02;  3.9909109E+04;  0.0000000E+00;  8.9948498E-02;  4.0000000E+04;  0.0000000E+00;  4.0009863E+04; -5.7845071E-02;  0.0000000E+00;  3.2761861E-02;  1.3367452E+03;
  4.5194000E-01;  9.9999998E-03;  1.2000977E-01;5233;  1.7724590E-02;  0.0000000E+00;  5.7286159E-03;  9.9895142E+02;  1.0000000E-01; -8.6871613E+02;3; -6.0989380E+00;  0.0000000E+00;  9.9203771E-01;0; -2.6082963E-02;  3.9905430E+04;  0.0000000E+00;  9.0935379E-02;  4.0000000E+04;  0.0000000E+00;  4.0010258E+04; -5.6017373E-02;  0.0000000E+00;  2.9934410E-02;  1.3896606E+03;
  4.5193014E-01;  9.9999998E-03;  1.3000818E-01;5234;  1.7488442E-02;  0.0000000E+00;  6.0108616E-03;  9.9889893E+02;  1.0000000E-01; -9.1222107E+02;3; -5.9333525E+00;  0.0000000E+00;  1.0829295E+00;0; -2.6873918E-02;  3.9901035E+04;  0.0000000E+00;  8.5894756E-02;  4.0000000E+04;  0.0000000E+00;  4.0010520E+04; -5.4057255E-02;  0.0000000E+00;  2.7183337E-02;  1.4313452E+03;
  4.5192039E-01;  9.9999998E-03;  1.4000608E-01;5235;  1.7226700E-02;  0.0000000E+00;  6.2550423E-03;  9.9884430E+02;  1.0000000E-01; -9.5745435E+02;3; -5.7575240E+00;  0.0000000E+00;  1.1882337E+00;0; -2.7419508E-02;  3.9896020E+04;  0.0000000E+00;  7.3617950E-02;  4.0000000E+04;  0.0000000E+00;  4.0010875E+04; -5.1982202E-02;  0.0000000E+00;  2.4562694E-02;  1.4651198E+03;
  4.5191243E-01;  9.9999998E-03;  1.5000376E-01;5236;  1.6938664E-02;  0.0000000E+00;  6.4621144E-03;  9.9878180E+02;  1.0000000E-01; -1.0092553E+03;3; -5.5869679E+00;  0.0000000E+00;  1.2870667E+00;0; -2.7692502E-02;  3.9890562E+04;  0.0000000E+00;  5.3209841E-02;  4.0000000E+04;  0.0000000E+00;  4.0011098E+04; -4.9812432E-02;  0.0000000E+00;  2.2119930E-02;  1.4976493E+03;
  4.5190755E-01;  9.9999998E-03;  1.6000129E-01;5237;  1.6623667E-02;  0.0000000E+00;  6.6387928E-03;  9.9871466E+02;  1.0000000E-01; -1.0648586E+03;3; -5.4240718E+00;  0.0000000E+00;  1.3833780E+00;0; -2.7670808E-02;  3.9884809E+04;  0.0000000E+00;  2.4476647E-02;  4.0000000E+04;  0.0000000E+00;  4.0011352E+04; -4.7570657E-02;  0.0000000E+00;  1.9899849E-02;  1.5362678E+03;
  4.5190614E-01;  9.9999998E-03;  1.6999869E-01;5238;  1.6282000E-02;  0.0000000E+00;  6.7897453E-03;  9.9864618E+02;  1.0000000E-01; -1.1215978E+03;3; -5.2702436E+00;  0.0000000E+00;  1.4747063E+00;0; -2.7344672E-02;  3.9878762E+04;  0.0000000E+00; -1.1487784E-02;  4.0000000E+04;  0.0000000E+00;  4.0011488E+04; -4.5282956E-02;  0.0000000E+00;  1.7938284E-02;  1.5868508E+03;
  4.5190817E-01;  9.9999998E-03;  1.7999573E-01;5239;  1.5913954E-02;  0.0000000E+00;  6.9210995E-03;  9.9857288E+02;  1.0000000E-01; -1.1823368E+03;3; -5.1279988E+00;  0.0000000E+00;  1.5573813E+00;0; -2.6726674E-02;  3.9872438E+04;  0.0000000E+00; -5.2257948E-02;  4.0000000E+04;  0.0000000E+00;  4.0012312E+04; -4.2979777E-02;  0.0000000E+00;  1.6253103E-02;  1.6524747E+03;
  4.5191327E-01;  9.9999998E-03;  1.8999211E-01;5240;  1.5519748E-02;  0.0000000E+00;  7.0391535E-03;  9.9849658E+02;  1.0000000E-01; -1.2455449E+03;3; -4.9966912E+00;  0.0000000E+00;  1.6325543E+00;0; -2.5851522E-02;  3.9865797E+04;  0.0000000E+00; -9.4583161E-02;  4.0000000E+04;  0.0000000E+00;  4.0012738E+04; -4.0694460E-02;  0.0000000E+00;  1.4842939E-02;  1.7341993E+03;
  4.5192096E-01;  9.9999998E-03;  1.9998719E-01;5241;  1.5099489E-02;  0.0000000E+00;  7.1442653E-03;  9.9842236E+02;  1.0000000E-01; -1.3070247E+03;3; -4.8807082E+00;  0.0000000E+00;  1.7081348E+00;0; -2.4772726E-02;  3.9859102E+04;  0.0000000E+00; -1.3510966E-01;  4.0000000E+04;  0.0000000E+00;  4.0013555E+04; -3.8461428E-02;  0.0000000E+00;  1.3688703E-02;  1.8366139E+03;
  4.5193058E-01;  9.9999998E-03;  2.0998019E-01;5242;  1.4655179E-02;  0.0000000E+00;  7.2442456E-03;  9.9834949E+02;  1.0000000E-01; -1.3674180E+03;3; -4.7754922E+00;  0.0000000E+00;  1.7694844E+00;0; -2.3548789E-02;  3.9852184E+04;  0.0000000E+00; -1.7093100E-01;  4.0000000E+04;  0.0000000E+00;  4.0014539E+04; -3.6312830E-02;  0.0000000E+00;  1.2764040E-02;  1.9822338E+03;
  4.5194107E-01;  9.9999998E-03;  2.1997100E-01;5243;  1.4191440E-02;  0.0000000E+00;  7.3567387E-03;  9.9828430E+02;  1.0000000E-01; -1.4214412E+03;3; -4.6765537E+00;  0.0000000E+00;  1.8410243E+00;0; -2.2210961E-02;  3.9844992E+04;  0.0000000E+00; -1.9980496E-01;  4.0000000E+04;  0.0000000E+00;  4.0016461E+04; -3.4275927E-02;  0.0000000E+00;  1.2064965E-02;  2.2242559E+03;
  4.5195007E-01;  9.9999998E-03;  2.2996223E-01;5244;  1.3719501E-02;  0.0000000E+00;  7.5264955E-03;  9.9823566E+02;  1.0000000E-01; -1.4617363E+03;3; -4.5786204E+00;  0.0000000E+00;  1.9224645E+00;0; -2.0631740E-02;  3.9837953E+04;  0.0000000E+00; -2.1992852E-01;  4.0000000E+04;  0.0000000E+00;  4.0019445E+04; -3.2371148E-02;  0.0000000E+00;  1.1739409E-02;  2.5906760E+03;
  4.6197882E-01;  9.9999998E-03;  6.9999196E-02;5289;  1.7884374E-02;  0.0000000E+00;  4.0440531E-03;  9.9907184E+02;  1.0000000E-01; -7.6896582E+02;3; -6.9243517E+00;  0.0000000E+00;  4.3993396E-01;0; -2.0433191E-02;  3.9917715E+04;  0.0000000E+00;  3.4579452E-02;  4.0000000E+04;  0.0000000E+00;  4.0007840E+04; -6.7940325E-02;  0.0000000E+00;  4.7507133E-02;  1.0870120E+03;
  4.6197471E-01;  9.9999998E-03;  8.0000363E-02;5290;  1.7764861E-02;  0.0000000E+00;  4.5630201E-03;  9.9907343E+02;  1.0000000E-01; -7.6763257E+02;3; -6.7660604E+00;  0.0000000E+00;  5.4661542E-01;0; -2.1778755E-02;  3.9917453E+04;  0.0000000E+00;  4.1546885E-02;  4.0000000E+04;  0.0000000E+00;  4.0008395E+04; -6.6594660E-02;  0.0000000E+00;  4.4815905E-02;  1.1441130E+03;
  4.6196902E-01;  9.9999998E-03;  9.0001523E-02;5291;  1.7629471E-02;  0.0000000E+00;  5.0467579E-03;  9.9906592E+02;  1.0000000E-01; -7.7385461E+02;3; -6.5968418E+00;  0.0000000E+00;  6.5753424E-01;0; -2.3117874E-02;  3.9916387E+04;  0.0000000E+00;  4.7335196E-02;  4.0000000E+04;  0.0000000E+00;  4.0008988E+04; -6.5068044E-02;  0.0000000E+00;  4.1950170E-02;  1.2040947E+03;
  4.6196216E-01;  9.9999998E-03;  1.0000230E-01;5292;  1.7476564E-02;  0.0000000E+00;  5.4892730E-03;  9.9905005E+02;  1.0000000E-01; -7.8703943E+02;3; -6.4200716E+00;  0.0000000E+00;  7.6535362E-01;0; -2.4391126E-02;  3.9914461E+04;  0.0000000E+00;  5.1180989E-02;  4.0000000E+04;  0.0000000E+00;  4.0009277E+04; -6.3365504E-02;  0.0000000E+00;  3.8974378E-02;  1.2630500E+03;
  4.6195483E-01;  9.9999998E-03;  1.1000235E-01;5293;  1.7303875E-02;  0.0000000E+00;  5.8891582E-03;  9.9902417E+02;  1.0000000E-01; -8.0847089E+02;3; -6.2416368E+00;  0.0000000E+00;  8.7396157E-01;0; -2.5540676E-02;  3.9911891E+04;  0.0000000E+00;  5.2274980E-02;  4.0000000E+04;  0.0000000E+00;  4.0009727E+04; -6.1494567E-02;  0.0000000E+00;  3.5953891E-02;  1.3171459E+03;
  4.6194714E-01;  9.9999998E-03;  1.2000143E-01;5294;  1.7110363E-02;  0.0000000E+00;  6.2445584E-03;  9.9898663E+02;  1.0000000E-01; -8.3953174E+02;3; -6.0634708E+00;  0.0000000E+00;  9.7709471E-01;0; -2.6514944E-02;  3.9908465E+04;  0.0000000E+00;  4.9791403E-02;  4.0000000E+04;  0.0000000E+00;  4.0010156E+04; -5.9465878E-02;  0.0000000E+00;  3.2950934E-02;  1.3633710E+03;
  4.6194059E-01;  9.9999998E-03;  1.2999961E-01;5295;  1.6895527E-02;  0.0000000E+00;  6.5562068E-03;  9.9894275E+02;  1.0000000E-01; -8.7592578E+02;3; -5.8960557E+00;  0.0000000E+00;  1.0637804E+00;0; -2.7270373E-02;  3.9904586E+04;  0.0000000E+00;  4.2877130E-02;  4.0000000E+04;  0.0000000E+00;  4.0010387E+04; -5.7293087E-02;  0.0000000E+00;  3.0022714E-02;  1.4007867E+03;
  4.6193564E-01;  9.9999998E-03;  1.3999711E-01;5296;  1.6657894E-02;  0.0000000E+00;  6.8309633E-03;  9.9889020E+02;  1.0000000E-01; -9.1943073E+02;3; -5.7255497E+00;  0.0000000E+00;  1.1642193E+00;0; -2.7774027E-02;  3.9899969E+04;  0.0000000E+00;  3.0720802E-02;  4.0000000E+04;  0.0000000E+00;  4.0010656E+04; -5.4992374E-02;  0.0000000E+00;  2.7218347E-02;  1.4314784E+03;
  4.6193323E-01;  9.9999998E-03;  1.4999415E-01;5297;  1.6396418E-02;  0.0000000E+00;  7.0711486E-03;  9.9883063E+02;  1.0000000E-01; -9.6881201E+02;3; -5.5521369E+00;  0.0000000E+00;  1.2719617E+00;0; -2.8002800E-02;  3.9895164E+04;  0.0000000E+00;  1.2646490E-02;  4.0000000E+04;  0.0000000E+00;  4.0010898E+04; -5.2582320E-02;  0.0000000E+00;  2.4579519E-02;  1.4605192E+03;
  4.6193466E-01;  9.9999998E-03;  1.5999106E-01;5298;  1.6109623E-02;  0.0000000E+00;  7.2803483E-03;  9.9877057E+02;  1.0000000E-01; -1.0185390E+03;3; -5.3879285E+00;  0.0000000E+00;  1.3754011E+00;0; -2.7936593E-02;  3.9889930E+04;  0.0000000E+00; -1.1551124E-02;  4.0000000E+04;  0.0000000E+00;  4.0010891E+04; -5.0084908E-02;  0.0000000E+00;  2.2148315E-02;  1.4947065E+03;
  4.6194026E-01;  9.9999998E-03;  1.6998781E-01;5299;  1.5797231E-02;  0.0000000E+00;  7.4638757E-03;  9.9870795E+02;  1.0000000E-01; -1.0704387E+03;3; -5.2301526E+00;  0.0000000E+00;  1.4743804E+00;0; -2.7564937E-02;  3.9884699E+04;  0.0000000E+00; -4.1072808E-02;  4.0000000E+04;  0.0000000E+00;  4.0011578E+04; -4.7526870E-02;  0.0000000E+00;  1.9961933E-02;  1.5406523E+03;
  4.6194997E-01;  9.9999998E-03;  1.7998452E-01;5300;  1.5458690E-02;  0.0000000E+00;  7.6258969E-03;  9.9864600E+02;  1.0000000E-01; -1.1217460E+03;3; -5.0847487E+00;  0.0000000E+00;  1.5706444E+00;0; -2.6897458E-02;  3.9878992E+04;  0.0000000E+00; -7.4064128E-02;  4.0000000E+04;  0.0000000E+00;  4.0011848E+04; -4.4940840E-02;  0.0000000E+00;  1.8043382E-02;  1.6041305E+03;
  4.6196270E-01;  9.9999998E-03;  1.8998121E-01;5301;  1.5094026E-02;  0.0000000E+00;  7.7707148E-03;  9.9858368E+02;  1.0000000E-01; -1.1733988E+03;3; -4.9487710E+00;  0.0000000E+00;  1.6556568E+00;0; -2.5965044E-02;  3.9873445E+04;  0.0000000E+00; -1.0799529E-01;  4.0000000E+04;  0.0000000E+00;  4.0012375E+04; -4.2363651E-02;  0.0000000E+00;  1.6398607E-02;  1.6892361E+03;
  4.6197727E-01;  9.9999998E-03;  1.9997750E-01;5302;  1.4702752E-02;  0.0000000E+00;  7.9030730E-03;  9.9852252E+02;  1.0000000E-01; -1.2240641E+03;3; -4.8260360E+00;  0.0000000E+00;  1.7383314E+00;0; -2.4813812E-02;  3.9867535E+04;  0.0000000E+00; -1.4024442E-01;  4.0000000E+04;  0.0000000E+00;  4.0013305E+04; -3.9834388E-02;  0.0000000E+00;  1.5020575E-02;  1.8009542E+03;
  4.6199289E-01;  9.9999998E-03;  2.0997329E-01;5303;  1.4286201E-02;  0.0000000E+00;  8.0253761E-03;  9.9846362E+02;  1.0000000E-01; -1.2728528E+03;3; -4.7181859E+00;  0.0000000E+00;  1.8091584E+00;0; -2.3496252E-02;  3.9861652E+04;  0.0000000E+00; -1.6852528E-01;  4.0000000E+04;  0.0000000E+00;  4.0014352E+04; -3.7390731E-02;  0.0000000E+00;  1.3894480E-02;  1.9480000E+03;
  4.6200714E-01;  9.9999998E-03;  2.1996897E-01;5304;  1.3849058E-02;  0.0000000E+00;  8.1503764E-03;  9.9840747E+02;  1.0000000E-01; -1.3193700E+03;3; -4.6179419E+00;  0.0000000E+00;  1.8750678E+00;0; -2.2042679E-02;  3.9855797E+04;  0.0000000E+00; -1.9094189E-01;  4.0000000E+04;  0.0000000E+00;  4.0015980E+04; -3.5065189E-02;  0.0000000E+00;  1.3022510E-02;  2.1395422E+03;
  4.6201834E-01;  9.9999998E-03;  2.2996572E-01;5305;  1.3399259E-02;  0.0000000E+00;  8.2934527E-03;  9.9835864E+02;  1.0000000E-01; -1.3598132E+03;3; -4.5267782E+00;  0.0000000E+00;  1.9327087E+00;0; -2.0417325E-02;  3.9850188E+04;  0.0000000E+00; -2.0548758E-01;  4.0000000E+04;  0.0000000E+00;  4.0017660E+04; -3.2883111E-02;  0.0000000E+00;  1.2465787E-02;  2.3583555E+03;
  4.7196910E-01;  9.9999998E-03;  6.9993272E-02;5350;  1.7168062E-02;  0.0000000E+00;  4.4288109E-03;  9.9912122E+02;  1.0000000E-01; -7.2807812E+02;3; -6.8853040E+00;  0.0000000E+00;  4.2719591E-01;0; -2.1013070E-02;  3.9921496E+04;  0.0000000E+00;  1.2539271E-02;  4.0000000E+04;  0.0000000E+00;  4.0008504E+04; -7.2369240E-02;  0.0000000E+00;  5.1356170E-02;  1.1460039E+03;
  4.7196215E-01;  9.9999998E-03;  7.9993710E-02;5351;  1.7058175E-02;  0.0000000E+00;  4.9737929E-03;  9.9912280E+02;  1.0000000E-01; -7.2674481E+02;3; -6.7265005E+00;  0.0000000E+00;  5.3140265E-01;0; -2.2367354E-02;  3.9921242E+04;  0.0000000E+00;  1.3590823E-02;  4.0000000E+04;  0.0000000E+00;  4.0008660E+04; -7.0840664E-02;  0.0000000E+00;  4.8473310E-02;  1.1739437E+03;
  4.7195515E-01;  9.9999998E-03;  8.9994073E-02;5352;  1.6934704E-02;  0.0000000E+00;  5.4804916E-03;  9.9911621E+02;  1.0000000E-01; -7.3222614E+02;3; -6.5574474E+00;  0.0000000E+00;  6.3886702E-01;0; -2.3701347E-02;  3.9920352E+04;  0.0000000E+00;  1.3557208E-02;  4.0000000E+04;  0.0000000E+00;  4.0008977E+04; -6.9121830E-02;  0.0000000E+00;  4.5420483E-02;  1.2076013E+03;
  4.7194794E-01;  9.9999998E-03;  9.9994048E-02;5353;  1.6796265E-02;  0.0000000E+00;  5.9458390E-03;  9.9910114E+02;  1.0000000E-01; -7.4467023E+02;3; -6.3802748E+00;  0.0000000E+00;  7.4696839E-01;0; -2.4955075E-02;  3.9918816E+04;  0.0000000E+00;  1.2202832E-02;  4.0000000E+04;  0.0000000E+00;  4.0009258E+04; -6.7218877E-02;  0.0000000E+00;  4.2263802E-02;  1.2438979E+03;
  4.7194123E-01;  9.9999998E-03;  1.0999332E-01;5354;  1.6640969E-02;  0.0000000E+00;  6.3699884E-03;  9.9907831E+02;  1.0000000E-01; -7.6358331E+02;3; -6.2001710E+00;  0.0000000E+00;  8.5698551E-01;0; -2.6072308E-02;  3.9916516E+04;  0.0000000E+00;  9.2795566E-03;  4.0000000E+04;  0.0000000E+00;  4.0009527E+04; -6.5140136E-02;  0.0000000E+00;  3.9067827E-02;  1.2795840E+03;
  4.7193587E-01;  9.9999998E-03;  1.1999165E-01;5355;  1.6467897E-02;  0.0000000E+00;  6.7511941E-03;  9.9904376E+02;  1.0000000E-01; -7.9222443E+02;3; -6.0211287E+00;  0.0000000E+00;  9.5981771E-01;0; -2.7003497E-02;  3.9913711E+04;  0.0000000E+00;  4.5001102E-03;  4.0000000E+04;  0.0000000E+00;  4.0009777E+04; -6.2896080E-02;  0.0000000E+00;  3.5892583E-02;  1.3116226E+03;
  4.7193271E-01;  9.9999998E-03;  1.2998907E-01;5356;  1.6276112E-02;  0.0000000E+00;  7.0903054E-03;  9.9900250E+02;  1.0000000E-01; -8.2639630E+02;3; -5.8483601E+00;  0.0000000E+00;  1.0539218E+00;0; -2.7708698E-02;  3.9910105E+04;  0.0000000E+00; -2.4969587E-03;  4.0000000E+04;  0.0000000E+00;  4.0009887E+04; -6.0499273E-02;  0.0000000E+00;  3.2790575E-02;  1.3387020E+03;
  4.7193226E-01;  9.9999998E-03;  1.3998571E-01;5357;  1.6064078E-02;  0.0000000E+00;  7.3935455E-03;  9.9895667E+02;  1.0000000E-01; -8.6437054E+02;3; -5.6820607E+00;  0.0000000E+00;  1.1484295E+00;0; -2.8159339E-02;  3.9906254E+04;  0.0000000E+00; -1.2161871E-02;  4.0000000E+04;  0.0000000E+00;  4.0010148E+04; -5.7964329E-02;  0.0000000E+00;  2.9804990E-02;  1.3619740E+03;
  4.7193497E-01;  9.9999998E-03;  1.4998198E-01;5358;  1.5830901E-02;  0.0000000E+00;  7.6643811E-03;  9.9890491E+02;  1.0000000E-01; -9.0728290E+02;3; -5.5114799E+00;  0.0000000E+00;  1.2558631E+00;0; -2.8337335E-02;  3.9901961E+04;  0.0000000E+00; -2.4995321E-02;  4.0000000E+04;  0.0000000E+00;  4.0010258E+04; -5.5308223E-02;  0.0000000E+00;  2.6970888E-02;  1.3854185E+03;
  4.7194135E-01;  9.9999998E-03;  1.5997832E-01;5359;  1.5574900E-02;  0.0000000E+00;  7.9066129E-03;  9.9885132E+02;  1.0000000E-01; -9.5167670E+02;3; -5.3421230E+00;  0.0000000E+00;  1.3675308E+00;0; -2.8225115E-02;  3.9897395E+04;  0.0000000E+00; -4.1323505E-02;  4.0000000E+04;  0.0000000E+00;  4.0010566E+04; -5.2551717E-02;  0.0000000E+00;  2.4326602E-02;  1.4153527E+03;
  4.7195163E-01;  9.9999998E-03;  1.6997510E-01;5360;  1.5294682E-02;  0.0000000E+00;  8.1218630E-03;  9.9879431E+02;  1.0000000E-01; -9.9888525E+02;3; -5.1823626E+00;  0.0000000E+00;  1.4791809E+00;0; -2.7811136E-02;  3.9892617E+04;  0.0000000E+00; -6.0865350E-02;  4.0000000E+04;  0.0000000E+00;  4.0010742E+04; -4.9721401E-02;  0.0000000E+00;  2.1910265E-02;  1.4593503E+03;
  4.7196546E-01;  9.9999998E-03;  1.7997253E-01;5361;  1.4989704E-02;  0.0000000E+00;  8.3149197E-03;  9.9874182E+02;  1.0000000E-01; -1.0423901E+03;3; -5.0303273E+00;  0.0000000E+00;  1.5868659E+00;0; -2.7101438E-02;  3.9887664E+04;  0.0000000E+00; -8.2670733E-02;  4.0000000E+04;  0.0000000E+00;  4.0011070E+04; -4.6851546E-02;  0.0000000E+00;  1.9750107E-02;  1.5250455E+03;
  4.7198191E-01;  9.9999998E-03;  1.8997073E-01;5362;  1.4658863E-02;  0.0000000E+00;  8.4875198E-03;  9.9868542E+02;  1.0000000E-01; -1.0891049E+03;3; -4.8911080E+00;  0.0000000E+00;  1.6875365E+00;0; -2.6121764E-02;  3.9882434E+04;  0.0000000E+00; -1.0535364E-01;  4.0000000E+04;  0.0000000E+00;  4.0011902E+04; -4.3982394E-02;  0.0000000E+00;  1.7860631E-02;  1.6174653E+03;
  4.7199854E-01;  9.9999998E-03;  1.9996978E-01;5363;  1.4301874E-02;  0.0000000E+00;  8.6423233E-03;  9.9863159E+02;  1.0000000E-01; -1.1336963E+03;3; -4.7639976E+00;  0.0000000E+00;  1.7716700E+00;0; -2.4912553E-02;  3.9877324E+04;  0.0000000E+00; -1.2738228E-01;  4.0000000E+04;  0.0000000E+00;  4.0012836E+04; -4.1157361E-02;  0.0000000E+00;  1.6244808E-02;  1.7359742E+03;
  4.7201318E-01;  9.9999998E-03;  2.0996979E-01;5364;  1.3919202E-02;  0.0000000E+00;  8.7831747E-03;  9.9857928E+02;  1.0000000E-01; -1.1770531E+03;3; -4.6532001E+00;  0.0000000E+00;  1.8411955E+00;0; -2.3518128E-02;  3.9872188E+04;  0.0000000E+00; -1.4724395E-01;  4.0000000E+04;  0.0000000E+00;  4.0013867E+04; -3.8419221E-02;  0.0000000E+00;  1.4901092E-02;  1.8690955E+03;
  4.7202319E-01;  9.9999998E-03;  2.1997093E-01;5365;  1.3513600E-02;  0.0000000E+00;  8.9098914E-03;  9.9852588E+02;  1.0000000E-01; -1.2212987E+03;3; -4.5529394E+00;  0.0000000E+00;  1.9032247E+00;0; -2.1982208E-02;  3.9867012E+04;  0.0000000E+00; -1.6327289E-01;  4.0000000E+04;  0.0000000E+00;  4.0014758E+04; -3.5805911E-02;  0.0000000E+00;  1.3823702E-02;  1.9848951E+03;
  4.7202706E-01;  9.9999998E-03;  2.2997250E-01;5366;  1.3088966E-02;  0.0000000E+00;  9.0146558E-03;  9.9847064E+02;  1.0000000E-01; -1.2670258E+03;3; -4.4663372E+00;  0.0000000E+00;  1.9419031E+00;0; -2.0367084E-02;  3.9862059E+04;  0.0000000E+00; -1.7302890E-01;  4.0000000E+04;  0.0000000E+00;  4.0015270E+04; -3.3348229E-02;  0.0000000E+00;  1.2981145E-02;  2.0445281E+03;
  4.8195210E-01;  9.9999998E-03;  1.0998721E-01;5415;  1.5948107E-02;  0.0000000E+00;  6.8446617E-03;  9.9914630E+02;  1.0000146E-01; -7.0728857E+02;3; -6.1520405E+00;  0.0000000E+00;  8.3834904E-01;0; -2.6682612E-02;  3.9921430E+04;  0.0000000E+00; -3.5227790E-02;  4.0000000E+04;  0.0000000E+00;  4.0009047E+04; -6.8792425E-02;  0.0000000E+00;  4.2109814E-02;  1.2271180E+03;
  4.8194873E-01;  9.9999998E-03;  1.1998496E-01;5416;  1.5797639E-02;  0.0000000E+00;  7.2484175E-03;  9.9911816E+02;  1.0000150E-01; -7.3059656E+02;3; -5.9712367E+00;  0.0000000E+00;  9.4281828E-01;0; -2.7558409E-02;  3.9919227E+04;  0.0000000E+00; -4.0339593E-02;  4.0000000E+04;  0.0000000E+00;  4.0009090E+04; -6.6320412E-02;  0.0000000E+00;  3.8762003E-02;  1.2404872E+03;
  4.8195857E-01;  9.9999998E-03;  9.9988587E-02;5414;  1.6083261E-02;  0.0000000E+00;  6.3992250E-03;  9.9916809E+02;  1.0000148E-01; -6.8921503E+02;3; -6.3331990E+00;  0.0000000E+00;  7.3036587E-01;0; -2.5612164E-02;  3.9923430E+04;  0.0000000E+00; -2.9692447E-02;  4.0000000E+04;  0.0000000E+00;  4.0009051E+04; -7.1093544E-02;  0.0000000E+00;  4.5481380E-02;  1.2148622E+03;
  4.8194826E-01;  9.9999998E-03;  1.2998183E-01;5417;  1.5630983E-02;  0.0000000E+00;  7.6128431E-03;  9.9908344E+02;  1.0000146E-01; -7.5933649E+02;3; -5.7931895E+00;  0.0000000E+00;  1.0442494E+00;0; -2.8203484E-02;  3.9916090E+04;  0.0000000E+00; -4.4996377E-02;  4.0000000E+04;  0.0000000E+00;  4.0009336E+04; -6.3689008E-02;  0.0000000E+00;  3.5485525E-02;  1.2539243E+03;
  4.8196772E-01;  9.9999998E-03;  8.9989319E-02;5413;  1.6203891E-02;  0.0000000E+00;  5.9137186E-03;  9.9918628E+02;  1.0000148E-01; -6.7415375E+02;3; -6.5107269E+00;  0.0000000E+00;  6.2378156E-01;0; -2.4393413E-02;  3.9924945E+04;  0.0000000E+00; -2.3971898E-02;  4.0000000E+04;  0.0000000E+00;  4.0008949E+04; -7.3213339E-02;  0.0000000E+00;  4.8819926E-02;  1.2059623E+03;
  4.8197928E-01;  9.9999998E-03;  7.9989590E-02;5412;  1.6311534E-02;  0.0000000E+00;  5.3864745E-03;  9.9919476E+02;  1.0000142E-01; -6.6714160E+02;3; -6.6801386E+00;  0.0000000E+00;  5.1827097E-01;0; -2.3080654E-02;  3.9925629E+04;  0.0000000E+00; -1.8418435E-02;  4.0000000E+04;  0.0000000E+00;  4.0008984E+04; -7.5142525E-02;  0.0000000E+00;  5.2061871E-02;  1.2025751E+03;
  4.8195004E-01;  9.9999998E-03;  1.3997804E-01;5418;  1.5446743E-02;  0.0000000E+00;  7.9435632E-03;  9.9903961E+02;  1.0000150E-01; -7.9568115E+02;3; -5.6201544E+00;  0.0000000E+00;  1.1479210E+00;0; -2.8594565E-02;  3.9912930E+04;  0.0000000E+00; -4.9423937E-02;  4.0000000E+04;  0.0000000E+00;  4.0009137E+04; -6.0911324E-02;  0.0000000E+00;  3.2316759E-02;  1.2682701E+03;
  4.8199245E-01;  9.9999998E-03;  6.9989659E-02;5411;  1.6407285E-02;  0.0000000E+00;  4.8178365E-03;  9.9919971E+02;  1.0000142E-01; -6.6304291E+02;3; -6.8383436E+00;  0.0000000E+00;  4.1628516E-01;0; -2.1733068E-02;  3.9926203E+04;  0.0000000E+00; -1.3384666E-02;  4.0000000E+04;  0.0000000E+00;  4.0008922E+04; -7.6872341E-02;  0.0000000E+00;  5.5139273E-02;  1.2064689E+03;
  4.8195356E-01;  9.9999998E-03;  1.4997408E-01;5419;  1.5243736E-02;  0.0000000E+00;  8.2431948E-03;  9.9899445E+02;  1.0000141E-01; -8.3306281E+02;3; -5.4546642E+00;  0.0000000E+00;  1.2515332E+00;0; -2.8718522E-02;  3.9909094E+04;  0.0000000E+00; -5.4126859E-02;  4.0000000E+04;  0.0000000E+00;  4.0009461E+04; -5.8002550E-02;  0.0000000E+00;  2.9284028E-02;  1.2868287E+03;
  4.8195812E-01;  9.9999998E-03;  1.5997052E-01;5420;  1.5020844E-02;  0.0000000E+00;  8.5160136E-03;  9.9894550E+02;  1.0000144E-01; -8.7365424E+02;3; -5.2860165E+00;  0.0000000E+00;  1.3674463E+00;0; -2.8560264E-02;  3.9904941E+04;  0.0000000E+00; -5.9782054E-02;  4.0000000E+04;  0.0000000E+00;  4.0009668E+04; -5.4981977E-02;  0.0000000E+00;  2.6421713E-02;  1.3153406E+03;
  4.8196349E-01;  9.9999998E-03;  1.6996779E-01;5421;  1.4776168E-02;  0.0000000E+00;  8.7626232E-03;  9.9889435E+02;  1.0000145E-01; -9.1602338E+02;3; -5.1224780E+00;  0.0000000E+00;  1.4902933E+00;0; -2.8107528E-02;  3.9900309E+04;  0.0000000E+00; -6.6912860E-02;  4.0000000E+04;  0.0000000E+00;  4.0009898E+04; -5.1876336E-02;  0.0000000E+00;  2.3768809E-02;  1.3612904E+03;
  4.8196888E-01;  9.9999998E-03;  1.7996642E-01;5422;  1.4508271E-02;  0.0000000E+00;  8.9847464E-03;  9.9884094E+02;  1.0000140E-01; -9.6026904E+02;3; -4.9661636E+00;  0.0000000E+00;  1.6092492E+00;0; -2.7361970E-02;  3.9895824E+04;  0.0000000E+00; -7.5752944E-02;  4.0000000E+04;  0.0000000E+00;  4.0010523E+04; -4.8720967E-02;  0.0000000E+00;  2.1358997E-02;  1.4318866E+03;
  4.8197374E-01;  9.9999998E-03;  1.8996677E-01;5423;  1.4215830E-02;  0.0000000E+00;  9.1830371E-03;  9.9878973E+02;  1.0000148E-01; -1.0026876E+03;3; -4.8233042E+00;  0.0000000E+00;  1.7148376E+00;0; -2.6343701E-02;  3.9890789E+04;  0.0000000E+00; -8.6244226E-02;  4.0000000E+04;  0.0000000E+00;  4.0011359E+04; -4.5559548E-02;  0.0000000E+00;  1.9215846E-02;  1.5292231E+03;
  4.8197708E-01;  9.9999998E-03;  1.9996922E-01;5424;  1.3897735E-02;  0.0000000E+00;  9.3575707E-03;  9.9873627E+02;  1.0000140E-01; -1.0469827E+03;3; -4.6932364E+00;  0.0000000E+00;  1.8070935E+00;0; -2.5087059E-02;  3.9885492E+04;  0.0000000E+00; -9.7993433E-02;  4.0000000E+04;  0.0000000E+00;  4.0012191E+04; -4.2439807E-02;  0.0000000E+00;  1.7352749E-02;  1.6412495E+03;
  4.8197630E-01;  9.9999998E-03;  2.0997338E-01;5425;  1.3553573E-02;  0.0000000E+00;  9.5082894E-03;  9.9867847E+02;  1.0000147E-01; -1.0948826E+03;3; -4.5804706E+00;  0.0000000E+00;  1.8722880E+00;0; -2.3634125E-02;  3.9880305E+04;  0.0000000E+00; -1.1015659E-01;  4.0000000E+04;  0.0000000E+00;  4.0012934E+04; -3.9409585E-02;  0.0000000E+00;  1.5775461E-02;  1.7356198E+03;
  4.8197117E-01;  9.9999998E-03;  2.1997842E-01;5426;  1.3183304E-02;  0.0000000E+00;  9.6281860E-03;  9.9861505E+02;  1.0000146E-01; -1.1474242E+03;3; -4.4831524E+00;  0.0000000E+00;  1.9202824E+00;0; -2.2044493E-02;  3.9875156E+04;  0.0000000E+00; -1.2116233E-01;  4.0000000E+04;  0.0000000E+00;  4.0013023E+04; -3.6512662E-02;  0.0000000E+00;  1.4468169E-02;  1.7596060E+03;
  4.8196277E-01;  9.9999998E-03;  2.2998218E-01;5427;  1.2786752E-02;  0.0000000E+00;  9.6926456E-03;  9.9854626E+02;  1.0000141E-01; -1.2044103E+03;3; -4.4038429E+00;  0.0000000E+00;  1.9427747E+00;0; -2.0467579E-02;  3.9870246E+04;  0.0000000E+00; -1.2835382E-01;  4.0000000E+04;  0.0000000E+00;  4.0012379E+04; -3.3784661E-02;  0.0000000E+00;  1.3317083E-02;  1.6831010E+03;
  4.9208146E-01;  9.9999998E-03;  6.9977336E-02;5472;  1.5598319E-02;  0.0000000E+00;  5.2011637E-03;  9.9925366E+02;  1.0000208E-01; -6.1830347E+02;3; -6.7850690E+00;  0.0000000E+00;  4.0591222E-01;0; -2.2579961E-02;  3.9929355E+04;  0.0000000E+00; -4.1370679E-02;  4.0000000E+04;  0.0000000E+00;  4.0009426E+04; -8.1440464E-02;  0.0000000E+00;  5.8860503E-02;  1.2576338E+03;
  4.9206361E-01;  9.9999998E-03;  7.9976134E-02;5473;  1.5521522E-02;  0.0000000E+00;  5.7926951E-03;  9.9924255E+02;  1.0000209E-01; -6.2753778E+02;3; -6.6263905E+00;  0.0000000E+00;  5.0345755E-01;0; -2.3907863E-02;  3.9928828E+04;  0.0000000E+00; -5.2029893E-02;  4.0000000E+04;  0.0000000E+00;  4.0008969E+04; -7.9499751E-02;  0.0000000E+00;  5.5591889E-02;  1.2227147E+03;
  4.9204689E-01;  9.9999998E-03;  8.9975081E-02;5474;  1.5434026E-02;  0.0000000E+00;  6.3401507E-03;  9.9922968E+02;  1.0000204E-01; -6.3820410E+02;3; -6.4565759E+00;  0.0000000E+00;  6.0572028E-01;0; -2.5187109E-02;  3.9928055E+04;  0.0000000E+00; -6.2158402E-02;  4.0000000E+04;  0.0000000E+00;  4.0008922E+04; -7.7349089E-02;  0.0000000E+00;  5.2161980E-02;  1.1956742E+03;
  4.9203262E-01;  9.9999998E-03;  9.9973872E-02;5475;  1.5335226E-02;  0.0000000E+00;  6.8440028E-03;  9.9921198E+02;  1.0000208E-01; -6.5287036E+02;3; -6.2787580E+00;  0.0000000E+00;  7.0764333E-01;0; -2.6359942E-02;  3.9926883E+04;  0.0000000E+00; -7.0799522E-02;  4.0000000E+04;  0.0000000E+00;  4.0008789E+04; -7.5000249E-02;  0.0000000E+00;  4.8640307E-02;  1.1763182E+03;
  4.9202165E-01;  9.9999998E-03;  1.0997228E-01;5476;  1.5223581E-02;  0.0000000E+00;  7.3083122E-03;  9.9919116E+02;  1.0000202E-01; -6.7010443E+02;3; -6.0969739E+00;  0.0000000E+00;  8.1487727E-01;0; -2.7374610E-02;  3.9925293E+04;  0.0000000E+00; -7.7075213E-02;  4.0000000E+04;  0.0000000E+00;  4.0008539E+04; -7.2464496E-02;  0.0000000E+00;  4.5089886E-02;  1.1639122E+03;
  4.9201488E-01;  9.9999998E-03;  1.1997002E-01;5477;  1.5098465E-02;  0.0000000E+00;  7.7339523E-03;  9.9916583E+02;  1.0000196E-01; -6.9109149E+02;3; -5.9146905E+00;  0.0000000E+00;  9.2468202E-01;0; -2.8188087E-02;  3.9923535E+04;  0.0000000E+00; -8.0326155E-02;  4.0000000E+04;  0.0000000E+00;  4.0008613E+04; -6.9752991E-02;  0.0000000E+00;  4.1564904E-02;  1.1576741E+03;
  4.9201238E-01;  9.9999998E-03;  1.2996709E-01;5478;  1.4959320E-02;  0.0000000E+00;  8.1218574E-03;  9.9913708E+02;  1.0000198E-01; -7.1489331E+02;3; -5.7352266E+00;  0.0000000E+00;  1.0339001E+00;0; -2.8769016E-02;  3.9920953E+04;  0.0000000E+00; -8.0282435E-02;  4.0000000E+04;  0.0000000E+00;  4.0008590E+04; -6.6877060E-02;  0.0000000E+00;  3.8108043E-02;  1.1574908E+03;
  4.9201354E-01;  9.9999998E-03;  1.3996370E-01;5479;  1.4804974E-02;  0.0000000E+00;  8.4795533E-03;  9.9910168E+02;  1.0000201E-01; -7.4422583E+02;3; -5.5559559E+00;  0.0000000E+00;  1.1457427E+00;0; -2.9098887E-02;  3.9918090E+04;  0.0000000E+00; -7.7146642E-02;  4.0000000E+04;  0.0000000E+00;  4.0008449E+04; -6.3848868E-02;  0.0000000E+00;  3.4749981E-02;  1.1645658E+03;
  4.9201748E-01;  9.9999998E-03;  1.4996032E-01;5480;  1.4634431E-02;  0.0000000E+00;  8.8072335E-03;  9.9905817E+02;  1.0000207E-01; -7.8027417E+02;3; -5.3831906E+00;  0.0000000E+00;  1.2651308E+00;0; -2.9169507E-02;  3.9914793E+04;  0.0000000E+00; -7.1640380E-02;  4.0000000E+04;  0.0000000E+00;  4.0008590E+04; -6.0682353E-02;  0.0000000E+00;  3.1512845E-02;  1.1821669E+03;
  4.9202335E-01;  9.9999998E-03;  1.5995759E-01;5481;  1.4446539E-02;  0.0000000E+00;  9.1090286E-03;  9.9901306E+02;  1.0000201E-01; -8.1765582E+02;3; -5.2131715E+00;  0.0000000E+00;  1.3850105E+00;0; -2.8968254E-02;  3.9910754E+04;  0.0000000E+00; -6.5044917E-02;  4.0000000E+04;  0.0000000E+00;  4.0008797E+04; -5.7395358E-02;  0.0000000E+00;  2.8427104E-02;  1.2160885E+03;
  4.9202958E-01;  9.9999998E-03;  1.6995627E-01;5482;  1.4239334E-02;  0.0000000E+00;  9.3857450E-03;  9.9896344E+02;  1.0000210E-01; -8.5879047E+02;3; -5.0488248E+00;  0.0000000E+00;  1.5106348E+00;0; -2.8481394E-02;  3.9906379E+04;  0.0000000E+00; -5.8941171E-02;  4.0000000E+04;  0.0000000E+00;  4.0009418E+04; -5.4013893E-02;  0.0000000E+00;  2.5532499E-02;  1.2741652E+03;
  4.9203455E-01;  9.9999998E-03;  1.7995679E-01;5483;  1.4011094E-02;  0.0000000E+00;  9.6357660E-03;  9.9891095E+02;  1.0000210E-01; -9.0224603E+02;3; -4.8924437E+00;  0.0000000E+00;  1.6293904E+00;0; -2.7706208E-02;  3.9901289E+04;  0.0000000E+00; -5.4962173E-02;  4.0000000E+04;  0.0000000E+00;  4.0009961E+04; -5.0574243E-02;  0.0000000E+00;  2.2868035E-02;  1.3631984E+03;
  4.9203530E-01;  9.9999998E-03;  1.8995959E-01;5484;  1.3759933E-02;  0.0000000E+00;  9.8591084E-03;  9.9885272E+02;  1.0000215E-01; -9.5049158E+02;3; -4.7471881E+00;  0.0000000E+00;  1.7410984E+00;0; -2.6656115E-02;  3.9895840E+04;  0.0000000E+00; -5.4477703E-02;  4.0000000E+04;  0.0000000E+00;  4.0010949E+04; -4.7122050E-02;  0.0000000E+00;  2.0465935E-02;  1.4824114E+03;
  4.9202904E-01;  9.9999998E-03;  1.9996448E-01;5485;  1.3484236E-02;  0.0000000E+00;  1.0053374E-02;  9.9879144E+02;  1.0000195E-01; -1.0012556E+03;3; -4.6125631E+00;  0.0000000E+00;  1.8368791E+00;0; -2.5358474E-02;  3.9889938E+04;  0.0000000E+00; -5.8204204E-02;  4.0000000E+04;  0.0000000E+00;  4.0011984E+04; -4.3709170E-02;  0.0000000E+00;  1.8350696E-02;  1.6151974E+03;
  4.9201778E-01;  9.9999998E-03;  2.0997164E-01;5486;  1.3182785E-02;  0.0000000E+00;  1.0217804E-02;  9.9872357E+02;  1.0000203E-01; -1.0575009E+03;3; -4.5000005E+00;  0.0000000E+00;  1.8996484E+00;0; -2.3848629E-02;  3.9883945E+04;  0.0000000E+00; -6.5880835E-02;  4.0000000E+04;  0.0000000E+00;  4.0012816E+04; -4.0388703E-02;  0.0000000E+00;  1.6540075E-02;  1.7141644E+03;
  4.9200130E-01;  9.9999998E-03;  2.1998028E-01;5487;  1.2853778E-02;  0.0000000E+00;  1.0342995E-02;  9.9864777E+02;  1.0000205E-01; -1.1203140E+03;3; -4.4024768E+00;  0.0000000E+00;  1.9401003E+00;0; -2.2183947E-02;  3.9878000E+04;  0.0000000E+00; -7.6018609E-02;  4.0000000E+04;  0.0000000E+00;  4.0012484E+04; -3.7209425E-02;  0.0000000E+00;  1.5025477E-02;  1.6982253E+03;
  4.9197957E-01;  9.9999998E-03;  2.2998622E-01;5488;  1.2492670E-02;  0.0000000E+00;  1.0391004E-02;  9.9855701E+02;  1.0000207E-01; -1.1954723E+03;3; -4.3262992E+00;  0.0000000E+00;  1.9586164E+00;0; -2.0558324E-02;  3.9872055E+04;  0.0000000E+00; -8.5723773E-02;  4.0000000E+04;  0.0000000E+00;  4.0011281E+04; -3.4212127E-02;  0.0000000E+00;  1.3653804E-02;  1.5495549E+03;
  5.0206953E-01;  9.9999998E-03;  6.9970541E-02;5533;  1.4752769E-02;  0.0000000E+00;  5.5643409E-03;  9.9926422E+02;  1.0000388E-01; -6.0956299E+02;3; -6.7234812E+00;  0.0000000E+00;  3.9865515E-01;0; -2.3522720E-02;  3.9928672E+04;  0.0000000E+00; -6.8455316E-02;  4.0000000E+04;  0.0000000E+00;  4.0009656E+04; -8.5968077E-02;  0.0000000E+00;  6.2445357E-02;  1.2893964E+03;
  5.0205988E-01;  9.9999998E-03;  7.9968013E-02;5534;  1.4698377E-02;  0.0000000E+00;  6.1793397E-03;  9.9925330E+02;  1.0000373E-01; -6.1864911E+02;3; -6.5648236E+00;  0.0000000E+00;  4.9181297E-01;0; -2.4822541E-02;  3.9927926E+04;  0.0000000E+00; -8.3628513E-02;  4.0000000E+04;  0.0000000E+00;  4.0008965E+04; -8.3822295E-02;  0.0000000E+00;  5.8999754E-02;  1.2276432E+03;
  5.0205070E-01;  9.9999998E-03;  8.9965872E-02;5535;  1.4634191E-02;  0.0000000E+00;  6.7469403E-03;  9.9923822E+02;  1.0000387E-01; -6.3114258E+02;3; -6.3948717E+00;  0.0000000E+00;  5.8931178E-01;0; -2.6061848E-02;  3.9927574E+04;  0.0000000E+00; -9.6850693E-02;  4.0000000E+04;  0.0000000E+00;  4.0008660E+04; -8.1454374E-02;  0.0000000E+00;  5.5392526E-02;  1.1737457E+03;
  5.0204223E-01;  9.9999998E-03;  9.9964075E-02;5536;  1.4559813E-02;  0.0000000E+00;  7.2694062E-03;  9.9922156E+02;  1.0000372E-01; -6.4491998E+02;3; -6.2169814E+00;  0.0000000E+00;  6.8909270E-01;0; -2.7184512E-02;  3.9926711E+04;  0.0000000E+00; -1.0666280E-01;  4.0000000E+04;  0.0000000E+00;  4.0008289E+04; -7.8878701E-02;  0.0000000E+00;  5.1694188E-02;  1.1290969E+03;
  5.0203532E-01;  9.9999998E-03;  1.0996232E-01;5537;  1.4473880E-02;  0.0000000E+00;  7.7535301E-03;  9.9920660E+02;  1.0000384E-01; -6.5731470E+02;3; -6.0342102E+00;  0.0000000E+00;  7.9659802E-01;0; -2.8141458E-02;  3.9925617E+04;  0.0000000E+00; -1.1178333E-01;  4.0000000E+04;  0.0000000E+00;  4.0007895E+04; -7.6108404E-02;  0.0000000E+00;  4.7966946E-02;  1.0948259E+03;
  5.0203055E-01;  9.9999998E-03;  1.1996032E-01;5538;  1.4376144E-02;  0.0000000E+00;  8.2001342E-03;  9.9918524E+02;  1.0000389E-01; -6.7499323E+02;3; -5.8511767E+00;  0.0000000E+00;  9.0828854E-01;0; -2.8893165E-02;  3.9924277E+04;  0.0000000E+00; -1.1131727E-01;  4.0000000E+04;  0.0000000E+00;  4.0007754E+04; -7.3155828E-02;  0.0000000E+00;  4.4262663E-02;  1.0719312E+03;
  5.0202811E-01;  9.9999998E-03;  1.2995791E-01;5539;  1.4266129E-02;  0.0000000E+00;  8.6120060E-03;  9.9916162E+02;  1.0000384E-01; -6.9459760E+02;3; -5.6692986E+00;  0.0000000E+00;  1.0257225E+00;0; -2.9412188E-02;  3.9922539E+04;  0.0000000E+00; -1.0494777E-01;  4.0000000E+04;  0.0000000E+00;  4.0007707E+04; -7.0032574E-02;  0.0000000E+00;  4.0620387E-02;  1.0619020E+03;
  5.0202775E-01;  9.9999998E-03;  1.3995539E-01;5540;  1.4143330E-02;  0.0000000E+00;  8.9938752E-03;  9.9913245E+02;  1.0000389E-01; -7.1874506E+02;3; -5.4899917E+00;  0.0000000E+00;  1.1431046E+00;0; -2.9684480E-02;  3.9919934E+04;  0.0000000E+00; -9.3040712E-02;  4.0000000E+04;  0.0000000E+00;  4.0007730E+04; -6.6750802E-02;  0.0000000E+00;  3.7066322E-02;  1.0669910E+03;
  5.0202888E-01;  9.9999998E-03;  1.4995314E-01;5541;  1.4006671E-02;  0.0000000E+00;  9.3494104E-03;  9.9909467E+02;  1.0000379E-01; -7.5005280E+02;3; -5.3142891E+00;  0.0000000E+00;  1.2711582E+00;0; -2.9706065E-02;  3.9916879E+04;  0.0000000E+00; -7.6719791E-02;  4.0000000E+04;  0.0000000E+00;  4.0007738E+04; -6.3323528E-02;  0.0000000E+00;  3.3617463E-02;  1.0908484E+03;
  5.0203103E-01;  9.9999998E-03;  1.5995181E-01;5542;  1.3855308E-02;  0.0000000E+00;  9.6781254E-03;  9.9904663E+02;  1.0000366E-01; -7.8985413E+02;3; -5.1421409E+00;  0.0000000E+00;  1.3987871E+00;0; -2.9466266E-02;  3.9912887E+04;  0.0000000E+00; -5.8020316E-02;  4.0000000E+04;  0.0000000E+00;  4.0008488E+04; -5.9768215E-02;  0.0000000E+00;  3.0301949E-02;  1.1390043E+03;
  5.0203288E-01;  9.9999998E-03;  1.6995198E-01;5543;  1.3687431E-02;  0.0000000E+00;  9.9822395E-03;  9.9899530E+02;  1.0000373E-01; -8.3237146E+02;3; -4.9750037E+00;  0.0000000E+00;  1.5277078E+00;0; -2.8949568E-02;  3.9908094E+04;  0.0000000E+00; -3.9669842E-02;  4.0000000E+04;  0.0000000E+00;  4.0008961E+04; -5.6110751E-02;  0.0000000E+00;  2.7161183E-02;  1.2179039E+03;
  5.0203288E-01;  9.9999998E-03;  1.7995398E-01;5544;  1.3500790E-02;  0.0000000E+00;  1.0257943E-02;  9.9893634E+02;  1.0000380E-01; -8.8120959E+02;3; -4.8171711E+00;  0.0000000E+00;  1.6484512E+00;0; -2.8148711E-02;  3.9902445E+04;  0.0000000E+00; -2.4636611E-02;  4.0000000E+04;  0.0000000E+00;  4.0009883E+04; -5.2388463E-02;  0.0000000E+00;  2.4239752E-02;  1.3317159E+03;
  5.0202876E-01;  9.9999998E-03;  1.8995771E-01;5545;  1.3293101E-02;  0.0000000E+00;  1.0505907E-02;  9.9886859E+02;  1.0000368E-01; -9.3735614E+02;3; -4.6693039E+00;  0.0000000E+00;  1.7602917E+00;0; -2.7069844E-02;  3.9895938E+04;  0.0000000E+00; -1.5496620E-02;  4.0000000E+04;  0.0000000E+00;  4.0010910E+04; -4.8649296E-02;  0.0000000E+00;  2.1579452E-02;  1.4768889E+03;
  5.0202143E-01;  9.9999998E-03;  1.9996308E-01;5546;  1.3061938E-02;  0.0000000E+00;  1.0720693E-02;  9.9879474E+02;  1.0000372E-01; -9.9853961E+02;3; -4.5336003E+00;  0.0000000E+00;  1.8519504E+00;0; -2.5732681E-02;  3.9888730E+04;  0.0000000E+00; -1.3835541E-02;  4.0000000E+04;  0.0000000E+00;  4.0012270E+04; -4.4948936E-02;  0.0000000E+00;  1.9216254E-02;  1.6350034E+03;
  5.0201100E-01;  9.9999998E-03;  2.0997024E-01;5547;  1.2805247E-02;  0.0000000E+00;  1.0901910E-02;  9.9871265E+02;  1.0000365E-01; -1.0665376E+03;3; -4.4190001E+00;  0.0000000E+00;  1.9163885E+00;0; -2.4162969E-02;  3.9881535E+04;  0.0000000E+00; -1.9884733E-02;  4.0000000E+04;  0.0000000E+00;  4.0013266E+04; -4.1344229E-02;  0.0000000E+00;  1.7181261E-02;  1.7604086E+03;
  5.0199735E-01;  9.9999998E-03;  2.1997851E-01;5548;  1.2520152E-02;  0.0000000E+00;  1.1039839E-02;  9.9861890E+02;  1.0000384E-01; -1.1442145E+03;3; -4.3209157E+00;  0.0000000E+00;  1.9529915E+00;0; -2.2406541E-02;  3.9873949E+04;  0.0000000E+00; -3.2391962E-02;  4.0000000E+04;  0.0000000E+00;  4.0013074E+04; -3.7888195E-02;  0.0000000E+00;  1.5481655E-02;  1.7770994E+03;
  5.0198036E-01;  9.9999998E-03;  2.2998454E-01;5549;  1.2201035E-02;  0.0000000E+00;  1.1098799E-02;  9.9851514E+02;  1.0000373E-01; -1.2301874E+03;3; -4.2406597E+00;  0.0000000E+00;  1.9703370E+00;0; -2.0637650E-02;  3.9866645E+04;  0.0000000E+00; -4.8606653E-02;  4.0000000E+04;  0.0000000E+00;  4.0012254E+04; -3.4625974E-02;  0.0000000E+00;  1.3988324E-02;  1.6548196E+03;
  5.1201898E-01;  9.9999998E-03;  6.9969550E-02;5594;  1.3863195E-02;  0.0000000E+00;  5.9000119E-03;  9.9919806E+02;  1.0000610E-01; -6.6437622E+02;3; -6.6547408E+00;  0.0000000E+00;  3.9135882E-01;0; -2.4546735E-02;  3.9921027E+04;  0.0000000E+00; -9.0817958E-02;  4.0000000E+04;  0.0000000E+00;  4.0009477E+04; -9.0455286E-02;  0.0000000E+00;  6.5908551E-02;  1.2956925E+03;
  5.1201665E-01;  9.9999998E-03;  7.9966612E-02;5595;  1.3835519E-02;  0.0000000E+00;  6.5408912E-03;  9.9918866E+02;  1.0000617E-01; -6.7217847E+02;3; -6.4958167E+00;  0.0000000E+00;  4.8177728E-01;0; -2.5811568E-02;  3.9920949E+04;  0.0000000E+00; -1.0873888E-01;  4.0000000E+04;  0.0000000E+00;  4.0008883E+04; -8.8109106E-02;  0.0000000E+00;  6.2297538E-02;  1.2134792E+03;
  5.1201516E-01;  9.9999998E-03;  8.9963883E-02;5596;  1.3798716E-02;  0.0000000E+00;  7.1302387E-03;  9.9918176E+02;  1.0000612E-01; -6.7790668E+02;3; -6.3255281E+00;  0.0000000E+00;  5.7401669E-01;0; -2.7007692E-02;  3.9920902E+04;  0.0000000E+00; -1.2317932E-01;  4.0000000E+04;  0.0000000E+00;  4.0008133E+04; -8.5527949E-02;  0.0000000E+00;  5.8520257E-02;  1.1388252E+03;
  5.1201397E-01;  9.9999998E-03;  9.9961445E-02;5597;  1.3752201E-02;  0.0000000E+00;  7.6732752E-03;  9.9917175E+02;  1.0000619E-01; -6.8620276E+02;3; -6.1472888E+00;  0.0000000E+00;  6.7065918E-01;0; -2.8080307E-02;  3.9920914E+04;  0.0000000E+00; -1.3234034E-01;  4.0000000E+04;  0.0000000E+00;  4.0007758E+04; -8.2728460E-02;  0.0000000E+00;  5.4648153E-02;  1.0748859E+03;
  5.1201290E-01;  9.9999998E-03;  1.0995930E-01;5598;  1.3694870E-02;  0.0000000E+00;  8.1781475E-03;  9.9916010E+02;  1.0000629E-01; -6.9583209E+02;3; -5.9641738E+00;  0.0000000E+00;  7.7667606E-01;0; -2.8982569E-02;  3.9920559E+04;  0.0000000E+00; -1.3475746E-01;  4.0000000E+04;  0.0000000E+00;  4.0007293E+04; -7.9725116E-02;  0.0000000E+00;  5.0742548E-02;  1.0247087E+03;
  5.1201206E-01;  9.9999998E-03;  1.1995736E-01;5599;  1.3626723E-02;  0.0000000E+00;  8.6462907E-03;  9.9914899E+02;  1.0000619E-01; -7.0506641E+02;3; -5.7795811E+00;  0.0000000E+00;  8.9158720E-01;0; -2.9677987E-02;  3.9919996E+04;  0.0000000E+00; -1.2950808E-01;  4.0000000E+04;  0.0000000E+00;  4.0007199E+04; -7.6531418E-02;  0.0000000E+00;  4.6853431E-02;  9.9141394E+02;
  5.1201147E-01;  9.9999998E-03;  1.2995553E-01;5600;  1.3547703E-02;  0.0000000E+00;  9.0811811E-03;  9.9913239E+02;  1.0000630E-01; -7.1879443E+02;3; -5.5966382E+00;  0.0000000E+00;  1.0136018E+00;0; -3.0142400E-02;  3.9918645E+04;  0.0000000E+00; -1.1640434E-01;  4.0000000E+04;  0.0000000E+00;  4.0006984E+04; -7.3159963E-02;  0.0000000E+00;  4.3017562E-02;  9.7838019E+02;
  5.1201111E-01;  9.9999998E-03;  1.3995387E-01;5601;  1.3457601E-02;  0.0000000E+00;  9.4876681E-03;  9.9910883E+02;  1.0000619E-01; -7.3830005E+02;3; -5.4160156E+00;  0.0000000E+00;  1.1421068E+00;0; -3.0364834E-02;  3.9916695E+04;  0.0000000E+00; -9.6112445E-02;  4.0000000E+04;  0.0000000E+00;  4.0007141E+04; -6.9622703E-02;  0.0000000E+00;  3.9257869E-02;  9.8951257E+02;
  5.1201081E-01;  9.9999998E-03;  1.4995275E-01;5602;  1.3356062E-02;  0.0000000E+00;  9.8685278E-03;  9.9907526E+02;  1.0000607E-01; -7.6615112E+02;3; -5.2392530E+00;  0.0000000E+00;  1.2722731E+00;0; -3.0344896E-02;  3.9913809E+04;  0.0000000E+00; -7.0216119E-02;  4.0000000E+04;  0.0000000E+00;  4.0007500E+04; -6.5933071E-02;  0.0000000E+00;  3.5588175E-02;  1.0289795E+03;
  5.1201022E-01;  9.9999998E-03;  1.5995260E-01;5603;  1.3242343E-02;  0.0000000E+00;  1.0223668E-02;  9.9902924E+02;  1.0000635E-01; -8.0427350E+02;3; -5.0669074E+00;  0.0000000E+00;  1.4055901E+00;0; -3.0072421E-02;  3.9909520E+04;  0.0000000E+00; -4.1478883E-02;  4.0000000E+04;  0.0000000E+00;  4.0008051E+04; -6.2108047E-02;  0.0000000E+00;  3.2035626E-02;  1.1014369E+03;
  5.1200849E-01;  9.9999998E-03;  1.6995381E-01;5604;  1.3114912E-02;  0.0000000E+00;  1.0554230E-02;  9.9897211E+02;  1.0000616E-01; -8.5158081E+02;3; -4.8997402E+00;  0.0000000E+00;  1.5363533E+00;0; -2.9529702E-02;  3.9904258E+04;  0.0000000E+00; -1.3672239E-02;  4.0000000E+04;  0.0000000E+00;  4.0008930E+04; -5.8173940E-02;  0.0000000E+00;  2.8644238E-02;  1.2102025E+03;
  5.1200420E-01;  9.9999998E-03;  1.7995647E-01;5605;  1.2971314E-02;  0.0000000E+00;  1.0854971E-02;  9.9890491E+02;  1.0000625E-01; -9.0728290E+02;3; -4.7394514E+00;  0.0000000E+00;  1.6577973E+00;0; -2.8704356E-02;  3.9897676E+04;  0.0000000E+00;  9.1520669E-03;  4.0000000E+04;  0.0000000E+00;  4.0009934E+04; -5.4169126E-02;  0.0000000E+00;  2.5464769E-02;  1.3547898E+03;
  5.1199734E-01;  9.9999998E-03;  1.8996039E-01;5606;  1.2808818E-02;  0.0000000E+00;  1.1127136E-02;  9.9882294E+02;  1.0000610E-01; -9.7518225E+02;3; -4.5891123E+00;  0.0000000E+00;  1.7684571E+00;0; -2.7595242E-02;  3.9889934E+04;  0.0000000E+00;  2.3559351E-02;  4.0000000E+04;  0.0000000E+00;  4.0011348E+04; -5.0143946E-02;  0.0000000E+00;  2.2548703E-02;  1.5271501E+03;
  5.1198798E-01;  9.9999998E-03;  1.9996539E-01;5607;  1.2623904E-02;  0.0000000E+00;  1.1360561E-02;  9.9872949E+02;  1.0000618E-01; -1.0526122E+03;3; -4.4509745E+00;  0.0000000E+00;  1.8608698E+00;0; -2.6215004E-02;  3.9881379E+04;  0.0000000E+00;  2.7467651E-02;  4.0000000E+04;  0.0000000E+00;  4.0012656E+04; -4.6156995E-02;  0.0000000E+00;  1.9941991E-02;  1.7069840E+03;
  5.1197577E-01;  9.9999998E-03;  2.0997129E-01;5608;  1.2413643E-02;  0.0000000E+00;  1.1554813E-02;  9.9863281E+02;  1.0000617E-01; -1.1327086E+03;3; -4.3330102E+00;  0.0000000E+00;  1.9260631E+00;0; -2.4581837E-02;  3.9872203E+04;  0.0000000E+00;  2.0481743E-02;  4.0000000E+04;  0.0000000E+00;  4.0013781E+04; -4.2268872E-02;  0.0000000E+00;  1.7687036E-02;  1.8550980E+03;
  5.1196033E-01;  9.9999998E-03;  2.1997745E-01;5609;  1.2173502E-02;  0.0000000E+00;  1.1698613E-02;  9.9851947E+02;  1.0000622E-01; -1.2265825E+03;3; -4.2338486E+00;  0.0000000E+00;  1.9595032E+00;0; -2.2738010E-02;  3.9862984E+04;  0.0000000E+00;  3.8704162E-03;  4.0000000E+04;  0.0000000E+00;  4.0014176E+04; -3.8537122E-02;  0.0000000E+00;  1.5799113E-02;  1.9144685E+03;
  5.1194245E-01;  9.9999998E-03;  2.2998181E-01;5610;  1.1897481E-02;  0.0000000E+00;  1.1762308E-02;  9.9839783E+02;  1.0000625E-01; -1.3273698E+03;3; -4.1545997E+00;  0.0000000E+00;  1.9710910E+00;0; -2.0840093E-02;  3.9853840E+04;  0.0000000E+00; -1.9597268E-02;  4.0000000E+04;  0.0000000E+00;  4.0013633E+04; -3.5010703E-02;  0.0000000E+00;  1.4170610E-02;  1.8540909E+03;
  5.2196348E-01;  9.9999998E-03;  6.9972605E-02;5655;  1.2923709E-02;  0.0000000E+00;  6.2027173E-03;  9.9904919E+02;  1.0001037E-01; -7.8773077E+02;3; -6.5757079E+00;  0.0000000E+00;  3.7967288E-01;0; -2.5637910E-02;  3.9905375E+04;  0.0000000E+00; -1.0422549E-01;  4.0000000E+04;  0.0000000E+00;  4.0009211E+04; -9.4890408E-02;  0.0000000E+00;  6.9252498E-02;  1.2768228E+03;
  5.2196568E-01;  9.9999998E-03;  7.9970233E-02;5656;  1.2927235E-02;  0.0000000E+00;  6.8724505E-03;  9.9904852E+02;  1.0001046E-01; -7.8827393E+02;3; -6.4186058E+00;  0.0000000E+00;  4.6305627E-01;0; -2.6864268E-02;  3.9906219E+04;  0.0000000E+00; -1.2256548E-01;  4.0000000E+04;  0.0000000E+00;  4.0008422E+04; -9.2353076E-02;  0.0000000E+00;  6.5488808E-02;  1.1815173E+03;
  5.2196866E-01;  9.9999998E-03;  8.9967981E-02;5657;  1.2921914E-02;  0.0000000E+00;  7.4871513E-03;  9.9905219E+02;  1.0001046E-01; -7.8526166E+02;3; -6.2498703E+00;  0.0000000E+00;  5.5362928E-01;0; -2.8017301E-02;  3.9907234E+04;  0.0000000E+00; -1.3608082E-01;  4.0000000E+04;  0.0000000E+00;  4.0007781E+04; -8.9565612E-02;  0.0000000E+00;  6.1548311E-02;  1.0935682E+03;
  5.2197194E-01;  9.9999998E-03;  9.9965841E-02;5658;  1.2906956E-02;  0.0000000E+00;  8.0535905E-03;  9.9905841E+02;  1.0001040E-01; -7.8007666E+02;3; -6.0715265E+00;  0.0000000E+00;  6.4832783E-01;0; -2.9043723E-02;  3.9908184E+04;  0.0000000E+00; -1.4291097E-01;  4.0000000E+04;  0.0000000E+00;  4.0007090E+04; -8.6546689E-02;  0.0000000E+00;  5.7502966E-02;  1.0178819E+03;
  5.2197474E-01;  9.9999998E-03;  1.0996394E-01;5659;  1.2881288E-02;  0.0000000E+00;  8.5816346E-03;  9.9906061E+02;  1.0001045E-01; -7.7824951E+02;3; -5.8879294E+00;  0.0000000E+00;  7.5624114E-01;0; -2.9898681E-02;  3.9909043E+04;  0.0000000E+00; -1.4165755E-01;  4.0000000E+04;  0.0000000E+00;  4.0006672E+04; -8.3312958E-02;  0.0000000E+00;  5.3414278E-02;  9.5962891E+02;
  5.2197695E-01;  9.9999998E-03;  1.1996235E-01;5660;  1.2845282E-02;  0.0000000E+00;  9.0728439E-03;  9.9905963E+02;  1.0001054E-01; -7.7908899E+02;3; -5.7019053E+00;  0.0000000E+00;  8.7485397E-01;0; -3.0547567E-02;  3.9909457E+04;  0.0000000E+00; -1.3158387E-01;  4.0000000E+04;  0.0000000E+00;  4.0006512E+04; -7.9879090E-02;  0.0000000E+00;  4.9331523E-02;  9.2411908E+02;
  5.2197850E-01;  9.9999998E-03;  1.2996115E-01;5661;  1.2799231E-02;  0.0000000E+00;  9.5314346E-03;  9.9905371E+02;  1.0001041E-01; -7.8397778E+02;3; -5.5177584E+00;  0.0000000E+00;  1.0046351E+00;0; -3.0968245E-02;  3.9909027E+04;  0.0000000E+00; -1.1277145E-01;  4.0000000E+04;  0.0000000E+00;  4.0006559E+04; -7.6258510E-02;  0.0000000E+00;  4.5290265E-02;  9.1689008E+02;
  5.2197927E-01;  9.9999998E-03;  1.3996048E-01;5662;  1.2743589E-02;  0.0000000E+00;  9.9619962E-03;  9.9903772E+02;  1.0001052E-01; -7.9721198E+02;3; -5.3355465E+00;  0.0000000E+00;  1.1348041E+00;0; -3.1151839E-02;  3.9907488E+04;  0.0000000E+00; -8.6222708E-02;  4.0000000E+04;  0.0000000E+00;  4.0006695E+04; -7.2464094E-02;  0.0000000E+00;  4.1312255E-02;  9.4343176E+02;
  5.2197921E-01;  9.9999998E-03;  1.4996043E-01;5663;  1.2678285E-02;  0.0000000E+00;  1.0367351E-02;  9.9900812E+02;  1.0001054E-01; -8.2175446E+02;3; -5.1591377E+00;  0.0000000E+00;  1.2717886E+00;0; -3.1099223E-02;  3.9904758E+04;  0.0000000E+00; -5.3888168E-02;  4.0000000E+04;  0.0000000E+00;  4.0007242E+04; -6.8509340E-02;  0.0000000E+00;  3.7410118E-02;  1.0081751E+03;
  5.2197808E-01;  9.9999998E-03;  1.5996109E-01;5664;  1.2603227E-02;  0.0000000E+00;  1.0747618E-02;  9.9896484E+02;  1.0001034E-01; -8.5760529E+02;3; -4.9858432E+00;  0.0000000E+00;  1.4064980E+00;0; -3.0800484E-02;  3.9900410E+04;  0.0000000E+00; -1.9022642E-02;  4.0000000E+04;  0.0000000E+00;  4.0008016E+04; -6.4412214E-02;  0.0000000E+00;  3.3611730E-02;  1.1132888E+03;
  5.2197504E-01;  9.9999998E-03;  1.6996257E-01;5665;  1.2517091E-02;  0.0000000E+00;  1.1103617E-02;  9.9890240E+02;  1.0001042E-01; -9.0935693E+02;3; -4.8189836E+00;  0.0000000E+00;  1.5381846E+00;0; -3.0234095E-02;  3.9894527E+04;  0.0000000E+00;  1.3896524E-02;  4.0000000E+04;  0.0000000E+00;  4.0009164E+04; -6.0199052E-02;  0.0000000E+00;  2.9964957E-02;  1.2571288E+03;
  5.2196997E-01;  9.9999998E-03;  1.7996494E-01;5666;  1.2417623E-02;  0.0000000E+00;  1.1428435E-02;  9.9882263E+02;  1.0001040E-01; -9.7542914E+02;3; -4.6569233E+00;  0.0000000E+00;  1.6605461E+00;0; -2.9382501E-02;  3.9886984E+04;  0.0000000E+00;  4.0141333E-02;  4.0000000E+04;  0.0000000E+00;  4.0010457E+04; -5.5909820E-02;  0.0000000E+00;  2.6527319E-02;  1.4330317E+03;
  5.2196306E-01;  9.9999998E-03;  1.8996808E-01;5667;  1.2301683E-02;  0.0000000E+00;  1.1721903E-02;  9.9872986E+02;  1.0001057E-01; -1.0522665E+03;3; -4.5047402E+00;  0.0000000E+00;  1.7705175E+00;0; -2.8237652E-02;  3.9877875E+04;  0.0000000E+00;  5.5849899E-02;  4.0000000E+04;  0.0000000E+00;  4.0011980E+04; -5.1596623E-02;  0.0000000E+00;  2.3358971E-02;  1.6277568E+03;
  5.2195436E-01;  9.9999998E-03;  1.9997148E-01;5668;  1.2164726E-02;  0.0000000E+00;  1.1970650E-02;  9.9861951E+02;  1.0001054E-01; -1.1437207E+03;3; -4.3627505E+00;  0.0000000E+00;  1.8653779E+00;0; -2.6806040E-02;  3.9867867E+04;  0.0000000E+00;  5.8786076E-02;  4.0000000E+04;  0.0000000E+00;  4.0013383E+04; -4.7321212E-02;  0.0000000E+00;  2.0515172E-02;  1.8210122E+03;
  5.2194369E-01;  9.9999998E-03;  2.0997480E-01;5669;  1.2002060E-02;  0.0000000E+00;  1.2170843E-02;  9.9849933E+02;  1.0001054E-01; -1.2432734E+03;3; -4.2415190E+00;  0.0000000E+00;  1.9322746E+00;0; -2.5104687E-02;  3.9857039E+04;  0.0000000E+00;  4.8605282E-02;  4.0000000E+04;  0.0000000E+00;  4.0014824E+04; -4.3147914E-02;  0.0000000E+00;  1.8043227E-02;  1.9841610E+03;
  5.2193099E-01;  9.9999998E-03;  2.1997739E-01;5670;  1.1807821E-02;  0.0000000E+00;  1.2312092E-02;  9.9836920E+02;  1.0001040E-01; -1.3510728E+03;3; -4.1398616E+00;  0.0000000E+00;  1.9623690E+00;0; -2.3178650E-02;  3.9846090E+04;  0.0000000E+00;  2.6671136E-02;  4.0000000E+04;  0.0000000E+00;  4.0015332E+04; -3.9138071E-02;  0.0000000E+00;  1.5959421E-02;  2.0864524E+03;
  5.2191609E-01;  9.9999998E-03;  2.2997861E-01;5671;  1.1577981E-02;  0.0000000E+00;  1.2381523E-02;  9.9823633E+02;  1.0001051E-01; -1.4611931E+03;3; -4.0584888E+00;  0.0000000E+00;  1.9746071E+00;0; -2.1147273E-02;  3.9835191E+04;  0.0000000E+00; -4.1346555E-03;  4.0000000E+04;  0.0000000E+00;  4.0015531E+04; -3.5344530E-02;  0.0000000E+00;  1.4197255E-02;  2.1090627E+03;
  5.3191894E-01;  9.9999998E-03;  6.9979891E-02;5716;  1.1930749E-02;  0.0000000E+00;  6.4708726E-03;  9.9883588E+02;  1.0001725E-01; -9.6446649E+02;3; -6.4917188E+00;  0.0000000E+00;  3.5304344E-01;0; -2.6787013E-02;  3.9882504E+04;  0.0000000E+00; -1.0466985E-01;  4.0000000E+04;  0.0000000E+00;  4.0008750E+04; -9.9256769E-02;  0.0000000E+00;  7.2469756E-02;  1.2395327E+03;
  5.3192383E-01;  9.9999998E-03;  7.9978377E-02;5717;  1.1969118E-02;  0.0000000E+00;  7.1723792E-03;  9.9885083E+02;  1.0001741E-01; -9.5207178E+02;3; -6.3349433E+00;  0.0000000E+00;  4.3580008E-01;0; -2.7973570E-02;  3.9884859E+04;  0.0000000E+00; -1.2070061E-01;  4.0000000E+04;  0.0000000E+00;  4.0007883E+04; -9.6541427E-02;  0.0000000E+00;  6.8567857E-02;  1.1384397E+03;
  5.3192919E-01;  9.9999998E-03;  8.9976981E-02;5718;  1.1998778E-02;  0.0000000E+00;  7.8170886E-03;  9.9887115E+02;  1.0001743E-01; -9.3523273E+02;3; -6.1676030E+00;  0.0000000E+00;  5.2718216E-01;0; -2.9086903E-02;  3.9887051E+04;  0.0000000E+00; -1.3107793E-01;  4.0000000E+04;  0.0000000E+00;  4.0007215E+04; -9.3557946E-02;  0.0000000E+00;  6.4471044E-02;  1.0445420E+03;
  5.3193486E-01;  9.9999998E-03;  9.9975601E-02;5719;  1.2018811E-02;  0.0000000E+00;  8.4110741E-03;  9.9889362E+02;  1.0001730E-01; -9.1661597E+02;3; -5.9895353E+00;  0.0000000E+00;  6.2352520E-01;0; -3.0074876E-02;  3.9889551E+04;  0.0000000E+00; -1.3418809E-01;  4.0000000E+04;  0.0000000E+00;  4.0006480E+04; -9.0327464E-02;  0.0000000E+00;  6.0252588E-02;  9.6488080E+02;
  5.3193974E-01;  9.9999998E-03;  1.0997447E-01;5720;  1.2027960E-02;  0.0000000E+00;  8.9656124E-03;  9.9891418E+02;  1.0001743E-01; -8.9957941E+02;3; -5.8042445E+00;  0.0000000E+00;  7.3411226E-01;0; -3.0893512E-02;  3.9891738E+04;  0.0000000E+00; -1.2898575E-01;  4.0000000E+04;  0.0000000E+00;  4.0006074E+04; -8.6867847E-02;  0.0000000E+00;  5.5974334E-02;  9.0678699E+02;
  5.3194356E-01;  9.9999998E-03;  1.1997374E-01;5721;  1.2026881E-02;  0.0000000E+00;  9.4820401E-03;  9.9892804E+02;  1.0001743E-01; -8.8812299E+02;3; -5.6171842E+00;  0.0000000E+00;  8.5667801E-01;0; -3.1509049E-02;  3.9893230E+04;  0.0000000E+00; -1.1511371E-01;  4.0000000E+04;  0.0000000E+00;  4.0006008E+04; -8.3195306E-02;  0.0000000E+00;  5.1686257E-02;  8.7782202E+02;
  5.3194630E-01;  9.9999998E-03;  1.2997346E-01;5722;  1.2016213E-02;  0.0000000E+00;  9.9652549E-03;  9.9893402E+02;  1.0001732E-01; -8.8313544E+02;3; -5.4314289E+00;  0.0000000E+00;  9.9171013E-01;0; -3.1899564E-02;  3.9893652E+04;  0.0000000E+00; -9.2992559E-02;  4.0000000E+04;  0.0000000E+00;  4.0006031E+04; -7.9324700E-02;  0.0000000E+00;  4.7425136E-02;  8.8542139E+02;
  5.3194767E-01;  9.9999998E-03;  1.3997358E-01;5723;  1.1996953E-02;  0.0000000E+00;  1.0419847E-02;  9.9893073E+02;  1.0001726E-01; -8.8585144E+02;3; -5.2487431E+00;  0.0000000E+00;  1.1289001E+00;0; -3.2056514E-02;  3.9892898E+04;  0.0000000E+00; -6.3884415E-02;  4.0000000E+04;  0.0000000E+00;  4.0006406E+04; -7.5270019E-02;  0.0000000E+00;  4.3213505E-02;  9.3596552E+02;
  5.3194755E-01;  9.9999998E-03;  1.4997420E-01;5724;  1.1969504E-02;  0.0000000E+00;  1.0849210E-02;  9.9890900E+02;  1.0001729E-01; -9.0387561E+02;3; -5.0708947E+00;  0.0000000E+00;  1.2720853E+00;0; -3.1981032E-02;  3.9890469E+04;  0.0000000E+00; -2.9875195E-02;  4.0000000E+04;  0.0000000E+00;  4.0007254E+04; -7.1046196E-02;  0.0000000E+00;  3.9065164E-02;  1.0329087E+03;
  5.3194582E-01;  9.9999998E-03;  1.5997531E-01;5725;  1.1934450E-02;  0.0000000E+00;  1.1252838E-02;  9.9886615E+02;  1.0001763E-01; -9.3938080E+02;3; -4.8974948E+00;  0.0000000E+00;  1.4081935E+00;0; -3.1661015E-02;  3.9886172E+04;  0.0000000E+00;  5.7159206E-03;  4.0000000E+04;  0.0000000E+00;  4.0008406E+04; -6.6671759E-02;  0.0000000E+00;  3.5010744E-02;  1.1745140E+03;
  5.3194273E-01;  9.9999998E-03;  1.6997677E-01;5726;  1.1890774E-02;  0.0000000E+00;  1.1631353E-02;  9.9880280E+02;  1.0001736E-01; -9.9187311E+02;3; -4.7310357E+00;  0.0000000E+00;  1.5385568E+00;0; -3.1071037E-02;  3.9879805E+04;  0.0000000E+00;  3.8282424E-02;  4.0000000E+04;  0.0000000E+00;  4.0009758E+04; -6.2174629E-02;  0.0000000E+00;  3.1103592E-02;  1.3528977E+03;
  5.3193837E-01;  9.9999998E-03;  1.7997847E-01;5727;  1.1836763E-02;  0.0000000E+00;  1.1976711E-02;  9.9871777E+02;  1.0001744E-01; -1.0622909E+03;3; -4.5686584E+00;  0.0000000E+00;  1.6592160E+00;0; -3.0187849E-02;  3.9871438E+04;  0.0000000E+00;  6.2981009E-02;  4.0000000E+04;  0.0000000E+00;  4.0011289E+04; -5.7595994E-02;  0.0000000E+00;  2.7408145E-02;  1.5544373E+03;
  5.3193307E-01;  9.9999998E-03;  1.8998024E-01;5728;  1.1768959E-02;  0.0000000E+00;  1.2286776E-02;  9.9861194E+02;  1.0001754E-01; -1.1499921E+03;3; -4.4144092E+00;  0.0000000E+00;  1.7700521E+00;0; -2.8997324E-02;  3.9861582E+04;  0.0000000E+00;  7.5987630E-02;  4.0000000E+04;  0.0000000E+00;  4.0012820E+04; -5.2990086E-02;  0.0000000E+00;  2.3992762E-02;  1.7607019E+03;
  5.3192729E-01;  9.9999998E-03;  1.9998156E-01;5729;  1.1681934E-02;  0.0000000E+00;  1.2545542E-02;  9.9848859E+02;  1.0001753E-01; -1.2521620E+03;3; -4.2693367E+00;  0.0000000E+00;  1.8650279E+00;0; -2.7501842E-02;  3.9850469E+04;  0.0000000E+00;  7.5241923E-02;  4.0000000E+04;  0.0000000E+00;  4.0014477E+04; -4.8421342E-02;  0.0000000E+00;  2.0919500E-02;  1.9501583E+03;
  5.3192145E-01;  9.9999998E-03;  2.0998167E-01;5730;  1.1568410E-02;  0.0000000E+00;  1.2744317E-02;  9.9835071E+02;  1.0001735E-01; -1.3664304E+03;3; -4.1457648E+00;  0.0000000E+00;  1.9304112E+00;0; -2.5722435E-02;  3.9838387E+04;  0.0000000E+00;  6.0619105E-02;  4.0000000E+04;  0.0000000E+00;  4.0015480E+04; -4.3957945E-02;  0.0000000E+00;  1.8235510E-02;  2.1060645E+03;
  5.3191566E-01;  9.9999998E-03;  2.1997973E-01;5731;  1.1422885E-02;  0.0000000E+00;  1.2879431E-02;  9.9820752E+02;  1.0001730E-01; -1.4850443E+03;3; -4.0363541E+00;  0.0000000E+00;  1.9632134E+00;0; -2.3705970E-02;  3.9826012E+04;  0.0000000E+00;  3.3662803E-02;  4.0000000E+04;  0.0000000E+00;  4.0016496E+04; -3.9665096E-02;  0.0000000E+00;  1.5959125E-02;  2.2324001E+03;
  5.3190893E-01;  9.9999998E-03;  2.2997624E-01;5732;  1.1240898E-02;  0.0000000E+00;  1.2948971E-02;  9.9806506E+02;  1.0001736E-01; -1.6030657E+03;3; -3.9568615E+00;  0.0000000E+00;  1.9744087E+00;0; -2.1545505E-02;  3.9813832E+04;  0.0000000E+00; -2.5948025E-03;  4.0000000E+04;  0.0000000E+00;  4.0017203E+04; -3.5598531E-02;  0.0000000E+00;  1.4053026E-02;  2.3434597E+03;
  5.4189479E-01;  9.9999998E-03;  6.9990434E-02;5777;  1.0882542E-02;  0.0000000E+00;  6.7058192E-03;  9.9861572E+02;  1.0002947E-01; -1.1468317E+03;3; -6.4096336E+00;  0.0000000E+00;  3.1525066E-01;0; -2.7991414E-02;  3.9855156E+04;  0.0000000E+00; -8.9038648E-02;  4.0000000E+04;  0.0000000E+00;  4.0008180E+04; -1.0353747E-01;  0.0000000E+00;  7.5546056E-02;  1.1961033E+03;
  5.4190129E-01;  9.9999998E-03;  7.9989970E-02;5778;  1.0958686E-02;  0.0000000E+00;  7.4423975E-03;  9.9865100E+02;  1.0002926E-01; -1.1175979E+03;3; -6.2512727E+00;  0.0000000E+00;  3.9729166E-01;0; -2.9140189E-02;  3.9858691E+04;  0.0000000E+00; -9.9897742E-02;  4.0000000E+04;  0.0000000E+00;  4.0007398E+04; -1.0065998E-01;  0.0000000E+00;  7.1519792E-02;  1.0958772E+03;
  5.4190797E-01;  9.9999998E-03;  8.9989617E-02;5779;  1.1026368E-02;  0.0000000E+00;  8.1218584E-03;  9.9868970E+02;  1.0002936E-01; -1.0855494E+03;3; -6.0820727E+00;  0.0000000E+00;  4.9327379E-01;0; -3.0220151E-02;  3.9862617E+04;  0.0000000E+00; -1.0507271E-01;  4.0000000E+04;  0.0000000E+00;  4.0006680E+04; -9.7493716E-02;  0.0000000E+00;  6.7273565E-02;  1.0028701E+03;
  5.4191476E-01;  9.9999998E-03;  9.9989325E-02;5780;  1.1084481E-02;  0.0000000E+00;  8.7478664E-03;  9.9872900E+02;  1.0002934E-01; -1.0530072E+03;3; -5.9010196E+00;  0.0000000E+00;  5.9440458E-01;0; -3.1180143E-02;  3.9866398E+04;  0.0000000E+00; -1.0352534E-01;  4.0000000E+04;  0.0000000E+00;  4.0006027E+04; -9.4060831E-02;  0.0000000E+00;  6.2880687E-02;  9.2622992E+02;
  5.4192078E-01;  9.9999998E-03;  1.0998911E-01;5781;  1.1131353E-02;  0.0000000E+00;  9.3325442E-03;  9.9876776E+02;  1.0002936E-01; -1.0209093E+03;3; -5.7135301E+00;  0.0000000E+00;  7.1059453E-01;0; -3.1975757E-02;  3.9870062E+04;  0.0000000E+00; -9.4823092E-02;  4.0000000E+04;  0.0000000E+00;  4.0005832E+04; -9.0380698E-02;  0.0000000E+00;  5.8404941E-02;  8.7565564E+02;
  5.4192519E-01;  9.9999998E-03;  1.1998908E-01;5782;  1.1168032E-02;  0.0000000E+00;  9.8772272E-03;  9.9880133E+02;  1.0002952E-01; -9.9305829E+02;3; -5.5259647E+00;  0.0000000E+00;  8.3981240E-01;0; -3.2572690E-02;  3.9872918E+04;  0.0000000E+00; -7.9129003E-02;  4.0000000E+04;  0.0000000E+00;  4.0005672E+04; -8.6471431E-02;  0.0000000E+00;  5.3898741E-02;  8.6069446E+02;
  5.4192787E-01;  9.9999998E-03;  1.2998936E-01;5783;  1.1195363E-02;  0.0000000E+00;  1.0386638E-02;  9.9882367E+02;  1.0002955E-01; -9.7458966E+02;3; -5.3388033E+00;  0.0000000E+00;  9.8123187E-01;0; -3.2947566E-02;  3.9874430E+04;  0.0000000E+00; -5.7202041E-02;  4.0000000E+04;  0.0000000E+00;  4.0006043E+04; -8.2349420E-02;  0.0000000E+00;  4.9401853E-02;  8.8986438E+02;
  5.4192865E-01;  9.9999998E-03;  1.3998996E-01;5784;  1.1214875E-02;  0.0000000E+00;  1.0865573E-02;  9.9883075E+02;  1.0002943E-01; -9.6871326E+02;3; -5.1551003E+00;  0.0000000E+00;  1.1253772E+00;0; -3.3090714E-02;  3.9874371E+04;  0.0000000E+00; -3.0362554E-02;  4.0000000E+04;  0.0000000E+00;  4.0006496E+04; -7.8030951E-02;  0.0000000E+00;  4.4940237E-02;  9.6898956E+02;
  5.4192775E-01;  9.9999998E-03;  1.4999092E-01;5785;  1.1227529E-02;  0.0000000E+00;  1.1317112E-02;  9.9881348E+02;  1.0002962E-01; -9.8303387E+02;3; -4.9758611E+00;  0.0000000E+00;  1.2726614E+00;0; -3.3001177E-02;  3.9872426E+04;  0.0000000E+00; -4.6171850E-04;  4.0000000E+04;  0.0000000E+00;  4.0007598E+04; -7.3532537E-02;  0.0000000E+00;  4.0531360E-02;  1.0991359E+03;
  5.4192531E-01;  9.9999998E-03;  1.5999211E-01;5786;  1.1234403E-02;  0.0000000E+00;  1.1740757E-02;  9.9877911E+02;  1.0002933E-01; -1.0114775E+03;3; -4.8022466E+00;  0.0000000E+00;  1.4085624E+00;0; -3.2663558E-02;  3.9868062E+04;  0.0000000E+00;  2.9669296E-02;  4.0000000E+04;  0.0000000E+00;  4.0008961E+04; -6.8874501E-02;  0.0000000E+00;  3.6210943E-02;  1.2743049E+03;
  5.4192191E-01;  9.9999998E-03;  1.6999327E-01;5787;  1.1235142E-02;  0.0000000E+00;  1.2136912E-02;  9.9871735E+02;  1.0002951E-01; -1.0626365E+03;3; -4.6341667E+00;  0.0000000E+00;  1.5387363E+00;0; -3.2047104E-02;  3.9861801E+04;  0.0000000E+00;  5.6017965E-02;  4.0000000E+04;  0.0000000E+00;  4.0010578E+04; -6.4086206E-02;  0.0000000E+00;  3.2039102E-02;  1.4805458E+03;
  5.4191810E-01;  9.9999998E-03;  1.7999424E-01;5788;  1.1228377E-02;  0.0000000E+00;  1.2497688E-02;  9.9863397E+02;  1.0002954E-01; -1.1317209E+03;3; -4.4743185E+00;  0.0000000E+00;  1.6550677E+00;0; -3.1122806E-02;  3.9853199E+04;  0.0000000E+00;  7.4300028E-02;  4.0000000E+04;  0.0000000E+00;  4.0012414E+04; -5.9210796E-02;  0.0000000E+00;  2.8087990E-02;  1.6975754E+03;
  5.4191506E-01;  9.9999998E-03;  1.8999463E-01;5789;  1.1210955E-02;  0.0000000E+00;  1.2818383E-02;  9.9852051E+02;  1.0002946E-01; -1.2257430E+03;3; -4.3189349E+00;  0.0000000E+00;  1.7653916E+00;0; -2.9872237E-02;  3.9842988E+04;  0.0000000E+00;  8.1194699E-02;  4.0000000E+04;  0.0000000E+00;  4.0013863E+04; -5.4305229E-02;  0.0000000E+00;  2.4432993E-02;  1.9010631E+03;
  5.4191399E-01;  9.9999998E-03;  1.9999386E-01;5790;  1.1176398E-02;  0.0000000E+00;  1.3082066E-02;  9.9838873E+02;  1.0002949E-01; -1.3349250E+03;3; -4.1709518E+00;  0.0000000E+00;  1.8621674E+00;0; -2.8295262E-02;  3.9831359E+04;  0.0000000E+00;  7.5064212E-02;  4.0000000E+04;  0.0000000E+00;  4.0015168E+04; -4.9436696E-02;  0.0000000E+00;  2.1141434E-02;  2.0677871E+03;
  5.4191566E-01;  9.9999998E-03;  2.0999078E-01;5791;  1.1115395E-02;  0.0000000E+00;  1.3275269E-02;  9.9824341E+02;  1.0002949E-01; -1.4553168E+03;3; -4.0423274E+00;  0.0000000E+00;  1.9251969E+00;0; -2.6418902E-02;  3.9818871E+04;  0.0000000E+00;  5.6112431E-02;  4.0000000E+04;  0.0000000E+00;  4.0015992E+04; -4.4676658E-02;  0.0000000E+00;  1.8257756E-02;  2.1913220E+03;
  5.4192019E-01;  9.9999998E-03;  2.1998408E-01;5792;  1.1021457E-02;  0.0000000E+00;  1.3401445E-02;  9.9809039E+02;  1.0002942E-01; -1.5820786E+03;3; -3.9334035E+00;  0.0000000E+00;  1.9575762E+00;0; -2.4292400E-02;  3.9805934E+04;  0.0000000E+00;  2.6144972E-02;  4.0000000E+04;  0.0000000E+00;  4.0016836E+04; -4.0093854E-02;  0.0000000E+00;  1.5801454E-02;  2.3135820E+03;
  5.4192603E-01;  9.9999998E-03;  2.2997525E-01;5793;  1.0892132E-02;  0.0000000E+00;  1.3471216E-02;  9.9794702E+02;  1.0002951E-01; -1.7008407E+03;3; -3.8534772E+00;  0.0000000E+00;  1.9684641E+00;0; -2.1979479E-02;  3.9793262E+04;  0.0000000E+00; -1.1680407E-02;  4.0000000E+04;  0.0000000E+00;  4.0018309E+04; -3.5747115E-02;  0.0000000E+00;  1.3767635E-02;  2.4947661E+03;
  5.5189955E-01;  9.9999998E-03;  7.0001371E-02;5838;  9.7811790E-03;  0.0000000E+00;  6.9108889E-03;  9.9843890E+02;  1.0004856E-01; -1.2933461E+03;3; -6.3219337E+00;  0.0000000E+00;  2.7861580E-01;0; -2.9258378E-02;  3.9825539E+04;  0.0000000E+00; -5.6001980E-02;  4.0000000E+04;  0.0000000E+00;  4.0007711E+04; -1.0772030E-01;  0.0000000E+00;  7.8461923E-02;  1.1628070E+03;
  5.5190742E-01;  9.9999998E-03;  8.0001988E-02;5839;  9.8964227E-03;  0.0000000E+00;  7.6860972E-03;  9.9849243E+02;  1.0004842E-01; -1.2490016E+03;3; -6.1624970E+00;  0.0000000E+00;  3.5791618E-01;0; -3.0373536E-02;  3.9830363E+04;  0.0000000E+00; -5.9067603E-02;  4.0000000E+04;  0.0000000E+00;  4.0007016E+04; -1.0469741E-01;  0.0000000E+00;  7.4323870E-02;  1.0698544E+03;
  5.5191422E-01;  9.9999998E-03;  9.0002671E-02;5840;  1.0004120E-02;  0.0000000E+00;  8.4043685E-03;  9.9854846E+02;  1.0004833E-01; -1.2025831E+03;3; -5.9915047E+00;  0.0000000E+00;  4.5859450E-01;0; -3.1428702E-02;  3.9835711E+04;  0.0000000E+00; -5.7420619E-02;  4.0000000E+04;  0.0000000E+00;  4.0006289E+04; -1.0136120E-01;  0.0000000E+00;  6.9932498E-02;  9.8405652E+02;
  5.5192018E-01;  9.9999998E-03;  1.0000326E-01;5841;  1.0102852E-02;  0.0000000E+00;  9.0670027E-03;  9.9860590E+02;  1.0004845E-01; -1.1549796E+03;3; -5.8062301E+00;  0.0000000E+00;  5.6740272E-01;0; -3.2372318E-02;  3.9840777E+04;  0.0000000E+00; -5.0911203E-02;  4.0000000E+04;  0.0000000E+00;  4.0005844E+04; -9.7734697E-02;  0.0000000E+00;  6.5362379E-02;  9.1661591E+02;
  5.5192482E-01;  9.9999998E-03;  1.1000364E-01;5842;  1.0190419E-02;  0.0000000E+00;  9.6859355E-03;  9.9866364E+02;  1.0004858E-01; -1.1071292E+03;3; -5.6152973E+00;  0.0000000E+00;  6.9123566E-01;0; -3.3159204E-02;  3.9845621E+04;  0.0000000E+00; -3.9899096E-02;  4.0000000E+04;  0.0000000E+00;  4.0005637E+04; -9.3839265E-02;  0.0000000E+00;  6.0680062E-02;  8.7899603E+02;
  5.5192757E-01;  9.9999998E-03;  1.2000402E-01;5843;  1.0267858E-02;  0.0000000E+00;  1.0261973E-02;  9.9870898E+02;  1.0004846E-01; -1.0695992E+03;3; -5.4268775E+00;  0.0000000E+00;  8.2791549E-01;0; -3.3752803E-02;  3.9849496E+04;  0.0000000E+00; -2.5105823E-02;  4.0000000E+04;  0.0000000E+00;  4.0005629E+04; -8.9694530E-02;  0.0000000E+00;  5.5941727E-02;  8.8194910E+02;
  5.5192870E-01;  9.9999998E-03;  1.3000453E-01;5844;  1.0336176E-02;  0.0000000E+00;  1.0799089E-02;  9.9874438E+02;  1.0004845E-01; -1.0402668E+03;3; -5.2387767E+00;  0.0000000E+00;  9.7656226E-01;0; -3.4126632E-02;  3.9852137E+04;  0.0000000E+00; -7.4906219E-03;  4.0000000E+04;  0.0000000E+00;  4.0006184E+04; -8.5319489E-02;  0.0000000E+00;  5.1192857E-02;  9.3368726E+02;
  5.5192786E-01;  9.9999998E-03;  1.4000531E-01;5845;  1.0397419E-02;  0.0000000E+00;  1.1301566E-02;  9.9876648E+02;  1.0004857E-01; -1.0219464E+03;3; -5.0542288E+00;  0.0000000E+00;  1.1256753E+00;0; -3.4267671E-02;  3.9852801E+04;  0.0000000E+00;  1.1874762E-02;  4.0000000E+04;  0.0000000E+00;  4.0007094E+04; -8.0732919E-02;  0.0000000E+00;  4.6465248E-02;  1.0383914E+03;
  5.5192560E-01;  9.9999998E-03;  1.5000628E-01;5846;  1.0453050E-02;  0.0000000E+00;  1.1772382E-02;  9.9876160E+02;  1.0004828E-01; -1.0259956E+03;3; -4.8741055E+00;  0.0000000E+00;  1.2741139E+00;0; -3.4171283E-02;  3.9851539E+04;  0.0000000E+00;  3.1833041E-02;  4.0000000E+04;  0.0000000E+00;  4.0008273E+04; -7.5953998E-02;  0.0000000E+00;  4.1782714E-02;  1.1949860E+03;
  5.5192244E-01;  9.9999998E-03;  1.6000731E-01;5847;  1.0504566E-02;  0.0000000E+00;  1.2211804E-02;  9.9873407E+02;  1.0004862E-01; -1.0488098E+03;3; -4.6989641E+00;  0.0000000E+00;  1.4076450E+00;0; -3.3816822E-02;  3.9847809E+04;  0.0000000E+00;  5.0626371E-02;  4.0000000E+04;  0.0000000E+00;  4.0009809E+04; -7.1005061E-02;  0.0000000E+00;  3.7188239E-02;  1.3938425E+03;
  5.5191910E-01;  9.9999998E-03;  1.7000817E-01;5848;  1.0552087E-02;  0.0000000E+00;  1.2619529E-02;  9.9867883E+02;  1.0004863E-01; -1.0945863E+03;3; -4.5317831E+00;  0.0000000E+00;  1.5346580E+00;0; -3.3167899E-02;  3.9841652E+04;  0.0000000E+00;  6.5553688E-02;  4.0000000E+04;  0.0000000E+00;  4.0011477E+04; -6.5918133E-02;  0.0000000E+00;  3.2750234E-02;  1.6161631E+03;
  5.5191702E-01;  9.9999998E-03;  1.8000852E-01;5849;  1.0595007E-02;  0.0000000E+00;  1.2988516E-02;  9.9859662E+02;  1.0004853E-01; -1.1626831E+03;3; -4.3720827E+00;  0.0000000E+00;  1.6489604E+00;0; -3.2189984E-02;  3.9833516E+04;  0.0000000E+00;  7.3548369E-02;  4.0000000E+04;  0.0000000E+00;  4.0013367E+04; -6.0738645E-02;  0.0000000E+00;  2.8548662E-02;  1.8355934E+03;
  5.5191797E-01;  9.9999998E-03;  1.9000785E-01;5850;  1.0630441E-02;  0.0000000E+00;  1.3312570E-02;  9.9849054E+02;  1.0004846E-01; -1.2505818E+03;3; -4.2182460E+00;  0.0000000E+00;  1.7543597E+00;0; -3.0861612E-02;  3.9823738E+04;  0.0000000E+00;  7.2203852E-02;  4.0000000E+04;  0.0000000E+00;  4.0014660E+04; -5.5526283E-02;  0.0000000E+00;  2.4664670E-02;  2.0221445E+03;
  5.5192339E-01;  9.9999998E-03;  2.0000546E-01;5851;  1.0651282E-02;  0.0000000E+00;  1.3575231E-02;  9.9835846E+02;  1.0004871E-01; -1.3599614E+03;3; -4.0714560E+00;  0.0000000E+00;  1.8495361E+00;0; -2.9182311E-02;  3.9812148E+04;  0.0000000E+00;  6.0469907E-02;  4.0000000E+04;  0.0000000E+00;  4.0015676E+04; -5.0351478E-02;  0.0000000E+00;  2.1169167E-02;  2.1498906E+03;
  5.5193502E-01;  9.9999998E-03;  2.0999946E-01;5852;  1.0646944E-02;  0.0000000E+00;  1.3761422E-02;  9.9821057E+02;  1.0004868E-01; -1.4825259E+03;3; -3.9344509E+00;  0.0000000E+00;  1.9139335E+00;0; -2.7183793E-02;  3.9800062E+04;  0.0000000E+00;  3.8924772E-02;  4.0000000E+04;  0.0000000E+00;  4.0016258E+04; -4.5288693E-02;  0.0000000E+00;  1.8104900E-02;  2.2236909E+03;
  5.5195248E-01;  9.9999998E-03;  2.1998842E-01;5853;  1.0609692E-02;  0.0000000E+00;  1.3881762E-02;  9.9806000E+02;  1.0004873E-01; -1.6072631E+03;3; -3.8251774E+00;  0.0000000E+00;  1.9498069E+00;0; -2.4912393E-02;  3.9787570E+04;  0.0000000E+00;  9.5587065E-03;  4.0000000E+04;  0.0000000E+00;  4.0016930E+04; -4.0409885E-02;  0.0000000E+00;  1.5497493E-02;  2.3197231E+03;
  5.5197388E-01;  9.9999998E-03;  2.2997476E-01;5854;  1.0537409E-02;  0.0000000E+00;  1.3948251E-02;  9.9792468E+02;  1.0004845E-01; -1.7193586E+03;3; -3.7459252E+00;  0.0000000E+00;  1.9531145E+00;0; -2.2421034E-02;  3.9775320E+04;  0.0000000E+00; -2.4714064E-02;  4.0000000E+04;  0.0000000E+00;  4.0018527E+04; -3.5776019E-02;  0.0000000E+00;  1.3354985E-02;  2.5407373E+03;
  5.6194913E-01;  9.9999998E-03;  7.0007123E-02;5899;  8.6287400E-03;  0.0000000E+00;  7.0894593E-03;  9.9835699E+02;  1.0007960E-01; -1.3611959E+03;3; -6.2201028E+00;  0.0000000E+00;  2.5311697E-01;0; -3.0612178E-02;  3.9794141E+04;  0.0000000E+00; -7.1915668E-03;  4.0000000E+04;  0.0000000E+00;  4.0007406E+04; -1.1180599E-01;  0.0000000E+00;  8.1193812E-02;  1.1574781E+03;
  5.6195617E-01;  9.9999998E-03;  8.0008328E-02;5900;  8.7837502E-03;  0.0000000E+00;  7.9068188E-03;  9.9842468E+02;  1.0007960E-01; -1.3050988E+03;3; -6.0648971E+00;  0.0000000E+00;  3.2649535E-01;0; -3.1698696E-02;  3.9799914E+04;  0.0000000E+00; -6.1989162E-04;  4.0000000E+04;  0.0000000E+00;  4.0006867E+04; -1.0865115E-01;  0.0000000E+00;  7.6952450E-02;  1.0787578E+03;
  5.6196070E-01;  9.9999998E-03;  9.0009578E-02;5901;  8.9329770E-03;  0.0000000E+00;  8.6677736E-03;  9.9849329E+02;  1.0007951E-01; -1.2482609E+03;3; -5.8909101E+00;  0.0000000E+00;  4.3064952E-01;0; -3.2737896E-02;  3.9805953E+04;  0.0000000E+00;  8.5899634E-03;  4.0000000E+04;  0.0000000E+00;  4.0006254E+04; -1.0515577E-01;  0.0000000E+00;  7.2417870E-02;  1.0065399E+03;
  5.6196296E-01;  9.9999998E-03;  1.0001075E-01;5902;  9.0745408E-03;  0.0000000E+00;  9.3716104E-03;  9.9856207E+02;  1.0007958E-01; -1.1912749E+03;3; -5.7020631E+00;  0.0000000E+00;  5.4789740E-01;0; -3.3677138E-02;  3.9812000E+04;  0.0000000E+00;  1.9528985E-02;  4.0000000E+04;  0.0000000E+00;  4.0005945E+04; -1.0134303E-01;  0.0000000E+00;  6.7665890E-02;  9.5288617E+02;
  5.6196320E-01;  9.9999998E-03;  1.1001165E-01;5903;  9.2056505E-03;  0.0000000E+00;  1.0028562E-02;  9.9862836E+02;  1.0007960E-01; -1.1363628E+03;3; -5.5085783E+00;  0.0000000E+00;  6.7994630E-01;0; -3.4469135E-02;  3.9817594E+04;  0.0000000E+00;  3.0997563E-02;  4.0000000E+04;  0.0000000E+00;  4.0005695E+04; -9.7235627E-02;  0.0000000E+00;  6.2766492E-02;  9.3002783E+02;
  5.6196165E-01;  9.9999998E-03;  1.2001234E-01;5904;  9.3269236E-03;  0.0000000E+00;  1.0638376E-02;  9.9868817E+02;  1.0007966E-01; -1.0868334E+03;3; -5.3198943E+00;  0.0000000E+00;  8.2432395E-01;0; -3.5073094E-02;  3.9822012E+04;  0.0000000E+00;  4.1814573E-02;  4.0000000E+04;  0.0000000E+00;  4.0005984E+04; -9.2855550E-02;  0.0000000E+00;  5.7782456E-02;  9.4838525E+02;
  5.6195855E-01;  9.9999998E-03;  1.3001296E-01;5905;  9.4396211E-03;  0.0000000E+00;  1.1203906E-02;  9.9873590E+02;  1.0007964E-01; -1.0472789E+03;3; -5.1312633E+00;  0.0000000E+00;  9.7925591E-01;0; -3.5458177E-02;  3.9825293E+04;  0.0000000E+00;  5.1089142E-02;  4.0000000E+04;  0.0000000E+00;  4.0006688E+04; -8.8224731E-02;  0.0000000E+00;  5.2766554E-02;  1.0155568E+03;
  5.6195390E-01;  9.9999998E-03;  1.4001381E-01;5906;  9.5462268E-03;  0.0000000E+00;  1.1728020E-02;  9.9876276E+02;  1.0007980E-01; -1.0250574E+03;3; -4.9464087E+00;  0.0000000E+00;  1.1315832E+00;0; -3.5605971E-02;  3.9826586E+04;  0.0000000E+00;  5.8406189E-02;  4.0000000E+04;  0.0000000E+00;  4.0007379E+04; -8.3365165E-02;  0.0000000E+00;  4.7759194E-02;  1.1348394E+03;
  5.6194848E-01;  9.9999998E-03;  1.5001498E-01;5907;  9.6484907E-03;  0.0000000E+00;  1.2214492E-02;  9.9876727E+02;  1.0007989E-01; -1.0213044E+03;3; -4.7650909E+00;  0.0000000E+00;  1.2781953E+00;0; -3.5506602E-02;  3.9825988E+04;  0.0000000E+00;  6.3770652E-02;  4.0000000E+04;  0.0000000E+00;  4.0008859E+04; -7.8299060E-02;  0.0000000E+00;  4.2792458E-02;  1.3039187E+03;
  5.6194407E-01;  9.9999998E-03;  1.6001627E-01;5908;  9.7480016E-03;  0.0000000E+00;  1.2664481E-02;  9.9875049E+02;  1.0007964E-01; -1.0351805E+03;3; -4.5900216E+00;  0.0000000E+00;  1.4113004E+00;0; -3.5133075E-02;  3.9822801E+04;  0.0000000E+00;  6.6979125E-02;  4.0000000E+04;  0.0000000E+00;  4.0010570E+04; -7.3052257E-02;  0.0000000E+00;  3.7919182E-02;  1.5111447E+03;
  5.6194258E-01;  9.9999998E-03;  1.7001721E-01;5909;  9.8455912E-03;  0.0000000E+00;  1.3076652E-02;  9.9870490E+02;  1.0007987E-01; -1.0729573E+03;3; -4.4223289E+00;  0.0000000E+00;  1.5349048E+00;0; -3.4442369E-02;  3.9817574E+04;  0.0000000E+00;  6.7133069E-02;  4.0000000E+04;  0.0000000E+00;  4.0012312E+04; -6.7659602E-02;  0.0000000E+00;  3.3217233E-02;  1.7341121E+03;
  5.6194532E-01;  9.9999998E-03;  1.8001735E-01;5910;  9.9411495E-03;  0.0000000E+00;  1.3446168E-02;  9.9863544E+02;  1.0007997E-01; -1.1305359E+03;3; -4.2621245E+00;  0.0000000E+00;  1.6459299E+00;0; -3.3395331E-02;  3.9810488E+04;  0.0000000E+00;  6.2885307E-02;  4.0000000E+04;  0.0000000E+00;  4.0013941E+04; -6.2169630E-02;  0.0000000E+00;  2.8774299E-02;  1.9419424E+03;
  5.6195390E-01;  9.9999998E-03;  1.9001617E-01;5911;  1.0032056E-02;  0.0000000E+00;  1.3766331E-02;  9.9853717E+02;  1.0007988E-01; -1.2119163E+03;3; -4.1105947E+00;  0.0000000E+00;  1.7451009E+00;0; -3.1968940E-02;  3.9801520E+04;  0.0000000E+00;  5.3063359E-02;  4.0000000E+04;  0.0000000E+00;  4.0015188E+04; -5.6645218E-02;  0.0000000E+00;  2.4676278E-02;  2.0999434E+03;
  5.6196934E-01;  9.9999998E-03;  2.0001255E-01;5912;  1.0111297E-02;  0.0000000E+00;  1.4021064E-02;  9.9841827E+02;  1.0007979E-01; -1.3104320E+03;3; -3.9677742E+00;  0.0000000E+00;  1.8309704E+00;0; -3.0164698E-02;  3.9791477E+04;  0.0000000E+00;  3.7303083E-02;  4.0000000E+04;  0.0000000E+00;  4.0015750E+04; -5.1159766E-02;  0.0000000E+00;  2.0995067E-02;  2.1812126E+03;
  5.6199324E-01;  9.9999998E-03;  2.1000439E-01;5913;  1.0168906E-02;  0.0000000E+00;  1.4205297E-02;  9.9828204E+02;  1.0007975E-01; -1.4233176E+03;3; -3.8229795E+00;  0.0000000E+00;  1.9040350E+00;0; -2.8010085E-02;  3.9780605E+04;  0.0000000E+00;  1.6420553E-02;  4.0000000E+04;  0.0000000E+00;  4.0015844E+04; -4.5790777E-02;  0.0000000E+00;  1.7780691E-02;  2.1998489E+03;
  5.6202507E-01;  9.9999998E-03;  2.1999024E-01;5914;  1.0193544E-02;  0.0000000E+00;  1.4318177E-02;  9.9814166E+02;  1.0008001E-01; -1.5396107E+03;3; -3.7144446E+00;  0.0000000E+00;  1.9420246E+00;0; -2.5560457E-02;  3.9769422E+04;  0.0000000E+00; -8.0250185E-03;  4.0000000E+04;  0.0000000E+00;  4.0016301E+04; -4.0612109E-02;  0.0000000E+00;  1.5051651E-02;  2.2574722E+03;
  5.6206197E-01;  9.9999998E-03;  2.2997360E-01;5915;  1.0183738E-02;  0.0000000E+00;  1.4383955E-02;  9.9802234E+02;  1.0007983E-01; -1.6384720E+03;3; -3.6360803E+00;  0.0000000E+00;  1.9445604E+00;0; -2.2843242E-02;  3.9758340E+04;  0.0000000E+00; -3.4533452E-02;  4.0000000E+04;  0.0000000E+00;  4.0017738E+04; -3.5686474E-02;  0.0000000E+00;  1.2843233E-02;  2.4771487E+03;
  5.7206219E-01;  9.9999998E-03;  7.0003211E-02;5960;  7.4271229E-03;  0.0000000E+00;  7.2451765E-03;  9.9840045E+02;  1.0013084E-01; -1.3251969E+03;3; -6.1090450E+00;  0.0000000E+00;  2.2900926E-01;0; -3.2104559E-02;  3.9756809E+04;  0.0000000E+00;  5.1355876E-02;  4.0000000E+04;  0.0000000E+00;  4.0007297E+04; -1.1581554E-01;  0.0000000E+00;  8.3710976E-02;  1.1946506E+03;
  5.7206273E-01;  9.9999998E-03;  8.0004431E-02;5961;  7.6227449E-03;  0.0000000E+00;  8.1079649E-03;  9.9847028E+02;  1.0013099E-01; -1.2673713E+03;3; -5.9522414E+00;  0.0000000E+00;  3.0767173E-01;0; -3.3166908E-02;  3.9762594E+04;  0.0000000E+00;  6.7876220E-02;  4.0000000E+04;  0.0000000E+00;  4.0007059E+04; -1.1253628E-01;  0.0000000E+00;  7.9369374E-02;  1.1373289E+03;
  5.7206029E-01;  9.9999998E-03;  9.0005837E-02;5962;  7.8147426E-03;  0.0000000E+00;  8.9148404E-03;  9.9853986E+02;  1.0013097E-01; -1.2096940E+03;3; -5.7811098E+00;  0.0000000E+00;  4.1233867E-01;0; -3.4196965E-02;  3.9768625E+04;  0.0000000E+00;  8.4040344E-02;  4.0000000E+04;  0.0000000E+00;  4.0006504E+04; -1.0888708E-01;  0.0000000E+00;  7.4690111E-02;  1.0836895E+03;
  5.7205474E-01;  9.9999998E-03;  1.0000729E-01;5963;  8.0010137E-03;  0.0000000E+00;  9.6635381E-03;  9.9861011E+02;  1.0013086E-01; -1.1515228E+03;3; -5.5878940E+00;  0.0000000E+00;  5.3948569E-01;0; -3.5141222E-02;  3.9774570E+04;  0.0000000E+00;  9.7868107E-02;  4.0000000E+04;  0.0000000E+00;  4.0006270E+04; -1.0489101E-01;  0.0000000E+00;  6.9749787E-02;  1.0453806E+03;
  5.7204610E-01;  9.9999998E-03;  1.1000869E-01;5964;  8.1783393E-03;  0.0000000E+00;  1.0361202E-02;  9.9867987E+02;  1.0013118E-01; -1.0936973E+03;3; -5.3939781E+00;  0.0000000E+00;  6.8051845E-01;0; -3.5948232E-02;  3.9780117E+04;  0.0000000E+00;  1.0745350E-01;  4.0000000E+04;  0.0000000E+00;  4.0006215E+04; -1.0057152E-01;  0.0000000E+00;  6.4623289E-02;  1.0336133E+03;
  5.7203555E-01;  9.9999998E-03;  1.2000981E-01;5965;  8.3468352E-03;  0.0000000E+00;  1.1006116E-02;  9.9873914E+02;  1.0013115E-01; -1.0446123E+03;3; -5.2047043E+00;  0.0000000E+00;  8.3266795E-01;0; -3.6572117E-02;  3.9784711E+04;  0.0000000E+00;  1.1143912E-01;  4.0000000E+04;  0.0000000E+00;  4.0006445E+04; -9.5953234E-02;  0.0000000E+00;  5.9381116E-02;  1.0584591E+03;
  5.7202417E-01;  9.9999998E-03;  1.3001069E-01;5966;  8.5078990E-03;  0.0000000E+00;  1.1598759E-02;  9.9878760E+02;  1.0013101E-01; -1.0044653E+03;3; -5.0172801E+00;  0.0000000E+00;  9.9044663E-01;0; -3.6975779E-02;  3.9788086E+04;  0.0000000E+00;  1.0936828E-01;  4.0000000E+04;  0.0000000E+00;  4.0007070E+04; -9.1061875E-02;  0.0000000E+00;  5.4086097E-02;  1.1274406E+03;
  5.7201332E-01;  9.9999998E-03;  1.4001176E-01;5967;  8.6639430E-03;  0.0000000E+00;  1.2141625E-02;  9.9882239E+02;  1.0013114E-01; -9.7562659E+02;3; -4.8310461E+00;  0.0000000E+00;  1.1393238E+00;0; -3.7133973E-02;  3.9789570E+04;  0.0000000E+00;  1.0188481E-01;  4.0000000E+04;  0.0000000E+00;  4.0008000E+04; -8.5923322E-02;  0.0000000E+00;  4.8789348E-02;  1.2446450E+03;
  5.7200521E-01;  9.9999998E-03;  1.5001309E-01;5968;  8.8167470E-03;  0.0000000E+00;  1.2639362E-02;  9.9883673E+02;  1.0013122E-01; -9.6372571E+02;3; -4.6491017E+00;  0.0000000E+00;  1.2836515E+00;0; -3.7030891E-02;  3.9789305E+04;  0.0000000E+00;  9.0469055E-02;  4.0000000E+04;  0.0000000E+00;  4.0009391E+04; -8.0564313E-02;  0.0000000E+00;  4.3533422E-02;  1.4079403E+03;
  5.7200128E-01;  9.9999998E-03;  1.6001461E-01;5969;  8.9682816E-03;  0.0000000E+00;  1.3093316E-02;  9.9882776E+02;  1.0013103E-01; -9.7118225E+02;3; -4.4725256E+00;  0.0000000E+00;  1.4194567E+00;0; -3.6631487E-02;  3.9787312E+04;  0.0000000E+00;  7.6670781E-02;  4.0000000E+04;  0.0000000E+00;  4.0011098E+04; -7.5013548E-02;  0.0000000E+00;  3.8382061E-02;  1.6051490E+03;
  5.7200325E-01;  9.9999998E-03;  1.7001586E-01;5970;  9.1197956E-03;  0.0000000E+00;  1.3502822E-02;  9.9879993E+02;  1.0013123E-01; -9.9424335E+02;3; -4.3046427E+00;  0.0000000E+00;  1.5381773E+00;0; -3.5886254E-02;  3.9783301E+04;  0.0000000E+00;  6.1600447E-02;  4.0000000E+04;  0.0000000E+00;  4.0012598E+04; -6.9309637E-02;  0.0000000E+00;  3.3423383E-02;  1.8124108E+03;
  5.7201284E-01;  9.9999998E-03;  1.8001612E-01;5971;  9.2714299E-03;  0.0000000E+00;  1.3863378E-02;  9.9874274E+02;  1.0013138E-01; -1.0416000E+03;3; -4.1451602E+00;  0.0000000E+00;  1.6431096E+00;0; -3.4752160E-02;  3.9777566E+04;  0.0000000E+00;  4.5825906E-02;  4.0000000E+04;  0.0000000E+00;  4.0014031E+04; -6.3504845E-02;  0.0000000E+00;  2.8752685E-02;  1.9967728E+03;
  5.7203084E-01;  9.9999998E-03;  1.9001471E-01;5972;  9.4211791E-03;  0.0000000E+00;  1.4173907E-02;  9.9866571E+02;  1.0013139E-01; -1.1054501E+03;3; -3.9962821E+00;  0.0000000E+00;  1.7374597E+00;0; -3.3205390E-02;  3.9770461E+04;  0.0000000E+00;  2.9532894E-02;  4.0000000E+04;  0.0000000E+00;  4.0015148E+04; -5.7665467E-02;  0.0000000E+00;  2.4460077E-02;  2.1224055E+03;
  5.7205850E-01;  9.9999998E-03;  2.0001045E-01;5973;  9.5622484E-03;  0.0000000E+00;  1.4416696E-02;  9.9856110E+02;  1.0013146E-01; -1.1921143E+03;3; -3.8562260E+00;  0.0000000E+00;  1.8143833E+00;0; -3.1251013E-02;  3.9762078E+04;  0.0000000E+00;  1.2957821E-02;  4.0000000E+04;  0.0000000E+00;  4.0015508E+04; -5.1867969E-02;  0.0000000E+00;  2.0616954E-02;  2.1640969E+03;
  5.7209581E-01;  9.9999998E-03;  2.1000114E-01;5974;  9.6861199E-03;  0.0000000E+00;  1.4598629E-02;  9.9844348E+02;  1.0013153E-01; -1.2895436E+03;3; -3.7159021E+00;  0.0000000E+00;  1.8828180E+00;0; -2.8909955E-02;  3.9753047E+04;  0.0000000E+00; -3.3882300E-03;  4.0000000E+04;  0.0000000E+00;  4.0015059E+04; -4.6192512E-02;  0.0000000E+00;  1.7282557E-02;  2.1442622E+03;
  5.7214159E-01;  9.9999998E-03;  2.1998569E-01;5975;  9.7806221E-03;  0.0000000E+00;  1.4712731E-02;  9.9832623E+02;  1.0013144E-01; -1.3866766E+03;3; -3.5961399E+00;  0.0000000E+00;  1.9394680E+00;0; -2.6232991E-02;  3.9743625E+04;  0.0000000E+00; -1.9501833E-02;  4.0000000E+04;  0.0000000E+00;  4.0015359E+04; -4.0714279E-02;  0.0000000E+00;  1.4481287E-02;  2.1774846E+03;
  5.7219201E-01;  9.9999998E-03;  2.2996922E-01;5976;  9.8392535E-03;  0.0000000E+00;  1.4780602E-02;  9.9822498E+02;  1.0013144E-01; -1.4705754E+03;3; -3.5171776E+00;  0.0000000E+00;  1.9440982E+00;0; -2.3233766E-02;  3.9734516E+04;  0.0000000E+00; -3.7312388E-02;  4.0000000E+04;  0.0000000E+00;  4.0016676E+04; -3.5495851E-02;  0.0000000E+00;  1.2262085E-02;  2.3647847E+03;
  5.8221745E-01;  9.9999998E-03;  6.9993205E-02;6021;  6.1830780E-03;  0.0000000E+00;  7.3822681E-03;  9.9853430E+02;  1.0021388E-01; -1.2142865E+03;3; -5.9901118E+00;  0.0000000E+00;  2.0741159E-01;0; -3.3814058E-02;  3.9702133E+04;  0.0000000E+00;  1.0878614E-01;  4.0000000E+04;  0.0000000E+00;  4.0007398E+04; -1.1977686E-01;  0.0000000E+00;  8.5962802E-02;  1.2788328E+03;
  5.8220631E-01;  9.9999998E-03;  7.9994366E-02;6022;  6.4190659E-03;  0.0000000E+00;  8.2922271E-03;  9.9859131E+02;  1.0021397E-01; -1.1670779E+03;3; -5.8307929E+00;  0.0000000E+00;  2.9545754E-01;0; -3.4853175E-02;  3.9706711E+04;  0.0000000E+00;  1.3341637E-01;  4.0000000E+04;  0.0000000E+00;  4.0007293E+04; -1.1637275E-01;  0.0000000E+00;  8.1519574E-02;  1.2479292E+03;
  5.8218920E-01;  9.9999998E-03;  8.9996241E-02;6023;  6.6552693E-03;  0.0000000E+00;  9.1467220E-03;  9.9865021E+02;  1.0021431E-01; -1.1182892E+03;3; -5.6569362E+00;  0.0000000E+00;  4.1037855E-01;0; -3.5876349E-02;  3.9711840E+04;  0.0000000E+00;  1.5420635E-01;  4.0000000E+04;  0.0000000E+00;  4.0006992E+04; -1.1256690E-01;  0.0000000E+00;  7.6690555E-02;  1.2146023E+03;
  5.8216769E-01;  9.9999998E-03;  9.9998444E-02;6024;  6.8882410E-03;  0.0000000E+00;  9.9421199E-03;  9.9870874E+02;  1.0021400E-01; -1.0697968E+03;3; -5.4640837E+00;  0.0000000E+00;  5.4611480E-01;0; -3.6828272E-02;  3.9716582E+04;  0.0000000E+00;  1.6835995E-01;  4.0000000E+04;  0.0000000E+00;  4.0006777E+04; -1.0838258E-01;  0.0000000E+00;  7.1554303E-02;  1.1885814E+03;
  5.8214492E-01;  9.9999998E-03;  1.1000055E-01;6025;  7.1143894E-03;  0.0000000E+00;  1.0680962E-02;  9.9876709E+02;  1.0021417E-01; -1.0214525E+03;3; -5.2714028E+00;  0.0000000E+00;  6.9346708E-01;0; -3.7652992E-02;  3.9721164E+04;  0.0000000E+00;  1.7365076E-01;  4.0000000E+04;  0.0000000E+00;  4.0006730E+04; -1.0384545E-01;  0.0000000E+00;  6.6192456E-02;  1.1799221E+03;
  5.8212328E-01;  9.9999998E-03;  1.2000231E-01;6026;  7.3330635E-03;  0.0000000E+00;  1.1360122E-02;  9.9881750E+02;  1.0021426E-01; -9.7967584E+02;3; -5.0822730E+00;  0.0000000E+00;  8.5077477E-01;0; -3.8298782E-02;  3.9724848E+04;  0.0000000E+00;  1.6893813E-01;  4.0000000E+04;  0.0000000E+00;  4.0006922E+04; -9.8983519E-02;  0.0000000E+00;  6.0684737E-02;  1.1987617E+03;
  5.8210438E-01;  9.9999998E-03;  1.3000372E-01;6027;  7.5459862E-03;  0.0000000E+00;  1.1977041E-02;  9.9886133E+02;  1.0021437E-01; -9.4338055E+02;3; -4.8942900E+00;  0.0000000E+00;  1.0057522E+00;0; -3.8721360E-02;  3.9727793E+04;  0.0000000E+00;  1.5456256E-01;  4.0000000E+04;  0.0000000E+00;  4.0007531E+04; -9.3826339E-02;  0.0000000E+00;  5.5104978E-02;  1.2539852E+03;
  5.8209032E-01;  9.9999998E-03;  1.4000487E-01;6028;  7.7551827E-03;  0.0000000E+00;  1.2534667E-02;  9.9889221E+02;  1.0021447E-01; -9.1780109E+02;3; -4.7084384E+00;  0.0000000E+00;  1.1544152E+00;0; -3.8887285E-02;  3.9729336E+04;  0.0000000E+00;  1.3240196E-01;  4.0000000E+04;  0.0000000E+00;  4.0008336E+04; -8.8403873E-02;  0.0000000E+00;  4.9516588E-02;  1.3513463E+03;
  5.8208197E-01;  9.9999998E-03;  1.5000607E-01;6029;  7.9627372E-03;  0.0000000E+00;  1.3038817E-02;  9.9891028E+02;  1.0021443E-01; -9.0278912E+02;3; -4.5259223E+00;  0.0000000E+00;  1.2912658E+00;0; -3.8772654E-02;  3.9729562E+04;  0.0000000E+00;  1.0540681E-01;  4.0000000E+04;  0.0000000E+00;  4.0009648E+04; -8.2746536E-02;  0.0000000E+00;  4.3973882E-02;  1.4900186E+03;
  5.8208078E-01;  9.9999998E-03;  1.6000731E-01;6030;  8.1704929E-03;  0.0000000E+00;  1.3488772E-02;  9.9891327E+02;  1.0021445E-01; -9.0032007E+02;3; -4.3494644E+00;  0.0000000E+00;  1.4217982E+00;0; -3.8335193E-02;  3.9728215E+04;  0.0000000E+00;  7.6781809E-02;  4.0000000E+04;  0.0000000E+00;  4.0010992E+04; -7.6887667E-02;  0.0000000E+00;  3.8552474E-02;  1.6581346E+03;
  5.8208829E-01;  9.9999998E-03;  1.7000814E-01;6031;  8.3800880E-03;  0.0000000E+00;  1.3889042E-02;  9.9889636E+02;  1.0021455E-01; -9.1434436E+02;3; -4.1804161E+00;  0.0000000E+00;  1.5435383E+00;0; -3.7518073E-02;  3.9725492E+04;  0.0000000E+00;  4.9461562E-02;  4.0000000E+04;  0.0000000E+00;  4.0012340E+04; -7.0869543E-02;  0.0000000E+00;  3.3351470E-02;  1.8321937E+03;
  5.8210564E-01;  9.9999998E-03;  1.8000789E-01;6032;  8.5916305E-03;  0.0000000E+00;  1.4233137E-02;  9.9885925E+02;  1.0021462E-01; -9.4510895E+02;3; -4.0229664E+00;  0.0000000E+00;  1.6448442E+00;0; -3.6275368E-02;  3.9721398E+04;  0.0000000E+00;  2.5665721E-02;  4.0000000E+04;  0.0000000E+00;  4.0013441E+04; -6.4748541E-02;  0.0000000E+00;  2.8473172E-02;  1.9801641E+03;
  5.8213365E-01;  9.9999998E-03;  1.9000582E-01;6033;  8.8035716E-03;  0.0000000E+00;  1.4524446E-02;  9.9879980E+02;  1.0021471E-01; -9.9434210E+02;3; -3.8745725E+00;  0.0000000E+00;  1.7342792E+00;0; -3.4585513E-02;  3.9716055E+04;  0.0000000E+00;  6.6506080E-03;  4.0000000E+04;  0.0000000E+00;  4.0014203E+04; -5.8594912E-02;  0.0000000E+00;  2.4009399E-02;  2.0687932E+03;
  5.8217251E-01;  9.9999998E-03;  2.0000058E-01;6034;  9.0101836E-03;  0.0000000E+00;  1.4754167E-02;  9.9872076E+02;  1.0021479E-01; -1.0598218E+03;3; -3.7369168E+00;  0.0000000E+00;  1.8022655E+00;0; -3.2455340E-02;  3.9709988E+04;  0.0000000E+00; -7.1112160E-03;  4.0000000E+04;  0.0000000E+00;  4.0014359E+04; -5.2488457E-02;  0.0000000E+00;  2.0033117E-02;  2.0797654E+03;
  5.8222157E-01;  9.9999998E-03;  2.0999010E-01;6035;  9.2038251E-03;  0.0000000E+00;  1.4929784E-02;  9.9862946E+02;  1.0021475E-01; -1.1354739E+03;3; -3.6046264E+00;  0.0000000E+00;  1.8691783E+00;0; -2.9904567E-02;  3.9703254E+04;  0.0000000E+00; -1.6029485E-02;  4.0000000E+04;  0.0000000E+00;  4.0013902E+04; -4.6511382E-02;  0.0000000E+00;  1.6606815E-02;  2.0479561E+03;
  5.8227831E-01;  9.9999998E-03;  2.1997435E-01;6036;  9.3741734E-03;  0.0000000E+00;  1.5048164E-02;  9.9854102E+02;  1.0021487E-01; -1.2087557E+03;3; -3.4841654E+00;  0.0000000E+00;  1.9259847E+00;0; -2.6966620E-02;  3.9695941E+04;  0.0000000E+00; -2.2492873E-02;  4.0000000E+04;  0.0000000E+00;  4.0014152E+04; -4.0739648E-02;  0.0000000E+00;  1.3773028E-02;  2.0906836E+03;
  5.8233905E-01;  9.9999998E-03;  2.2996007E-01;6037;  9.5090019E-03;  0.0000000E+00;  1.5123820E-02;  9.9846552E+02;  1.0021494E-01; -1.2712725E+03;3; -3.3902373E+00;  0.0000000E+00;  1.9549776E+00;0; -2.3639433E-02;  3.9688840E+04;  0.0000000E+00; -3.3078529E-02;  4.0000000E+04;  0.0000000E+00;  4.0015480E+04; -3.5234824E-02;  0.0000000E+00;  1.1595391E-02;  2.2629233E+03;
  5.9235245E-01;  9.9999998E-03;  6.9986187E-02;6082;  4.9077542E-03;  0.0000000E+00;  7.5043608E-03;  9.9867999E+02;  1.0034806E-01; -1.0935985E+03;3; -5.8630357E+00;  0.0000000E+00;  1.9456275E-01;0; -3.5831466E-02;  3.9609266E+04;  0.0000000E+00;  1.5105304E-01;  4.0000000E+04;  0.0000000E+00;  4.0007582E+04; -1.2372024E-01;  0.0000000E+00;  8.7888770E-02;  1.4029048E+03;
  5.9232837E-01;  9.9999998E-03;  7.9986289E-02;6083;  5.1828548E-03;  0.0000000E+00;  8.4613068E-03;  9.9871643E+02;  1.0034810E-01; -1.0634265E+03;3; -5.7006216E+00;  0.0000000E+00;  2.9498947E-01;0; -3.6844470E-02;  3.9611984E+04;  0.0000000E+00;  1.7957494E-01;  4.0000000E+04;  0.0000000E+00;  4.0007594E+04; -1.2018286E-01;  0.0000000E+00;  8.3338395E-02;  1.3994097E+03;
  5.9229881E-01;  9.9999998E-03;  8.9986995E-02;6084;  5.4627429E-03;  0.0000000E+00;  9.3628233E-03;  9.9875348E+02;  1.0034801E-01; -1.0327114E+03;3; -5.5238132E+00;  0.0000000E+00;  4.2318535E-01;0; -3.7857994E-02;  3.9614879E+04;  0.0000000E+00;  2.0102446E-01;  4.0000000E+04;  0.0000000E+00;  4.0007309E+04; -1.1621294E-01;  0.0000000E+00;  7.8354947E-02;  1.3836781E+03;
  5.9226573E-01;  9.9999998E-03;  9.9988535E-02;6085;  5.7427599E-03;  0.0000000E+00;  1.0203862E-02;  9.9878687E+02;  1.0034835E-01; -1.0050579E+03;3; -5.3328233E+00;  0.0000000E+00;  5.6641328E-01;0; -3.8813569E-02;  3.9617785E+04;  0.0000000E+00;  2.1230300E-01;  4.0000000E+04;  0.0000000E+00;  4.0007223E+04; -1.1183304E-01;  0.0000000E+00;  7.3019475E-02;  1.3633916E+03;
  5.9223127E-01;  9.9999998E-03;  1.0999103E-01;6086;  6.0191387E-03;  0.0000000E+00;  1.0980980E-02;  9.9882220E+02;  1.0034828E-01; -9.7577472E+02;3; -5.1416669E+00;  0.0000000E+00;  7.1881407E-01;0; -3.9650969E-02;  3.9620309E+04;  0.0000000E+00;  2.1133460E-01;  4.0000000E+04;  0.0000000E+00;  4.0007164E+04; -1.0707001E-01;  0.0000000E+00;  6.7419037E-02;  1.3482668E+03;
  5.9219891E-01;  9.9999998E-03;  1.1999410E-01;6087;  6.2906807E-03;  0.0000000E+00;  1.1691070E-02;  9.9885559E+02;  1.0034828E-01; -9.4812122E+02;3; -4.9514723E+00;  0.0000000E+00;  8.7709588E-01;0; -4.0311255E-02;  3.9622719E+04;  0.0000000E+00;  1.9758566E-01;  4.0000000E+04;  0.0000000E+00;  4.0007332E+04; -1.0195494E-01;  0.0000000E+00;  6.1643690E-02;  1.3492966E+03;
  5.9217203E-01;  9.9999998E-03;  1.2999727E-01;6088;  6.5588360E-03;  0.0000000E+00;  1.2328208E-02;  9.9888544E+02;  1.0034844E-01; -9.2338116E+02;3; -4.7638969E+00;  0.0000000E+00;  1.0325354E+00;0; -4.0742036E-02;  3.9624543E+04;  0.0000000E+00;  1.7237154E-01;  4.0000000E+04;  0.0000000E+00;  4.0007492E+04; -9.6522070E-02;  0.0000000E+00;  5.5780035E-02;  1.3774674E+03;
  5.9215361E-01;  9.9999998E-03;  1.4000002E-01;6089;  6.8254531E-03;  0.0000000E+00;  1.2894996E-02;  9.9890735E+02;  1.0034855E-01; -9.0525824E+02;3; -4.5769157E+00;  0.0000000E+00;  1.1744823E+00;0; -4.0902317E-02;  3.9625547E+04;  0.0000000E+00;  1.3869776E-01;  4.0000000E+04;  0.0000000E+00;  4.0008234E+04; -9.0807192E-02;  0.0000000E+00;  4.9904875E-02;  1.4404818E+03;
  5.9214455E-01;  9.9999998E-03;  1.5000224E-01;6090;  7.0922021E-03;  0.0000000E+00;  1.3400065E-02;  9.9892206E+02;  1.0034860E-01; -8.9306104E+02;3; -4.3939857E+00;  0.0000000E+00;  1.3126794E+00;0; -4.0759426E-02;  3.9625852E+04;  0.0000000E+00;  1.0068243E-01;  4.0000000E+04;  0.0000000E+00;  4.0009039E+04; -8.4845006E-02;  0.0000000E+00;  4.4085581E-02;  1.5387251E+03;
  5.9214592E-01;  9.9999998E-03;  1.6000393E-01;6091;  7.3610768E-03;  0.0000000E+00;  1.3840545E-02;  9.9892786E+02;  1.0034893E-01; -8.8827106E+02;3; -4.2186880E+00;  0.0000000E+00;  1.4316951E+00;0; -4.0263321E-02;  3.9625137E+04;  0.0000000E+00;  6.2699713E-02;  4.0000000E+04;  0.0000000E+00;  4.0010102E+04; -7.8673512E-02;  0.0000000E+00;  3.8410190E-02;  1.6609082E+03;
  5.9215808E-01;  9.9999998E-03;  1.7000476E-01;6092;  7.6329350E-03;  0.0000000E+00;  1.4221346E-02;  9.9892212E+02;  1.0034908E-01; -8.9301166E+02;3; -4.0508957E+00;  0.0000000E+00;  1.5487137E+00;0; -3.9351262E-02;  3.9623605E+04;  0.0000000E+00;  2.8858583E-02;  4.0000000E+04;  0.0000000E+00;  4.0011223E+04; -7.2339460E-02;  0.0000000E+00;  3.2988198E-02;  1.7837987E+03;
  5.9218174E-01;  9.9999998E-03;  1.8000403E-01;6093;  7.9085659E-03;  0.0000000E+00;  1.4543523E-02;  9.9890277E+02;  1.0034906E-01; -9.0901117E+02;3; -3.8924496E+00;  0.0000000E+00;  1.6471213E+00;0; -3.7975609E-02;  3.9620996E+04;  0.0000000E+00;  2.3307572E-03;  4.0000000E+04;  0.0000000E+00;  4.0011719E+04; -6.5903746E-02;  0.0000000E+00;  2.7928136E-02;  1.8761565E+03;
  5.9221709E-01;  9.9999998E-03;  1.9000100E-01;6094;  8.1859827E-03;  0.0000000E+00;  1.4808550E-02;  9.9886401E+02;  1.0034942E-01; -9.4115845E+02;3; -3.7456899E+00;  0.0000000E+00;  1.7344389E+00;0; -3.6119074E-02;  3.9617738E+04;  0.0000000E+00; -1.5100398E-02;  4.0000000E+04;  0.0000000E+00;  4.0012043E+04; -5.9440613E-02;  0.0000000E+00;  2.3321537E-02;  1.9078757E+03;
  5.9226286E-01;  9.9999998E-03;  1.9999422E-01;6095;  8.4603829E-03;  0.0000000E+00;  1.5016207E-02;  9.9880414E+02;  1.0034940E-01; -9.9073724E+02;3; -3.6124783E+00;  0.0000000E+00;  1.7953887E+00;0; -3.3794031E-02;  3.9613488E+04;  0.0000000E+00; -2.3006655E-02;  4.0000000E+04;  0.0000000E+00;  4.0011824E+04; -5.3032804E-02;  0.0000000E+00;  1.9238774E-02;  1.8694623E+03;
  5.9231770E-01;  9.9999998E-03;  2.0998134E-01;6096;  8.7249652E-03;  0.0000000E+00;  1.5172079E-02;  9.9873718E+02;  1.0034940E-01; -1.0462418E+03;3; -3.4861257E+00;  0.0000000E+00;  1.8618441E+00;0; -3.1029152E-02;  3.9608469E+04;  0.0000000E+00; -2.2528594E-02;  4.0000000E+04;  0.0000000E+00;  4.0011219E+04; -4.6764947E-02;  0.0000000E+00;  1.5735796E-02;  1.8179630E+03;
  5.9237897E-01;  9.9999998E-03;  2.1996324E-01;6097;  8.9723291E-03;  0.0000000E+00;  1.5283903E-02;  9.9867419E+02;  1.0034967E-01; -1.0983885E+03;3; -3.3696580E+00;  0.0000000E+00;  1.9162649E+00;0; -2.7845494E-02;  3.9603406E+04;  0.0000000E+00; -1.7786290E-02;  4.0000000E+04;  0.0000000E+00;  4.0011672E+04; -4.0714320E-02;  0.0000000E+00;  1.2868825E-02;  1.8960786E+03;
  5.9244311E-01;  9.9999998E-03;  2.2994912E-01;6098;  9.1908742E-03;  0.0000000E+00;  1.5369225E-02;  9.9862701E+02;  1.0034961E-01; -1.1374985E+03;3; -3.2683921E+00;  0.0000000E+00;  1.9633962E+00;0; -2.4200717E-02;  3.9598066E+04;  0.0000000E+00; -1.8476749E-02;  4.0000000E+04;  0.0000000E+00;  4.0013695E+04; -3.4941334E-02;  0.0000000E+00;  1.0740617E-02;  2.1261040E+03;
  6.0240513E-01;  9.9999998E-03;  6.9989204E-02;6143;  3.6117563E-03;  0.0000000E+00;  7.6142685E-03;  9.9875256E+02;  1.0056140E-01; -1.0335015E+03;3; -5.7278895E+00;  0.0000000E+00;  1.9613752E-01;0; -3.8246170E-02;  3.9449555E+04;  0.0000000E+00;  1.6541870E-01;  4.0000000E+04;  0.0000000E+00;  4.0007516E+04; -1.2768316E-01;  0.0000000E+00;  8.9436993E-02;  1.5520671E+03;
  6.0237998E-01;  9.9999998E-03;  7.9986624E-02;6144;  3.9226753E-03;  0.0000000E+00;  8.6151883E-03;  9.9876202E+02;  1.0056169E-01; -1.0256499E+03;3; -5.5636382E+00;  0.0000000E+00;  3.0978012E-01;0; -3.9227486E-02;  3.9449969E+04;  0.0000000E+00;  1.9167159E-01;  4.0000000E+04;  0.0000000E+00;  4.0007566E+04; -1.2399883E-01;  0.0000000E+00;  8.4771343E-02;  1.5723054E+03;
  6.0235053E-01;  9.9999998E-03;  8.9984074E-02;6145;  4.2436258E-03;  0.0000000E+00;  9.5605245E-03;  9.9877081E+02;  1.0056166E-01; -1.0183414E+03;3; -5.3846216E+00;  0.0000000E+00;  4.4987503E-01;0; -4.0222809E-02;  3.9450273E+04;  0.0000000E+00;  2.0853081E-01;  4.0000000E+04;  0.0000000E+00;  4.0007555E+04; -1.1985148E-01;  0.0000000E+00;  7.9628669E-02;  1.5684957E+03;
  6.0231793E-01;  9.9999998E-03;  9.9982366E-02;6146;  4.5692716E-03;  0.0000000E+00;  1.0441879E-02;  9.9877972E+02;  1.0056184E-01; -1.0109836E+03;3; -5.1945252E+00;  0.0000000E+00;  5.9926331E-01;0; -4.1171663E-02;  3.9450801E+04;  0.0000000E+00;  2.1325701E-01;  4.0000000E+04;  0.0000000E+00;  4.0007234E+04; -1.1526394E-01;  0.0000000E+00;  7.4092276E-02;  1.5468309E+03;
  6.0228330E-01;  9.9999998E-03;  1.0998208E-01;6147;  4.8959213E-03;  0.0000000E+00;  1.1251147E-02;  9.9878790E+02;  1.0056213E-01; -1.0042184E+03;3; -5.0039010E+00;  0.0000000E+00;  7.5181299E-01;0; -4.2008094E-02;  3.9451414E+04;  0.0000000E+00;  2.0449506E-01;  4.0000000E+04;  0.0000000E+00;  4.0007168E+04; -1.1026398E-01;  0.0000000E+00;  6.8255886E-02;  1.5172734E+03;
  6.0224891E-01;  9.9999998E-03;  1.1998349E-01;6148;  5.2217986E-03;  0.0000000E+00;  1.1985778E-02;  9.9879260E+02;  1.0056242E-01; -1.0003173E+03;3; -4.8121266E+00;  0.0000000E+00;  9.1542923E-01;0; -4.2665675E-02;  3.9451695E+04;  0.0000000E+00;  1.8268226E-01;  4.0000000E+04;  0.0000000E+00;  4.0006816E+04; -1.0488536E-01;  0.0000000E+00;  6.2219687E-02;  1.4925249E+03;
  6.0221756E-01;  9.9999998E-03;  1.2998655E-01;6149;  5.5482690E-03;  0.0000000E+00;  1.2636836E-02;  9.9880206E+02;  1.0056223E-01; -9.9246564E+02;3; -4.6219587E+00;  0.0000000E+00;  1.0677389E+00;0; -4.3084119E-02;  3.9452023E+04;  0.0000000E+00;  1.5009551E-01;  4.0000000E+04;  0.0000000E+00;  4.0006957E+04; -9.9166580E-02;  0.0000000E+00;  5.6082461E-02;  1.4854265E+03;
  6.0219258E-01;  9.9999998E-03;  1.3999087E-01;6150;  5.8767088E-03;  0.0000000E+00;  1.3207476E-02;  9.9880981E+02;  1.0056274E-01; -9.8604602E+02;3; -4.4349613E+00;  0.0000000E+00;  1.2060777E+00;0; -4.3214258E-02;  3.9452121E+04;  0.0000000E+00;  1.1052774E-01;  4.0000000E+04;  0.0000000E+00;  4.0007219E+04; -9.3148924E-02;  0.0000000E+00;  4.9934667E-02;  1.5053405E+03;
  6.0217756E-01;  9.9999998E-03;  1.4999557E-01;6151;  6.2076706E-03;  0.0000000E+00;  1.3704708E-02;  9.9881897E+02;  1.0056295E-01; -9.7844135E+02;3; -4.2513785E+00;  0.0000000E+00;  1.3424205E+00;0; -4.3016054E-02;  3.9452062E+04;  0.0000000E+00;  6.8604343E-02;  4.0000000E+04;  0.0000000E+00;  4.0007566E+04; -8.6873263E-02;  0.0000000E+00;  4.3857209E-02;  1.5534243E+03;
  6.0217524E-01;  9.9999998E-03;  1.5999961E-01;6152;  6.5429909E-03;  0.0000000E+00;  1.4132298E-02;  9.9882501E+02;  1.0056322E-01; -9.7345380E+02;3; -4.0755372E+00;  0.0000000E+00;  1.4596330E+00;0; -4.2432893E-02;  3.9451695E+04;  0.0000000E+00;  2.8964348E-02;  4.0000000E+04;  0.0000000E+00;  4.0008355E+04; -8.0383956E-02;  0.0000000E+00;  3.7951063E-02;  1.6192207E+03;
  6.0218650E-01;  9.9999998E-03;  1.7000194E-01;6153;  6.8826256E-03;  0.0000000E+00;  1.4490181E-02;  9.9882275E+02;  1.0056351E-01; -9.7533032E+02;3; -3.9101262E+00;  0.0000000E+00;  1.5698104E+00;0; -4.1397538E-02;  3.9450789E+04;  0.0000000E+00; -4.1026394E-03;  4.0000000E+04;  0.0000000E+00;  4.0008750E+04; -7.3733166E-02;  0.0000000E+00;  3.2335628E-02;  1.6800071E+03;
  6.0221124E-01;  9.9999998E-03;  1.8000190E-01;6154;  7.2265361E-03;  0.0000000E+00;  1.4783235E-02;  9.9880957E+02;  1.0056404E-01; -9.8624359E+02;3; -3.7558975E+00;  0.0000000E+00;  1.6558050E+00;0; -3.9862521E-02;  3.9449457E+04;  0.0000000E+00; -2.7351901E-02;  4.0000000E+04;  0.0000000E+00;  4.0009008E+04; -6.6986144E-02;  0.0000000E+00;  2.7123621E-02;  1.7055623E+03;
  6.0224819E-01;  9.9999998E-03;  1.8999857E-01;6155;  7.5725508E-03;  0.0000000E+00;  1.5014123E-02;  9.9878156E+02;  1.0056406E-01; -1.0094528E+03;3; -3.6108677E+00;  0.0000000E+00;  1.7367034E+00;0; -3.7817221E-02;  3.9447367E+04;  0.0000000E+00; -3.8950484E-02;  4.0000000E+04;  0.0000000E+00;  4.0008676E+04; -6.0220987E-02;  0.0000000E+00;  2.2403765E-02;  1.6692561E+03;
  6.0229516E-01;  9.9999998E-03;  1.9999020E-01;6156;  7.9163415E-03;  0.0000000E+00;  1.5189067E-02;  9.9873322E+02;  1.0056403E-01; -1.0495010E+03;3; -3.4809499E+00;  0.0000000E+00;  1.7981367E+00;0; -3.5284832E-02;  3.9444348E+04;  0.0000000E+00; -3.8246643E-02;  4.0000000E+04;  0.0000000E+00;  4.0007848E+04; -5.3523786E-02;  0.0000000E+00;  1.8238954E-02;  1.5734532E+03;
  6.0234982E-01;  9.9999998E-03;  2.0997447E-01;6157;  8.2522007E-03;  0.0000000E+00;  1.5310766E-02;  9.9868243E+02;  1.0056417E-01; -1.0915739E+03;3; -3.3618526E+00;  0.0000000E+00;  1.8533938E+00;0; -3.2312438E-02;  3.9440906E+04;  0.0000000E+00; -2.6179947E-02;  4.0000000E+04;  0.0000000E+00;  4.0007246E+04; -4.6981394E-02;  0.0000000E+00;  1.4668958E-02;  1.5023599E+03;
  6.0240859E-01;  9.9999998E-03;  2.1995281E-01;6158;  8.5761035E-03;  0.0000000E+00;  1.5403721E-02;  9.9864490E+02;  1.0056438E-01; -1.1226841E+03;3; -3.2576666E+00;  0.0000000E+00;  1.9032934E+00;0; -2.8915681E-02;  3.9436961E+04;  0.0000000E+00; -6.4784908E-03;  4.0000000E+04;  0.0000000E+00;  4.0008363E+04; -4.0672492E-02;  0.0000000E+00;  1.1756810E-02;  1.6412355E+03;
  6.0246801E-01;  9.9999998E-03;  2.2993694E-01;6159;  8.8811060E-03;  0.0000000E+00;  1.5498847E-02;  9.9863098E+02;  1.0056425E-01; -1.1341899E+03;3; -3.1591229E+00;  0.0000000E+00;  1.9514458E+00;0; -2.4990985E-02;  3.9433035E+04;  0.0000000E+00;  1.1775483E-02;  4.0000000E+04;  0.0000000E+00;  4.0011461E+04; -3.4656368E-02;  0.0000000E+00;  9.6653830E-03;  2.0098247E+03;
  6.1237109E-01;  9.9999998E-03;  6.9999352E-02;6204;  2.2962566E-03;  0.0000000E+00;  7.7132918E-03;  9.9871613E+02;  1.0089495E-01; -1.0636735E+03;3; -5.5858755E+00;  0.0000000E+00;  2.1297324E-01;0; -4.1138627E-02;  3.9190332E+04;  0.0000000E+00;  1.4434467E-01;  4.0000000E+04;  0.0000000E+00;  4.0006414E+04; -1.3171609E-01;  0.0000000E+00;  9.0577461E-02;  1.7077432E+03;
  6.1235160E-01;  9.9999998E-03;  7.9995684E-02;6205;  2.6400792E-03;  0.0000000E+00;  8.7517649E-03;  9.9869653E+02;  1.0089531E-01; -1.0799199E+03;3; -5.4198146E+00;  0.0000000E+00;  3.3685005E-01;0; -4.2076834E-02;  3.9188059E+04;  0.0000000E+00;  1.6117990E-01;  4.0000000E+04;  0.0000000E+00;  4.0006891E+04; -1.2785852E-01;  0.0000000E+00;  8.5781686E-02;  1.7464576E+03;
  6.1232823E-01;  9.9999998E-03;  8.9991398E-02;6206;  3.0000638E-03;  0.0000000E+00;  9.7341686E-03;  9.9867596E+02;  1.0089567E-01; -1.0969564E+03;3; -5.2397490E+00;  0.0000000E+00;  4.8546016E-01;0; -4.3038495E-02;  3.9185875E+04;  0.0000000E+00;  1.6767983E-01;  4.0000000E+04;  0.0000000E+00;  4.0006680E+04; -1.2350860E-01;  0.0000000E+00;  8.0470107E-02;  1.7490919E+03;
  6.1230135E-01;  9.9999998E-03;  9.9987082E-02;6207;  3.3704245E-03;  0.0000000E+00;  1.0646543E-02;  9.9865625E+02;  1.0089583E-01; -1.1132523E+03;3; -5.0494285E+00;  0.0000000E+00;  6.4096606E-01;0; -4.3960340E-02;  3.9184027E+04;  0.0000000E+00;  1.6219799E-01;  4.0000000E+04;  0.0000000E+00;  4.0006523E+04; -1.1868960E-01;  0.0000000E+00;  7.4729264E-02;  1.7210314E+03;
  6.1227250E-01;  9.9999998E-03;  1.0998341E-01;6208;  3.7476860E-03;  0.0000000E+00;  1.1480756E-02;  9.9863739E+02;  1.0089607E-01; -1.1289061E+03;3; -4.8567867E+00;  0.0000000E+00;  7.9435599E-01;0; -4.4771843E-02;  3.9182348E+04;  0.0000000E+00;  1.4464515E-01;  4.0000000E+04;  0.0000000E+00;  4.0006133E+04; -1.1343279E-01;  0.0000000E+00;  6.8660952E-02;  1.6731226E+03;
  6.1224371E-01;  9.9999998E-03;  1.1998077E-01;6209;  4.1291830E-03;  0.0000000E+00;  1.2229878E-02;  9.9862378E+02;  1.0089671E-01; -1.1401652E+03;3; -4.6631088E+00;  0.0000000E+00;  9.5770395E-01;0; -4.5399688E-02;  3.9180965E+04;  0.0000000E+00;  1.1662414E-01;  4.0000000E+04;  0.0000000E+00;  4.0005746E+04; -1.0777523E-01;  0.0000000E+00;  6.2375538E-02;  1.6196116E+03;
  6.1221749E-01;  9.9999998E-03;  1.2997961E-01;6210;  4.5160265E-03;  0.0000000E+00;  1.2886500E-02;  9.9861169E+02;  1.0089687E-01; -1.1501896E+03;3; -4.4704652E+00;  0.0000000E+00;  1.1088120E+00;0; -4.5776378E-02;  3.9179852E+04;  0.0000000E+00;  8.1219353E-02;  4.0000000E+04;  0.0000000E+00;  4.0005492E+04; -1.0176030E-01;  0.0000000E+00;  5.5983920E-02;  1.5749315E+03;
  6.1219615E-01;  9.9999998E-03;  1.3998027E-01;6211;  4.9090530E-03;  0.0000000E+00;  1.3454343E-02;  9.9860590E+02;  1.0089706E-01; -1.1549795E+03;3; -4.2799563E+00;  0.0000000E+00;  1.2457800E+00;0; -4.5844812E-02;  3.9179156E+04;  0.0000000E+00;  4.2495560E-02;  4.0000000E+04;  0.0000000E+00;  4.0005289E+04; -9.5433943E-02;  0.0000000E+00;  4.9589131E-02;  1.5491562E+03;
  6.1218274E-01;  9.9999998E-03;  1.4998260E-01;6212;  5.3082346E-03;  0.0000000E+00;  1.3938732E-02;  9.9860126E+02;  1.0089783E-01; -1.1588313E+03;3; -4.0973392E+00;  0.0000000E+00;  1.3735383E+00;0; -4.5559172E-02;  3.9178426E+04;  0.0000000E+00;  4.7351378E-03;  4.0000000E+04;  0.0000000E+00;  4.0005109E+04; -8.8842571E-02;  0.0000000E+00;  4.3283399E-02;  1.5438000E+03;
  6.1218005E-01;  9.9999998E-03;  1.5998565E-01;6213;  5.7143965E-03;  0.0000000E+00;  1.4347576E-02;  9.9860211E+02;  1.0089833E-01; -1.1581399E+03;3; -3.9197285E+00;  0.0000000E+00;  1.4892374E+00;0; -4.4856619E-02;  3.9178043E+04;  0.0000000E+00; -2.8213466E-02;  4.0000000E+04;  0.0000000E+00;  4.0005273E+04; -8.2035452E-02;  0.0000000E+00;  3.7178833E-02;  1.5500764E+03;
  6.1219007E-01;  9.9999998E-03;  1.6998805E-01;6214;  6.1263544E-03;  0.0000000E+00;  1.4676727E-02;  9.9859943E+02;  1.0089871E-01; -1.1603621E+03;3; -3.7542560E+00;  0.0000000E+00;  1.5936140E+00;0; -4.3667838E-02;  3.9177387E+04;  0.0000000E+00; -5.2991521E-02;  4.0000000E+04;  0.0000000E+00;  4.0005270E+04; -7.5070538E-02;  0.0000000E+00;  3.1402700E-02;  1.5491172E+03;
  6.1221302E-01;  9.9999998E-03;  1.7998828E-01;6215;  6.5437132E-03;  0.0000000E+00;  1.4936096E-02;  9.9859137E+02;  1.0089894E-01; -1.1670286E+03;3; -3.5980549E+00;  0.0000000E+00;  1.6900055E+00;0; -4.1948389E-02;  3.9176469E+04;  0.0000000E+00; -6.7137048E-02;  4.0000000E+04;  0.0000000E+00;  4.0005062E+04; -6.8018705E-02;  0.0000000E+00;  2.6070315E-02;  1.5163170E+03;
  6.1224747E-01;  9.9999998E-03;  1.8998462E-01;6216;  6.9622658E-03;  0.0000000E+00;  1.5130474E-02;  9.9856378E+02;  1.0089947E-01; -1.1898921E+03;3; -3.4689190E+00;  0.0000000E+00;  1.7454127E+00;0; -3.9695695E-02;  3.9174738E+04;  0.0000000E+00; -6.8885393E-02;  4.0000000E+04;  0.0000000E+00;  4.0004352E+04; -6.0962487E-02;  0.0000000E+00;  2.1266790E-02;  1.4346176E+03;
  6.1229050E-01;  9.9999998E-03;  1.9997501E-01;6217;  7.3783738E-03;  0.0000000E+00;  1.5267624E-02;  9.9852582E+02;  1.0089987E-01; -1.2213480E+03;3; -3.3453114E+00;  0.0000000E+00;  1.8041006E+00;0; -3.6947478E-02;  3.9172473E+04;  0.0000000E+00; -5.6922089E-02;  4.0000000E+04;  0.0000000E+00;  4.0003430E+04; -5.3991389E-02;  0.0000000E+00;  1.7043911E-02;  1.3239685E+03;
  6.1233902E-01;  9.9999998E-03;  2.0995703E-01;6218;  7.7882982E-03;  0.0000000E+00;  1.5357525E-02;  9.9848566E+02;  1.0089972E-01; -1.2545817E+03;3; -3.2344639E+00;  0.0000000E+00;  1.8478366E+00;0; -3.3763938E-02;  3.9169395E+04;  0.0000000E+00; -3.0894544E-02;  4.0000000E+04;  0.0000000E+00;  4.0003230E+04; -4.7194961E-02;  0.0000000E+00;  1.3431024E-02;  1.3011470E+03;
  6.1238927E-01;  9.9999998E-03;  2.1993363E-01;6219;  8.1909532E-03;  0.0000000E+00;  1.5434409E-02;  9.9846704E+02;  1.0089993E-01; -1.2700380E+03;3; -3.1327238E+00;  0.0000000E+00;  1.9013342E+00;0; -3.0155960E-02;  3.9165949E+04;  0.0000000E+00;  7.4241576E-03;  4.0000000E+04;  0.0000000E+00;  4.0005410E+04; -4.0651582E-02;  0.0000000E+00;  1.0495622E-02;  1.5796919E+03;
  6.1243796E-01;  9.9999998E-03;  2.2991887E-01;6220;  8.5838940E-03;  0.0000000E+00;  1.5545294E-02;  9.9848267E+02;  1.0090013E-01; -1.2571001E+03;3; -3.0381298E+00;  0.0000000E+00;  1.9574879E+00;0; -2.5947355E-02;  3.9162621E+04;  0.0000000E+00;  5.1981077E-02;  4.0000000E+04;  0.0000000E+00;  4.0010117E+04; -3.4418937E-02;  0.0000000E+00;  8.4715821E-03;  2.1466702E+03;
  6.2227583E-01;  9.9999998E-03;  7.0009008E-02;6265;  9.5456687E-04;  0.0000000E+00;  7.7993972E-03;  9.9864307E+02;  1.0140128E-01; -1.1242148E+03;3; -5.4358830E+00;  0.0000000E+00;  2.4336907E-01;0; -4.4571795E-02;  3.8798648E+04;  0.0000000E+00;  8.6573027E-02;  4.0000000E+04;  0.0000000E+00;  4.0004328E+04; -1.3586289E-01;  0.0000000E+00;  9.1291092E-02;  1.8554854E+03;
  6.2226176E-01;  9.9999998E-03;  8.0005065E-02;6266;  1.3293602E-03;  0.0000000E+00;  8.8664843E-03;  9.9859717E+02;  1.0140149E-01; -1.1622385E+03;3; -5.2684159E+00;  0.0000000E+00;  3.7104416E-01;0; -4.5449361E-02;  3.8794027E+04;  0.0000000E+00;  8.7363750E-02;  4.0000000E+04;  0.0000000E+00;  4.0004680E+04; -1.3179670E-01;  0.0000000E+00;  8.6347342E-02;  1.9080803E+03;
  6.2224489E-01;  9.9999998E-03;  8.9999981E-02;6267;  1.7268247E-03;  0.0000000E+00;  9.8751895E-03;  9.9855035E+02;  1.0140219E-01; -1.2010028E+03;3; -5.0882564E+00;  0.0000000E+00;  5.2924794E-01;0; -4.6354376E-02;  3.8789715E+04;  0.0000000E+00;  7.8562103E-02;  4.0000000E+04;  0.0000000E+00;  4.0004680E+04; -1.2721035E-01;  0.0000000E+00;  8.0855973E-02;  1.9138357E+03;
  6.2222588E-01;  9.9999998E-03;  9.9994197E-02;6268;  2.1423823E-03;  0.0000000E+00;  1.0806725E-02;  9.9850342E+02;  1.0140278E-01; -1.2398658E+03;3; -4.8975916E+00;  0.0000000E+00;  6.8423629E-01;0; -4.7221020E-02;  3.8785695E+04;  0.0000000E+00;  6.0152750E-02;  4.0000000E+04;  0.0000000E+00;  4.0004418E+04; -1.2212947E-01;  0.0000000E+00;  7.4908450E-02;  1.8778285E+03;
  6.2220538E-01;  9.9999998E-03;  1.0998850E-01;6269;  2.5708042E-03;  0.0000000E+00;  1.1655870E-02;  9.9846100E+02;  1.0140337E-01; -1.2750254E+03;3; -4.7006383E+00;  0.0000000E+00;  8.4173423E-01;0; -4.7974065E-02;  3.8782273E+04;  0.0000000E+00;  3.3596650E-02;  4.0000000E+04;  0.0000000E+00;  4.0003883E+04; -1.1658829E-01;  0.0000000E+00;  6.8614230E-02;  1.8119165E+03;
  6.2218481E-01;  9.9999998E-03;  1.1998332E-01;6270;  3.0102695E-03;  0.0000000E+00;  1.2410351E-02;  9.9842786E+02;  1.0140344E-01; -1.3024814E+03;3; -4.5055590E+00;  0.0000000E+00;  9.9800974E-01;0; -4.8535150E-02;  3.8779328E+04;  0.0000000E+00;  1.7165662E-03;  4.0000000E+04;  0.0000000E+00;  4.0003277E+04; -1.1062914E-01;  0.0000000E+00;  6.2093992E-02;  1.7316545E+03;
  6.2216640E-01;  9.9999998E-03;  1.2997900E-01;6271;  3.4607523E-03;  0.0000000E+00;  1.3063431E-02;  9.9840149E+02;  1.0140459E-01; -1.3243573E+03;3; -4.3126936E+00;  0.0000000E+00;  1.1469755E+00;0; -4.8830055E-02;  3.8777152E+04;  0.0000000E+00; -3.1838689E-02;  4.0000000E+04;  0.0000000E+00;  4.0002523E+04; -1.0430034E-01;  0.0000000E+00;  5.5470280E-02;  1.6522845E+03;
  6.2215281E-01;  9.9999998E-03;  1.3997573E-01;6272;  3.9220210E-03;  0.0000000E+00;  1.3620380E-02;  9.9838177E+02;  1.0140541E-01; -1.3406532E+03;3; -4.1229858E+00;  0.0000000E+00;  1.2784632E+00;0; -4.8796412E-02;  3.8775469E+04;  0.0000000E+00; -6.3281633E-02;  4.0000000E+04;  0.0000000E+00;  4.0002016E+04; -9.7653843E-02;  0.0000000E+00;  4.8857432E-02;  1.5838466E+03;
  6.2214673E-01;  9.9999998E-03;  1.4997360E-01;6273;  4.3936130E-03;  0.0000000E+00;  1.4086097E-02;  9.9837073E+02;  1.0140602E-01; -1.3498380E+03;3; -3.9413238E+00;  0.0000000E+00;  1.3937411E+00;0; -4.8383649E-02;  3.8774262E+04;  0.0000000E+00; -8.9430824E-02;  4.0000000E+04;  0.0000000E+00;  4.0001457E+04; -9.0741791E-02;  0.0000000E+00;  4.2358141E-02;  1.5276116E+03;
  6.2214988E-01;  9.9999998E-03;  1.5997250E-01;6274;  4.8744841E-03;  0.0000000E+00;  1.4469192E-02;  9.9836420E+02;  1.0140680E-01; -1.3552206E+03;3; -3.7685015E+00;  0.0000000E+00;  1.5084850E+00;0; -4.7525570E-02;  3.8773582E+04;  0.0000000E+00; -1.0821096E-01;  4.0000000E+04;  0.0000000E+00;  4.0001102E+04; -8.3617881E-02;  0.0000000E+00;  3.6092311E-02;  1.4766487E+03;
  6.2216359E-01;  9.9999998E-03;  1.6997133E-01;6275;  5.3635426E-03;  0.0000000E+00;  1.4769157E-02;  9.9835547E+02;  1.0140770E-01; -1.3624797E+03;3; -3.6067164E+00;  0.0000000E+00;  1.6042744E+00;0; -4.6152949E-02;  3.8772816E+04;  0.0000000E+00; -1.1828443E-01;  4.0000000E+04;  0.0000000E+00;  4.0000527E+04; -7.6345496E-02;  0.0000000E+00;  3.0192547E-02;  1.4184659E+03;
  6.2218755E-01;  9.9999998E-03;  1.7996855E-01;6276;  5.8578616E-03;  0.0000000E+00;  1.4992896E-02;  9.9834473E+02;  1.0140860E-01; -1.3713683E+03;3; -3.4582863E+00;  0.0000000E+00;  1.6820974E+00;0; -4.4225939E-02;  3.8771559E+04;  0.0000000E+00; -1.1849358E-01;  4.0000000E+04;  0.0000000E+00;  4.0000070E+04; -6.8999849E-02;  0.0000000E+00;  2.4773913E-02;  1.3400992E+03;
  6.2221992E-01;  9.9999998E-03;  1.8996221E-01;6277;  6.3540502E-03;  0.0000000E+00;  1.5155905E-02;  9.9831732E+02;  1.0140942E-01; -1.3940837E+03;3; -3.3187890E+00;  0.0000000E+00;  1.7588103E+00;0; -4.1750640E-02;  3.8769734E+04;  0.0000000E+00; -1.0701532E-01;  4.0000000E+04;  0.0000000E+00;  3.9999242E+04; -6.1668087E-02;  0.0000000E+00;  1.9917447E-02;  1.2418375E+03;
  6.2225759E-01;  9.9999998E-03;  1.9995013E-01;6278;  6.8464079E-03;  0.0000000E+00;  1.5260148E-02;  9.9828223E+02;  1.0140961E-01; -1.4231199E+03;3; -3.2114787E+00;  0.0000000E+00;  1.7987065E+00;0; -3.8777709E-02;  3.8767164E+04;  0.0000000E+00; -8.1355408E-02;  4.0000000E+04;  0.0000000E+00;  3.9998621E+04; -5.4443102E-02;  0.0000000E+00;  1.5665391E-02;  1.1688646E+03;
  6.2229788E-01;  9.9999998E-03;  2.0993070E-01;6279;  7.3323613E-03;  0.0000000E+00;  1.5324920E-02;  9.9825226E+02;  1.0141014E-01; -1.4479587E+03;3; -3.1063671E+00;  0.0000000E+00;  1.8474733E+00;0; -3.5376005E-02;  3.8763789E+04;  0.0000000E+00; -3.9314084E-02;  4.0000000E+04;  0.0000000E+00;  3.9999559E+04; -4.7415566E-02;  0.0000000E+00;  1.2039559E-02;  1.2648380E+03;
  6.2233669E-01;  9.9999998E-03;  2.1990865E-01;6280;  7.8150239E-03;  0.0000000E+00;  1.5393842E-02;  9.9824951E+02;  1.0141039E-01; -1.4502302E+03;3; -3.0010233E+00;  0.0000000E+00;  1.9070461E+00;0; -3.1543002E-02;  3.8760062E+04;  0.0000000E+00;  1.9367330E-02;  4.0000000E+04;  0.0000000E+00;  4.0003133E+04; -4.0663194E-02;  0.0000000E+00;  9.1201924E-03;  1.7392986E+03;
  6.2237167E-01;  9.9999998E-03;  2.2989915E-01;6281;  8.2956385E-03;  0.0000000E+00;  1.5524983E-02;  9.9827606E+02;  1.0141005E-01; -1.4282556E+03;3; -2.9001219E+00;  0.0000000E+00;  1.9797273E+00;0; -2.7033592E-02;  3.8756453E+04;  0.0000000E+00;  9.1608115E-02;  4.0000000E+04;  0.0000000E+00;  4.0009355E+04; -3.4241483E-02;  0.0000000E+00;  7.2078905E-03;  2.5088906E+03;
  6.3225579E-01;  9.9999998E-03;  7.0007235E-02;6326; -4.3947910E-04;  0.0000000E+00;  7.8679817E-03;  9.9867676E+02;  1.0213829E-01; -1.0962650E+03;3; -5.2788119E+00;  0.0000000E+00;  2.7107823E-01;0; -4.8631050E-02;  3.8247891E+04;  0.0000000E+00; -4.6367943E-04;  4.0000000E+04;  0.0000000E+00;  4.0000426E+04; -1.4019267E-01;  0.0000000E+00;  9.1561623E-02;  1.9828627E+03;
  6.3223141E-01;  9.9999998E-03;  8.0004372E-02;6327; -3.2737757E-05;  0.0000000E+00;  8.9534866E-03;  9.9860583E+02;  1.0213865E-01; -1.1550288E+03;3; -5.1113009E+00;  0.0000000E+00;  4.1002938E-01;0; -4.9418546E-02;  3.8241090E+04;  0.0000000E+00; -1.9903099E-02;  4.0000000E+04;  0.0000000E+00;  4.0000910E+04; -1.3586892E-01;  0.0000000E+00;  8.6450376E-02;  2.0468345E+03;
  6.3220245E-01;  9.9999998E-03;  9.0000808E-02;6328;  4.0611354E-04;  0.0000000E+00;  9.9738697E-03;  9.9853369E+02;  1.0213952E-01; -1.2148296E+03;3; -4.9287825E+00;  0.0000000E+00;  5.7155186E-01;0; -5.0229207E-02;  3.8234422E+04;  0.0000000E+00; -4.6730503E-02;  4.0000000E+04;  0.0000000E+00;  4.0000871E+04; -1.3099763E-01;  0.0000000E+00;  8.0768421E-02;  2.0554053E+03;
  6.3217098E-01;  9.9999998E-03;  9.9996880E-02;6329;  8.7054784E-04;  0.0000000E+00;  1.0914509E-02;  9.9846979E+02;  1.0214072E-01; -1.2677664E+03;3; -4.7381048E+00;  0.0000000E+00;  7.2757065E-01;0; -5.0996579E-02;  3.8228766E+04;  0.0000000E+00; -7.9099238E-02;  4.0000000E+04;  0.0000000E+00;  4.0000641E+04; -1.2560928E-01;  0.0000000E+00;  7.4612699E-02;  2.0138726E+03;
  6.3214034E-01;  9.9999998E-03;  1.0999259E-01;6330;  1.3556366E-03;  0.0000000E+00;  1.1766111E-02;  9.9841235E+02;  1.0214174E-01; -1.3153206E+03;3; -4.5421433E+00;  0.0000000E+00;  8.8277268E-01;0; -5.1642545E-02;  3.8223930E+04;  0.0000000E+00; -1.1390763E-01;  4.0000000E+04;  0.0000000E+00;  3.9999844E+04; -1.1974416E-01;  0.0000000E+00;  6.8101615E-02;  1.9349584E+03;
  6.3211453E-01;  9.9999998E-03;  1.1998766E-01;6331;  1.8583770E-03;  0.0000000E+00;  1.2516988E-02;  9.9836060E+02;  1.0214268E-01; -1.3582329E+03;3; -4.3442545E+00;  0.0000000E+00;  1.0351042E+00;0; -5.2085519E-02;  3.8219727E+04;  0.0000000E+00; -1.4724752E-01;  4.0000000E+04;  0.0000000E+00;  3.9999062E+04; -1.1345084E-01;  0.0000000E+00;  6.1365321E-02;  1.8349070E+03;
  6.3209605E-01;  9.9999998E-03;  1.2998234E-01;6332;  2.3783012E-03;  0.0000000E+00;  1.3156269E-02;  9.9832629E+02;  1.0214432E-01; -1.3866271E+03;3; -4.1525607E+00;  0.0000000E+00;  1.1686388E+00;0; -5.2247219E-02;  3.8216609E+04;  0.0000000E+00; -1.7519665E-01;  4.0000000E+04;  0.0000000E+00;  3.9998051E+04; -1.0678390E-01;  0.0000000E+00;  5.4536678E-02;  1.7286521E+03;
  6.3208592E-01;  9.9999998E-03;  1.3997710E-01;6333;  2.9133495E-03;  0.0000000E+00;  1.3694846E-02;  9.9829932E+02;  1.0214541E-01; -1.4089968E+03;3; -3.9671404E+00;  0.0000000E+00;  1.2964814E+00;0; -5.2060939E-02;  3.8214406E+04;  0.0000000E+00; -1.9465233E-01;  4.0000000E+04;  0.0000000E+00;  3.9997180E+04; -9.9799909E-02;  0.0000000E+00;  4.7738969E-02;  1.6254388E+03;
  6.3208455E-01;  9.9999998E-03;  1.4997225E-01;6334;  3.4625921E-03;  0.0000000E+00;  1.4139012E-02;  9.9828485E+02;  1.0214674E-01; -1.4209471E+03;3; -3.7868407E+00;  0.0000000E+00;  1.4033402E+00;0; -5.1473245E-02;  3.8212527E+04;  0.0000000E+00; -2.0408748E-01;  4.0000000E+04;  0.0000000E+00;  3.9996336E+04; -9.2556350E-02;  0.0000000E+00;  4.1083105E-02;  1.5262159E+03;
  6.3209206E-01;  9.9999998E-03;  1.5996765E-01;6335;  4.0239440E-03;  0.0000000E+00;  1.4493788E-02;  9.9827167E+02;  1.0214814E-01; -1.4319098E+03;3; -3.6182649E+00;  0.0000000E+00;  1.5057693E+00;0; -5.0417092E-02;  3.8211145E+04;  0.0000000E+00; -2.0383342E-01;  4.0000000E+04;  0.0000000E+00;  3.9995480E+04; -8.5112080E-02;  0.0000000E+00;  3.4694988E-02;  1.4258882E+03;
  6.3210833E-01;  9.9999998E-03;  1.6996266E-01;6336;  4.5948457E-03;  0.0000000E+00;  1.4764060E-02;  9.9825830E+02;  1.0214947E-01; -1.4429712E+03;3; -3.4604151E+00;  0.0000000E+00;  1.6027409E+00;0; -4.8825793E-02;  3.8209914E+04;  0.0000000E+00; -1.9511215E-01;  4.0000000E+04;  0.0000000E+00;  3.9994457E+04; -7.7534810E-02;  0.0000000E+00;  2.8709017E-02;  1.3181791E+03;
  6.3213217E-01;  9.9999998E-03;  1.7995614E-01;6337;  5.1712198E-03;  0.0000000E+00;  1.4960246E-02;  9.9823566E+02;  1.0215106E-01; -1.4617361E+03;3; -3.3133385E+00;  0.0000000E+00;  1.6782649E+00;0; -4.6665609E-02;  3.8208336E+04;  0.0000000E+00; -1.7810774E-01;  4.0000000E+04;  0.0000000E+00;  3.9993770E+04; -6.9904275E-02;  0.0000000E+00;  2.3238666E-02;  1.2018964E+03;
  6.3216114E-01;  9.9999998E-03;  1.8994647E-01;6338;  5.7474179E-03;  0.0000000E+00;  1.5094772E-02;  9.9820447E+02;  1.0215215E-01; -1.4875625E+03;3; -3.1844954E+00;  0.0000000E+00;  1.7485431E+00;0; -4.3951161E-02;  3.8205648E+04;  0.0000000E+00; -1.5074578E-01;  4.0000000E+04;  0.0000000E+00;  3.9993000E+04; -6.2310852E-02;  0.0000000E+00;  1.8359691E-02;  1.0952203E+03;
  6.3219213E-01;  9.9999998E-03;  1.9993196E-01;6339;  6.3199545E-03;  0.0000000E+00;  1.5175493E-02;  9.9816138E+02;  1.0215345E-01; -1.5232653E+03;3; -3.0643988E+00;  0.0000000E+00;  1.8113068E+00;0; -4.0742286E-02;  3.8202125E+04;  0.0000000E+00; -1.0932004E-01;  4.0000000E+04;  0.0000000E+00;  3.9992754E+04; -5.4850288E-02;  0.0000000E+00;  1.4108003E-02;  1.0667572E+03;
  6.3222218E-01;  9.9999998E-03;  2.0991243E-01;6340;  6.8827113E-03;  0.0000000E+00;  1.5218993E-02;  9.9813232E+02;  1.0215411E-01; -1.5473140E+03;3; -2.9718387E+00;  0.0000000E+00;  1.8490833E+00;0; -3.7115075E-02;  3.8197781E+04;  0.0000000E+00; -5.0349690E-02;  4.0000000E+04;  0.0000000E+00;  3.9994426E+04; -4.7612846E-02;  0.0000000E+00;  1.0497773E-02;  1.2750804E+03;
  6.3224792E-01;  9.9999998E-03;  2.1989438E-01;6341;  7.4422061E-03;  0.0000000E+00;  1.5277997E-02;  9.9813135E+02;  1.0215443E-01; -1.5481534E+03;3; -2.8686776E+00;  0.0000000E+00;  1.9197675E+00;0; -3.3057306E-02;  3.8192879E+04;  0.0000000E+00;  2.6568172E-02;  4.0000000E+04;  0.0000000E+00;  3.9999387E+04; -4.0673517E-02;  0.0000000E+00;  7.6162103E-03;  1.8953300E+03;
  6.3226801E-01;  9.9999998E-03;  2.2989142E-01;6342;  8.0033727E-03;  0.0000000E+00;  1.5413001E-02;  9.9815210E+02;  1.0215427E-01; -1.5309688E+03;3; -2.7644331E+00;  0.0000000E+00;  2.0043144E+00;0; -2.8293418E-02;  3.8187844E+04;  0.0000000E+00;  1.1781309E-01;  4.0000000E+04;  0.0000000E+00;  4.0006559E+04; -3.4086715E-02;  0.0000000E+00;  5.7932981E-03;  2.7894812E+03;
  6.4227587E-01;  9.9999998E-03;  6.9994263E-02;6387; -1.8898939E-03;  0.0000000E+00;  7.9211183E-03;  9.9888013E+02;  1.0315657E-01; -9.2777600E+02;3; -5.1128907E+00;  0.0000000E+00;  3.0076936E-01;0; -5.3313330E-02;  3.7513949E+04;  0.0000000E+00; -1.0080182E-01;  4.0000000E+04;  0.0000000E+00;  3.9994598E+04; -1.4466703E-01;  0.0000000E+00;  9.1353700E-02;  2.0809001E+03;
  6.4225984E-01;  9.9999998E-03;  7.9988822E-02;6388; -1.4518028E-03;  0.0000000E+00;  9.0075331E-03;  9.9880261E+02;  1.0315756E-01; -9.9202112E+02;3; -4.9444623E+00;  0.0000000E+00;  4.4373268E-01;0; -5.3991452E-02;  3.7506293E+04;  0.0000000E+00; -1.4127854E-01;  4.0000000E+04;  0.0000000E+00;  3.9995086E+04; -1.4005308E-01;  0.0000000E+00;  8.6061627E-02;  2.1545098E+03;
  6.4224184E-01;  9.9999998E-03;  8.9982845E-02;6389; -9.7324443E-04;  0.0000000E+00;  1.0026617E-02;  9.9872540E+02;  1.0315905E-01; -1.0559698E+03;3; -4.7676234E+00;  0.0000000E+00;  6.0136110E-01;0; -5.4682113E-02;  3.7499141E+04;  0.0000000E+00; -1.8599567E-01;  4.0000000E+04;  0.0000000E+00;  3.9995059E+04; -1.3486697E-01;  0.0000000E+00;  8.0184855E-02;  2.1671453E+03;
  6.4222151E-01;  9.9999998E-03;  9.9976853E-02;6390; -4.5911793E-04;  0.0000000E+00;  1.0963212E-02;  9.9865747E+02;  1.0316058E-01; -1.1122645E+03;3; -4.5747824E+00;  0.0000000E+00;  7.4994606E-01;0; -5.5315979E-02;  3.7492754E+04;  0.0000000E+00; -2.3124255E-01;  4.0000000E+04;  0.0000000E+00;  3.9994613E+04; -1.2914334E-01;  0.0000000E+00;  7.3827364E-02;  2.1247163E+03;
  6.4219928E-01;  9.9999998E-03;  1.0997146E-01;6391;  8.4320978E-05;  0.0000000E+00;  1.1808959E-02;  9.9859839E+02;  1.0316254E-01; -1.1612014E+03;3; -4.3803482E+00;  0.0000000E+00;  9.0387678E-01;0; -5.5812128E-02;  3.7487566E+04;  0.0000000E+00; -2.7239922E-01;  4.0000000E+04;  0.0000000E+00;  3.9993754E+04; -1.2292674E-01;  0.0000000E+00;  6.7114614E-02;  2.0404531E+03;
  6.4217633E-01;  9.9999998E-03;  1.1996724E-01;6392;  6.5592106E-04;  0.0000000E+00;  1.2541243E-02;  9.9855261E+02;  1.0316449E-01; -1.1991263E+03;3; -4.1838493E+00;  0.0000000E+00;  1.0548403E+00;0; -5.6085557E-02;  3.7483000E+04;  0.0000000E+00; -3.0467644E-01;  4.0000000E+04;  0.0000000E+00;  3.9992883E+04; -1.1627107E-01;  0.0000000E+00;  6.0185514E-02;  1.9303322E+03;
  6.4215398E-01;  9.9999998E-03;  1.2996428E-01;6393;  1.2521582E-03;  0.0000000E+00;  1.3162435E-02;  9.9851575E+02;  1.0316669E-01; -1.2296934E+03;3; -3.9940519E+00;  0.0000000E+00;  1.1846248E+00;0; -5.6055155E-02;  3.7479844E+04;  0.0000000E+00; -3.2417890E-01;  4.0000000E+04;  0.0000000E+00;  3.9991578E+04; -1.0923685E-01;  0.0000000E+00;  5.3181697E-02;  1.8083441E+03;
  6.4213341E-01;  9.9999998E-03;  1.3996251E-01;6394;  1.8700919E-03;  0.0000000E+00;  1.3676493E-02;  9.9849316E+02;  1.0316910E-01; -1.2484088E+03;3; -3.8104174E+00;  0.0000000E+00;  1.2984595E+00;0; -5.5653892E-02;  3.7477211E+04;  0.0000000E+00; -3.2888824E-01;  4.0000000E+04;  0.0000000E+00;  3.9990590E+04; -1.0188834E-01;  0.0000000E+00;  4.6234444E-02;  1.6824926E+03;
  6.4211488E-01;  9.9999998E-03;  1.4996195E-01;6395;  2.5061457E-03;  0.0000000E+00;  1.4095233E-02;  9.9847766E+02;  1.0317156E-01; -1.2612480E+03;3; -3.6296837E+00;  0.0000000E+00;  1.4108640E+00;0; -5.4828890E-02;  3.7475250E+04;  0.0000000E+00; -3.1928161E-01;  4.0000000E+04;  0.0000000E+00;  3.9989578E+04; -9.4289534E-02;  0.0000000E+00;  3.9460644E-02;  1.5536511E+03;
  6.4209795E-01;  9.9999998E-03;  1.5996246E-01;6396;  3.1569928E-03;  0.0000000E+00;  1.4422975E-02;  9.9846283E+02;  1.0317384E-01; -1.2734945E+03;3; -3.4663413E+00;  0.0000000E+00;  1.5045787E+00;0; -5.3516600E-02;  3.7473371E+04;  0.0000000E+00; -2.9834244E-01;  4.0000000E+04;  0.0000000E+00;  3.9988547E+04; -8.6505875E-02;  0.0000000E+00;  3.2989275E-02;  1.4190092E+03;
  6.4208519E-01;  9.9999998E-03;  1.6996226E-01;6397;  3.8180496E-03;  0.0000000E+00;  1.4665063E-02;  9.9844330E+02;  1.0317647E-01; -1.2896917E+03;3; -3.3124313E+00;  0.0000000E+00;  1.5968490E+00;0; -5.1656604E-02;  3.7471293E+04;  0.0000000E+00; -2.6964828E-01;  4.0000000E+04;  0.0000000E+00;  3.9987352E+04; -7.8611150E-02;  0.0000000E+00;  2.6954548E-02;  1.2758417E+03;
  6.4208466E-01;  9.9999998E-03;  1.7995732E-01;6398;  4.4824537E-03;  0.0000000E+00;  1.4841379E-02;  9.9841510E+02;  1.0317879E-01; -1.3130490E+03;3; -3.1677125E+00;  0.0000000E+00;  1.6738178E+00;0; -4.9225409E-02;  3.7468680E+04;  0.0000000E+00; -2.3432124E-01;  4.0000000E+04;  0.0000000E+00;  3.9986164E+04; -7.0692495E-02;  0.0000000E+00;  2.1467086E-02;  1.1292328E+03;
  6.4209771E-01;  9.9999998E-03;  1.8994658E-01;6399;  5.1437141E-03;  0.0000000E+00;  1.4952906E-02;  9.9837177E+02;  1.0318115E-01; -1.3489492E+03;3; -3.0438998E+00;  0.0000000E+00;  1.7404490E+00;0; -4.6247348E-02;  3.7464816E+04;  0.0000000E+00; -1.9006664E-01;  4.0000000E+04;  0.0000000E+00;  3.9985262E+04; -6.2842734E-02;  0.0000000E+00;  1.6595386E-02;  1.0112252E+03;
  6.4211577E-01;  9.9999998E-03;  1.9993186E-01;6400;  5.7969615E-03;  0.0000000E+00;  1.5015380E-02;  9.9831934E+02;  1.0318273E-01; -1.3924048E+03;3; -2.9330819E+00;  0.0000000E+00;  1.7971959E+00;0; -4.2784236E-02;  3.7459992E+04;  0.0000000E+00; -1.3269643E-01;  4.0000000E+04;  0.0000000E+00;  3.9985438E+04; -5.5154901E-02;  0.0000000E+00;  1.2370666E-02;  1.0022650E+03;
  6.4213210E-01;  9.9999998E-03;  2.0991583E-01;6401;  6.4399415E-03;  0.0000000E+00;  1.5046652E-02;  9.9827588E+02;  1.0318427E-01; -1.4284037E+03;3; -2.8306458E+00;  0.0000000E+00;  1.8563260E+00;0; -3.8910478E-02;  3.7453961E+04;  0.0000000E+00; -6.0030185E-02;  4.0000000E+04;  0.0000000E+00;  3.9987457E+04; -4.7716536E-02;  0.0000000E+00;  8.8060591E-03;  1.2460836E+03;
  6.4214236E-01;  9.9999998E-03;  2.1990414E-01;6402;  7.0726685E-03;  0.0000000E+00;  1.5088076E-02;  9.9825592E+02;  1.0318518E-01; -1.4449464E+03;3; -2.7372708E+00;  0.0000000E+00;  1.9146897E+00;0; -3.4624677E-02;  3.7447555E+04;  0.0000000E+00;  2.5260789E-02;  4.0000000E+04;  0.0000000E+00;  3.9992434E+04; -4.0600702E-02;  0.0000000E+00;  5.9760236E-03;  1.8736812E+03;
  6.4214528E-01;  9.9999998E-03;  2.2990708E-01;6403;  7.7051870E-03;  0.0000000E+00;  1.5198872E-02;  9.9824744E+02;  1.0318498E-01; -1.4519586E+03;3; -2.6423643E+00;  0.0000000E+00;  1.9935443E+00;0; -2.9674578E-02;  3.7440727E+04;  0.0000000E+00;  1.1141729E-01;  4.0000000E+04;  0.0000000E+00;  3.9999352E+04; -3.3860542E-02;  0.0000000E+00;  4.1859639E-03;  2.7323738E+03;
  6.5221351E-01;  9.9999998E-03;  6.9989175E-02;6448; -3.3855697E-03;  0.0000000E+00;  7.9589598E-03;  9.9915710E+02;  1.0447907E-01; -6.9830096E+02;3; -4.9457574E+00;  0.0000000E+00;  3.2210696E-01;0; -5.8520719E-02;  3.6589203E+04;  0.0000000E+00; -1.9325587E-01;  4.0000000E+04;  0.0000000E+00;  3.9986379E+04; -1.4916012E-01;  0.0000000E+00;  9.0639398E-02;  2.1402786E+03;
  6.5219659E-01;  9.9999998E-03;  7.9983473E-02;6449; -2.9115870E-03;  0.0000000E+00;  9.0337945E-03;  9.9908429E+02;  1.0448135E-01; -7.5864490E+02;3; -4.7808480E+00;  0.0000000E+00;  4.7306073E-01;0; -5.9059188E-02;  3.6581621E+04;  0.0000000E+00; -2.5161597E-01;  4.0000000E+04;  0.0000000E+00;  3.9986938E+04; -1.4421581E-01;  0.0000000E+00;  8.5156620E-02;  2.2207888E+03;
  6.5218037E-01;  9.9999998E-03;  8.9977250E-02;6450; -2.3871670E-03;  0.0000000E+00;  1.0037441E-02;  9.9902167E+02;  1.0448404E-01; -8.1054468E+02;3; -4.5993605E+00;  0.0000000E+00;  6.1943942E-01;0; -5.9590876E-02;  3.6574570E+04;  0.0000000E+00; -3.1074521E-01;  4.0000000E+04;  0.0000000E+00;  3.9986840E+04; -1.3867712E-01;  0.0000000E+00;  7.9086244E-02;  2.2382292E+03;
  6.5216535E-01;  9.9999998E-03;  9.9970907E-02;6451; -1.8193370E-03;  0.0000000E+00;  1.0961910E-02;  9.9896643E+02;  1.0448698E-01; -8.5627173E+02;3; -4.4108644E+00;  0.0000000E+00;  7.6758385E-01;0; -6.0045905E-02;  3.6568867E+04;  0.0000000E+00; -3.6524889E-01;  4.0000000E+04;  0.0000000E+00;  3.9986211E+04; -1.3258527E-01;  0.0000000E+00;  7.2539367E-02;  2.1993286E+03;
  6.5215194E-01;  9.9999998E-03;  1.0996521E-01;6452; -1.2114507E-03;  0.0000000E+00;  1.1784132E-02;  9.9892792E+02;  1.0449031E-01; -8.8822144E+02;3; -4.2188773E+00;  0.0000000E+00;  9.2514580E-01;0; -6.0342491E-02;  3.6564102E+04;  0.0000000E+00; -4.0922567E-01;  4.0000000E+04;  0.0000000E+00;  3.9985340E+04; -1.2599100E-01;  0.0000000E+00;  6.5648511E-02;  2.1173616E+03;
  6.5214056E-01;  9.9999998E-03;  1.1996050E-01;6453; -5.6678685E-04;  0.0000000E+00;  1.2489985E-02;  9.9890009E+02;  1.0449348E-01; -9.1128253E+02;3; -4.0242844E+00;  0.0000000E+00;  1.0669852E+00;0; -6.0394224E-02;  3.6560469E+04;  0.0000000E+00; -4.3733293E-01;  4.0000000E+04;  0.0000000E+00;  3.9984316E+04; -1.1895408E-01;  0.0000000E+00;  5.8559861E-02;  2.0074111E+03;
  6.5213197E-01;  9.9999998E-03;  1.2995698E-01;6454;  1.0995784E-04;  0.0000000E+00;  1.3082009E-02;  9.9888635E+02;  1.0449734E-01; -9.2264020E+02;3; -3.8330412E+00;  0.0000000E+00;  1.1905599E+00;0; -6.0120635E-02;  3.6557992E+04;  0.0000000E+00; -4.4607389E-01;  4.0000000E+04;  0.0000000E+00;  3.9983348E+04; -1.1154136E-01;  0.0000000E+00;  5.1420726E-02;  1.8818159E+03;
  6.5212709E-01;  9.9999998E-03;  1.3995467E-01;6455;  8.1309740E-04;  0.0000000E+00;  1.3570267E-02;  9.9888098E+02;  1.0450092E-01; -9.2708453E+02;3; -3.6494396E+00;  0.0000000E+00;  1.3021148E+00;0; -5.9456158E-02;  3.6555809E+04;  0.0000000E+00; -4.3480569E-01;  4.0000000E+04;  0.0000000E+00;  3.9982164E+04; -1.0382275E-01;  0.0000000E+00;  4.4366594E-02;  1.7474260E+03;
  6.5212625E-01;  9.9999998E-03;  1.4995335E-01;6456;  1.5380296E-03;  0.0000000E+00;  1.3961387E-02;  9.9888269E+02;  1.0450477E-01; -9.2565247E+02;3; -3.4715543E+00;  0.0000000E+00;  1.4090335E+00;0; -5.8351159E-02;  3.6554141E+04;  0.0000000E+00; -4.0615383E-01;  4.0000000E+04;  0.0000000E+00;  3.9981164E+04; -9.5867775E-02;  0.0000000E+00;  3.7516616E-02;  1.6054933E+03;
  6.5212977E-01;  9.9999998E-03;  1.5995245E-01;6457;  2.2789056E-03;  0.0000000E+00;  1.4260579E-02;  9.9887756E+02;  1.0450928E-01; -9.2989929E+02;3; -3.3061917E+00;  0.0000000E+00;  1.5166034E+00;0; -5.6746982E-02;  3.6552137E+04;  0.0000000E+00; -3.6554506E-01;  4.0000000E+04;  0.0000000E+00;  3.9979844E+04; -8.7746575E-02;  0.0000000E+00;  3.0999593E-02;  1.4566934E+03;
  6.5213650E-01;  9.9999998E-03;  1.6995168E-01;6458;  3.0307483E-03;  0.0000000E+00;  1.4478664E-02;  9.9886310E+02;  1.0451332E-01; -9.4189893E+02;3; -3.1543827E+00;  0.0000000E+00;  1.5914031E+00;0; -5.4588839E-02;  3.6549641E+04;  0.0000000E+00; -3.1821933E-01;  4.0000000E+04;  0.0000000E+00;  3.9978805E+04; -7.9535365E-02;  0.0000000E+00;  2.4946528E-02;  1.3053890E+03;
  6.5214461E-01;  9.9999998E-03;  1.7995036E-01;6459;  3.7849294E-03;  0.0000000E+00;  1.4633424E-02;  9.9883417E+02;  1.0451718E-01; -9.6584888E+02;3; -3.0179634E+00;  0.0000000E+00;  1.6758877E+00;0; -5.1856823E-02;  3.6546207E+04;  0.0000000E+00; -2.6578361E-01;  4.0000000E+04;  0.0000000E+00;  3.9977934E+04; -7.1320951E-02;  0.0000000E+00;  1.9464128E-02;  1.1630985E+03;
  6.5215063E-01;  9.9999998E-03;  1.8994795E-01;6460;  4.5352806E-03;  0.0000000E+00;  1.4729639E-02;  9.9878796E+02;  1.0452078E-01; -1.0041688E+03;3; -2.8939497E+00;  0.0000000E+00;  1.7344179E+00;0; -4.8579231E-02;  3.6541480E+04;  0.0000000E+00; -2.0595811E-01;  4.0000000E+04;  0.0000000E+00;  3.9977301E+04; -6.3198224E-02;  0.0000000E+00;  1.4618995E-02;  1.0573282E+03;
  6.5214771E-01;  9.9999998E-03;  1.9994541E-01;6461;  5.2747498E-03;  0.0000000E+00;  1.4778681E-02;  9.9872546E+02;  1.0452393E-01; -1.0559204E+03;3; -2.7881606E+00;  0.0000000E+00;  1.7883774E+00;0; -4.4822186E-02;  3.6535137E+04;  0.0000000E+00; -1.3608740E-01;  4.0000000E+04;  0.0000000E+00;  3.9977273E+04; -5.5261966E-02;  0.0000000E+00;  1.0439780E-02;  1.0415610E+03;
  6.5212631E-01;  9.9999998E-03;  2.0994569E-01;6462;  5.9989924E-03;  0.0000000E+00;  1.4793931E-02;  9.9865204E+02;  1.0452615E-01; -1.1167582E+03;3; -2.6977077E+00;  0.0000000E+00;  1.8347957E+00;0; -4.0664408E-02;  3.6527824E+04;  0.0000000E+00; -5.7643689E-02;  4.0000000E+04;  0.0000000E+00;  3.9978340E+04; -4.7599461E-02;  0.0000000E+00;  6.9350526E-03;  1.1768124E+03;
  6.5205687E-01;  9.9999998E-03;  2.2995411E-01;6464;  7.4048988E-03;  0.0000000E+00;  1.4851564E-02;  9.9852740E+02;  1.0452833E-01; -1.2200144E+03;3; -2.5298176E+00;  0.0000000E+00;  1.9507127E+00;0; -3.1105179E-02;  3.6511184E+04;  0.0000000E+00;  5.9362404E-02;  4.0000000E+04;  0.0000000E+00;  3.9986113E+04; -3.3383407E-02;  0.0000000E+00;  2.2782269E-03;  2.1587412E+03;
  6.5208894E-01;  9.9999998E-03;  2.1994877E-01;6463;  6.7073996E-03;  0.0000000E+00;  1.4801088E-02;  9.9858258E+02;  1.0452796E-01; -1.1742874E+03;3; -2.6143451E+00;  0.0000000E+00;  1.8874133E+00;0; -3.6144637E-02;  3.6519488E+04;  0.0000000E+00;  1.7090630E-02;  4.0000000E+04;  0.0000000E+00;  3.9981262E+04; -4.0287510E-02;  0.0000000E+00;  4.1428725E-03;  1.5288020E+03;
  6.6218364E-01;  9.9999998E-03;  6.9978155E-02;6509; -4.9550747E-03;  0.0000000E+00;  7.9813804E-03;  9.9924609E+02;  1.0609844E-01; -6.2457471E+02;3; -4.7918420E+00;  0.0000000E+00;  3.3382043E-01;0; -6.4240642E-02;  3.5483086E+04;  0.0000000E+00; -2.5635093E-01;  4.0000000E+04;  0.0000000E+00;  3.9975781E+04; -1.5363613E-01;  0.0000000E+00;  8.9395486E-02;  2.1478083E+03;
  6.6217387E-01;  9.9999998E-03;  7.9972379E-02;6510; -4.4410643E-03;  0.0000000E+00;  9.0354728E-03;  9.9919720E+02;  1.0610209E-01; -6.6511676E+02;3; -4.6202264E+00;  0.0000000E+00;  4.7104311E-01;0; -6.4614490E-02;  3.5476375E+04;  0.0000000E+00; -3.2572436E-01;  4.0000000E+04;  0.0000000E+00;  3.9976223E+04; -1.4833419E-01;  0.0000000E+00;  8.3719701E-02;  2.2302659E+03;
  6.6216409E-01;  9.9999998E-03;  8.9966856E-02;6511; -3.8656688E-03;  0.0000000E+00;  1.0015745E-02;  9.9916351E+02;  1.0610646E-01; -6.9301715E+02;3; -4.4374766E+00;  0.0000000E+00;  6.2506127E-01;0; -6.4950280E-02;  3.5470910E+04;  0.0000000E+00; -3.9262727E-01;  4.0000000E+04;  0.0000000E+00;  3.9976133E+04; -1.4241414E-01;  0.0000000E+00;  7.7463858E-02;  2.2505708E+03;
  6.6215467E-01;  9.9999998E-03;  9.9961929E-02;6512; -3.2351329E-03;  0.0000000E+00;  1.0906057E-02;  9.9914587E+02;  1.0611106E-01; -7.0763403E+02;3; -4.2512836E+00;  0.0000000E+00;  7.8219765E-01;0; -6.5179072E-02;  3.5466609E+04;  0.0000000E+00; -4.5024627E-01;  4.0000000E+04;  0.0000000E+00;  3.9975539E+04; -1.3592513E-01;  0.0000000E+00;  7.0746057E-02;  2.2164143E+03;
  6.6214603E-01;  9.9999998E-03;  1.0995789E-01;6513; -2.5543706E-03;  0.0000000E+00;  1.1693834E-02;  9.9914447E+02;  1.0611635E-01; -7.0876984E+02;3; -4.0560031E+00;  0.0000000E+00;  9.2738807E-01;0; -6.5218985E-02;  3.5463680E+04;  0.0000000E+00; -4.9170759E-01;  4.0000000E+04;  0.0000000E+00;  3.9974672E+04; -1.2892540E-01;  0.0000000E+00;  6.3706413E-02;  2.1409377E+03;
  6.6213864E-01;  9.9999998E-03;  1.1995516E-01;6514; -1.8281883E-03;  0.0000000E+00;  1.2365993E-02;  9.9915894E+02;  1.0612210E-01; -6.9681952E+02;3; -3.8648388E+00;  0.0000000E+00;  1.0710610E+00;0; -6.4985894E-02;  3.5461809E+04;  0.0000000E+00; -5.1150376E-01;  4.0000000E+04;  0.0000000E+00;  3.9973703E+04; -1.2148221E-01;  0.0000000E+00;  5.6496315E-02;  2.0380450E+03;
  6.6213286E-01;  9.9999998E-03;  1.2995401E-01;6515; -1.0624665E-03;  0.0000000E+00;  1.2923913E-02;  9.9918591E+02;  1.0612793E-01; -6.7444983E+02;3; -3.6718578E+00;  0.0000000E+00;  1.2015994E+00;0; -6.4401448E-02;  3.5460633E+04;  0.0000000E+00; -5.0696200E-01;  4.0000000E+04;  0.0000000E+00;  3.9972570E+04; -1.1366729E-01;  0.0000000E+00;  4.9265847E-02;  1.9188931E+03;
  6.6212916E-01;  9.9999998E-03;  1.3995430E-01;6516; -2.6604353E-04;  0.0000000E+00;  1.3385995E-02;  9.9922040E+02;  1.0613424E-01; -6.4590741E+02;3; -3.4799588E+00;  0.0000000E+00;  1.3208082E+00;0; -6.3404873E-02;  3.5459840E+04;  0.0000000E+00; -4.7914028E-01;  4.0000000E+04;  0.0000000E+00;  3.9971750E+04; -1.0555669E-01;  0.0000000E+00;  4.2151816E-02;  1.7904143E+03;
  6.6212767E-01;  9.9999998E-03;  1.4995568E-01;6517;  5.5526022E-04;  0.0000000E+00;  1.3746755E-02;  9.9925140E+02;  1.0614111E-01; -6.2017975E+02;3; -3.3052685E+00;  0.0000000E+00;  1.4318842E+00;0; -6.1951641E-02;  3.5458898E+04;  0.0000000E+00; -4.3280911E-01;  4.0000000E+04;  0.0000000E+00;  3.9970797E+04; -9.7224139E-02;  0.0000000E+00;  3.5272498E-02;  1.6553817E+03;
  6.6212845E-01;  9.9999998E-03;  1.5995798E-01;6518;  1.3940211E-03;  0.0000000E+00;  1.4014008E-02;  9.9926904E+02;  1.0614753E-01; -6.0556287E+02;3; -3.1369729E+00;  0.0000000E+00;  1.5289003E+00;0; -5.9989948E-02;  3.5457562E+04;  0.0000000E+00; -3.7516165E-01;  4.0000000E+04;  0.0000000E+00;  3.9969930E+04; -8.8742942E-02;  0.0000000E+00;  2.8752994E-02;  1.5170651E+03;
  6.6213113E-01;  9.9999998E-03;  1.6996105E-01;6519;  2.2411104E-03;  0.0000000E+00;  1.4209094E-02;  9.9927435E+02;  1.0615346E-01; -6.0116797E+02;3; -2.9866686E+00;  0.0000000E+00;  1.6091074E+00;0; -5.7472251E-02;  3.5454922E+04;  0.0000000E+00; -3.1204817E-01;  4.0000000E+04;  0.0000000E+00;  3.9969055E+04; -8.0191635E-02;  0.0000000E+00;  2.2719383E-02;  1.3825881E+03;
  6.6213566E-01;  9.9999998E-03;  1.7996451E-01;6520;  3.0891942E-03;  0.0000000E+00;  1.4341118E-02;  9.9925848E+02;  1.0615946E-01; -6.1435278E+02;3; -2.8538380E+00;  0.0000000E+00;  1.6746469E+00;0; -5.4385148E-02;  3.5451008E+04;  0.0000000E+00; -2.4518231E-01;  4.0000000E+04;  0.0000000E+00;  3.9968379E+04; -7.1657613E-02;  0.0000000E+00;  1.7272467E-02;  1.2657169E+03;
  6.6214067E-01;  9.9999998E-03;  1.8996921E-01;6521;  3.9297100E-03;  0.0000000E+00;  1.4419053E-02;  9.9921448E+02;  1.0616504E-01; -6.5079614E+02;3; -2.7385969E+00;  0.0000000E+00;  1.7307572E+00;0; -5.0760519E-02;  3.5445473E+04;  0.0000000E+00; -1.7361332E-01;  4.0000000E+04;  0.0000000E+00;  3.9968016E+04; -6.3233502E-02;  0.0000000E+00;  1.2472983E-02;  1.1898790E+03;
  6.6214377E-01;  9.9999998E-03;  1.9997674E-01;6522;  4.7554146E-03;  0.0000000E+00;  1.4452682E-02;  9.9914282E+02;  1.0617018E-01; -7.1015247E+02;3; -2.6377642E+00;  0.0000000E+00;  1.7822894E+00;0; -4.6665512E-02;  3.5438207E+04;  0.0000000E+00; -9.8005980E-02;  4.0000000E+04;  0.0000000E+00;  3.9968113E+04; -5.5011593E-02;  0.0000000E+00;  8.3460808E-03;  1.1813115E+03;
  6.6214246E-01;  9.9999998E-03;  2.0998862E-01;6523;  5.5610905E-03;  0.0000000E+00;  1.4453738E-02;  9.9904620E+02;  1.0617392E-01; -7.9019958E+02;3; -2.5556607E+00;  0.0000000E+00;  1.8144811E+00;0; -4.2179018E-02;  3.5429051E+04;  0.0000000E+00; -2.6812844E-02;  4.0000000E+04;  0.0000000E+00;  3.9968516E+04; -4.7079258E-02;  0.0000000E+00;  4.9002408E-03;  1.2427158E+03;
  6.6213423E-01;  9.9999998E-03;  2.2000469E-01;6524;  6.3451352E-03;  0.0000000E+00;  1.4430140E-02;  9.9892578E+02;  1.0617704E-01; -8.8994983E+02;3; -2.4859502E+00;  0.0000000E+00;  1.8442252E+00;0; -3.7367266E-02;  3.5419020E+04;  0.0000000E+00;  1.5941339E-02;  4.0000000E+04;  0.0000000E+00;  3.9968957E+04; -3.9512746E-02;  0.0000000E+00;  2.1454787E-03;  1.3310157E+03;
  6.6211581E-01;  9.9999998E-03;  2.3001896E-01;6525;  7.1084397E-03;  0.0000000E+00;  1.4393690E-02;  9.9879907E+02;  1.0617924E-01; -9.9493445E+02;3; -2.4231412E+00;  0.0000000E+00;  1.8753583E+00;0; -3.2247692E-02;  3.5408625E+04;  0.0000000E+00; -1.9440508E-02;  4.0000000E+04;  0.0000000E+00;  3.9970465E+04; -3.2378461E-02;  0.0000000E+00;  1.3076756E-04;  1.5054528E+03;
  6.7214972E-01;  9.9999998E-03;  6.9970064E-02;6570; -6.6069495E-03;  0.0000000E+00;  7.9937475E-03;  9.9886768E+02;  1.0798641E-01; -9.3809650E+02;3; -4.6175313E+00;  0.0000000E+00;  3.6731073E-01;0; -7.0365950E-02;  3.4223004E+04;  0.0000000E+00; -2.7285716E-01;  4.0000000E+04;  0.0000000E+00;  3.9962867E+04; -1.5795663E-01;  0.0000000E+00;  8.7590680E-02;  2.0889292E+03;
  6.7215645E-01;  9.9999998E-03;  7.9963624E-02;6571; -6.0446961E-03;  0.0000000E+00;  9.0136435E-03;  9.9885925E+02;  1.0799275E-01; -9.4510864E+02;3; -4.4637003E+00;  0.0000000E+00;  4.8285824E-01;0; -7.0549443E-02;  3.4218086E+04;  0.0000000E+00; -3.4287360E-01;  4.0000000E+04;  0.0000000E+00;  3.9963141E+04; -1.5228109E-01;  0.0000000E+00;  8.1731647E-02;  2.1638735E+03;
  6.7216384E-01;  9.9999998E-03;  8.9957841E-02;6572; -5.4126182E-03;  0.0000000E+00;  9.9586071E-03;  9.9887140E+02;  1.0799950E-01; -9.3503485E+02;3; -4.2915440E+00;  0.0000000E+00;  6.1300790E-01;0; -7.0656665E-02;  3.4214371E+04;  0.0000000E+00; -4.0775302E-01;  4.0000000E+04;  0.0000000E+00;  3.9962840E+04; -1.4596646E-01;  0.0000000E+00;  7.5309791E-02;  2.1797734E+03;
  6.7217129E-01;  9.9999998E-03;  9.9953189E-02;6573; -4.7132266E-03;  0.0000000E+00;  1.0808026E-02;  9.9890436E+02;  1.0800669E-01; -9.0772699E+02;3; -4.0922389E+00;  0.0000000E+00;  7.8276807E-01;0; -7.0617095E-02;  3.4212281E+04;  0.0000000E+00; -4.5983967E-01;  4.0000000E+04;  0.0000000E+00;  3.9962230E+04; -1.3906825E-01;  0.0000000E+00;  6.8451151E-02;  2.1456272E+03;
  6.7217851E-01;  9.9999998E-03;  1.0994996E-01;6574; -3.9519980E-03;  0.0000000E+00;  1.1541447E-02;  9.9896326E+02;  1.0801467E-01; -8.5893829E+02;3; -3.8997436E+00;  0.0000000E+00;  9.3859249E-01;0; -7.0349649E-02;  3.4211723E+04;  0.0000000E+00; -4.9191445E-01;  4.0000000E+04;  0.0000000E+00;  3.9961672E+04; -1.3165118E-01;  0.0000000E+00;  6.1301529E-02;  2.0749082E+03;
  6.7218530E-01;  9.9999998E-03;  1.1994880E-01;6575; -3.1371401E-03;  0.0000000E+00;  1.2170708E-02;  9.9903473E+02;  1.0802379E-01; -7.9973010E+02;3; -3.6979971E+00;  0.0000000E+00;  1.0687276E+00;0; -6.9774434E-02;  3.4212008E+04;  0.0000000E+00; -4.9886531E-01;  4.0000000E+04;  0.0000000E+00;  3.9960777E+04; -1.2378926E-01;  0.0000000E+00;  5.4014821E-02;  1.9814001E+03;
  6.7219162E-01;  9.9999998E-03;  1.2994985E-01;6576; -2.2782758E-03;  0.0000000E+00;  1.2701834E-02;  9.9911603E+02;  1.0803253E-01; -7.3237402E+02;3; -3.5023792E+00;  0.0000000E+00;  1.2136601E+00;0; -6.8817914E-02;  3.4212871E+04;  0.0000000E+00; -4.7915718E-01;  4.0000000E+04;  0.0000000E+00;  3.9959992E+04; -1.1555932E-01;  0.0000000E+00;  4.6741411E-02;  1.8769523E+03;
  6.7219728E-01;  9.9999998E-03;  1.3995269E-01;6577; -1.3815173E-03;  0.0000000E+00;  1.3122550E-02;  9.9920374E+02;  1.0804205E-01; -6.5968475E+02;3; -3.3092325E+00;  0.0000000E+00;  1.3414081E+00;0; -6.7424126E-02;  3.4213680E+04;  0.0000000E+00; -4.3541157E-01;  4.0000000E+04;  0.0000000E+00;  3.9959352E+04; -1.0704014E-01;  0.0000000E+00;  3.9616019E-02;  1.7705933E+03;
  6.7220205E-01;  9.9999998E-03;  1.4995673E-01;6578; -4.5814487E-04;  0.0000000E+00;  1.3450115E-02;  9.9927893E+02;  1.0805163E-01; -5.9741492E+02;3; -3.1232123E+00;  0.0000000E+00;  1.4676678E+00;0; -6.5555401E-02;  3.4214266E+04;  0.0000000E+00; -3.7393665E-01;  4.0000000E+04;  0.0000000E+00;  3.9959000E+04; -9.8308392E-02;  0.0000000E+00;  3.2752991E-02;  1.6679813E+03;
  6.7220569E-01;  9.9999998E-03;  1.5996179E-01;6579;  4.8177398E-04;  0.0000000E+00;  1.3686787E-02;  9.9933899E+02;  1.0806111E-01; -5.4763861E+02;3; -2.9579535E+00;  0.0000000E+00;  1.5480500E+00;0; -6.3167408E-02;  3.4213508E+04;  0.0000000E+00; -3.0277270E-01;  4.0000000E+04;  0.0000000E+00;  3.9958594E+04; -8.9438945E-02;  0.0000000E+00;  2.6271537E-02;  1.5754500E+03;
  6.7220795E-01;  9.9999998E-03;  1.6996820E-01;6580;  1.4286565E-03;  0.0000000E+00;  1.3853884E-02;  9.9937128E+02;  1.0807063E-01; -5.2087390E+02;3; -2.8101060E+00;  0.0000000E+00;  1.6243221E+00;0; -6.0218498E-02;  3.4211258E+04;  0.0000000E+00; -2.2779305E-01;  4.0000000E+04;  0.0000000E+00;  3.9958188E+04; -8.0509335E-02;  0.0000000E+00;  2.0290837E-02;  1.5033362E+03;
  6.7220765E-01;  9.9999998E-03;  1.7997716E-01;6581;  2.3731554E-03;  0.0000000E+00;  1.3956702E-02;  9.9937335E+02;  1.0807890E-01; -5.1914557E+02;3; -2.6817133E+00;  0.0000000E+00;  1.6798918E+00;0; -5.6699324E-02;  3.4207105E+04;  0.0000000E+00; -1.5153055E-01;  4.0000000E+04;  0.0000000E+00;  3.9958105E+04; -7.1603104E-02;  0.0000000E+00;  1.4903780E-02;  1.4671943E+03;
  6.7220283E-01;  9.9999998E-03;  1.8999043E-01;6582;  3.3062345E-03;  0.0000000E+00;  1.4007505E-02;  9.9934515E+02;  1.0808765E-01; -5.4250293E+02;3; -2.5737920E+00;  0.0000000E+00;  1.7238190E+00;0; -5.2644815E-02;  3.4200957E+04;  0.0000000E+00; -7.5780772E-02;  4.0000000E+04;  0.0000000E+00;  3.9958430E+04; -6.2809110E-02;  0.0000000E+00;  1.0164295E-02;  1.4805078E+03;
  6.7219192E-01;  9.9999998E-03;  2.0000951E-01;6583;  4.2213551E-03;  0.0000000E+00;  1.4021648E-02;  9.9928204E+02;  1.0809516E-01; -5.9479773E+02;3; -2.4853959E+00;  0.0000000E+00;  1.7541089E+00;0; -4.8122846E-02;  3.4192766E+04;  0.0000000E+00; -6.6156308E-03;  4.0000000E+04;  0.0000000E+00;  3.9958703E+04; -5.4218184E-02;  0.0000000E+00;  6.0953381E-03;  1.5311633E+03;
  6.7217386E-01;  9.9999998E-03;  2.1003525E-01;6584;  5.1131742E-03;  0.0000000E+00;  1.4007055E-02;  9.9917712E+02;  1.0810217E-01; -6.8175818E+02;3; -2.4131868E+00;  0.0000000E+00;  1.7744101E+00;0; -4.3213982E-02;  3.4182781E+04;  0.0000000E+00;  3.7880503E-02;  4.0000000E+04;  0.0000000E+00;  3.9958582E+04; -4.5919023E-02;  0.0000000E+00;  2.7050399E-03;  1.5427457E+03;
  6.7215085E-01;  9.9999998E-03;  2.2006388E-01;6585;  5.9785368E-03;  0.0000000E+00;  1.3957041E-02;  9.9902942E+02;  1.0810784E-01; -8.0412506E+02;3; -2.3551764E+00;  0.0000000E+00;  1.7927841E+00;0; -3.8013820E-02;  3.4171672E+04;  0.0000000E+00;  1.7445639E-02;  4.0000000E+04;  0.0000000E+00;  3.9957535E+04; -3.7996538E-02;  0.0000000E+00; -1.7281503E-05;  1.4064550E+03;
  6.7212379E-01;  9.9999998E-03;  2.3008230E-01;6586;  6.8142698E-03;  0.0000000E+00;  1.3866823E-02;  9.9886176E+02;  1.0811196E-01; -9.4303461E+02;3; -2.3056026E+00;  0.0000000E+00;  1.8114705E+00;0; -3.2636732E-02;  3.4160266E+04;  0.0000000E+00; -1.4565393E-01;  4.0000000E+04;  0.0000000E+00;  3.9956363E+04; -3.0529493E-02;  0.0000000E+00; -2.1072391E-03;  1.3408350E+03;
  6.8215573E-01;  9.9999998E-03;  6.9970258E-02;6631; -8.3556408E-03;  0.0000000E+00;  7.9920301E-03;  9.9799481E+02;  1.1012562E-01; -1.6612361E+03;3; -4.4466252E+00;  0.0000000E+00;  4.1630721E-01;0; -7.6823764E-02;  3.2849543E+04;  0.0000000E+00; -2.3457721E-01;  4.0000000E+04;  0.0000000E+00;  3.9947762E+04; -1.6199981E-01;  0.0000000E+00;  8.5176043E-02;  1.9605886E+03;
  6.8217814E-01;  9.9999998E-03;  7.9964854E-02;6632; -7.7333199E-03;  0.0000000E+00;  8.9700120E-03;  9.9803528E+02;  1.1013468E-01; -1.6277556E+03;3; -4.2915211E+00;  0.0000000E+00;  5.3471583E-01;0; -7.6783985E-02;  3.2846434E+04;  0.0000000E+00; -2.9239807E-01;  4.0000000E+04;  0.0000000E+00;  3.9947969E+04; -1.5594266E-01;  0.0000000E+00;  7.9158679E-02;  2.0129073E+03;
  6.8220121E-01;  9.9999998E-03;  8.9960322E-02;6633; -7.0302351E-03;  0.0000000E+00;  9.8589100E-03;  9.9810559E+02;  1.1014516E-01; -1.5694856E+03;3; -4.1197362E+00;  0.0000000E+00;  6.6622162E-01;0; -7.6618925E-02;  3.2844922E+04;  0.0000000E+00; -3.4315243E-01;  4.0000000E+04;  0.0000000E+00;  3.9947934E+04; -1.4922532E-01;  0.0000000E+00;  7.2606400E-02;  2.0103839E+03;
  6.8222404E-01;  9.9999998E-03;  9.9957101E-02;6634; -6.2517547E-03;  0.0000000E+00;  1.0651628E-02;  9.9820374E+02;  1.1015628E-01; -1.4881547E+03;3; -3.9340172E+00;  0.0000000E+00;  8.0506188E-01;0; -7.6260276E-02;  3.2844852E+04;  0.0000000E+00; -3.7941557E-01;  4.0000000E+04;  0.0000000E+00;  3.9947234E+04; -1.4191164E-01;  0.0000000E+00;  6.5651365E-02;  1.9646267E+03;
  6.8224603E-01;  9.9999998E-03;  1.0995603E-01;6635; -5.4048956E-03;  0.0000000E+00;  1.1343494E-02;  9.9832715E+02;  1.1016810E-01; -1.3859354E+03;3; -3.7359645E+00;  0.0000000E+00;  9.5654082E-01;0; -7.5630195E-02;  3.2846484E+04;  0.0000000E+00; -3.9459404E-01;  4.0000000E+04;  0.0000000E+00;  3.9946629E+04; -1.3407318E-01;  0.0000000E+00;  5.8442988E-02;  1.8914247E+03;
  6.8226629E-01;  9.9999998E-03;  1.1995768E-01;6636; -4.4957674E-03;  0.0000000E+00;  1.1924359E-02;  9.9846893E+02;  1.1018109E-01; -1.2684573E+03;3; -3.5284796E+00;  0.0000000E+00;  1.1026081E+00;0; -7.4650496E-02;  3.2848973E+04;  0.0000000E+00; -3.8461050E-01;  4.0000000E+04;  0.0000000E+00;  3.9945914E+04; -1.2578563E-01;  0.0000000E+00;  5.1135138E-02;  1.8071123E+03;
  6.8228453E-01;  9.9999998E-03;  1.2996180E-01;6637; -3.5355212E-03;  0.0000000E+00;  1.2404338E-02;  9.9861938E+02;  1.1019445E-01; -1.1438188E+03;3; -3.3252087E+00;  0.0000000E+00;  1.2440801E+00;0; -7.3253617E-02;  3.2851770E+04;  0.0000000E+00; -3.4910965E-01;  4.0000000E+04;  0.0000000E+00;  3.9945484E+04; -1.1712920E-01;  0.0000000E+00;  4.3875586E-02;  1.7271459E+03;
  6.8230093E-01;  9.9999998E-03;  1.3996778E-01;6638; -2.5340144E-03;  0.0000000E+00;  1.2788948E-02;  9.9876312E+02;  1.1020771E-01; -1.0247112E+03;3; -3.1265006E+00;  0.0000000E+00;  1.3754752E+00;0; -7.1389943E-02;  3.2854254E+04;  0.0000000E+00; -2.9168865E-01;  4.0000000E+04;  0.0000000E+00;  3.9945184E+04; -1.0818330E-01;  0.0000000E+00;  3.6793359E-02;  1.6645760E+03;
  6.8231541E-01;  9.9999998E-03;  1.4997488E-01;6639; -1.5043244E-03;  0.0000000E+00;  1.3075601E-02;  9.9889166E+02;  1.1022161E-01; -9.1824518E+02;3; -2.9368801E+00;  0.0000000E+00;  1.4877299E+00;0; -6.9028378E-02;  3.2855469E+04;  0.0000000E+00; -2.1915911E-01;  4.0000000E+04;  0.0000000E+00;  3.9945258E+04; -9.9024311E-02;  0.0000000E+00;  2.9995937E-02;  1.6281616E+03;
  6.8232828E-01;  9.9999998E-03;  1.5998247E-01;6640; -4.5922454E-04;  0.0000000E+00;  1.3283339E-02;  9.9899323E+02;  1.1023516E-01; -8.3409943E+02;3; -2.7684417E+00;  0.0000000E+00;  1.5727448E+00;0; -6.6130660E-02;  3.2855172E+04;  0.0000000E+00; -1.3929108E-01;  4.0000000E+04;  0.0000000E+00;  3.9945449E+04; -8.9724906E-02;  0.0000000E+00;  2.3594245E-02;  1.6245371E+03;
  6.8234015E-01;  9.9999998E-03;  1.6999108E-01;6641;  5.8897951E-04;  0.0000000E+00;  1.3412565E-02;  9.9905804E+02;  1.1024840E-01; -7.8037256E+02;3; -2.6190298E+00;  0.0000000E+00;  1.6360769E+00;0; -6.2659375E-02;  3.2852332E+04;  0.0000000E+00; -5.7942238E-02;  4.0000000E+04;  0.0000000E+00;  3.9946066E+04; -8.0358163E-02;  0.0000000E+00;  1.7698787E-02;  1.6619509E+03;
  6.8235070E-01;  9.9999998E-03;  1.8000314E-01;6642;  1.6300817E-03;  0.0000000E+00;  1.3477432E-02;  9.9908203E+02;  1.1026175E-01; -7.6052130E+02;3; -2.4986093E+00;  0.0000000E+00;  1.6783432E+00;0; -5.8606818E-02;  3.2847383E+04;  0.0000000E+00;  2.0443160E-02;  4.0000000E+04;  0.0000000E+00;  3.9946891E+04; -7.0999466E-02;  0.0000000E+00;  1.2392648E-02;  1.7510902E+03;
  6.8235922E-01;  9.9999998E-03;  1.9002095E-01;6643;  2.6566945E-03;  0.0000000E+00;  1.3496964E-02;  9.9906830E+02;  1.1027423E-01; -7.7187897E+02;3; -2.4015305E+00;  0.0000000E+00;  1.6970977E+00;0; -5.4008678E-02;  3.2839898E+04;  0.0000000E+00;  8.9722902E-02;  4.0000000E+04;  0.0000000E+00;  3.9947773E+04; -6.1731115E-02;  0.0000000E+00;  7.7224369E-03;  1.8928457E+03;
  6.8236518E-01;  9.9999998E-03;  2.0004648E-01;6644;  3.6613236E-03;  0.0000000E+00;  1.3484708E-02;  9.9901385E+02;  1.1028607E-01; -8.1701349E+02;3; -2.3227813E+00;  0.0000000E+00;  1.7125026E+00;0; -4.8936322E-02;  3.2830180E+04;  0.0000000E+00;  1.3733199E-01;  4.0000000E+04;  0.0000000E+00;  3.9948996E+04; -5.2642424E-02;  0.0000000E+00;  3.7061016E-03;  2.0472167E+03;
  6.8236727E-01;  9.9999998E-03;  2.1008170E-01;6645;  4.6395352E-03;  0.0000000E+00;  1.3447707E-02;  9.9890948E+02;  1.1029655E-01; -9.0348016E+02;3; -2.2619221E+00;  0.0000000E+00;  1.7240895E+00;0; -4.3475743E-02;  3.2818605E+04;  0.0000000E+00;  1.3688265E-01;  4.0000000E+04;  0.0000000E+00;  3.9948914E+04; -4.3826416E-02;  0.0000000E+00;  3.5067360E-04;  2.0758650E+03;
  6.8236560E-01;  9.9999998E-03;  2.2012101E-01;6646;  5.5876155E-03;  0.0000000E+00;  1.3367738E-02;  9.9874426E+02;  1.1030682E-01; -1.0403651E+03;3; -2.2151592E+00;  0.0000000E+00;  1.7335793E+00;0; -3.7751298E-02;  3.2805891E+04;  0.0000000E+00;  3.5499994E-02;  4.0000000E+04;  0.0000000E+00;  3.9946738E+04; -3.5380989E-02;  0.0000000E+00; -2.3703105E-03;  1.7989930E+03;
  6.8235457E-01;  9.9999998E-03;  2.3014417E-01;6647;  6.5002823E-03;  0.0000000E+00;  1.3226394E-02;  9.9855652E+02;  1.1031567E-01; -1.1959161E+03;3; -2.1852145E+00;  0.0000000E+00;  1.7287164E+00;0; -3.1965520E-02;  3.2792664E+04;  0.0000000E+00; -2.6517004E-01;  4.0000000E+04;  0.0000000E+00;  3.9943785E+04; -2.7407970E-02;  0.0000000E+00; -4.5575514E-03;  1.6031465E+03;
  6.9271123E-01;  9.9999998E-03;  7.0001356E-02;6692; -1.0267425E-02;  0.0000000E+00;  7.9521788E-03;  9.9679102E+02;  1.1259435E-01; -2.6585898E+03;3; -4.2573581E+00;  0.0000000E+00;  4.6080190E-01;0; -8.3854981E-02;  3.1359508E+04;  0.0000000E+00; -1.3943282E-01;  4.0000000E+04;  0.0000000E+00;  3.9930559E+04; -1.6577342E-01;  0.0000000E+00;  8.1918441E-02;  1.7857288E+03;
  6.9276893E-01;  9.9999998E-03;  8.0001689E-02;6693; -9.5753595E-03;  0.0000000E+00;  8.8873543E-03;  9.9688379E+02;  1.1261085E-01; -2.5817031E+03;3; -4.1000967E+00;  0.0000000E+00;  5.9751469E-01;0; -8.3553635E-02;  3.1355869E+04;  0.0000000E+00; -1.7068233E-01;  4.0000000E+04;  0.0000000E+00;  3.9930711E+04; -1.5932697E-01;  0.0000000E+00;  7.5773336E-02;  1.7929641E+03;
  6.9282240E-01;  9.9999998E-03;  9.0002194E-02;6694; -8.7911114E-03;  0.0000000E+00;  9.7207343E-03;  9.9701514E+02;  1.1262813E-01; -2.4729163E+03;3; -3.9256425E+00;  0.0000000E+00;  7.3303497E-01;0; -8.3064936E-02;  3.1354570E+04;  0.0000000E+00; -1.9402409E-01;  4.0000000E+04;  0.0000000E+00;  3.9930223E+04; -1.5219806E-01;  0.0000000E+00;  6.9133125E-02;  1.7501169E+03;
  6.9286925E-01;  9.9999998E-03;  1.0000397E-01;6695; -7.9213912E-03;  0.0000000E+00;  1.0449370E-02;  9.9717841E+02;  1.1264545E-01; -2.3376116E+03;3; -3.7389545E+00;  0.0000000E+00;  8.8192862E-01;0; -8.2319930E-02;  3.1355627E+04;  0.0000000E+00; -2.0366910E-01;  4.0000000E+04;  0.0000000E+00;  3.9929617E+04; -1.4445683E-01;  0.0000000E+00;  6.2136900E-02;  1.6741249E+03;
  6.9290882E-01;  9.9999998E-03;  1.1000802E-01;6696; -6.9737588E-03;  0.0000000E+00;  1.1072768E-02;  9.9737671E+02;  1.1266281E-01; -2.1733694E+03;3; -3.5413001E+00;  0.0000000E+00;  1.0117440E+00;0; -8.1244648E-02;  3.1358727E+04;  0.0000000E+00; -1.9481800E-01;  4.0000000E+04;  0.0000000E+00;  3.9929035E+04; -1.3617899E-01;  0.0000000E+00;  5.4934334E-02;  1.5871021E+03;
  6.9294024E-01;  9.9999998E-03;  1.2001427E-01;6697; -5.9595294E-03;  0.0000000E+00;  1.1595351E-02;  9.9758417E+02;  1.1267979E-01; -2.0014730E+03;3; -3.3386943E+00;  0.0000000E+00;  1.1609074E+00;0; -7.9767391E-02;  3.1363088E+04;  0.0000000E+00; -1.6503009E-01;  4.0000000E+04;  0.0000000E+00;  3.9928473E+04; -1.2744413E-01;  0.0000000E+00;  4.7676738E-02;  1.5122803E+03;
  6.9296455E-01;  9.9999998E-03;  1.3002214E-01;6698; -4.8874971E-03;  0.0000000E+00;  1.2021924E-02;  9.9780157E+02;  1.1269707E-01; -1.8213301E+03;3; -3.1326478E+00;  0.0000000E+00;  1.2850939E+00;0; -7.7825718E-02;  3.1367930E+04;  0.0000000E+00; -1.1497567E-01;  4.0000000E+04;  0.0000000E+00;  3.9928219E+04; -1.1833070E-01;  0.0000000E+00;  4.0504985E-02;  1.4715647E+03;
  6.9298309E-01;  9.9999998E-03;  1.4003083E-01;6699; -3.7714508E-03;  0.0000000E+00;  1.2357011E-02;  9.9800464E+02;  1.1271384E-01; -1.6531375E+03;3; -2.9250116E+00;  0.0000000E+00;  1.4150281E+00;0; -7.5377338E-02;  3.1371930E+04;  0.0000000E+00; -4.8418090E-02;  4.0000000E+04;  0.0000000E+00;  3.9928711E+04; -1.0891580E-01;  0.0000000E+00;  3.3538461E-02;  1.4819854E+03;
  6.9299829E-01;  9.9999998E-03;  1.5003960E-01;6700; -2.6252088E-03;  0.0000000E+00;  1.2606256E-02;  9.9818384E+02;  1.1273111E-01; -1.5046479E+03;3; -2.7286201E+00;  0.0000000E+00;  1.5241382E+00;0; -7.2396763E-02;  3.1374420E+04;  0.0000000E+00;  2.8618693E-02;  4.0000000E+04;  0.0000000E+00;  3.9929242E+04; -9.9270009E-02;  0.0000000E+00;  2.6873244E-02;  1.5498535E+03;
  6.9301248E-01;  9.9999998E-03;  1.6004804E-01;6701; -1.4665714E-03;  0.0000000E+00;  1.2775619E-02;  9.9832312E+02;  1.1274821E-01; -1.3892438E+03;3; -2.5499027E+00;  0.0000000E+00;  1.6089952E+00;0; -6.8850309E-02;  3.1374377E+04;  0.0000000E+00;  1.0973302E-01;  4.0000000E+04;  0.0000000E+00;  3.9930293E+04; -8.9459352E-02;  0.0000000E+00;  2.0609042E-02;  1.6714645E+03;
  6.9302726E-01;  9.9999998E-03;  1.7005736E-01;6702; -3.0916760E-04;  0.0000000E+00;  1.2863573E-02;  9.9841931E+02;  1.1276562E-01; -1.3095918E+03;3; -2.4087887E+00;  0.0000000E+00;  1.6447896E+00;0; -6.4700805E-02;  3.1371283E+04;  0.0000000E+00;  1.8921147E-01;  4.0000000E+04;  0.0000000E+00;  3.9931543E+04; -7.9546049E-02;  0.0000000E+00;  1.4845243E-02;  1.8400023E+03;
  6.9304299E-01;  9.9999998E-03;  1.8006979E-01;6703;  8.3752268E-04;  0.0000000E+00;  1.2890706E-02;  9.9846918E+02;  1.1278380E-01; -1.2682596E+03;3; -2.2903194E+00;  0.0000000E+00;  1.6652954E+00;0; -5.9940092E-02;  3.1365143E+04;  0.0000000E+00;  2.6025051E-01;  4.0000000E+04;  0.0000000E+00;  3.9933039E+04; -6.9595858E-02;  0.0000000E+00;  9.6557662E-03;  2.0494143E+03;
  6.9306153E-01;  9.9999998E-03;  1.9008832E-01;6704;  1.9644899E-03;  0.0000000E+00;  1.2875041E-02;  9.9846881E+02;  1.1280183E-01; -1.2685559E+03;3; -2.2016709E+00;  0.0000000E+00;  1.6706936E+00;0; -5.4605659E-02;  3.1355756E+04;  0.0000000E+00;  3.1278750E-01;  4.0000000E+04;  0.0000000E+00;  3.9934734E+04; -5.9684221E-02;  0.0000000E+00;  5.0785611E-03;  2.2828135E+03;
  6.9308627E-01;  9.9999998E-03;  2.0011671E-01;6705;  3.0644489E-03;  0.0000000E+00;  1.2828490E-02;  9.9842242E+02;  1.1282057E-01; -1.3069746E+03;3; -2.1376832E+00;  0.0000000E+00;  1.6679158E+00;0; -4.8775528E-02;  3.1343225E+04;  0.0000000E+00;  3.3047459E-01;  4.0000000E+04;  0.0000000E+00;  3.9936137E+04; -4.9899500E-02;  0.0000000E+00;  1.1239717E-03;  2.4710137E+03;
  6.9312352E-01;  9.9999998E-03;  2.1015546E-01;6706;  4.1325199E-03;  0.0000000E+00;  1.2751473E-02;  9.9831470E+02;  1.1284044E-01; -1.3962560E+03;3; -2.1007190E+00;  0.0000000E+00;  1.6550655E+00;0; -4.2555403E-02;  3.1327756E+04;  0.0000000E+00;  2.8408188E-01;  4.0000000E+04;  0.0000000E+00;  3.9935867E+04; -4.0342778E-02;  0.0000000E+00; -2.2126241E-03;  2.4431045E+03;
  6.9317925E-01;  9.9999998E-03;  2.2019322E-01;6707;  5.1648444E-03;  0.0000000E+00;  1.2623820E-02;  9.9815051E+02;  1.1286342E-01; -1.5322521E+03;3; -2.0661030E+00;  0.0000000E+00;  1.6592330E+00;0; -3.6107481E-02;  3.1309598E+04;  0.0000000E+00;  1.2074153E-01;  4.0000000E+04;  0.0000000E+00;  3.9932918E+04; -3.1128626E-02;  0.0000000E+00; -4.9788547E-03;  2.0800771E+03;
  6.9325209E-01;  9.9999998E-03;  2.3020592E-01;6708;  6.1539621E-03;  0.0000000E+00;  1.2448016E-02;  9.9798022E+02;  1.1288901E-01; -1.6733344E+03;3; -2.0449886E+00;  0.0000000E+00;  1.6559772E+00;0; -2.9626245E-02;  3.1289443E+04;  0.0000000E+00; -2.4760737E-01;  4.0000000E+04;  0.0000000E+00;  3.9930918E+04; -2.2378536E-02;  0.0000000E+00; -7.2477083E-03;  2.0289080E+03;
  7.0499396E-01;  9.9999998E-03;  7.0135571E-02;6753; -1.2521729E-02;  0.0000000E+00;  7.8567993E-03;  9.9577838E+02;  1.1568473E-01; -3.4975281E+03;3; -4.0389233E+00;  0.0000000E+00;  5.5320829E-01;0; -9.2195094E-02;  2.9668811E+04;  0.0000000E+00;  1.9328630E-02;  4.0000000E+04;  0.0000000E+00;  3.9910629E+04; -1.6930710E-01;  0.0000000E+00;  7.7112004E-02;  1.6229349E+03;
  7.0503426E-01;  9.9999998E-03;  8.0145903E-02;6754; -1.1724899E-02;  0.0000000E+00;  8.7223323E-03;  9.9592780E+02;  1.1569861E-01; -3.3737292E+03;3; -3.8796997E+00;  0.0000000E+00;  6.9529212E-01;0; -9.1496095E-02;  2.9670428E+04;  0.0000000E+00;  2.9552899E-02;  4.0000000E+04;  0.0000000E+00;  3.9910164E+04; -1.6242296E-01;  0.0000000E+00;  7.0926860E-02;  1.5606243E+03;
  7.0506322E-01;  9.9999998E-03;  9.0156592E-02;6755; -1.0825684E-02;  0.0000000E+00;  9.4808852E-03;  9.9612054E+02;  1.1571141E-01; -3.2140300E+03;3; -3.7017095E+00;  0.0000000E+00;  8.3990675E-01;0; -9.0531923E-02;  2.9675078E+04;  0.0000000E+00;  4.6157025E-02;  4.0000000E+04;  0.0000000E+00;  3.9909383E+04; -1.5483658E-01;  0.0000000E+00;  6.4304657E-02;  1.4574845E+03;
  7.0507896E-01;  9.9999998E-03;  1.0016845E-01;6756; -9.8319789E-03;  0.0000000E+00;  1.0128812E-02;  9.9634332E+02;  1.1572305E-01; -3.0294922E+03;3; -3.5071340E+00;  0.0000000E+00;  9.7947997E-01;0; -8.9236490E-02;  2.9682682E+04;  0.0000000E+00;  7.1529970E-02;  4.0000000E+04;  0.0000000E+00;  3.9908520E+04; -1.4662303E-01;  0.0000000E+00;  5.7386540E-02;  1.3390696E+03;
  7.0508236E-01;  9.9999998E-03;  1.1018113E-01;6757; -8.7562734E-03;  0.0000000E+00;  1.0680851E-02;  9.9660107E+02;  1.1573505E-01; -2.8159675E+03;3; -3.3075163E+00;  0.0000000E+00;  1.1151587E+00;0; -8.7542050E-02;  2.9692264E+04;  0.0000000E+00;  1.0739242E-01;  4.0000000E+04;  0.0000000E+00;  3.9907816E+04; -1.3786110E-01;  0.0000000E+00;  5.0319053E-02;  1.2371288E+03;
  7.0507509E-01;  9.9999998E-03;  1.2019391E-01;6758; -7.6085920E-03;  0.0000000E+00;  1.1136976E-02;  9.9687152E+02;  1.1574621E-01; -2.5918752E+03;3; -3.0974102E+00;  0.0000000E+00;  1.2484735E+00;0; -8.5382909E-02;  2.9702889E+04;  0.0000000E+00;  1.5418191E-01;  4.0000000E+04;  0.0000000E+00;  3.9907445E+04; -1.2862720E-01;  0.0000000E+00;  4.3244291E-02;  1.1833009E+03;
  7.0506132E-01;  9.9999998E-03;  1.3020578E-01;6759; -6.4025628E-03;  0.0000000E+00;  1.1496522E-02;  9.9713434E+02;  1.1575768E-01; -2.3741533E+03;3; -2.8876975E+00;  0.0000000E+00;  1.3676727E+00;0; -8.2704872E-02;  2.9713238E+04;  0.0000000E+00;  2.1093045E-01;  4.0000000E+04;  0.0000000E+00;  3.9907605E+04; -1.1899471E-01;  0.0000000E+00;  3.6289830E-02;  1.2012365E+03;
  7.0504624E-01;  9.9999998E-03;  1.4021581E-01;6760; -5.1513356E-03;  0.0000000E+00;  1.1778260E-02;  9.9738007E+02;  1.1577031E-01; -2.1705542E+03;3; -2.6803458E+00;  0.0000000E+00;  1.4673764E+00;0; -7.9469502E-02;  2.9721682E+04;  0.0000000E+00;  2.7535295E-01;  4.0000000E+04;  0.0000000E+00;  3.9908367E+04; -1.0902929E-01;  0.0000000E+00;  2.9559786E-02;  1.2999329E+03;
  7.0503443E-01;  9.9999998E-03;  1.5022376E-01;6761; -3.8716646E-03;  0.0000000E+00;  1.1986556E-02;  9.9759143E+02;  1.1578479E-01; -1.9954482E+03;3; -2.4882152E+00;  0.0000000E+00;  1.5542598E+00;0; -7.5653002E-02;  2.9726895E+04;  0.0000000E+00;  3.4417135E-01;  4.0000000E+04;  0.0000000E+00;  3.9909578E+04; -9.8787665E-02;  0.0000000E+00;  2.3134662E-02;  1.4722369E+03;
  7.0503122E-01;  9.9999998E-03;  1.6022995E-01;6762; -2.5799412E-03;  0.0000000E+00;  1.2114180E-02;  9.9775299E+02;  1.1580241E-01; -1.8616250E+03;3; -2.3044641E+00;  0.0000000E+00;  1.6268790E+00;0; -7.1219072E-02;  2.9727934E+04;  0.0000000E+00;  4.1398132E-01;  4.0000000E+04;  0.0000000E+00;  3.9911199E+04; -8.8318616E-02;  0.0000000E+00;  1.7099548E-02;  1.6967183E+03;
  7.0503801E-01;  9.9999998E-03;  1.7023666E-01;6763; -1.2945808E-03;  0.0000000E+00;  1.2162585E-02;  9.9785907E+02;  1.1582272E-01; -1.7737263E+03;3; -2.1503685E+00;  0.0000000E+00;  1.6598654E+00;0; -6.6126056E-02;  2.9724229E+04;  0.0000000E+00;  4.7996894E-01;  4.0000000E+04;  0.0000000E+00;  3.9912945E+04; -7.7667654E-02;  0.0000000E+00;  1.1541596E-02;  1.9413779E+03;
  7.0505661E-01;  9.9999998E-03;  1.8024680E-01;6764; -2.6257700E-05;  0.0000000E+00;  1.2151679E-02;  9.9790210E+02;  1.1584578E-01; -1.7380730E+03;3; -2.0462954E+00;  0.0000000E+00;  1.6546092E+00;0; -6.0361348E-02;  2.9715803E+04;  0.0000000E+00;  5.3450227E-01;  4.0000000E+04;  0.0000000E+00;  3.9914480E+04; -6.6886403E-02;  0.0000000E+00;  6.5250564E-03;  2.1660342E+03;
  7.0509082E-01;  9.9999998E-03;  1.9026288E-01;6765;  1.2166016E-03;  0.0000000E+00;  1.2094926E-02;  9.9789001E+02;  1.1587207E-01; -1.7480974E+03;3; -1.9828690E+00;  0.0000000E+00;  1.6300670E+00;0; -5.3964857E-02;  2.9702770E+04;  0.0000000E+00;  5.6744665E-01;  4.0000000E+04;  0.0000000E+00;  3.9915480E+04; -5.6046367E-02;  0.0000000E+00;  2.0815085E-03;  2.3117432E+03;
  7.0513970E-01;  9.9999998E-03;  2.0028585E-01;6766;  2.4267733E-03;  0.0000000E+00;  1.1999950E-02;  9.9782703E+02;  1.1590143E-01; -1.8002440E+03;3; -1.9364851E+00;  0.0000000E+00;  1.6149567E+00;0; -4.7031827E-02;  2.9686102E+04;  0.0000000E+00;  5.6461895E-01;  4.0000000E+04;  0.0000000E+00;  3.9915223E+04; -4.5247234E-02;  0.0000000E+00; -1.7845945E-03;  2.2750132E+03;
  7.0521820E-01;  9.9999998E-03;  2.1030810E-01;6767;  3.5943738E-03;  0.0000000E+00;  1.1856297E-02;  9.9770251E+02;  1.1593702E-01; -1.9034015E+03;3; -1.9035276E+00;  0.0000000E+00;  1.6081542E+00;0; -3.9714914E-02;  2.9664906E+04;  0.0000000E+00;  5.0303876E-01;  4.0000000E+04;  0.0000000E+00;  3.9912793E+04; -3.4611691E-02;  0.0000000E+00; -5.1032230E-03;  1.9496301E+03;
  7.0532984E-01;  9.9999998E-03;  2.2030894E-01;6768;  4.7117383E-03;  0.0000000E+00;  1.1658711E-02;  9.9756952E+02;  1.1598000E-01; -2.0136205E+03;3; -1.8841385E+00;  0.0000000E+00;  1.5962101E+00;0; -3.2223649E-02;  2.9639820E+04;  0.0000000E+00;  3.4261376E-01;  4.0000000E+04;  0.0000000E+00;  3.9910066E+04; -2.4282411E-02;  0.0000000E+00; -7.9412404E-03;  1.5760547E+03;
  7.0545405E-01;  9.9999998E-03;  2.3028192E-01;6769;  5.7777879E-03;  0.0000000E+00;  1.1475015E-02;  9.9751831E+02;  1.1602523E-01; -2.0560391E+03;3; -1.8783498E+00;  0.0000000E+00;  1.5974370E+00;0; -2.4617314E-02;  2.9613887E+04;  0.0000000E+00;  1.4754345E-02;  4.0000000E+04;  0.0000000E+00;  3.9912926E+04; -1.4395176E-02;  0.0000000E+00; -1.0222138E-02;  2.0251833E+03;
  7.1810728E-01;  9.9999998E-03;  7.0226982E-02;6814; -1.4958852E-02;  0.0000000E+00;  7.6414426E-03;  9.9585278E+02;  1.1930912E-01; -3.4358997E+03;3; -3.8158939E+00;  0.0000000E+00;  6.3955051E-01;0; -1.0132069E-01;  2.7923326E+04;  0.0000000E+00;  2.0118687E-01;  4.0000000E+04;  0.0000000E+00;  3.9889496E+04; -1.7211203E-01;  0.0000000E+00;  7.0791341E-02;  1.6183826E+03;
  7.1810126E-01;  9.9999998E-03;  8.0249116E-02;6815; -1.4034941E-02;  0.0000000E+00;  8.4276637E-03;  9.9601599E+02;  1.1931010E-01; -3.3006938E+03;3; -3.6563647E+00;  0.0000000E+00;  7.8713870E-01;0; -1.0010382E-01;  2.7931613E+04;  0.0000000E+00;  2.5638697E-01;  4.0000000E+04;  0.0000000E+00;  3.9888445E+04; -1.6483799E-01;  0.0000000E+00;  6.4734168E-02;  1.5097697E+03;
  7.1808106E-01;  9.9999998E-03;  9.0270028E-02;6816; -1.3000112E-02;  0.0000000E+00;  9.1003664E-03;  9.9621484E+02;  1.1931022E-01; -3.1359084E+03;3; -3.4768393E+00;  0.0000000E+00;  9.2660248E-01;0; -9.8539099E-02;  2.7942877E+04;  0.0000000E+00;  3.1356159E-01;  4.0000000E+04;  0.0000000E+00;  3.9887301E+04; -1.5684371E-01;  0.0000000E+00;  5.8304604E-02;  1.3842952E+03;
  7.1804565E-01;  9.9999998E-03;  1.0029016E-01;6817; -1.1866388E-02;  0.0000000E+00;  9.6738087E-03;  9.9644867E+02;  1.1931024E-01; -2.9421858E+03;3; -3.2826176E+00;  0.0000000E+00;  1.0536178E+00;0; -9.6563138E-02;  2.7956734E+04;  0.0000000E+00;  3.7041619E-01;  4.0000000E+04;  0.0000000E+00;  3.9885934E+04; -1.4820395E-01;  0.0000000E+00;  5.1640816E-02;  1.2719290E+03;
  7.1799576E-01;  9.9999998E-03;  1.1030944E-01;6818; -1.0645484E-02;  0.0000000E+00;  1.0153078E-02;  9.9670593E+02;  1.1930890E-01; -2.7290562E+03;3; -3.0731051E+00;  0.0000000E+00;  1.1917132E+00;0; -9.4111845E-02;  2.7972090E+04;  0.0000000E+00;  4.2494676E-01;  4.0000000E+04;  0.0000000E+00;  3.9884762E+04; -1.3899119E-01;  0.0000000E+00;  4.4879343E-02;  1.1996567E+03;
  7.1793318E-01;  9.9999998E-03;  1.2032748E-01;6819; -9.3511082E-03;  0.0000000E+00;  1.0531699E-02;  9.9697290E+02;  1.1930835E-01; -2.5078774E+03;3; -2.8628087E+00;  0.0000000E+00;  1.2965868E+00;0; -9.1123812E-02;  2.7987971E+04;  0.0000000E+00;  4.7597170E-01;  4.0000000E+04;  0.0000000E+00;  3.9884211E+04; -1.2927212E-01;  0.0000000E+00;  3.8148306E-02;  1.1814857E+03;
  7.1786338E-01;  9.9999998E-03;  1.3034332E-01;6820; -7.9965182E-03;  0.0000000E+00;  1.0835212E-02;  9.9722803E+02;  1.1930798E-01; -2.2965256E+03;3; -2.6446295E+00;  0.0000000E+00;  1.4081532E+00;0; -8.7547213E-02;  2.8002656E+04;  0.0000000E+00;  5.2360612E-01;  4.0000000E+04;  0.0000000E+00;  3.9884449E+04; -1.1910510E-01;  0.0000000E+00;  3.1557888E-02;  1.2197814E+03;
  7.1779382E-01;  9.9999998E-03;  1.4035653E-01;6821; -6.5985029E-03;  0.0000000E+00;  1.1068299E-02;  9.9745770E+02;  1.1931024E-01; -2.1062595E+03;3; -2.4328957E+00;  0.0000000E+00;  1.4999385E+00;0; -8.3345138E-02;  2.8014816E+04;  0.0000000E+00;  5.6905127E-01;  4.0000000E+04;  0.0000000E+00;  3.9885242E+04; -1.0853874E-01;  0.0000000E+00;  2.5193602E-02;  1.3166693E+03;
  7.1773285E-01;  9.9999998E-03;  1.5036701E-01;6822; -5.1738443E-03;  0.0000000E+00;  1.1223717E-02;  9.9764966E+02;  1.1931631E-01; -1.9472024E+03;3; -2.2463288E+00;  0.0000000E+00;  1.5582941E+00;0; -7.8491166E-02;  2.8022484E+04;  0.0000000E+00;  6.1385369E-01;  4.0000000E+04;  0.0000000E+00;  3.9886805E+04; -9.7609542E-02;  0.0000000E+00;  1.9118374E-02;  1.4783369E+03;
  7.1768683E-01;  9.9999998E-03;  1.6037670E-01;6823; -3.7387991E-03;  0.0000000E+00;  1.1308931E-02;  9.9778442E+02;  1.1932792E-01; -1.8355514E+03;3; -2.0726864E+00;  0.0000000E+00;  1.6063324E+00;0; -7.2940037E-02;  2.8024820E+04;  0.0000000E+00;  6.5870911E-01;  4.0000000E+04;  0.0000000E+00;  3.9888863E+04; -8.6341485E-02;  0.0000000E+00;  1.3401452E-02;  1.6986255E+03;
  7.1765977E-01;  9.9999998E-03;  1.7038868E-01;6824; -2.3083512E-03;  0.0000000E+00;  1.1329200E-02;  9.9785938E+02;  1.1934406E-01; -1.7734791E+03;3; -1.9237862E+00;  0.0000000E+00;  1.6377257E+00;0; -6.6640653E-02;  2.8021328E+04;  0.0000000E+00;  7.0062131E-01;  4.0000000E+04;  0.0000000E+00;  3.9891039E+04; -7.4758582E-02;  0.0000000E+00;  8.1179272E-03;  1.9404585E+03;
  7.1765625E-01;  9.9999998E-03;  1.8040352E-01;6825; -9.0159074E-04;  0.0000000E+00;  1.1286942E-02;  9.9786835E+02;  1.1936616E-01; -1.7660226E+03;3; -1.8167142E+00;  0.0000000E+00;  1.6403697E+00;0; -5.9579782E-02;  2.8012086E+04;  0.0000000E+00;  7.3269391E-01;  4.0000000E+04;  0.0000000E+00;  3.9892816E+04; -6.2906556E-02;  0.0000000E+00;  3.3267727E-03;  2.1346665E+03;
  7.1768034E-01;  9.9999998E-03;  1.9042042E-01;6826;  4.7107021E-04;  0.0000000E+00;  1.1194752E-02;  9.9782196E+02;  1.1939484E-01; -1.8044412E+03;3; -1.7457119E+00;  0.0000000E+00;  1.6220856E+00;0; -5.1804937E-02;  2.7997357E+04;  0.0000000E+00;  7.4553013E-01;  4.0000000E+04;  0.0000000E+00;  3.9893281E+04; -5.0864551E-02;  0.0000000E+00; -9.4038638E-04;  2.1849634E+03;
  7.1773279E-01;  9.9999998E-03;  2.0043369E-01;6827;  1.7974094E-03;  0.0000000E+00;  1.1054738E-02;  9.9771948E+02;  1.1942969E-01; -1.8893770E+03;3; -1.7108380E+00;  0.0000000E+00;  1.6018436E+00;0; -4.3434244E-02;  2.7978424E+04;  0.0000000E+00;  7.2608846E-01;  4.0000000E+04;  0.0000000E+00;  3.9891777E+04; -3.8754866E-02;  0.0000000E+00; -4.6793781E-03;  1.9922660E+03;
  7.1780473E-01;  9.9999998E-03;  2.1043110E-01;6828;  3.0672906E-03;  0.0000000E+00;  1.0859645E-02;  9.9758221E+02;  1.1946791E-01; -2.0031021E+03;3; -1.6948998E+00;  0.0000000E+00;  1.5809492E+00;0; -3.4661632E-02;  2.7957158E+04;  0.0000000E+00;  6.5225178E-01;  4.0000000E+04;  0.0000000E+00;  3.9888461E+04; -2.6739651E-02;  0.0000000E+00; -7.9219816E-03;  1.5712238E+03;
  7.1788692E-01;  9.9999998E-03;  2.2039756E-01;6829;  4.2725401E-03;  0.0000000E+00;  1.0630379E-02;  9.9748657E+02;  1.1950751E-01; -2.0823096E+03;3; -1.7292354E+00;  0.0000000E+00;  1.5619876E+00;0; -2.5701661E-02;  2.7935621E+04;  0.0000000E+00;  4.8530999E-01;  4.0000000E+04;  0.0000000E+00;  3.9887797E+04; -1.4996546E-02;  0.0000000E+00; -1.0705113E-02;  1.3659149E+03;
  7.1798038E-01;  9.9999998E-03;  2.3035392E-01;6830;  5.4179197E-03;  0.0000000E+00;  1.0431930E-02;  9.9748383E+02;  1.1954949E-01; -2.0845811E+03;3; -1.7550145E+00;  0.0000000E+00;  1.5657499E+00;0; -1.6567912E-02;  2.7914234E+04;  0.0000000E+00;  1.6015765E-01;  4.0000000E+04;  0.0000000E+00;  3.9892715E+04; -3.6483286E-03;  0.0000000E+00; -1.2919582E-02;  2.0215288E+03;
  7.3026603E-01;  9.9999998E-03;  7.0209123E-02;6875; -1.7269634E-02;  0.0000000E+00;  7.2986069E-03;  9.9653772E+02;  1.2296534E-01; -2.8684094E+03;3; -3.5991549E+00;  0.0000000E+00;  7.5662404E-01;0; -1.1019317E-01;  2.6343879E+04;  0.0000000E+00;  3.3009136E-01;  4.0000000E+04;  0.0000000E+00;  3.9870012E+04; -1.7396986E-01;  0.0000000E+00;  6.3776694E-02;  1.8094835E+03;
  7.3026204E-01;  9.9999998E-03;  8.0237374E-02;6876; -1.6224971E-02;  0.0000000E+00;  8.0090426E-03;  9.9667291E+02;  1.2296711E-01; -2.7564128E+03;3; -3.4345264E+00;  0.0000000E+00;  9.0343571E-01;0; -1.0845327E-01;  2.6350773E+04;  0.0000000E+00;  4.1675976E-01;  4.0000000E+04;  0.0000000E+00;  3.9868547E+04; -1.6644529E-01;  0.0000000E+00;  5.7992008E-02;  1.6942688E+03;
  7.3024106E-01;  9.9999998E-03;  9.0265855E-02;6877; -1.5062170E-02;  0.0000000E+00;  8.6126802E-03;  9.9683594E+02;  1.2296866E-01; -2.6213550E+03;3; -3.2500885E+00;  0.0000000E+00;  1.0329241E+00;0; -1.0628048E-01;  2.6360174E+04;  0.0000000E+00;  5.0000584E-01;  4.0000000E+04;  0.0000000E+00;  3.9866531E+04; -1.5817486E-01;  0.0000000E+00;  5.1894378E-02;  1.5894614E+03;
  7.3020297E-01;  9.9999998E-03;  1.0029424E-01;6878; -1.3794719E-02;  0.0000000E+00;  9.1194967E-03;  9.9703052E+02;  1.2296849E-01; -2.4601746E+03;3; -3.0463350E+00;  0.0000000E+00;  1.1706793E+00;0; -1.0361311E-01;  2.6371441E+04;  0.0000000E+00;  5.7288510E-01;  4.0000000E+04;  0.0000000E+00;  3.9864594E+04; -1.4922696E-01;  0.0000000E+00;  4.5613851E-02;  1.5139567E+03;
  7.3014694E-01;  9.9999998E-03;  1.1032192E-01;6879; -1.2436394E-02;  0.0000000E+00;  9.5234187E-03;  9.9723743E+02;  1.2296793E-01; -2.2887229E+03;3; -2.8266981E+00;  0.0000000E+00;  1.3060858E+00;0; -1.0038732E-01;  2.6383912E+04;  0.0000000E+00;  6.3001782E-01;  4.0000000E+04;  0.0000000E+00;  3.9863035E+04; -1.3966250E-01;  0.0000000E+00;  3.9275184E-02;  1.4699719E+03;
  7.3007625E-01;  9.9999998E-03;  1.2034860E-01;6880; -1.1003153E-02;  0.0000000E+00;  9.8457430E-03;  9.9744678E+02;  1.2296755E-01; -2.1152959E+03;3; -2.6182170E+00;  0.0000000E+00;  1.4040662E+00;0; -9.6543148E-02;  2.6396516E+04;  0.0000000E+00;  6.6943574E-01;  4.0000000E+04;  0.0000000E+00;  3.9861840E+04; -1.2953252E-01;  0.0000000E+00;  3.2989368E-02;  1.4443687E+03;
  7.2999954E-01;  9.9999998E-03;  1.3037392E-01;6881; -9.5091676E-03;  0.0000000E+00;  1.0094418E-02;  9.9764612E+02;  1.2296856E-01; -1.9501649E+03;3; -2.3843124E+00;  0.0000000E+00;  1.5075598E+00;0; -9.2029385E-02;  2.6407402E+04;  0.0000000E+00;  6.9339067E-01;  4.0000000E+04;  0.0000000E+00;  3.9861680E+04; -1.1887713E-01;  0.0000000E+00;  2.6847744E-02;  1.4247794E+03;
  7.2992694E-01;  9.9999998E-03;  1.4039719E-01;6882; -7.9733385E-03;  0.0000000E+00;  1.0269333E-02;  9.9781482E+02;  1.2297343E-01; -1.8103665E+03;3; -2.1833844E+00;  0.0000000E+00;  1.5725813E+00;0; -8.6803816E-02;  2.6414830E+04;  0.0000000E+00;  7.0758593E-01;  4.0000000E+04;  0.0000000E+00;  3.9862109E+04; -1.0772230E-01;  0.0000000E+00;  2.0918489E-02;  1.4177455E+03;
  7.2987086E-01;  9.9999998E-03;  1.5041949E-01;6883; -6.4106537E-03;  0.0000000E+00;  1.0376838E-02;  9.9794208E+02;  1.2298483E-01; -1.7049375E+03;3; -1.9777706E+00;  0.0000000E+00;  1.6278765E+00;0; -8.0831468E-02;  2.6416920E+04;  0.0000000E+00;  7.1899575E-01;  4.0000000E+04;  0.0000000E+00;  3.9863664E+04; -9.6078277E-02;  0.0000000E+00;  1.5246809E-02;  1.4543019E+03;
  7.2984242E-01;  9.9999998E-03;  1.6044149E-01;6884; -4.8376550E-03;  0.0000000E+00;  1.0419561E-02;  9.9801416E+02;  1.2300412E-01; -1.6452356E+03;3; -1.8005010E+00;  0.0000000E+00;  1.6632141E+00;0; -7.4055925E-02;  2.6412172E+04;  0.0000000E+00;  7.3235500E-01;  4.0000000E+04;  0.0000000E+00;  3.9865645E+04; -8.3943605E-02;  0.0000000E+00;  9.8876813E-03;  1.5646232E+03;
  7.2985047E-01;  9.9999998E-03;  1.7046402E-01;6885; -3.2704098E-03;  0.0000000E+00;  1.0403276E-02;  9.9803009E+02;  1.2303509E-01; -1.6320508E+03;3; -1.6432014E+00;  0.0000000E+00;  1.6802241E+00;0; -6.6415414E-02;  2.6399896E+04;  0.0000000E+00;  7.4681056E-01;  4.0000000E+04;  0.0000000E+00;  3.9867871E+04; -7.1321845E-02;  0.0000000E+00;  4.9064290E-03;  1.7322686E+03;
  7.2989714E-01;  9.9999998E-03;  1.8048388E-01;6886; -1.7294955E-03;  0.0000000E+00;  1.0330737E-02;  9.9798572E+02;  1.2307648E-01; -1.6687904E+03;3; -1.5480837E+00;  0.0000000E+00;  1.6591765E+00;0; -5.7894178E-02;  2.6380436E+04;  0.0000000E+00;  7.5635630E-01;  4.0000000E+04;  0.0000000E+00;  3.9869637E+04; -5.8255393E-02;  0.0000000E+00;  3.6121372E-04;  1.8812850E+03;
  7.2997075E-01;  9.9999998E-03;  1.9049755E-01;6887; -2.2841763E-04;  0.0000000E+00;  1.0207072E-02;  9.9788483E+02;  1.2312173E-01; -1.7523929E+03;3; -1.4937416E+00;  0.0000000E+00;  1.6343873E+00;0; -4.8548676E-02;  2.6356322E+04;  0.0000000E+00;  7.5111455E-01;  4.0000000E+04;  0.0000000E+00;  3.9869957E+04; -4.4838600E-02;  0.0000000E+00; -3.7100753E-03;  1.9084352E+03;
  7.3005193E-01;  9.9999998E-03;  2.0050082E-01;6888;  1.2150831E-03;  0.0000000E+00;  1.0030840E-02;  9.9773914E+02;  1.2316874E-01; -1.8730807E+03;3; -1.5052876E+00;  0.0000000E+00;  1.5964963E+00;0; -3.8521133E-02;  2.6331074E+04;  0.0000000E+00;  7.1600920E-01;  4.0000000E+04;  0.0000000E+00;  3.9868805E+04; -3.1223953E-02;  0.0000000E+00; -7.2971825E-03;  1.7365834E+03;
  7.3010767E-01;  9.9999998E-03;  2.1047938E-01;6889;  2.5870944E-03;  0.0000000E+00;  9.8063955E-03;  9.9758698E+02;  1.2320585E-01; -1.9991511E+03;3; -1.5290052E+00;  0.0000000E+00;  1.5626662E+00;0; -2.8045818E-02;  2.6309779E+04;  0.0000000E+00;  6.2638527E-01;  4.0000000E+04;  0.0000000E+00;  3.9867457E+04; -1.7629992E-02;  0.0000000E+00; -1.0415826E-02;  1.4944498E+03;
  7.3013651E-01;  9.9999998E-03;  2.2043800E-01;6890;  3.8813425E-03;  0.0000000E+00;  9.5657082E-03;  9.9748291E+02;  1.2323226E-01; -2.0853708E+03;3; -1.5927451E+00;  0.0000000E+00;  1.5549600E+00;0; -1.7325673E-02;  2.6293318E+04;  0.0000000E+00;  4.4199982E-01;  4.0000000E+04;  0.0000000E+00;  3.9869051E+04; -4.2528212E-03;  0.0000000E+00; -1.3072853E-02;  1.6067759E+03;
  7.3014259E-01;  9.9999998E-03;  2.3040122E-01;6891;  5.1052663E-03;  0.0000000E+00;  9.3611032E-03;  9.9746350E+02;  1.2324934E-01; -2.1014197E+03;3; -1.6461287E+00;  0.0000000E+00;  1.5608956E+00;0; -6.3802432E-03;  2.6281791E+04;  0.0000000E+00;  1.0024884E-01;  4.0000000E+04;  0.0000000E+00;  3.9875160E+04;  8.7492010E-03;  0.0000000E+00; -1.5129444E-02;  2.4400862E+03;
  7.4247873E-01;  9.9999998E-03;  7.0183113E-02;6936; -1.9590713E-02;  0.0000000E+00;  6.7688925E-03;  9.9740576E+02;  1.2682469E-01; -2.1492698E+03;3; -3.4041281E+00;  0.0000000E+00;  8.3623528E-01;0; -1.1980456E-01;  2.4822725E+04;  0.0000000E+00;  3.8396510E-01;  4.0000000E+04;  0.0000000E+00;  3.9851734E+04; -1.7526056E-01;  0.0000000E+00;  5.5455998E-02;  2.1310320E+03;
  7.4245107E-01;  9.9999998E-03;  8.0217019E-02;6937; -1.8415865E-02;  0.0000000E+00;  7.3964759E-03;  9.9746857E+02;  1.2682205E-01; -2.0972219E+03;3; -3.2401595E+00;  0.0000000E+00;  9.7050405E-01;0; -1.1744649E-01;  2.4829059E+04;  0.0000000E+00;  4.8263273E-01;  4.0000000E+04;  0.0000000E+00;  3.9849512E+04; -1.6758269E-01;  0.0000000E+00;  5.0136201E-02;  1.9909791E+03;
  7.4240977E-01;  9.9999998E-03;  9.0252176E-02;6938; -1.7116338E-02;  0.0000000E+00;  7.9302555E-03;  9.9755347E+02;  1.2681964E-01; -2.0269031E+03;3; -3.0367498E+00;  0.0000000E+00;  1.1192150E+00;0; -1.1457551E-01;  2.4836836E+04;  0.0000000E+00;  5.7209206E-01;  4.0000000E+04;  0.0000000E+00;  3.9846887E+04; -1.5913062E-01;  0.0000000E+00;  4.4555113E-02;  1.8678096E+03;
  7.4235344E-01;  9.9999998E-03;  1.0028815E-01;6939; -1.5708001E-02;  0.0000000E+00;  8.3643934E-03;  9.9765594E+02;  1.2681700E-01; -1.9420166E+03;3; -2.8212643E+00;  0.0000000E+00;  1.2793189E+00;0; -1.1112885E-01;  2.4845672E+04;  0.0000000E+00;  6.4161390E-01;  4.0000000E+04;  0.0000000E+00;  3.9844195E+04; -1.4996028E-01;  0.0000000E+00;  3.8831431E-02;  1.7690575E+03;
  7.4228561E-01;  9.9999998E-03;  1.1032375E-01;6940; -1.4206983E-02;  0.0000000E+00;  8.7099448E-03;  9.9777307E+02;  1.2681632E-01; -1.8449825E+03;3; -2.5936279E+00;  0.0000000E+00;  1.4093016E+00;0; -1.0704517E-01;  2.4854432E+04;  0.0000000E+00;  6.8350101E-01;  4.0000000E+04;  0.0000000E+00;  3.9841844E+04; -1.4011735E-01;  0.0000000E+00;  3.3072177E-02;  1.6839840E+03;
  7.4221385E-01;  9.9999998E-03;  1.2035918E-01;6941; -1.2630324E-02;  0.0000000E+00;  8.9805936E-03;  9.9788397E+02;  1.2681842E-01; -1.7530840E+03;3; -2.3600783E+00;  0.0000000E+00;  1.5160800E+00;0; -1.0226409E-01;  2.4861412E+04;  0.0000000E+00;  6.9597536E-01;  4.0000000E+04;  0.0000000E+00;  3.9840004E+04; -1.2963305E-01;  0.0000000E+00;  2.7368963E-02;  1.5913351E+03;
  7.4214655E-01;  9.9999998E-03;  1.3039388E-01;6942; -1.0994874E-02;  0.0000000E+00;  9.1792187E-03;  9.9798334E+02;  1.2682627E-01; -1.6707654E+03;3; -2.1201699E+00;  0.0000000E+00;  1.6257608E+00;0; -9.6727870E-02;  2.4865311E+04;  0.0000000E+00;  6.8420184E-01;  4.0000000E+04;  0.0000000E+00;  3.9838891E+04; -1.1852452E-01;  0.0000000E+00;  2.1796651E-02;  1.4748184E+03;
  7.4209213E-01;  9.9999998E-03;  1.4042526E-01;6943; -9.3173776E-03;  0.0000000E+00;  9.3101058E-03;  9.9805768E+02;  1.2684135E-01; -1.6091870E+03;3; -1.9106916E+00;  0.0000000E+00;  1.6819009E+00;0; -9.0385735E-02;  2.4864764E+04;  0.0000000E+00;  6.5879852E-01;  4.0000000E+04;  0.0000000E+00;  3.9838715E+04; -1.0679522E-01;  0.0000000E+00;  1.6409485E-02;  1.3380662E+03;
  7.4205846E-01;  9.9999998E-03;  1.5045018E-01;6944; -7.6135704E-03;  0.0000000E+00;  9.3750646E-03;  9.9808948E+02;  1.2686396E-01; -1.5828174E+03;3; -1.6694716E+00;  0.0000000E+00;  1.7530653E+00;0; -8.3191842E-02;  2.4858592E+04;  0.0000000E+00;  6.3218689E-01;  4.0000000E+04;  0.0000000E+00;  3.9839586E+04; -9.4432957E-02;  0.0000000E+00;  1.1241116E-02;  1.2156514E+03;
  7.4204862E-01;  9.9999998E-03;  1.6046916E-01;6945; -5.8992864E-03;  0.0000000E+00;  9.3841022E-03;  9.9807153E+02;  1.2689367E-01; -1.5976812E+03;3; -1.4879121E+00;  0.0000000E+00;  1.7745068E+00;0; -7.5078763E-02;  2.4846527E+04;  0.0000000E+00;  6.1310279E-01;  4.0000000E+04;  0.0000000E+00;  3.9841098E+04; -8.1412733E-02;  0.0000000E+00;  6.3339728E-03;  1.1667109E+03;
  7.4206007E-01;  9.9999998E-03;  1.7048298E-01;6946; -4.1912301E-03;  0.0000000E+00;  9.3415556E-03;  9.9800391E+02;  1.2692891E-01; -1.6537289E+03;3; -1.3487906E+00;  0.0000000E+00;  1.7718798E+00;0; -6.5983437E-02;  2.4829348E+04;  0.0000000E+00;  6.0319459E-01;  4.0000000E+04;  0.0000000E+00;  3.9843195E+04; -6.7728490E-02;  0.0000000E+00;  1.7450552E-03;  1.2257185E+03;
  7.4209154E-01;  9.9999998E-03;  1.8049146E-01;6947; -2.5071087E-03;  0.0000000E+00;  9.2507023E-03;  9.9787952E+02;  1.2696859E-01; -1.7567876E+03;3; -1.2643640E+00;  0.0000000E+00;  1.7522008E+00;0; -5.5894777E-02;  2.4807916E+04;  0.0000000E+00;  5.9645128E-01;  4.0000000E+04;  0.0000000E+00;  3.9844945E+04; -5.3422589E-02;  0.0000000E+00; -2.4721867E-03;  1.3493177E+03;
  7.4214399E-01;  9.9999998E-03;  1.9049464E-01;6948; -8.6590688E-04;  0.0000000E+00;  9.1102235E-03;  9.9772070E+02;  1.2701222E-01; -1.8883392E+03;3; -1.1835401E+00;  0.0000000E+00;  1.7262475E+00;0; -4.4874921E-02;  2.4783350E+04;  0.0000000E+00;  5.8031368E-01;  4.0000000E+04;  0.0000000E+00;  3.9846258E+04; -3.8595058E-02;  0.0000000E+00; -6.2798620E-03;  1.4530714E+03;
  7.4217999E-01;  9.9999998E-03;  2.0048034E-01;6949;  7.0280361E-04;  0.0000000E+00;  8.9183748E-03;  9.9754498E+02;  1.2704656E-01; -2.0339152E+03;3; -1.2454520E+00;  0.0000000E+00;  1.6424624E+00;0; -3.3093132E-02;  2.4761053E+04;  0.0000000E+00;  5.3730327E-01;  4.0000000E+04;  0.0000000E+00;  3.9847570E+04; -2.3443386E-02;  0.0000000E+00; -9.6497471E-03;  1.5546355E+03;
  7.4219006E-01;  9.9999998E-03;  2.1045217E-01;6950;  2.1838541E-03;  0.0000000E+00;  8.6839022E-03;  9.9738080E+02;  1.2706946E-01; -2.1699604E+03;3; -1.3463742E+00;  0.0000000E+00;  1.5882010E+00;0; -2.0764433E-02;  2.4742906E+04;  0.0000000E+00;  4.4480744E-01;  4.0000000E+04;  0.0000000E+00;  3.9849973E+04; -8.1802858E-03;  0.0000000E+00; -1.2584148E-02;  1.8370531E+03;
  7.4218571E-01;  9.9999998E-03;  2.2042511E-01;6951;  3.5759448E-03;  0.0000000E+00;  8.4489621E-03;  9.9727448E+02;  1.2708716E-01; -2.2580566E+03;3; -1.4283733E+00;  0.0000000E+00;  1.5770820E+00;0; -8.0385730E-03;  2.4728043E+04;  0.0000000E+00;  2.7569428E-01;  4.0000000E+04;  0.0000000E+00;  3.9855332E+04;  6.9967355E-03;  0.0000000E+00; -1.5035309E-02;  2.5095020E+03;
  7.4215382E-01;  9.9999998E-03;  2.3041539E-01;6952;  4.8788255E-03;  0.0000000E+00;  8.2509853E-03;  9.9721667E+02;  1.2709424E-01; -2.3059072E+03;3; -1.5261960E+00;  0.0000000E+00;  1.5924104E+00;0;  5.0613172E-03;  2.4718191E+04;  0.0000000E+00; -4.6652427E-04;  4.0000000E+04;  0.0000000E+00;  3.9862293E+04;  2.1872206E-02;  0.0000000E+00; -1.6810888E-02;  3.4762476E+03;
  7.5547850E-01;  9.9999998E-03;  7.0186242E-02;6997; -2.1997703E-02;  0.0000000E+00;  5.9371963E-03;  9.9845801E+02;  1.3109747E-01; -1.2774927E+03;3; -3.1825454E+00;  0.0000000E+00;  9.7761852E-01;0; -1.3125275E-01;  2.3290188E+04;  0.0000000E+00;  3.4215382E-01;  4.0000000E+04;  0.0000000E+00;  3.9832652E+04; -1.7629871E-01;  0.0000000E+00;  4.5045957E-02;  2.4792041E+03;
  7.5545567E-01;  9.9999998E-03;  8.0221593E-02;6998; -2.0686751E-02;  0.0000000E+00;  6.4796344E-03;  9.9844379E+02;  1.3109778E-01; -1.2892948E+03;3; -3.0037355E+00;  0.0000000E+00;  1.1197213E+00;0; -1.2818803E-01;  2.3293209E+04;  0.0000000E+00;  4.2900747E-01;  4.0000000E+04;  0.0000000E+00;  3.9830090E+04; -1.6857828E-01;  0.0000000E+00;  4.0390249E-02;  2.2773469E+03;
  7.5539809E-01;  9.9999998E-03;  9.0261161E-02;6999; -1.9241953E-02;  0.0000000E+00;  6.9354870E-03;  9.9842963E+02;  1.3109300E-01; -1.3009982E+03;3; -2.8064659E+00;  0.0000000E+00;  1.2746671E+00;0; -1.2450257E-01;  2.3298539E+04;  0.0000000E+00;  5.0233620E-01;  4.0000000E+04;  0.0000000E+00;  3.9827027E+04; -1.6004713E-01;  0.0000000E+00;  3.5544559E-02;  2.0663335E+03;
  7.5531191E-01;  9.9999998E-03;  1.0030147E-01;7000; -1.7680954E-02;  0.0000000E+00;  7.3020947E-03;  9.9841534E+02;  1.3108547E-01; -1.3128497E+03;3; -2.5878153E+00;  0.0000000E+00;  1.4093474E+00;0; -1.2014458E-01;  2.3305154E+04;  0.0000000E+00;  5.4935896E-01;  4.0000000E+04;  0.0000000E+00;  3.9823727E+04; -1.5074712E-01;  0.0000000E+00;  3.0602543E-02;  1.8537667E+03;
  7.5520861E-01;  9.9999998E-03;  1.1033657E-01;7001; -1.6026376E-02;  0.0000000E+00;  7.5994912E-03;  9.9840253E+02;  1.3107891E-01; -1.3234667E+03;3; -2.3621504E+00;  0.0000000E+00;  1.5088511E+00;0; -1.1506509E-01;  2.3311658E+04;  0.0000000E+00;  5.6143236E-01;  4.0000000E+04;  0.0000000E+00;  3.9820566E+04; -1.4071077E-01;  0.0000000E+00;  2.5645681E-02;  1.6388397E+03;
  7.5509495E-01;  9.9999998E-03;  1.2036457E-01;7002; -1.4294729E-02;  0.0000000E+00;  7.8292498E-03;  9.9838647E+02;  1.3107409E-01; -1.3367502E+03;3; -2.1104918E+00;  0.0000000E+00;  1.6401721E+00;0; -1.0920714E-01;  2.3316855E+04;  0.0000000E+00;  5.3803402E-01;  4.0000000E+04;  0.0000000E+00;  3.9817852E+04; -1.2995216E-01;  0.0000000E+00;  2.0745028E-02;  1.4148622E+03;
  7.5498110E-01;  9.9999998E-03;  1.3038972E-01;7003; -1.2503397E-02;  0.0000000E+00;  7.9948371E-03;  9.9835968E+02;  1.3107230E-01; -1.3589718E+03;3; -1.8534650E+00;  0.0000000E+00;  1.7468915E+00;0; -1.0251072E-01;  2.3319801E+04;  0.0000000E+00;  4.8773655E-01;  4.0000000E+04;  0.0000000E+00;  3.9815949E+04; -1.1846203E-01;  0.0000000E+00;  1.5951304E-02;  1.1770083E+03;
  7.5487953E-01;  9.9999998E-03;  1.4041291E-01;7004; -1.0668381E-02;  0.0000000E+00;  8.0985911E-03;  9.9830939E+02;  1.3107625E-01; -1.4006495E+03;3; -1.6054271E+00;  0.0000000E+00;  1.8324385E+00;0; -9.4919659E-02;  2.3319150E+04;  0.0000000E+00;  4.2579779E-01;  4.0000000E+04;  0.0000000E+00;  3.9814902E+04; -1.0621640E-01;  0.0000000E+00;  1.1296741E-02;  9.2730414E+02;
  7.5480074E-01;  9.9999998E-03;  1.5043241E-01;7005; -8.8069672E-03;  0.0000000E+00;  8.1452979E-03;  9.9823242E+02;  1.3108575E-01; -1.4644008E+03;3; -1.3744712E+00;  0.0000000E+00;  1.8877343E+00;0; -8.6380161E-02;  2.3313871E+04;  0.0000000E+00;  3.6917037E-01;  4.0000000E+04;  0.0000000E+00;  3.9815000E+04; -9.3177602E-02;  0.0000000E+00;  6.7974380E-03;  6.8018976E+02;
  7.5478470E-01;  9.9999998E-03;  1.6044602E-01;7006; -6.9328025E-03;  0.0000000E+00;  8.1420876E-03;  9.9813397E+02;  1.3111444E-01; -1.5459785E+03;3; -1.1651706E+00;  0.0000000E+00;  1.9307648E+00;0; -7.6826729E-02;  2.3300389E+04;  0.0000000E+00;  3.2899243E-01;  4.0000000E+04;  0.0000000E+00;  3.9815957E+04; -7.9298593E-02;  0.0000000E+00;  2.4718654E-03;  4.8585425E+02;
  7.5484645E-01;  9.9999998E-03;  1.7045134E-01;7007; -5.0677839E-03;  0.0000000E+00;  8.0837952E-03;  9.9801093E+02;  1.3116385E-01; -1.6479014E+03;3; -1.0057762E+00;  0.0000000E+00;  1.9271226E+00;0; -6.6184744E-02;  2.3277717E+04;  0.0000000E+00;  3.0790371E-01;  4.0000000E+04;  0.0000000E+00;  3.9817328E+04; -6.4554811E-02;  0.0000000E+00; -1.6299301E-03;  4.7143533E+02;
  7.5494552E-01;  9.9999998E-03;  1.8045118E-01;7008; -3.2258886E-03;  0.0000000E+00;  7.9753334E-03;  9.9785852E+02;  1.3122156E-01; -1.7741692E+03;3; -8.7863421E-01;  0.0000000E+00;  1.9106202E+00;0; -5.4420680E-02;  2.3249934E+04;  0.0000000E+00;  2.9943982E-01;  4.0000000E+04;  0.0000000E+00;  3.9819094E+04; -4.8980229E-02;  0.0000000E+00; -5.4404517E-03;  6.6649677E+02;
  7.5506306E-01;  9.9999998E-03;  1.9044733E-01;7009; -1.4302053E-03;  0.0000000E+00;  7.8171995E-03;  9.9768787E+02;  1.3128249E-01; -1.9155477E+03;3; -8.5108298E-01;  0.0000000E+00;  1.8740076E+00;0; -4.1588306E-02;  2.3219381E+04;  0.0000000E+00;  2.8811181E-01;  4.0000000E+04;  0.0000000E+00;  3.9821219E+04; -3.2681365E-02;  0.0000000E+00; -8.9069409E-03;  9.7130347E+02;
  7.5517505E-01;  9.9999998E-03;  2.0043717E-01;7010;  2.9696416E-04;  0.0000000E+00;  7.6122568E-03;  9.9750897E+02;  1.3133937E-01; -2.0637903E+03;3; -8.1525213E-01;  0.0000000E+00;  1.8606837E+00;0; -2.7830627E-02;  2.3189359E+04;  0.0000000E+00;  2.5437537E-01;  4.0000000E+04;  0.0000000E+00;  3.9824254E+04; -1.5844183E-02;  0.0000000E+00; -1.1986444E-02;  1.4078577E+03;
  7.5526619E-01;  9.9999998E-03;  2.1042988E-01;7011;  1.9203096E-03;  0.0000000E+00;  7.3709427E-03;  9.9735382E+02;  1.3138728E-01; -2.1923296E+03;3; -9.6068722E-01;  0.0000000E+00;  1.8236769E+00;0; -1.3329035E-02;  2.3161908E+04;  0.0000000E+00;  1.8089552E-01;  4.0000000E+04;  0.0000000E+00;  3.9828727E+04;  1.3121353E-03;  0.0000000E+00; -1.4641169E-02;  2.0449421E+03;
  7.5533611E-01;  9.9999998E-03;  2.2043370E-01;7012;  3.4410772E-03;  0.0000000E+00;  7.1253907E-03;  9.9723071E+02;  1.3142803E-01; -2.2943018E+03;3; -1.1441722E+00;  0.0000000E+00;  1.7291200E+00;0;  1.7710589E-03;  2.3137980E+04;  0.0000000E+00;  6.0095735E-02;  4.0000000E+04;  0.0000000E+00;  3.9834602E+04;  1.8545343E-02;  0.0000000E+00; -1.6774284E-02;  2.8712000E+03;
  7.5537604E-01;  9.9999998E-03;  2.3045364E-01;7013;  4.8369565E-03;  0.0000000E+00;  6.8813465E-03;  9.9712811E+02;  1.3145682E-01; -2.3792869E+03;3; -1.3640752E+00;  0.0000000E+00;  1.6704626E+00;0;  1.7360615E-02;  2.3119023E+04;  0.0000000E+00; -9.5210962E-02;  4.0000000E+04;  0.0000000E+00;  3.9840387E+04;  3.5598759E-02;  0.0000000E+00; -1.8238144E-02;  3.6625471E+03;
  7.6954830E-01;  9.9999998E-03;  7.0041843E-02;7058; -2.4542477E-02;  0.0000000E+00;  4.7109956E-03;  9.9969049E+02;  1.3597657E-01; -2.5643668E+02;3; -2.9823163E+00;  0.0000000E+00;  1.0437042E+00;0; -1.4569995E-01;  2.1709059E+04;  0.0000000E+00;  1.8750384E-01;  4.0000000E+04;  0.0000000E+00;  3.9811934E+04; -1.7758110E-01;  0.0000000E+00;  3.1881150E-02;  2.8120151E+03;
  7.6944906E-01;  9.9999998E-03;  8.0062002E-02;7059; -2.3081850E-02;  0.0000000E+00;  5.1517934E-03;  9.9960364E+02;  1.3596080E-01; -3.2838513E+02;3; -2.7978287E+00;  0.0000000E+00;  1.2246470E+00;0; -1.4175016E-01;  2.1715701E+04;  0.0000000E+00;  2.3673609E-01;  4.0000000E+04;  0.0000000E+00;  3.9809484E+04; -1.6997039E-01;  0.0000000E+00;  2.8220229E-02;  2.5532622E+03;
  7.6931363E-01;  9.9999998E-03;  9.0088256E-02;7060; -2.1479772E-02;  0.0000000E+00;  5.5183875E-03;  9.9949780E+02;  1.3593656E-01; -4.1603683E+02;3; -2.5970697E+00;  0.0000000E+00;  1.3622619E+00;0; -1.3709594E-01;  2.1724490E+04;  0.0000000E+00;  2.7308840E-01;  4.0000000E+04;  0.0000000E+00;  3.9806535E+04; -1.6151451E-01;  0.0000000E+00;  2.4418566E-02;  2.2288235E+03;
  7.6914138E-01;  9.9999998E-03;  1.0011992E-01;7061; -1.9756082E-02;  0.0000000E+00;  5.8320928E-03;  9.9938055E+02;  1.3590516E-01; -5.1321906E+02;3; -2.3648903E+00;  0.0000000E+00;  1.5026498E+00;0; -1.3168465E-01;  2.1735535E+04;  0.0000000E+00;  2.8515774E-01;  4.0000000E+04;  0.0000000E+00;  3.9803180E+04; -1.5223330E-01;  0.0000000E+00;  2.0548651E-02;  1.8430205E+03;
  7.6894456E-01;  9.9999998E-03;  1.1015907E-01;7062; -1.7931538E-02;  0.0000000E+00;  6.0949661E-03;  9.9925537E+02;  1.3587196E-01; -6.1691968E+02;3; -2.1096127E+00;  0.0000000E+00;  1.6582928E+00;0; -1.2546919E-01;  2.1747598E+04;  0.0000000E+00;  2.6515442E-01;  4.0000000E+04;  0.0000000E+00;  3.9799422E+04; -1.4213011E-01;  0.0000000E+00;  1.6660916E-02;  1.4127209E+03;
  7.6874971E-01;  9.9999998E-03;  1.2020073E-01;7063; -1.6026996E-02;  0.0000000E+00;  6.3020079E-03;  9.9913416E+02;  1.3584073E-01; -7.1731171E+02;3; -1.8315314E+00;  0.0000000E+00;  1.8129339E+00;0; -1.1841190E-01;  2.1757998E+04;  0.0000000E+00;  2.1290898E-01;  4.0000000E+04;  0.0000000E+00;  3.9796000E+04; -1.3120228E-01;  0.0000000E+00;  1.2790384E-02;  9.6625189E+02;
  7.6861078E-01;  9.9999998E-03;  1.3023984E-01;7064; -1.4067393E-02;  0.0000000E+00;  6.4487751E-03;  9.9901855E+02;  1.3582994E-01; -8.1311127E+02;3; -1.5687675E+00;  0.0000000E+00;  1.9224331E+00;0; -1.1048366E-01;  2.1761924E+04;  0.0000000E+00;  1.3754772E-01;  4.0000000E+04;  0.0000000E+00;  3.9793098E+04; -1.1943400E-01;  0.0000000E+00;  8.9503368E-03;  5.3576221E+02;
  7.6858538E-01;  9.9999998E-03;  1.4027549E-01;7065; -1.2069445E-02;  0.0000000E+00;  6.5341215E-03;  9.9893591E+02;  1.3585638E-01; -8.8155365E+02;3; -1.2801064E+00;  0.0000000E+00;  2.0473111E+00;0; -1.0163728E-01;  2.1754240E+04;  0.0000000E+00;  5.5855367E-02;  4.0000000E+04;  0.0000000E+00;  3.9791043E+04; -1.0678440E-01;  0.0000000E+00;  5.1471186E-03;  1.5389824E+02;
  7.6858783E-01;  9.9999998E-03;  1.5030830E-01;7066; -1.0035389E-02;  0.0000000E+00;  6.5718913E-03;  9.9884338E+02;  1.3588943E-01; -9.5824268E+02;3; -1.0049627E+00;  0.0000000E+00;  2.1323724E+00;0; -9.1737643E-02;  2.1742473E+04;  0.0000000E+00; -1.0691419E-02;  4.0000000E+04;  0.0000000E+00;  3.9790000E+04; -9.3178764E-02;  0.0000000E+00;  1.4411233E-03;  1.6538902E+02;
  7.6859707E-01;  9.9999998E-03;  1.6033757E-01;7067; -7.9758642E-03;  0.0000000E+00;  6.5705385E-03;  9.9872870E+02;  1.3592249E-01; -1.0532522E+03;3; -7.4116123E-01;  0.0000000E+00;  2.1995168E+00;0; -8.0696665E-02;  2.1728516E+04;  0.0000000E+00; -4.8405513E-02;  4.0000000E+04;  0.0000000E+00;  3.9790074E+04; -7.8551903E-02;  0.0000000E+00; -2.1447623E-03;  3.8610059E+02;
  7.6861495E-01;  9.9999998E-03;  1.7036490E-01;7068; -5.9081228E-03;  0.0000000E+00;  6.5318481E-03;  9.9858783E+02;  1.3595586E-01; -1.1699401E+03;3; -5.5866385E-01;  0.0000000E+00;  2.2052493E+00;0; -6.8451524E-02;  2.1712162E+04;  0.0000000E+00; -5.5180550E-02;  4.0000000E+04;  0.0000000E+00;  3.9790742E+04; -6.2875517E-02;  0.0000000E+00; -5.5760099E-03;  5.5293274E+02;
  7.6869953E-01;  9.9999998E-03;  1.8038319E-01;7069; -3.8545132E-03;  0.0000000E+00;  6.4452933E-03;  9.9844708E+02;  1.3600737E-01; -1.2865785E+03;3; -3.7883216E-01;  0.0000000E+00;  2.2210827E+00;0; -5.5006050E-02;  2.1688744E+04;  0.0000000E+00; -4.1656893E-02;  4.0000000E+04;  0.0000000E+00;  3.9792605E+04; -4.6196956E-02;  0.0000000E+00; -8.8090943E-03;  7.3586566E+02;
  7.6882237E-01;  9.9999998E-03;  1.9039840E-01;7070; -1.8389220E-03;  0.0000000E+00;  6.3108499E-03;  9.9830420E+02;  1.3606787E-01; -1.4049453E+03;3; -2.9785997E-01;  0.0000000E+00;  2.2039287E+00;0; -4.0380776E-02;  2.1661219E+04;  0.0000000E+00; -2.7187631E-02;  4.0000000E+04;  0.0000000E+00;  3.9795176E+04; -2.8617801E-02;  0.0000000E+00; -1.1762977E-02;  1.0285664E+03;
  7.6895738E-01;  9.9999998E-03;  2.0041345E-01;7071;  1.1597647E-04;  0.0000000E+00;  6.1317855E-03;  9.9816852E+02;  1.3612954E-01; -1.5173369E+03;3; -2.7486172E-01;  0.0000000E+00;  2.1915543E+00;0; -2.4670318E-02;  2.1632562E+04;  0.0000000E+00; -3.4989424E-02;  4.0000000E+04;  0.0000000E+00;  3.9799086E+04; -1.0319795E-02;  0.0000000E+00; -1.4350521E-02;  1.5120038E+03;
  7.6909524E-01;  9.9999998E-03;  2.1044225E-01;7072;  1.9514629E-03;  0.0000000E+00;  5.9042634E-03;  9.9805206E+02;  1.3618739E-01; -1.6138279E+03;3; -4.1570908E-01;  0.0000000E+00;  2.1273139E+00;0; -7.9965936E-03;  2.1604391E+04;  0.0000000E+00; -8.2725964E-02;  4.0000000E+04;  0.0000000E+00;  3.9803688E+04;  8.4895371E-03;  0.0000000E+00; -1.6486131E-02;  2.1252991E+03;
  7.6923132E-01;  9.9999998E-03;  2.2048590E-01;7073;  3.6602879E-03;  0.0000000E+00;  5.6349668E-03;  9.9793573E+02;  1.3624454E-01; -1.7102200E+03;3; -6.0806030E-01;  0.0000000E+00;  2.0851195E+00;0;  9.4781164E-03;  2.1577562E+04;  0.0000000E+00; -1.7186338E-01;  4.0000000E+04;  0.0000000E+00;  3.9807301E+04;  2.7538732E-02;  0.0000000E+00; -1.8060615E-02;  2.6521670E+03;
  7.6931202E-01;  9.9999998E-03;  2.3053817E-01;7074;  5.2130949E-03;  0.0000000E+00;  5.3135436E-03;  9.9778870E+02;  1.3628069E-01; -1.8320435E+03;3; -7.9087281E-01;  0.0000000E+00;  2.1002777E+00;0;  2.7505394E-02;  2.1557344E+04;  0.0000000E+00; -2.7239597E-01;  4.0000000E+04;  0.0000000E+00;  3.9807699E+04;  4.6509337E-02;  0.0000000E+00; -1.9003943E-02;  2.7875481E+03;
  7.8308797E-01;  9.9999998E-03;  7.0017450E-02;7119; -2.6943909E-02;  0.0000000E+00;  3.2491498E-03;  1.0004241E+03;  1.4106424E-01;  3.5129788E+02;3; -2.8105552E+00;  0.0000000E+00;  1.1051097E+00;0; -1.6200429E-01;  2.0206727E+04;  0.0000000E+00; -2.0446287E-02;  4.0000000E+04;  0.0000000E+00;  3.9789324E+04; -1.7907828E-01;  0.0000000E+00;  1.7073985E-02;  2.9942944E+03;
  7.8306574E-01;  9.9999998E-03;  8.0005169E-02;7120; -2.5370512E-02;  0.0000000E+00;  3.5488848E-03;  1.0003705E+03;  1.4106974E-01;  3.0695355E+02;3; -2.6252015E+00;  0.0000000E+00;  1.2831584E+00;0; -1.5735376E-01;  2.0208523E+04;  0.0000000E+00; -2.3313109E-02;  4.0000000E+04;  0.0000000E+00;  3.9787871E+04; -1.7172904E-01;  0.0000000E+00;  1.4375285E-02;  2.8058713E+03;
  7.8312188E-01;  9.9999998E-03;  9.0001069E-02;7121; -2.3664322E-02;  0.0000000E+00;  3.7933339E-03;  1.0003303E+03;  1.4110643E-01;  2.7367062E+02;3; -2.4094861E+00;  0.0000000E+00;  1.4407043E+00;0; -1.5204574E-01;  2.0202316E+04;  0.0000000E+00; -3.7310984E-02;  4.0000000E+04;  0.0000000E+00;  3.9785477E+04; -1.6353673E-01;  0.0000000E+00;  1.1490984E-02;  2.5173618E+03;
  7.8317237E-01;  9.9999998E-03;  1.0001327E-01;7122; -2.1828949E-02;  0.0000000E+00;  3.9990800E-03;  1.0002803E+03;  1.4114805E-01;  2.3219041E+02;3; -2.1635787E+00;  0.0000000E+00;  1.5941137E+00;0; -1.4591175E-01;  2.0195486E+04;  0.0000000E+00; -6.7946695E-02;  4.0000000E+04;  0.0000000E+00;  3.9782105E+04; -1.5448546E-01;  0.0000000E+00;  8.5737053E-03;  2.1220046E+03;
  7.8317213E-01;  9.9999998E-03;  1.1004440E-01;7123; -1.9876147E-02;  0.0000000E+00;  4.1733608E-03;  1.0002084E+03;  1.4117557E-01;  1.7263669E+02;3; -1.8922004E+00;  0.0000000E+00;  1.7629634E+00;0; -1.3884161E-01;  2.0191875E+04;  0.0000000E+00; -1.1811844E-01;  4.0000000E+04;  0.0000000E+00;  3.9778344E+04; -1.4454710E-01;  0.0000000E+00;  5.7054972E-03;  1.6521912E+03;
  7.8313732E-01;  9.9999998E-03;  1.2008942E-01;7124; -1.7826803E-02;  0.0000000E+00;  4.3158103E-03;  1.0001289E+03;  1.4119343E-01;  1.0676216E+02;3; -1.5926497E+00;  0.0000000E+00;  1.9347801E+00;0; -1.3079742E-01;  2.0190535E+04;  0.0000000E+00; -1.8583608E-01;  4.0000000E+04;  0.0000000E+00;  3.9774527E+04; -1.3369358E-01;  0.0000000E+00;  2.8961657E-03;  1.1927617E+03;
  7.8308958E-01;  9.9999998E-03;  1.3013823E-01;7125; -1.5702061E-02;  0.0000000E+00;  4.4258139E-03;  1.0000507E+03;  1.4120543E-01;  4.1974022E+01;3; -1.2811048E+00;  0.0000000E+00;  2.1099310E+00;0; -1.2174539E-01;  2.0189754E+04;  0.0000000E+00; -2.6150835E-01;  4.0000000E+04;  0.0000000E+00;  3.9771004E+04; -1.2189087E-01;  0.0000000E+00;  1.4548507E-04;  8.8945905E+02;
  7.8304619E-01;  9.9999998E-03;  1.4018705E-01;7126; -1.3517120E-02;  0.0000000E+00;  4.5046858E-03;  9.9997485E+02;  1.4121808E-01; -2.0838867E+01;3; -9.4541812E-01;  0.0000000E+00;  2.2937992E+00;0; -1.1163917E-01;  2.0187895E+04;  0.0000000E+00; -3.2961959E-01;  4.0000000E+04;  0.0000000E+00;  3.9767809E+04; -1.0908391E-01;  0.0000000E+00; -2.5552553E-03;  8.7591547E+02;
  7.8301156E-01;  9.9999998E-03;  1.5023111E-01;7127; -1.1284983E-02;  0.0000000E+00;  4.5551038E-03;  9.9989417E+02;  1.4123148E-01; -8.7701019E+01;3; -6.1914021E-01;  0.0000000E+00;  2.4457295E+00;0; -1.0042483E-01;  2.0184109E+04;  0.0000000E+00; -3.7368307E-01;  4.0000000E+04;  0.0000000E+00;  3.9765984E+04; -9.5204785E-02;  0.0000000E+00; -5.2200495E-03;  1.0405468E+03;
  7.8299117E-01;  9.9999998E-03;  1.6026975E-01;7128; -9.0150451E-03;  0.0000000E+00;  4.5816205E-03;  9.9980878E+02;  1.4124838E-01; -1.5841490E+02;3; -2.9772654E-01;  0.0000000E+00;  2.5790517E+00;0; -8.8040076E-02;  2.0177629E+04;  0.0000000E+00; -3.8250738E-01;  4.0000000E+04;  0.0000000E+00;  3.9764965E+04; -8.0185719E-02;  0.0000000E+00; -7.8543592E-03;  1.1950709E+03;
  7.8299814E-01;  9.9999998E-03;  1.7031154E-01;7129; -6.7156884E-03;  0.0000000E+00;  4.5858403E-03;  9.9971802E+02;  1.4127026E-01; -2.3362248E+02;3;  3.1861011E-02;  0.0000000E+00;  2.7064104E+00;0; -7.4425124E-02;  2.0167340E+04;  0.0000000E+00; -3.5541525E-01;  4.0000000E+04;  0.0000000E+00;  3.9765125E+04; -6.3990280E-02;  0.0000000E+00; -1.0434841E-02;  1.2718092E+03;
  7.8304946E-01;  9.9999998E-03;  1.8035737E-01;7130; -4.4039423E-03;  0.0000000E+00;  4.5630401E-03;  9.9962891E+02;  1.4130592E-01; -3.0744739E+02;3;  2.8020218E-01;  0.0000000E+00;  2.7670996E+00;0; -5.9559796E-02;  2.0152023E+04;  0.0000000E+00; -3.0439827E-01;  4.0000000E+04;  0.0000000E+00;  3.9766684E+04; -4.6664521E-02;  0.0000000E+00; -1.2895276E-02;  1.3048942E+03;
  7.8316742E-01;  9.9999998E-03;  1.9040191E-01;7131; -2.0895754E-03;  0.0000000E+00;  4.5137163E-03;  9.9955487E+02;  1.4135993E-01; -3.6877884E+02;3;  5.2810574E-01;  0.0000000E+00;  2.8492997E+00;0; -4.3471061E-02;  2.0130035E+04;  0.0000000E+00; -2.5182918E-01;  4.0000000E+04;  0.0000000E+00;  3.9769281E+04; -2.8347367E-02;  0.0000000E+00; -1.5123691E-02;  1.4048969E+03;
  7.8334224E-01;  9.9999998E-03;  2.0044458E-01;7132;  2.0545357E-04;  0.0000000E+00;  4.4364929E-03;  9.9950287E+02;  1.4143266E-01; -4.1183923E+02;3;  7.2250402E-01;  0.0000000E+00;  2.8784220E+00;0; -2.6185788E-02;  2.0102627E+04;  0.0000000E+00; -2.2410381E-01;  4.0000000E+04;  0.0000000E+00;  3.9772891E+04; -9.2370836E-03;  0.0000000E+00; -1.6948706E-02;  1.6975671E+03;
  7.8355753E-01;  9.9999998E-03;  2.1050271E-01;7133;  2.4832305E-03;  0.0000000E+00;  4.3449346E-03;  9.9945941E+02;  1.4151636E-01; -4.4788751E+02;3;  9.2532682E-01;  0.0000000E+00;  2.9270663E+00;0; -7.6833116E-03;  2.0071637E+04;  0.0000000E+00; -2.4347623E-01;  4.0000000E+04;  0.0000000E+00;  3.9776137E+04;  1.0444329E-02;  0.0000000E+00; -1.8127641E-02;  2.0892581E+03;
  7.8377211E-01;  9.9999998E-03;  2.2057776E-01;7134;  4.7856537E-03;  0.0000000E+00;  4.2169220E-03;  9.9937915E+02;  1.4160019E-01; -5.1435461E+02;3;  1.3378630E+00;  0.0000000E+00;  2.9836228E+00;0;  1.2037989E-02;  2.0041344E+04;  0.0000000E+00; -3.1872568E-01;  4.0000000E+04;  0.0000000E+00;  3.9775965E+04;  3.0401258E-02;  0.0000000E+00; -1.8363269E-02;  2.2024595E+03;
  7.8392518E-01;  9.9999998E-03;  2.3064932E-01;7135;  7.2272946E-03;  0.0000000E+00;  3.9434363E-03;  9.9922852E+02;  1.4166120E-01; -6.3914093E+02;3;  2.4131477E+00;  0.0000000E+00;  3.0770812E+00;0;  3.2624446E-02;  2.0017441E+04;  0.0000000E+00; -4.3093020E-01;  4.0000000E+04;  0.0000000E+00;  3.9770895E+04;  5.0251152E-02;  0.0000000E+00; -1.7626707E-02;  1.8902438E+03;
  7.9716879E-01;  9.9999998E-03;  7.0119023E-02;7180; -2.9438712E-02;  0.0000000E+00;  1.4612993E-03;  1.0002665E+03;  1.4666529E-01;  2.2083263E+02;3; -2.6707044E+00;  0.0000000E+00;  1.1342286E+00;0; -1.8162224E-01;  1.8697332E+04;  0.0000000E+00; -2.3309727E-01;  4.0000000E+04;  0.0000000E+00;  3.9762414E+04; -1.8096250E-01;  0.0000000E+00; -6.5973814E-04;  3.0294202E+03;
  7.9719627E-01;  9.9999998E-03;  8.0103070E-02;7181; -2.7750034E-02;  0.0000000E+00;  1.5950196E-03;  1.0003052E+03;  1.4669688E-01;  2.5283163E+02;3; -2.4749260E+00;  0.0000000E+00;  1.2986555E+00;0; -1.7623556E-01;  1.8695482E+04;  0.0000000E+00; -2.8648975E-01;  4.0000000E+04;  0.0000000E+00;  3.9762176E+04; -1.7399153E-01;  0.0000000E+00; -2.2440259E-03;  3.0455513E+03;
  7.9722792E-01;  9.9999998E-03;  9.0087906E-02;7182; -2.5908392E-02;  0.0000000E+00;  1.7101992E-03;  1.0003372E+03;  1.4673065E-01;  2.7939871E+02;3; -2.2492352E+00;  0.0000000E+00;  1.4724492E+00;0; -1.7004210E-01;  1.8693273E+04;  0.0000000E+00; -3.4201020E-01;  4.0000000E+04;  0.0000000E+00;  3.9761414E+04; -1.6617107E-01;  0.0000000E+00; -3.8710295E-03;  2.9747544E+03;
  7.9725862E-01;  9.9999998E-03;  1.0008783E-01;7183; -2.3930416E-02;  0.0000000E+00;  1.8055371E-03;  1.0003655E+03;  1.4676490E-01;  3.0280539E+02;3; -1.9936919E+00;  0.0000000E+00;  1.6509942E+00;0; -1.6298372E-01;  1.8691123E+04;  0.0000000E+00; -4.0054753E-01;  4.0000000E+04;  0.0000000E+00;  3.9759676E+04; -1.5747958E-01;  0.0000000E+00; -5.5041346E-03;  2.7884106E+03;
  7.9729229E-01;  9.9999998E-03;  1.1011167E-01;7184; -2.1833356E-02;  0.0000000E+00;  1.8799866E-03;  1.0003912E+03;  1.4680018E-01;  3.2413806E+02;3; -1.7089243E+00;  0.0000000E+00;  1.8303721E+00;0; -1.5500771E-01;  1.8688922E+04;  0.0000000E+00; -4.6193585E-01;  4.0000000E+04;  0.0000000E+00;  3.9756496E+04; -1.4788225E-01;  0.0000000E+00; -7.1254480E-03;  2.5115640E+03;
  7.9730815E-01;  9.9999998E-03;  1.2015816E-01;7185; -1.9630866E-02;  0.0000000E+00;  1.9387682E-03;  1.0004148E+03;  1.4682847E-01;  3.4369299E+02;3; -1.3914926E+00;  0.0000000E+00;  2.0248823E+00;0; -1.4603154E-01;  1.8688318E+04;  0.0000000E+00; -5.2247500E-01;  4.0000000E+04;  0.0000000E+00;  3.9753043E+04; -1.3732906E-01;  0.0000000E+00; -8.7024840E-03;  2.2158984E+03;
  7.9728496E-01;  9.9999998E-03;  1.3021272E-01;7186; -1.7338289E-02;  0.0000000E+00;  1.9890426E-03;  1.0004298E+03;  1.4684016E-01;  3.5613705E+02;3; -1.0464754E+00;  0.0000000E+00;  2.2187467E+00;0; -1.3598938E-01;  1.8690898E+04;  0.0000000E+00; -5.7452041E-01;  4.0000000E+04;  0.0000000E+00;  3.9749398E+04; -1.2577030E-01;  0.0000000E+00; -1.0219084E-02;  1.9850933E+03;
  7.9723477E-01;  9.9999998E-03;  1.4025871E-01;7187; -1.4973904E-02;  0.0000000E+00;  2.0334802E-03;  1.0004420E+03;  1.4684026E-01;  3.6611206E+02;3; -6.7385554E-01;  0.0000000E+00;  2.4291422E+00;0; -1.2486512E-01;  1.8695096E+04;  0.0000000E+00; -6.0807043E-01;  4.0000000E+04;  0.0000000E+00;  3.9746285E+04; -1.1316145E-01;  0.0000000E+00; -1.1703672E-02;  1.8570326E+03;
  7.9718995E-01;  9.9999998E-03;  1.5030479E-01;7188; -1.2549677E-02;  0.0000000E+00;  2.0699191E-03;  1.0004474E+03;  1.4684093E-01;  3.7065512E+02;3; -3.0069473E-01;  0.0000000E+00;  2.6036472E+00;0; -1.1264057E-01;  1.8697436E+04;  0.0000000E+00; -6.1365747E-01;  4.0000000E+04;  0.0000000E+00;  3.9744027E+04; -9.9428982E-02;  0.0000000E+00; -1.3211588E-02;  1.8017437E+03;
  7.9718614E-01;  9.9999998E-03;  1.6035847E-01;7189; -1.0072924E-02;  0.0000000E+00;  2.0961005E-03;  1.0004536E+03;  1.4685500E-01;  3.7579077E+02;3;  9.7958438E-02;  0.0000000E+00;  2.7966113E+00;0; -9.9293001E-02;  1.8694877E+04;  0.0000000E+00; -5.8524966E-01;  4.0000000E+04;  0.0000000E+00;  3.9742406E+04; -8.4512174E-02;  0.0000000E+00; -1.4780824E-02;  1.7598284E+03;
  7.9725480E-01;  9.9999998E-03;  1.7041951E-01;7190; -7.5473604E-03;  0.0000000E+00;  2.1132866E-03;  1.0004680E+03;  1.4689271E-01;  3.8774100E+02;3;  5.1314306E-01;  0.0000000E+00;  3.0096571E+00;0; -8.4809102E-02;  1.8684199E+04;  0.0000000E+00; -5.2447528E-01;  4.0000000E+04;  0.0000000E+00;  3.9741996E+04; -6.8411335E-02;  0.0000000E+00; -1.6397765E-02;  1.6905055E+03;
  7.9741490E-01;  9.9999998E-03;  1.8048637E-01;7191; -4.9764700E-03;  0.0000000E+00;  2.1183619E-03;  1.0004822E+03;  1.4696252E-01;  3.9949374E+02;3;  9.2809045E-01;  0.0000000E+00;  3.2027011E+00;0; -6.9184706E-02;  1.8664232E+04;  0.0000000E+00; -4.4336697E-01;  4.0000000E+04;  0.0000000E+00;  3.9742266E+04; -5.1204368E-02;  0.0000000E+00; -1.7980341E-02;  1.6022064E+03;
  7.9766732E-01;  9.9999998E-03;  1.9055744E-01;7192; -2.3504647E-03;  0.0000000E+00;  2.1229708E-03;  1.0004998E+03;  1.4706363E-01;  4.1401181E+02;3;  1.4149312E+00;  0.0000000E+00;  3.4698269E+00;0; -5.2417919E-02;  1.8635176E+04;  0.0000000E+00; -3.6228985E-01;  4.0000000E+04;  0.0000000E+00;  3.9742832E+04; -3.3054192E-02;  0.0000000E+00; -1.9363727E-02;  1.5296666E+03;
  7.9798704E-01;  9.9999998E-03;  2.0062560E-01;7193;  3.4660965E-04;  0.0000000E+00;  2.1338593E-03;  1.0005087E+03;  1.4718755E-01;  4.2151773E+02;3;  2.0318770E+00;  0.0000000E+00;  3.7664003E+00;0; -3.4485314E-02;  1.8599768E+04;  0.0000000E+00; -3.0451298E-01;  4.0000000E+04;  0.0000000E+00;  3.9742707E+04; -1.4200701E-02;  0.0000000E+00; -2.0284612E-02;  1.4772324E+03;
  7.9833621E-01;  9.9999998E-03;  2.1069884E-01;7194;  3.2528841E-03;  0.0000000E+00;  2.1734701E-03;  1.0004871E+03;  1.4732037E-01;  4.0354300E+02;3;  3.3137388E+00;  0.0000000E+00;  4.1933618E+00;0; -1.5269494E-02;  1.8561559E+04;  0.0000000E+00; -2.8980255E-01;  4.0000000E+04;  0.0000000E+00;  3.9740152E+04;  5.0710551E-03;  0.0000000E+00; -2.0340549E-02;  1.3532196E+03;
  7.9864556E-01;  9.9999998E-03;  2.2076510E-01;7195;  6.6860477E-03;  0.0000000E+00;  2.1677907E-03;  1.0003936E+03;  1.4744003E-01;  3.2611325E+02;3;  5.5069675E+00;  0.0000000E+00;  4.6132841E+00;0;  5.2765664E-03;  1.8526496E+04;  0.0000000E+00; -3.3215272E-01;  4.0000000E+04;  0.0000000E+00;  3.9734000E+04;  2.4376664E-02;  0.0000000E+00; -1.9100098E-02;  1.3297272E+03;
  7.9885823E-01;  9.9999998E-03;  2.3079975E-01;7196;  1.0585829E-02;  0.0000000E+00;  2.1186816E-03;  1.0002742E+03;  1.4752463E-01;  2.2715338E+02;3;  7.1620588E+00;  0.0000000E+00;  4.9489465E+00;0;  2.7310284E-02;  1.8499523E+04;  0.0000000E+00; -4.2974499E-01;  4.0000000E+04;  0.0000000E+00;  3.9727707E+04;  4.3367215E-02;  0.0000000E+00; -1.6056931E-02;  1.6828398E+03;
  8.1138188E-01;  9.9999998E-03;  7.0297830E-02;7241; -3.2030813E-02;  0.0000000E+00; -5.4064678E-04;  9.9900336E+02;  1.5259534E-01; -8.2570209E+02;3; -2.5751429E+00;  0.0000000E+00;  1.0992055E+00;0; -2.0397843E-01;  1.7247080E+04;  0.0000000E+00; -3.9927793E-01;  4.0000000E+04;  0.0000000E+00;  3.9732469E+04; -1.8294057E-01;  0.0000000E+00; -2.1037865E-02;  2.9613794E+03;
  8.1137544E-01;  9.9999998E-03;  8.0284968E-02;7242; -3.0224299E-02;  0.0000000E+00; -6.0381013E-04;  9.9911108E+02;  1.5260035E-01; -7.3647040E+02;3; -2.3786886E+00;  0.0000000E+00;  1.2674669E+00;0; -1.9777583E-01;  1.7251850E+04;  0.0000000E+00; -4.8723394E-01;  4.0000000E+04;  0.0000000E+00;  3.9733980E+04; -1.7646350E-01;  0.0000000E+00; -2.1312332E-02;  3.2323550E+03;
  8.1138659E-01;  9.9999998E-03;  9.0270020E-02;7243; -2.8258486E-02;  0.0000000E+00; -6.6453620E-04;  9.9922552E+02;  1.5261467E-01; -6.4165857E+02;3; -2.1490273E+00;  0.0000000E+00;  1.4438165E+00;0; -1.9074875E-01;  1.7255076E+04;  0.0000000E+00; -5.6866693E-01;  4.0000000E+04;  0.0000000E+00;  3.9735152E+04; -1.6915497E-01;  0.0000000E+00; -2.1593777E-02;  3.4384724E+03;
  8.1142241E-01;  9.9999998E-03;  1.0024926E-01;7244; -2.6155077E-02;  0.0000000E+00; -7.2573463E-04;  9.9934198E+02;  1.5264177E-01; -5.4516785E+02;3; -1.8853894E+00;  0.0000000E+00;  1.6298981E+00;0; -1.8288536E-01;  1.7255977E+04;  0.0000000E+00; -6.3951129E-01;  4.0000000E+04;  0.0000000E+00;  3.9735199E+04; -1.6100630E-01;  0.0000000E+00; -2.1879060E-02;  3.5212866E+03;
  8.1139511E-01;  9.9999998E-03;  1.1024281E-01;7245; -2.3913970E-02;  0.0000000E+00; -7.7259250E-04;  9.9944952E+02;  1.5265207E-01; -4.5603488E+02;3; -1.5869761E+00;  0.0000000E+00;  1.8232341E+00;0; -1.7400908E-01;  1.7260670E+04;  0.0000000E+00; -6.9653380E-01;  4.0000000E+04;  0.0000000E+00;  3.9734023E+04; -1.5194920E-01;  0.0000000E+00; -2.2059880E-02;  3.4556094E+03;
  8.1131959E-01;  9.9999998E-03;  1.2027017E-01;7246; -2.1551125E-02;  0.0000000E+00; -8.0657448E-04;  9.9954529E+02;  1.5264674E-01; -3.7672876E+02;3; -1.2529781E+00;  0.0000000E+00;  2.0233908E+00;0; -1.6409416E-01;  1.7268449E+04;  0.0000000E+00; -7.3588127E-01;  4.0000000E+04;  0.0000000E+00;  3.9731703E+04; -1.4191741E-01;  0.0000000E+00; -2.2176752E-02;  3.2659470E+03;
  8.1124961E-01;  9.9999998E-03;  1.3031816E-01;7247; -1.9092442E-02;  0.0000000E+00; -8.3726854E-04;  9.9964618E+02;  1.5264073E-01; -2.9312646E+02;3; -8.8550127E-01;  0.0000000E+00;  2.2253690E+00;0; -1.5319306E-01;  1.7276205E+04;  0.0000000E+00; -7.5321364E-01;  4.0000000E+04;  0.0000000E+00;  3.9729090E+04; -1.3088566E-01;  0.0000000E+00; -2.2307400E-02;  3.0103198E+03;
  8.1117272E-01;  9.9999998E-03;  1.4037661E-01;7248; -1.6549738E-02;  0.0000000E+00; -8.6033397E-04;  9.9974603E+02;  1.5262680E-01; -2.1041306E+02;3; -4.8894593E-01;  0.0000000E+00;  2.4236691E+00;0; -1.4126539E-01;  1.7284781E+04;  0.0000000E+00; -7.4581772E-01;  4.0000000E+04;  0.0000000E+00;  3.9726367E+04; -1.1880229E-01;  0.0000000E+00; -2.2463111E-02;  2.7400588E+03;
  8.1113565E-01;  9.9999998E-03;  1.5044461E-01;7249; -1.3935895E-02;  0.0000000E+00; -8.8390219E-04;  9.9984735E+02;  1.5262218E-01; -1.2646511E+02;3; -6.0308885E-02;  0.0000000E+00;  2.6243792E+00;0; -1.2834723E-01;  1.7289891E+04;  0.0000000E+00; -7.1278977E-01;  4.0000000E+04;  0.0000000E+00;  3.9724199E+04; -1.0562932E-01;  0.0000000E+00; -2.2717921E-02;  2.4880161E+03;
  8.1120455E-01;  9.9999998E-03;  1.6052231E-01;7250; -1.1260032E-02;  0.0000000E+00; -9.2331372E-04;  9.9995740E+02;  1.5265447E-01; -3.5307518E+01;3;  3.9913699E-01;  0.0000000E+00;  2.8400128E+00;0; -1.1450151E-01;  1.7285291E+04;  0.0000000E+00; -6.5473425E-01;  4.0000000E+04;  0.0000000E+00;  3.9722820E+04; -9.1363721E-02;  0.0000000E+00; -2.3137791E-02;  2.2663191E+03;
  8.1140000E-01;  9.9999998E-03;  1.7060702E-01;7251; -8.5210772E-03;  0.0000000E+00; -9.8400214E-04;  1.0000643E+03;  1.5273094E-01;  5.3331635E+01;3;  8.8252831E-01;  0.0000000E+00;  3.0290120E+00;0; -9.9749506E-02;  1.7268982E+04;  0.0000000E+00; -5.7537645E-01;  4.0000000E+04;  0.0000000E+00;  3.9721875E+04; -7.6048106E-02;  0.0000000E+00; -2.3701396E-02;  2.0702710E+03;
  8.1170470E-01;  9.9999998E-03;  1.8068902E-01;7252; -5.7141851E-03;  0.0000000E+00; -1.0641892E-03;  1.0001577E+03;  1.5284574E-01;  1.3066251E+02;3;  1.3982509E+00;  0.0000000E+00;  3.2226372E+00;0; -8.4102333E-02;  1.7242518E+04;  0.0000000E+00; -4.8258501E-01;  4.0000000E+04;  0.0000000E+00;  3.9720887E+04; -5.9801247E-02;  0.0000000E+00; -2.4301086E-02;  1.8734746E+03;
  8.1207263E-01;  9.9999998E-03;  1.9076125E-01;7253; -2.8270555E-03;  0.0000000E+00; -1.1529824E-03;  1.0002228E+03;  1.5298307E-01;  1.8458672E+02;3;  1.9854712E+00;  0.0000000E+00;  3.4520161E+00;0; -6.7552738E-02;  1.7209811E+04;  0.0000000E+00; -3.8633049E-01;  4.0000000E+04;  0.0000000E+00;  3.9719031E+04; -4.2802550E-02;  0.0000000E+00; -2.4750188E-02;  1.6175736E+03;
  8.1247467E-01;  9.9999998E-03;  2.0080906E-01;7254;  1.6848320E-04;  0.0000000E+00; -1.2389254E-03;  1.0002462E+03;  1.5313238E-01;  2.0394411E+02;3;  2.8325644E+00;  0.0000000E+00;  3.7981834E+00;0; -5.0117821E-02;  1.7173010E+04;  0.0000000E+00; -2.9526791E-01;  4.0000000E+04;  0.0000000E+00;  3.9716137E+04; -2.5327379E-02;  0.0000000E+00; -2.4790442E-02;  1.2803580E+03;
  8.1285870E-01;  9.9999998E-03;  2.1084663E-01;7255;  3.6184050E-03;  0.0000000E+00; -1.2874660E-03;  1.0002162E+03;  1.5327618E-01;  1.7915479E+02;3;  5.2782168E+00;  0.0000000E+00;  4.2791429E+00;0; -3.1671807E-02;  1.7136406E+04;  0.0000000E+00; -2.1728022E-01;  4.0000000E+04;  0.0000000E+00;  3.9711738E+04; -7.6356628E-03;  0.0000000E+00; -2.4036145E-02;  8.5401074E+02;
  8.1318873E-01;  9.9999998E-03;  2.2087473E-01;7256;  7.7884332E-03;  0.0000000E+00; -1.2718724E-03;  1.0001313E+03;  1.5340230E-01;  1.0883604E+02;3;  7.4112153E+00;  0.0000000E+00;  4.9435792E+00;0; -1.1971001E-02;  1.7103102E+04;  0.0000000E+00; -1.5841696E-01;  4.0000000E+04;  0.0000000E+00;  3.9706074E+04;  9.9533293E-03;  0.0000000E+00; -2.1924330E-02;  6.2310089E+02;
  8.1343561E-01;  9.9999998E-03;  2.3088405E-01;7257;  1.2279513E-02;  0.0000000E+00; -1.2099533E-03;  1.0000325E+03;  1.5349923E-01;  2.6863340E+01;3;  8.9320450E+00;  0.0000000E+00;  5.3387909E+00;0;  9.4821379E-03;  1.7075883E+04;  0.0000000E+00; -1.1991749E-01;  4.0000000E+04;  0.0000000E+00;  3.9702363E+04;  2.7191717E-02;  0.0000000E+00; -1.7709579E-02;  7.3602100E+02;
  8.2593238E-01;  9.9999998E-03;  7.0385173E-02;7302; -3.4808986E-02;  0.0000000E+00; -2.6521322E-03;  9.9721368E+02;  1.5875873E-01; -2.3084185E+03;3; -2.5060120E+00;  0.0000000E+00;  9.9035990E-01;0; -2.2897911E-01;  1.5902414E+04;  0.0000000E+00; -4.8381323E-01;  4.0000000E+04;  0.0000000E+00;  3.9701328E+04; -1.8443152E-01;  0.0000000E+00; -4.4547595E-02;  2.8148972E+03;
  8.2603830E-01;  9.9999998E-03;  1.3034688E-01;7308; -2.1188570E-02;  0.0000000E+00; -4.2043156E-03;  9.9812207E+02;  1.5894149E-01; -1.5558010E+03;3; -7.5218916E-01;  0.0000000E+00;  2.0248773E+00;0; -1.7437266E-01;  1.5894771E+04;  0.0000000E+00; -8.1407261E-01;  4.0000000E+04;  0.0000000E+00;  3.9707074E+04; -1.3699666E-01;  0.0000000E+00; -3.7375998E-02;  3.8081379E+03;
  8.2607937E-01;  9.9999998E-03;  1.2030009E-01;7307; -2.3801014E-02;  0.0000000E+00; -4.0112827E-03;  9.9794611E+02;  1.5894131E-01; -1.7016234E+03;3; -1.1440077E+00;  0.0000000E+00;  1.8339084E+00;0; -1.8587346E-01;  1.5889132E+04;  0.0000000E+00; -8.2752538E-01;  4.0000000E+04;  0.0000000E+00;  3.9708566E+04; -1.4713742E-01;  0.0000000E+00; -3.8736049E-02;  4.0422664E+03;
  8.2608932E-01;  9.9999998E-03;  1.4042351E-01;7309; -1.8483812E-02;  0.0000000E+00; -4.4018151E-03;  9.9830426E+02;  1.5897273E-01; -1.4048923E+03;3; -3.1895140E-01;  0.0000000E+00;  2.2208869E+00;0; -1.6206202E-01;  1.5893790E+04;  0.0000000E+00; -7.7719069E-01;  4.0000000E+04;  0.0000000E+00;  3.9705285E+04; -1.2591526E-01;  0.0000000E+00; -3.6146767E-02;  3.5118479E+03;
  8.2608169E-01;  9.9999998E-03;  8.0378272E-02;7303; -3.2939166E-02;  0.0000000E+00; -2.9910232E-03;  9.9734241E+02;  1.5883699E-01; -2.2017554E+03;3; -2.3066888E+00;  0.0000000E+00;  1.1446185E+00;0; -2.2233942E-01;  1.5890397E+04;  0.0000000E+00; -5.9272635E-01;  4.0000000E+04;  0.0000000E+00;  3.9704043E+04; -1.7861974E-01;  0.0000000E+00; -4.3719679E-02;  3.2972439E+03;
  8.2616311E-01;  9.9999998E-03;  1.5051332E-01;7310; -1.5685437E-02;  0.0000000E+00; -4.5892834E-03;  9.9848102E+02;  1.5900564E-01; -1.2584280E+03;3;  1.5386476E-01;  0.0000000E+00;  2.4211352E+00;0; -1.4886686E-01;  1.5891183E+04;  0.0000000E+00; -7.2531998E-01;  4.0000000E+04;  0.0000000E+00;  3.9703855E+04; -1.1385988E-01;  0.0000000E+00; -3.5006978E-02;  3.2295818E+03;
  8.2619882E-01;  9.9999998E-03;  9.0352580E-02;7304; -3.0891692E-02;  0.0000000E+00; -3.3036203E-03;  9.9747662E+02;  1.5891413E-01; -2.0905491E+03;3; -2.0731812E+00;  0.0000000E+00;  1.3053185E+00;0; -2.1476083E-01;  1.5879427E+04;  0.0000000E+00; -6.8960452E-01;  4.0000000E+04;  0.0000000E+00;  3.9706672E+04; -1.7202733E-01;  0.0000000E+00; -4.2733490E-02;  3.7343811E+03;
  8.2623130E-01;  9.9999998E-03;  1.1028687E-01;7306; -2.6316553E-02;  0.0000000E+00; -3.8222058E-03;  9.9777936E+02;  1.5898284E-01; -1.8397424E+03;3; -1.4937835E+00;  0.0000000E+00;  1.6489327E+00;0; -1.9660513E-01;  1.5875404E+04;  0.0000000E+00; -8.1173939E-01;  4.0000000E+04;  0.0000000E+00;  3.9709016E+04; -1.5635951E-01;  0.0000000E+00; -4.0245622E-02;  4.1354380E+03;
  8.2622623E-01;  9.9999998E-03;  1.6059808E-01;7311; -1.2796823E-02;  0.0000000E+00; -4.7591841E-03;  9.9864124E+02;  1.5903024E-01; -1.1256917E+03;3;  6.6524386E-01;  0.0000000E+00;  2.6149104E+00;0; -1.3479890E-01;  1.5888752E+04;  0.0000000E+00; -6.6478539E-01;  4.0000000E+04;  0.0000000E+00;  3.9702848E+04; -1.0082204E-01;  0.0000000E+00; -3.3976860E-02;  3.0071851E+03;
  8.2631910E-01;  9.9999998E-03;  1.0030740E-01;7305; -2.8693875E-02;  0.0000000E+00; -3.5951827E-03;  9.9762085E+02;  1.5899292E-01; -1.9710958E+03;3; -1.8028396E+00;  0.0000000E+00;  1.4724115E+00;0; -2.0630993E-01;  1.5868244E+04;  0.0000000E+00; -7.6497597E-01;  4.0000000E+04;  0.0000000E+00;  3.9708301E+04; -1.6464530E-01;  0.0000000E+00; -4.1664630E-02;  4.0336531E+03;
  8.2632583E-01;  9.9999998E-03;  1.7066857E-01;7312; -9.8253274E-03;  0.0000000E+00; -4.9255979E-03;  9.9878790E+02;  1.5906256E-01; -1.0042140E+03;3;  1.2168537E+00;  0.0000000E+00;  2.8005624E+00;0; -1.1999358E-01;  1.5882821E+04;  0.0000000E+00; -5.9780854E-01;  4.0000000E+04;  0.0000000E+00;  3.9702359E+04; -8.6882606E-02;  0.0000000E+00; -3.3110980E-02;  2.8452642E+03;
  8.2647336E-01;  9.9999998E-03;  1.8072820E-01;7313; -6.7653693E-03;  0.0000000E+00; -5.0965706E-03;  9.9889972E+02;  1.5911156E-01; -9.1157501E+02;3;  1.8146383E+00;  0.0000000E+00;  2.9546013E+00;0; -1.0452764E-01;  1.5872323E+04;  0.0000000E+00; -5.2003986E-01;  4.0000000E+04;  0.0000000E+00;  3.9701781E+04; -7.2168775E-02;  0.0000000E+00; -3.2358870E-02;  2.7054028E+03;
  8.2667822E-01;  9.9999998E-03;  1.9077872E-01;7314; -3.6060875E-03;  0.0000000E+00; -5.2808402E-03;  9.9897021E+02;  1.5918085E-01; -8.5315717E+02;3;  2.4784281E+00;  0.0000000E+00;  3.0853534E+00;0; -8.8483274E-02;  1.5856086E+04;  0.0000000E+00; -4.2095658E-01;  4.0000000E+04;  0.0000000E+00;  3.9700633E+04; -5.6893118E-02;  0.0000000E+00; -3.1590160E-02;  2.5336843E+03;
  8.2695198E-01;  9.9999998E-03;  2.0080464E-01;7315; -3.3435409E-04;  0.0000000E+00; -5.5020018E-03;  9.9899670E+02;  1.5928072E-01; -8.3123199E+02;3;  3.2522867E+00;  0.0000000E+00;  3.0633085E+00;0; -7.1975321E-02;  1.5832678E+04;  0.0000000E+00; -2.8847593E-01;  4.0000000E+04;  0.0000000E+00;  3.9699535E+04; -4.1370258E-02;  0.0000000E+00; -3.0605061E-02;  2.3937227E+03;
  8.2720160E-01;  9.9999998E-03;  2.1082604E-01;7316;  3.3035167E-03;  0.0000000E+00; -5.7887807E-03;  9.9898077E+02;  1.5937324E-01; -8.4441675E+02;3;  5.3669233E+00;  0.0000000E+00;  3.1175754E+00;0; -5.4907754E-02;  1.5809608E+04;  0.0000000E+00; -1.1134882E-01;  4.0000000E+04;  0.0000000E+00;  3.9699059E+04; -2.5744645E-02;  0.0000000E+00; -2.9163109E-02;  2.3680737E+03;
  8.2738042E-01;  9.9999998E-03;  2.2085808E-01;7317;  7.6605408E-03;  0.0000000E+00; -5.9000594E-03;  9.9891498E+02;  1.5943737E-01; -8.9893347E+02;3;  7.8456655E+00;  0.0000000E+00;  4.0216923E+00;0; -3.6865719E-02;  1.5791122E+04;  0.0000000E+00;  1.1275837E-01;  4.0000000E+04;  0.0000000E+00;  3.9698117E+04; -1.0159110E-02;  0.0000000E+00; -2.6706610E-02;  2.3871680E+03;
  8.2740968E-01;  9.9999998E-03;  2.3089419E-01;7318;  1.2354228E-02;  0.0000000E+00; -5.8766520E-03;  9.9880017E+02;  1.5944472E-01; -9.9404144E+02;3;  9.4658871E+00;  0.0000000E+00;  4.4391570E+00;0; -1.7290842E-02;  1.5783866E+04;  0.0000000E+00;  3.7073591E-01;  4.0000000E+04;  0.0000000E+00;  3.9695980E+04;  5.2377274E-03;  0.0000000E+00; -2.2528568E-02;  2.4185579E+03;
  8.4260613E-01;  9.9999998E-03;  7.0429251E-02;7363; -3.8156580E-02;  0.0000000E+00; -5.3149480E-03;  9.9554346E+02;  1.6596094E-01; -3.6921216E+03;3; -2.4684751E+00;  0.0000000E+00;  8.8148576E-01;0; -2.5862256E-01;  1.4535391E+04;  0.0000000E+00; -4.8681802E-01;  4.0000000E+04;  0.0000000E+00;  3.9666090E+04; -1.8378645E-01;  0.0000000E+00; -7.4836098E-02;  2.4537468E+03;
  8.4258783E-01;  9.9999998E-03;  8.0497153E-02;7364; -3.6162160E-02;  0.0000000E+00; -5.9473263E-03;  9.9564081E+02;  1.6597280E-01; -3.6114824E+03;3; -2.2587092E+00;  0.0000000E+00;  1.0163070E+00;0; -2.5099671E-01;  1.4533233E+04;  0.0000000E+00; -5.9659636E-01;  4.0000000E+04;  0.0000000E+00;  3.9669809E+04; -1.7887467E-01;  0.0000000E+00; -7.2122052E-02;  3.0373604E+03;
  8.4260076E-01;  9.9999998E-03;  9.0537198E-02;7365; -3.3990849E-02;  0.0000000E+00; -6.5390440E-03;  9.9575854E+02;  1.6600047E-01; -3.5139548E+03;3; -2.0108693E+00;  0.0000000E+00;  1.1552751E+00;0; -2.4250808E-01;  1.4528707E+04;  0.0000000E+00; -6.9346350E-01;  4.0000000E+04;  0.0000000E+00;  3.9673707E+04; -1.7319818E-01;  0.0000000E+00; -6.9309905E-02;  3.5974600E+03;
  8.4264719E-01;  9.9999998E-03;  1.0055547E-01;7366; -3.1660587E-02;  0.0000000E+00; -7.0929215E-03;  9.9588147E+02;  1.6604476E-01; -3.4120815E+03;3; -1.7217145E+00;  0.0000000E+00;  1.2985673E+00;0; -2.3318502E-01;  1.4521712E+04;  0.0000000E+00; -7.6682442E-01;  4.0000000E+04;  0.0000000E+00;  3.9676738E+04; -1.6675223E-01;  0.0000000E+00; -6.6432782E-02;  4.0286340E+03;
  8.4268224E-01;  9.9999998E-03;  1.1054308E-01;7367; -2.9181907E-02;  0.0000000E+00; -7.6020411E-03;  9.9601526E+02;  1.6608396E-01; -3.3012705E+03;3; -1.3877660E+00;  0.0000000E+00;  1.4443715E+00;0; -2.2299242E-01;  1.4516158E+04;  0.0000000E+00; -8.0920821E-01;  4.0000000E+04;  0.0000000E+00;  3.9679055E+04; -1.5954274E-01;  0.0000000E+00; -6.3449688E-02;  4.2634517E+03;
  8.4263700E-01;  9.9999998E-03;  1.2054440E-01;7368; -2.6546186E-02;  0.0000000E+00; -8.0543207E-03;  9.9616602E+02;  1.6608693E-01; -3.1763857E+03;3; -1.0059972E+00;  0.0000000E+00;  1.5920602E+00;0; -2.1180743E-01;  1.4517268E+04;  0.0000000E+00; -8.1991333E-01;  4.0000000E+04;  0.0000000E+00;  3.9679977E+04; -1.5151857E-01;  0.0000000E+00; -6.0288865E-02;  4.2958677E+03;
  8.4247613E-01;  9.9999998E-03;  1.3055752E-01;7369; -2.3761649E-02;  0.0000000E+00; -8.4406994E-03;  9.9633368E+02;  1.6604413E-01; -3.0374771E+03;3; -5.7657790E-01;  0.0000000E+00;  1.7401036E+00;0; -1.9961706E-01;  1.4527199E+04;  0.0000000E+00; -8.0471522E-01;  4.0000000E+04;  0.0000000E+00;  3.9680238E+04; -1.4264470E-01;  0.0000000E+00; -5.6972358E-02;  4.1825210E+03;
  8.4217054E-01;  9.9999998E-03;  1.4057951E-01;7370; -2.0837042E-02;  0.0000000E+00; -8.7523721E-03;  9.9651379E+02;  1.6593823E-01; -2.8882476E+03;3; -1.0114141E-01;  0.0000000E+00;  1.8877339E+00;0; -1.8642889E-01;  1.4548220E+04;  0.0000000E+00; -7.7472216E-01;  4.0000000E+04;  0.0000000E+00;  3.9680562E+04; -1.3287470E-01;  0.0000000E+00; -5.3554196E-02;  4.0099250E+03;
  8.4188259E-01;  9.9999998E-03;  1.5060771E-01;7371; -1.7808195E-02;  0.0000000E+00; -9.0369284E-03;  9.9670801E+02;  1.6582909E-01; -2.7273149E+03;3;  4.2116395E-01;  0.0000000E+00;  2.0293593E+00;0; -1.7255513E-01;  1.4569562E+04;  0.0000000E+00; -7.4465674E-01;  4.0000000E+04;  0.0000000E+00;  3.9680520E+04; -1.2224190E-01;  0.0000000E+00; -5.0313231E-02;  3.8500659E+03;
  8.4170413E-01;  9.9999998E-03;  1.6062625E-01;7372; -1.4694594E-02;  0.0000000E+00; -9.3279267E-03;  9.9688824E+02;  1.6575330E-01; -2.5780359E+03;3;  9.9266326E-01;  0.0000000E+00;  2.1587524E+00;0; -1.5823555E-01;  1.4584486E+04;  0.0000000E+00; -7.2506511E-01;  4.0000000E+04;  0.0000000E+00;  3.9680562E+04; -1.1083684E-01;  0.0000000E+00; -4.7398712E-02;  3.7394885E+03;
  8.4169543E-01;  9.9999998E-03;  1.7063788E-01;7373; -1.1497671E-02;  0.0000000E+00; -9.6535757E-03;  9.9704724E+02;  1.6573642E-01; -2.4462874E+03;3;  1.6205488E+00;  0.0000000E+00;  2.2685900E+00;0; -1.4365599E-01;  1.4588013E+04;  0.0000000E+00; -7.1372807E-01;  4.0000000E+04;  0.0000000E+00;  3.9680648E+04; -9.8794274E-02;  0.0000000E+00; -4.4861719E-02;  3.6847522E+03;
  8.4270334E-01;  9.9999998E-03;  2.3094086E-01;7379;  1.1590675E-02;  0.0000000E+00; -1.1963055E-02;  9.9713574E+02;  1.6594991E-01; -2.3729563E+03;3;  9.2830057E+00;  0.0000000E+00;  2.7686501E+00;0; -5.1652480E-02;  1.4532023E+04;  0.0000000E+00;  6.2861913E-01;  4.0000000E+04;  0.0000000E+00;  3.9682469E+04; -2.2112051E-02;  0.0000000E+00; -2.9540429E-02;  4.8961826E+03;
  8.4182525E-01;  9.9999998E-03;  1.8065064E-01;7374; -8.2000345E-03;  0.0000000E+00; -1.0013917E-02;  9.9717676E+02;  1.6576773E-01; -2.3389824E+03;3;  2.3153241E+00;  0.0000000E+00;  2.3537166E+00;0; -1.2886612E-01;  1.4581901E+04;  0.0000000E+00; -6.9083416E-01;  4.0000000E+04;  0.0000000E+00;  3.9681004E+04; -8.6259805E-02;  0.0000000E+00; -4.2606320E-02;  3.7093015E+03;
  8.4202749E-01;  9.9999998E-03;  1.9067419E-01;7375; -4.7775717E-03;  0.0000000E+00; -1.0393784E-02;  9.9727698E+02;  1.6582067E-01; -2.2559729E+03;3;  3.0945771E+00;  0.0000000E+00;  2.4102075E+00;0; -1.1385943E-01;  1.4570723E+04;  0.0000000E+00; -6.2217540E-01;  4.0000000E+04;  0.0000000E+00;  3.9682242E+04; -7.3393203E-02;  0.0000000E+00; -4.0466223E-02;  3.8665234E+03;
  8.4258240E-01;  9.9999998E-03;  2.2084872E-01;7378;  6.9209440E-03;  0.0000000E+00; -1.1578401E-02;  9.9734637E+02;  1.6593187E-01; -2.1984438E+03;3;  7.3665934E+00;  0.0000000E+00;  2.3693032E+00;0; -6.7492075E-02;  1.4539884E+04;  0.0000000E+00;  1.6903566E-01;  4.0000000E+04;  0.0000000E+00;  3.9689023E+04; -3.4551147E-02;  0.0000000E+00; -3.2940928E-02;  5.1132612E+03;
  8.4223992E-01;  9.9999998E-03;  2.0070158E-01;7376; -1.1948608E-03;  0.0000000E+00; -1.0781762E-02;  9.9735767E+02;  1.6587244E-01; -2.1891108E+03;3;  4.0624938E+00;  0.0000000E+00;  2.3886285E+00;0; -9.8642737E-02;  1.4558861E+04;  0.0000000E+00; -4.7014394E-01;  4.0000000E+04;  0.0000000E+00;  3.9685512E+04; -6.0385089E-02;  0.0000000E+00; -3.8257644E-02;  4.2792236E+03;
  8.4242123E-01;  9.9999998E-03;  2.1075410E-01;7377;  2.6519480E-03;  0.0000000E+00; -1.1175074E-02;  9.9740656E+02;  1.6590673E-01; -2.1486184E+03;3;  5.4283142E+00;  0.0000000E+00;  2.3208647E+00;0; -8.3177507E-02;  1.4549005E+04;  0.0000000E+00; -2.0687665E-01;  4.0000000E+04;  0.0000000E+00;  3.9689637E+04; -4.7379307E-02;  0.0000000E+00; -3.5798203E-02;  4.8946611E+03;
  8.6061364E-01;  9.9999998E-03;  7.0443481E-02;7424; -4.1932464E-02;  0.0000000E+00; -8.4737353E-03;  9.9457275E+02;  1.7417055E-01; -4.4963335E+03;3; -2.5170763E+00;  0.0000000E+00;  7.2135729E-01;0; -2.8203571E-01;  1.3203410E+04;  0.0000000E+00; -4.0261629E-01;  4.0000000E+04;  0.0000000E+00;  3.9626832E+04; -1.7068006E-01;  0.0000000E+00; -1.1135564E-01;  1.7409623E+03;
  8.6068481E-01;  9.9999998E-03;  8.0557391E-02;7425; -3.9886761E-02;  0.0000000E+00; -9.5132776E-03;  9.9458258E+02;  1.7418988E-01; -4.4881855E+03;3; -2.3145797E+00;  0.0000000E+00;  8.3366603E-01;0; -2.7421176E-01;  1.3195629E+04;  0.0000000E+00; -4.9908939E-01;  4.0000000E+04;  0.0000000E+00;  3.9631004E+04; -1.6716906E-01;  0.0000000E+00; -1.0704269E-01;  2.3407788E+03;
  8.6078274E-01;  9.9999998E-03;  9.0642169E-02;7426; -3.7646227E-02;  0.0000000E+00; -1.0494079E-02;  9.9462494E+02;  1.7422390E-01; -4.4531250E+03;3; -2.0455956E+00;  0.0000000E+00;  9.3807352E-01;0; -2.6544461E-01;  1.3186372E+04;  0.0000000E+00; -5.8915365E-01;  4.0000000E+04;  0.0000000E+00;  3.9635395E+04; -1.6292876E-01;  0.0000000E+00; -1.0251585E-01;  2.9386951E+03;
  8.6089730E-01;  9.9999998E-03;  1.0071217E-01;7427; -3.5223216E-02;  0.0000000E+00; -1.1416839E-02;  9.9469324E+02;  1.7426585E-01; -4.3965337E+03;3; -1.7085561E+00;  0.0000000E+00;  1.0343771E+00;0; -2.5578472E-01;  1.3176413E+04;  0.0000000E+00; -6.6437668E-01;  4.0000000E+04;  0.0000000E+00;  3.9639207E+04; -1.5797536E-01;  0.0000000E+00; -9.7809359E-02;  3.4262703E+03;
  8.6097169E-01;  9.9999998E-03;  1.1075468E-01;7428; -3.2622810E-02;  0.0000000E+00; -1.2270607E-02;  9.9479181E+02;  1.7429228E-01; -4.3148579E+03;3; -1.3222991E+00;  0.0000000E+00;  1.1307480E+00;0; -2.4528764E-01;  1.3169962E+04;  0.0000000E+00; -7.1983379E-01;  4.0000000E+04;  0.0000000E+00;  3.9642117E+04; -1.5240462E-01;  0.0000000E+00; -9.2883021E-02;  3.7316326E+03;
  8.6094546E-01;  9.9999998E-03;  1.2079489E-01;7429; -2.9840250E-02;  0.0000000E+00; -1.3043660E-02;  9.9492151E+02;  1.7427708E-01; -4.2074048E+03;3; -8.7819237E-01;  0.0000000E+00;  1.2210876E+00;0; -2.3396802E-01;  1.3171003E+04;  0.0000000E+00; -7.5703794E-01;  4.0000000E+04;  0.0000000E+00;  3.9643824E+04; -1.4627613E-01;  0.0000000E+00; -8.7691888E-02;  3.8490339E+03;
  8.6075962E-01;  9.9999998E-03;  1.3082877E-01;7430; -2.6878104E-02;  0.0000000E+00; -1.3719171E-02;  9.9507855E+02;  1.7419741E-01; -4.0772866E+03;3; -3.7927920E-01;  0.0000000E+00;  1.3039366E+00;0; -2.2186506E-01;  1.3182894E+04;  0.0000000E+00; -7.8474879E-01;  4.0000000E+04;  0.0000000E+00;  3.9645020E+04; -1.3962799E-01;  0.0000000E+00; -8.2237065E-02;  3.8400330E+03;
  8.6058450E-01;  9.9999998E-03;  1.4087401E-01;7431; -2.3774236E-02;  0.0000000E+00; -1.4351362E-02;  9.9524988E+02;  1.7411953E-01; -3.9353657E+03;3;  1.7542802E-01;  0.0000000E+00;  1.3722738E+00;0; -2.0914912E-01;  1.3195220E+04;  0.0000000E+00; -8.2004642E-01;  4.0000000E+04;  0.0000000E+00;  3.9646000E+04; -1.3229746E-01;  0.0000000E+00; -7.6851659E-02;  3.7999490E+03;
  8.6045849E-01;  9.9999998E-03;  1.5090862E-01;7432; -2.0547763E-02;  0.0000000E+00; -1.4958722E-02;  9.9542694E+02;  1.7405620E-01; -3.7886550E+03;3;  7.8617084E-01;  0.0000000E+00;  1.4218841E+00;0; -1.9598925E-01;  1.3205521E+04;  0.0000000E+00; -8.8131249E-01;  4.0000000E+04;  0.0000000E+00;  3.9646629E+04; -1.2434256E-01;  0.0000000E+00; -7.1646683E-02;  3.7940701E+03;
  8.6039412E-01;  9.9999998E-03;  1.6092776E-01;7433; -1.7204486E-02;  0.0000000E+00; -1.5553901E-02;  9.9559454E+02;  1.7401299E-01; -3.6497957E+03;3;  1.4558523E+00;  0.0000000E+00;  1.4501714E+00;0; -1.8254671E-01;  1.3212709E+04;  0.0000000E+00; -9.7821158E-01;  4.0000000E+04;  0.0000000E+00;  3.9647340E+04; -1.1585800E-01;  0.0000000E+00; -6.6688702E-02;  3.8278599E+03;
  8.6038089E-01;  9.9999998E-03;  1.7093182E-01;7434; -1.3741647E-02;  0.0000000E+00; -1.6141368E-02;  9.9573633E+02;  1.7398523E-01; -3.5323679E+03;3;  2.1896122E+00;  0.0000000E+00;  1.4561588E+00;0; -1.6896206E-01;  1.3217062E+04;  0.0000000E+00; -1.1008558E+00;  4.0000000E+04;  0.0000000E+00;  3.9647750E+04; -1.0696011E-01;  0.0000000E+00; -6.2001947E-02;  3.8687319E+03;
  8.6036760E-01;  9.9999998E-03;  1.8093008E-01;7435; -1.0145956E-02;  0.0000000E+00; -1.6708609E-02;  9.9584058E+02;  1.7395394E-01; -3.4460005E+03;3;  2.9949067E+00;  0.0000000E+00;  1.4426229E+00;0; -1.5529841E-01;  1.3221564E+04;  0.0000000E+00; -1.2154037E+00;  4.0000000E+04;  0.0000000E+00;  3.9648164E+04; -9.7762920E-02;  0.0000000E+00; -5.7535488E-02;  3.9048311E+03;
  8.6030674E-01;  9.9999998E-03;  1.9093511E-01;7436; -6.4025410E-03;  0.0000000E+00; -1.7240925E-02;  9.9590204E+02;  1.7389712E-01; -3.3950393E+03;3;  3.8869348E+00;  0.0000000E+00;  1.4109381E+00;0; -1.4157896E-01;  1.3228926E+04;  0.0000000E+00; -1.2696924E+00;  4.0000000E+04;  0.0000000E+00;  3.9648660E+04; -8.8353708E-02;  0.0000000E+00; -5.3225253E-02;  3.9471589E+03;
  8.6012650E-01;  9.9999998E-03;  2.0094009E-01;7437; -2.4918211E-03;  0.0000000E+00; -1.7713126E-02;  9.9593170E+02;  1.7379610E-01; -3.3704971E+03;3;  4.9123654E+00;  0.0000000E+00;  1.3544236E+00;0; -1.2778656E-01;  1.3242438E+04;  0.0000000E+00; -1.1975331E+00;  4.0000000E+04;  0.0000000E+00;  3.9650418E+04; -7.8791447E-02;  0.0000000E+00; -4.8995111E-02;  4.0743843E+03;
  8.5988861E-01;  9.9999998E-03;  2.1095410E-01;7438;  1.6089430E-03;  0.0000000E+00; -1.8143862E-02;  9.9593610E+02;  1.7367759E-01; -3.3668430E+03;3;  6.1190734E+00;  0.0000000E+00;  1.2956061E+00;0; -1.1404400E-01;  1.3258030E+04;  0.0000000E+00; -9.5279896E-01;  4.0000000E+04;  0.0000000E+00;  3.9653574E+04; -6.9185525E-02;  0.0000000E+00; -4.4858471E-02;  4.4168047E+03;
  8.5964209E-01;  9.9999998E-03;  2.2100089E-01;7439;  5.9659951E-03;  0.0000000E+00; -1.8563522E-02;  9.9585968E+02;  1.7356043E-01; -3.4301494E+03;3;  7.5739455E+00;  0.0000000E+00;  1.2639432E+00;0; -1.0048923E-01;  1.3272615E+04;  0.0000000E+00; -5.2457094E-01;  4.0000000E+04;  0.0000000E+00;  3.9655348E+04; -5.9662636E-02;  0.0000000E+00; -4.0826593E-02;  4.7371689E+03;
  8.5941297E-01;  9.9999998E-03;  2.3104054E-01;7440;  1.0557296E-02;  0.0000000E+00; -1.8946897E-02;  9.9574182E+02;  1.7346212E-01; -3.5277756E+03;3;  9.1357279E+00;  0.0000000E+00;  1.3232471E+00;0; -8.7313950E-02;  1.3284161E+04;  0.0000000E+00;  4.4436660E-02;  4.0000000E+04;  0.0000000E+00;  3.9658305E+04; -5.0434876E-02;  0.0000000E+00; -3.6879070E-02;  5.4237783E+03;
  8.7809110E-01;  9.9999998E-03;  7.0431381E-02;7485; -4.5634676E-02;  0.0000000E+00; -1.1786266E-02;  9.9357727E+02;  1.8248695E-01; -5.3210820E+03;3; -2.6286998E+00;  0.0000000E+00;  5.2478474E-01;0; -2.6100418E-01;  1.2024300E+04;  0.0000000E+00; -2.4678183E-01;  4.0000000E+04;  0.0000000E+00;  3.9587168E+04; -1.1100708E-01;  0.0000000E+00; -1.4999710E-01;  7.6964893E+02;
  8.7813175E-01;  9.9999998E-03;  8.0548301E-02;7486; -4.3551020E-02;  0.0000000E+00; -1.3230976E-02;  9.9354425E+02;  1.8249434E-01; -5.3484390E+03;3; -2.4709404E+00;  0.0000000E+00;  6.2001616E-01;0; -2.5474247E-01;  1.2016855E+04;  0.0000000E+00; -3.2483789E-01;  4.0000000E+04;  0.0000000E+00;  3.9591754E+04; -1.1083060E-01;  0.0000000E+00; -1.4391187E-01;  1.3074650E+03;
  8.7824148E-01;  9.9999998E-03;  9.0641931E-02;7487; -4.1269045E-02;  0.0000000E+00; -1.4603452E-02;  9.9354852E+02;  1.8253380E-01; -5.3448838E+03;3; -2.2321668E+00;  0.0000000E+00;  7.1625465E-01;0; -2.4741618E-01;  1.2005903E+04;  0.0000000E+00; -4.0809309E-01;  4.0000000E+04;  0.0000000E+00;  3.9596277E+04; -1.0980874E-01;  0.0000000E+00; -1.3760744E-01;  1.8806146E+03;
  8.7839264E-01;  9.9999998E-03;  1.0070955E-01;7488; -3.8788870E-02;  0.0000000E+00; -1.5905503E-02;  9.9359308E+02;  1.8259187E-01; -5.3079468E+03;3; -1.8289391E+00;  0.0000000E+00;  7.4919599E-01;0; -2.3922093E-01;  1.1993497E+04;  0.0000000E+00; -4.9108285E-01;  4.0000000E+04;  0.0000000E+00;  3.9599805E+04; -1.0811183E-01;  0.0000000E+00; -1.3110910E-01;  2.3581663E+03;
  8.7853903E-01;  9.9999998E-03;  1.1076587E-01;7489; -3.6109988E-02;  0.0000000E+00; -1.7132679E-02;  9.9367468E+02;  1.8264723E-01; -5.2403442E+03;3; -1.3550552E+00;  0.0000000E+00;  7.7181548E-01;0; -2.3039691E-01;  1.1982617E+04;  0.0000000E+00; -5.7082427E-01;  4.0000000E+04;  0.0000000E+00;  3.9602531E+04; -1.0600789E-01;  0.0000000E+00; -1.2438902E-01;  2.6678015E+03;
  8.7863648E-01;  9.9999998E-03;  1.2081647E-01;7490; -3.3232234E-02;  0.0000000E+00; -1.8279232E-02;  9.9379681E+02;  1.8267849E-01; -5.1391621E+03;3; -8.1927800E-01;  0.0000000E+00;  7.8055567E-01;0; -2.2117057E-01;  1.1976313E+04;  0.0000000E+00; -6.4996105E-01;  4.0000000E+04;  0.0000000E+00;  3.9603785E+04; -1.0373583E-01;  0.0000000E+00; -1.1743475E-01;  2.7939077E+03;
  8.7864971E-01;  9.9999998E-03;  1.3086897E-01;7491; -3.0158196E-02;  0.0000000E+00; -1.9339755E-02;  9.9394952E+02;  1.8266846E-01; -5.0126484E+03;3; -2.1946685E-01;  0.0000000E+00;  7.6922554E-01;0; -2.1171388E-01;  1.1976789E+04;  0.0000000E+00; -7.3859519E-01;  4.0000000E+04;  0.0000000E+00;  3.9604324E+04; -1.0145631E-01;  0.0000000E+00; -1.1025758E-01;  2.8031675E+03;
  8.7859017E-01;  9.9999998E-03;  1.4092065E-01;7492; -2.6901638E-02;  0.0000000E+00; -2.0321401E-02;  9.9413892E+02;  1.8262410E-01; -4.8557666E+03;3;  4.3662047E-01;  0.0000000E+00;  7.4013817E-01;0; -2.0206460E-01;  1.1983183E+04;  0.0000000E+00; -8.5205364E-01;  4.0000000E+04;  0.0000000E+00;  3.9604641E+04; -9.9109203E-02;  0.0000000E+00; -1.0295541E-01;  2.7886760E+03;
  8.7848723E-01;  9.9999998E-03;  1.5096533E-01;7493; -2.3480184E-02;  0.0000000E+00; -2.1236803E-02;  9.9434650E+02;  1.8255666E-01; -4.6837729E+03;3;  1.1457672E+00;  0.0000000E+00;  6.9162643E-01;0; -1.9222960E-01;  1.1993489E+04;  0.0000000E+00; -1.0043294E+00;  4.0000000E+04;  0.0000000E+00;  3.9605320E+04; -9.6591920E-02;  0.0000000E+00; -9.5637679E-02;  2.8182175E+03;
  8.7838185E-01;  9.9999998E-03;  1.6099674E-01;7494; -1.9910326E-02;  0.0000000E+00; -2.2103794E-02;  9.9455328E+02;  1.8248601E-01; -4.5124707E+03;3;  1.9106983E+00;  0.0000000E+00;  6.2593299E-01;0; -1.8223354E-01;  1.2004504E+04;  0.0000000E+00; -1.1996207E+00;  4.0000000E+04;  0.0000000E+00;  3.9606445E+04; -9.3811147E-02;  0.0000000E+00; -8.8422388E-02;  2.9072969E+03;
  8.7833273E-01;  9.9999998E-03;  1.7101543E-01;7495; -1.6205484E-02;  0.0000000E+00; -2.2949172E-02;  9.9472888E+02;  1.8244235E-01; -4.3669946E+03;3;  2.7385526E+00;  0.0000000E+00;  5.4355842E-01;0; -1.7211893E-01;  1.2012203E+04;  0.0000000E+00; -1.4245399E+00;  4.0000000E+04;  0.0000000E+00;  3.9607512E+04; -9.0688527E-02;  0.0000000E+00; -8.1430398E-02;  3.0457637E+03;
  8.7832814E-01;  9.9999998E-03;  1.8102659E-01;7496; -1.2363657E-02;  0.0000000E+00; -2.3773454E-02;  9.9486401E+02;  1.8241803E-01; -4.2550483E+03;3;  3.6371422E+00;  0.0000000E+00;  4.4926572E-01;0; -1.6203149E-01;  1.2016720E+04;  0.0000000E+00; -1.6422971E+00;  4.0000000E+04;  0.0000000E+00;  3.9608676E+04; -8.7364025E-02;  0.0000000E+00; -7.4667461E-02;  3.2379900E+03;
  8.7832212E-01;  9.9999998E-03;  1.9103958E-01;7497; -8.3768656E-03;  0.0000000E+00; -2.4560655E-02;  9.9493970E+02;  1.8239331E-01; -4.1923350E+03;3;  4.6156001E+00;  0.0000000E+00;  3.5002536E-01;0; -1.5209615E-01;  1.2020705E+04;  0.0000000E+00; -1.7981005E+00;  4.0000000E+04;  0.0000000E+00;  3.9610496E+04; -8.3995201E-02;  0.0000000E+00; -6.8100944E-02;  3.4879985E+03;
  8.7829256E-01;  9.9999998E-03;  2.0106003E-01;7498; -4.2393021E-03;  0.0000000E+00; -2.5301276E-02;  9.9496014E+02;  1.8235867E-01; -4.1753970E+03;3;  5.6902390E+00;  0.0000000E+00;  2.5033131E-01;0; -1.4237681E-01;  1.2025147E+04;  0.0000000E+00; -1.8332807E+00;  4.0000000E+04;  0.0000000E+00;  3.9612961E+04; -8.0633000E-02;  0.0000000E+00; -6.1743811E-02;  3.7876326E+03;
  8.7822717E-01;  9.9999998E-03;  2.1108487E-01;7499;  5.1743300E-05;  0.0000000E+00; -2.5983188E-02;  9.9492511E+02;  1.8230739E-01; -4.2044331E+03;3;  6.8699589E+00;  0.0000000E+00;  1.6146070E-01;0; -1.3293321E-01;  1.2030353E+04;  0.0000000E+00; -1.7020000E+00;  4.0000000E+04;  0.0000000E+00;  3.9617023E+04; -7.7289678E-02;  0.0000000E+00; -5.5643532E-02;  4.2088008E+03;
  8.7812883E-01;  9.9999998E-03;  2.2113834E-01;7500;  4.5265462E-03;  0.0000000E+00; -2.6622094E-02;  9.9480225E+02;  1.8224606E-01; -4.3062070E+03;3;  8.2019119E+00;  0.0000000E+00;  8.5486509E-02;0; -1.2385840E-01;  1.2035897E+04;  0.0000000E+00; -1.3853931E+00;  4.0000000E+04;  0.0000000E+00;  3.9619531E+04; -7.3943399E-02;  0.0000000E+00; -4.9915001E-02;  4.4525830E+03;
  8.7795544E-01;  9.9999998E-03;  2.3120329E-01;7501;  9.1863293E-03;  0.0000000E+00; -2.7247198E-02;  9.9456836E+02;  1.8216021E-01; -4.4999775E+03;3;  9.5843954E+00;  0.0000000E+00;  6.1950095E-02;0; -1.1552456E-01;  1.2044176E+04;  0.0000000E+00; -9.0073431E-01;  4.0000000E+04;  0.0000000E+00;  3.9618512E+04; -7.0587769E-02;  0.0000000E+00; -4.4936791E-02;  4.3071704E+03;
  8.9715636E-01;  9.9999998E-03;  7.0396803E-02;7546; -4.9393106E-02;  0.0000000E+00; -1.5661061E-02;  9.9242480E+02;  1.9166970E-01; -6.2758403E+03;3; -2.7661564E+00;  0.0000000E+00;  2.9918644E-01;0; -1.0669619E-01;  1.0886744E+04;  0.0000000E+00; -7.6920003E-02;  4.0000000E+04;  0.0000000E+00;  3.9542230E+04;  8.7782502E-02;  0.0000000E+00; -1.9447869E-01;  7.7027893E+02;
  8.9729923E-01;  9.9999998E-03;  8.0504268E-02;7547; -4.7318917E-02;  0.0000000E+00; -1.7611949E-02;  9.9237274E+02;  1.9172005E-01; -6.3189497E+03;3; -2.7201719E+00;  0.0000000E+00;  3.7963372E-01;0; -1.0549939E-01;  1.0874680E+04;  0.0000000E+00; -1.3694653E-01;  4.0000000E+04;  0.0000000E+00;  3.9546816E+04;  8.1325740E-02;  0.0000000E+00; -1.8682513E-01;  1.7340257E+02;
  8.9743495E-01;  9.9999998E-03;  9.0582341E-02;7548; -4.5033835E-02;  0.0000000E+00; -1.9442229E-02;  9.9236816E+02;  1.9176450E-01; -6.3227520E+03;3; -2.6408539E+00;  0.0000000E+00;  5.3722847E-01;0; -1.0425115E-01;  1.0863845E+04;  0.0000000E+00; -2.1621883E-01;  4.0000000E+04;  0.0000000E+00;  3.9551199E+04;  7.4412271E-02;  0.0000000E+00; -1.7866342E-01;  4.5217572E+02;
  8.9754307E-01;  9.9999998E-03;  1.0063348E-01;7549; -4.2513188E-02;  0.0000000E+00; -2.1161217E-02;  9.9240936E+02;  1.9179405E-01; -6.2886299E+03;3; -2.1263125E+00;  0.0000000E+00;  4.6931556E-01;0; -1.0320048E-01;  1.0855572E+04;  0.0000000E+00; -3.1330550E-01;  4.0000000E+04;  0.0000000E+00;  3.9554633E+04;  6.6887155E-02;  0.0000000E+00; -1.7008764E-01;  9.2284552E+02;
  8.9759701E-01;  9.9999998E-03;  1.1066668E-01;7550; -3.9757930E-02;  0.0000000E+00; -2.2766607E-02;  9.9249683E+02;  1.9179985E-01; -6.2161387E+03;3; -1.5155892E+00;  0.0000000E+00;  3.7310186E-01;0; -1.0265316E-01;  1.0851427E+04;  0.0000000E+00; -4.2730758E-01;  4.0000000E+04;  0.0000000E+00;  3.9556984E+04;  5.8505964E-02;  0.0000000E+00; -1.6115913E-01;  1.2240509E+03;
  8.9756072E-01;  9.9999998E-03;  1.2071170E-01;7551; -3.6762491E-02;  0.0000000E+00; -2.4256790E-02;  9.9262500E+02;  1.9176376E-01; -6.1099707E+03;3; -8.2673955E-01;  0.0000000E+00;  2.4854334E-01;0; -1.0297182E-01;  1.0853558E+04;  0.0000000E+00; -5.5973434E-01;  4.0000000E+04;  0.0000000E+00;  3.9557906E+04;  4.8919916E-02;  0.0000000E+00; -1.5189174E-01;  1.3507524E+03;
  8.9743847E-01;  9.9999998E-03;  1.3077784E-01;7552; -3.3534959E-02;  0.0000000E+00; -2.5639268E-02;  9.9280164E+02;  1.9168995E-01; -5.9636558E+03;3; -8.2707331E-02;  0.0000000E+00;  1.0760790E-01;0; -1.0400753E-01;  1.0861760E+04;  0.0000000E+00; -7.1490157E-01;  4.0000000E+04;  0.0000000E+00;  3.9558113E+04;  3.8372293E-02;  0.0000000E+00; -1.4237982E-01;  1.3531615E+03;
  8.9727539E-01;  9.9999998E-03;  1.4085561E-01;7553; -3.0099779E-02;  0.0000000E+00; -2.6933102E-02;  9.9301697E+02;  1.9159640E-01; -5.7852432E+03;3;  6.9419968E-01;  0.0000000E+00; -5.3653233E-02;0; -1.0522407E-01;  1.0873826E+04;  0.0000000E+00; -8.9835948E-01;  4.0000000E+04;  0.0000000E+00;  3.9558078E+04;  2.7544888E-02;  0.0000000E+00; -1.3276896E-01;  1.3006775E+03;
  8.9711726E-01;  9.9999998E-03;  1.5093066E-01;7554; -2.6482493E-02;  0.0000000E+00; -2.8156599E-02;  9.9326953E+02;  1.9150403E-01; -5.5760181E+03;3;  1.5090315E+00;  0.0000000E+00; -2.2693674E-01;0; -1.0618719E-01;  1.0887045E+04;  0.0000000E+00; -1.1129906E+00;  4.0000000E+04;  0.0000000E+00;  3.9558383E+04;  1.6960846E-02;  0.0000000E+00; -1.2314804E-01;  1.2699568E+03;
  8.9701599E-01;  9.9999998E-03;  1.6099522E-01;7555; -2.2706404E-02;  0.0000000E+00; -2.9332502E-02;  9.9353973E+02;  1.9143870E-01; -5.3521260E+03;3;  2.3679698E+00;  0.0000000E+00; -4.0634921E-01;0; -1.0655557E-01;  1.0898216E+04;  0.0000000E+00; -1.3543842E+00;  4.0000000E+04;  0.0000000E+00;  3.9559445E+04;  7.0309932E-03;  0.0000000E+00; -1.1358656E-01;  1.3461729E+03;
  8.9698732E-01;  9.9999998E-03;  1.7104830E-01;7556; -1.8785024E-02;  0.0000000E+00; -3.0471312E-02;  9.9380328E+02;  1.9141114E-01; -5.1338140E+03;3;  3.2793794E+00;  0.0000000E+00; -5.8718622E-01;0; -1.0638748E-01;  1.0905619E+04;  0.0000000E+00; -1.6053004E+00;  4.0000000E+04;  0.0000000E+00;  3.9561008E+04; -2.2755109E-03;  0.0000000E+00; -1.0411197E-01;  1.5999222E+03;
  8.9692980E-01;  9.9999998E-03;  1.8107088E-01;7557; -1.4724316E-02;  0.0000000E+00; -3.1531177E-02;  9.9402905E+02;  1.9137833E-01; -4.9467598E+03;3;  4.2478809E+00;  0.0000000E+00; -7.5577933E-01;0; -1.0644973E-01;  1.0913436E+04;  0.0000000E+00; -1.8299197E+00;  4.0000000E+04;  0.0000000E+00;  3.9564008E+04; -1.1785597E-02;  0.0000000E+00; -9.4664134E-02;  2.0554846E+03;
  8.9688694E-01;  9.9999998E-03;  1.9108813E-01;7558; -1.0533530E-02;  0.0000000E+00; -3.2530956E-02;  9.9420886E+02;  1.9135869E-01; -4.7977783E+03;3;  5.2843394E+00;  0.0000000E+00; -9.1171211E-01;0; -1.0641856E-01;  1.0919414E+04;  0.0000000E+00; -1.9802123E+00;  4.0000000E+04;  0.0000000E+00;  3.9568250E+04; -2.1056287E-02;  0.0000000E+00; -8.5362278E-02;  2.6527458E+03;
  8.9684713E-01;  9.9999998E-03;  2.0111935E-01;7559; -6.2144245E-03;  0.0000000E+00; -3.3462647E-02;  9.9433307E+02;  1.9134299E-01; -4.6948691E+03;3;  6.3988495E+00;  0.0000000E+00; -1.0460396E+00;0; -1.0633356E-01;  1.0923865E+04;  0.0000000E+00; -2.0048687E+00;  4.0000000E+04;  0.0000000E+00;  3.9574207E+04; -3.0062059E-02;  0.0000000E+00; -7.6271504E-02;  3.3306948E+03;
  8.9679003E-01;  9.9999998E-03;  2.1116488E-01;7560; -1.7728857E-03;  0.0000000E+00; -3.4306075E-02;  9.9439514E+02;  1.9132271E-01; -4.6434639E+03;3;  7.5926585E+00;  0.0000000E+00; -1.1546540E+00;0; -1.0624972E-01;  1.0927674E+04;  0.0000000E+00; -1.8661423E+00;  4.0000000E+04;  0.0000000E+00;  3.9581344E+04; -3.8759071E-02;  0.0000000E+00; -6.7490645E-02;  4.0931238E+03;
  8.9670318E-01;  9.9999998E-03;  2.2124580E-01;7561;  2.8059406E-03;  0.0000000E+00; -3.5072174E-02;  9.9434979E+02;  1.9129284E-01; -4.6810425E+03;3;  8.8745384E+00;  0.0000000E+00; -1.2402270E+00;0; -1.0624388E-01;  1.0931461E+04;  0.0000000E+00; -1.5527171E+00;  4.0000000E+04;  0.0000000E+00;  3.9585391E+04; -4.7041759E-02;  0.0000000E+00; -5.9202120E-02;  4.5046885E+03;
  8.9651257E-01;  9.9999998E-03;  2.3134679E-01;7562;  7.5331130E-03;  0.0000000E+00; -3.5828020E-02;  9.9412958E+02;  1.9122343E-01; -4.8634551E+03;3;  1.0205496E+01;  0.0000000E+00; -1.2884346E+00;0; -1.0696889E-01;  1.0939189E+04;  0.0000000E+00; -1.0923691E+00;  4.0000000E+04;  0.0000000E+00;  3.9581297E+04; -5.4922771E-02;  0.0000000E+00; -5.2046120E-02;  3.9576875E+03;
  9.1714799E-01;  9.9999998E-03;  7.0333578E-02;7607; -5.2695755E-02;  0.0000000E+00; -2.0003609E-02;  9.9175336E+02;  2.0132463E-01; -6.8320840E+03;3; -2.8494186E+00;  0.0000000E+00;  1.1903978E-01;0;  3.2981881E-01;  9.8617178E+03;  0.0000000E+00;  6.8469490E-03;  4.0000000E+04;  0.0000000E+00;  3.9490520E+04;  5.7062978E-01;  0.0000000E+00; -2.4081096E-01;  2.8906782E+03;
  9.1718549E-01;  9.9999998E-03;  8.0418751E-02;7608; -5.0624166E-02;  0.0000000E+00; -2.2459876E-02;  9.9170770E+02;  2.0133120E-01; -6.8699092E+03;3; -3.0857525E+00;  0.0000000E+00;  2.5002304E-01;0;  3.1525403E-01;  9.8557578E+03;  0.0000000E+00; -3.9995968E-02;  4.0000000E+04;  0.0000000E+00;  3.9496066E+04;  5.4661918E-01;  0.0000000E+00; -2.3136514E-01;  2.2802134E+03;
  9.1719592E-01;  9.9999998E-03;  9.0492465E-02;7609; -4.8357952E-02;  0.0000000E+00; -2.4740404E-02;  9.9170746E+02;  2.0131981E-01; -6.8701069E+03;3; -3.2746074E+00;  0.0000000E+00;  5.1339161E-01;0;  2.9868734E-01;  9.8520654E+03;  0.0000000E+00; -1.1331888E-01;  4.0000000E+04;  0.0000000E+00;  3.9501496E+04;  5.1993209E-01;  0.0000000E+00; -2.2124474E-01;  1.7883003E+03;
  9.1716897E-01;  9.9999998E-03;  1.0054932E-01;7610; -4.5824341E-02;  0.0000000E+00; -2.6877027E-02;  9.9175586E+02;  2.0128669E-01; -6.8300098E+03;3; -2.5560195E+00;  0.0000000E+00;  2.4880768E-01;0;  2.8006870E-01;  9.8513682E+03;  0.0000000E+00; -2.1633786E-01;  4.0000000E+04;  0.0000000E+00;  3.9505906E+04;  4.9067372E-01;  0.0000000E+00; -2.1060503E-01;  1.4874310E+03;
  9.1709077E-01;  9.9999998E-03;  1.1058853E-01;7611; -4.3019459E-02;  0.0000000E+00; -2.8873099E-02;  9.9183984E+02;  2.0122710E-01; -6.7604326E+03;3; -1.7262392E+00;  0.0000000E+00; -6.4592108E-02;0;  2.5925821E-01;  9.8545332E+03;  0.0000000E+00; -3.5004798E-01;  4.0000000E+04;  0.0000000E+00;  3.9508848E+04;  4.5882919E-01;  0.0000000E+00; -1.9957097E-01;  1.3314087E+03;
  9.1693467E-01;  9.9999998E-03;  1.2064289E-01;7612; -3.9937604E-02;  0.0000000E+00; -3.0732337E-02;  9.9197729E+02;  2.0112918E-01; -6.6465615E+03;3; -8.2856607E-01;  0.0000000E+00; -3.9824459E-01;0;  2.3577735E-01;  9.8629463E+03;  0.0000000E+00; -5.1228702E-01;  4.0000000E+04;  0.0000000E+00;  3.9510234E+04;  4.2396241E-01;  0.0000000E+00; -1.8818507E-01;  1.1953680E+03;
  9.1671604E-01;  9.9999998E-03;  1.3071437E-01;7613; -3.6593936E-02;  0.0000000E+00; -3.2466080E-02;  9.9216284E+02;  2.0100152E-01; -6.4928403E+03;3;  8.7968096E-02;  0.0000000E+00; -7.4287903E-01;0;  2.1038070E-01;  9.8759355E+03;  0.0000000E+00; -6.9704294E-01;  4.0000000E+04;  0.0000000E+00;  3.9510645E+04;  3.8694829E-01;  0.0000000E+00; -1.7656758E-01;  1.0112329E+03;
  9.1647726E-01;  9.9999998E-03;  1.4079566E-01;7614; -3.3016328E-02;  0.0000000E+00; -3.4093961E-02;  9.9239319E+02;  2.0086512E-01; -6.3019854E+03;3;  9.9315965E-01;  0.0000000E+00; -1.0950025E+00;0;  1.8440415E-01;  9.8914277E+03;  0.0000000E+00; -8.9451617E-01;  4.0000000E+04;  0.0000000E+00;  3.9510668E+04;  3.4922907E-01;  0.0000000E+00; -1.6482492E-01;  7.8649811E+02;
  9.1626847E-01;  9.9999998E-03;  1.5088002E-01;7615; -2.9233661E-02;  0.0000000E+00; -3.5635527E-02;  9.9266919E+02;  2.0074728E-01; -6.0733540E+03;3;  1.9057071E+00;  0.0000000E+00; -1.4321404E+00;0;  1.5916064E-01;  9.9067520E+03;  0.0000000E+00; -1.0919069E+00;  4.0000000E+04;  0.0000000E+00;  3.9510961E+04;  3.1213501E-01;  0.0000000E+00; -1.5297437E-01;  5.4678979E+02;
  9.1613781E-01;  9.9999998E-03;  1.6096260E-01;7616; -2.5274146E-02;  0.0000000E+00; -3.7110742E-02;  9.9297552E+02;  2.0066512E-01; -5.8195386E+03;3;  2.8317049E+00;  0.0000000E+00; -1.7556896E+00;0;  1.3560186E-01;  9.9192529E+03;  0.0000000E+00; -1.2744550E+00;  4.0000000E+04;  0.0000000E+00;  3.9512090E+04;  2.7661538E-01;  0.0000000E+00; -1.4101352E-01;  3.1503415E+02;
  9.1610926E-01;  9.9999998E-03;  1.7103696E-01;7617; -2.1164102E-02;  0.0000000E+00; -3.8532328E-02;  9.9328705E+02;  2.0063688E-01; -5.5614761E+03;3;  3.7915490E+00;  0.0000000E+00; -2.0549929E+00;0;  1.1394867E-01;  9.9272461E+03;  0.0000000E+00; -1.4256153E+00;  4.0000000E+04;  0.0000000E+00;  3.9514562E+04;  2.4292232E-01;  0.0000000E+00; -1.2897365E-01;  3.4396231E+02;
  9.1620189E-01;  9.9999998E-03;  1.8109961E-01;7618; -1.6927995E-02;  0.0000000E+00; -3.9912000E-02;  9.9358789E+02;  2.0066969E-01; -5.3122036E+03;3;  4.8019137E+00;  0.0000000E+00; -2.3267300E+00;0;  9.4226345E-02;  9.9293848E+03;  0.0000000E+00; -1.5266696E+00;  4.0000000E+04;  0.0000000E+00;  3.9518484E+04;  2.1115649E-01;  0.0000000E+00; -1.1693014E-01;  7.9057129E+02;
  9.1643226E-01;  9.9999998E-03;  1.9115584E-01;7619; -1.2586954E-02;  0.0000000E+00; -4.1258473E-02;  9.9386176E+02;  2.0077114E-01; -5.0853491E+03;3;  5.8793406E+00;  0.0000000E+00; -2.5654821E+00;0;  7.6386899E-02;  9.9245127E+03;  0.0000000E+00; -1.5583218E+00;  4.0000000E+04;  0.0000000E+00;  3.9524398E+04;  1.8136004E-01;  0.0000000E+00; -1.0497314E-01;  1.4738842E+03;
  9.1678911E-01;  9.9999998E-03;  2.0121898E-01;7620; -8.1567373E-03;  0.0000000E+00; -4.2565923E-02;  9.9408368E+02;  2.0093322E-01; -4.9014561E+03;3;  7.0256262E+00;  0.0000000E+00; -2.7885134E+00;0;  6.0003169E-02;  9.9127988E+03;  0.0000000E+00; -1.5079192E+00;  4.0000000E+04;  0.0000000E+00;  3.9532074E+04;  1.5317549E-01;  0.0000000E+00; -9.3172319E-02;  2.3814827E+03;
  9.1705787E-01;  9.9999998E-03;  2.1128550E-01;7621; -3.6417397E-03;  0.0000000E+00; -4.3724936E-02;  9.9422668E+02;  2.0106764E-01; -4.7829922E+03;3;  8.2529545E+00;  0.0000000E+00; -2.9511859E+00;0;  4.2380206E-02;  9.9022637E+03;  0.0000000E+00; -1.3778896E+00;  4.0000000E+04;  0.0000000E+00;  3.9541164E+04;  1.2388398E-01;  0.0000000E+00; -8.1503779E-02;  3.5168191E+03;
  9.1716808E-01;  9.9999998E-03;  2.2139104E-01;7622;  9.7404717E-04;  0.0000000E+00; -4.4724248E-02;  9.9420013E+02;  2.0114614E-01; -4.8050156E+03;3;  9.5701504E+00;  0.0000000E+00; -3.0342710E+00;0;  2.3247622E-02;  9.8956729E+03;  0.0000000E+00; -1.1691563E+00;  4.0000000E+04;  0.0000000E+00;  3.9546215E+04;  9.3481980E-02;  0.0000000E+00; -7.0234358E-02;  4.1350435E+03;
  9.1713232E-01;  9.9999998E-03;  2.3152219E-01;7623;  5.6825732E-03;  0.0000000E+00; -4.5729209E-02;  9.9393567E+02;  2.0116955E-01; -5.0241167E+03;3;  1.0896770E+01;  0.0000000E+00; -3.0956571E+00;0;  2.7881600E-03;  9.8936553E+03;  0.0000000E+00; -9.0003276E-01;  4.0000000E+04;  0.0000000E+00;  3.9539410E+04;  6.3238658E-02;  0.0000000E+00; -6.0450498E-02;  3.2678748E+03;
  9.3944544E-01;  9.9999998E-03;  7.0616528E-02;7668; -5.5192821E-02;  0.0000000E+00; -2.5230691E-02;  9.9304816E+02;  2.1149574E-01; -5.7593521E+03;3; -3.4705675E+00;  0.0000000E+00;  4.3753260E-01;0;  1.2935739E+00;  8.9651738E+03;  0.0000000E+00; -3.8397510E-02;  4.0000000E+04;  0.0000000E+00;  3.9429152E+04;  1.5776947E+00;  0.0000000E+00; -2.8412074E-01;  6.2737334E+03;
  9.3950170E-01;  9.9999998E-03;  8.0698334E-02;7669; -5.3188555E-02;  0.0000000E+00; -2.8262304E-02;  9.9306140E+02;  2.1150577E-01; -5.7483403E+03;3; -4.1677470E+00;  0.0000000E+00;  8.5494578E-01;0;  1.2546464E+00;  8.9613896E+03;  0.0000000E+00; -7.9170845E-02;  4.0000000E+04;  0.0000000E+00;  3.9436230E+04;  1.5286350E+00;  0.0000000E+00; -2.7398863E-01;  5.5026924E+03;
  9.3948233E-01;  9.9999998E-03;  9.0759583E-02;7670; -5.1006343E-02;  0.0000000E+00; -3.1071533E-02;  9.9309711E+02;  2.1147589E-01; -5.7187617E+03;3; -3.9342649E+00;  0.0000000E+00;  5.6710553E-01;0;  1.2075750E+00;  8.9608877E+03;  0.0000000E+00; -1.4312866E-01;  4.0000000E+04;  0.0000000E+00;  3.9443133E+04;  1.4705392E+00;  0.0000000E+00; -2.6296422E-01;  4.8000117E+03;
  9.3936604E-01;  9.9999998E-03;  1.0080439E-01;7671; -4.8519146E-02;  0.0000000E+00; -3.3696759E-02;  9.9315582E+02;  2.1140173E-01; -5.6701221E+03;3; -2.8656895E+00;  0.0000000E+00; -9.7807899E-02;0;  1.1519194E+00;  8.9647598E+03;  0.0000000E+00; -2.3460715E-01;  4.0000000E+04;  0.0000000E+00;  3.9449613E+04;  1.4030873E+00;  0.0000000E+00; -2.5116792E-01;  4.2086050E+03;
  9.3915385E-01;  9.9999998E-03;  1.1081569E-01;7672; -4.5713086E-02;  0.0000000E+00; -3.6140934E-02;  9.9323627E+02;  2.1128179E-01; -5.6035093E+03;3; -1.7105694E+00;  0.0000000E+00; -8.4326863E-01;0;  1.0886483E+00;  8.9730781E+03;  0.0000000E+00; -3.5158896E-01;  4.0000000E+04;  0.0000000E+00;  3.9454328E+04;  1.3274281E+00;  0.0000000E+00; -2.3877977E-01;  3.7184539E+03;
  9.3884403E-01;  9.9999998E-03;  1.2083315E-01;7673; -4.2586684E-02;  0.0000000E+00; -3.8416363E-02;  9.9334137E+02;  2.1111980E-01; -5.5164028E+03;3; -5.8894306E-01;  0.0000000E+00; -1.5499235E+00;0;  1.0183711E+00;  8.9860713E+03;  0.0000000E+00; -4.8262593E-01;  4.0000000E+04;  0.0000000E+00;  3.9457508E+04;  1.2442625E+00;  0.0000000E+00; -2.2589129E-01;  3.3036763E+03;
  9.3848276E-01;  9.9999998E-03;  1.3086374E-01;7674; -3.9161664E-02;  0.0000000E+00; -4.0537760E-02;  9.9348859E+02;  2.1093830E-01; -5.3944351E+03;3;  5.0103986E-01;  0.0000000E+00; -2.1602073E+00;0;  9.4411588E-01;  9.0022109E+03;  0.0000000E+00; -6.0704738E-01;  4.0000000E+04;  0.0000000E+00;  3.9459301E+04;  1.1567755E+00;  0.0000000E+00; -2.1265960E-01;  2.9715427E+03;
  9.3814945E-01;  9.9999998E-03;  1.4090896E-01;7675; -3.5476033E-02;  0.0000000E+00; -4.2540092E-02;  9.9368561E+02;  2.1076748E-01; -5.2312344E+03;3;  1.4932519E+00;  0.0000000E+00; -2.7672560E+00;0;  8.7003958E-01;  9.0185420E+03;  0.0000000E+00; -6.9811553E-01;  4.0000000E+04;  0.0000000E+00;  3.9460336E+04;  1.0692333E+00;  0.0000000E+00; -1.9919370E-01;  2.7319150E+03;
  9.3792003E-01;  9.9999998E-03;  1.5096882E-01;7676; -3.1561520E-02;  0.0000000E+00; -4.4447556E-02;  9.9392987E+02;  2.1064530E-01; -5.0288750E+03;3;  2.4444952E+00;  0.0000000E+00; -3.3339741E+00;0;  7.9950035E-01;  9.0321777E+03;  0.0000000E+00; -7.3006481E-01;  4.0000000E+04;  0.0000000E+00;  3.9461387E+04;  9.8496538E-01;  0.0000000E+00; -1.8546504E-01;  2.5336094E+03;
  9.3780857E-01;  9.9999998E-03;  1.6103518E-01;7677; -2.7453788E-02;  0.0000000E+00; -4.6266615E-02;  9.9421002E+02;  2.1057735E-01; -4.7967881E+03;3;  3.4034572E+00;  0.0000000E+00; -3.8331101E+00;0;  7.3285884E-01;  9.0419326E+03;  0.0000000E+00; -6.8752503E-01;  4.0000000E+04;  0.0000000E+00;  3.9463879E+04;  9.0424550E-01;  0.0000000E+00; -1.7138666E-01;  2.2697971E+03;
  9.3780839E-01;  9.9999998E-03;  1.7110334E-01;7678; -2.3186002E-02;  0.0000000E+00; -4.7995266E-02;  9.9451227E+02;  2.1056259E-01; -4.5463813E+03;3;  4.3844414E+00;  0.0000000E+00; -4.2726088E+00;0;  6.6959149E-01;  9.0476289E+03;  0.0000000E+00; -5.7200277E-01;  4.0000000E+04;  0.0000000E+00;  3.9468184E+04;  8.2656336E-01;  0.0000000E+00; -1.5697187E-01;  1.8914801E+03;
  9.3793064E-01;  9.9999998E-03;  1.8117158E-01;7679; -1.8793900E-02;  0.0000000E+00; -4.9642954E-02;  9.9482025E+02;  2.1060480E-01; -4.2912339E+03;3;  5.3796344E+00;  0.0000000E+00; -4.6748571E+00;0;  6.0990727E-01;  9.0482881E+03;  0.0000000E+00; -4.0308827E-01;  4.0000000E+04;  0.0000000E+00;  3.9474512E+04;  7.5227547E-01;  0.0000000E+00; -1.4236817E-01;  1.5392988E+03;
  9.3819976E-01;  9.9999998E-03;  1.9124115E-01;7680; -1.4317772E-02;  0.0000000E+00; -5.1224403E-02;  9.9511230E+02;  2.1071613E-01; -4.0492710E+03;3;  6.4330993E+00;  0.0000000E+00; -5.0123234E+00;0;  5.5448604E-01;  9.0427617E+03;  0.0000000E+00; -2.1353082E-01;  4.0000000E+04;  0.0000000E+00;  3.9483316E+04;  6.8227762E-01;  0.0000000E+00; -1.2779158E-01;  1.6705747E+03;
  9.3859172E-01;  9.9999998E-03;  2.0131569E-01;7681; -9.7927554E-03;  0.0000000E+00; -5.2726477E-02;  9.9536823E+02;  2.1088739E-01; -3.8372317E+03;3;  7.5646610E+00;  0.0000000E+00; -5.2776046E+00;0;  5.0258678E-01;  9.0312256E+03;  0.0000000E+00; -4.4261940E-02;  4.0000000E+04;  0.0000000E+00;  3.9494453E+04;  6.1602116E-01;  0.0000000E+00; -1.1343437E-01;  2.5552266E+03;
  9.3900788E-01;  9.9999998E-03;  2.1140318E-01;7682; -5.2422695E-03;  0.0000000E+00; -5.4082606E-02;  9.9553607E+02;  2.1107987E-01; -3.6981770E+03;3;  8.7534981E+00;  0.0000000E+00; -5.4659252E+00;0;  4.5174918E-01;  9.0163564E+03;  0.0000000E+00;  5.9224002E-02;  4.0000000E+04;  0.0000000E+00;  3.9506883E+04;  5.5120069E-01;  0.0000000E+00; -9.9451520E-02;  3.8497766E+03;
  9.3936813E-01;  9.9999998E-03;  2.2154288E-01;7683; -6.6807162E-04;  0.0000000E+00; -5.5294830E-02;  9.9548566E+02;  2.1126418E-01; -3.7399519E+03;3;  1.0074475E+01;  0.0000000E+00; -5.5620503E+00;0;  4.0037274E-01;  9.0003838E+03;  0.0000000E+00;  6.5306745E-02;  4.0000000E+04;  0.0000000E+00;  3.9512344E+04;  4.8652956E-01;  0.0000000E+00; -8.6156830E-02;  4.4081963E+03;
  9.3954140E-01;  9.9999998E-03;  2.3169835E-01;7684;  3.9185286E-03;  0.0000000E+00; -5.6493990E-02;  9.9510590E+02;  2.1139641E-01; -4.0545525E+03;3;  1.1515717E+01;  0.0000000E+00; -5.5998120E+00;0;  3.4572712E-01;  8.9878076E+03;  0.0000000E+00; -4.4068340E-02;  4.0000000E+04;  0.0000000E+00;  3.9504113E+04;  4.2049289E-01;  0.0000000E+00; -7.4765779E-02;  3.3028730E+03;
  9.6197033E-01;  9.9999998E-03;  7.0686288E-02;7729; -5.6231689E-02;  0.0000000E+00; -3.0399503E-02;  9.9498279E+02;  2.1979439E-01; -4.1565317E+03;3; -4.9904165E+00;  0.0000000E+00;  1.2954817E+00;0;  2.8094575E+00;  8.3399844E+03;  0.0000000E+00; -1.4152858E-01;  4.0000000E+04;  0.0000000E+00;  3.9365195E+04;  3.1145453E+00;  0.0000000E+00; -3.0508783E-01;  1.0843029E+04;
  9.6202528E-01;  9.9999998E-03;  8.0783024E-02;7730; -5.4447003E-02;  0.0000000E+00; -3.3976298E-02;  9.9502820E+02;  2.1980582E-01; -4.1189043E+03;3; -4.7019429E+00;  0.0000000E+00;  8.0269849E-01;0;  2.7404273E+00;  8.3377480E+03;  0.0000000E+00; -1.8436281E-01;  4.0000000E+04;  0.0000000E+00;  3.9373414E+04;  3.0368211E+00;  0.0000000E+00; -2.9639381E-01;  9.9290977E+03;
  9.6202397E-01;  9.9999998E-03;  9.0859219E-02;7731; -5.2379761E-02;  0.0000000E+00; -3.7363473E-02;  9.9509198E+02;  2.1979482E-01; -4.0660684E+03;3; -3.6514194E+00;  0.0000000E+00; -3.3212093E-01;0;  2.6591835E+00;  8.3373730E+03;  0.0000000E+00; -2.4258444E-01;  4.0000000E+04;  0.0000000E+00;  3.9382113E+04;  2.9458833E+00;  0.0000000E+00; -2.8669974E-01;  8.9886162E+03;
  9.6193862E-01;  9.9999998E-03;  1.0092393E-01;7732; -4.9961936E-02;  0.0000000E+00; -4.0587600E-02;  9.9516846E+02;  2.1975422E-01; -4.0027141E+03;3; -2.2493367E+00;  0.0000000E+00; -1.6305468E+00;0;  2.5643122E+00;  8.3396143E+03;  0.0000000E+00; -3.1753403E-01;  4.0000000E+04;  0.0000000E+00;  3.9390422E+04;  2.8403738E+00;  0.0000000E+00; -2.7606148E-01;  8.0696289E+03;
  9.6174639E-01;  9.9999998E-03;  1.1095764E-01;7733; -4.7189500E-02;  0.0000000E+00; -4.3629151E-02;  9.9526453E+02;  2.1967573E-01; -3.9231145E+03;3; -9.2233253E-01;  0.0000000E+00; -2.7942221E+00;0;  2.4553113E+00;  8.3451787E+03;  0.0000000E+00; -3.9850777E-01;  4.0000000E+04;  0.0000000E+00;  3.9397559E+04;  2.7199008E+00;  0.0000000E+00; -2.6458961E-01;  7.2051157E+03;
  9.6147615E-01;  9.9999998E-03;  1.2097479E-01;7734; -4.4077102E-02;  0.0000000E+00; -4.6486691E-02;  9.9538464E+02;  2.1956933E-01; -3.8236152E+03;3;  2.0569319E-01;  0.0000000E+00; -3.8918643E+00;0;  2.3352170E+00;  8.3535225E+03;  0.0000000E+00; -4.5952922E-01;  4.0000000E+04;  0.0000000E+00;  3.9403375E+04;  2.5876267E+00;  0.0000000E+00; -2.5240961E-01;  6.4425771E+03;
  9.6115851E-01;  9.9999998E-03;  1.3098882E-01;7735; -4.0646587E-02;  0.0000000E+00; -4.9151286E-02;  9.9553119E+02;  2.1944600E-01; -3.7021909E+03;3;  1.3017411E+00;  0.0000000E+00; -4.7288270E+00;0;  2.2070649E+00;  8.3641152E+03;  0.0000000E+00; -4.6227872E-01;  4.0000000E+04;  0.0000000E+00;  3.9407977E+04;  2.4466925E+00;  0.0000000E+00; -2.3962754E-01;  5.8251367E+03;
  9.6086144E-01;  9.9999998E-03;  1.4101323E-01;7736; -3.6933772E-02;  0.0000000E+00; -5.1642038E-02;  9.9572656E+02;  2.1932663E-01; -3.5403250E+03;3;  2.3397007E+00;  0.0000000E+00; -5.4526777E+00;0;  2.0761359E+00;  8.3752119E+03;  0.0000000E+00; -3.6528221E-01;  4.0000000E+04;  0.0000000E+00;  3.9411840E+04;  2.3024147E+00;  0.0000000E+00; -2.2627869E-01;  5.3561304E+03;
  9.6065336E-01;  9.9999998E-03;  1.5105568E-01;7737; -3.2969993E-02;  0.0000000E+00; -5.3978320E-02;  9.9596619E+02;  2.1923563E-01; -3.3418193E+03;3;  3.2440069E+00;  0.0000000E+00; -6.2113099E+00;0;  1.9472510E+00;  8.3848623E+03;  0.0000000E+00; -1.3827512E-01;  4.0000000E+04;  0.0000000E+00;  3.9415844E+04;  2.1595368E+00;  0.0000000E+00; -2.1228585E-01;  5.0060903E+03;
  9.6055228E-01;  9.9999998E-03;  1.6111378E-01;7738; -2.8790733E-02;  0.0000000E+00; -5.6159098E-02;  9.9623022E+02;  2.1918003E-01; -3.1230671E+03;3;  4.1662831E+00;  0.0000000E+00; -6.8638668E+00;0;  1.8217226E+00;  8.3920273E+03;  0.0000000E+00;  2.2302739E-01;  4.0000000E+04;  0.0000000E+00;  3.9421168E+04;  2.0193412E+00;  0.0000000E+00; -1.9761860E-01;  4.8194814E+03;
  9.6059555E-01;  9.9999998E-03;  1.7118026E-01;7739; -2.4439134E-02;  0.0000000E+00; -5.8197722E-02;  9.9650385E+02;  2.1917346E-01; -2.8964146E+03;3;  5.0653143E+00;  0.0000000E+00; -7.5063944E+00;0;  1.7018536E+00;  8.3951221E+03;  0.0000000E+00;  6.8833286E-01;  4.0000000E+04;  0.0000000E+00;  3.9428762E+04;  1.8843477E+00;  0.0000000E+00; -1.8249404E-01;  4.9887524E+03;
  9.6082121E-01;  9.9999998E-03;  1.8125516E-01;7740; -1.9971045E-02;  0.0000000E+00; -6.0131177E-02;  9.9676324E+02;  2.1922961E-01; -2.6815137E+03;3;  6.0582213E+00;  0.0000000E+00; -8.0045958E+00;0;  1.5897373E+00;  8.3927646E+03;  0.0000000E+00;  1.1914440E+00;  4.0000000E+04;  0.0000000E+00;  3.9438453E+04;  1.7570453E+00;  0.0000000E+00; -1.6730794E-01;  5.6301733E+03;
  9.6124178E-01;  9.9999998E-03;  1.9133820E-01;7741; -1.5435018E-02;  0.0000000E+00; -6.1968554E-02;  9.9699170E+02;  2.1935321E-01; -2.4922412E+03;3;  7.0640144E+00;  0.0000000E+00; -8.4490509E+00;0;  1.4861462E+00;  8.3841895E+03;  0.0000000E+00;  1.6413652E+00;  4.0000000E+04;  0.0000000E+00;  3.9450734E+04;  1.6387037E+00;  0.0000000E+00; -1.5255743E-01;  6.5432583E+03;
  9.6182919E-01;  9.9999998E-03;  2.0143563E-01;7742; -1.0884816E-02;  0.0000000E+00; -6.3698739E-02;  9.9715961E+02;  2.1953623E-01; -2.3531379E+03;3;  8.0497942E+00;  0.0000000E+00; -8.8038874E+00;0;  1.3898896E+00;  8.3698223E+03;  0.0000000E+00;  1.9458308E+00;  4.0000000E+04;  0.0000000E+00;  3.9465504E+04;  1.5286815E+00;  0.0000000E+00; -1.3879190E-01;  7.4021260E+03;
  9.6253788E-01;  9.9999998E-03;  2.1154730E-01;7743; -6.3869143E-03;  0.0000000E+00; -6.5283000E-02;  9.9723541E+02;  2.1976247E-01; -2.2903262E+03;3;  9.0794497E+00;  0.0000000E+00; -9.0006790E+00;0;  1.2993335E+00;  8.3507900E+03;  0.0000000E+00;  2.0350494E+00;  4.0000000E+04;  0.0000000E+00;  3.9480090E+04;  1.4259838E+00;  0.0000000E+00; -1.2665033E-01;  7.9909272E+03;
  9.6317542E-01;  9.9999998E-03;  2.2169501E-01;7744; -1.9958213E-03;  0.0000000E+00; -6.6652350E-02;  9.9709393E+02;  2.1997835E-01; -2.4075525E+03;3;  1.0340977E+01;  0.0000000E+00; -9.0612116E+00;0;  1.2062120E+00;  8.3308955E+03;  0.0000000E+00;  1.8475699E+00;  4.0000000E+04;  0.0000000E+00;  3.9487930E+04;  1.3228660E+00;  0.0000000E+00; -1.1665394E-01;  7.7680020E+03;
  9.6347225E-01;  9.9999998E-03;  2.3185156E-01;7745;  2.2931860E-03;  0.0000000E+00; -6.7865863E-02;  9.9654333E+02;  2.2011843E-01; -2.8636716E+03;3;  1.1892713E+01;  0.0000000E+00; -8.9885406E+00;0;  1.1001582E+00;  8.3147812E+03;  0.0000000E+00;  1.3314043E+00;  4.0000000E+04;  0.0000000E+00;  3.9482344E+04;  1.2099183E+00;  0.0000000E+00; -1.0976003E-01;  5.9420469E+03;
  9.8557514E-01;  9.9999998E-03;  7.0683911E-02;7790; -5.4505337E-02;  0.0000000E+00; -3.4316096E-02;  9.9502734E+02;  2.2487168E-01; -4.1195366E+03;3; -1.3557940E+01;  0.0000000E+00; -4.8162003E+00;0;  4.7272673E+00;  7.9755151E+03;  0.0000000E+00; -1.8121915E-01;  4.0000000E+04;  0.0000000E+00;  3.9305434E+04;  5.0091224E+00;  0.0000000E+00; -2.8185520E-01;  1.5924109E+04;
  9.8539335E-01;  9.9999998E-03;  8.0789573E-02;7791; -5.3415436E-02;  0.0000000E+00; -3.8783636E-02;  9.9503650E+02;  2.2484446E-01; -4.1119819E+03;3; -5.7108912E+00;  0.0000000E+00; -5.4738984E+00;0;  4.6132474E+00;  7.9768540E+03;  0.0000000E+00; -2.2651151E-01;  4.0000000E+04;  0.0000000E+00;  3.9314375E+04;  4.8917022E+00;  0.0000000E+00; -2.7845469E-01;  1.4904101E+04;
  9.8512310E-01;  9.9999998E-03;  9.0881862E-02;7792; -5.1606294E-02;  0.0000000E+00; -4.3049295E-02;  9.9506195E+02;  2.2479703E-01; -4.0908982E+03;3; -2.3156996E+00;  0.0000000E+00; -6.1245947E+00;0;  4.4810176E+00;  7.9796328E+03;  0.0000000E+00; -2.8478554E-01;  4.0000000E+04;  0.0000000E+00;  3.9324391E+04;  4.7549438E+00;  0.0000000E+00; -2.7392647E-01;  1.3751302E+04;
  9.8477393E-01;  9.9999998E-03;  1.0096758E-01;7793; -4.9334519E-02;  0.0000000E+00; -4.7104567E-02;  9.9511188E+02;  2.2473317E-01; -4.0495193E+03;3; -6.7423731E-01;  0.0000000E+00; -6.7492423E+00;0;  4.3323803E+00;  7.9840498E+03;  0.0000000E+00; -3.5553363E-01;  4.0000000E+04;  0.0000000E+00;  3.9334914E+04;  4.6005111E+00;  0.0000000E+00; -2.6813078E-01;  1.2536388E+04;
  9.8436487E-01;  9.9999998E-03;  1.1103773E-01;7794; -4.6698991E-02;  0.0000000E+00; -5.0919592E-02;  9.9519208E+02;  2.2465654E-01; -3.9831057E+03;3;  4.2528236E-01;  0.0000000E+00; -7.3846908E+00;0;  4.1699963E+00;  7.9900195E+03;  0.0000000E+00; -4.2333853E-01;  4.0000000E+04;  0.0000000E+00;  3.9344543E+04;  4.4310398E+00;  0.0000000E+00; -2.6104370E-01;  1.1338029E+04;
  9.8393315E-01;  9.9999998E-03;  1.2109379E-01;7795; -4.3742061E-02;  0.0000000E+00; -5.4492101E-02;  9.9529919E+02;  2.2456950E-01; -3.8943237E+03;3;  1.3990679E+00;  0.0000000E+00; -8.1007547E+00;0;  3.9977193E+00;  7.9972563E+03;  0.0000000E+00; -4.5372817E-01;  4.0000000E+04;  0.0000000E+00;  3.9353434E+04;  4.2504640E+00;  0.0000000E+00; -2.5274476E-01;  1.0234271E+04;
  9.8352230E-01;  9.9999998E-03;  1.3116452E-01;7796; -4.0472899E-02;  0.0000000E+00; -5.7816338E-02;  9.9545148E+02;  2.2448023E-01; -3.7682109E+03;3;  2.3504205E+00;  0.0000000E+00; -8.7632113E+00;0;  3.8193042E+00;  8.0052812E+03;  0.0000000E+00; -3.9746559E-01;  4.0000000E+04;  0.0000000E+00;  3.9361051E+04;  4.0626583E+00;  0.0000000E+00; -2.4335416E-01;  9.2704951E+03;
  9.8319316E-01;  9.9999998E-03;  1.4124592E-01;7797; -3.6905102E-02;  0.0000000E+00; -6.0884558E-02;  9.9564734E+02;  2.2439930E-01; -3.6059521E+03;3;  3.3154805E+00;  0.0000000E+00; -9.4096336E+00;0;  3.6400697E+00;  8.0131924E+03;  0.0000000E+00; -2.0534527E-01;  4.0000000E+04;  0.0000000E+00;  3.9368430E+04;  3.8730404E+00;  0.0000000E+00; -2.3297073E-01;  8.4456465E+03;
  9.8305804E-01;  9.9999998E-03;  1.5133089E-01;7798; -3.3077758E-02;  0.0000000E+00; -6.3735045E-02;  9.9588123E+02;  2.2434619E-01; -3.4121895E+03;3;  4.3155494E+00;  0.0000000E+00; -1.0033021E+01;0;  3.4688616E+00;  8.0190679E+03;  0.0000000E+00;  1.5183260E-01;  4.0000000E+04;  0.0000000E+00;  3.9376230E+04;  3.6904755E+00;  0.0000000E+00; -2.2161388E-01;  7.7895542E+03;
  9.8312670E-01;  9.9999998E-03;  1.6142613E-01;7799; -2.9035244E-02;  0.0000000E+00; -6.6371210E-02;  9.9613220E+02;  2.2432752E-01; -3.2042544E+03;3;  5.2768655E+00;  0.0000000E+00; -1.0816674E+01;0;  3.3063211E+00;  8.0221235E+03;  0.0000000E+00;  6.6773611E-01;  4.0000000E+04;  0.0000000E+00;  3.9385336E+04;  3.5158210E+00;  0.0000000E+00; -2.0949975E-01;  7.4893276E+03;
  9.8339182E-01;  9.9999998E-03;  1.7152967E-01;7800; -2.4822276E-02;  0.0000000E+00; -6.8789952E-02;  9.9636749E+02;  2.2434041E-01; -3.0093052E+03;3;  6.3470120E+00;  0.0000000E+00; -1.1450882E+01;0;  3.1519833E+00;  8.0217783E+03;  0.0000000E+00;  1.2899785E+00;  4.0000000E+04;  0.0000000E+00;  3.9396137E+04;  3.3491817E+00;  0.0000000E+00; -1.9719845E-01;  7.8646919E+03;
  9.8384887E-01;  9.9999998E-03;  1.8163140E-01;7801; -2.0495595E-02;  0.0000000E+00; -7.1003906E-02;  9.9654321E+02;  2.2438791E-01; -2.8637349E+03;3;  7.5472908E+00;  0.0000000E+00; -1.1873068E+01;0;  3.0060370E+00;  8.0175723E+03;  0.0000000E+00;  1.9245133E+00;  4.0000000E+04;  0.0000000E+00;  3.9408246E+04;  3.1916521E+00;  0.0000000E+00; -1.8561503E-01;  8.9248799E+03;
  9.8446840E-01;  9.9999998E-03;  1.9171919E-01;7802; -1.6122825E-02;  0.0000000E+00; -7.3038563E-02;  9.9662701E+02;  2.2446749E-01; -2.7943069E+03;3;  8.6254139E+00;  0.0000000E+00; -1.2585460E+01;0;  2.8673832E+00;  8.0094473E+03;  0.0000000E+00;  2.4588292E+00;  4.0000000E+04;  0.0000000E+00;  3.9421051E+04;  3.0432880E+00;  0.0000000E+00; -1.7590465E-01;  1.0171456E+04;
  9.8514324E-01;  9.9999998E-03;  2.0178159E-01;7803; -1.1753015E-02;  0.0000000E+00; -7.4861087E-02;  9.9659131E+02;  2.2456007E-01; -2.8238833E+03;3;  9.7272282E+00;  0.0000000E+00; -1.3176406E+01;0;  2.7301013E+00;  7.9985049E+03;  0.0000000E+00;  2.7911363E+00;  4.0000000E+04;  0.0000000E+00;  3.9434191E+04;  2.8994169E+00;  0.0000000E+00; -1.6931555E-01;  1.1001333E+04;
  9.8578316E-01;  9.9999998E-03;  2.1181701E-01;7804; -7.4368860E-03;  0.0000000E+00; -7.6477028E-02;  9.9644501E+02;  2.2465031E-01; -2.9451077E+03;3;  1.0698183E+01;  0.0000000E+00; -1.3729004E+01;0;  2.5895450E+00;  7.9856221E+03;  0.0000000E+00;  2.8484561E+00;  4.0000000E+04;  0.0000000E+00;  3.9449641E+04;  2.7567091E+00;  0.0000000E+00; -1.6716418E-01;  1.1126260E+04;
  9.8647338E-01;  9.9999998E-03;  2.2187924E-01;7805; -3.3750278E-03;  0.0000000E+00; -7.7968240E-02;  9.9614001E+02;  2.2475941E-01; -3.1977776E+03;3;  1.0562804E+01;  0.0000000E+00; -1.3958947E+01;0;  2.4511509E+00;  7.9697002E+03;  0.0000000E+00;  2.6031268E+00;  4.0000000E+04;  0.0000000E+00;  3.9463469E+04;  2.6224532E+00;  0.0000000E+00; -1.7130238E-01;  1.0598071E+04;
  9.8699778E-01;  9.9999998E-03;  2.3197502E-01;7806;  3.4450029E-04;  0.0000000E+00; -7.9234838E-02;  9.9554303E+02;  2.2486669E-01; -3.6923555E+03;3;  1.2110873E+01;  0.0000000E+00; -1.3196234E+01;0;  2.3015556E+00;  7.9524194E+03;  0.0000000E+00;  2.0199406E+00;  4.0000000E+04;  0.0000000E+00;  3.9468688E+04;  2.4846392E+00;  0.0000000E+00; -1.8308342E-01;  9.0751143E+03;
  1.0070689E+00;  9.9999998E-03;  1.4131516E-01;7858;  1.1692647E-01;  0.0000000E+00; -6.3868240E-02;  9.9453839E+02;  2.2635692E-01; -4.5245581E+03;3; -9.6201164E+01;  0.0000000E+00; -3.9763588E+01;0;  5.2661014E+00;  7.8711914E+03;  0.0000000E+00; -3.2334015E-01;  4.0000000E+04;  0.0000000E+00;  3.9330387E+04;  5.4713321E+00;  0.0000000E+00; -2.0523089E-01;  1.1758711E+04;
  1.0070496E+00;  9.9999998E-03;  1.5146159E-01;7859;  1.0232137E-01;  0.0000000E+00; -6.7136981E-02;  9.9472321E+02;  2.2631578E-01; -4.3714365E+03;3; -9.3052864E+01;  0.0000000E+00; -4.0885815E+01;0;  5.1045299E+00;  7.8746523E+03;  0.0000000E+00; -1.2920921E-01;  4.0000000E+04;  0.0000000E+00;  3.9342020E+04;  5.3057542E+00;  0.0000000E+00; -2.0122416E-01;  1.0536387E+04;
  1.0071453E+00;  9.9999998E-03;  1.3117477E-01;7857;  1.3018443E-01;  0.0000000E+00; -6.0286466E-02;  9.9440570E+02;  2.2638442E-01; -4.6344731E+03;3; -9.9032181E+01;  0.0000000E+00; -3.8401737E+01;0;  5.4229655E+00;  7.8680728E+03;  0.0000000E+00; -4.0171513E-01;  4.0000000E+04;  0.0000000E+00;  3.9320289E+04;  5.6313877E+00;  0.0000000E+00; -2.0842215E-01;  1.2947777E+04;
  1.0070821E+00;  9.9999998E-03;  1.6159253E-01;7860;  8.6135410E-02;  0.0000000E+00; -7.0040479E-02;  9.9493195E+02;  2.2626778E-01; -4.1985146E+03;3; -8.9682571E+01;  0.0000000E+00; -4.1504814E+01;0;  4.9395471E+00;  7.8778472E+03;  0.0000000E+00;  1.8645459E-01;  4.0000000E+04;  0.0000000E+00;  3.9355340E+04;  5.1363950E+00;  0.0000000E+00; -1.9684805E-01;  9.4151201E+03;
  1.0074064E+00;  9.9999998E-03;  1.2106169E-01;7856;  1.4423665E-01;  0.0000000E+00; -5.6234706E-02;  9.9434631E+02;  2.2641167E-01; -4.6836528E+03;3; -1.0108258E+02;  0.0000000E+00; -3.6780128E+01;0;  5.5805335E+00;  7.8652095E+03;  0.0000000E+00; -3.9165267E-01;  4.0000000E+04;  0.0000000E+00;  3.9310531E+04;  5.7906871E+00;  0.0000000E+00; -2.1015358E-01;  1.4139057E+04;
  1.0072480E+00;  9.9999998E-03;  1.7169626E-01;7861;  6.9783255E-02;  0.0000000E+00; -7.2433092E-02;  9.9512427E+02;  2.2621831E-01; -4.0391714E+03;3; -8.6111809E+01;  0.0000000E+00; -4.1850784E+01;0;  4.7774210E+00;  7.8795449E+03;  0.0000000E+00;  5.9223133E-01;  4.0000000E+04;  0.0000000E+00;  3.9370625E+04;  4.9703321E+00;  0.0000000E+00; -1.9291137E-01;  8.7070664E+03;
  1.0076340E+00;  9.9999998E-03;  1.8179061E-01;7862;  5.4442771E-02;  0.0000000E+00; -7.4249789E-02;  9.9524548E+02;  2.2618514E-01; -3.9387844E+03;3; -8.2420395E+01;  0.0000000E+00; -4.1928345E+01;0;  4.6246510E+00;  7.8786006E+03;  0.0000000E+00;  1.0204860E+00;  4.0000000E+04;  0.0000000E+00;  3.9386234E+04;  4.8154135E+00;  0.0000000E+00; -1.9076252E-01;  8.6320000E+03;
  1.0079386E+00;  9.9999998E-03;  1.1098947E-01;7855;  1.6070785E-01;  0.0000000E+00; -5.1555436E-02;  9.9434808E+02;  2.2644418E-01; -4.6821685E+03;3; -1.0190459E+02;  0.0000000E+00; -3.5009937E+01;0;  5.7413521E+00;  7.8625464E+03;  0.0000000E+00; -3.3042198E-01;  4.0000000E+04;  0.0000000E+00;  3.9300391E+04;  5.9509549E+00;  0.0000000E+00; -2.0960295E-01;  1.5399159E+04;
  1.0080653E+00;  9.9999998E-03;  1.9185717E-01;7863;  3.7792064E-02;  0.0000000E+00; -7.5690813E-02;  9.9524884E+02;  2.2615625E-01; -3.9359683E+03;3; -7.8999062E+01;  0.0000000E+00; -4.1843803E+01;0;  4.4724212E+00;  7.8752080E+03;  0.0000000E+00;  1.4030038E+00;  4.0000000E+04;  0.0000000E+00;  3.9401758E+04;  4.6645184E+00;  0.0000000E+00; -1.9209735E-01;  9.0323467E+03;
  1.0084691E+00;  9.9999998E-03;  1.0091823E-01;7854;  1.7600320E-01;  0.0000000E+00; -4.6747901E-02;  9.9439917E+02;  2.2646579E-01; -4.6398491E+03;3; -1.0213651E+02;  0.0000000E+00; -3.2927460E+01;0;  5.8900614E+00;  7.8609966E+03;  0.0000000E+00; -2.5651771E-01;  4.0000000E+04;  0.0000000E+00;  3.9289621E+04;  6.0973105E+00;  0.0000000E+00; -2.0724937E-01;  1.6691455E+04;
  1.0085571E+00;  9.9999998E-03;  2.0190912E-01;7864;  2.0041391E-02;  0.0000000E+00; -7.6788671E-02;  9.9510065E+02;  2.2613800E-01; -4.0587688E+03;3; -7.5654266E+01;  0.0000000E+00; -4.1102196E+01;0;  4.3227186E+00;  7.8689053E+03;  0.0000000E+00;  1.6715777E+00;  4.0000000E+04;  0.0000000E+00;  3.9416945E+04;  4.5212975E+00;  0.0000000E+00; -1.9857897E-01;  9.4895771E+03;
  1.0088838E+00;  9.9999998E-03;  9.0833776E-02;7853;  1.8891630E-01;  0.0000000E+00; -4.2036206E-02;  9.9446765E+02;  2.2647659E-01; -4.5831123E+03;3; -1.0221851E+02;  0.0000000E+00; -3.0493326E+01;0;  6.0208111E+00;  7.8606362E+03;  0.0000000E+00; -1.9411738E-01;  4.0000000E+04;  0.0000000E+00;  3.9279285E+04;  6.2243533E+00;  0.0000000E+00; -2.0354247E-01;  1.7945713E+04;
  1.0091151E+00;  9.9999998E-03;  2.1195082E-01;7865;  2.3153750E-03;  0.0000000E+00; -7.8044057E-02;  9.9480597E+02;  2.2613613E-01; -4.3028418E+03;3; -6.8803802E+01;  0.0000000E+00; -4.1501087E+01;0;  4.1759744E+00;  7.8594658E+03;  0.0000000E+00;  1.7734387E+00;  4.0000000E+04;  0.0000000E+00;  3.9431945E+04;  4.3883276E+00;  0.0000000E+00; -2.1235338E-01;  9.6980488E+03;
  1.0091469E+00;  9.9999998E-03;  8.0740578E-02;7852;  1.9929314E-01;  0.0000000E+00; -3.7441514E-02;  9.9454181E+02;  2.2647549E-01; -4.5216846E+03;3; -1.0237547E+02;  0.0000000E+00; -2.7854822E+01;0;  6.1320615E+00;  7.8611289E+03;  0.0000000E+00; -1.4978814E-01;  4.0000000E+04;  0.0000000E+00;  3.9269859E+04;  6.3310022E+00;  0.0000000E+00; -1.9894095E-01;  1.9080201E+04;
  1.0097196E+00;  9.9999998E-03;  2.2200795E-01;7866; -6.1193877E-03;  0.0000000E+00; -8.0527402E-02;  9.9434448E+02;  2.2615328E-01; -4.6851724E+03;3; -1.2460224E+01;  0.0000000E+00; -3.8994011E+01;0;  4.0229740E+00;  7.8471172E+03;  0.0000000E+00;  1.6751254E+00;  4.0000000E+04;  0.0000000E+00;  3.9445094E+04;  4.2611952E+00;  0.0000000E+00; -2.3822096E-01;  9.5504736E+03;
  1.0093342E+00;  9.9999998E-03;  7.0641376E-02;7851;  2.0856614E-01;  0.0000000E+00; -3.2819826E-02;  9.9461700E+02;  2.2647147E-01; -4.4594185E+03;3; -1.0236231E+02;  0.0000000E+00; -2.4902187E+01;0;  6.2274265E+00;  7.8619697E+03;  0.0000000E+00; -1.1852241E-01;  4.0000000E+04;  0.0000000E+00;  3.9261895E+04;  6.4209394E+00;  0.0000000E+00; -1.9351286E-01;  2.0034385E+04;
  1.0103776E+00;  9.9999998E-03;  2.3208392E-01;7867; -4.7400254E-03;  0.0000000E+00; -8.2078218E-02;  9.9367834E+02;  2.2619058E-01; -5.2370161E+03;3;  1.0918177E+01;  0.0000000E+00; -3.4115879E+01;0;  3.8613422E+00;  7.8322314E+03;  0.0000000E+00;  1.3462574E+00;  4.0000000E+04;  0.0000000E+00;  3.9451941E+04;  4.1385131E+00;  0.0000000E+00; -2.7717090E-01;  8.8225312E+03;
  1.0314096E+00;  9.9999998E-03;  1.1096812E-01;7916;  4.1309765E-01;  0.0000000E+00; -2.1109421E-02;  9.9588300E+02;  2.2593120E-01; -3.4105393E+03;3; -9.0154350E+01;  0.0000000E+00; -4.9963531E+01;0;  6.5104589E+00;  7.9293701E+03;  0.0000000E+00; -2.8180152E-01;  4.0000000E+04;  0.0000000E+00;  3.9274352E+04;  6.6080623E+00;  0.0000000E+00; -9.7603485E-02;  1.8093982E+04;
  1.0314833E+00;  9.9999998E-03;  1.0087416E-01;7915;  4.2716935E-01;  0.0000000E+00; -1.8510675E-02;  9.9606805E+02;  2.2591424E-01; -3.2572244E+03;3; -8.7982216E+01;  0.0000000E+00; -4.7402996E+01;0;  6.5785956E+00;  7.9315615E+03;  0.0000000E+00; -2.4095857E-01;  4.0000000E+04;  0.0000000E+00;  3.9266160E+04;  6.6641288E+00;  0.0000000E+00; -8.5533105E-02;  1.9119908E+04;
  1.0316882E+00;  9.9999998E-03;  7.0631728E-02;7912;  4.6383792E-01;  0.0000000E+00; -1.1260243E-02;  9.9658624E+02;  2.2585477E-01; -2.8279436E+03;3; -8.0907799E+01;  0.0000000E+00; -3.8154377E+01;0;  6.7390199E+00;  7.9393008E+03;  0.0000000E+00; -1.4748214E-01;  4.0000000E+04;  0.0000000E+00;  3.9244910E+04;  6.7853312E+00;  0.0000000E+00; -4.6311263E-02;  2.1781875E+04;
  1.0311214E+00;  9.9999998E-03;  1.5143049E-01;7920;  3.4390658E-01;  0.0000000E+00; -3.1970896E-02;  9.9564032E+02;  2.2586133E-01; -3.6115527E+03;3; -9.8035881E+01;  0.0000000E+00; -5.7724422E+01;0;  6.1677241E+00;  7.9296626E+03;  0.0000000E+00; -4.0344211E-01;  4.0000000E+04;  0.0000000E+00;  3.9314863E+04;  6.3103309E+00;  0.0000000E+00; -1.4260694E-01;  1.3304750E+04;
  1.0309390E+00;  9.9999998E-03;  1.6152330E-01;7921;  3.2138631E-01;  0.0000000E+00; -3.4963325E-02;  9.9568481E+02;  2.2579923E-01; -3.5747188E+03;3; -1.0029000E+02;  0.0000000E+00; -5.9019871E+01;0;  6.0622697E+00;  7.9306743E+03;  0.0000000E+00; -3.6465800E-01;  4.0000000E+04;  0.0000000E+00;  3.9329672E+04;  6.2165160E+00;  0.0000000E+00; -1.5424630E-01;  1.1672012E+04;
  1.0308827E+00;  9.9999998E-03;  1.7162994E-01;7922;  2.9833829E-01;  0.0000000E+00; -3.7664570E-02;  9.9573669E+02;  2.2572635E-01; -3.5317119E+03;3; -1.0246529E+02;  0.0000000E+00; -6.0193512E+01;0;  5.9539185E+00;  7.9311553E+03;  0.0000000E+00; -2.8310269E-01;  4.0000000E+04;  0.0000000E+00;  3.9346582E+04;  6.1198745E+00;  0.0000000E+00; -1.6595581E-01;  9.9144932E+03;
  1.0317599E+00;  9.9999998E-03;  9.0800822E-02;7914;  4.4244978E-01;  0.0000000E+00; -1.5725821E-02;  9.9629858E+02;  2.2589204E-01; -3.0662346E+03;3; -8.5092155E+01;  0.0000000E+00; -4.4539028E+01;0;  6.6404848E+00;  7.9348096E+03;  0.0000000E+00; -2.0776266E-01;  4.0000000E+04;  0.0000000E+00;  3.9258027E+04;  6.7119036E+00;  0.0000000E+00; -7.1418643E-02;  2.0129832E+04;
  1.0316298E+00;  9.9999998E-03;  1.2109717E-01;7917;  4.0105391E-01;  0.0000000E+00; -2.3303341E-02;  9.9578223E+02;  2.2593808E-01; -3.4939844E+03;3; -9.1449532E+01;  0.0000000E+00; -5.2209984E+01;0;  6.4393177E+00;  7.9288623E+03;  0.0000000E+00; -3.2744116E-01;  4.0000000E+04;  0.0000000E+00;  3.9282621E+04;  6.5468626E+00;  0.0000000E+00; -1.0754503E-01;  1.7080061E+04;
  1.0314165E+00;  9.9999998E-03;  1.4133555E-01;7919;  3.6588427E-01;  0.0000000E+00; -2.8783161E-02;  9.9563940E+02;  2.2590590E-01; -3.6123411E+03;3; -9.5581100E+01;  0.0000000E+00; -5.6049152E+01;0;  6.2683735E+00;  7.9289282E+03;  0.0000000E+00; -4.0065843E-01;  4.0000000E+04;  0.0000000E+00;  3.9302223E+04;  6.3988895E+00;  0.0000000E+00; -1.3051602E-01;  1.4744987E+04;
  1.0318059E+00;  9.9999998E-03;  8.0721013E-02;7913;  4.5437419E-01;  0.0000000E+00; -1.3363653E-02;  9.9647522E+02;  2.2587126E-01; -2.9199314E+03;3; -8.2775352E+01;  0.0000000E+00; -4.1470936E+01;0;  6.6933947E+00;  7.9374883E+03;  0.0000000E+00; -1.7777430E-01;  4.0000000E+04;  0.0000000E+00;  3.9250820E+04;  6.7517123E+00;  0.0000000E+00; -5.8317695E-02;  2.1038164E+04;
  1.0308337E+00;  9.9999998E-03;  1.8173869E-01;7923;  2.7346197E-01;  0.0000000E+00; -4.0377077E-02;  9.9572540E+02;  2.2564599E-01; -3.5410935E+03;3; -1.0484039E+02;  0.0000000E+00; -6.1022633E+01;0;  5.8398404E+00;  7.9299731E+03;  0.0000000E+00; -1.7001018E-01;  4.0000000E+04;  0.0000000E+00;  3.9364523E+04;  6.0185299E+00;  0.0000000E+00; -1.7868927E-01;  8.1925811E+03;
  1.0307826E+00;  9.9999998E-03;  1.9184667E-01;7924;  2.4683073E-01;  0.0000000E+00; -4.3025460E-02;  9.9559143E+02;  2.2557250E-01; -3.6520925E+03;3; -1.0733459E+02;  0.0000000E+00; -6.1485863E+01;0;  5.7196751E+00;  7.9264009E+03;  0.0000000E+00; -4.5515172E-02;  4.0000000E+04;  0.0000000E+00;  3.9382445E+04;  5.9130907E+00;  0.0000000E+00; -1.9341567E-01;  6.7490298E+03;
  1.0316318E+00;  9.9999998E-03;  1.3122271E-01;7918;  3.8535380E-01;  0.0000000E+00; -2.5828244E-02;  9.9569403E+02;  2.2593065E-01; -3.5670615E+03;3; -9.3284279E+01;  0.0000000E+00; -5.4260578E+01;0;  6.3593035E+00;  7.9286870E+03;  0.0000000E+00; -3.7035218E-01;  4.0000000E+04;  0.0000000E+00;  3.9291715E+04;  6.4778681E+00;  0.0000000E+00; -1.1856451E-01;  1.5988042E+04;
  1.0308964E+00;  9.9999998E-03;  2.0194267E-01;7925;  2.2078913E-01;  0.0000000E+00; -4.5294549E-02;  9.9532251E+02;  2.2551498E-01; -3.8748298E+03;3; -1.1004487E+02;  0.0000000E+00; -6.1835464E+01;0;  5.6011324E+00;  7.9202280E+03;  0.0000000E+00;  5.9266377E-02;  4.0000000E+04;  0.0000000E+00;  3.9398625E+04;  5.8125482E+00;  0.0000000E+00; -2.1141592E-01;  5.7659663E+03;
  1.0311245E+00;  9.9999998E-03;  2.1200484E-01;7926;  1.9522251E-01;  0.0000000E+00; -4.7289580E-02;  9.9491626E+02;  2.2547413E-01; -4.2113794E+03;3; -1.1280096E+02;  0.0000000E+00; -6.1611553E+01;0;  5.4834080E+00;  7.9113154E+03;  0.0000000E+00;  1.2011532E-01;  4.0000000E+04;  0.0000000E+00;  3.9413672E+04;  5.7177944E+00;  0.0000000E+00; -2.3438634E-01;  5.2071260E+03;
  1.0315411E+00;  9.9999998E-03;  2.2204857E-01;7927;  1.7156465E-01;  0.0000000E+00; -4.8972316E-02;  9.9440540E+02;  2.2544886E-01; -4.6345840E+03;3; -1.1568622E+02;  0.0000000E+00; -6.1130375E+01;0;  5.3708472E+00;  7.8999419E+03;  0.0000000E+00;  1.0704923E-01;  4.0000000E+04;  0.0000000E+00;  3.9428988E+04;  5.6350961E+00;  0.0000000E+00; -2.6424879E-01;  5.1163281E+03;
  1.0320988E+00;  9.9999998E-03;  2.3211238E-01;7928;  1.4956523E-01;  0.0000000E+00; -5.0728928E-02;  9.9374371E+02;  2.2544226E-01; -5.1827085E+03;3; -1.1888811E+02;  0.0000000E+00; -6.0167145E+01;0;  5.2606664E+00;  7.8864521E+03;  0.0000000E+00; -8.5649733E-03;  4.0000000E+04;  0.0000000E+00;  3.9440305E+04;  5.5643325E+00;  0.0000000E+00; -3.0366597E-01;  5.2738833E+03;
  1.0533204E+00;  9.9999998E-03;  7.0637278E-02;7973;  6.6314584E-01;  0.0000000E+00;  2.1710433E-02;  1.0004589E+03;  2.2402136E-01;  3.8008673E+02;3; -4.0708332E+01;  0.0000000E+00; -2.7205227E+01;0;  6.3184853E+00;  8.1321665E+03;  0.0000000E+00; -3.2318416E-01;  4.0000000E+04;  0.0000000E+00;  3.9250254E+04;  6.1829100E+00;  0.0000000E+00;  1.3557537E-01;  2.1215605E+04;
  1.0528352E+00;  9.9999998E-03;  2.3215666E-01;7989;  3.1297028E-01;  0.0000000E+00; -7.8619905E-03;  9.9613043E+02;  2.2360940E-01; -3.2054602E+03;3; -1.5179134E+02;  0.0000000E+00; -6.4313118E+01;0;  6.2431479E+00;  8.0590435E+03;  0.0000000E+00; -5.4639679E-01;  4.0000000E+04;  0.0000000E+00;  3.9411066E+04;  6.5453820E+00;  0.0000000E+00; -3.0223426E-01;  1.5640299E+03;
  1.0525303E+00;  9.9999998E-03;  2.2210571E-01;7988;  3.3925059E-01;  0.0000000E+00; -5.2297092E-03;  9.9681702E+02;  2.2362453E-01; -2.6367139E+03;3; -1.4344507E+02;  0.0000000E+00; -6.4620026E+01;0;  6.2768221E+00;  8.0728320E+03;  0.0000000E+00; -3.5373312E-01;  4.0000000E+04;  0.0000000E+00;  3.9400629E+04;  6.5418224E+00;  0.0000000E+00; -2.6500037E-01;  2.9851101E+03;
  1.0536764E+00;  9.9999998E-03;  8.0719769E-02;7974;  6.5375525E-01;  0.0000000E+00;  2.2801360E-02;  1.0003426E+03;  2.2401342E-01;  2.8380579E+02;3; -4.5045212E+01;  0.0000000E+00; -3.6919411E+01;0;  6.3137484E+00;  8.1320527E+03;  0.0000000E+00; -3.9128706E-01;  4.0000000E+04;  0.0000000E+00;  3.9254871E+04;  6.1939368E+00;  0.0000000E+00;  1.1981168E-01;  2.0626555E+04;
  1.0523636E+00;  9.9999998E-03;  2.1208782E-01;7987;  3.6603898E-01;  0.0000000E+00; -2.8191162E-03;  9.9734967E+02;  2.2364919E-01; -2.1954519E+03;3; -1.3520619E+02;  0.0000000E+00; -6.4474655E+01;0;  6.3074255E+00;  8.0847695E+03;  0.0000000E+00; -2.0288631E-01;  4.0000000E+04;  0.0000000E+00;  3.9385773E+04;  6.5385699E+00;  0.0000000E+00; -2.3114420E-01;  4.8997983E+03;
  1.0523150E+00;  9.9999998E-03;  2.0205185E-01;7986;  3.9315552E-01;  0.0000000E+00; -3.5165003E-04;  9.9779218E+02;  2.2368267E-01; -1.8288932E+03;3; -1.2701078E+02;  0.0000000E+00; -6.4052567E+01;0;  6.3337498E+00;  8.0946694E+03;  0.0000000E+00; -7.3450938E-02;  4.0000000E+04;  0.0000000E+00;  3.9372512E+04;  6.5328546E+00;  0.0000000E+00; -1.9910501E-01;  6.6951206E+03;
  1.0540212E+00;  9.9999998E-03;  9.0795726E-02;7975;  6.4290226E-01;  0.0000000E+00;  2.3104955E-02;  1.0001704E+03;  2.2401015E-01;  1.4121155E+02;3; -4.9755531E+01;  0.0000000E+00; -4.6009098E+01;0;  6.3111520E+00;  8.1311484E+03;  0.0000000E+00; -4.3997994E-01;  4.0000000E+04;  0.0000000E+00;  3.9260285E+04;  6.2085829E+00;  0.0000000E+00;  1.0256924E-01;  1.9948078E+04;
  1.0523515E+00;  9.9999998E-03;  1.9198170E-01;7985;  4.2037413E-01;  0.0000000E+00;  2.1338924E-03;  9.9810474E+02;  2.2373009E-01; -1.5699716E+03;3; -1.1888541E+02;  0.0000000E+00; -6.3100273E+01;0;  6.3543205E+00;  8.1021426E+03;  0.0000000E+00;  3.5998847E-02;  4.0000000E+04;  0.0000000E+00;  3.9358383E+04;  6.5224700E+00;  0.0000000E+00; -1.6814947E-01;  8.5386602E+03;
  1.0524815E+00;  9.9999998E-03;  1.8188560E-01;7984;  4.4775796E-01;  0.0000000E+00;  4.6773078E-03;  9.9829633E+02;  2.2378851E-01; -1.4112804E+03;3; -1.1098827E+02;  0.0000000E+00; -6.1957096E+01;0;  6.3689618E+00;  8.1074619E+03;  0.0000000E+00;  1.1419015E-01;  4.0000000E+04;  0.0000000E+00;  3.9342527E+04;  6.5065999E+00;  0.0000000E+00; -1.3763832E-01;  1.0500633E+04;
  1.0528221E+00;  9.9999998E-03;  1.7177610E-01;7983;  4.7619754E-01;  0.0000000E+00;  7.6730601E-03;  9.9842816E+02;  2.2384565E-01; -1.3020625E+03;3; -1.0294647E+02;  0.0000000E+00; -6.0469524E+01;0;  6.3777719E+00;  8.1116860E+03;  0.0000000E+00;  1.5149058E-01;  4.0000000E+04;  0.0000000E+00;  3.9325992E+04;  6.4845028E+00;  0.0000000E+00; -1.0673096E-01;  1.2434899E+04;
  1.0544095E+00;  9.9999998E-03;  1.0088053E-01;7976;  6.3105536E-01;  0.0000000E+00;  2.2809656E-02;  9.9996637E+02;  2.2400361E-01; -2.7847290E+01;3; -5.4562302E+01;  0.0000000E+00; -5.1808552E+01;0;  6.3092999E+00;  8.1303281E+03;  0.0000000E+00; -4.5570993E-01;  4.0000000E+04;  0.0000000E+00;  3.9265633E+04;  6.2249193E+00;  0.0000000E+00;  8.4380835E-02;  1.9252072E+04;
  1.0533782E+00;  9.9999998E-03;  1.6165687E-01;7982;  5.0527483E-01;  0.0000000E+00;  1.1104720E-02;  9.9856531E+02;  2.2389284E-01; -1.1884497E+03;3; -9.4764008E+01;  0.0000000E+00; -5.8751690E+01;0;  6.3784852E+00;  8.1157583E+03;  0.0000000E+00;  1.3656363E-01;  4.0000000E+04;  0.0000000E+00;  3.9310910E+04;  6.4534111E+00;  0.0000000E+00; -7.4926041E-02;  1.4147641E+04;
  1.0547215E+00;  9.9999998E-03;  1.1098785E-01;7977;  6.1728048E-01;  0.0000000E+00;  2.2069793E-02;  9.9972589E+02;  2.2399618E-01; -2.2707376E+02;3; -5.9718357E+01;  0.0000000E+00; -5.4027096E+01;0;  6.3123550E+00;  8.1293140E+03;  0.0000000E+00; -4.2367435E-01;  4.0000000E+04;  0.0000000E+00;  3.9270781E+04;  6.2480230E+00;  0.0000000E+00;  6.4332001E-02;  1.8598066E+04;
  1.0539091E+00;  9.9999998E-03;  1.5151651E-01;7981;  5.3260630E-01;  0.0000000E+00;  1.4261598E-02;  9.9871954E+02;  2.2393243E-01; -1.0606669E+03;3; -8.6842468E+01;  0.0000000E+00; -5.7159412E+01;0;  6.3706946E+00;  8.1191821E+03;  0.0000000E+00;  5.8807395E-02;  4.0000000E+04;  0.0000000E+00;  3.9298309E+04;  6.4139886E+00;  0.0000000E+00; -4.3293752E-02;  1.5519651E+04;
  1.0547770E+00;  9.9999998E-03;  1.2110775E-01;7978;  6.0014600E-01;  0.0000000E+00;  2.0796861E-02;  9.9944177E+02;  2.2398914E-01; -4.6244241E+02;3; -6.5674652E+01;  0.0000000E+00; -5.4527367E+01;0;  6.3241329E+00;  8.1273086E+03;  0.0000000E+00; -3.3772689E-01;  4.0000000E+04;  0.0000000E+00;  3.9275832E+04;  6.2830014E+00;  0.0000000E+00;  4.1131333E-02;  1.7977709E+04;
  1.0543470E+00;  9.9999998E-03;  1.4137311E-01;7980;  5.5766410E-01;  0.0000000E+00;  1.6946597E-02;  9.9892035E+02;  2.2396022E-01; -8.9437207E+02;3; -7.9307274E+01;  0.0000000E+00; -5.5773441E+01;0;  6.3568068E+00;  8.1221499E+03;  0.0000000E+00; -6.6600427E-02;  4.0000000E+04;  0.0000000E+00;  3.9288574E+04;  6.3697214E+00;  0.0000000E+00; -1.2914843E-02;  1.6548051E+04;
  1.0546396E+00;  9.9999998E-03;  1.3123702E-01;7979;  5.8016938E-01;  0.0000000E+00;  1.9091597E-02;  9.9916364E+02;  2.2397995E-01; -6.9282446E+02;3; -7.2247749E+01;  0.0000000E+00; -5.4930687E+01;0;  6.3402042E+00;  8.1248198E+03;  0.0000000E+00; -2.1007206E-01;  4.0000000E+04;  0.0000000E+00;  3.9281344E+04;  6.3249054E+00;  0.0000000E+00;  1.5298929E-02;  1.7326590E+04;
  1.0744510E+00;  9.9999998E-03;  2.3217489E-01;8050;  5.1444709E-01;  0.0000000E+00;  4.3465972E-02;  1.0000008E+03;  2.2092865E-01;  6.9121194E-01;3; -1.5061145E+02;  0.0000000E+00; -6.2264587E+01;0;  6.6370597E+00;  8.3241660E+03;  0.0000000E+00;  2.9637929E-02;  4.0000000E+04;  0.0000000E+00;  3.9375586E+04;  6.8868260E+00;  0.0000000E+00; -2.4976639E-01;  5.5710479E+03;
  1.0742552E+00;  9.9999998E-03;  2.2211134E-01;8049;  5.3489846E-01;  0.0000000E+00;  4.6408530E-02;  1.0006482E+03;  2.2092132E-01;  5.3687445E+02;3; -1.3933961E+02;  0.0000000E+00; -6.1549080E+01;0;  6.5665197E+00;  8.3377119E+03;  0.0000000E+00;  5.8103633E-01;  4.0000000E+04;  0.0000000E+00;  3.9371309E+04;  6.7824149E+00;  0.0000000E+00; -2.1589521E-01;  6.2946270E+03;
  1.0741514E+00;  9.9999998E-03;  2.1209362E-01;8048;  5.5558521E-01;  0.0000000E+00;  4.8791744E-02;  1.0010765E+03;  2.2092645E-01;  8.9166412E+02;3; -1.2762959E+02;  0.0000000E+00; -6.0527004E+01;0;  6.4894361E+00;  8.3491836E+03;  0.0000000E+00;  1.0118968E+00;  4.0000000E+04;  0.0000000E+00;  3.9359598E+04;  6.6679330E+00;  0.0000000E+00; -1.7849688E-01;  8.1566318E+03;
  1.0741465E+00;  9.9999998E-03;  2.0207419E-01;8047;  5.7649022E-01;  0.0000000E+00;  5.0923008E-02;  1.0014045E+03;  2.2093493E-01;  1.1634094E+03;3; -1.1573055E+02;  0.0000000E+00; -5.9181438E+01;0;  6.4047704E+00;  8.3587188E+03;  0.0000000E+00;  1.3326885E+00;  4.0000000E+04;  0.0000000E+00;  3.9348613E+04;  6.5423298E+00;  0.0000000E+00; -1.3755940E-01;  9.9463125E+03;
  1.0743544E+00;  9.9999998E-03;  1.9202055E-01;8046;  5.9905207E-01;  0.0000000E+00;  5.3187788E-02;  1.0016431E+03;  2.2094494E-01;  1.3610953E+03;3; -1.0344572E+02;  0.0000000E+00; -5.8145920E+01;0;  6.3098598E+00;  8.3670674E+03;  0.0000000E+00;  1.5416752E+00;  4.0000000E+04;  0.0000000E+00;  3.9337453E+04;  6.4029775E+00;  0.0000000E+00; -9.3117774E-02;  1.1641249E+04;
  1.0753369E+00;  9.9999998E-03;  7.0756644E-02;8034;  8.0073774E-01;  0.0000000E+00;  4.1437183E-02;  1.0042825E+03;  2.2124057E-01;  3.5472908E+03;3;  1.5732589E+01;  0.0000000E+00; -9.3990488E+00;0;  5.1955037E+00;  8.3979072E+03;  0.0000000E+00; -5.4868644E-01;  4.0000000E+04;  0.0000000E+00;  3.9274672E+04;  4.8734879E+00;  0.0000000E+00;  3.2201576E-01;  1.8433340E+04;
  1.0746907E+00;  9.9999998E-03;  1.8193571E-01;8045;  6.2262332E-01;  0.0000000E+00;  5.5588380E-02;  1.0017987E+03;  2.2096193E-01;  1.4899557E+03;3; -9.1116524E+01;  0.0000000E+00; -5.7277214E+01;0;  6.2049813E+00;  8.3738516E+03;  0.0000000E+00;  1.6092272E+00;  4.0000000E+04;  0.0000000E+00;  3.9325109E+04;  6.2512093E+00;  0.0000000E+00; -4.6227753E-02;  1.3276646E+04;
  1.0756537E+00;  9.9999998E-03;  8.0839507E-02;8035;  7.9410386E-01;  0.0000000E+00;  4.6297122E-02;  1.0041453E+03;  2.2120835E-01;  3.4336333E+03;3;  9.2272768E+00;  0.0000000E+00; -1.1478918E+01;0;  5.2376971E+00;  8.3987354E+03;  0.0000000E+00; -6.6299748E-01;  4.0000000E+04;  0.0000000E+00;  3.9277832E+04;  4.9341068E+00;  0.0000000E+00;  3.0359021E-01;  1.8026299E+04;
  1.0751562E+00;  9.9999998E-03;  1.7181975E-01;8044;  6.4705408E-01;  0.0000000E+00;  5.8217894E-02;  1.0019153E+03;  2.2098108E-01;  1.5865259E+03;3; -7.8806610E+01;  0.0000000E+00; -5.6354969E+01;0;  6.0900350E+00;  8.3797080E+03;  0.0000000E+00;  1.5117376E+00;  4.0000000E+04;  0.0000000E+00;  3.9312789E+04;  6.0878196E+00;  0.0000000E+00;  2.2154108E-03;  1.4690262E+04;
  1.0760707E+00;  9.9999998E-03;  9.0908043E-02;8036;  7.8653598E-01;  0.0000000E+00;  5.1113546E-02;  1.0039581E+03;  2.2117130E-01;  3.2786011E+03;3;  2.2479744E+00;  0.0000000E+00; -1.3685422E+01;0;  5.2829318E+00;  8.3995869E+03;  0.0000000E+00; -7.4223781E-01;  4.0000000E+04;  0.0000000E+00;  3.9281430E+04;  4.9987369E+00;  0.0000000E+00;  2.8419474E-01;  1.7576166E+04;
  1.0757114E+00;  9.9999998E-03;  1.6167372E-01;8043;  6.7165256E-01;  0.0000000E+00;  6.1065264E-02;  1.0020515E+03;  2.2099330E-01;  1.6992892E+03;3; -6.6504883E+01;  0.0000000E+00; -5.5827267E+01;0;  5.9664268E+00;  8.3852852E+03;  0.0000000E+00;  1.2458848E+00;  4.0000000E+04;  0.0000000E+00;  3.9302195E+04;  5.9155707E+00;  0.0000000E+00;  5.0856315E-02;  1.5728055E+04;
  1.0764569E+00;  9.9999998E-03;  1.0097189E-01;8037;  7.7733064E-01;  0.0000000E+00;  5.5664010E-02;  1.0037120E+03;  2.2113372E-01;  3.0746912E+03;3; -5.4592323E+00;  0.0000000E+00; -1.6284081E+01;0;  5.3393464E+00;  8.3998086E+03;  0.0000000E+00; -7.5129849E-01;  4.0000000E+04;  0.0000000E+00;  3.9284590E+04;  5.0766697E+00;  0.0000000E+00;  2.6267654E-01;  1.7194676E+04;
  1.0762246E+00;  9.9999998E-03;  1.5151457E-01;8042;  6.9504690E-01;  0.0000000E+00;  6.3792035E-02;  1.0022277E+03;  2.2100496E-01;  1.8452306E+03;3; -5.4574604E+01;  0.0000000E+00; -5.4825954E+01;0;  5.8398805E+00;  8.3900342E+03;  0.0000000E+00;  8.4337860E-01;  4.0000000E+04;  0.0000000E+00;  3.9294559E+04;  5.7424765E+00;  0.0000000E+00;  9.7403958E-02;  1.6340345E+04;
  1.0767373E+00;  9.9999998E-03;  1.1104236E-01;8038;  7.6596850E-01;  0.0000000E+00;  5.9746664E-02;  1.0034189E+03;  2.2110328E-01;  2.8319761E+03;3; -1.3962112E+01;  0.0000000E+00; -2.0044300E+01;0;  5.4108500E+00;  8.3992646E+03;  0.0000000E+00; -6.5397429E-01;  4.0000000E+04;  0.0000000E+00;  3.9286453E+04;  5.1726546E+00;  0.0000000E+00;  2.3819521E-01;  1.6936268E+04;
  1.0765982E+00;  9.9999998E-03;  1.4136283E-01;8041;  7.1640247E-01;  0.0000000E+00;  6.5576561E-02;  1.0024722E+03;  2.2102381E-01;  2.0478513E+03;3; -4.3393967E+01;  0.0000000E+00; -4.9192001E+01;0;  5.7169557E+00;  8.3935527E+03;  0.0000000E+00;  3.7607116E-01;  4.0000000E+04;  0.0000000E+00;  3.9290328E+04;  5.5771275E+00;  0.0000000E+00;  1.3982826E-01;  1.6615963E+04;
  1.0768559E+00;  9.9999998E-03;  1.2112475E-01;8039;  7.5203240E-01;  0.0000000E+00;  6.3137516E-02;  1.0030907E+03;  2.2107393E-01;  2.5601331E+03;3; -2.3209200E+01;  0.0000000E+00; -2.6772955E+01;0;  5.4991312E+00;  8.3979336E+03;  0.0000000E+00; -4.2618740E-01;  4.0000000E+04;  0.0000000E+00;  3.9287656E+04;  5.2892036E+00;  0.0000000E+00;  2.0992780E-01;  1.6795225E+04;
  1.0768012E+00;  9.9999998E-03;  1.3122942E-01;8040;  7.3541546E-01;  0.0000000E+00;  6.5334447E-02;  1.0027629E+03;  2.2104833E-01;  2.2885879E+03;3; -3.3030651E+01;  0.0000000E+00; -3.7801868E+01;0;  5.6025243E+00;  8.3960371E+03;  0.0000000E+00; -7.0394039E-02;  4.0000000E+04;  0.0000000E+00;  3.9288398E+04;  5.4252815E+00;  0.0000000E+00;  1.7724267E-01;  1.6719512E+04;
  1.0971723E+00;  9.9999998E-03;  7.0794016E-02;8095;  8.6627823E-01;  0.0000000E+00;  5.3854957E-02;  1.0063298E+03;  2.1754177E-01;  5.2427495E+03;3;  7.3917839E+01;  0.0000000E+00; -1.9327117E+00;0;  3.7946320E+00;  8.7136914E+03;  0.0000000E+00; -6.7425519E-01;  4.0000000E+04;  0.0000000E+00;  3.9314168E+04;  3.3188295E+00;  0.0000000E+00;  4.7580236E-01;  1.3789146E+04;
  1.0973986E+00;  9.9999998E-03;  8.0889523E-02;8096;  8.6644572E-01;  0.0000000E+00;  6.0354348E-02;  1.0062668E+03;  2.1749528E-01;  5.1906118E+03;3;  6.7192986E+01;  0.0000000E+00; -2.9662752E+00;0;  3.8748634E+00;  8.7161475E+03;  0.0000000E+00; -8.1914842E-01;  4.0000000E+04;  0.0000000E+00;  3.9315914E+04;  3.4167452E+00;  0.0000000E+00;  4.5811817E-01;  1.3593013E+04;
  1.0976907E+00;  9.9999998E-03;  9.0956479E-02;8097;  8.6580682E-01;  0.0000000E+00;  6.6579804E-02;  1.0061506E+03;  2.1744323E-01;  5.0943369E+03;3;  5.9197277E+01;  0.0000000E+00; -4.0934372E+00;0;  3.9639063E+00;  8.7185703E+03;  0.0000000E+00; -9.2143440E-01;  4.0000000E+04;  0.0000000E+00;  3.9317426E+04;  3.5247116E+00;  0.0000000E+00;  4.3919468E-01;  1.3421396E+04;
  1.0980643E+00;  9.9999998E-03;  1.0100263E-01;8098;  8.6415702E-01;  0.0000000E+00;  7.2480664E-02;  1.0060004E+03;  2.1738343E-01;  4.9699214E+03;3;  5.0342358E+01;  0.0000000E+00; -5.3255515E+00;0;  4.0611649E+00;  8.7214287E+03;  0.0000000E+00; -9.4037908E-01;  4.0000000E+04;  0.0000000E+00;  3.9318062E+04;  3.6421397E+00;  0.0000000E+00;  4.1902515E-01;  1.3355729E+04;
  1.0969963E+00;  9.9999998E-03;  2.3213890E-01;8111;  7.2934449E-01;  0.0000000E+00;  9.7801358E-02;  1.0041854E+03;  2.1729723E-01;  3.4665679E+03;3; -1.1266340E+02;  0.0000000E+00; -5.2892174E+01;0;  6.2831283E+00;  8.6806816E+03;  0.0000000E+00;  8.9517635E-01;  4.0000000E+04;  0.0000000E+00;  3.9344102E+04;  6.4035888E+00;  0.0000000E+00; -1.2046030E-01;  1.0288653E+04;
  1.0967882E+00;  9.9999998E-03;  2.2206771E-01;8110;  7.3952371E-01;  0.0000000E+00;  1.0017629E-01;  1.0046749E+03;  2.1726780E-01;  3.8720850E+03;3; -1.0093324E+02;  0.0000000E+00; -5.1183270E+01;0;  6.1253638E+00;  8.6918818E+03;  0.0000000E+00;  1.7182654E+00;  4.0000000E+04;  0.0000000E+00;  3.9345996E+04;  6.2192678E+00;  0.0000000E+00; -9.3904212E-02;  9.9313828E+03;
  1.0966580E+00;  9.9999998E-03;  2.1204697E-01;8109;  7.4940223E-01;  0.0000000E+00;  1.0170183E-01;  1.0049038E+03;  2.1725142E-01;  4.0616628E+03;3; -8.8072304E+01;  0.0000000E+00; -4.9944405E+01;0;  5.9627962E+00;  8.7002344E+03;  0.0000000E+00;  2.2919641E+00;  4.0000000E+04;  0.0000000E+00;  3.9339000E+04;  6.0198545E+00;  0.0000000E+00; -5.7058182E-02;  1.1057167E+04;
  1.0966434E+00;  9.9999998E-03;  2.0203513E-01;8108;  7.5951099E-01;  0.0000000E+00;  1.0312256E-01;  1.0050110E+03;  2.1723989E-01;  4.1504277E+03;3; -7.4815750E+01;  0.0000000E+00; -4.9382103E+01;0;  5.7930222E+00;  8.7063467E+03;  0.0000000E+00;  2.6393976E+00;  4.0000000E+04;  0.0000000E+00;  3.9332457E+04;  5.8043551E+00;  0.0000000E+00; -1.1333058E-02;  1.2272762E+04;
  1.0985658E+00;  9.9999998E-03;  1.1105442E-01;8099;  8.6151028E-01;  0.0000000E+00;  7.8087345E-02;  1.0058273E+03;  2.1730293E-01;  4.8265459E+03;3;  4.1041424E+01;  0.0000000E+00; -6.6304584E+00;0;  4.1644216E+00;  8.7258555E+03;  0.0000000E+00; -8.3080196E-01;  4.0000000E+04;  0.0000000E+00;  3.9317574E+04;  3.7668297E+00;  0.0000000E+00;  3.9759195E-01;  1.3431651E+04;
  1.0968379E+00;  9.9999998E-03;  1.9198373E-01;8107;  7.7130747E-01;  0.0000000E+00;  1.0478086E-01;  1.0050571E+03;  2.1721983E-01;  4.1886357E+03;3; -6.1182533E+01;  0.0000000E+00; -4.8804482E+01;0;  5.6104498E+00;  8.7121553E+03;  0.0000000E+00;  2.7699611E+00;  4.0000000E+04;  0.0000000E+00;  3.9326574E+04;  5.5691695E+00;  0.0000000E+00;  4.1280221E-02;  1.3305524E+04;
  1.0971452E+00;  9.9999998E-03;  1.8188123E-01;8106;  7.8440690E-01;  0.0000000E+00;  1.0671218E-01;  1.0050341E+03;  2.1720140E-01;  4.1695752E+03;3; -4.7373249E+01;  0.0000000E+00; -4.7619205E+01;0;  5.4186969E+00;  8.7170566E+03;  0.0000000E+00;  2.6727788E+00;  4.0000000E+04;  0.0000000E+00;  3.9320328E+04;  5.3210220E+00;  0.0000000E+00;  9.7674817E-02;  1.4211832E+04;
  1.0989522E+00;  9.9999998E-03;  1.2111332E-01;8100;  8.5704821E-01;  0.0000000E+00;  8.3372816E-02;  1.0056304E+03;  2.1723105E-01;  4.6634258E+03;3;  3.0801609E+01;  0.0000000E+00; -8.0365677E+00;0;  4.2880230E+00;  8.7297734E+03;  0.0000000E+00; -5.5507755E-01;  4.0000000E+04;  0.0000000E+00;  3.9315336E+04;  3.9152184E+00;  0.0000000E+00;  3.7280467E-01;  1.3693217E+04;
  1.0975490E+00;  9.9999998E-03;  1.7173576E-01;8105;  7.9862541E-01;  0.0000000E+00;  1.0830910E-01;  1.0049988E+03;  2.1718678E-01;  4.1403423E+03;3; -3.3541622E+01;  0.0000000E+00; -4.2577995E+01;0;  5.2194304E+00;  8.7212793E+03;  0.0000000E+00;  2.3460493E+00;  4.0000000E+04;  0.0000000E+00;  3.9313824E+04;  5.0642991E+00;  0.0000000E+00;  1.5513146E-01;  1.4870862E+04;
  1.0990502E+00;  9.9999998E-03;  1.3118672E-01;8101;  8.4992272E-01;  0.0000000E+00;  8.8614658E-02;  1.0054232E+03;  2.1718431E-01;  4.4918198E+03;3;  1.9308992E+01;  0.0000000E+00; -9.6189814E+00;0;  4.4403958E+00;  8.7314580E+03;  0.0000000E+00; -1.0246069E-01;  4.0000000E+04;  0.0000000E+00;  3.9312312E+04;  4.0977969E+00;  0.0000000E+00;  3.4259909E-01;  1.4114842E+04;
  1.0980191E+00;  9.9999998E-03;  1.6157150E-01;8104;  8.1328988E-01;  0.0000000E+00;  1.0707386E-01;  1.0050025E+03;  2.1717358E-01;  4.1433960E+03;3; -1.9990522E+01;  0.0000000E+00; -2.7738548E+01;0;  5.0157509E+00;  8.7251279E+03;  0.0000000E+00;  1.8212786E+00;  4.0000000E+04;  0.0000000E+00;  3.9309246E+04;  4.8049526E+00;  0.0000000E+00;  2.1079807E-01;  1.5138033E+04;
  1.0984951E+00;  9.9999998E-03;  1.5141511E-01;8103;  8.2746875E-01;  0.0000000E+00;  1.0119146E-01;  1.0050748E+03;  2.1716203E-01;  4.2033213E+03;3; -6.5373735E+00;  0.0000000E+00; -1.5729511E+01;0;  4.8126082E+00;  8.7285859E+03;  0.0000000E+00;  1.1712804E+00;  4.0000000E+04;  0.0000000E+00;  3.9307738E+04;  4.5508566E+00;  0.0000000E+00;  2.6175174E-01;  1.5002277E+04;
  1.0988477E+00;  9.9999998E-03;  1.4128533E-01;8102;  8.3984113E-01;  0.0000000E+00;  9.4423890E-02;  1.0052230E+03;  2.1716690E-01;  4.3260449E+03;3;  6.6806717E+00;  0.0000000E+00; -1.1713936E+01;0;  4.6192408E+00;  8.7306758E+03;  0.0000000E+00;  4.9703169E-01;  4.0000000E+04;  0.0000000E+00;  3.9308973E+04;  4.3135943E+00;  0.0000000E+00;  3.0564654E-01;  1.4603970E+04;
  1.1189348E+00;  9.9999998E-03;  7.0742354E-02;8156;  8.8051355E-01;  0.0000000E+00;  5.8088414E-02;  1.0063240E+03;  2.1284054E-01;  5.2373911E+03;3;  9.6583481E+01;  0.0000000E+00;  5.6073380E+00;0;  2.5010071E+00;  9.0908359E+03;  0.0000000E+00; -5.8267641E-01;  4.0000000E+04;  0.0000000E+00;  3.9364281E+04;  1.9278734E+00;  0.0000000E+00;  5.7313371E-01;  7.9669624E+03;
  1.1191890E+00;  9.9999998E-03;  8.0839135E-02;8157;  8.8470656E-01;  0.0000000E+00;  6.5912373E-02;  1.0064456E+03;  2.1276604E-01;  5.3380859E+03;3;  9.4740875E+01;  0.0000000E+00;  5.5566578E+00;0;  2.5869319E+00;  9.0984932E+03;  0.0000000E+00; -7.2334373E-01;  4.0000000E+04;  0.0000000E+00;  3.9364562E+04;  2.0271661E+00;  0.0000000E+00;  5.5976582E-01;  7.9821680E+03;
  1.1196169E+00;  9.9999998E-03;  2.3203690E-01;8172;  9.0711355E-01;  0.0000000E+00;  1.4591417E-01;  1.0076273E+03;  2.1251258E-01;  6.3168535E+03;3; -5.2250072E+01;  0.0000000E+00; -3.5917641E+01;0;  5.2701769E+00;  9.1407607E+03;  0.0000000E+00;  1.1036557E+00;  4.0000000E+04;  0.0000000E+00;  3.9328238E+04;  5.1947656E+00;  0.0000000E+00;  7.5411409E-02;  1.3120225E+04;
  1.1195949E+00;  9.9999998E-03;  9.0915166E-02;8158;  8.8943571E-01;  0.0000000E+00;  7.3579401E-02;  1.0065392E+03;  2.1266943E-01;  5.4156743E+03;3;  9.2419846E+01;  0.0000000E+00;  5.2808185E+00;0;  2.6790507E+00;  9.1077695E+03;  0.0000000E+00; -8.2540762E-01;  4.0000000E+04;  0.0000000E+00;  3.9364707E+04;  2.1333451E+00;  0.0000000E+00;  5.4570550E-01;  8.0360635E+03;
  1.1193583E+00;  9.9999998E-03;  2.2194299E-01;8171;  9.0792143E-01;  0.0000000E+00;  1.4716080E-01;  1.0079297E+03;  2.1249108E-01;  6.5672349E+03;3; -3.9969463E+01;  0.0000000E+00; -3.5158726E+01;0;  5.0741010E+00;  9.1452090E+03;  0.0000000E+00;  1.7951615E+00;  4.0000000E+04;  0.0000000E+00;  3.9338027E+04;  4.9865365E+00;  0.0000000E+00;  8.7564595E-02;  1.1679850E+04;
  1.1191900E+00;  9.9999998E-03;  2.1187693E-01;8170;  9.0759718E-01;  0.0000000E+00;  1.4785813E-01;  1.0079682E+03;  2.1247229E-01;  6.5991299E+03;3; -2.7728548E+01;  0.0000000E+00; -3.3448643E+01;0;  4.8770194E+00;  9.1477812E+03;  0.0000000E+00;  2.2388971E+00;  4.0000000E+04;  0.0000000E+00;  3.9338980E+04;  4.7604842E+00;  0.0000000E+00;  1.1653538E-01;  1.1557377E+04;
  1.1200336E+00;  9.9999998E-03;  1.0097145E-01;8159;  8.9443827E-01;  0.0000000E+00;  8.0960587E-02;  1.0066125E+03;  2.1257050E-01;  5.4763779E+03;3;  8.9361298E+01;  0.0000000E+00;  4.5571613E+00;0;  2.7836194E+00;  9.1172568E+03;  0.0000000E+00; -8.5353881E-01;  4.0000000E+04;  0.0000000E+00;  3.9363473E+04;  2.2531002E+00;  0.0000000E+00;  5.3051931E-01;  8.2353447E+03;
  1.1191288E+00;  9.9999998E-03;  2.0182596E-01;8169;  9.0722555E-01;  0.0000000E+00;  1.4826435E-01;  1.0078531E+03;  2.1245654E-01;  6.5038599E+03;3; -1.5461020E+01;  0.0000000E+00; -3.0017836E+01;0;  4.6760325E+00;  9.1484883E+03;  0.0000000E+00;  2.4616833E+00;  4.0000000E+04;  0.0000000E+00;  3.9337375E+04;  4.5181274E+00;  0.0000000E+00;  1.5790530E-01;  1.1892453E+04;
  1.1204488E+00;  9.9999998E-03;  1.1101884E-01;8160;  8.9961541E-01;  0.0000000E+00;  8.7961398E-02;  1.0066639E+03;  2.1247910E-01;  5.5189165E+03;3;  8.5158264E+01;  0.0000000E+00;  3.6476142E+00;0;  2.9034977E+00;  9.1263369E+03;  0.0000000E+00; -7.7073866E-01;  4.0000000E+04;  0.0000000E+00;  3.9360434E+04;  2.3897951E+00;  0.0000000E+00;  5.1370251E-01;  8.6201289E+03;
  1.1191614E+00;  9.9999998E-03;  1.9175482E-01;8168;  9.0738308E-01;  0.0000000E+00;  1.4718211E-01;  1.0076497E+03;  2.1244550E-01;  6.3353315E+03;3; -3.0616517E+00;  0.0000000E+00; -2.1506580E+01;0;  4.4697294E+00;  9.1477070E+03;  0.0000000E+00;  2.4840078E+00;  4.0000000E+04;  0.0000000E+00;  3.9335637E+04;  4.2631001E+00;  0.0000000E+00;  2.0662928E-01;  1.2228594E+04;
  1.1207860E+00;  9.9999998E-03;  1.2106656E-01;8161;  9.0465516E-01;  0.0000000E+00;  9.4530828E-02;  1.0066989E+03;  2.1240079E-01;  5.5478340E+03;3;  7.9745430E+01;  0.0000000E+00;  2.5168219E+00;0;  3.0410852E+00;  9.1346191E+03;  0.0000000E+00; -5.4857481E-01;  4.0000000E+04;  0.0000000E+00;  3.9355801E+04;  2.5466485E+00;  0.0000000E+00;  4.9443668E-01;  9.1883701E+03;
  1.1192926E+00;  9.9999998E-03;  1.8165088E-01;8167;  9.0824276E-01;  0.0000000E+00;  1.4251760E-01;  1.0074005E+03;  2.1243519E-01;  6.1288882E+03;3;  9.1925020E+00;  0.0000000E+00; -1.0700958E+01;0;  4.2579327E+00;  9.1461436E+03;  0.0000000E+00;  2.3135033E+00;  4.0000000E+04;  0.0000000E+00;  3.9333863E+04;  3.9989507E+00;  0.0000000E+00;  2.5898182E-01;  1.2486257E+04;
  1.1195612E+00;  9.9999998E-03;  1.7152332E-01;8166;  9.0996754E-01;  0.0000000E+00;  1.3386139E-01;  1.0071592E+03;  2.1241736E-01;  5.9291548E+03;3;  2.1838285E+01;  0.0000000E+00; -3.0388570E+00;0;  4.0399880E+00;  9.1450576E+03;  0.0000000E+00;  1.9624485E+00;  4.0000000E+04;  0.0000000E+00;  3.9332980E+04;  3.7280998E+00;  0.0000000E+00;  3.1188804E-01;  1.2535625E+04;
  1.1209302E+00;  9.9999998E-03;  1.3112105E-01;8162;  9.0902448E-01;  0.0000000E+00;  1.0082166E-01;  1.0067318E+03;  2.1234885E-01;  5.5750771E+03;3;  7.2111473E+01;  0.0000000E+00;  1.4912792E+00;0;  3.2015882E+00;  9.1410049E+03;  0.0000000E+00; -1.7917100E-01;  4.0000000E+04;  0.0000000E+00;  3.9349723E+04;  2.7303658E+00;  0.0000000E+00;  4.7122240E-01;  9.9273301E+03;
  1.1199629E+00;  9.9999998E-03;  1.6139387E-01;8165;  9.1188192E-01;  0.0000000E+00;  1.2379169E-01;  1.0069628E+03;  2.1238846E-01;  5.7664395E+03;3;  3.5112087E+01;  0.0000000E+00;  9.5186979E-02;0;  3.8177717E+00;  9.1448691E+03;  0.0000000E+00;  1.4666576E+00;  4.0000000E+04;  0.0000000E+00;  3.9333961E+04;  3.4559202E+00;  0.0000000E+00;  3.6185154E-01;  1.2246841E+04;
  1.1207457E+00;  9.9999998E-03;  1.4119586E-01;8163;  9.1186553E-01;  0.0000000E+00;  1.0727891E-01;  1.0067665E+03;  2.1234402E-01;  5.6039111E+03;3;  6.1427315E+01;  0.0000000E+00;  8.6195296E-01;0;  3.3911495E+00;  9.1438027E+03;  0.0000000E+00;  3.1828719E-01;  4.0000000E+04;  0.0000000E+00;  3.9343191E+04;  2.9492326E+00;  0.0000000E+00;  4.4191700E-01;  1.0792577E+04;
  1.1203952E+00;  9.9999998E-03;  1.5128504E-01;8164;  9.1277295E-01;  0.0000000E+00;  1.1474711E-01;  1.0068359E+03;  2.1235922E-01;  5.6613813E+03;3;  4.8578213E+01;  0.0000000E+00;  6.6797447E-01;0;  3.5987961E+00;  9.1448096E+03;  0.0000000E+00;  8.9190888E-01;  4.0000000E+04;  0.0000000E+00;  3.9337371E+04;  3.1931653E+00;  0.0000000E+00;  4.0563089E-01;  1.1622033E+04;
  1.1408960E+00;  9.9999998E-03;  7.0590839E-02;8217;  8.8100725E-01;  0.0000000E+00;  5.4458294E-02;  1.0045912E+03;  2.0695081E-01;  3.8018599E+03;3;  1.0160558E+02;  0.0000000E+00;  9.7049294E+00;0;  1.5118713E+00;  9.5661484E+03;  0.0000000E+00; -2.2708081E-01;  4.0000000E+04;  0.0000000E+00;  3.9419926E+04;  9.0871829E-01;  0.0000000E+00;  6.0315305E-01;  1.9215415E+03;
  1.1410084E+00;  9.9999998E-03;  8.0683678E-02;8218;  8.8622552E-01;  0.0000000E+00;  6.2245842E-02;  1.0048841E+03;  2.0688182E-01;  4.0443958E+03;3;  1.0051156E+02;  0.0000000E+00;  1.0549932E+01;0;  1.5899963E+00;  9.5771309E+03;  0.0000000E+00; -3.1634590E-01;  4.0000000E+04;  0.0000000E+00;  3.9418219E+04;  9.9508333E-01;  0.0000000E+00;  5.9491295E-01;  2.3033162E+03;
  1.1411656E+00;  9.9999998E-03;  9.0763018E-02;8219;  8.9216506E-01;  0.0000000E+00;  7.0037052E-02;  1.0051900E+03;  2.0680903E-01;  4.2976899E+03;3;  9.9032196E+01;  0.0000000E+00;  1.1300765E+01;0;  1.6787256E+00;  9.5888750E+03;  0.0000000E+00; -3.9202321E-01;  4.0000000E+04;  0.0000000E+00;  3.9416387E+04;  1.0929159E+00;  0.0000000E+00;  5.8580971E-01;  2.6984465E+03;
  1.1413627E+00;  9.9999998E-03;  1.0083013E-01;8220;  8.9881593E-01;  0.0000000E+00;  7.7936530E-02;  1.0054926E+03;  2.0673281E-01;  4.5482183E+03;3;  9.7252266E+01;  0.0000000E+00;  1.1868453E+01;0;  1.7782238E+00;  9.6011211E+03;  0.0000000E+00; -4.3153161E-01;  4.0000000E+04;  0.0000000E+00;  3.9413293E+04;  1.2024649E+00;  0.0000000E+00;  5.7575881E-01;  3.1368271E+03;
  1.1415952E+00;  9.9999998E-03;  1.1088679E-01;8221;  9.0614516E-01;  0.0000000E+00;  8.5880369E-02;  1.0057914E+03;  2.0665695E-01;  4.7956841E+03;3;  9.5112503E+01;  0.0000000E+00;  1.2212936E+01;0;  1.8883786E+00;  9.6138330E+03;  0.0000000E+00; -4.1234773E-01;  4.0000000E+04;  0.0000000E+00;  3.9408746E+04;  1.3238128E+00;  0.0000000E+00;  5.6456572E-01;  3.6506851E+03;
  1.1418581E+00;  9.9999998E-03;  1.2093107E-01;8222;  9.1397244E-01;  0.0000000E+00;  9.3552530E-02;  1.0060822E+03;  2.0658191E-01;  5.0364355E+03;3;  9.2470291E+01;  0.0000000E+00;  1.2223512E+01;0;  2.0087147E+00;  9.6267490E+03;  0.0000000E+00; -3.1852135E-01;  4.0000000E+04;  0.0000000E+00;  3.9402855E+04;  1.4568573E+00;  0.0000000E+00;  5.5185741E-01;  4.2726333E+03;
  1.1421019E+00;  9.9999998E-03;  1.3096997E-01;8223;  9.2229569E-01;  0.0000000E+00;  1.0104510E-01;  1.0063756E+03;  2.0651703E-01;  5.2793589E+03;3;  8.9388245E+01;  0.0000000E+00;  1.2172944E+01;0;  2.1402764E+00;  9.6393145E+03;  0.0000000E+00; -1.4795364E-01;  4.0000000E+04;  0.0000000E+00;  3.9395746E+04;  1.6034213E+00;  0.0000000E+00;  5.3685510E-01;  5.0265386E+03;
  1.1410151E+00;  9.9999998E-03;  2.2171158E-01;8232;  1.0031798E+00;  0.0000000E+00;  1.7041114E-01;  1.0091917E+03;  2.0664954E-01;  7.6114121E+03;3;  2.8582392E+01;  0.0000000E+00; -9.2609806E+00;0;  3.7620785E+00;  9.6886621E+03;  0.0000000E+00;  9.0734220E-01;  4.0000000E+04;  0.0000000E+00;  3.9357707E+04;  3.5054729E+00;  0.0000000E+00;  2.5660560E-01;  1.0080570E+04;
  1.1413291E+00;  9.9999998E-03;  2.3183198E-01;8233;  1.0121539E+00;  0.0000000E+00;  1.7050464E-01;  1.0090293E+03;  2.0662861E-01;  7.4768481E+03;3;  1.8232975E+01;  0.0000000E+00; -1.1413960E+01;0;  3.9422660E+00;  9.6923535E+03;  0.0000000E+00;  5.6098729E-01;  4.0000000E+04;  0.0000000E+00;  3.9344492E+04;  3.6865420E+00;  0.0000000E+00;  2.5572392E-01;  1.1819990E+04;
  1.1408342E+00;  9.9999998E-03;  2.1160525E-01;8231;  9.9364740E-01;  0.0000000E+00;  1.6822965E-01;  1.0091045E+03;  2.0665877E-01;  7.5391646E+03;3;  3.7920673E+01;  0.0000000E+00; -3.5839131E+00;0;  3.5794718E+00;  9.6846533E+03;  0.0000000E+00;  1.1004776E+00;  4.0000000E+04;  0.0000000E+00;  3.9362414E+04;  3.3054976E+00;  0.0000000E+00;  2.7397409E-01;  9.4189502E+03;
  1.1421397E+00;  9.9999998E-03;  1.4101703E-01;8224;  9.3105489E-01;  0.0000000E+00;  1.0861588E-01;  1.0066739E+03;  2.0649345E-01;  5.5264355E+03;3;  8.6118118E+01;  0.0000000E+00;  1.2020856E+01;0;  2.2903557E+00;  9.6489277E+03;  0.0000000E+00;  8.4732555E-02;  4.0000000E+04;  0.0000000E+00;  3.9388188E+04;  1.7722629E+00;  0.0000000E+00;  5.1809281E-01;  5.9306738E+03;
  1.1407743E+00;  9.9999998E-03;  2.0151372E-01;8230;  9.8439580E-01;  0.0000000E+00;  1.6335361E-01;  1.0088523E+03;  2.0665984E-01;  7.3302891E+03;3;  4.6789513E+01;  0.0000000E+00;  3.3513863E+00;0;  3.3948598E+00;  9.6795576E+03;  0.0000000E+00;  1.1752402E+00;  4.0000000E+04;  0.0000000E+00;  3.9363734E+04;  3.0909307E+00;  0.0000000E+00;  3.0392903E-01;  9.2303027E+03;
  1.1408285E+00;  9.9999998E-03;  1.9142286E-01;8229;  9.7577405E-01;  0.0000000E+00;  1.5522289E-01;  1.0085085E+03;  2.0665298E-01;  7.0456943E+03;3;  5.5344330E+01;  0.0000000E+00;  1.0050731E+01;0;  3.2081475E+00;  9.6738184E+03;  0.0000000E+00;  1.1530672E+00;  4.0000000E+04;  0.0000000E+00;  3.9364355E+04;  2.8660722E+00;  0.0000000E+00;  3.4207538E-01;  9.0956904E+03;
  1.1418908E+00;  9.9999998E-03;  1.5107834E-01;8225;  9.4013804E-01;  0.0000000E+00;  1.1654229E-01;  1.0069911E+03;  2.0652041E-01;  5.7891211E+03;3;  8.2176544E+01;  0.0000000E+00;  1.2031093E+01;0;  2.4619565E+00;  9.6544072E+03;  0.0000000E+00;  3.5440463E-01;  4.0000000E+04;  0.0000000E+00;  3.9379996E+04;  1.9682258E+00;  0.0000000E+00;  4.9373057E-01;  6.9131997E+03;
  1.1409686E+00;  9.9999998E-03;  1.8132879E-01;8228;  9.6726799E-01;  0.0000000E+00;  1.4504044E-01;  1.0081164E+03;  2.0663948E-01;  6.7209189E+03;3;  6.3617077E+01;  0.0000000E+00;  1.3228708E+01;0;  3.0212677E+00;  9.6677451E+03;  0.0000000E+00;  1.0474463E+00;  4.0000000E+04;  0.0000000E+00;  3.9365660E+04;  2.6371441E+00;  0.0000000E+00;  3.8412356E-01;  8.8741602E+03;
  1.1411672E+00;  9.9999998E-03;  1.7123225E-01;8227;  9.5841444E-01;  0.0000000E+00;  1.3467650E-01;  1.0077107E+03;  2.0661753E-01;  6.3849873E+03;3;  7.1024620E+01;  0.0000000E+00;  1.3046051E+01;0;  2.8355198E+00;  9.6618428E+03;  0.0000000E+00;  8.6870807E-01;  4.0000000E+04;  0.0000000E+00;  3.9368387E+04;  2.4100733E+00;  0.0000000E+00;  4.2544663E-01;  8.4689111E+03;
  1.1415174E+00;  9.9999998E-03;  1.6114669E-01;8226;  9.4931108E-01;  0.0000000E+00;  1.2512146E-01;  1.0073339E+03;  2.0656919E-01;  6.0729385E+03;3;  7.7196121E+01;  0.0000000E+00;  1.2366618E+01;0;  2.6464531E+00;  9.6580918E+03;  0.0000000E+00;  6.2718105E-01;  4.0000000E+04;  0.0000000E+00;  3.9373262E+04;  2.1837096E+00;  0.0000000E+00;  4.6274349E-01;  7.8029873E+03;
  1.1621393E+00;  9.9999998E-03;  7.0467122E-02;8278;  8.7778699E-01;  0.0000000E+00;  4.6763897E-02;  1.0021682E+03;  2.0019245E-01;  1.7950713E+03;3;  1.0334431E+02;  0.0000000E+00;  1.1456133E+01;0;  8.6858773E-01;  1.0153871E+04;  0.0000000E+00;  2.3646666E-01;  4.0000000E+04;  0.0000000E+00;  3.9473887E+04;  2.9933760E-01;  0.0000000E+00;  5.6925011E-01;  4.4708848E+03;
  1.1620574E+00;  9.9999998E-03;  8.0552645E-02;8279;  8.8349724E-01;  0.0000000E+00;  5.3926013E-02;  1.0025595E+03;  2.0017163E-01;  2.1190901E+03;3;  1.0222909E+02;  0.0000000E+00;  1.2863666E+01;0;  9.2855346E-01;  1.0163361E+04;  0.0000000E+00;  2.2431958E-01;  4.0000000E+04;  0.0000000E+00;  3.9470418E+04;  3.6241198E-01;  0.0000000E+00;  5.6614149E-01;  4.0258093E+03;
  1.1620381E+00;  9.9999998E-03;  9.0621680E-02;8280;  8.8992667E-01;  0.0000000E+00;  6.1164510E-02;  1.0029864E+03;  2.0013906E-01;  2.4725190E+03;3;  1.0077582E+02;  0.0000000E+00;  1.4057401E+01;0;  9.9605107E-01;  1.0174845E+04;  0.0000000E+00;  1.9063772E-01;  4.0000000E+04;  0.0000000E+00;  3.9466676E+04;  4.3384072E-01;  0.0000000E+00;  5.6221038E-01;  3.6147642E+03;
  1.1620884E+00;  9.9999998E-03;  1.0067638E-01;8281;  8.9713818E-01;  0.0000000E+00;  6.8327002E-02;  1.0034357E+03;  2.0009112E-01;  2.8445007E+03;3;  9.9478256E+01;  0.0000000E+00;  1.5066599E+01;0;  1.0708717E+00;  1.0188283E+04;  0.0000000E+00;  1.4235726E-01;  4.0000000E+04;  0.0000000E+00;  3.9462844E+04;  5.1343548E-01;  0.0000000E+00;  5.5743623E-01;  3.1992864E+03;
  1.1621464E+00;  9.9999998E-03;  1.1072735E-01;8282;  9.0507650E-01;  0.0000000E+00;  7.5515196E-02;  1.0038945E+03;  2.0004864E-01;  3.2243777E+03;3;  9.7504623E+01;  0.0000000E+00;  1.5912847E+01;0;  1.1546848E+00;  1.0202134E+04;  0.0000000E+00;  8.5762233E-02;  4.0000000E+04;  0.0000000E+00;  3.9457598E+04;  6.0281903E-01;  0.0000000E+00;  5.5186576E-01;  2.7501270E+03;
  1.1621286E+00;  9.9999998E-03;  1.2078367E-01;8283;  9.1368842E-01;  0.0000000E+00;  8.2738452E-02;  1.0043580E+03;  2.0002499E-01;  3.6080068E+03;3;  9.5148018E+01;  0.0000000E+00;  1.6378790E+01;0;  1.2499783E+00;  1.0214704E+04;  0.0000000E+00;  2.5693357E-02;  4.0000000E+04;  0.0000000E+00;  3.9450992E+04;  7.0456815E-01;  0.0000000E+00;  5.4541022E-01;  2.3093467E+03;
  1.1612684E+00;  9.9999998E-03;  2.1131186E-01;8292;  1.0116000E+00;  0.0000000E+00;  1.5739296E-01;  1.0082833E+03;  2.0011432E-01;  6.8580068E+03;3;  6.6079826E+01;  0.0000000E+00;  2.1467865E+01;0;  2.4036760E+00;  1.0302181E+04;  0.0000000E+00; -4.7903396E-02;  4.0000000E+04;  0.0000000E+00;  3.9399406E+04;  2.0340509E+00;  0.0000000E+00;  3.6962509E-01;  5.7047671E+03;
  1.1615809E+00;  9.9999998E-03;  2.2143954E-01;8293;  1.0252500E+00;  0.0000000E+00;  1.6410865E-01;  1.0084609E+03;  2.0005204E-01;  7.0049438E+03;3;  6.2756035E+01;  0.0000000E+00;  1.4100276E+01;0;  2.5378501E+00;  1.0313575E+04;  0.0000000E+00; -2.2604799E-02;  4.0000000E+04;  0.0000000E+00;  3.9394770E+04;  2.1752484E+00;  0.0000000E+00;  3.6260179E-01;  6.3109434E+03;
  1.1621000E+00;  9.9999998E-03;  2.3158379E-01;8294;  1.0387830E+00;  0.0000000E+00;  1.6598614E-01;  1.0083950E+03;  1.9996032E-01;  6.9503281E+03;3;  5.8427227E+01;  0.0000000E+00;  1.0668009E+01;0;  2.6625514E+00;  1.0327144E+04;  0.0000000E+00; -7.9244271E-02;  4.0000000E+04;  0.0000000E+00;  3.9381574E+04;  2.2967212E+00;  0.0000000E+00;  3.6583009E-01;  7.9951309E+03;
  1.1611151E+00;  9.9999998E-03;  2.0122056E-01;8291;  9.9889123E-01;  0.0000000E+00;  1.4609638E-01;  1.0079518E+03;  2.0014839E-01;  6.5834443E+03;3;  6.9181465E+01;  0.0000000E+00;  2.6273382E+01;0;  2.2672672E+00;  1.0291342E+04;  0.0000000E+00; -1.0411147E-01;  4.0000000E+04;  0.0000000E+00;  3.9400105E+04;  1.8796121E+00;  0.0000000E+00;  3.8765526E-01;  5.5994746E+03;
  1.1620924E+00;  9.9999998E-03;  1.3082884E-01;8284;  9.2289448E-01;  0.0000000E+00;  8.9827664E-02;  1.0048120E+03;  2.0001176E-01;  3.9839390E+03;3;  9.2621086E+01;  0.0000000E+00;  1.6602423E+01;0;  1.3545139E+00;  1.0226932E+04;  0.0000000E+00; -3.2020088E-02;  4.0000000E+04;  0.0000000E+00;  3.9443480E+04;  8.1703520E-01;  0.0000000E+00;  5.3747869E-01;  2.0758198E+03;
  1.1611185E+00;  9.9999998E-03;  1.9115075E-01;8290;  9.8699057E-01;  0.0000000E+00;  1.3466068E-01;  1.0075460E+03;  2.0015590E-01;  6.2474814E+03;3;  7.2858910E+01;  0.0000000E+00;  2.4818323E+01;0;  2.1309826E+00;  1.0281468E+04;  0.0000000E+00; -1.5921773E-01;  4.0000000E+04;  0.0000000E+00;  3.9401656E+04;  1.7160095E+00;  0.0000000E+00;  4.1497311E-01;  5.3984424E+03;
  1.1620123E+00;  9.9999998E-03;  1.4086190E-01;8285;  9.3262273E-01;  0.0000000E+00;  9.6711770E-02;  1.0052606E+03;  2.0001434E-01;  4.3553335E+03;3;  8.9745491E+01;  0.0000000E+00;  1.6714945E+01;0;  1.4682291E+00;  1.0238124E+04;  0.0000000E+00; -8.6217538E-02;  4.0000000E+04;  0.0000000E+00;  3.9434660E+04;  9.4090503E-01;  0.0000000E+00;  5.2732408E-01;  2.2742678E+03;
  1.1612356E+00;  9.9999998E-03;  1.8108711E-01;8289;  9.7542316E-01;  0.0000000E+00;  1.2508830E-01;  1.0071049E+03;  2.0014259E-01;  5.8822979E+03;3;  7.6690292E+01;  0.0000000E+00;  2.1754440E+01;0;  1.9941947E+00;  1.0272357E+04;  0.0000000E+00; -1.9473995E-01;  4.0000000E+04;  0.0000000E+00;  3.9405348E+04;  1.5492792E+00;  0.0000000E+00;  4.4491553E-01;  4.9737544E+03;
  1.1617913E+00;  9.9999998E-03;  1.5090714E-01;8286;  9.4278723E-01;  0.0000000E+00;  1.0347141E-01;  1.0057153E+03;  2.0005199E-01;  4.7318677E+03;3;  8.6702637E+01;  0.0000000E+00;  1.6864315E+01;0;  1.5938773E+00;  1.0246298E+04;  0.0000000E+00; -1.3645694E-01;  4.0000000E+04;  0.0000000E+00;  3.9425773E+04;  1.0800489E+00;  0.0000000E+00;  5.1382840E-01;  2.8812886E+03;
  1.1614270E+00;  9.9999998E-03;  1.7102386E-01;8288;  9.6419424E-01;  0.0000000E+00;  1.1713487E-01;  1.0066407E+03;  2.0011301E-01;  5.4980625E+03;3;  8.0031975E+01;  0.0000000E+00;  1.9253454E+01;0;  1.8571169E+00;  1.0264018E+04;  0.0000000E+00; -2.0161247E-01;  4.0000000E+04;  0.0000000E+00;  3.9410797E+04;  1.3845286E+00;  0.0000000E+00;  4.7258824E-01;  4.3643306E+03;
  1.1615993E+00;  9.9999998E-03;  1.6095990E-01;8287;  9.5331335E-01;  0.0000000E+00;  1.1014340E-01;  1.0061767E+03;  2.0008385E-01;  5.1138306E+03;3;  8.3382645E+01;  0.0000000E+00;  1.7658455E+01;0;  1.7238767E+00;  1.0254997E+04;  0.0000000E+00; -1.7833562E-01;  4.0000000E+04;  0.0000000E+00;  3.9417840E+04;  1.2281468E+00;  0.0000000E+00;  4.9572998E-01;  3.6381809E+03;
  1.1804674E+00;  9.9999998E-03;  1.9098204E-01;8351;  9.8731512E-01;  0.0000000E+00;  1.0588148E-01;  1.0055164E+03;  1.9325061E-01;  4.5661450E+03;3;  7.6604927E+01;  0.0000000E+00;  2.6363316E+01;0;  1.3203039E+00;  1.0974006E+04;  0.0000000E+00; -9.6207160E-01;  4.0000000E+04;  0.0000000E+00;  3.9440453E+04;  8.8436377E-01;  0.0000000E+00;  4.3594018E-01;  2.9840449E+03;
  1.1804985E+00;  9.9999998E-03;  2.0102721E-01;8352;  9.9997866E-01;  0.0000000E+00;  1.1418594E-01;  1.0059181E+03;  1.9322798E-01;  4.8986748E+03;3;  7.3524376E+01;  0.0000000E+00;  3.0849215E+01;0;  1.4072150E+00;  1.0986948E+04;  0.0000000E+00; -8.4130418E-01;  4.0000000E+04;  0.0000000E+00;  3.9437105E+04;  9.8863363E-01;  0.0000000E+00;  4.1858137E-01;  2.5617844E+03;
  1.1805937E+00;  9.9999998E-03;  1.8094432E-01;8350;  9.7510689E-01;  0.0000000E+00;  9.9439599E-02;  1.0050922E+03;  1.9323677E-01;  4.2149570E+03;3;  7.9426048E+01;  0.0000000E+00;  2.3347170E+01;0;  1.2291292E+00;  1.0963558E+04;  0.0000000E+00; -9.9036217E-01;  4.0000000E+04;  0.0000000E+00;  3.9446488E+04;  7.7688873E-01;  0.0000000E+00;  4.5224047E-01;  3.3503821E+03;
  1.1807384E+00;  9.9999998E-03;  2.1110164E-01;8353;  1.0130688E+00;  0.0000000E+00;  1.2535983E-01;  1.0062853E+03;  1.9316071E-01;  5.2025742E+03;3;  7.0361160E+01;  0.0000000E+00;  3.5657524E+01;0;  1.4913177E+00;  1.1003108E+04;  0.0000000E+00; -6.6464525E-01;  4.0000000E+04;  0.0000000E+00;  3.9436117E+04;  1.0848805E+00;  0.0000000E+00;  4.0643722E-01;  2.2014419E+03;
  1.1807688E+00;  9.9999998E-03;  1.7090060E-01;8349;  9.6330118E-01;  0.0000000E+00;  9.4071276E-02;  1.0046511E+03;  1.9321163E-01;  3.8498542E+03;3;  8.2395241E+01;  0.0000000E+00;  2.1176035E+01;0;  1.1373698E+00;  1.0953351E+04;  0.0000000E+00; -9.1103476E-01;  4.0000000E+04;  0.0000000E+00;  3.9454113E+04;  6.7207187E-01;  0.0000000E+00;  4.6529785E-01;  3.6692981E+03;
  1.1809021E+00;  9.9999998E-03;  1.6083983E-01;8348;  9.5187551E-01;  0.0000000E+00;  8.9254007E-02;  1.0042031E+03;  1.9319604E-01;  3.4790322E+03;3;  8.5398018E+01;  0.0000000E+00;  1.9748444E+01;0;  1.0486023E+00;  1.0941600E+04;  0.0000000E+00; -7.3073751E-01;  4.0000000E+04;  0.0000000E+00;  3.9462473E+04;  5.7369435E-01;  0.0000000E+00;  4.7490799E-01;  3.9529846E+03;
  1.1811818E+00;  9.9999998E-03;  2.2121865E-01;8354;  1.0266739E+00;  0.0000000E+00;  1.3812238E-01;  1.0065478E+03;  1.9305408E-01;  5.4198213E+03;3;  6.7103760E+01;  0.0000000E+00;  3.4608185E+01;0;  1.5794109E+00;  1.1022073E+04;  0.0000000E+00; -4.9047127E-01;  4.0000000E+04;  0.0000000E+00;  3.9433090E+04;  1.1699884E+00;  0.0000000E+00;  4.0942255E-01;  2.4531909E+03;
  1.1810975E+00;  9.9999998E-03;  1.5076363E-01;8347;  9.4081479E-01;  0.0000000E+00;  8.4424838E-02;  1.0037448E+03;  1.9316337E-01;  3.0996238E+03;3;  8.8302727E+01;  0.0000000E+00;  1.8991243E+01;0;  9.6081579E-01;  1.0931279E+04;  0.0000000E+00; -4.8088974E-01;  4.0000000E+04;  0.0000000E+00;  3.9471348E+04;  4.7958881E-01;  0.0000000E+00;  4.8122695E-01;  4.3005420E+03;
  1.1813688E+00;  9.9999998E-03;  1.4069857E-01;8346;  9.3021721E-01;  0.0000000E+00;  7.9254486E-02;  1.0032780E+03;  1.9311382E-01;  2.7133079E+03;3;  9.0716675E+01;  0.0000000E+00;  1.8744587E+01;0;  8.7538487E-01;  1.0922892E+04;  0.0000000E+00; -2.0550364E-01;  4.0000000E+04;  0.0000000E+00;  3.9480441E+04;  3.9057267E-01;  0.0000000E+00;  4.8481220E-01;  4.8195562E+03;
  1.1818000E+00;  9.9999998E-03;  2.3135965E-01;8355;  1.0405947E+00;  0.0000000E+00;  1.4506721E-01;  1.0066329E+03;  1.9291633E-01;  5.4902280E+03;3;  6.4036346E+01;  0.0000000E+00;  2.3129993E+01;0;  1.6650840E+00;  1.1043349E+04;  0.0000000E+00; -4.0295154E-01;  4.0000000E+04;  0.0000000E+00;  3.9423000E+04;  1.2420058E+00;  0.0000000E+00;  4.2307818E-01;  3.7457075E+03;
  1.1816047E+00;  9.9999998E-03;  1.3065818E-01;8345;  9.2013842E-01;  0.0000000E+00;  7.3740393E-02;  1.0028057E+03;  1.9307503E-01;  2.3223584E+03;3;  9.3614418E+01;  0.0000000E+00;  1.8439573E+01;0;  7.9661548E-01;  1.0913733E+04;  0.0000000E+00;  5.8018431E-02;  4.0000000E+04;  0.0000000E+00;  3.9489285E+04;  3.0976197E-01;  0.0000000E+00;  4.8685354E-01;  5.4935244E+03;
  1.1817777E+00;  9.9999998E-03;  1.2062259E-01;8344;  9.1054839E-01;  0.0000000E+00;  6.7940608E-02;  1.0023195E+03;  1.9305152E-01;  1.9198684E+03;3;  9.6143425E+01;  0.0000000E+00;  1.8041128E+01;0;  7.2565585E-01;  1.0903415E+04;  0.0000000E+00;  2.8518140E-01;  4.0000000E+04;  0.0000000E+00;  3.9496961E+04;  2.3741861E-01;  0.0000000E+00;  4.8823723E-01;  6.2397759E+03;
  1.1818764E+00;  9.9999998E-03;  1.1059643E-01;8343;  9.0159088E-01;  0.0000000E+00;  6.1961334E-02;  1.0018254E+03;  1.9304591E-01;  1.5109679E+03;3;  9.8370277E+01;  0.0000000E+00;  1.7291220E+01;0;  6.6289192E-01;  1.0891660E+04;  0.0000000E+00;  4.5940870E-01;  4.0000000E+04;  0.0000000E+00;  3.9503457E+04;  1.7343621E-01;  0.0000000E+00;  4.8945573E-01;  6.9731445E+03;
  1.1819835E+00;  9.9999998E-03;  1.0056464E-01;8342;  8.9333797E-01;  0.0000000E+00;  5.5843964E-02;  1.0013304E+03;  1.9304228E-01;  1.1012792E+03;3;  9.9963516E+01;  0.0000000E+00;  1.6345055E+01;0;  6.0643685E-01;  1.0880657E+04;  0.0000000E+00;  5.7309991E-01;  4.0000000E+04;  0.0000000E+00;  3.9508816E+04;  1.1610852E-01;  0.0000000E+00;  4.9032834E-01;  7.6617461E+03;
  1.1821495E+00;  9.9999998E-03;  9.0518266E-02;8341;  8.8585716E-01;  0.0000000E+00;  4.9711142E-02;  1.0008459E+03;  1.9302250E-01;  7.0017560E+02;3;  1.0159101E+02;  0.0000000E+00;  1.5106228E+01;0;  5.5527014E-01;  1.0871913E+04;  0.0000000E+00;  6.2449408E-01;  4.0000000E+04;  0.0000000E+00;  3.9513547E+04;  6.4666711E-02;  0.0000000E+00;  4.9060342E-01;  8.3052217E+03;
  1.1823579E+00;  9.9999998E-03;  8.0457009E-02;8340;  8.7911576E-01;  0.0000000E+00;  4.3729689E-02;  1.0003978E+03;  1.9299296E-01;  3.2926709E+02;3;  1.0304084E+02;  0.0000000E+00;  1.3571773E+01;0;  5.0964725E-01;  1.0865262E+04;  0.0000000E+00;  6.1664969E-01;  4.0000000E+04;  0.0000000E+00;  3.9518109E+04;  1.9374149E-02;  0.0000000E+00;  4.9027309E-01;  8.9200781E+03;
  1.1825296E+00;  9.9999998E-03;  7.0367053E-02;8339;  8.7317491E-01;  0.0000000E+00;  3.7952065E-02;  1.0000057E+03;  1.9297467E-01;  4.7362247E+00;3;  1.0416767E+02;  0.0000000E+00;  1.1946408E+01;0;  4.7055537E-01;  1.0858798E+04;  0.0000000E+00;  5.5814487E-01;  4.0000000E+04;  0.0000000E+00;  3.9522492E+04; -1.9126259E-02;  0.0000000E+00;  4.8968163E-01;  9.5192373E+03;
  1.1990829E+00;  9.9999998E-03;  2.0097472E-01;8413;  9.9765640E-01;  0.0000000E+00;  8.4425457E-02;  1.0033650E+03;  1.8616882E-01;  2.7845706E+03;3;  7.5165482E+01;  0.0000000E+00;  3.0628008E+01;0;  8.2084382E-01;  1.1766337E+04;  0.0000000E+00; -1.1318711E+00;  4.0000000E+04;  0.0000000E+00;  3.9469406E+04;  4.0515363E-01;  0.0000000E+00;  4.1569021E-01;  3.2051580E+03;
  1.1990813E+00;  9.9999998E-03;  1.9094589E-01;8412;  9.8482698E-01;  0.0000000E+00;  7.9178311E-02;  1.0029995E+03;  1.8619469E-01;  2.4821228E+03;3;  7.7923683E+01;  0.0000000E+00;  2.7477831E+01;0;  7.6646465E-01;  1.1752143E+04;  0.0000000E+00; -1.2925439E+00;  4.0000000E+04;  0.0000000E+00;  3.9476121E+04;  3.4631905E-01;  0.0000000E+00;  4.2014560E-01;  4.4717783E+03;
  1.1992977E+00;  9.9999998E-03;  2.1101284E-01;8414;  1.0109408E+00;  0.0000000E+00;  9.1489658E-02;  1.0037391E+03;  1.8609998E-01;  3.0941086E+03;3;  7.2218483E+01;  0.0000000E+00;  3.5124382E+01;0;  8.6944818E-01;  1.1784758E+04;  0.0000000E+00; -9.1651267E-01;  4.0000000E+04;  0.0000000E+00;  3.9466402E+04;  4.5881298E-01;  0.0000000E+00;  4.1063520E-01;  2.0495156E+03;
  1.1992357E+00;  9.9999998E-03;  1.8090637E-01;8411;  9.7238290E-01;  0.0000000E+00;  7.4895889E-02;  1.0026407E+03;  1.8618433E-01;  2.1851931E+03;3;  8.0575897E+01;  0.0000000E+00;  2.5165792E+01;0;  7.0729071E-01;  1.1740876E+04;  0.0000000E+00; -1.3332928E+00;  4.0000000E+04;  0.0000000E+00;  3.9484703E+04;  2.8560841E-01;  0.0000000E+00;  4.2168230E-01;  5.6235264E+03;
  1.1997081E+00;  9.9999998E-03;  2.2108731E-01;8415;  1.0245645E+00;  0.0000000E+00;  1.0144672E-01;  1.0040856E+03;  1.8599239E-01;  3.3808457E+03;3;  6.8945206E+01;  0.0000000E+00;  4.0610840E+01;0;  9.1802502E-01;  1.1806405E+04;  0.0000000E+00; -7.4126583E-01;  4.0000000E+04;  0.0000000E+00;  3.9464652E+04;  5.0570506E-01;  0.0000000E+00;  4.1231999E-01;  1.1856626E+03;
  1.1994480E+00;  9.9999998E-03;  1.7084460E-01;8410;  9.6033210E-01;  0.0000000E+00;  7.1159460E-02;  1.0022725E+03;  1.8616544E-01;  1.8804705E+03;3;  8.3172157E+01;  0.0000000E+00;  2.3461809E+01;0;  6.4674103E-01;  1.1730117E+04;  0.0000000E+00; -1.2264694E+00;  4.0000000E+04;  0.0000000E+00;  3.9494133E+04;  2.2638562E-01;  0.0000000E+00;  4.2035544E-01;  6.5281523E+03;
  1.1996586E+00;  9.9999998E-03;  1.6076456E-01;8409;  9.4868028E-01;  0.0000000E+00;  6.7721754E-02;  1.0018975E+03;  1.8614577E-01;  1.5702260E+03;3;  8.5769592E+01;  0.0000000E+00;  2.2122217E+01;0;  5.8745712E-01;  1.1719159E+04;  0.0000000E+00; -9.8444718E-01;  4.0000000E+04;  0.0000000E+00;  3.9503293E+04;  1.7043631E-01;  0.0000000E+00;  4.1702080E-01;  7.2090356E+03;
  1.2003059E+00;  9.9999998E-03;  2.3119469E-01;8416;  1.0382866E+00;  0.0000000E+00;  1.1427625E-01;  1.0043378E+03;  1.8584795E-01;  3.5894404E+03;3;  6.5602196E+01;  0.0000000E+00;  4.2461758E+01;0;  9.7918648E-01;  1.1831750E+04;  0.0000000E+00; -7.2742057E-01;  4.0000000E+04;  0.0000000E+00;  3.9459754E+04;  5.4411596E-01;  0.0000000E+00;  4.3507051E-01;  8.5603802E+02;
  1.1998779E+00;  9.9999998E-03;  1.5067881E-01;8408;  9.3744373E-01;  0.0000000E+00;  6.4259857E-02;  1.0015151E+03;  1.8611385E-01;  1.2536703E+03;3;  8.8527206E+01;  0.0000000E+00;  2.1282450E+01;0;  5.3046143E-01;  1.1709293E+04;  0.0000000E+00; -6.4763713E-01;  4.0000000E+04;  0.0000000E+00;  3.9512305E+04;  1.1793111E-01;  0.0000000E+00;  4.1253030E-01;  7.8096084E+03;
  1.2001293E+00;  9.9999998E-03;  1.4060840E-01;8407;  9.2663491E-01;  0.0000000E+00;  6.0514886E-02;  1.0011189E+03;  1.8606870E-01;  9.2587109E+02;3;  9.1168930E+01;  0.0000000E+00;  2.0727388E+01;0;  4.7647977E-01;  1.1701133E+04;  0.0000000E+00; -2.7337652E-01;  4.0000000E+04;  0.0000000E+00;  3.9521242E+04;  6.8891980E-02;  0.0000000E+00;  4.0758780E-01;  8.4727207E+03;
  1.2003990E+00;  9.9999998E-03;  1.3057697E-01;8406;  9.1631806E-01;  0.0000000E+00;  5.6430764E-02;  1.0007220E+03;  1.8601492E-01;  5.9738416E+02;3;  9.4004395E+01;  0.0000000E+00;  2.0143135E+01;0;  4.2670435E-01;  1.1694260E+04;  0.0000000E+00;  8.4071279E-02;  4.0000000E+04;  0.0000000E+00;  3.9529512E+04;  2.3834199E-02;  0.0000000E+00;  4.0287015E-01;  9.2383555E+03;
  1.2006593E+00;  9.9999998E-03;  1.2056042E-01;8405;  9.0650088E-01;  0.0000000E+00;  5.2036788E-02;  1.0002989E+03;  1.8595824E-01;  2.4729773E+02;3;  9.6430077E+01;  0.0000000E+00;  1.9477661E+01;0;  3.8189691E-01;  1.1687893E+04;  0.0000000E+00;  3.8618585E-01;  4.0000000E+04;  0.0000000E+00;  3.9536953E+04; -1.6938141E-02;  0.0000000E+00;  3.9883506E-01;  1.0059888E+04;
  1.2008456E+00;  9.9999998E-03;  1.1053691E-01;8404;  8.9734495E-01;  0.0000000E+00;  4.7460515E-02;  9.9985803E+02;  1.8591999E-01; -1.1748328E+02;3;  9.8339958E+01;  0.0000000E+00;  1.8510750E+01;0;  3.4284264E-01;  1.1679859E+04;  0.0000000E+00;  6.0745275E-01;  4.0000000E+04;  0.0000000E+00;  3.9543242E+04; -5.3019647E-02;  0.0000000E+00;  3.9586228E-01;  1.0848358E+04;
  1.2009913E+00;  9.9999998E-03;  1.0049423E-01;8403;  8.8891500E-01;  0.0000000E+00;  4.2802498E-02;  9.9941364E+02;  1.8589351E-01; -4.8522144E+02;3;  1.0025214E+02;  0.0000000E+00;  1.7333336E+01;0;  3.0865029E-01;  1.1671064E+04;  0.0000000E+00;  7.3659426E-01;  4.0000000E+04;  0.0000000E+00;  3.9548344E+04; -8.4954850E-02;  0.0000000E+00;  3.9360514E-01;  1.1555597E+04;
  1.2011153E+00;  9.9999998E-03;  9.0429351E-02;8402;  8.8120788E-01;  0.0000000E+00;  3.8169432E-02;  9.9896881E+02;  1.8587171E-01; -8.5325385E+02;3;  1.0194156E+02;  0.0000000E+00;  1.5842480E+01;0;  2.7868152E-01;  1.1662433E+04;  0.0000000E+00;  7.7551502E-01;  4.0000000E+04;  0.0000000E+00;  3.9552879E+04; -1.1301607E-01;  0.0000000E+00;  3.9169759E-01;  1.2177168E+04;
  1.2012058E+00;  9.9999998E-03;  8.0330618E-02;8401;  8.7426674E-01;  0.0000000E+00;  3.3639260E-02;  9.9855151E+02;  1.8585777E-01; -1.1985979E+03;3;  1.0336684E+02;  0.0000000E+00;  1.4255425E+01;0;  2.5266039E-01;  1.1653821E+04;  0.0000000E+00;  7.3717177E-01;  4.0000000E+04;  0.0000000E+00;  3.9556781E+04; -1.3730977E-01;  0.0000000E+00;  3.8997018E-01;  1.2736554E+04;
  1.2012410E+00;  9.9999998E-03;  7.0240624E-02;8400;  8.6815423E-01;  0.0000000E+00;  2.9240515E-02;  9.9818201E+02;  1.8586026E-01; -1.5043374E+03;3;  1.0442593E+02;  0.0000000E+00;  1.2511392E+01;0;  2.3056240E-01;  1.1644438E+04;  0.0000000E+00;  6.4271307E-01;  4.0000000E+04;  0.0000000E+00;  3.9560895E+04; -1.5785186E-01;  0.0000000E+00;  3.8841426E-01;  1.3263836E+04;
  1.2172307E+00;  9.9999998E-03;  1.9092888E-01;8473;  9.8120624E-01;  0.0000000E+00;  5.4554574E-02;  1.0004236E+03;  1.7915317E-01;  3.5035852E+02;3;  7.7872688E+01;  0.0000000E+00;  2.9207909E+01;0;  4.1135374E-01;  1.2617828E+04;  0.0000000E+00; -1.3227059E+00;  4.0000000E+04;  0.0000000E+00;  3.9509801E+04;  3.2120489E-02;  0.0000000E+00;  3.7923324E-01;  7.0862871E+03;
  1.2172202E+00;  9.9999998E-03;  2.0096543E-01;8474;  9.9390686E-01;  0.0000000E+00;  5.7892803E-02;  1.0007309E+03;  1.7911632E-01;  6.0457318E+02;3;  7.5493179E+01;  0.0000000E+00;  3.1902895E+01;0;  4.4656229E-01;  1.2634143E+04;  0.0000000E+00; -1.2064190E+00;  4.0000000E+04;  0.0000000E+00;  3.9500273E+04;  5.7966046E-02;  0.0000000E+00;  3.8859624E-01;  5.7062939E+03;
  1.2173461E+00;  9.9999998E-03;  2.1099758E-01;8475;  1.0070544E+00;  0.0000000E+00;  6.2186193E-02;  1.0010733E+03;  1.7905863E-01;  8.8787488E+02;3;  7.3371689E+01;  0.0000000E+00;  3.5250931E+01;0;  4.7665650E-01;  1.2652726E+04;  0.0000000E+00; -1.0823148E+00;  4.0000000E+04;  0.0000000E+00;  3.9493195E+04;  8.1891552E-02;  0.0000000E+00;  3.9476493E-01;  4.5046353E+03;
  1.2173703E+00;  9.9999998E-03;  1.8087982E-01;8472;  9.6885055E-01;  0.0000000E+00;  5.1811773E-02;  1.0001293E+03;  1.7916554E-01;  1.0699064E+02;3;  8.0582588E+01;  0.0000000E+00;  2.7258142E+01;0;  3.7226793E-01;  1.2604529E+04;  0.0000000E+00; -1.3406720E+00;  4.0000000E+04;  0.0000000E+00;  3.9519719E+04;  5.3634453E-03;  0.0000000E+00;  3.6690450E-01;  8.3170566E+03;
  1.2176454E+00;  9.9999998E-03;  2.2103913E-01;8476;  1.0207025E+00;  0.0000000E+00;  6.8457633E-02;  1.0014515E+03;  1.7897421E-01;  1.2006542E+03;3;  7.0545845E+01;  0.0000000E+00;  3.9565395E+01;0;  5.0276709E-01;  1.2674158E+04;  0.0000000E+00; -1.0719962E+00;  4.0000000E+04;  0.0000000E+00;  3.9489277E+04;  1.0234388E-01;  0.0000000E+00;  4.0042320E-01;  3.8616028E+03;
  1.2176375E+00;  9.9999998E-03;  1.7081895E-01;8471;  9.5678324E-01;  0.0000000E+00;  4.9324568E-02;  9.9983795E+02;  1.7914593E-01; -1.3405794E+02;3;  8.3037704E+01;  0.0000000E+00;  2.5890110E+01;0;  3.3100599E-01;  1.2595363E+04;  0.0000000E+00; -1.2167194E+00;  4.0000000E+04;  0.0000000E+00;  3.9529168E+04; -2.1523558E-02;  0.0000000E+00;  3.5252956E-01;  9.2701533E+03;
  1.2180251E+00;  9.9999998E-03;  2.3110232E-01;8477;  1.0346128E+00;  0.0000000E+00;  7.7896729E-02;  1.0018422E+03;  1.7888783E-01;  1.5238783E+03;3;  6.7455078E+01;  0.0000000E+00;  4.5128441E+01;0;  5.3489572E-01;  1.2695217E+04;  0.0000000E+00; -1.3139327E+00;  4.0000000E+04;  0.0000000E+00;  3.9488152E+04;  1.2006558E-01;  0.0000000E+00;  4.1483012E-01;  3.9961211E+03;
  1.2179637E+00;  9.9999998E-03;  1.6074361E-01;8470;  9.4507337E-01;  0.0000000E+00;  4.6897918E-02;  9.9954810E+02;  1.7910250E-01; -3.7382108E+02;3;  8.5843071E+01;  0.0000000E+00;  2.4564651E+01;0;  2.9016069E-01;  1.2589060E+04;  0.0000000E+00; -9.6019727E-01;  4.0000000E+04;  0.0000000E+00;  3.9538191E+04; -4.7343172E-02;  0.0000000E+00;  3.3750385E-01;  1.0010661E+04;
  1.2182572E+00;  9.9999998E-03;  1.5065938E-01;8469;  9.3367684E-01;  0.0000000E+00;  4.4497028E-02;  9.9926233E+02;  1.7905468E-01; -6.1017908E+02;3;  8.8675529E+01;  0.0000000E+00;  2.3620523E+01;0;  2.5218496E-01;  1.2583193E+04;  0.0000000E+00; -6.1834693E-01;  4.0000000E+04;  0.0000000E+00;  3.9546562E+04; -7.1194001E-02;  0.0000000E+00;  3.2337895E-01;  1.0680804E+04;
  1.2183987E+00;  9.9999998E-03;  1.4058685E-01;8468;  9.2271727E-01;  0.0000000E+00;  4.2087030E-02;  9.9898279E+02;  1.7903574E-01; -8.4140924E+02;3;  9.1423866E+01;  0.0000000E+00;  2.2832994E+01;0;  2.1923986E-01;  1.2573735E+04;  0.0000000E+00; -2.4759968E-01;  4.0000000E+04;  0.0000000E+00;  3.9554199E+04; -9.2493407E-02;  0.0000000E+00;  3.1173328E-01;  1.1373016E+04;
  1.2184758E+00;  9.9999998E-03;  1.3054568E-01;8467;  9.1223413E-01;  0.0000000E+00;  3.9471500E-02;  9.9868335E+02;  1.7902258E-01; -1.0891068E+03;3;  9.4084129E+01;  0.0000000E+00;  2.1957514E+01;0;  1.9056813E-01;  1.2563321E+04;  0.0000000E+00;  1.0141146E-01;  4.0000000E+04;  0.0000000E+00;  3.9561535E+04; -1.1204679E-01;  0.0000000E+00;  3.0261493E-01;  1.2124023E+04;
  1.2185920E+00;  9.9999998E-03;  1.2052918E-01;8466;  9.0230191E-01;  0.0000000E+00;  3.6574773E-02;  9.9835229E+02;  1.7899247E-01; -1.3629327E+03;3;  9.6182205E+01;  0.0000000E+00;  2.1078346E+01;0;  1.6505823E-01;  1.2555062E+04;  0.0000000E+00;  3.8947308E-01;  4.0000000E+04;  0.0000000E+00;  3.9568004E+04; -1.3032141E-01;  0.0000000E+00;  2.9537964E-01;  1.2902691E+04;
  1.2187359E+00;  9.9999998E-03;  1.1050618E-01;8465;  8.9300126E-01;  0.0000000E+00;  3.3437021E-02;  9.9798236E+02;  1.7895293E-01; -1.6689017E+03;3;  9.8312416E+01;  0.0000000E+00;  1.9965153E+01;0;  1.4258429E-01;  1.2548154E+04;  0.0000000E+00;  5.9111196E-01;  4.0000000E+04;  0.0000000E+00;  3.9573645E+04; -1.4712560E-01;  0.0000000E+00;  2.8970990E-01;  1.3638623E+04;
  1.2188529E+00;  9.9999998E-03;  1.0045703E-01;8464;  8.8435870E-01;  0.0000000E+00;  3.0186770E-02;  9.9759259E+02;  1.7892097E-01; -1.9913367E+03;3;  1.0022629E+02;  0.0000000E+00;  1.8610977E+01;0;  1.2320562E-01;  1.2540307E+04;  0.0000000E+00;  6.9742918E-01;  4.0000000E+04;  0.0000000E+00;  3.9578258E+04; -1.6223781E-01;  0.0000000E+00;  2.8544343E-01;  1.4278030E+04;
  1.2189258E+00;  9.9999998E-03;  9.0366393E-02;8463;  8.7643260E-01;  0.0000000E+00;  2.6910167E-02;  9.9719049E+02;  1.7890163E-01; -2.3239290E+03;3;  1.0188083E+02;  0.0000000E+00;  1.7048784E+01;0;  1.0652022E-01;  1.2531145E+04;  0.0000000E+00;  7.1483415E-01;  4.0000000E+04;  0.0000000E+00;  3.9582250E+04; -1.7567812E-01;  0.0000000E+00;  2.8219834E-01;  1.4816262E+04;
  1.2189728E+00;  9.9999998E-03;  8.0283538E-02;8462;  8.6930108E-01;  0.0000000E+00;  2.3682000E-02;  9.9680261E+02;  1.7889316E-01; -2.6447383E+03;3;  1.0318427E+02;  0.0000000E+00;  1.5253061E+01;0;  9.1992348E-02;  1.2521376E+04;  0.0000000E+00;  6.6145217E-01;  4.0000000E+04;  0.0000000E+00;  3.9585695E+04; -1.8747458E-01;  0.0000000E+00;  2.7946693E-01;  1.5285662E+04;
  1.2190098E+00;  9.9999998E-03;  7.0220321E-02;8461;  8.6302370E-01;  0.0000000E+00;  2.0542854E-02;  9.9644562E+02;  1.7889059E-01; -2.9400581E+03;3;  1.0432244E+02;  0.0000000E+00;  1.3366422E+01;0;  7.9172164E-02;  1.2511810E+04;  0.0000000E+00;  5.6187868E-01;  4.0000000E+04;  0.0000000E+00;  3.9588914E+04; -1.9770563E-01;  0.0000000E+00;  2.7687779E-01;  1.5722606E+04;
  1.2344621E+00;  9.9999998E-03;  2.0097914E-01;8535;  9.8986495E-01;  0.0000000E+00;  3.4105122E-02;  9.9831848E+02;  1.7240044E-01; -1.3902964E+03;3;  7.5272102E+01;  0.0000000E+00;  3.3340981E+01;0;  2.2461936E-01;  1.3562200E+04;  0.0000000E+00; -1.1672102E+00;  4.0000000E+04;  0.0000000E+00;  3.9527500E+04; -1.2164885E-01;  0.0000000E+00;  3.4626821E-01;  7.9427881E+03;
  1.2345667E+00;  9.9999998E-03;  1.9094162E-01;8534;  9.7735602E-01;  0.0000000E+00;  3.2052387E-02;  9.9803680E+02;  1.7241384E-01; -1.6231984E+03;3;  7.7427963E+01;  0.0000000E+00;  3.1261662E+01;0;  1.9885981E-01;  1.3549133E+04;  0.0000000E+00; -1.1699319E+00;  4.0000000E+04;  0.0000000E+00;  3.9538602E+04; -1.2549287E-01;  0.0000000E+00;  3.2435268E-01;  9.2627676E+03;
  1.2345353E+00;  9.9999998E-03;  2.1100251E-01;8536;  1.0026619E+00;  0.0000000E+00;  3.6724109E-02;  9.9864142E+02;  1.7235114E-01; -1.1232837E+03;3;  7.2951424E+01;  0.0000000E+00;  3.5895473E+01;0;  2.4512711E-01;  1.3580707E+04;  0.0000000E+00; -1.2104481E+00;  4.0000000E+04;  0.0000000E+00;  3.9517891E+04; -1.1905292E-01;  0.0000000E+00;  3.6418003E-01;  6.8116436E+03;
  1.2348468E+00;  9.9999998E-03;  1.8089271E-01;8533;  9.6513307E-01;  0.0000000E+00;  3.0233750E-02;  9.9777875E+02;  1.7238811E-01; -1.8365242E+03;3;  8.0035034E+01;  0.0000000E+00;  2.9411171E+01;0;  1.6972518E-01;  1.3542447E+04;  0.0000000E+00; -1.1160895E+00;  4.0000000E+04;  0.0000000E+00;  3.9548492E+04; -1.3004267E-01;  0.0000000E+00;  2.9976785E-01;  1.0417199E+04;
  1.2347652E+00;  9.9999998E-03;  2.2102359E-01;8537;  1.0158767E+00;  0.0000000E+00;  4.0531918E-02;  9.9903442E+02;  1.7227674E-01; -7.9836218E+02;3;  7.0894402E+01;  0.0000000E+00;  4.0031132E+01;0;  2.5991374E-01;  1.3602874E+04;  0.0000000E+00; -1.4444541E+00;  4.0000000E+04;  0.0000000E+00;  3.9512234E+04; -1.1799977E-01;  0.0000000E+00;  3.7791350E-01;  6.3953369E+03;
  1.2351573E+00;  9.9999998E-03;  2.3105770E-01;8538;  1.0294321E+00;  0.0000000E+00;  4.6546943E-02;  9.9947809E+02;  1.7217658E-01; -4.3150467E+02;3;  6.8668312E+01;  0.0000000E+00;  4.4321636E+01;0;  2.7258068E-01;  1.3628467E+04;  0.0000000E+00; -2.0319266E+00;  4.0000000E+04;  0.0000000E+00;  3.9512180E+04; -1.1893531E-01;  0.0000000E+00;  3.9151600E-01;  7.1926528E+03;
  1.2352993E+00;  9.9999998E-03;  1.7083687E-01;8532;  9.5308000E-01;  0.0000000E+00;  2.8494533E-02;  9.9754315E+02;  1.7231517E-01; -2.0313059E+03;3;  8.2702454E+01;  0.0000000E+00;  2.8139999E+01;0;  1.3925493E-01;  1.3543134E+04;  0.0000000E+00; -9.6025294E-01;  4.0000000E+04;  0.0000000E+00;  3.9557473E+04; -1.3473395E-01;  0.0000000E+00;  2.7398887E-01;  1.1324109E+04;
  1.2357484E+00;  9.9999998E-03;  1.6077781E-01;8531;  9.4132584E-01;  0.0000000E+00;  2.6857566E-02;  9.9732349E+02;  1.7223205E-01; -2.2128755E+03;3;  8.5313347E+01;  0.0000000E+00;  2.7104136E+01;0;  1.1057757E-01;  1.3545589E+04;  0.0000000E+00; -7.1293455E-01;  4.0000000E+04;  0.0000000E+00;  3.9565180E+04; -1.3864920E-01;  0.0000000E+00;  2.4922676E-01;  1.2041875E+04;
  1.2359917E+00;  9.9999998E-03;  1.5071473E-01;8530;  9.2990470E-01;  0.0000000E+00;  2.5487078E-02;  9.9712421E+02;  1.7218915E-01; -2.3776504E+03;3;  8.8219162E+01;  0.0000000E+00;  2.6055826E+01;0;  8.6235791E-02;  1.3542311E+04;  0.0000000E+00; -4.1690388E-01;  4.0000000E+04;  0.0000000E+00;  3.9572090E+04; -1.4162064E-01;  0.0000000E+00;  2.2785643E-01;  1.2674345E+04;
  1.2360679E+00;  9.9999998E-03;  1.2053058E-01;8527;  8.9815807E-01;  0.0000000E+00;  2.1207038E-02;  9.9642786E+02;  1.7216396E-01; -2.9533792E+03;3;  9.5916794E+01;  0.0000000E+00;  2.2875971E+01;0;  3.7203103E-02;  1.3512914E+04;  0.0000000E+00;  3.5676757E-01;  4.0000000E+04;  0.0000000E+00;  3.9589434E+04; -1.5011092E-01;  0.0000000E+00;  1.8731402E-01;  1.4680926E+04;
  1.2360836E+00;  9.9999998E-03;  1.3057260E-01;8528;  9.0823334E-01;  0.0000000E+00;  2.2772292E-02;  9.9669641E+02;  1.7216627E-01; -2.7313237E+03;3;  9.3560738E+01;  0.0000000E+00;  2.3971912E+01;0;  5.0114885E-02;  1.3524270E+04;  0.0000000E+00;  1.4978263E-01;  4.0000000E+04;  0.0000000E+00;  3.9584070E+04; -1.4716083E-01;  0.0000000E+00;  1.9727571E-01;  1.3999796E+04;
  1.2360780E+00;  9.9999998E-03;  1.4064339E-01;8529;  9.1885066E-01;  0.0000000E+00;  2.4163444E-02;  9.9692047E+02;  1.7217171E-01; -2.5460818E+03;3;  9.0977837E+01;  0.0000000E+00;  2.5037634E+01;0;  6.6242918E-02;  1.3534513E+04;  0.0000000E+00; -1.1716568E-01;  4.0000000E+04;  0.0000000E+00;  3.9578234E+04; -1.4434052E-01;  0.0000000E+00;  2.1058343E-01;  1.3318441E+04;
  1.2361028E+00;  9.9999998E-03;  1.1049138E-01;8526;  8.8866496E-01;  0.0000000E+00;  1.9434830E-02;  9.9611493E+02;  1.7214979E-01; -3.2120938E+03;3;  9.8050209E+01;  0.0000000E+00;  2.1566105E+01;0;  2.6599318E-02;  1.3502783E+04;  0.0000000E+00;  4.8908043E-01;  4.0000000E+04;  0.0000000E+00;  3.9594418E+04; -1.5299869E-01;  0.0000000E+00;  1.7959800E-01;  1.5313491E+04;
  1.2361392E+00;  9.9999998E-03;  1.0043128E-01;8525;  8.7981540E-01;  0.0000000E+00;  1.7540293E-02;  9.9576178E+02;  1.7213866E-01; -3.5040713E+03;3;  9.9933792E+01;  0.0000000E+00;  2.0068575E+01;0;  1.7939821E-02;  1.3491727E+04;  0.0000000E+00;  5.4533422E-01;  4.0000000E+04;  0.0000000E+00;  3.9598383E+04; -1.5575914E-01;  0.0000000E+00;  1.7369896E-01;  1.5860349E+04;
  1.2361761E+00;  9.9999998E-03;  9.0376616E-02;8524;  8.7172031E-01;  0.0000000E+00;  1.5625557E-02;  9.9538806E+02;  1.7213354E-01; -3.8130007E+03;3;  1.0148791E+02;  0.0000000E+00;  1.8304861E+01;0;  1.0639131E-02;  1.3480117E+04;  0.0000000E+00;  5.3578907E-01;  4.0000000E+04;  0.0000000E+00;  3.9601930E+04; -1.5833408E-01;  0.0000000E+00;  1.6897321E-01;  1.6320526E+04;
  1.2362108E+00;  9.9999998E-03;  8.0328867E-02;8523;  8.6443883E-01;  0.0000000E+00;  1.3734417E-02;  9.9501166E+02;  1.7213240E-01; -4.1241963E+03;3;  1.0282837E+02;  0.0000000E+00;  1.6433363E+01;0;  4.2003095E-03;  1.3468368E+04;  0.0000000E+00;  4.7842744E-01;  4.0000000E+04;  0.0000000E+00;  3.9604715E+04; -1.6070895E-01;  0.0000000E+00;  1.6490926E-01;  1.6711064E+04;
  1.2362428E+00;  9.9999998E-03;  7.0287637E-02;8522;  8.5799110E-01;  0.0000000E+00;  1.1878133E-02;  9.9466284E+02;  1.7213374E-01; -4.4126240E+03;3;  1.0397202E+02;  0.0000000E+00;  1.4595583E+01;0; -1.7194450E-03;  1.3457253E+04;  0.0000000E+00;  3.9342827E-01;  4.0000000E+04;  0.0000000E+00;  3.9607254E+04; -1.6288203E-01;  0.0000000E+00;  1.6116259E-01;  1.7049480E+04;
  1.2512678E+00;  9.9999998E-03;  2.1101882E-01;8597;  9.9815983E-01;  0.0000000E+00;  1.3599647E-02;  9.9649542E+02;  1.6595234E-01; -2.8959731E+03;3;  7.2177055E+01;  0.0000000E+00;  3.7049786E+01;0;  1.0923247E-01;  1.4577100E+04;  0.0000000E+00; -1.2846850E+00;  4.0000000E+04;  0.0000000E+00;  3.9539359E+04; -2.1448018E-01;  0.0000000E+00;  3.2371265E-01;  8.6614131E+03;
  1.2513179E+00;  9.9999998E-03;  2.0099860E-01;8596;  9.8574132E-01;  0.0000000E+00;  1.2099276E-02;  9.9616217E+02;  1.6595489E-01; -3.1713447E+03;3;  7.4290611E+01;  0.0000000E+00;  3.4666744E+01;0;  9.4748080E-02;  1.4564931E+04;  0.0000000E+00; -1.0117936E+00;  4.0000000E+04;  0.0000000E+00;  3.9550582E+04; -2.0018548E-01;  0.0000000E+00;  2.9493356E-01;  9.7052920E+03;
  1.2514428E+00;  9.9999998E-03;  2.2102588E-01;8598;  1.0107774E+00;  0.0000000E+00;  1.5708394E-02;  9.9690790E+02;  1.6590029E-01; -2.5551199E+03;3;  7.0294533E+01;  0.0000000E+00;  4.0220379E+01;0;  1.1729661E-01;  1.4597918E+04;  0.0000000E+00; -1.8125883E+00;  4.0000000E+04;  0.0000000E+00;  3.9532820E+04; -2.2925159E-01;  0.0000000E+00;  3.4654820E-01;  8.5233506E+03;
  1.2515453E+00;  9.9999998E-03;  1.9096129E-01;8595;  9.7348011E-01;  0.0000000E+00;  1.0910943E-02;  9.9588983E+02;  1.6592054E-01; -3.3963550E+03;3;  7.6746315E+01;  0.0000000E+00;  3.3239540E+01;0;  7.6226249E-02;  1.4559965E+04;  0.0000000E+00; -8.5612386E-01;  4.0000000E+04;  0.0000000E+00;  3.9561707E+04; -1.8595816E-01;  0.0000000E+00;  2.6218441E-01;  1.0925956E+04;
  1.2517780E+00;  9.9999998E-03;  2.3104210E-01;8599;  1.0237007E+00;  0.0000000E+00;  1.9496202E-02;  9.9740771E+02;  1.6581745E-01; -2.1420527E+03;3;  6.8491470E+01;  0.0000000E+00;  4.4008934E+01;0;  1.2003914E-01;  1.4623679E+04;  0.0000000E+00; -2.7568979E+00;  4.0000000E+04;  0.0000000E+00;  3.9532820E+04; -2.4443561E-01;  0.0000000E+00;  3.6447474E-01;  9.9338779E+03;
  1.2518737E+00;  9.9999998E-03;  1.8091117E-01;8594;  9.6140820E-01;  0.0000000E+00;  9.8757409E-03;  9.9566309E+02;  1.6586396E-01; -3.5836685E+03;3;  7.9083702E+01;  0.0000000E+00;  3.2060467E+01;0;  5.6313574E-02;  1.4560075E+04;  0.0000000E+00; -7.1913624E-01;  4.0000000E+04;  0.0000000E+00;  3.9570957E+04; -1.7154019E-01;  0.0000000E+00;  2.2785376E-01;  1.1959976E+04;
  1.2522427E+00;  9.9999998E-03;  1.7085896E-01;8593;  9.4950360E-01;  0.0000000E+00;  9.0246880E-03;  9.9547534E+02;  1.6579391E-01; -3.7387603E+03;3;  8.1828735E+01;  0.0000000E+00;  3.0745268E+01;0;  3.7215009E-02;  1.4563616E+04;  0.0000000E+00; -5.4871345E-01;  4.0000000E+04;  0.0000000E+00;  3.9578219E+04; -1.5692458E-01;  0.0000000E+00;  1.9413958E-01;  1.2735454E+04;
  1.2526050E+00;  9.9999998E-03;  1.6081032E-01;8592;  9.3779927E-01;  0.0000000E+00;  8.2597360E-03;  9.9531006E+02;  1.6571687E-01; -3.8752805E+03;3;  8.4462234E+01;  0.0000000E+00;  2.9890253E+01;0;  2.0591572E-02;  1.4568893E+04;  0.0000000E+00; -3.4245047E-01;  4.0000000E+04;  0.0000000E+00;  3.9583773E+04; -1.4225212E-01;  0.0000000E+00;  1.6284369E-01;  1.3328742E+04;
  1.2530357E+00;  9.9999998E-03;  7.0378974E-02;8583;  8.5321742E-01;  0.0000000E+00;  3.0880834E-03;  9.9283893E+02;  1.6567770E-01; -5.9170850E+03;3;  1.0333766E+02;  0.0000000E+00;  1.6502857E+01;0; -1.0125041E-03;  1.4472013E+04;  0.0000000E+00;  1.9300742E-01;  4.0000000E+04;  0.0000000E+00;  3.9616758E+04; -4.7178052E-02;  0.0000000E+00;  4.6165548E-02;  1.7439252E+04;
  1.2530231E+00;  9.9999998E-03;  8.0404356E-02;8584;  8.5984153E-01;  0.0000000E+00;  3.6839221E-03;  9.9319916E+02;  1.6566354E-01; -5.6194180E+03;3;  1.0222543E+02;  0.0000000E+00;  1.8553034E+01;0; -2.5605038E-03;  1.4486266E+04;  0.0000000E+00;  2.5125837E-01;  4.0000000E+04;  0.0000000E+00;  3.9614738E+04; -5.4067660E-02;  0.0000000E+00;  5.1507156E-02;  1.7175234E+04;
  1.2530310E+00;  9.9999998E-03;  9.0422653E-02;8585;  8.6728221E-01;  0.0000000E+00;  4.2864727E-03;  9.9357074E+02;  1.6564675E-01; -5.3123901E+03;3;  1.0096004E+02;  0.0000000E+00;  2.0436354E+01;0; -4.4822358E-03;  1.4502300E+04;  0.0000000E+00;  3.0181399E-01;  4.0000000E+04;  0.0000000E+00;  3.9612309E+04; -6.1743397E-02;  0.0000000E+00;  5.7261162E-02;  1.6842225E+04;
  1.2530597E+00;  9.9999998E-03;  1.0044102E-01;8586;  8.7551892E-01;  0.0000000E+00;  4.8891651E-03;  9.9393146E+02;  1.6562536E-01; -5.0143213E+03;3;  9.9445862E+01;  0.0000000E+00;  2.2261509E+01;0; -6.4390674E-03;  1.4519241E+04;  0.0000000E+00;  3.3299595E-01;  4.0000000E+04;  0.0000000E+00;  3.9609348E+04; -7.0214733E-02;  0.0000000E+00;  6.3775666E-02;  1.6434510E+04;
  1.2531152E+00;  9.9999998E-03;  1.1047383E-01;8587;  8.8450044E-01;  0.0000000E+00;  5.4580108E-03;  9.9426166E+02;  1.6560283E-01; -4.7414639E+03;3;  9.7616203E+01;  0.0000000E+00;  2.3845655E+01;0; -7.8828931E-03;  1.4536596E+04;  0.0000000E+00;  3.3254731E-01;  4.0000000E+04;  0.0000000E+00;  3.9605707E+04; -7.9472244E-02;  0.0000000E+00;  7.1589351E-02;  1.5954561E+04;
  1.2529411E+00;  9.9999998E-03;  1.5075284E-01;8591;  9.2632568E-01;  0.0000000E+00;  7.5419350E-03;  9.9515369E+02;  1.6563833E-01; -4.0044626E+03;3;  8.7443581E+01;  0.0000000E+00;  2.8717098E+01;0;  7.5259209E-03;  1.4574123E+04;  0.0000000E+00; -1.3007812E-01;  4.0000000E+04;  0.0000000E+00;  3.9588562E+04; -1.2768313E-01;  0.0000000E+00;  1.3520905E-01;  1.3842588E+04;
  1.2531918E+00;  9.9999998E-03;  1.2053168E-01;8588;  8.9415663E-01;  0.0000000E+00;  5.9580822E-03;  9.9455359E+02;  1.6557924E-01; -4.5002720E+03;3;  9.5454849E+01;  0.0000000E+00;  2.5238279E+01;0; -8.1033558E-03;  1.4553358E+04;  0.0000000E+00;  2.8979078E-01;  4.0000000E+04;  0.0000000E+00;  3.9601566E+04; -8.9607149E-02;  0.0000000E+00;  8.1503794E-02;  1.5423222E+04;
  1.2532407E+00;  9.9999998E-03;  1.3061242E-01;8589;  9.0440762E-01;  0.0000000E+00;  6.4205867E-03;  9.9479126E+02;  1.6556507E-01; -4.3038545E+03;3;  9.2922813E+01;  0.0000000E+00;  2.6530796E+01;0; -6.2508658E-03;  1.4567315E+04;  0.0000000E+00;  1.9793470E-01;  4.0000000E+04;  0.0000000E+00;  3.9597340E+04; -1.0092480E-01;  0.0000000E+00;  9.4673939E-02;  1.4875613E+04;
  1.2531792E+00;  9.9999998E-03;  1.4068456E-01;8590;  9.1516542E-01;  0.0000000E+00;  6.9135614E-03;  9.9498651E+02;  1.6557980E-01; -4.1425215E+03;3;  9.0257614E+01;  0.0000000E+00;  2.7623621E+01;0; -1.3573542E-03;  1.4575079E+04;  0.0000000E+00;  5.6101181E-02;  4.0000000E+04;  0.0000000E+00;  3.9593027E+04; -1.1365794E-01;  0.0000000E+00;  1.1230059E-01;  1.4348001E+04;
  1.2677662E+00;  9.9999998E-03;  2.2100753E-01;8659;  1.0055879E+00;  0.0000000E+00; -6.6074897E-03;  9.9514728E+02;  1.5983017E-01; -4.0070981E+03;3;  6.9335831E+01;  0.0000000E+00;  4.0392017E+01;0;  3.6567241E-02;  1.5663401E+04;  0.0000000E+00; -2.1584189E+00;  4.0000000E+04;  0.0000000E+00;  3.9554945E+04; -2.7254981E-01;  0.0000000E+00;  3.0911705E-01;  1.0665679E+04;
  1.2676083E+00;  9.9999998E-03;  2.1099597E-01;8658;  9.9361968E-01;  0.0000000E+00; -7.6293694E-03;  9.9470880E+02;  1.5986282E-01; -4.3692305E+03;3;  7.1077271E+01;  0.0000000E+00;  3.8148403E+01;0;  3.5683990E-02;  1.5644440E+04;  0.0000000E+00; -1.2570038E+00;  4.0000000E+04;  0.0000000E+00;  3.9560684E+04; -2.4180573E-01;  0.0000000E+00;  2.7748972E-01;  1.0452535E+04;
  1.2680527E+00;  9.9999998E-03;  2.3103422E-01;8660;  1.0178102E+00;  0.0000000E+00; -4.3994463E-03;  9.9565479E+02;  1.5977357E-01; -3.5880037E+03;3;  6.7844749E+01;  0.0000000E+00;  4.4127872E+01;0;  3.1103015E-02;  1.5687183E+04;  0.0000000E+00; -3.6015494E+00;  4.0000000E+04;  0.0000000E+00;  3.9553355E+04; -3.0222753E-01;  0.0000000E+00;  3.3333054E-01;  1.2601465E+04;
  1.2675928E+00;  9.9999998E-03;  2.0098457E-01;8657;  9.8170543E-01;  0.0000000E+00; -8.1338407E-03;  9.9436047E+02;  1.5986694E-01; -4.6568667E+03;3;  7.3002846E+01;  0.0000000E+00;  3.6483360E+01;0;  2.9956982E-02;  1.5631825E+04;  0.0000000E+00; -7.2226089E-01;  4.0000000E+04;  0.0000000E+00;  3.9569523E+04; -2.1017322E-01;  0.0000000E+00;  2.4013020E-01;  1.1181840E+04;
  1.2677279E+00;  9.9999998E-03;  1.9096172E-01;8656;  9.6986163E-01;  0.0000000E+00; -8.4819384E-03;  9.9408936E+02;  1.5983790E-01; -4.8806807E+03;3;  7.5313332E+01;  0.0000000E+00;  3.5123302E+01;0;  2.1946326E-02;  1.5626972E+04;  0.0000000E+00; -4.1196138E-01;  4.0000000E+04;  0.0000000E+00;  3.9578660E+04; -1.7770873E-01;  0.0000000E+00;  1.9965506E-01;  1.2165393E+04;
  1.2693450E+00;  9.9999998E-03;  7.0431501E-02;8644;  8.4917611E-01;  0.0000000E+00; -6.0511986E-03;  9.9114172E+02;  1.5960638E-01; -7.3140811E+03;3;  1.0108176E+02;  0.0000000E+00;  1.8033381E+01;0;  1.0295250E-01;  1.5544611E+04;  0.0000000E+00; -1.0534041E-03;  4.0000000E+04;  0.0000000E+00;  3.9618180E+04;  1.6649877E-01;  0.0000000E+00; -6.3546263E-02;  1.7092102E+04;
  1.2680312E+00;  9.9999998E-03;  1.8092321E-01;8655;  9.5802391E-01;  0.0000000E+00; -8.7973187E-03;  9.9386670E+02;  1.5976888E-01; -5.0644844E+03;3;  7.7854767E+01;  0.0000000E+00;  3.4211533E+01;0;  1.4049575E-02;  1.5631490E+04;  0.0000000E+00; -2.1883531E-01;  4.0000000E+04;  0.0000000E+00;  3.9586160E+04; -1.4429502E-01;  0.0000000E+00;  1.5834460E-01;  1.3020547E+04;
  1.2693439E+00;  9.9999998E-03;  8.0455482E-02;8645;  8.5590720E-01;  0.0000000E+00; -6.7169978E-03;  9.9150476E+02;  1.5958449E-01; -7.0143174E+03;3;  1.0022712E+02;  0.0000000E+00;  2.0230923E+01;0;  9.1399282E-02;  1.5561854E+04;  0.0000000E+00;  2.3278091E-02;  4.0000000E+04;  0.0000000E+00;  3.9616434E+04;  1.4745043E-01;  0.0000000E+00; -5.6051146E-02;  1.6854365E+04;
  1.2693677E+00;  9.9999998E-03;  9.0465046E-02;8646;  8.6347175E-01;  0.0000000E+00; -7.3337206E-03;  9.9187457E+02;  1.5955503E-01; -6.7089839E+03;3;  9.9214058E+01;  0.0000000E+00;  2.2337322E+01;0;  7.8626350E-02;  1.5581408E+04;  0.0000000E+00;  5.6568272E-02;  4.0000000E+04;  0.0000000E+00;  3.9614195E+04;  1.2652256E-01;  0.0000000E+00; -4.7896203E-02;  1.6540102E+04;
  1.2684379E+00;  9.9999998E-03;  1.7087145E-01;8654;  9.4624603E-01;  0.0000000E+00; -9.1096079E-03;  9.9369092E+02;  1.5967511E-01; -5.2095215E+03;3;  8.0553185E+01;  0.0000000E+00;  3.3346252E+01;0;  8.3093718E-03;  1.5642195E+04;  0.0000000E+00; -7.7021725E-02;  4.0000000E+04;  0.0000000E+00;  3.9591227E+04; -1.1000850E-01;  0.0000000E+00;  1.1831787E-01;  1.3626127E+04;
  1.2694252E+00;  9.9999998E-03;  1.0047220E-01;8647;  8.7182122E-01;  0.0000000E+00; -7.9095867E-03;  9.9223950E+02;  1.5951855E-01; -6.4076753E+03;3;  9.8027748E+01;  0.0000000E+00;  2.4261963E+01;0;  6.5056682E-02;  1.5602893E+04;  0.0000000E+00;  9.6157797E-02;  4.0000000E+04;  0.0000000E+00;  3.9611297E+04;  1.0390621E-01;  0.0000000E+00; -3.8849529E-02;  1.6154902E+04;
  1.2695084E+00;  9.9999998E-03;  1.1048666E-01;8648;  8.8090652E-01;  0.0000000E+00; -8.4549058E-03;  9.9256769E+02;  1.5947686E-01; -6.1366763E+03;3;  9.6400528E+01;  0.0000000E+00;  2.5941687E+01;0;  5.1204897E-02;  1.5624883E+04;  0.0000000E+00;  1.3712238E-01;  4.0000000E+04;  0.0000000E+00;  3.9608121E+04;  7.9550080E-02;  0.0000000E+00; -2.8345184E-02;  1.5723145E+04;
  1.2688746E+00;  9.9999998E-03;  1.6081737E-01;8653;  9.3458897E-01;  0.0000000E+00; -9.3861576E-03;  9.9354254E+02;  1.5957280E-01; -5.3319048E+03;3;  8.3276253E+01;  0.0000000E+00;  3.2688053E+01;0;  6.2136501E-03;  1.5654954E+04;  0.0000000E+00;  4.0655565E-02;  4.0000000E+04;  0.0000000E+00;  3.9594637E+04; -7.5202644E-02;  0.0000000E+00;  8.1416294E-02;  1.4019869E+04;
  1.2696052E+00;  9.9999998E-03;  1.2052586E-01;8649;  8.9067262E-01;  0.0000000E+00; -8.9580473E-03;  9.9284888E+02;  1.5943338E-01; -5.9044565E+03;3;  9.4351692E+01;  0.0000000E+00;  2.7522448E+01;0;  3.7804708E-02;  1.5646125E+04;  0.0000000E+00;  1.7184857E-01;  4.0000000E+04;  0.0000000E+00;  3.9604594E+04;  5.3359345E-02;  0.0000000E+00; -1.5554639E-02;  1.5286281E+04;
  1.2692852E+00;  9.9999998E-03;  1.5075514E-01;8652;  9.2309928E-01;  0.0000000E+00; -9.5805442E-03;  9.9340826E+02;  1.5947792E-01; -5.4426753E+03;3;  8.5985878E+01;  0.0000000E+00;  3.1822426E+01;0;  8.6228922E-03;  1.5666473E+04;  0.0000000E+00;  1.3104415E-01;  4.0000000E+04;  0.0000000E+00;  3.9596949E+04; -4.0330328E-02;  0.0000000E+00;  4.8953220E-02;  1.4303294E+04;
  1.2696416E+00;  9.9999998E-03;  1.3059327E-01;8650;  9.0104270E-01;  0.0000000E+00; -9.3590477E-03;  9.9307861E+02;  1.5940829E-01; -5.7147764E+03;3;  9.1979828E+01;  0.0000000E+00;  2.9058741E+01;0;  2.5518337E-02;  1.5662283E+04;  0.0000000E+00;  1.9055004E-01;  4.0000000E+04;  0.0000000E+00;  3.9601613E+04;  2.4678919E-02;  0.0000000E+00;  8.3941768E-04;  1.4893277E+04;
  1.2695467E+00;  9.9999998E-03;  1.4067769E-01;8651;  9.1188580E-01;  0.0000000E+00; -9.5831463E-03;  9.9325958E+02;  1.5942134E-01; -5.5653413E+03;3;  8.9207565E+01;  0.0000000E+00;  3.0342821E+01;0;  1.5369732E-02;  1.5669538E+04;  0.0000000E+00;  1.8086699E-01;  4.0000000E+04;  0.0000000E+00;  3.9599164E+04; -6.7124707E-03;  0.0000000E+00;  2.2082202E-02;  1.4571906E+04;
  1.2838142E+00;  9.9999998E-03;  2.3103575E-01;8721;  1.0119790E+00;  0.0000000E+00; -2.5540954E-02;  9.9425214E+02;  1.5413485E-01; -4.7420112E+03;3;  6.6776726E+01;  0.0000000E+00;  4.3494686E+01;0; -1.5704095E-02;  1.6801449E+04;  0.0000000E+00; -4.3979654E+00;  4.0000000E+04;  0.0000000E+00;  3.9571523E+04; -3.1383395E-01;  0.0000000E+00;  2.9812986E-01;  1.4614909E+04;
  1.2835052E+00;  9.9999998E-03;  2.2099948E-01;8720;  1.0006758E+00;  0.0000000E+00; -2.6450172E-02;  9.9376465E+02;  1.5418465E-01; -5.1443062E+03;3;  6.7644798E+01;  0.0000000E+00;  4.1220665E+01;0;  8.9100003E-04;  1.6777932E+04;  0.0000000E+00; -2.3486674E+00;  4.0000000E+04;  0.0000000E+00;  3.9572645E+04; -2.6724273E-01;  0.0000000E+00;  2.6813373E-01;  1.2169041E+04;
  1.2833225E+00;  9.9999998E-03;  2.1099268E-01;8719;  9.8940587E-01;  0.0000000E+00; -2.6716180E-02;  9.9330237E+02;  1.5420729E-01; -5.5257705E+03;3;  6.9261574E+01;  0.0000000E+00;  3.9779102E+01;0;  1.1215866E-02;  1.6760154E+04;  0.0000000E+00; -1.0757239E+00;  4.0000000E+04;  0.0000000E+00;  3.9575605E+04; -2.1814905E-01;  0.0000000E+00;  2.2936492E-01;  1.1640947E+04;
  1.2833073E+00;  9.9999998E-03;  2.0099384E-01;8718;  9.7810405E-01;  0.0000000E+00; -2.6683616E-02;  9.9292499E+02;  1.5419565E-01; -5.8371074E+03;3;  7.1349007E+01;  0.0000000E+00;  3.8581459E+01;0;  1.8632755E-02;  1.6750379E+04;  0.0000000E+00; -3.2317409E-01;  4.0000000E+04;  0.0000000E+00;  3.9581758E+04; -1.6662425E-01;  0.0000000E+00;  1.8525700E-01;  1.2169212E+04;
  1.2851547E+00;  9.9999998E-03;  7.0409082E-02;8705;  8.4617519E-01;  0.0000000E+00; -1.4987867E-02;  9.8976404E+02;  1.5397188E-01; -8.4440098E+03;3;  9.9292915E+01;  0.0000000E+00;  1.9749733E+01;0;  3.2750082E-01;  1.6664504E+04;  0.0000000E+00; -1.5329754E-01;  4.0000000E+04;  0.0000000E+00;  3.9612984E+04;  4.9174911E-01;  0.0000000E+00; -1.6424830E-01;  1.6176740E+04;
  1.2851318E+00;  9.9999998E-03;  8.0447800E-02;8706;  8.5298216E-01;  0.0000000E+00; -1.6778767E-02;  9.9012006E+02;  1.5395221E-01; -8.1503301E+03;3;  9.8528664E+01;  0.0000000E+00;  2.2086693E+01;0;  3.0212361E-01;  1.6682363E+04;  0.0000000E+00; -1.6562977E-01;  4.0000000E+04;  0.0000000E+00;  3.9611086E+04;  4.5633435E-01;  0.0000000E+00; -1.5421076E-01;  1.5925171E+04;
  1.2834734E+00;  9.9999998E-03;  1.9098163E-01;8717;  9.6666819E-01;  0.0000000E+00; -2.6553890E-02;  9.9263538E+02;  1.5414560E-01; -6.0759897E+03;3;  7.3762856E+01;  0.0000000E+00;  3.7617836E+01;0;  2.6156217E-02;  1.6750117E+04;  0.0000000E+00;  8.6986102E-02;  4.0000000E+04;  0.0000000E+00;  3.9589086E+04; -1.1256035E-01;  0.0000000E+00;  1.3871656E-01;  1.3004526E+04;
  1.2851200E+00;  9.9999998E-03;  9.0472303E-02;8707;  8.6063629E-01;  0.0000000E+00; -1.8442037E-02;  9.9048199E+02;  1.5392786E-01; -7.8517754E+03;3;  9.7767784E+01;  0.0000000E+00;  2.4348545E+01;0;  2.7419364E-01;  1.6702182E+04;  0.0000000E+00; -1.5905713E-01;  4.0000000E+04;  0.0000000E+00;  3.9608598E+04;  4.1734371E-01;  0.0000000E+00; -1.4315008E-01;  1.5605220E+04;
  1.2837830E+00;  9.9999998E-03;  1.8095246E-01;8716;  9.5512098E-01;  0.0000000E+00; -2.6408006E-02;  9.9241040E+02;  1.5406865E-01; -6.2614561E+03;3;  7.6332771E+01;  0.0000000E+00;  3.6739910E+01;0;  3.6106795E-02;  1.6757822E+04;  0.0000000E+00;  2.7775881E-01;  4.0000000E+04;  0.0000000E+00;  3.9594707E+04; -5.6116015E-02;  0.0000000E+00;  9.2222810E-02;  1.3674883E+04;
  1.2851353E+00;  9.9999998E-03;  1.0048588E-01;8708;  8.6906731E-01;  0.0000000E+00; -2.0001290E-02;  9.9084430E+02;  1.5389487E-01; -7.5528633E+03;3;  9.6602341E+01;  0.0000000E+00;  2.6312761E+01;0;  2.4442945E-01;  1.6724014E+04;  0.0000000E+00; -1.2797752E-01;  4.0000000E+04;  0.0000000E+00;  3.9605891E+04;  3.7542626E-01;  0.0000000E+00; -1.3099681E-01;  1.5238556E+04;
  1.2851714E+00;  9.9999998E-03;  1.1050503E-01;8709;  8.7823820E-01;  0.0000000E+00; -2.1452609E-02;  9.9117432E+02;  1.5385658E-01; -7.2805918E+03;3;  9.5150146E+01;  0.0000000E+00;  2.8104671E+01;0;  2.1336216E-01;  1.6746389E+04;  0.0000000E+00; -6.9735944E-02;  4.0000000E+04;  0.0000000E+00;  3.9602992E+04;  3.3066851E-01;  0.0000000E+00; -1.1730636E-01;  1.4860616E+04;
  1.2841791E+00;  9.9999998E-03;  1.7090197E-01;8715;  9.4352227E-01;  0.0000000E+00; -2.6241066E-02;  9.9223804E+02;  1.5397722E-01; -6.4035078E+03;3;  7.9136375E+01;  0.0000000E+00;  3.5999229E+01;0;  5.0081752E-02;  1.6770562E+04;  0.0000000E+00;  3.3985248E-01;  4.0000000E+04;  0.0000000E+00;  3.9597629E+04;  2.2878903E-03;  0.0000000E+00;  4.7793861E-02;  1.4048244E+04;
  1.2852101E+00;  9.9999998E-03;  1.2053781E-01;8710;  8.8807499E-01;  0.0000000E+00; -2.2784844E-02;  9.9144910E+02;  1.5381694E-01; -7.0539009E+03;3;  9.3328842E+01;  0.0000000E+00;  2.9691626E+01;0;  1.8169773E-01;  1.6767533E+04;  0.0000000E+00;  1.3168239E-02;  4.0000000E+04;  0.0000000E+00;  3.9600469E+04;  2.8301248E-01;  0.0000000E+00; -1.0131475E-01;  1.4525771E+04;
  1.2845858E+00;  9.9999998E-03;  1.6082850E-01;8714;  9.3193543E-01;  0.0000000E+00; -2.5982689E-02;  9.9209973E+02;  1.5388621E-01; -6.5174712E+03;3;  8.1806999E+01;  0.0000000E+00;  3.5389706E+01;0;  6.8909220E-02;  1.6784127E+04;  0.0000000E+00;  3.3338159E-01;  4.0000000E+04;  0.0000000E+00;  3.9598453E+04;  6.1769571E-02;  0.0000000E+00;  7.1396483E-03;  1.4168771E+04;
  1.2852076E+00;  9.9999998E-03;  1.3058442E-01;8711;  8.9845705E-01;  0.0000000E+00; -2.3952121E-02;  9.9167499E+02;  1.5379025E-01; -6.8675972E+03;3;  9.0743271E+01;  0.0000000E+00;  3.1221750E+01;0;  1.5020570E-01;  1.6784105E+04;  0.0000000E+00;  1.1156010E-01;  4.0000000E+04;  0.0000000E+00;  3.9598969E+04;  2.3212795E-01;  0.0000000E+00; -8.1922255E-02;  1.4289866E+04;
  1.2849145E+00;  9.9999998E-03;  1.5074308E-01;8713;  9.2047799E-01;  0.0000000E+00; -2.5549587E-02;  9.9197192E+02;  1.5381865E-01; -6.6227573E+03;3;  8.4307526E+01;  0.0000000E+00;  3.4661602E+01;0;  9.2470288E-02;  1.6792801E+04;  0.0000000E+00;  2.8710902E-01;  4.0000000E+04;  0.0000000E+00;  3.9598289E+04;  1.2079498E-01;  0.0000000E+00; -2.8324690E-02;  1.4167622E+04;
  1.2851216E+00;  9.9999998E-03;  1.4065446E-01;8712;  9.0929371E-01;  0.0000000E+00; -2.4886629E-02;  9.9184052E+02;  1.5378679E-01; -6.7310410E+03;3;  8.7569473E+01;  0.0000000E+00;  3.2992714E+01;0;  1.2000465E-01;  1.6793168E+04;  0.0000000E+00;  2.0946813E-01;  4.0000000E+04;  0.0000000E+00;  3.9598230E+04;  1.7793871E-01;  0.0000000E+00; -5.7934057E-02;  1.4178941E+04;
  1.2994528E+00;  9.9999998E-03;  2.3104319E-01;8782;  1.0062479E+00;  0.0000000E+00; -4.4700950E-02;  9.9308130E+02;  1.4885475E-01; -5.7016987E+03;3;  6.5115295E+01;  0.0000000E+00;  4.4745743E+01;0; -2.8124452E-02;  1.7967131E+04;  0.0000000E+00; -5.5463533E+00;  4.0000000E+04;  0.0000000E+00;  3.9587973E+04; -2.8464481E-01;  0.0000000E+00;  2.5652036E-01;  1.6566109E+04;
  1.2991316E+00;  9.9999998E-03;  2.2099249E-01;8781;  9.9596870E-01;  0.0000000E+00; -4.5040332E-02;  9.9270160E+02;  1.4889880E-01; -6.0147451E+03;3;  6.5821083E+01;  0.0000000E+00;  4.3362930E+01;0;  4.5574456E-03;  1.7946033E+04;  0.0000000E+00; -2.6414294E+00;  4.0000000E+04;  0.0000000E+00;  3.9587832E+04; -2.1708570E-01;  0.0000000E+00;  2.2164315E-01;  1.3554023E+04;
  1.2988576E+00;  9.9999998E-03;  2.1097682E-01;8780;  9.8555464E-01;  0.0000000E+00; -4.4807613E-02;  9.9228772E+02;  1.4893286E-01; -6.3559790E+03;3;  6.7320961E+01;  0.0000000E+00;  4.1944267E+01;0;  3.2723933E-02;  1.7926475E+04;  0.0000000E+00; -9.2031705E-01;  4.0000000E+04;  0.0000000E+00;  3.9587395E+04; -1.4553846E-01;  0.0000000E+00;  1.7826240E-01;  1.2777330E+04;
  1.2987223E+00;  9.9999998E-03;  2.0097551E-01;8779;  9.7489339E-01;  0.0000000E+00; -4.4249501E-02;  9.9192767E+02;  1.4893986E-01; -6.6527485E+03;3;  6.9320549E+01;  0.0000000E+00;  4.0986305E+01;0;  6.0220681E-02;  1.7912871E+04;  0.0000000E+00;  2.6943175E-02;  4.0000000E+04;  0.0000000E+00;  3.9590098E+04; -6.9990389E-02;  0.0000000E+00;  1.3021107E-01;  1.3039095E+04;
  1.3003961E+00;  9.9999998E-03;  7.0361815E-02;8766;  8.4398758E-01;  0.0000000E+00; -2.3774421E-02;  9.8886548E+02;  1.4881831E-01; -9.1752168E+03;3;  9.7807915E+01;  0.0000000E+00;  2.1744534E+01;0;  6.7253572E-01;  1.7816783E+04;  0.0000000E+00; -2.2987866E-01;  4.0000000E+04;  0.0000000E+00;  3.9601957E+04;  9.2493129E-01;  0.0000000E+00; -2.5239557E-01;  1.4829954E+04;
  1.2987595E+00;  9.9999998E-03;  1.9097096E-01;8778;  9.6395397E-01;  0.0000000E+00; -4.3605626E-02;  9.9162427E+02;  1.4891663E-01; -6.9027632E+03;3;  7.2016205E+01;  0.0000000E+00;  3.9872841E+01;0;  9.0053901E-02;  1.7907676E+04;  0.0000000E+00;  4.9125037E-01;  4.0000000E+04;  0.0000000E+00;  3.9593949E+04;  9.6503394E-03;  0.0000000E+00;  8.0403559E-02;  1.3559214E+04;
  1.3003675E+00;  9.9999998E-03;  8.0402493E-02;8767;  8.5079551E-01;  0.0000000E+00; -2.6659258E-02;  9.8918768E+02;  1.4879850E-01; -8.9097637E+03;3;  9.6736923E+01;  0.0000000E+00;  2.4179070E+01;0;  6.3073993E-01;  1.7834363E+04;  0.0000000E+00; -2.7658251E-01;  4.0000000E+04;  0.0000000E+00;  3.9599793E+04;  8.7096018E-01;  0.0000000E+00; -2.4022026E-01;  1.4554984E+04;
  1.3003315E+00;  9.9999998E-03;  9.0439916E-02;8768;  8.5846514E-01;  0.0000000E+00; -2.9339401E-02;  9.8952454E+02;  1.4877769E-01; -8.6321826E+03;3;  9.6178360E+01;  0.0000000E+00;  2.6696470E+01;0;  5.8431035E-01;  1.7853543E+04;  0.0000000E+00; -3.0391034E-01;  4.0000000E+04;  0.0000000E+00;  3.9597312E+04;  8.1096333E-01;  0.0000000E+00; -2.2665296E-01;  1.4235838E+04;
  1.2989604E+00;  9.9999998E-03;  1.8095183E-01;8777;  9.5275581E-01;  0.0000000E+00; -4.2968526E-02;  9.9138721E+02;  1.4886400E-01; -7.0980615E+03;3;  7.4905029E+01;  0.0000000E+00;  3.8992317E+01;0;  1.2437838E-01;  1.7911145E+04;  0.0000000E+00;  6.4720345E-01;  4.0000000E+04;  0.0000000E+00;  3.9597043E+04;  9.3262471E-02;  0.0000000E+00;  3.1115908E-02;  1.3935104E+04;
  1.3002858E+00;  9.9999998E-03;  1.0047355E-01;8769;  8.6692435E-01;  0.0000000E+00; -3.1812731E-02;  9.8985864E+02;  1.4875470E-01; -8.3569141E+03;3;  9.5206253E+01;  0.0000000E+00;  2.8663414E+01;0;  5.3381383E-01;  1.7872994E+04;  0.0000000E+00; -2.9886228E-01;  4.0000000E+04;  0.0000000E+00;  3.9594629E+04;  7.4544007E-01;  0.0000000E+00; -2.1162626E-01;  1.3905864E+04;
  1.3002321E+00;  9.9999998E-03;  1.1050438E-01;8770;  8.7614143E-01;  0.0000000E+00; -3.4060139E-02;  9.9016534E+02;  1.4873253E-01; -8.1041948E+03;3;  9.4084137E+01;  0.0000000E+00;  3.0600693E+01;0;  4.8016214E-01;  1.7891648E+04;  0.0000000E+00; -2.5097644E-01;  4.0000000E+04;  0.0000000E+00;  3.9592500E+04;  6.7506313E-01;  0.0000000E+00; -1.9490097E-01;  1.3610608E+04;
  1.2992700E+00;  9.9999998E-03;  1.7090949E-01;8776;  9.4134307E-01;  0.0000000E+00; -4.2301662E-02;  9.9119824E+02;  1.4879562E-01; -7.2536011E+03;3;  7.8141716E+01;  0.0000000E+00;  3.8429436E+01;0;  1.6434640E-01;  1.7920432E+04;  0.0000000E+00;  6.1432838E-01;  4.0000000E+04;  0.0000000E+00;  3.9597746E+04;  1.8010408E-01;  0.0000000E+00; -1.5757686E-02;  1.4028833E+04;
  1.3001574E+00;  9.9999998E-03;  1.2053905E-01;8771;  8.8602626E-01;  0.0000000E+00; -3.6064535E-02;  9.9042773E+02;  1.4871395E-01; -7.8880293E+03;3;  9.2368362E+01;  0.0000000E+00;  3.2352364E+01;0;  4.2426503E-01;  1.7907738E+04;  0.0000000E+00; -1.5598628E-01;  4.0000000E+04;  0.0000000E+00;  3.9591082E+04;  6.0014284E-01;  0.0000000E+00; -1.7587781E-01;  1.3403854E+04;
  1.3000585E+00;  9.9999998E-03;  1.3058755E-01;8772;  8.9646262E-01;  0.0000000E+00; -3.7831079E-02;  9.9063507E+02;  1.4870222E-01; -7.7172114E+03;3;  8.9705750E+01;  0.0000000E+00;  3.4046852E+01;0;  3.6759433E-01;  1.7919969E+04;  0.0000000E+00; -1.8616075E-02;  4.0000000E+04;  0.0000000E+00;  3.9590910E+04;  5.2129662E-01;  0.0000000E+00; -1.5370229E-01;  1.3332282E+04;
  1.2995834E+00;  9.9999998E-03;  1.6083482E-01;8775;  9.2981863E-01;  0.0000000E+00; -4.1515380E-02;  9.9105011E+02;  1.4873426E-01; -7.3754834E+03;3;  8.0927177E+01;  0.0000000E+00;  3.8077026E+01;0;  2.0975327E-01;  1.7929578E+04;  0.0000000E+00;  4.8480466E-01;  4.0000000E+04;  0.0000000E+00;  3.9596391E+04;  2.6829302E-01;  0.0000000E+00; -5.8539756E-02;  1.3880164E+04;
  1.2999439E+00;  9.9999998E-03;  1.4065242E-01;8773;  9.0723401E-01;  0.0000000E+00; -3.9280225E-02;  9.9079736E+02;  1.4869700E-01; -7.5835825E+03;3;  8.5600098E+01;  0.0000000E+00;  3.6700302E+01;0;  3.1208521E-01;  1.7928367E+04;  0.0000000E+00;  1.4636652E-01;  4.0000000E+04;  0.0000000E+00;  3.9591914E+04;  4.3947208E-01;  0.0000000E+00; -1.2738685E-01;  1.3415562E+04;
  1.2997994E+00;  9.9999998E-03;  1.5073586E-01;8774;  9.1839427E-01;  0.0000000E+00; -4.0507317E-02;  9.9092590E+02;  1.4870305E-01; -7.4777212E+03;3;  8.3328522E+01;  0.0000000E+00;  3.7594040E+01;0;  2.5923830E-01;  1.7932111E+04;  0.0000000E+00;  3.1926981E-01;  4.0000000E+04;  0.0000000E+00;  3.9594023E+04;  3.5510755E-01;  0.0000000E+00; -9.5869236E-02;  1.3626491E+04;
  1.3144587E+00;  9.9999998E-03;  2.3106875E-01;8843;  1.0008739E+00;  0.0000000E+00; -6.1993670E-02;  9.9217566E+02;  1.4409162E-01; -6.4394824E+03;3;  6.3111912E+01;  0.0000000E+00;  4.5457588E+01;0; -8.5399151E-03;  1.9136480E+04;  0.0000000E+00; -6.6180077E+00;  4.0000000E+04;  0.0000000E+00;  3.9598703E+04; -2.1407786E-01;  0.0000000E+00;  2.0553795E-01;  1.7540219E+04;
  1.3141226E+00;  9.9999998E-03;  2.2099873E-01;8842;  9.9174011E-01;  0.0000000E+00; -6.2023729E-02;  9.9201385E+02;  1.4413658E-01; -6.5728345E+03;3;  6.3703423E+01;  0.0000000E+00;  4.4273087E+01;0;  4.7588430E-02;  1.9120027E+04;  0.0000000E+00; -2.8701959E+00;  4.0000000E+04;  0.0000000E+00;  3.9598387E+04; -1.2201121E-01;  0.0000000E+00;  1.6959964E-01;  1.4499981E+04;
  1.3137705E+00;  9.9999998E-03;  2.1096121E-01;8841;  9.8222190E-01;  0.0000000E+00; -6.1363623E-02;  9.9173224E+02;  1.4418004E-01; -6.8048608E+03;3;  6.5407181E+01;  0.0000000E+00;  4.3079269E+01;0;  1.0081571E-01;  1.9101066E+04;  0.0000000E+00; -7.9158491E-01;  4.0000000E+04;  0.0000000E+00;  3.9595137E+04; -2.4448557E-02;  0.0000000E+00;  1.2526427E-01;  1.3731836E+04;
  1.3150663E+00;  9.9999998E-03;  7.0328005E-02;8827;  8.4268039E-01;  0.0000000E+00; -3.2312088E-02;  9.8850549E+02;  1.4415058E-01; -9.4594688E+03;3;  9.5642021E+01;  0.0000000E+00;  2.2548431E+01;0;  1.1152889E+00;  1.8987160E+04;  0.0000000E+00; -2.1675514E-01;  4.0000000E+04;  0.0000000E+00;  3.9586406E+04;  1.4407401E+00;  0.0000000E+00; -3.2545125E-01;  1.3204142E+04;
  1.3135278E+00;  9.9999998E-03;  2.0095506E-01;8840;  9.7221583E-01;  0.0000000E+00; -6.0377456E-02;  9.9139685E+02;  1.4420450E-01; -7.0810776E+03;3;  6.7514542E+01;  0.0000000E+00;  4.2390152E+01;0;  1.5492047E-01;  1.9084967E+04;  0.0000000E+00;  2.5277868E-01;  4.0000000E+04;  0.0000000E+00;  3.9593066E+04;  7.8651793E-02;  0.0000000E+00;  7.6268680E-02;  1.3611834E+04;
  1.3150152E+00;  9.9999998E-03;  8.0364816E-02;8828;  8.4942502E-01;  0.0000000E+00; -3.6245137E-02;  9.8877338E+02;  1.4413676E-01; -9.2390264E+03;3;  9.5274582E+01;  0.0000000E+00;  2.5609177E+01;0;  1.0557077E+00;  1.9002082E+04;  0.0000000E+00; -2.8965166E-01;  4.0000000E+04;  0.0000000E+00;  3.9584168E+04;  1.3674579E+00;  0.0000000E+00; -3.1175014E-01;  1.2926472E+04;
  1.3134533E+00;  9.9999998E-03;  1.9095537E-01;8839;  9.6173584E-01;  0.0000000E+00; -5.9336971E-02;  9.9109601E+02;  1.4420123E-01; -7.3287344E+03;3;  7.0265564E+01;  0.0000000E+00;  4.2099945E+01;0;  2.1307558E-01;  1.9075262E+04;  0.0000000E+00;  7.1528083E-01;  4.0000000E+04;  0.0000000E+00;  3.9593461E+04;  1.8753116E-01;  0.0000000E+00;  2.5544424E-02;  1.3724167E+04;
  1.3149438E+00;  9.9999998E-03;  9.0404645E-02;8829;  8.5701299E-01;  0.0000000E+00; -3.9907455E-02;  9.8904694E+02;  1.4412309E-01; -9.0139902E+03;3;  9.4594658E+01;  0.0000000E+00;  2.8208530E+01;0;  9.8913455E-01;  1.9017822E+04;  0.0000000E+00; -3.5222313E-01;  4.0000000E+04;  0.0000000E+00;  3.9581637E+04;  1.2855241E+00;  0.0000000E+00; -2.9638955E-01;  1.2639517E+04;
  1.3148479E+00;  9.9999998E-03;  1.0044675E-01;8830;  8.6540490E-01;  0.0000000E+00; -4.3261133E-02;  9.8932916E+02;  1.4411080E-01; -8.7818096E+03;3;  9.3751892E+01;  0.0000000E+00;  3.0678753E+01;0;  9.1617155E-01;  1.9033336E+04;  0.0000000E+00; -3.8667434E-01;  4.0000000E+04;  0.0000000E+00;  3.9579668E+04;  1.1955203E+00;  0.0000000E+00; -2.7934870E-01;  1.2382709E+04;
  1.3135456E+00;  9.9999998E-03;  1.8094423E-01;8838;  9.5082295E-01;  0.0000000E+00; -5.8364879E-02;  9.9083643E+02;  1.4417429E-01; -7.5423213E+03;3;  7.3646431E+01;  0.0000000E+00;  4.1541855E+01;0;  2.7726552E-01;  1.9073135E+04;  0.0000000E+00;  8.2528150E-01;  4.0000000E+04;  0.0000000E+00;  3.9593957E+04;  3.0186507E-01;  0.0000000E+00; -2.4599560E-02;  1.3782520E+04;
  1.3147254E+00;  9.9999998E-03;  1.1048960E-01;8831;  8.7455642E-01;  0.0000000E+00; -4.6272609E-02;  9.8958636E+02;  1.4409938E-01; -8.5702500E+03;3;  9.2787102E+01;  0.0000000E+00;  3.2868019E+01;0;  8.3773458E-01;  1.9047295E+04;  0.0000000E+00; -3.7526864E-01;  4.0000000E+04;  0.0000000E+00;  3.9578371E+04;  1.0982097E+00;  0.0000000E+00; -2.6047516E-01;  1.2201948E+04;
  1.3145775E+00;  9.9999998E-03;  1.2053457E-01;8832;  8.8439494E-01;  0.0000000E+00; -4.8935648E-02;  9.8980872E+02;  1.4409386E-01; -8.3873535E+03;3;  9.1491898E+01;  0.0000000E+00;  3.4860001E+01;0;  7.5518477E-01;  1.9058582E+04;  0.0000000E+00; -3.0501416E-01;  4.0000000E+04;  0.0000000E+00;  3.9578312E+04;  9.9454212E-01;  0.0000000E+00; -2.3935735E-01;  1.2142021E+04;
  1.3137282E+00;  9.9999998E-03;  1.7090999E-01;8837;  9.3955612E-01;  0.0000000E+00; -5.7340484E-02;  9.9062256E+02;  1.4413819E-01; -7.7182085E+03;3;  7.7626450E+01;  0.0000000E+00;  4.0555904E+01;0;  3.4767473E-01;  1.9075232E+04;  0.0000000E+00;  7.1479660E-01;  4.0000000E+04;  0.0000000E+00;  3.9592719E+04;  4.1987282E-01;  0.0000000E+00; -7.2198093E-02;  1.3636290E+04;
  1.3144035E+00;  9.9999998E-03;  1.3059050E-01;8833;  8.9478338E-01;  0.0000000E+00; -5.1219326E-02;  9.8999872E+02;  1.4409316E-01; -8.2311582E+03;3;  8.8731056E+01;  0.0000000E+00;  3.7172012E+01;0;  6.7015052E-01;  1.9066123E+04;  0.0000000E+00; -1.7186572E-01;  4.0000000E+04;  0.0000000E+00;  3.9579590E+04;  8.8537258E-01;  0.0000000E+00; -2.1522209E-01;  1.2236649E+04;
  1.3142234E+00;  9.9999998E-03;  1.4066629E-01;8834;  9.0548742E-01;  0.0000000E+00; -5.3075530E-02;  9.9014868E+02;  1.4409788E-01; -8.1078789E+03;3;  8.4937439E+01;  0.0000000E+00;  3.9573837E+01;0;  5.8504981E-01;  1.9070803E+04;  0.0000000E+00;  1.6008323E-02;  4.0000000E+04;  0.0000000E+00;  3.9582211E+04;  7.7214688E-01;  0.0000000E+00; -1.8709706E-01;  1.2492209E+04;
  1.3139100E+00;  9.9999998E-03;  1.6084406E-01;8836;  9.2807645E-01;  0.0000000E+00; -5.6116078E-02;  9.9044330E+02;  1.4411293E-01; -7.8656372E+03;3;  8.1055069E+01;  0.0000000E+00;  4.0329834E+01;0;  4.2308176E-01;  1.9076215E+04;  0.0000000E+00;  4.9198204E-01;  4.0000000E+04;  0.0000000E+00;  3.9589855E+04;  5.3877419E-01;  0.0000000E+00; -1.1569244E-01;  1.3296195E+04;
  1.3140621E+00;  9.9999998E-03;  1.5075675E-01;8835;  9.1663772E-01;  0.0000000E+00; -5.4694451E-02;  9.9029242E+02;  1.4410260E-01; -7.9896821E+03;3;  8.3214722E+01;  0.0000000E+00;  4.0212543E+01;0;  5.0230700E-01;  1.9074098E+04;  0.0000000E+00;  2.4340975E-01;  4.0000000E+04;  0.0000000E+00;  3.9585812E+04;  6.5637201E-01;  0.0000000E+00; -1.5406503E-01;  1.2872887E+04;
  1.3292277E+00;  9.9999998E-03;  7.0315495E-02;8888;  8.4364623E-01;  0.0000000E+00; -4.0053800E-02;  9.8865240E+02;  1.3994814E-01; -9.3239600E+03;3;  7.3595192E+01;  0.0000000E+00;  2.0277948E+01;0;  1.6125309E+00;  2.0163184E+04;  0.0000000E+00; -1.3081005E-01;  4.0000000E+04;  0.0000000E+00;  3.9567262E+04;  1.9944144E+00;  0.0000000E+00; -3.8188344E-01;  1.1450818E+04;
  1.3291496E+00;  9.9999998E-03;  8.0352440E-02;8889;  8.4979033E-01;  0.0000000E+00; -4.5035798E-02;  9.8883319E+02;  1.3994141E-01; -9.1755059E+03;3;  7.9324265E+01;  0.0000000E+00;  2.3400991E+01;0;  1.5368229E+00;  2.0173672E+04;  0.0000000E+00; -2.1855572E-01;  4.0000000E+04;  0.0000000E+00;  3.9565277E+04;  1.9044000E+00;  0.0000000E+00; -3.6757711E-01;  1.1214610E+04;
  1.3290466E+00;  9.9999998E-03;  9.0390719E-02;8890;  8.5681027E-01;  0.0000000E+00; -4.9667574E-02;  9.8903076E+02;  1.3993378E-01; -9.0132637E+03;3;  8.4091469E+01;  0.0000000E+00;  2.6933800E+01;0;  1.4520473E+00;  2.0184641E+04;  0.0000000E+00; -3.1151995E-01;  4.0000000E+04;  0.0000000E+00;  3.9563461E+04;  1.8035052E+00;  0.0000000E+00; -3.5145783E-01;  1.1003009E+04;
  1.3289112E+00;  9.9999998E-03;  1.0043667E-01;8891;  8.6472756E-01;  0.0000000E+00; -5.3897116E-02;  9.8922418E+02;  1.3992776E-01; -8.8544824E+03;3;  8.7291725E+01;  0.0000000E+00;  3.0338184E+01;0;  1.3585770E+00;  2.0195031E+04;  0.0000000E+00; -3.8994396E-01;  4.0000000E+04;  0.0000000E+00;  3.9562328E+04;  1.6920716E+00;  0.0000000E+00; -3.3349454E-01;  1.0856938E+04;
  1.3287474E+00;  9.9999998E-03;  1.1048899E-01;8892;  8.7348896E-01;  0.0000000E+00; -5.7704557E-02;  9.8941693E+02;  1.3992396E-01; -8.6962627E+03;3;  8.8737411E+01;  0.0000000E+00;  3.3183117E+01;0;  1.2574559E+00;  2.0204012E+04;  0.0000000E+00; -4.3059918E-01;  4.0000000E+04;  0.0000000E+00;  3.9561969E+04;  1.5710535E+00;  0.0000000E+00; -3.1359759E-01;  1.0815308E+04;
  1.3285583E+00;  9.9999998E-03;  1.2054393E-01;8893;  8.8302881E-01;  0.0000000E+00; -6.1023928E-02;  9.8958435E+02;  1.3992317E-01; -8.5589287E+03;3;  8.9077621E+01;  0.0000000E+00;  3.6094566E+01;0;  1.1500336E+00;  2.0210818E+04;  0.0000000E+00; -4.1163501E-01;  4.0000000E+04;  0.0000000E+00;  3.9563184E+04;  1.4414827E+00;  0.0000000E+00; -2.9144904E-01;  1.0910073E+04;
  1.3283508E+00;  9.9999998E-03;  1.3060880E-01;8894;  8.9317399E-01;  0.0000000E+00; -6.3824788E-02;  9.8974261E+02;  1.3992754E-01; -8.4290508E+03;3;  8.7355278E+01;  0.0000000E+00;  3.8858219E+01;0;  1.0380635E+00;  2.0214979E+04;  0.0000000E+00; -3.1838444E-01;  4.0000000E+04;  0.0000000E+00;  3.9565828E+04;  1.3044422E+00;  0.0000000E+00; -2.6637870E-01;  1.1157128E+04;
  1.3281420E+00;  9.9999998E-03;  1.4069268E-01;8895;  9.0382385E-01;  0.0000000E+00; -6.6172160E-02;  9.8989069E+02;  1.3993433E-01; -8.3075928E+03;3;  8.5320885E+01;  0.0000000E+00;  4.0633324E+01;0;  9.2390180E-01;  2.0217570E+04;  0.0000000E+00; -1.4922711E-01;  4.0000000E+04;  0.0000000E+00;  3.9569625E+04;  1.1613342E+00;  0.0000000E+00; -2.3743239E-01;  1.1544978E+04;
  1.3279556E+00;  9.9999998E-03;  1.5078729E-01;8896;  9.1493440E-01;  0.0000000E+00; -6.8173684E-02;  9.9005652E+02;  1.3994059E-01; -8.1715088E+03;3;  8.4097420E+01;  0.0000000E+00;  4.1347126E+01;0;  8.1013906E-01;  2.0219986E+04;  0.0000000E+00;  8.9309484E-02;  4.0000000E+04;  0.0000000E+00;  3.9574551E+04;  1.0138950E+00;  0.0000000E+00; -2.0375597E-01;  1.2028902E+04;
  1.3276864E+00;  9.9999998E-03;  1.9096142E-01;8900;  9.5985943E-01;  0.0000000E+00; -7.3622085E-02;  9.9098871E+02;  1.3995802E-01; -7.4056567E+03;3;  7.0515251E+01;  0.0000000E+00;  4.2553566E+01;0;  3.9080617E-01;  2.0245404E+04;  0.0000000E+00;  7.6944679E-01;  4.0000000E+04;  0.0000000E+00;  3.9587043E+04;  4.1719639E-01;  0.0000000E+00; -2.6390227E-02;  1.3449926E+04;
  1.3278681E+00;  9.9999998E-03;  2.0096977E-01;8901;  9.7010416E-01;  0.0000000E+00; -7.4972853E-02;  9.9125189E+02;  1.3994171E-01; -7.1892339E+03;3;  6.6480186E+01;  0.0000000E+00;  4.2247379E+01;0;  2.9973248E-01;  2.0258641E+04;  0.0000000E+00;  3.8626853E-01;  4.0000000E+04;  0.0000000E+00;  3.9589102E+04;  2.7710065E-01;  0.0000000E+00;  2.2631833E-02;  1.3663527E+04;
  1.3281753E+00;  9.9999998E-03;  2.1099494E-01;8902;  9.7949207E-01;  0.0000000E+00; -7.6249890E-02;  9.9145526E+02;  1.3991052E-01; -7.0218438E+03;3;  6.3287502E+01;  0.0000000E+00;  4.3015320E+01;0;  2.1313199E-01;  2.0273094E+04;  0.0000000E+00; -6.2685513E-01;  4.0000000E+04;  0.0000000E+00;  3.9592996E+04;  1.4376646E-01;  0.0000000E+00;  6.9365539E-02;  1.3939937E+04;
  1.3285357E+00;  9.9999998E-03;  2.2105207E-01;8903;  9.8805255E-01;  0.0000000E+00; -7.7109501E-02;  9.9151074E+02;  1.3987467E-01; -6.9759380E+03;3;  6.1547363E+01;  0.0000000E+00;  4.4244724E+01;0;  1.2813708E-01;  2.0283908E+04;  0.0000000E+00; -2.8913918E+00;  4.0000000E+04;  0.0000000E+00;  3.9596355E+04;  1.7286353E-02;  0.0000000E+00;  1.1085072E-01;  1.4338779E+04;
  1.3287833E+00;  9.9999998E-03;  2.3112616E-01;8904;  9.9596977E-01;  0.0000000E+00; -7.7209674E-02;  9.9140625E+02;  1.3985381E-01; -7.0615874E+03;3;  6.0742825E+01;  0.0000000E+00;  4.5235592E+01;0;  4.1018248E-02;  2.0285484E+04;  0.0000000E+00; -7.1140113E+00;  4.0000000E+04;  0.0000000E+00;  3.9597867E+04; -1.0245086E-01;  0.0000000E+00;  1.4346911E-01;  1.6770197E+04;
  1.3278066E+00;  9.9999998E-03;  1.6086796E-01;8897;  9.2637831E-01;  0.0000000E+00; -6.9874875E-02;  9.9025055E+02;  1.3994670E-01; -8.0122129E+03;3;  8.2312119E+01;  0.0000000E+00;  4.1902687E+01;0;  6.9877219E-01;  2.0223756E+04;  0.0000000E+00;  3.7461486E-01;  4.0000000E+04;  0.0000000E+00;  3.9579309E+04;  8.6389601E-01;  0.0000000E+00; -1.6512384E-01;  1.2531636E+04;
  1.3276386E+00;  9.9999998E-03;  1.8095069E-01;8899;  9.4898194E-01;  0.0000000E+00; -7.2413832E-02;  9.9072528E+02;  1.3995986E-01; -7.6222109E+03;3;  7.4114914E+01;  0.0000000E+00;  4.3680603E+01;0;  4.8787016E-01;  2.0235463E+04;  0.0000000E+00;  8.1279027E-01;  4.0000000E+04;  0.0000000E+00;  3.9585621E+04;  5.6310666E-01;  0.0000000E+00; -7.5236514E-02;  1.3254487E+04;
  1.3276975E+00;  9.9999998E-03;  1.7092247E-01;8898;  9.3779713E-01;  0.0000000E+00; -7.1290329E-02;  9.9047589E+02;  1.3995253E-01; -7.8271079E+03;3;  7.7433945E+01;  0.0000000E+00;  4.3197056E+01;0;  5.9097862E-01;  2.0228984E+04;  0.0000000E+00;  6.4698511E-01;  4.0000000E+04;  0.0000000E+00;  3.9583285E+04;  7.1295327E-01;  0.0000000E+00; -1.2197466E-01;  1.2959782E+04;
  1.3412836E+00;  9.9999998E-03;  1.7095570E-01;8958;  9.3553525E-01;  0.0000000E+00; -8.3802111E-02;  9.9069489E+02;  1.3620719E-01; -7.6334077E+03;3;  7.8604591E+01;  0.0000000E+00;  4.3547462E+01;0;  8.7790936E-01;  2.1370854E+04;  0.0000000E+00;  4.6539363E-01;  4.0000000E+04;  0.0000000E+00;  3.9569512E+04;  1.0431671E+00;  0.0000000E+00; -1.6525774E-01;  1.2071841E+04;
  1.3412670E+00;  9.9999998E-03;  1.8097843E-01;8959;  9.4670200E-01;  0.0000000E+00; -8.5028619E-02;  9.9096259E+02;  1.3620317E-01; -7.4138320E+03;3;  7.6798538E+01;  0.0000000E+00;  4.3877712E+01;0;  7.4131584E-01;  2.1381219E+04;  0.0000000E+00;  6.8864602E-01;  4.0000000E+04;  0.0000000E+00;  3.9572523E+04;  8.6231536E-01;  0.0000000E+00; -1.2099952E-01;  1.2433317E+04;
  1.3413833E+00;  9.9999998E-03;  1.6091248E-01;8957;  9.2436624E-01;  0.0000000E+00; -8.2270809E-02;  9.9043622E+02;  1.3620466E-01; -7.8455039E+03;3;  8.0754913E+01;  0.0000000E+00;  4.0878555E+01;0;  1.0178056E+00;  2.1363318E+04;  0.0000000E+00;  1.7691804E-01;  4.0000000E+04;  0.0000000E+00;  3.9565637E+04;  1.2245907E+00;  0.0000000E+00; -2.0678502E-01;  1.1649518E+04;
  1.3415411E+00;  9.9999998E-03;  1.5084009E-01;8956;  9.1335183E-01;  0.0000000E+00; -8.0225326E-02;  9.9019525E+02;  1.3619699E-01; -8.0429541E+03;3;  8.0203911E+01;  0.0000000E+00;  3.8188473E+01;0;  1.1592041E+00;  2.1358779E+04;  0.0000000E+00; -1.0295554E-01;  4.0000000E+04;  0.0000000E+00;  3.9560496E+04;  1.4037068E+00;  0.0000000E+00; -2.4450266E-01;  1.1157570E+04;
  1.3413658E+00;  9.9999998E-03;  1.9099435E-01;8960;  9.5781952E-01;  0.0000000E+00; -8.6176082E-02;  9.9121234E+02;  1.3618995E-01; -7.2088027E+03;3;  7.4690933E+01;  0.0000000E+00;  4.2840862E+01;0;  6.0962117E-01;  2.1394166E+04;  0.0000000E+00;  7.9216599E-01;  4.0000000E+04;  0.0000000E+00;  3.9575074E+04;  6.8508685E-01;  0.0000000E+00; -7.5465709E-02;  1.2825750E+04;
  1.3417386E+00;  9.9999998E-03;  1.4074962E-01;8955;  9.0291041E-01;  0.0000000E+00; -7.7617779E-02;  9.9000348E+02;  1.3618934E-01; -8.2000596E+03;3;  7.4868935E+01;  0.0000000E+00;  3.5107704E+01;0;  1.3001369E+00;  2.1356471E+04;  0.0000000E+00; -3.1203115E-01;  4.0000000E+04;  0.0000000E+00;  3.9555184E+04;  1.5778861E+00;  0.0000000E+00; -2.7774921E-01;  1.0646159E+04;
  1.3419557E+00;  9.9999998E-03;  1.3066164E-01;8954;  8.9365637E-01;  0.0000000E+00; -7.4430652E-02;  9.8984454E+02;  1.3618168E-01; -8.3301436E+03;3;  5.9062336E+01;  0.0000000E+00;  3.0263266E+01;0;  1.4382617E+00;  2.1355037E+04;  0.0000000E+00; -4.3141517E-01;  4.0000000E+04;  0.0000000E+00;  3.9550266E+04;  1.7448021E+00;  0.0000000E+00; -3.0654040E-01;  1.0179909E+04;
  1.3415934E+00;  9.9999998E-03;  2.0101434E-01;8961;  9.6810347E-01;  0.0000000E+00; -8.7354690E-02;  9.9138385E+02;  1.3616525E-01; -7.0678940E+03;3;  6.7321320E+01;  0.0000000E+00;  4.2351059E+01;0;  4.8343810E-01;  2.1407162E+04;  0.0000000E+00;  6.7619878E-01;  4.0000000E+04;  0.0000000E+00;  3.9578555E+04;  5.1406652E-01;  0.0000000E+00; -3.0628404E-02;  1.3374391E+04;
  1.3421779E+00;  9.9999998E-03;  1.2058593E-01;8953;  8.8651544E-01;  0.0000000E+00; -7.0542164E-02;  9.8972333E+02;  1.3617706E-01; -8.4293115E+03;3;  2.7185713E+01;  0.0000000E+00;  2.3893032E+01;0;  1.5712637E+00;  2.1353518E+04;  0.0000000E+00; -4.6474349E-01;  4.0000000E+04;  0.0000000E+00;  3.9546719E+04;  1.9028281E+00;  0.0000000E+00; -3.3156443E-01;  9.8101914E+03;
  1.3423921E+00;  9.9999998E-03;  1.1051327E-01;8952;  8.8236868E-01;  0.0000000E+00; -6.5958656E-02;  9.8961230E+02;  1.3617399E-01; -8.5201240E+03;3; -7.8475657E+00;  0.0000000E+00;  1.8351780E+01;0;  1.6971672E+00;  2.1351291E+04;  0.0000000E+00; -4.2297694E-01;  4.0000000E+04;  0.0000000E+00;  3.9544383E+04;  2.0508754E+00;  0.0000000E+00; -3.5370824E-01;  9.5671914E+03;
  1.3419187E+00;  9.9999998E-03;  2.1105644E-01;8962;  9.7712308E-01;  0.0000000E+00; -8.8585779E-02;  9.9140015E+02;  1.3613442E-01; -7.0542095E+03;3;  6.2392471E+01;  0.0000000E+00;  4.1091690E+01;0;  3.6147296E-01;  2.1415918E+04;  0.0000000E+00; -1.2064565E-02;  4.0000000E+04;  0.0000000E+00;  3.9582930E+04;  3.5053024E-01;  0.0000000E+00;  1.0942734E-02;  1.3887505E+04;
  1.3425814E+00;  9.9999998E-03;  1.0045233E-01;8951;  8.8057911E-01;  0.0000000E+00; -6.0861617E-02;  9.8950195E+02;  1.3617338E-01; -8.6103750E+03;3; -3.2349060E+01;  0.0000000E+00;  1.5803847E+01;0;  1.8141333E+00;  2.1347568E+04;  0.0000000E+00; -3.3002040E-01;  4.0000000E+04;  0.0000000E+00;  3.9543316E+04;  2.1876459E+00;  0.0000000E+00; -3.7351266E-01;  9.4588672E+03;
  1.3427337E+00;  9.9999998E-03;  9.0404123E-02;8950;  8.7986416E-01;  0.0000000E+00; -5.5508494E-02;  9.8939435E+02;  1.3617529E-01; -8.6984180E+03;3; -4.5962822E+01;  0.0000000E+00;  1.3639174E+01;0;  1.9209899E+00;  2.1342395E+04;  0.0000000E+00; -2.1430615E-01;  4.0000000E+04;  0.0000000E+00;  3.9543285E+04;  2.3122306E+00;  0.0000000E+00; -3.9124075E-01;  9.4695225E+03;
  1.3428556E+00;  9.9999998E-03;  8.0359556E-02;8949;  8.7928563E-01;  0.0000000E+00; -4.9925707E-02;  9.8929773E+02;  1.3617826E-01; -8.7775029E+03;3; -5.5147133E+01;  0.0000000E+00;  1.1898297E+01;0;  2.0174975E+00;  2.1336766E+04;  0.0000000E+00; -1.0163577E-01;  4.0000000E+04;  0.0000000E+00;  3.9544254E+04;  2.4245324E+00;  0.0000000E+00; -4.0703487E-01;  9.5652549E+03;
  1.3422325E+00;  9.9999998E-03;  2.2112180E-01;8963;  9.8490274E-01;  0.0000000E+00; -8.9659251E-02;  9.9118726E+02;  1.3611083E-01; -7.2284678E+03;3;  6.0230225E+01;  0.0000000E+00;  4.1320839E+01;0;  2.4025600E-01;  2.1413869E+04;  0.0000000E+00; -2.0228806E+00;  4.0000000E+04;  0.0000000E+00;  3.9586637E+04;  1.9460624E-01;  0.0000000E+00;  4.5649752E-02;  1.3940739E+04;
  1.3429493E+00;  9.9999998E-03;  7.0315309E-02;8948;  8.7851757E-01;  0.0000000E+00; -4.4144049E-02;  9.8920514E+02;  1.3618232E-01; -8.8533467E+03;3; -6.1248074E+01;  0.0000000E+00;  9.7491779E+00;0;  2.1033497E+00;  2.1331289E+04;  0.0000000E+00; -1.1017164E-02;  4.0000000E+04;  0.0000000E+00;  3.9545363E+04;  2.5242805E+00;  0.0000000E+00; -4.2093086E-01;  9.7075576E+03;
  1.3423865E+00;  9.9999998E-03;  2.3118925E-01;8964;  9.9157697E-01;  0.0000000E+00; -8.9905299E-02;  9.9082220E+02;  1.3610932E-01; -7.5277446E+03;3;  5.8422718E+01;  0.0000000E+00;  4.2775112E+01;0;  1.1703971E-01;  2.1398555E+04;  0.0000000E+00; -6.1067061E+00;  4.0000000E+04;  0.0000000E+00;  3.9591832E+04;  4.6582658E-02;  0.0000000E+00;  7.0457049E-02;  1.4922985E+04;
  1.3545524E+00;  9.9999998E-03;  1.7102090E-01;9017;  9.3492103E-01;  0.0000000E+00; -9.3032464E-02;  9.9119879E+02;  1.3286610E-01; -7.2046479E+03;3;  5.4185299E+01;  0.0000000E+00;  2.6695906E+01;0;  1.1848047E+00;  2.2490037E+04;  0.0000000E+00;  2.7480590E-01;  4.0000000E+04;  0.0000000E+00;  3.9551098E+04;  1.3865851E+00;  0.0000000E+00; -2.0178038E-01;  1.0975958E+04;
  1.3545554E+00;  9.9999998E-03;  1.8103518E-01;9018;  9.4461811E-01;  0.0000000E+00; -9.5069364E-02;  9.9145453E+02;  1.3285770E-01; -6.9952773E+03;3;  6.8120605E+01;  0.0000000E+00;  3.3124207E+01;0;  1.0186527E+00;  2.2501910E+04;  0.0000000E+00;  6.1082709E-01;  4.0000000E+04;  0.0000000E+00;  3.9553934E+04;  1.1807138E+00;  0.0000000E+00; -1.6206114E-01;  1.1361391E+04;
  1.3546454E+00;  9.9999998E-03;  1.6099000E-01;9016;  9.2723495E-01;  0.0000000E+00; -9.0122782E-02;  9.9092853E+02;  1.3286495E-01; -7.4257495E+03;3;  2.3422951E+01;  0.0000000E+00;  1.6885593E+01;0;  1.3508772E+00;  2.2481016E+04;  0.0000000E+00; -2.6920151E-02;  4.0000000E+04;  0.0000000E+00;  3.9547793E+04;  1.5909184E+00;  0.0000000E+00; -2.4004124E-01;  1.0640662E+04;
  1.3546735E+00;  9.9999998E-03;  1.9104807E-01;9019;  9.5491695E-01;  0.0000000E+00; -9.6453205E-02;  9.9163226E+02;  1.3283941E-01; -6.8496357E+03;3;  7.1420593E+01;  0.0000000E+00;  3.7240650E+01;0;  8.5452425E-01;  2.2514252E+04;  0.0000000E+00;  1.0067980E+00;  4.0000000E+04;  0.0000000E+00;  3.9557082E+04;  9.7693980E-01;  0.0000000E+00; -1.2241554E-01;  1.2040054E+04;
  1.3548063E+00;  9.9999998E-03;  1.5093102E-01;9015;  9.2322123E-01;  0.0000000E+00; -8.6228192E-02;  9.9066351E+02;  1.3285683E-01; -7.6424575E+03;3; -1.3479040E+01;  0.0000000E+00;  1.1590612E+01;0;  1.5146546E+00;  2.2475549E+04;  0.0000000E+00; -2.7937678E-01;  4.0000000E+04;  0.0000000E+00;  3.9543289E+04;  1.7901822E+00;  0.0000000E+00; -2.7552754E-01;  1.0245003E+04;
  1.3549007E+00;  9.9999998E-03;  2.0107070E-01;9020;  9.6504706E-01;  0.0000000E+00; -9.7279727E-02;  9.9166827E+02;  1.3281533E-01; -6.8198911E+03;3;  7.0700928E+01;  0.0000000E+00;  3.9201870E+01;0;  6.9392896E-01;  2.2521955E+04;  0.0000000E+00;  1.4006662E+00;  4.0000000E+04;  0.0000000E+00;  3.9561898E+04;  7.7840501E-01;  0.0000000E+00; -8.4476069E-02;  1.3265369E+04;
  1.3550081E+00;  9.9999998E-03;  1.4084840E-01;9014;  9.2287403E-01;  0.0000000E+00; -8.1797481E-02;  9.9044684E+02;  1.3284755E-01; -7.8195288E+03;3; -3.8721493E+01;  0.0000000E+00;  1.1597626E+01;0;  1.6740907E+00;  2.2473176E+04;  0.0000000E+00; -4.4044510E-01;  4.0000000E+04;  0.0000000E+00;  3.9538484E+04;  1.9813509E+00;  0.0000000E+00; -3.0726016E-01;  9.7851797E+03;
  1.3552370E+00;  9.9999998E-03;  1.3075440E-01;9013;  9.2490834E-01;  0.0000000E+00; -7.7195928E-02;  9.9028326E+02;  1.3283710E-01; -7.9531274E+03;3; -5.3233463E+01;  0.0000000E+00;  1.0756763E+01;0;  1.8273497E+00;  2.2473334E+04;  0.0000000E+00; -4.9536571E-01;  4.0000000E+04;  0.0000000E+00;  3.9533371E+04;  2.1623189E+00;  0.0000000E+00; -3.3496928E-01;  9.3067803E+03;
  1.3551822E+00;  9.9999998E-03;  2.1111584E-01;9021;  9.7457695E-01;  0.0000000E+00; -9.8092891E-02;  9.9147137E+02;  1.3279282E-01; -6.9807407E+03;3;  6.7074173E+01;  0.0000000E+00;  3.6304192E+01;0;  5.3644156E-01;  2.2518793E+04;  0.0000000E+00;  1.3790056E+00;  4.0000000E+04;  0.0000000E+00;  3.9568605E+04;  5.8706027E-01;  0.0000000E+00; -5.0618708E-02;  1.4741820E+04;
  1.3554214E+00;  9.9999998E-03;  2.2117801E-01;9022;  9.8195004E-01;  0.0000000E+00; -9.9126801E-02;  9.9100446E+02;  1.3278340E-01; -7.3625718E+03;3;  5.9391308E+01;  0.0000000E+00;  3.6152107E+01;0;  3.7824258E-01;  2.2499680E+04;  0.0000000E+00;  4.9801201E-02;  4.0000000E+04;  0.0000000E+00;  3.9576508E+04;  4.0373823E-01;  0.0000000E+00; -2.5495652E-02;  1.5476989E+04;
  1.3554766E+00;  9.9999998E-03;  1.2065861E-01;9012;  9.2821288E-01;  0.0000000E+00; -7.2299898E-02;  9.9018140E+02;  1.3282762E-01; -8.0361592E+03;3; -6.3074337E+01;  0.0000000E+00;  9.7446318E+00;0;  1.9724894E+00;  2.2474982E+04;  0.0000000E+00; -4.6471578E-01;  4.0000000E+04;  0.0000000E+00;  3.9528965E+04;  2.3315327E+00;  0.0000000E+00; -3.5904342E-01;  8.8646309E+03;
  1.3554778E+00;  9.9999998E-03;  2.3124291E-01;9023;  9.8747331E-01;  0.0000000E+00; -9.9370025E-02;  9.9041943E+02;  1.3279974E-01; -7.8413140E+03;3;  5.6716015E+01;  0.0000000E+00;  3.7968834E+01;0;  2.1771511E-01;  2.2465615E+04;  0.0000000E+00; -3.3315220E+00;  4.0000000E+04;  0.0000000E+00;  3.9587348E+04;  2.2848232E-01;  0.0000000E+00; -1.0767209E-02;  1.5356796E+04;
  1.3556973E+00;  9.9999998E-03;  1.1057423E-01;9011;  9.3186623E-01;  0.0000000E+00; -6.7158304E-02;  9.9011682E+02;  1.3282250E-01; -8.0886724E+03;3; -7.0327255E+01;  0.0000000E+00;  8.1796513E+00;0;  2.1073108E+00;  2.2476574E+04;  0.0000000E+00; -3.6965412E-01;  4.0000000E+04;  0.0000000E+00;  3.9525492E+04;  2.4874661E+00;  0.0000000E+00; -3.8015538E-01;  8.5083721E+03;
  1.3558843E+00;  9.9999998E-03;  1.0050547E-01;9010;  9.3529516E-01;  0.0000000E+00; -6.1735775E-02;  9.9007605E+02;  1.3282087E-01; -8.1217656E+03;3; -7.6314430E+01;  0.0000000E+00;  6.5511565E+00;0;  2.2306623E+00;  2.2477404E+04;  0.0000000E+00; -2.3793472E-01;  4.0000000E+04;  0.0000000E+00;  3.9523133E+04;  2.6294818E+00;  0.0000000E+00; -3.9881939E-01;  8.2655107E+03;
  1.3560439E+00;  9.9999998E-03;  9.0440676E-02;9009;  9.3827516E-01;  0.0000000E+00; -5.6060381E-02;  9.9006146E+02;  1.3282125E-01; -8.1334829E+03;3; -8.1596840E+01;  0.0000000E+00;  5.3974361E+00;0;  2.3426073E+00;  2.2477568E+04;  0.0000000E+00; -1.0049614E-01;  4.0000000E+04;  0.0000000E+00;  3.9521930E+04;  2.7579577E+00;  0.0000000E+00; -4.1535053E-01;  8.1309277E+03;
  1.3561757E+00;  9.9999998E-03;  8.0379881E-02;9008;  9.4069850E-01;  0.0000000E+00; -5.0209276E-02;  9.9005627E+02;  1.3282126E-01; -8.1375327E+03;3; -8.5923218E+01;  0.0000000E+00;  4.3630528E+00;0;  2.4430420E+00;  2.2477535E+04;  0.0000000E+00;  1.7485952E-02;  4.0000000E+04;  0.0000000E+00;  3.9521453E+04;  2.8729305E+00;  0.0000000E+00; -4.2988843E-01;  8.0804512E+03;
  1.3562731E+00;  9.9999998E-03;  7.0327781E-02;9007;  9.4236147E-01;  0.0000000E+00; -4.4216651E-02;  9.9006903E+02;  1.3282461E-01; -8.1269512E+03;3; -8.9572723E+01;  0.0000000E+00;  3.4900835E+00;0;  2.5317094E+00;  2.2477152E+04;  0.0000000E+00;  1.0018522E-01;  4.0000000E+04;  0.0000000E+00;  3.9521520E+04;  2.9742160E+00;  0.0000000E+00; -4.4250661E-01;  8.0843447E+03;
  1.3675426E+00;  9.9999998E-03;  1.7109364E-01;9076;  9.5696539E-01;  0.0000000E+00; -9.1942005E-02;  9.9189850E+02;  1.2989604E-01; -6.6151504E+03;3; -3.6963024E+01;  0.0000000E+00;  6.9690537E+00;0;  1.4856960E+00;  2.3576105E+04;  0.0000000E+00;  2.2704424E-01;  4.0000000E+04;  0.0000000E+00;  3.9527566E+04;  1.7161959E+00;  0.0000000E+00; -2.3049997E-01;  9.6740068E+03;
  1.3676306E+00;  9.9999998E-03;  1.6107821E-01;9075;  9.6146953E-01;  0.0000000E+00; -8.8270396E-02;  9.9164697E+02;  1.2989525E-01; -6.8204058E+03;3; -5.1567924E+01;  0.0000000E+00;  8.1047468E+00;0;  1.6672258E+00;  2.3566961E+04;  0.0000000E+00; -1.4628187E-01;  4.0000000E+04;  0.0000000E+00;  3.9525289E+04;  1.9317639E+00;  0.0000000E+00; -2.6453805E-01;  9.4382637E+03;
  1.3675483E+00;  9.9999998E-03;  1.8109636E-01;9077;  9.5481086E-01;  0.0000000E+00; -9.5849797E-02;  9.9208624E+02;  1.2988719E-01; -6.4618345E+03;3; -8.7230234E+00;  0.0000000E+00;  5.3181977E+00;0;  1.2996711E+00;  2.3586471E+04;  0.0000000E+00;  8.1452829E-01;  4.0000000E+04;  0.0000000E+00;  3.9529914E+04;  1.4957941E+00;  0.0000000E+00; -1.9612302E-01;  1.0210812E+04;
  1.3677890E+00;  9.9999998E-03;  1.5103605E-01;9074;  9.6654481E-01;  0.0000000E+00; -8.4391013E-02;  9.9138892E+02;  1.2988755E-01; -7.0308521E+03;3; -6.0995605E+01;  0.0000000E+00;  7.1214757E+00;0;  1.8428440E+00;  2.3561006E+04;  0.0000000E+00; -3.8636425E-01;  4.0000000E+04;  0.0000000E+00;  3.9522230E+04;  2.1394308E+00;  0.0000000E+00; -2.9658675E-01;  9.2023809E+03;
  1.3676641E+00;  9.9999998E-03;  1.9110034E-01;9078;  9.5732778E-01;  0.0000000E+00; -9.9498041E-02;  9.9215918E+02;  1.2986855E-01; -6.4021055E+03;3;  2.6544216E+01;  0.0000000E+00;  8.4266300E+00;0;  1.1105326E+00;  2.3593982E+04;  0.0000000E+00;  1.7322048E+00;  4.0000000E+04;  0.0000000E+00;  3.9534203E+04;  1.2742343E+00;  0.0000000E+00; -1.6370164E-01;  1.1606104E+04;
  1.3679950E+00;  9.9999998E-03;  1.4096048E-01;9073;  9.7191244E-01;  0.0000000E+00; -8.0107734E-02;  9.9116357E+02;  1.2987673E-01; -7.2145420E+03;3; -6.8392021E+01;  0.0000000E+00;  5.2648988E+00;0;  2.0107849E+00;  2.3558617E+04;  0.0000000E+00; -5.0579792E-01;  4.0000000E+04;  0.0000000E+00;  3.9518246E+04;  2.3364611E+00;  0.0000000E+00; -3.2567611E-01;  8.8724570E+03;
  1.3678746E+00;  9.9999998E-03;  2.0112075E-01;9079;  9.6360922E-01;  0.0000000E+00; -1.0206573E-01;  9.9201318E+02;  1.2984657E-01; -6.5210483E+03;3;  5.0475815E+01;  0.0000000E+00;  1.6099146E+01;0;  9.2000306E-01;  2.3591959E+04;  0.0000000E+00;  2.9135828E+00;  4.0000000E+04;  0.0000000E+00;  3.9541727E+04;  1.0553073E+00;  0.0000000E+00; -1.3530424E-01;  1.4254293E+04;
  1.3682245E+00;  9.9999998E-03;  1.3086322E-01;9072;  9.7754973E-01;  0.0000000E+00; -7.5391792E-02;  9.9098706E+02;  1.2986286E-01; -7.3582744E+03;3; -7.4885208E+01;  0.0000000E+00;  3.6165299E+00;0;  2.1689718E+00;  2.3559387E+04;  0.0000000E+00; -5.0744021E-01;  4.0000000E+04;  0.0000000E+00;  3.9513723E+04;  2.5202994E+00;  0.0000000E+00; -3.5132766E-01;  8.4637900E+03;
  1.3681220E+00;  9.9999998E-03;  2.1116565E-01;9080;  9.7142917E-01;  0.0000000E+00; -1.0340600E-01;  9.9156433E+02;  1.2983041E-01; -6.8871348E+03;3;  6.0598385E+01;  0.0000000E+00;  2.3575466E+01;0;  7.2967577E-01;  2.3573482E+04;  0.0000000E+00;  3.7799015E+00;  4.0000000E+04;  0.0000000E+00;  3.9552641E+04;  8.4210575E-01;  0.0000000E+00; -1.1243001E-01;  1.7513861E+04;
  1.3684533E+00;  9.9999998E-03;  1.2076326E-01;9071;  9.8350692E-01;  0.0000000E+00; -7.0339739E-02;  9.9089044E+02;  1.2985294E-01; -7.4367886E+03;3; -8.0699905E+01;  0.0000000E+00;  2.5635598E+00;0;  2.3155072E+00;  2.3562428E+04;  0.0000000E+00; -4.2300957E-01;  4.0000000E+04;  0.0000000E+00;  3.9509332E+04;  2.6890583E+00;  0.0000000E+00; -3.7355119E-01;  8.0307104E+03;
  1.3686603E+00;  9.9999998E-03;  1.1066873E-01;9070;  9.8944801E-01;  0.0000000E+00; -6.5029234E-02;  9.9085919E+02;  1.2984644E-01; -7.4619521E+03;3; -8.5664604E+01;  0.0000000E+00;  1.4690223E+00;0;  2.4492357E+00;  2.3566607E+04;  0.0000000E+00; -2.9261121E-01;  4.0000000E+04;  0.0000000E+00;  3.9505320E+04;  2.8420563E+00;  0.0000000E+00; -3.9282063E-01;  7.6257720E+03;
  1.3683105E+00;  9.9999998E-03;  2.2122963E-01;9081;  9.7871327E-01;  0.0000000E+00; -1.0403166E-01;  9.9081665E+02;  1.2983038E-01; -7.4972598E+03;3;  6.0363018E+01;  0.0000000E+00;  2.4537859E+01;0;  5.3976798E-01;  2.3534818E+04;  0.0000000E+00;  3.1820171E+00;  4.0000000E+04;  0.0000000E+00;  3.9566238E+04;  6.3646203E-01;  0.0000000E+00; -9.6694052E-02;  1.9615342E+04;
  1.3683046E+00;  9.9999998E-03;  2.3130389E-01;9082;  9.8350143E-01;  0.0000000E+00; -1.0488559E-01;  9.8995898E+02;  1.2985423E-01; -8.1974551E+03;3;  5.6155766E+01;  0.0000000E+00;  2.5461784E+01;0;  3.4300077E-01;  2.3481166E+04;  0.0000000E+00;  3.1177276E-01;  4.0000000E+04;  0.0000000E+00;  3.9581285E+04;  4.3772891E-01;  0.0000000E+00; -9.4728135E-02;  1.9353502E+04;
  1.3688514E+00;  9.9999998E-03;  1.0057394E-01;9069;  9.9514616E-01;  0.0000000E+00; -5.9521988E-02;  9.9087128E+02;  1.2984173E-01; -7.4518140E+03;3; -9.0108803E+01;  0.0000000E+00;  8.9119458E-01;0;  2.5703807E+00;  2.3571705E+04;  0.0000000E+00; -1.4337753E-01;  4.0000000E+04;  0.0000000E+00;  3.9502086E+04;  2.9799998E+00;  0.0000000E+00; -4.0961897E-01;  7.2840723E+03;
  1.3690170E+00;  9.9999998E-03;  9.0490833E-02;9068;  1.0003107E+00;  0.0000000E+00; -5.3888250E-02;  9.9092792E+02;  1.2984040E-01; -7.4052764E+03;3; -9.4036186E+01;  0.0000000E+00;  4.3106085E-01;0;  2.6789577E+00;  2.3577205E+04;  0.0000000E+00; -3.8741569E-03;  4.0000000E+04;  0.0000000E+00;  3.9499547E+04;  3.1031659E+00;  0.0000000E+00; -4.2420816E-01;  7.0178916E+03;
  1.3691454E+00;  9.9999998E-03;  8.0421969E-02;9067;  1.0046430E+00;  0.0000000E+00; -4.8141971E-02;  9.9100604E+02;  1.2983947E-01; -7.3413350E+03;3; -9.7473083E+01;  0.0000000E+00;  8.9905746E-02;0;  2.7751763E+00;  2.3582037E+04;  0.0000000E+00;  1.0468804E-01;  4.0000000E+04;  0.0000000E+00;  3.9497617E+04;  3.2119579E+00;  0.0000000E+00; -4.3678162E-01;  6.8169199E+03;
  1.3692385E+00;  9.9999998E-03;  7.0362411E-02;9066;  1.0081252E+00;  0.0000000E+00; -4.2312123E-02;  9.9110706E+02;  1.2984239E-01; -7.2587222E+03;3; -1.0044250E+02;  0.0000000E+00; -1.5096833E-01;0;  2.8595676E+00;  2.3586543E+04;  0.0000000E+00;  1.7164361E-01;  4.0000000E+04;  0.0000000E+00;  3.9496238E+04;  3.3070791E+00;  0.0000000E+00; -4.4751146E-01;  6.6612056E+03;
  1.3802986E+00;  9.9999998E-03;  1.8113780E-01;9136;  9.8892999E-01;  0.0000000E+00; -9.1894411E-02;  9.9277509E+02;  1.2725015E-01; -5.8818062E+03;3; -5.7340790E+01;  0.0000000E+00;  5.2787743E+00;0;  1.5660827E+00;  2.4626529E+04;  0.0000000E+00;  1.5885476E+00;  4.0000000E+04;  0.0000000E+00;  3.9500828E+04;  1.7898107E+00;  0.0000000E+00; -2.2372791E-01;  9.5007676E+03;
  1.3803099E+00;  9.9999998E-03;  1.7114568E-01;9135;  9.9892873E-01;  0.0000000E+00; -8.8686831E-02;  9.9269385E+02;  1.2725753E-01; -5.9479272E+03;3; -6.4891411E+01;  0.0000000E+00;  3.5486021E+00;0;  1.7596300E+00;  2.4621783E+04;  0.0000000E+00;  5.1980478E-01;  4.0000000E+04;  0.0000000E+00;  3.9498207E+04;  2.0116220E+00;  0.0000000E+00; -2.5199196E-01;  8.3045703E+03;
  1.3803815E+00;  9.9999998E-03;  1.9113679E-01;9137;  9.7912145E-01;  0.0000000E+00; -9.4843566E-02;  9.9268738E+02;  1.2723735E-01; -5.9530591E+03;3; -4.4511227E+01;  0.0000000E+00;  4.4226336E+00;0;  1.3648363E+00;  2.4623645E+04;  0.0000000E+00;  3.3246727E+00;  4.0000000E+04;  0.0000000E+00;  3.9507727E+04;  1.5622079E+00;  0.0000000E+00; -1.9737159E-01;  1.2462138E+04;
  1.3804032E+00;  9.9999998E-03;  1.6114491E-01;9134;  1.0082976E+00;  0.0000000E+00; -8.4953666E-02;  9.9251373E+02;  1.2725659E-01; -6.0944219E+03;3; -7.0668884E+01;  0.0000000E+00;  1.4442141E+00;0;  1.9448386E+00;  2.4615109E+04;  0.0000000E+00; -6.8174139E-02;  4.0000000E+04;  0.0000000E+00;  3.9496840E+04;  2.2253032E+00;  0.0000000E+00; -2.8046453E-01;  8.0043413E+03;
  1.3805451E+00;  9.9999998E-03;  2.0116049E-01;9138;  9.7238851E-01;  0.0000000E+00; -9.8421216E-02;  9.9233417E+02;  1.2722270E-01; -6.2403457E+03;3; -7.1212425E+00;  0.0000000E+00; -1.9201130E-01;0;  1.1549979E+00;  2.4606555E+04;  0.0000000E+00;  5.5908294E+00;  4.0000000E+04;  0.0000000E+00;  3.9519746E+04;  1.3313246E+00;  0.0000000E+00; -1.7632660E-01;  1.7285518E+04;
  1.3805553E+00;  9.9999998E-03;  1.5111953E-01;9133;  1.0168101E+00;  0.0000000E+00; -8.0725670E-02;  9.9228851E+02;  1.2725022E-01; -6.2774956E+03;3; -7.5812286E+01;  0.0000000E+00;  3.0196400E-02;0;  2.1204948E+00;  2.4609320E+04;  0.0000000E+00; -3.7063277E-01;  4.0000000E+04;  0.0000000E+00;  3.9495570E+04;  2.4283657E+00;  0.0000000E+00; -3.0787084E-01;  7.9255586E+03;
  1.3807480E+00;  9.9999998E-03;  2.1121716E-01;9139;  9.7212428E-01;  0.0000000E+00; -1.0177882E-01;  9.9162366E+02;  1.2721525E-01; -6.8184092E+03;3;  3.3411884E+01;  0.0000000E+00;  3.9363449E+00;0;  9.3787146E-01;  2.4568625E+04;  0.0000000E+00;  7.5025263E+00;  4.0000000E+04;  0.0000000E+00;  3.9535383E+04;  1.1023142E+00;  0.0000000E+00; -1.6444279E-01;  2.2546803E+04;
  1.3808472E+00;  9.9999998E-03;  2.3139022E-01;9141;  9.7985309E-01;  0.0000000E+00; -1.0538074E-01;  9.8936694E+02;  1.2724747E-01; -8.6551494E+03;3;  5.3410259E+01;  0.0000000E+00;  1.3417147E+01;0;  4.9151865E-01;  2.4436287E+04;  0.0000000E+00;  4.6816764E+00;  4.0000000E+04;  0.0000000E+00;  3.9567191E+04;  6.6281807E-01;  0.0000000E+00; -1.7129943E-01;  2.5007496E+04;
  1.3807429E+00;  9.9999998E-03;  1.4106068E-01;9132;  1.0245854E+00;  0.0000000E+00; -7.6157786E-02;  9.9206927E+02;  1.2723844E-01; -6.4556445E+03;3; -8.0699158E+01;  0.0000000E+00; -1.6024363E+00;0;  2.2851558E+00;  2.4605912E+04;  0.0000000E+00; -4.8914310E-01;  4.0000000E+04;  0.0000000E+00;  3.9493379E+04;  2.6183910E+00;  0.0000000E+00; -3.3323517E-01;  7.7877515E+03;
  1.3808945E+00;  9.9999998E-03;  2.2129796E-01;9140;  9.7604954E-01;  0.0000000E+00; -1.0392898E-01;  9.9054224E+02;  1.2722071E-01; -7.6983906E+03;3;  5.3234180E+01;  0.0000000E+00;  9.6399107E+00;0;  7.1742725E-01;  2.4508447E+04;  0.0000000E+00;  7.4998097E+00;  4.0000000E+04;  0.0000000E+00;  3.9552062E+04;  8.7946588E-01;  0.0000000E+00; -1.6203862E-01;  2.5675275E+04;
  1.3809458E+00;  9.9999998E-03;  1.3097267E-01;9131;  1.0320137E+00;  0.0000000E+00; -7.1251161E-02;  9.9189117E+02;  1.2722698E-01; -6.6003223E+03;3; -8.5263969E+01;  0.0000000E+00; -2.5145013E+00;0;  2.4372892E+00;  2.4605328E+04;  0.0000000E+00; -4.6874717E-01;  4.0000000E+04;  0.0000000E+00;  3.9490258E+04;  2.7932096E+00;  0.0000000E+00; -3.5592040E-01;  7.5362642E+03;
  1.3811446E+00;  9.9999998E-03;  1.2087349E-01;9130;  1.0393573E+00;  0.0000000E+00; -6.6150777E-02;  9.9178369E+02;  1.2721813E-01; -6.6874526E+03;3; -8.9449547E+01;  0.0000000E+00; -2.8994112E+00;0;  2.5755966E+00;  2.4607564E+04;  0.0000000E+00; -3.5710642E-01;  4.0000000E+04;  0.0000000E+00;  3.9486785E+04;  2.9512391E+00;  0.0000000E+00; -3.7564245E-01;  7.2050161E+03;
  1.3813313E+00;  9.9999998E-03;  1.1076567E-01;9129;  1.0466217E+00;  0.0000000E+00; -6.0925264E-02;  9.9176520E+02;  1.2721187E-01; -6.7021675E+03;3; -9.3347206E+01;  0.0000000E+00; -3.2343411E+00;0;  2.6998119E+00;  2.4612619E+04;  0.0000000E+00; -2.1249391E-01;  4.0000000E+04;  0.0000000E+00;  3.9482793E+04;  3.0923538E+00;  0.0000000E+00; -3.9254177E-01;  6.8352104E+03;
  1.3815100E+00;  9.9999998E-03;  1.0066029E-01;9128;  1.0537248E+00;  0.0000000E+00; -5.5586874E-02;  9.9180573E+02;  1.2720613E-01; -6.6688706E+03;3; -9.6761398E+01;  0.0000000E+00; -3.3584564E+00;0;  2.8104510E+00;  2.4620146E+04;  0.0000000E+00; -6.8816721E-02;  4.0000000E+04;  0.0000000E+00;  3.9479223E+04;  3.2173715E+00;  0.0000000E+00; -4.0692055E-01;  6.4632656E+03;
  1.3816628E+00;  9.9999998E-03;  9.0568617E-02;9127;  1.0603302E+00;  0.0000000E+00; -5.0195288E-02;  9.9190979E+02;  1.2720428E-01; -6.5839111E+03;3; -9.9818954E+01;  0.0000000E+00; -3.2332282E+00;0;  2.9081035E+00;  2.4628713E+04;  0.0000000E+00;  5.4224934E-02;  4.0000000E+04;  0.0000000E+00;  3.9475570E+04;  3.3271785E+00;  0.0000000E+00; -4.1907510E-01;  6.1130889E+03;
  1.3817843E+00;  9.9999998E-03;  8.0487512E-02;9126;  1.0662303E+00;  0.0000000E+00; -4.4763580E-02;  9.9204309E+02;  1.2720342E-01; -6.4752446E+03;3; -1.0253223E+02;  0.0000000E+00; -3.1211331E+00;0;  2.9937375E+00;  2.4637523E+04;  0.0000000E+00;  1.4203016E-01;  4.0000000E+04;  0.0000000E+00;  3.9472594E+04;  3.4230068E+00;  0.0000000E+00; -4.2926937E-01;  5.7869990E+03;
  1.3818789E+00;  9.9999998E-03;  7.0415735E-02;9125;  1.0713651E+00;  0.0000000E+00; -3.9275400E-02;  9.9219971E+02;  1.2720419E-01; -6.3476157E+03;3; -1.0494079E+02;  0.0000000E+00; -2.8629861E+00;0;  3.0683072E+00;  2.4646656E+04;  0.0000000E+00;  1.8929935E-01;  4.0000000E+04;  0.0000000E+00;  3.9469848E+04;  3.5060375E+00;  0.0000000E+00; -4.3773040E-01;  5.4792642E+03;
  1.3928213E+00;  9.9999998E-03;  1.8115060E-01;9194;  1.0308155E+00;  0.0000000E+00; -8.7260902E-02;  9.9343744E+02;  1.2491828E-01; -5.3239219E+03;3; -7.6883217E+01;  0.0000000E+00; -2.1371143E+00;0;  1.8027289E+00;  2.5611436E+04;  0.0000000E+00;  3.2440772E+00;  4.0000000E+04;  0.0000000E+00;  3.9468348E+04;  2.0482650E+00;  0.0000000E+00; -2.4553603E-01;  1.0251479E+04;
  1.3928598E+00;  9.9999998E-03;  1.7116283E-01;9193;  1.0444247E+00;  0.0000000E+00; -8.3629735E-02;  9.9349451E+02;  1.2492031E-01; -5.2775361E+03;3; -7.9352150E+01;  0.0000000E+00; -4.3000746E+00;0;  1.9912063E+00;  2.5616775E+04;  0.0000000E+00;  1.3908161E+00;  4.0000000E+04;  0.0000000E+00;  3.9463340E+04;  2.2574737E+00;  0.0000000E+00; -2.6626745E-01;  7.4405483E+03;
  1.3928635E+00;  9.9999998E-03;  1.9115496E-01;9195;  1.0155602E+00;  0.0000000E+00; -9.0210147E-02;  9.9316260E+02;  1.2491152E-01; -5.5468125E+03;3; -7.3191185E+01;  0.0000000E+00;  8.0867374E-01;0;  1.6018777E+00;  2.5593947E+04;  0.0000000E+00;  6.1094408E+00;  4.0000000E+04;  0.0000000E+00;  3.9479961E+04;  1.8292565E+00;  0.0000000E+00; -2.2737889E-01;  1.5487268E+04;
  1.3929617E+00;  9.9999998E-03;  1.6117431E-01;9192;  1.0568473E+00;  0.0000000E+00; -7.9463661E-02;  9.9342743E+02;  1.2491971E-01; -5.3317681E+03;3; -8.1768944E+01;  0.0000000E+00; -5.9382644E+00;0;  2.1676784E+00;  2.5615402E+04;  0.0000000E+00;  3.5623336E-01;  4.0000000E+04;  0.0000000E+00;  3.9461988E+04;  2.4558694E+00;  0.0000000E+00; -2.8819111E-01;  6.4945835E+03;
  1.3929788E+00;  9.9999998E-03;  2.0119677E-01;9196;  9.9832076E-01;  0.0000000E+00; -9.2354685E-02;  9.9257269E+02;  1.2490664E-01; -6.0251582E+03;3; -6.7517433E+01;  0.0000000E+00;  2.8070569E+00;0;  1.3871125E+00;  2.5557469E+04;  0.0000000E+00;  9.6425295E+00;  4.0000000E+04;  0.0000000E+00;  3.9497434E+04;  1.5999776E+00;  0.0000000E+00; -2.1286511E-01;  2.2537467E+04;
  1.3931031E+00;  9.9999998E-03;  1.5116921E-01;9191;  1.0677059E+00;  0.0000000E+00; -7.4968979E-02;  9.9327625E+02;  1.2491424E-01; -5.4542021E+03;3; -8.4490250E+01;  0.0000000E+00; -7.0525055E+00;0;  2.3317263E+00;  2.5611439E+04;  0.0000000E+00; -1.5951276E-01;  4.0000000E+04;  0.0000000E+00;  3.9462195E+04;  2.6417809E+00;  0.0000000E+00; -3.1005454E-01;  6.3854321E+03;
  1.3931304E+00;  9.9999998E-03;  2.1128206E-01;9197;  9.8237699E-01;  0.0000000E+00; -9.5011666E-02;  9.9153632E+02;  1.2490682E-01; -6.8655381E+03;3; -2.8164701E+01;  0.0000000E+00; -4.6143360E+00;0;  1.1550490E+00;  2.5496621E+04;  0.0000000E+00;  1.2489907E+01;  4.0000000E+04;  0.0000000E+00;  3.9516484E+04;  1.3605886E+00;  0.0000000E+00; -2.0553960E-01;  2.9235104E+04;
  1.3930953E+00;  9.9999998E-03;  2.3150080E-01;9199;  9.7681898E-01;  0.0000000E+00; -1.0147917E-01;  9.8870245E+02;  1.2494782E-01; -9.1643838E+03;3;  4.9290977E+01;  0.0000000E+00;  8.7418330E-01;0;  6.5573740E-01;  2.5327939E+04;  0.0000000E+00;  9.7233372E+00;  4.0000000E+04;  0.0000000E+00;  3.9545238E+04;  8.9011633E-01;  0.0000000E+00; -2.3437893E-01;  3.1214428E+04;
  1.3932158E+00;  9.9999998E-03;  2.2139129E-01;9198;  9.7642356E-01;  0.0000000E+00; -9.8595873E-02;  9.9011432E+02;  1.2491981E-01; -8.0188115E+03;3;  2.7597120E+01;  0.0000000E+00; -3.3282146E+00;0;  9.0832978E-01;  2.5414189E+04;  0.0000000E+00;  1.2714899E+01;  4.0000000E+04;  0.0000000E+00;  3.9532605E+04;  1.1218432E+00;  0.0000000E+00; -2.1351343E-01;  3.2527799E+04;
  1.3932637E+00;  9.9999998E-03;  1.4113492E-01;9190;  1.0771314E+00;  0.0000000E+00; -7.0207722E-02;  9.9310217E+02;  1.2490695E-01; -5.5951094E+03;3; -8.7266289E+01;  0.0000000E+00; -7.3381557E+00;0;  2.4827149E+00;  2.5607234E+04;  0.0000000E+00; -3.6836046E-01;  4.0000000E+04;  0.0000000E+00;  3.9461969E+04;  2.8135688E+00;  0.0000000E+00; -3.3085397E-01;  6.4349790E+03;
  1.3934257E+00;  9.9999998E-03;  1.3106771E-01;9189;  1.0855950E+00;  0.0000000E+00; -6.5335818E-02;  9.9293604E+02;  1.2489893E-01; -5.7296182E+03;3; -9.0256134E+01;  0.0000000E+00; -7.3287807E+00;0;  2.6198018E+00;  2.5604393E+04;  0.0000000E+00; -3.8466677E-01;  4.0000000E+04;  0.0000000E+00;  3.9460957E+04;  2.9696448E+00;  0.0000000E+00; -3.4984311E-01;  6.4037808E+03;
  1.3935765E+00;  9.9999998E-03;  1.2097580E-01;9188;  1.0935196E+00;  0.0000000E+00; -6.0413603E-02;  9.9282019E+02;  1.2489370E-01; -5.8232827E+03;3; -9.3207947E+01;  0.0000000E+00; -7.1834536E+00;0;  2.7423093E+00;  2.5603814E+04;  0.0000000E+00; -2.8587407E-01;  4.0000000E+04;  0.0000000E+00;  3.9459047E+04;  3.1088507E+00;  0.0000000E+00; -3.6654148E-01;  6.2583540E+03;
  1.3937297E+00;  9.9999998E-03;  1.1086897E-01;9187;  1.1013288E+00;  0.0000000E+00; -5.5460181E-02;  9.9278235E+02;  1.2488907E-01; -5.8537036E+03;3; -9.6048676E+01;  0.0000000E+00; -6.9163775E+00;0;  2.8503854E+00;  2.5607180E+04;  0.0000000E+00; -1.4815097E-01;  4.0000000E+04;  0.0000000E+00;  3.9456555E+04;  3.2310994E+00;  0.0000000E+00; -3.8071400E-01;  6.0185396E+03;
  1.3938789E+00;  9.9999998E-03;  1.0076159E-01;9186;  1.1090637E+00;  0.0000000E+00; -5.0462395E-02;  9.9282367E+02;  1.2488413E-01; -5.8199346E+03;3; -9.8722298E+01;  0.0000000E+00; -6.6432695E+00;0;  2.9446573E+00;  2.5614242E+04;  0.0000000E+00; -2.5682529E-02;  4.0000000E+04;  0.0000000E+00;  3.9453227E+04;  3.3370640E+00;  0.0000000E+00; -3.9240661E-01;  5.7075327E+03;
  1.3940136E+00;  9.9999998E-03;  9.0658896E-02;9185;  1.1165422E+00;  0.0000000E+00; -4.5439940E-02;  9.9293378E+02;  1.2488197E-01; -5.7304136E+03;3; -1.0107464E+02;  0.0000000E+00; -6.1608510E+00;0;  3.0263724E+00;  2.5623994E+04;  0.0000000E+00;  6.7553513E-02;  4.0000000E+04;  0.0000000E+00;  3.9449625E+04;  3.4282660E+00;  0.0000000E+00; -4.0189353E-01;  5.3463521E+03;
  1.3941292E+00;  9.9999998E-03;  8.0567010E-02;9184;  1.1235800E+00;  0.0000000E+00; -4.0426910E-02;  9.9309503E+02;  1.2488024E-01; -5.5994141E+03;3; -1.0317787E+02;  0.0000000E+00; -5.6058855E+00;0;  3.0968759E+00;  2.5635234E+04;  0.0000000E+00;  1.2783720E-01;  4.0000000E+04;  0.0000000E+00;  3.9445598E+04;  3.5063512E+00;  0.0000000E+00; -4.0947524E-01;  4.9513799E+03;
  1.3942207E+00;  9.9999998E-03;  7.0485286E-02;9183;  1.1299866E+00;  0.0000000E+00; -3.5412431E-02;  9.9328613E+02;  1.2488130E-01; -5.4442969E+03;3; -1.0499352E+02;  0.0000000E+00; -4.9824615E+00;0;  3.1573987E+00;  2.5647055E+04;  0.0000000E+00;  1.5507248E-01;  4.0000000E+04;  0.0000000E+00;  3.9441859E+04;  3.5728595E+00;  0.0000000E+00; -4.1546082E-01;  4.5334502E+03;
  1.4051275E+00;  9.9999998E-03;  1.8113139E-01;9251;  1.0732480E+00;  0.0000000E+00; -8.0014043E-02;  9.9399506E+02;  1.2286205E-01; -4.8515938E+03;3; -8.8169853E+01;  0.0000000E+00; -1.0315439E+01;0;  2.0024765E+00;  2.6531061E+04;  0.0000000E+00;  6.0965290E+00;  4.0000000E+04;  0.0000000E+00;  3.9435727E+04;  2.2629590E+00;  0.0000000E+00; -2.6048258E-01;  1.3304745E+04;
  1.4051235E+00;  9.9999998E-03;  1.9115920E-01;9252;  1.0540982E+00;  0.0000000E+00; -8.3154209E-02;  9.9352374E+02;  1.2286165E-01; -5.2324248E+03;3; -8.8863426E+01;  0.0000000E+00; -8.4456177E+00;0;  1.8146126E+00;  2.6495111E+04;  0.0000000E+00;  1.0361173E+01;  4.0000000E+04;  0.0000000E+00;  3.9454148E+04;  2.0650599E+00;  0.0000000E+00; -2.5044730E-01;  2.0787947E+04;
  1.4051871E+00;  9.9999998E-03;  1.7113982E-01;9250;  1.0898166E+00;  0.0000000E+00; -7.6117620E-02;  9.9422357E+02;  1.2286156E-01; -4.6668604E+03;3; -8.7314064E+01;  0.0000000E+00; -1.1362070E+01;0;  2.1735823E+00;  2.6549771E+04;  0.0000000E+00;  3.1159327E+00;  4.0000000E+04;  0.0000000E+00;  3.9424957E+04;  2.4471169E+00;  0.0000000E+00; -2.7353463E-01;  8.2465156E+03;
  1.4050826E+00;  9.9999998E-03;  2.3163530E-01;9256;  9.7579318E-01;  0.0000000E+00; -9.3482777E-02;  9.8802722E+02;  1.2292454E-01; -9.6733916E+03;3;  2.9612020E+01;  0.0000000E+00; -1.1515612E+01;0;  8.3338541E-01;  2.6156506E+04;  0.0000000E+00;  1.4950061E+01;  4.0000000E+04;  0.0000000E+00;  3.9514973E+04;  1.1084964E+00;  0.0000000E+00; -2.7511102E-01;  3.6798617E+04;
  1.4051793E+00;  9.9999998E-03;  2.0124488E-01;9253;  1.0321243E+00;  0.0000000E+00; -8.5490726E-02;  9.9265521E+02;  1.2286604E-01; -5.9339971E+03;3; -8.9536598E+01;  0.0000000E+00; -5.3534756E+00;0;  1.6065934E+00;  2.6436066E+04;  0.0000000E+00;  1.5191612E+01;  4.0000000E+04;  0.0000000E+00;  3.9476059E+04;  1.8508852E+00;  0.0000000E+00; -2.4429175E-01;  2.9553699E+04;
  1.4052887E+00;  9.9999998E-03;  1.6116087E-01;9249;  1.1042132E+00;  0.0000000E+00; -7.1866520E-02;  9.9429358E+02;  1.2285983E-01; -4.6101558E+03;3; -8.7832024E+01;  0.0000000E+00; -1.2282236E+01;0;  2.3298924E+00;  2.6557051E+04;  0.0000000E+00;  1.3226695E+00;  4.0000000E+04;  0.0000000E+00;  3.9421348E+04;  2.6184876E+00;  0.0000000E+00; -2.8859517E-01;  5.6156675E+03;
  1.4052680E+00;  9.9999998E-03;  2.1137838E-01;9254;  1.0076022E+00;  0.0000000E+00; -8.6744376E-02;  9.9125580E+02;  1.2287626E-01; -7.0643706E+03;3; -8.5256081E+01;  0.0000000E+00; -1.9945974E+00;0;  1.3754777E+00;  2.6351195E+04;  0.0000000E+00;  1.8618074E+01;  4.0000000E+04;  0.0000000E+00;  3.9493176E+04;  1.6164848E+00;  0.0000000E+00; -2.4100704E-01;  3.6719539E+04;
  1.4052837E+00;  9.9999998E-03;  2.2151567E-01;9255;  9.8498511E-01;  0.0000000E+00; -8.9156277E-02;  9.8951562E+02;  1.2289622E-01; -8.4702334E+03;3; -3.2551220E+01;  0.0000000E+00; -1.3391119E+01;0;  1.1144320E+00;  2.6248746E+04;  0.0000000E+00;  1.8483854E+01;  4.0000000E+04;  0.0000000E+00;  3.9505180E+04;  1.3605896E+00;  0.0000000E+00; -2.4615762E-01;  3.9152824E+04;
  1.4054149E+00;  9.9999998E-03;  1.5117630E-01;9248;  1.1167926E+00;  0.0000000E+00; -6.7330964E-02;  9.9425378E+02;  1.2285682E-01; -4.6421094E+03;3; -8.8472816E+01;  0.0000000E+00; -1.2165731E+01;0;  2.4724202E+00;  2.6557287E+04;  0.0000000E+00;  3.6046976E-01;  4.0000000E+04;  0.0000000E+00;  3.9421625E+04;  2.7768736E+00;  0.0000000E+00; -3.0445325E-01;  4.8015991E+03;
  1.4055489E+00;  9.9999998E-03;  1.4116983E-01;9247;  1.1275886E+00;  0.0000000E+00; -6.2684119E-02;  9.9415247E+02;  1.2285282E-01; -4.7236885E+03;3; -8.9505196E+01;  0.0000000E+00; -1.1606057E+01;0;  2.6013920E+00;  2.6554057E+04;  0.0000000E+00; -9.0698384E-02;  4.0000000E+04;  0.0000000E+00;  3.9423125E+04;  2.9215286E+00;  0.0000000E+00; -3.2013649E-01;  4.8202197E+03;
  1.4056805E+00;  9.9999998E-03;  1.3112921E-01;9246;  1.1367992E+00;  0.0000000E+00; -5.8103405E-02;  9.9402844E+02;  1.2284846E-01; -4.8236558E+03;3; -9.1120956E+01;  0.0000000E+00; -1.0881808E+01;0;  2.7167196E+00;  2.6550029E+04;  0.0000000E+00; -2.3833346E-01;  4.0000000E+04;  0.0000000E+00;  3.9424430E+04;  3.0515771E+00;  0.0000000E+00; -3.3485734E-01;  4.9908877E+03;
  1.4058105E+00;  9.9999998E-03;  1.2105369E-01;9245;  1.1451126E+00;  0.0000000E+00; -5.3498577E-02;  9.9391681E+02;  1.2284422E-01; -4.9136021E+03;3; -9.2998886E+01;  0.0000000E+00; -1.0276620E+01;0;  2.8181877E+00;  2.6547543E+04;  0.0000000E+00; -2.1404877E-01;  4.0000000E+04;  0.0000000E+00;  3.9425082E+04;  3.1662028E+00;  0.0000000E+00; -3.4801507E-01;  5.0794473E+03;
  1.4059355E+00;  9.9999998E-03;  1.1095531E-01;9244;  1.1530370E+00;  0.0000000E+00; -4.8906915E-02;  9.9386371E+02;  1.2284074E-01; -4.9562715E+03;3; -9.4943443E+01;  0.0000000E+00; -9.5483027E+00;0;  2.9058187E+00;  2.6548113E+04;  0.0000000E+00; -1.1619822E-01;  4.0000000E+04;  0.0000000E+00;  3.9424438E+04;  3.2649648E+00;  0.0000000E+00; -3.5914621E-01;  5.0448066E+03;
  1.4060506E+00;  9.9999998E-03;  1.0085021E-01;9243;  1.1607529E+00;  0.0000000E+00; -4.4379268E-02;  9.9387665E+02;  1.2283835E-01; -4.9456162E+03;3; -9.6987854E+01;  0.0000000E+00; -8.8301144E+00;0;  2.9802918E+00;  2.6552168E+04;  0.0000000E+00; -1.9205362E-02;  4.0000000E+04;  0.0000000E+00;  3.9422512E+04;  3.3483109E+00;  0.0000000E+00; -3.6801922E-01;  4.8861201E+03;
  1.4061550E+00;  9.9999998E-03;  9.0747558E-02;9242;  1.1684304E+00;  0.0000000E+00; -3.9870620E-02;  9.9396564E+02;  1.2283675E-01; -4.8735557E+03;3; -9.8773346E+01;  0.0000000E+00; -8.0319910E+00;0;  3.0430126E+00;  2.6559994E+04;  0.0000000E+00;  4.2761251E-02;  4.0000000E+04;  0.0000000E+00;  3.9419762E+04;  3.4177551E+00;  0.0000000E+00; -3.7474248E-01;  4.6078135E+03;
  1.4063286E+00;  9.9999998E-03;  7.0559748E-02;9240;  1.1830046E+00;  0.0000000E+00; -3.0949831E-02;  9.9429340E+02;  1.2283728E-01; -4.6085469E+03;3; -1.0154841E+02;  0.0000000E+00; -6.3596792E+00;0;  3.1397271E+00;  2.6582816E+04;  0.0000000E+00;  8.4117427E-02;  4.0000000E+04;  0.0000000E+00;  3.9411309E+04;  3.5227935E+00;  0.0000000E+00; -3.8306633E-01;  3.7714373E+03;
  1.4062492E+00;  9.9999998E-03;  8.0650568E-02;9241;  1.1759077E+00;  0.0000000E+00; -3.5397686E-02;  9.9410828E+02;  1.2283602E-01; -4.7581943E+03;3; -1.0027928E+02;  0.0000000E+00; -7.1900859E+00;0;  3.0956492E+00;  2.6570568E+04;  0.0000000E+00;  7.4281581E-02;  4.0000000E+04;  0.0000000E+00;  3.9415848E+04;  3.4752841E+00;  0.0000000E+00; -3.7963489E-01;  4.2278105E+03;
  1.4168494E+00;  9.9999998E-03;  2.3179510E-01;9313;  9.7999489E-01;  0.0000000E+00; -8.1617713E-02;  9.8740045E+02;  1.2114502E-01; -1.0132779E+04;3; -1.2375328E+01;  0.0000000E+00; -2.4879354E+01;0;  1.0321429E+00;  2.6927445E+04;  0.0000000E+00;  1.9440371E+01;  4.0000000E+04;  0.0000000E+00;  3.9474691E+04;  1.3141633E+00;  0.0000000E+00; -2.8202042E-01;  4.0519211E+04;
  1.4171531E+00;  9.9999998E-03;  2.2167170E-01;9312;  1.0056598E+00;  0.0000000E+00; -7.7613540E-02;  9.8873016E+02;  1.2111934E-01; -9.0622188E+03;3; -9.9378677E+01;  0.0000000E+00; -8.9440117E+00;0;  1.3378971E+00;  2.7012037E+04;  0.0000000E+00;  2.3594482E+01;  4.0000000E+04;  0.0000000E+00;  3.9468402E+04;  1.6017790E+00;  0.0000000E+00; -2.6388195E-01;  4.3894062E+04;
  1.4172012E+00;  9.9999998E-03;  2.1152267E-01;9311;  1.0385669E+00;  0.0000000E+00; -7.6954968E-02;  9.9068518E+02;  1.2109702E-01; -7.4900415E+03;3; -1.0531657E+02;  0.0000000E+00; -1.0051783E+01;0;  1.5947113E+00;  2.7128373E+04;  0.0000000E+00;  2.5094896E+01;  4.0000000E+04;  0.0000000E+00;  3.9459887E+04;  1.8598278E+00;  0.0000000E+00; -2.6511651E-01;  4.3504484E+04;
  1.4171412E+00;  9.9999998E-03;  2.0134413E-01;9310;  1.0658344E+00;  0.0000000E+00; -7.5389691E-02;  9.9250958E+02;  1.2107952E-01; -6.0231689E+03;3; -1.0310256E+02;  0.0000000E+00; -1.2936023E+01;0;  1.8114400E+00;  2.7237029E+04;  0.0000000E+00;  2.2132309E+01;  4.0000000E+04;  0.0000000E+00;  3.9449879E+04;  2.0749474E+00;  0.0000000E+00; -2.6350737E-01;  3.7424188E+04;
  1.4171172E+00;  9.9999998E-03;  1.9119279E-01;9309;  1.0906603E+00;  0.0000000E+00; -7.3086120E-02;  9.9373560E+02;  1.2106828E-01; -5.0373638E+03;3; -9.9111839E+01;  0.0000000E+00; -1.5090002E+01;0;  1.9993744E+00;  2.7319455E+04;  0.0000000E+00;  1.6350914E+01;  4.0000000E+04;  0.0000000E+00;  3.9429309E+04;  2.2634683E+00;  0.0000000E+00; -2.6409385E-01;  2.7882107E+04;
  1.4171710E+00;  9.9999998E-03;  1.8111384E-01;9308;  1.1129113E+00;  0.0000000E+00; -7.0166849E-02;  9.9443292E+02;  1.2106063E-01; -4.4765317E+03;3; -9.4833633E+01;  0.0000000E+00; -1.5521335E+01;0;  2.1631899E+00;  2.7375826E+04;  0.0000000E+00;  1.0488072E+01;  4.0000000E+04;  0.0000000E+00;  3.9404715E+04;  2.4310982E+00;  0.0000000E+00; -2.6790825E-01;  1.8519285E+04;
  1.4172738E+00;  9.9999998E-03;  1.7109717E-01;9307;  1.1323547E+00;  0.0000000E+00; -6.6591278E-02;  9.9482874E+02;  1.2105621E-01; -4.1580547E+03;3; -9.2127922E+01;  0.0000000E+00; -1.5864758E+01;0;  2.3073025E+00;  2.7411252E+04;  0.0000000E+00;  6.0078015E+00;  4.0000000E+04;  0.0000000E+00;  3.9386391E+04;  2.5816703E+00;  0.0000000E+00; -2.7436784E-01;  1.1340211E+04;
  1.4173983E+00;  9.9999998E-03;  1.6111441E-01;9306;  1.1487498E+00;  0.0000000E+00; -6.2586442E-02;  9.9505243E+02;  1.2105338E-01; -3.9779744E+03;3; -9.0142212E+01;  0.0000000E+00; -1.5306911E+01;0;  2.4348989E+00;  2.7431092E+04;  0.0000000E+00;  3.0795040E+00;  4.0000000E+04;  0.0000000E+00;  3.9377062E+04;  2.7178373E+00;  0.0000000E+00; -2.8293860E-01;  6.6338745E+03;
  1.4175297E+00;  9.9999998E-03;  1.5114005E-01;9305;  1.1627982E+00;  0.0000000E+00; -5.8310181E-02;  9.9514362E+02;  1.2105034E-01; -3.9044783E+03;3; -8.9297432E+01;  0.0000000E+00; -1.4907314E+01;0;  2.5484817E+00;  2.7439789E+04;  0.0000000E+00;  1.3599291E+00;  4.0000000E+04;  0.0000000E+00;  3.9374855E+04;  2.8412654E+00;  0.0000000E+00; -2.9278371E-01;  4.0819871E+03;
  1.4176592E+00;  9.9999998E-03;  1.4115411E-01;9304;  1.1747351E+00;  0.0000000E+00; -5.4079205E-02;  9.9514801E+02;  1.2104774E-01; -3.9007151E+03;3; -8.9098076E+01;  0.0000000E+00; -1.3735500E+01;0;  2.6492531E+00;  2.7441061E+04;  0.0000000E+00;  4.4553229E-01;  4.0000000E+04;  0.0000000E+00;  3.9376520E+04;  2.9523470E+00;  0.0000000E+00; -3.0309385E-01;  3.2517881E+03;
  1.4177775E+00;  9.9999998E-03;  1.3113962E-01;9303;  1.1847794E+00;  0.0000000E+00; -4.9872689E-02;  9.9509070E+02;  1.2104477E-01; -3.9465635E+03;3; -8.9093109E+01;  0.0000000E+00; -1.2582328E+01;0;  2.7377665E+00;  2.7438307E+04;  0.0000000E+00;  2.4851516E-02;  4.0000000E+04;  0.0000000E+00;  3.9379879E+04;  3.0508902E+00;  0.0000000E+00; -3.1312379E-01;  3.3422371E+03;
  1.4178830E+00;  9.9999998E-03;  1.2108803E-01;9302;  1.1933137E+00;  0.0000000E+00; -4.5774538E-02;  9.9501306E+02;  1.2104154E-01; -4.0088159E+03;3; -9.0048912E+01;  0.0000000E+00; -1.1751031E+01;0;  2.8141742E+00;  2.7434393E+04;  0.0000000E+00; -1.1317803E-01;  4.0000000E+04;  0.0000000E+00;  3.9382887E+04;  3.1364417E+00;  0.0000000E+00; -3.2226762E-01;  3.6215874E+03;
  1.4179744E+00;  9.9999998E-03;  1.1100920E-01;9301;  1.2010516E+00;  0.0000000E+00; -4.1689873E-02;  9.9495123E+02;  1.2104121E-01; -4.0583423E+03;3; -9.1221756E+01;  0.0000000E+00; -1.0824041E+01;0;  2.8786230E+00;  2.7431400E+04;  0.0000000E+00; -1.0680354E-01;  4.0000000E+04;  0.0000000E+00;  3.9384660E+04;  3.2085989E+00;  0.0000000E+00; -3.2997575E-01;  3.8216438E+03;
  1.4180499E+00;  9.9999998E-03;  1.0091945E-01;9300;  1.2083930E+00;  0.0000000E+00; -3.7703294E-02;  9.9492694E+02;  1.2104049E-01; -4.0777568E+03;3; -9.2529785E+01;  0.0000000E+00; -9.7832689E+00;0;  2.9316924E+00;  2.7431031E+04;  0.0000000E+00; -5.3081397E-02;  4.0000000E+04;  0.0000000E+00;  3.9385387E+04;  3.2675452E+00;  0.0000000E+00; -3.3585289E-01;  3.8787705E+03;
  1.4181186E+00;  9.9999998E-03;  9.0823844E-02;9299;  1.2156661E+00;  0.0000000E+00; -3.3806968E-02;  9.9497369E+02;  1.2104194E-01; -4.0400271E+03;3; -9.3756752E+01;  0.0000000E+00; -8.8504171E+00;0;  2.9744904E+00;  2.7434410E+04;  0.0000000E+00; -1.1243210E-02;  4.0000000E+04;  0.0000000E+00;  3.9384098E+04;  3.3142676E+00;  0.0000000E+00; -3.3977726E-01;  3.7727446E+03;
  1.4182400E+00;  9.9999998E-03;  7.0629232E-02;9297;  1.2300162E+00;  0.0000000E+00; -2.6144000E-02;  9.9521643E+02;  1.2104592E-01; -3.8447390E+03;3; -9.5572197E+01;  0.0000000E+00; -6.9620581E+00;0;  3.0356121E+00;  2.7451197E+04;  0.0000000E+00; -4.4858444E-04;  4.0000000E+04;  0.0000000E+00;  3.9377242E+04;  3.3784482E+00;  0.0000000E+00; -3.4283617E-01;  3.1040486E+03;
  1.4181815E+00;  9.9999998E-03;  8.0725938E-02;9298;  1.2228967E+00;  0.0000000E+00; -2.9953783E-02;  9.9507013E+02;  1.2104397E-01; -3.9624502E+03;3; -9.4744728E+01;  0.0000000E+00; -7.8781171E+00;0;  3.0085886E+00;  2.7441357E+04;  0.0000000E+00;  2.0405184E-03;  4.0000000E+04;  0.0000000E+00;  3.9381352E+04;  3.3505607E+00;  0.0000000E+00; -3.4197214E-01;  3.5055212E+03;
  1.4284043E+00;  9.9999998E-03;  2.3197603E-01;9369;  9.9240631E-01;  0.0000000E+00; -6.6351861E-02;  9.8706403E+02;  1.1958813E-01; -1.0348103E+04;3; -7.8952248E+01;  0.0000000E+00; -2.7914585E+01;0;  1.2640440E+00;  2.7652518E+04;  0.0000000E+00;  2.2882839E+01;  4.0000000E+04;  0.0000000E+00;  3.9424430E+04;  1.5114517E+00;  0.0000000E+00; -2.4740762E-01;  4.2031230E+04;
  1.4288093E+00;  9.9999998E-03;  2.2185300E-01;9368;  1.0321537E+00;  0.0000000E+00; -6.5173335E-02;  9.8794891E+02;  1.1956437E-01; -9.6382881E+03;3; -1.2112645E+02;  0.0000000E+00; -1.1372765E+01;0;  1.5683089E+00;  2.7712389E+04;  0.0000000E+00;  2.7556267E+01;  4.0000000E+04;  0.0000000E+00;  3.9422770E+04;  1.8316708E+00;  0.0000000E+00; -2.6336178E-01;  4.6324457E+04;
  1.4289347E+00;  9.9999998E-03;  2.0150717E-01;9366;  1.0989469E+00;  0.0000000E+00; -6.3093081E-02;  9.9201373E+02;  1.1952054E-01; -6.3868760E+03;3; -1.1247427E+02;  0.0000000E+00; -1.5129689E+01;0;  2.0020058E+00;  2.7956623E+04;  0.0000000E+00;  2.9476683E+01;  4.0000000E+04;  0.0000000E+00;  3.9413484E+04;  2.2713892E+00;  0.0000000E+00; -2.6938346E-01;  4.4520652E+04;
  1.4289581E+00;  9.9999998E-03;  2.1170616E-01;9367;  1.0698048E+00;  0.0000000E+00; -6.4846203E-02;  9.8983344E+02;  1.1954092E-01; -8.1304717E+03;3; -1.1866602E+02;  0.0000000E+00; -1.3565119E+01;0;  1.8113120E+00;  2.7828441E+04;  0.0000000E+00;  3.0682503E+01;  4.0000000E+04;  0.0000000E+00;  3.9416402E+04;  2.0827765E+00;  0.0000000E+00; -2.7146465E-01;  4.8062480E+04;
  1.4289178E+00;  9.9999998E-03;  1.9128925E-01;9365;  1.1247044E+00;  0.0000000E+00; -6.1086524E-02;  9.9370386E+02;  1.1950283E-01; -5.0352964E+03;3; -1.0617218E+02;  0.0000000E+00; -1.6148289E+01;0;  2.1575861E+00;  2.8062863E+04;  0.0000000E+00;  2.3826269E+01;  4.0000000E+04;  0.0000000E+00;  3.9402137E+04;  2.4256313E+00;  0.0000000E+00; -2.6804513E-01;  3.5765562E+04;
  1.4290001E+00;  9.9999998E-03;  1.8113345E-01;9364;  1.1491485E+00;  0.0000000E+00; -5.8687810E-02;  9.9470209E+02;  1.1948979E-01; -4.2367729E+03;3; -9.9446320E+01;  0.0000000E+00; -1.6437834E+01;0;  2.2885220E+00;  2.8140367E+04;  0.0000000E+00;  1.6593964E+01;  4.0000000E+04;  0.0000000E+00;  3.9376809E+04;  2.5566757E+00;  0.0000000E+00; -2.6815373E-01;  2.5287248E+04;
  1.4291559E+00;  9.9999998E-03;  1.7106354E-01;9363;  1.1710352E+00;  0.0000000E+00; -5.5899292E-02;  9.9526636E+02;  1.1947961E-01; -3.7852195E+03;3; -9.4675278E+01;  0.0000000E+00; -1.6061468E+01;0;  2.3983927E+00;  2.8194516E+04;  0.0000000E+00;  1.0346125E+01;  4.0000000E+04;  0.0000000E+00;  3.9350281E+04;  2.6682308E+00;  0.0000000E+00; -2.6983815E-01;  1.6260472E+04;
  1.4293216E+00;  9.9999998E-03;  1.6105451E-01;9362;  1.1897540E+00;  0.0000000E+00; -5.2503202E-02;  9.9563171E+02;  1.1947302E-01; -3.4928040E+03;3; -9.0845215E+01;  0.0000000E+00; -1.5538271E+01;0;  2.4914119E+00;  2.8230227E+04;  0.0000000E+00;  5.9024105E+00;  4.0000000E+04;  0.0000000E+00;  3.9332602E+04;  2.7642026E+00;  0.0000000E+00; -2.7279058E-01;  9.7338506E+03;
  1.4294729E+00;  9.9999998E-03;  1.5107468E-01;9361;  1.2051723E+00;  0.0000000E+00; -4.8856799E-02;  9.9587531E+02;  1.1947005E-01; -3.2977715E+03;3; -8.8389961E+01;  0.0000000E+00; -1.4627983E+01;0;  2.5708475E+00;  2.8251018E+04;  0.0000000E+00;  3.0652039E+00;  4.0000000E+04;  0.0000000E+00;  3.9324570E+04;  2.8478420E+00;  0.0000000E+00; -2.7699450E-01;  5.4646069E+03;
  1.4296055E+00;  9.9999998E-03;  1.4109737E-01;9360;  1.2179915E+00;  0.0000000E+00; -4.5009855E-02;  9.9600574E+02;  1.1946648E-01; -3.1932883E+03;3; -8.6750023E+01;  0.0000000E+00; -1.3554789E+01;0;  2.6392083E+00;  2.8260393E+04;  0.0000000E+00;  1.4016361E+00;  4.0000000E+04;  0.0000000E+00;  3.9323766E+04;  2.9211268E+00;  0.0000000E+00; -2.8191859E-01;  2.9590303E+03;
  1.4297148E+00;  9.9999998E-03;  1.3110282E-01;9359;  1.2286406E+00;  0.0000000E+00; -4.1354530E-02;  9.9605194E+02;  1.1946586E-01; -3.1561360E+03;3; -8.5892563E+01;  0.0000000E+00; -1.2662456E+01;0;  2.6976719E+00;  2.8261957E+04;  0.0000000E+00;  5.0750881E-01;  4.0000000E+04;  0.0000000E+00;  3.9327250E+04;  2.9847131E+00;  0.0000000E+00; -2.8704128E-01;  1.9277844E+03;
  1.4300079E+00;  9.9999998E-03;  7.0681818E-02;9353;  1.2712790E+00;  0.0000000E+00; -2.1266937E-02;  9.9606207E+02;  1.1947773E-01; -3.1475674E+03;3; -8.7853310E+01;  0.0000000E+00; -6.9230232E+00;0;  2.8687234E+00;  2.8253484E+04;  0.0000000E+00; -7.9207547E-02;  4.0000000E+04;  0.0000000E+00;  3.9337629E+04;  3.1654747E+00;  0.0000000E+00; -2.9675114E-01;  2.4177551E+03;
  1.4299791E+00;  9.9999998E-03;  8.0780134E-02;9354;  1.2647719E+00;  0.0000000E+00; -2.4418119E-02;  9.9598456E+02;  1.1947405E-01; -3.2095967E+03;3; -8.7456352E+01;  0.0000000E+00; -7.8789239E+00;0;  2.8578100E+00;  2.8248799E+04;  0.0000000E+00; -8.0432519E-02;  4.0000000E+04;  0.0000000E+00;  3.9340406E+04;  3.1562693E+00;  0.0000000E+00; -2.9845920E-01;  2.6687119E+03;
  1.4298021E+00;  9.9999998E-03;  1.2107804E-01;9358;  1.2374320E+00;  0.0000000E+00; -3.7779730E-02;  9.9603290E+02;  1.1946493E-01; -3.1712434E+03;3; -8.5396271E+01;  0.0000000E+00; -1.1553432E+01;0;  2.7467647E+00;  2.8258807E+04;  0.0000000E+00;  8.1087984E-02;  4.0000000E+04;  0.0000000E+00;  3.9331988E+04;  3.0385389E+00;  0.0000000E+00; -2.9177439E-01;  1.9847716E+03;
  1.4299484E+00;  9.9999998E-03;  9.0873413E-02;9355;  1.2582372E+00;  0.0000000E+00; -2.7628576E-02;  9.9595178E+02;  1.1947065E-01; -3.2358503E+03;3; -8.6932159E+01;  0.0000000E+00; -8.7807894E+00;0;  2.8413961E+00;  2.8247496E+04;  0.0000000E+00; -9.2920244E-02;  4.0000000E+04;  0.0000000E+00;  3.9341004E+04;  3.1404123E+00;  0.0000000E+00; -2.9901633E-01;  2.7420232E+03;
  1.4299126E+00;  9.9999998E-03;  1.0095719E-01;9356;  1.2517006E+00;  0.0000000E+00; -3.0895010E-02;  9.9595557E+02;  1.1946742E-01; -3.2328604E+03;3; -8.6295677E+01;  0.0000000E+00; -9.7028923E+00;0;  2.8180871E+00;  2.8249508E+04;  0.0000000E+00; -1.0752746E-01;  4.0000000E+04;  0.0000000E+00;  3.9339652E+04;  3.1161740E+00;  0.0000000E+00; -2.9808688E-01;  2.6262568E+03;
  1.4298663E+00;  9.9999998E-03;  1.1102711E-01;9357;  1.2449123E+00;  0.0000000E+00; -3.4303769E-02;  9.9599072E+02;  1.1946537E-01; -3.2048728E+03;3; -8.5721260E+01;  0.0000000E+00; -1.0710577E+01;0;  2.7867811E+00;  2.8253848E+04;  0.0000000E+00; -7.8651838E-02;  4.0000000E+04;  0.0000000E+00;  3.9336551E+04;  3.0823801E+00;  0.0000000E+00; -2.9559904E-01;  2.3434636E+03;
  1.4397753E+00;  9.9999998E-03;  2.3217490E-01;9424;  1.0130521E+00;  0.0000000E+00; -5.0670102E-02;  9.8724304E+02;  1.1822873E-01; -1.0142679E+04;3; -1.3211774E+02;  0.0000000E+00; -8.0294294E+00;0;  1.5059259E+00;  2.8346635E+04;  0.0000000E+00;  2.4631853E+01;  4.0000000E+04;  0.0000000E+00;  3.9364547E+04;  1.7012163E+00;  0.0000000E+00; -1.9529045E-01;  4.0590707E+04;
  1.4402486E+00;  9.9999998E-03;  2.2205773E-01;9423;  1.0586849E+00;  0.0000000E+00; -5.2023236E-02;  9.8744348E+02;  1.1821022E-01; -9.9805615E+03;3; -1.3255118E+02;  0.0000000E+00; -7.8354759E+00;0;  1.7903167E+00;  2.8366939E+04;  0.0000000E+00;  3.0197803E+01;  4.0000000E+04;  0.0000000E+00;  3.9366871E+04;  2.0339034E+00;  0.0000000E+00; -2.4358666E-01;  4.6304863E+04;
  1.4405179E+00;  9.9999998E-03;  2.1192083E-01;9422;  1.0996398E+00;  0.0000000E+00; -5.2190196E-02;  9.8889954E+02;  1.1818834E-01; -8.8218525E+03;3; -1.2683322E+02;  0.0000000E+00; -9.7064152E+00;0;  2.0138209E+00;  2.8461203E+04;  0.0000000E+00;  3.4556435E+01;  4.0000000E+04;  0.0000000E+00;  3.9361844E+04;  2.2776673E+00;  0.0000000E+00; -2.6384637E-01;  4.9623285E+04;
  1.4405670E+00;  9.9999998E-03;  2.0173393E-01;9421;  1.1320697E+00;  0.0000000E+00; -5.0772987E-02;  9.9114368E+02;  1.1816573E-01; -7.0381426E+03;3; -1.1942731E+02;  0.0000000E+00; -1.1731763E+01;0;  2.1762555E+00;  2.8595762E+04;  0.0000000E+00;  3.5831833E+01;  4.0000000E+04;  0.0000000E+00;  3.9361016E+04;  2.4423044E+00;  0.0000000E+00; -2.6604885E-01;  4.9133320E+04;
  1.4405417E+00;  9.9999998E-03;  1.9148198E-01;9420;  1.1577469E+00;  0.0000000E+00; -4.8876643E-02;  9.9331525E+02;  1.1814612E-01; -5.3125059E+03;3; -1.1155725E+02;  0.0000000E+00; -1.2560918E+01;0;  2.2923613E+00;  2.8724391E+04;  0.0000000E+00;  3.2015415E+01;  4.0000000E+04;  0.0000000E+00;  3.9361625E+04;  2.5567801E+00;  0.0000000E+00; -2.6441878E-01;  4.3018207E+04;
  1.4405992E+00;  9.9999998E-03;  1.8124078E-01;9419;  1.1821529E+00;  0.0000000E+00; -4.7080737E-02;  9.9475513E+02;  1.1812797E-01; -4.1680303E+03;3; -1.0353942E+02;  0.0000000E+00; -1.3681348E+01;0;  2.3829436E+00;  2.8824070E+04;  0.0000000E+00;  2.4473736E+01;  4.0000000E+04;  0.0000000E+00;  3.9346137E+04;  2.6459227E+00;  0.0000000E+00; -2.6297915E-01;  3.2933059E+04;
  1.4407704E+00;  9.9999998E-03;  1.7109239E-01;9418;  1.2055159E+00;  0.0000000E+00; -4.5066398E-02;  9.9555811E+02;  1.1811482E-01; -3.5295928E+03;3; -9.5995468E+01;  0.0000000E+00; -1.3615417E+01;0;  2.4544513E+00;  2.8895666E+04;  0.0000000E+00;  1.6497732E+01;  4.0000000E+04;  0.0000000E+00;  3.9316867E+04;  2.7159700E+00;  0.0000000E+00; -2.6151869E-01;  2.2562717E+04;
  1.4409809E+00;  9.9999998E-03;  1.6103382E-01;9417;  1.2261639E+00;  0.0000000E+00; -4.2624235E-02;  9.9606116E+02;  1.1810622E-01; -3.1294666E+03;3; -9.0783409E+01;  0.0000000E+00; -1.3470884E+01;0;  2.5099621E+00;  2.8947373E+04;  0.0000000E+00;  1.0165670E+01;  4.0000000E+04;  0.0000000E+00;  3.9290184E+04;  2.7701309E+00;  0.0000000E+00; -2.6016891E-01;  1.4301182E+04;
  1.4411757E+00;  9.9999998E-03;  1.5102573E-01;9416;  1.2432535E+00;  0.0000000E+00; -3.9658833E-02;  9.9641345E+02;  1.1809865E-01; -2.8492146E+03;3; -8.6386284E+01;  0.0000000E+00; -1.2989247E+01;0;  2.5532167E+00;  2.8982580E+04;  0.0000000E+00;  5.7980580E+00;  4.0000000E+04;  0.0000000E+00;  3.9273938E+04;  2.8124826E+00;  0.0000000E+00; -2.5926593E-01;  8.5307139E+03;
  1.4413385E+00;  9.9999998E-03;  1.4103740E-01;9415;  1.2570028E+00;  0.0000000E+00; -3.6512468E-02;  9.9667340E+02;  1.1809478E-01; -2.6424622E+03;3; -8.3599861E+01;  0.0000000E+00; -1.2401261E+01;0;  2.5873845E+00;  2.9003619E+04;  0.0000000E+00;  3.0254569E+00;  4.0000000E+04;  0.0000000E+00;  3.9267871E+04;  2.8463812E+00;  0.0000000E+00; -2.5899675E-01;  4.7727812E+03;
  1.4414667E+00;  9.9999998E-03;  1.3104591E-01;9414;  1.2680743E+00;  0.0000000E+00; -3.3225309E-02;  9.9683698E+02;  1.1809272E-01; -2.5123523E+03;3; -8.1447189E+01;  0.0000000E+00; -1.1449637E+01;0;  2.6145554E+00;  2.9013320E+04;  0.0000000E+00;  1.3806896E+00;  4.0000000E+04;  0.0000000E+00;  3.9268816E+04;  2.8735945E+00;  0.0000000E+00; -2.5903925E-01;  2.4244531E+03;
  1.4415647E+00;  9.9999998E-03;  1.2103757E-01;9413;  1.2770715E+00;  0.0000000E+00; -3.0120807E-02;  9.9691583E+02;  1.1809219E-01; -2.4495754E+03;3; -8.0069450E+01;  0.0000000E+00; -1.0801978E+01;0;  2.6356244E+00;  2.9014965E+04;  0.0000000E+00;  4.7819266E-01;  4.0000000E+04;  0.0000000E+00;  3.9273465E+04;  2.8946116E+00;  0.0000000E+00; -2.5898710E-01;  1.0710415E+03;
  1.4416938E+00;  9.9999998E-03;  7.0715293E-02;9408;  1.3071855E+00;  0.0000000E+00; -1.6562251E-02;  9.9685431E+02;  1.1810650E-01; -2.4982393E+03;3; -7.8959450E+01;  0.0000000E+00; -6.5625687E+00;0;  2.6627557E+00;  2.8994268E+04;  0.0000000E+00; -1.6253617E-01;  4.0000000E+04;  0.0000000E+00;  3.9290770E+04;  2.9091442E+00;  0.0000000E+00; -2.4638833E-01;  1.6089069E+03;
  1.4416349E+00;  9.9999998E-03;  1.1100885E-01;9412;  1.2844118E+00;  0.0000000E+00; -2.7216548E-02;  9.9692456E+02;  1.1809198E-01; -2.4425146E+03;3; -7.9185638E+01;  0.0000000E+00; -9.8890581E+00;0;  2.6509609E+00;  2.9011631E+04;  0.0000000E+00;  3.6423463E-02;  4.0000000E+04;  0.0000000E+00;  3.9279516E+04;  2.9093435E+00;  0.0000000E+00; -2.5838265E-01;  7.7858154E+02;
  1.4416977E+00;  9.9999998E-03;  8.0808908E-02;9409;  1.3017416E+00;  0.0000000E+00; -1.9085506E-02;  9.9685236E+02;  1.1810171E-01; -2.4997957E+03;3; -7.8964706E+01;  0.0000000E+00; -7.4577541E+00;0;  2.6659815E+00;  2.8995898E+04;  0.0000000E+00; -1.8134056E-01;  4.0000000E+04;  0.0000000E+00;  3.9291000E+04;  2.9167421E+00;  0.0000000E+00; -2.5076050E-01;  1.6467601E+03;
  1.4416956E+00;  9.9999998E-03;  9.0891488E-02;9410;  1.2962873E+00;  0.0000000E+00; -2.1676671E-02;  9.9687158E+02;  1.1809720E-01; -2.4845090E+03;3; -7.8900032E+01;  0.0000000E+00; -8.2463827E+00;0;  2.6656353E+00;  2.9000318E+04;  0.0000000E+00; -1.8758409E-01;  4.0000000E+04;  0.0000000E+00;  3.9289148E+04;  2.9199750E+00;  0.0000000E+00; -2.5433961E-01;  1.4943425E+03;
  1.4416783E+00;  9.9999998E-03;  1.0095931E-01;9411;  1.2906560E+00;  0.0000000E+00; -2.4390973E-02;  9.9690112E+02;  1.1809406E-01; -2.4611025E+03;3; -7.8880310E+01;  0.0000000E+00; -9.1039104E+00;0;  2.6608212E+00;  2.9006012E+04;  0.0000000E+00; -1.4173277E-01;  4.0000000E+04;  0.0000000E+00;  3.9285055E+04;  2.9177082E+00;  0.0000000E+00; -2.5688705E-01;  1.1620967E+03;
  1.4510047E+00;  9.9999998E-03;  2.3238502E-01;9478;  1.0385857E+00;  0.0000000E+00; -3.7782382E-02;  9.8812067E+02;  1.1704297E-01; -9.3790029E+03;3; -1.4469250E+02;  0.0000000E+00;  8.5508829E-01;0;  1.7190629E+00;  2.9023592E+04;  0.0000000E+00;  2.3542400E+01;  4.0000000E+04;  0.0000000E+00;  3.9297188E+04;  1.8665197E+00;  0.0000000E+00; -1.4745675E-01;  3.5491168E+04;
  1.4515104E+00;  9.9999998E-03;  2.2227789E-01;9477;  1.0847250E+00;  0.0000000E+00; -3.9617084E-02;  9.8750037E+02;  1.1703188E-01; -9.8653955E+03;3; -1.3833701E+02;  0.0000000E+00; -2.8882802E+00;0;  1.9855001E+00;  2.8993688E+04;  0.0000000E+00;  3.0713490E+01;  4.0000000E+04;  0.0000000E+00;  3.9301691E+04;  2.1984529E+00;  0.0000000E+00; -2.1295291E-01;  4.3227203E+04;
  1.4518795E+00;  9.9999998E-03;  2.1215332E-01;9476;  1.1271344E+00;  0.0000000E+00; -4.0343445E-02;  9.8819427E+02;  1.1701389E-01; -9.3153936E+03;3; -1.3197905E+02;  0.0000000E+00; -5.8569956E+00;0;  2.1879735E+00;  2.9046098E+04;  0.0000000E+00;  3.6202198E+01;  4.0000000E+04;  0.0000000E+00;  3.9298137E+04;  2.4352357E+00;  0.0000000E+00; -2.4726218E-01;  4.8034520E+04;
  1.4520459E+00;  9.9999998E-03;  2.0199412E-01;9475;  1.1631892E+00;  0.0000000E+00; -3.9816644E-02;  9.9005621E+02;  1.1699367E-01; -7.8453374E+03;3; -1.2412360E+02;  0.0000000E+00; -7.7195349E+00;0;  2.3254576E+00;  2.9163592E+04;  0.0000000E+00;  3.9614403E+01;  4.0000000E+04;  0.0000000E+00;  3.9294586E+04;  2.5843420E+00;  0.0000000E+00; -2.5888443E-01;  4.9954422E+04;
  1.4520432E+00;  9.9999998E-03;  1.9175828E-01;9474;  1.1908220E+00;  0.0000000E+00; -3.8060416E-02;  9.9246826E+02;  1.1697242E-01; -5.9423384E+03;3; -1.1518173E+02;  0.0000000E+00; -8.9135151E+00;0;  2.4071300E+00;  2.9305469E+04;  0.0000000E+00;  3.9105343E+01;  4.0000000E+04;  0.0000000E+00;  3.9300895E+04;  2.6649866E+00;  0.0000000E+00; -2.5785664E-01;  4.7635957E+04;
  1.4520383E+00;  9.9999998E-03;  1.8146628E-01;9473;  1.2139953E+00;  0.0000000E+00; -3.6485147E-02;  9.9449908E+02;  1.1695429E-01; -4.3400728E+03;3; -1.0650899E+02;  0.0000000E+00; -9.9926701E+00;0;  2.4542804E+00;  2.9428760E+04;  0.0000000E+00;  3.3395847E+01;  4.0000000E+04;  0.0000000E+00;  3.9301363E+04;  2.7095153E+00;  0.0000000E+00; -2.5523493E-01;  4.0138223E+04;
  1.4521590E+00;  9.9999998E-03;  1.7122348E-01;9472;  1.2365634E+00;  0.0000000E+00; -3.5022277E-02;  9.9569696E+02;  1.1693922E-01; -3.3947031E+03;3; -9.7806198E+01;  0.0000000E+00; -1.1324490E+01;0;  2.4846210E+00;  2.9519375E+04;  0.0000000E+00;  2.4683355E+01;  4.0000000E+04;  0.0000000E+00;  3.9280902E+04;  2.7361963E+00;  0.0000000E+00; -2.5157514E-01;  2.9806547E+04;
  1.4523885E+00;  9.9999998E-03;  1.6108343E-01;9471;  1.2577729E+00;  0.0000000E+00; -3.3353798E-02;  9.9634644E+02;  1.1692600E-01; -2.8818945E+03;3; -9.0085823E+01;  0.0000000E+00; -1.1223977E+01;0;  2.5020704E+00;  2.9585025E+04;  0.0000000E+00;  1.6361258E+01;  4.0000000E+04;  0.0000000E+00;  3.9250586E+04;  2.7490265E+00;  0.0000000E+00; -2.4695615E-01;  2.0118219E+04;
  1.4526421E+00;  9.9999998E-03;  1.5102215E-01;9470;  1.2761756E+00;  0.0000000E+00; -3.1217039E-02;  9.9678455E+02;  1.1691624E-01; -2.5358459E+03;3; -8.4492722E+01;  0.0000000E+00; -1.1623067E+01;0;  2.5095916E+00;  2.9633398E+04;  0.0000000E+00;  1.0023618E+01;  4.0000000E+04;  0.0000000E+00;  3.9225953E+04;  2.7512822E+00;  0.0000000E+00; -2.4169075E-01;  1.2751326E+04;
  1.4528656E+00;  9.9999998E-03;  1.4100040E-01;9469;  1.2911602E+00;  0.0000000E+00; -2.8651889E-02;  9.9714453E+02;  1.1691017E-01; -2.2516252E+03;3; -7.9496590E+01;  0.0000000E+00; -1.1048348E+01;0;  2.5102797E+00;  2.9667420E+04;  0.0000000E+00;  5.6966362E+00;  4.0000000E+04;  0.0000000E+00;  3.9211957E+04;  2.7466745E+00;  0.0000000E+00; -2.3639482E-01;  7.7216118E+03;
  1.4533119E+00;  9.9999998E-03;  7.0728116E-02;9462;  1.3380625E+00;  0.0000000E+00; -1.2190893E-02;  9.9761432E+02;  1.1691516E-01; -1.8805941E+03;3; -6.9354088E+01;  0.0000000E+00; -6.0752773E+00;0;  2.4406483E+00;  2.9675492E+04;  0.0000000E+00; -2.7565011E-01;  4.0000000E+04;  0.0000000E+00;  3.9235090E+04;  2.6339104E+00;  0.0000000E+00; -1.9326209E-01;  6.6233630E+02;
  1.4530420E+00;  9.9999998E-03;  1.3099213E-01;9468;  1.3029227E+00;  0.0000000E+00; -2.5972450E-02;  9.9742242E+02;  1.1690602E-01; -2.0322654E+03;3; -7.6297981E+01;  0.0000000E+00; -1.0928576E+01;0;  2.5067830E+00;  2.9688340E+04;  0.0000000E+00;  2.9279613E+00;  4.0000000E+04;  0.0000000E+00;  3.9207609E+04;  2.7380354E+00;  0.0000000E+00; -2.3125239E-01;  4.4860933E+03;
  1.4531730E+00;  9.9999998E-03;  1.2098408E-01;9467;  1.3120420E+00;  0.0000000E+00; -2.3223648E-02;  9.9759686E+02;  1.1690304E-01; -1.8945422E+03;3; -7.3759628E+01;  0.0000000E+00; -1.0099395E+01;0;  2.5006421E+00;  2.9698426E+04;  0.0000000E+00;  1.2669832E+00;  4.0000000E+04;  0.0000000E+00;  3.9209789E+04;  2.7266996E+00;  0.0000000E+00; -2.2605762E-01;  2.4766123E+03;
  1.4533374E+00;  9.9999998E-03;  8.0813125E-02;9463;  1.3339458E+00;  0.0000000E+00; -1.4116586E-02;  9.9765735E+02;  1.1690887E-01; -1.8466379E+03;3; -6.9650307E+01;  0.0000000E+00; -6.9171596E+00;0;  2.4559653E+00;  2.9682412E+04;  0.0000000E+00; -3.0493149E-01;  4.0000000E+04;  0.0000000E+00;  3.9232734E+04;  2.6566250E+00;  0.0000000E+00; -2.0065971E-01;  4.9188516E+02;
  1.4532657E+00;  9.9999998E-03;  1.1096822E-01;9466;  1.3192211E+00;  0.0000000E+00; -2.0637782E-02;  9.9769733E+02;  1.1690290E-01; -1.8152014E+03;3; -7.1862289E+01;  0.0000000E+00; -9.0955648E+00;0;  2.4923940E+00;  2.9700092E+04;  0.0000000E+00;  3.4953004E-01;  4.0000000E+04;  0.0000000E+00;  3.9215367E+04;  2.7129326E+00;  0.0000000E+00; -2.2053866E-01;  1.2266595E+03;
  1.4533461E+00;  9.9999998E-03;  9.0883180E-02;9464;  1.3297187E+00;  0.0000000E+00; -1.6190227E-02;  9.9770148E+02;  1.1690490E-01; -1.8118588E+03;3; -7.0015907E+01;  0.0000000E+00; -7.6824045E+00;0;  2.4699011E+00;  2.9689965E+04;  0.0000000E+00; -2.7235156E-01;  4.0000000E+04;  0.0000000E+00;  3.9228141E+04;  2.6777046E+00;  0.0000000E+00; -2.0780341E-01;  1.5065688E+02;
  1.4533243E+00;  9.9999998E-03;  1.0093557E-01;9465;  1.3249711E+00;  0.0000000E+00; -1.8365270E-02;  9.9772400E+02;  1.1690305E-01; -1.7941255E+03;3; -7.0737839E+01;  0.0000000E+00; -8.4821138E+00;0;  2.4821012E+00;  2.9696574E+04;  0.0000000E+00; -9.8055601E-02;  4.0000000E+04;  0.0000000E+00;  3.9221961E+04;  2.6965687E+00;  0.0000000E+00; -2.1446751E-01;  4.1638062E+02;
  1.4621415E+00;  9.9999998E-03;  2.3260237E-01;9531;  1.0636567E+00;  0.0000000E+00; -2.5476366E-02;  9.8969434E+02;  1.1601089E-01; -8.0715928E+03;3; -1.5196777E+02;  0.0000000E+00;  4.3736353E+00;0;  1.8927505E+00;  2.9688781E+04;  0.0000000E+00;  1.8334208E+01;  4.0000000E+04;  0.0000000E+00;  3.9223484E+04;  1.9789608E+00;  0.0000000E+00; -8.6210221E-02;  2.6316238E+04;
  1.4626335E+00;  9.9999998E-03;  2.2250727E-01;9530;  1.1090816E+00;  0.0000000E+00; -2.7493576E-02;  9.8831873E+02;  1.1600576E-01; -9.1455225E+03;3; -1.4374286E+02;  0.0000000E+00;  4.2693281E-01;0;  2.1420565E+00;  2.9611689E+04;  0.0000000E+00;  2.8135180E+01;  4.0000000E+04;  0.0000000E+00;  3.9228262E+04;  2.3091233E+00;  0.0000000E+00; -1.6706675E-01;  3.6682891E+04;
  1.4630563E+00;  9.9999998E-03;  2.1239673E-01;9529;  1.1510055E+00;  0.0000000E+00; -2.8705383E-02;  9.8809576E+02;  1.1599518E-01; -9.3170332E+03;3; -1.3562082E+02;  0.0000000E+00; -2.4102788E+00;0;  2.3219051E+00;  2.9609371E+04;  0.0000000E+00;  3.5362595E+01;  4.0000000E+04;  0.0000000E+00;  3.9225555E+04;  2.5394368E+00;  0.0000000E+00; -2.1753176E-01;  4.3428215E+04;
  1.4633399E+00;  9.9999998E-03;  2.0226301E-01;9528;  1.1894575E+00;  0.0000000E+00; -2.9148648E-02;  9.8915930E+02;  1.1598016E-01; -8.4827686E+03;3; -1.2762810E+02;  0.0000000E+00; -5.3302965E+00;0;  2.4402981E+00;  2.9683826E+04;  0.0000000E+00;  4.0380672E+01;  4.0000000E+04;  0.0000000E+00;  3.9219250E+04;  2.6833625E+00;  0.0000000E+00; -2.4306437E-01;  4.7145027E+04;
  1.4634311E+00;  9.9999998E-03;  1.9207540E-01;9527;  1.2211086E+00;  0.0000000E+00; -2.8564619E-02;  9.9127594E+02;  1.1596122E-01; -6.8259956E+03;3; -1.1939948E+02;  0.0000000E+00; -7.4466648E+00;0;  2.4980965E+00;  2.9814492E+04;  0.0000000E+00;  4.2981064E+01;  4.0000000E+04;  0.0000000E+00;  3.9220469E+04;  2.7481027E+00;  0.0000000E+00; -2.5000626E-01;  4.8026352E+04;
  1.4634067E+00;  9.9999998E-03;  1.8179584E-01;9526;  1.2450380E+00;  0.0000000E+00; -2.7143160E-02;  9.9372571E+02;  1.1594301E-01; -4.9093174E+03;3; -1.0969748E+02;  0.0000000E+00; -8.3042793E+00;0;  2.5094690E+00;  2.9955771E+04;  0.0000000E+00;  4.1145054E+01;  4.0000000E+04;  0.0000000E+00;  3.9232211E+04;  2.7565539E+00;  0.0000000E+00; -2.4708480E-01;  4.4665262E+04;
  1.4634354E+00;  9.9999998E-03;  1.7148085E-01;9525;  1.2656767E+00;  0.0000000E+00; -2.5961760E-02;  9.9555402E+02;  1.1592775E-01; -3.4786743E+03;3; -1.0028499E+02;  0.0000000E+00; -9.8064003E+00;0;  2.4982357E+00;  3.0069766E+04;  0.0000000E+00;  3.4170551E+01;  4.0000000E+04;  0.0000000E+00;  3.9231430E+04;  2.7400465E+00;  0.0000000E+00; -2.4181068E-01;  3.6750047E+04;
  1.4636135E+00;  9.9999998E-03;  1.6123469E-01;9524;  1.2855656E+00;  0.0000000E+00; -2.4671292E-02;  9.9652362E+02;  1.1591252E-01; -2.7196558E+03;3; -9.0187546E+01;  0.0000000E+00; -1.0583676E+01;0;  2.4780993E+00;  3.0150457E+04;  0.0000000E+00;  2.4832582E+01;  4.0000000E+04;  0.0000000E+00;  3.9209734E+04;  2.7124760E+00;  0.0000000E+00; -2.3437676E-01;  2.6910059E+04;
  1.4638996E+00;  9.9999998E-03;  1.5108690E-01;9523;  1.3040920E+00;  0.0000000E+00; -2.3222299E-02;  9.9705231E+02;  1.1590043E-01; -2.3055273E+03;3; -8.2375046E+01;  0.0000000E+00; -1.0826716E+01;0;  2.4518311E+00;  3.0208654E+04;  0.0000000E+00;  1.6349030E+01;  4.0000000E+04;  0.0000000E+00;  3.9181531E+04;  2.6773756E+00;  0.0000000E+00; -2.2554441E-01;  1.8123936E+04;
  1.4641958E+00;  9.9999998E-03;  1.4100811E-01;9522;  1.3200798E+00;  0.0000000E+00; -2.1301668E-02;  9.9744745E+02;  1.1589069E-01; -1.9960189E+03;3; -7.5917114E+01;  0.0000000E+00; -1.1073311E+01;0;  2.4218175E+00;  3.0253314E+04;  0.0000000E+00;  9.9736423E+00;  4.0000000E+04;  0.0000000E+00;  3.9159539E+04;  2.6374171E+00;  0.0000000E+00; -2.1559955E-01;  1.1580644E+04;
  1.4644468E+00;  9.9999998E-03;  1.3096502E-01;9521;  1.3327460E+00;  0.0000000E+00; -1.9127836E-02;  9.9778479E+02;  1.1588296E-01; -1.7318690E+03;3; -7.0809006E+01;  0.0000000E+00; -1.0566319E+01;0;  2.3902121E+00;  3.0285846E+04;  0.0000000E+00;  5.5972219E+00;  4.0000000E+04;  0.0000000E+00;  3.9147375E+04;  2.5954473E+00;  0.0000000E+00; -2.0523526E-01;  7.1703242E+03;
  1.4646384E+00;  9.9999998E-03;  1.2093931E-01;9520;  1.3423641E+00;  0.0000000E+00; -1.6853202E-02;  9.9805560E+02;  1.1587765E-01; -1.5199363E+03;3; -6.6821190E+01;  0.0000000E+00; -9.9224539E+00;0;  2.3591413E+00;  3.0306711E+04;  0.0000000E+00;  2.7718406E+00;  4.0000000E+04;  0.0000000E+00;  3.9143844E+04;  2.5537462E+00;  0.0000000E+00; -1.9460477E-01;  4.4146953E+03;
  1.4647707E+00;  9.9999998E-03;  1.1092006E-01;9519;  1.3494642E+00;  0.0000000E+00; -1.4642078E-02;  9.9824567E+02;  1.1587536E-01; -1.3712087E+03;3; -6.4090935E+01;  0.0000000E+00; -9.2295084E+00;0;  2.3295465E+00;  3.0316873E+04;  0.0000000E+00;  1.0660976E+00;  4.0000000E+04;  0.0000000E+00;  3.9146434E+04;  2.5132596E+00;  0.0000000E+00; -1.8371312E-01;  2.8015210E+03;
  1.4648554E+00;  9.9999998E-03;  7.0723258E-02;9515;  1.3644947E+00;  0.0000000E+00; -8.1247361E-03;  9.9829590E+02;  1.1588326E-01; -1.3318455E+03;3; -5.9515564E+01;  0.0000000E+00; -5.7705083E+00;0;  2.2232018E+00;  3.0297451E+04;  0.0000000E+00; -4.4380012E-01;  4.0000000E+04;  0.0000000E+00;  3.9170051E+04;  2.3621478E+00;  0.0000000E+00; -1.3894612E-01;  5.6051898E+02;
  1.4648522E+00;  9.9999998E-03;  1.0089681E-01;9518;  1.3547214E+00;  0.0000000E+00; -1.2702264E-02;  9.9836200E+02;  1.1587649E-01; -1.2801868E+03;3; -6.2182739E+01;  0.0000000E+00; -8.1348782E+00;0;  2.3014634E+00;  3.0318643E+04;  0.0000000E+00;  1.3140568E-01;  4.0000000E+04;  0.0000000E+00;  3.9152066E+04;  2.4740143E+00;  0.0000000E+00; -1.7255098E-01;  1.8676488E+03;
  1.4648905E+00;  9.9999998E-03;  8.0798030E-02;9516;  1.3617814E+00;  0.0000000E+00; -9.5179947E-03;  9.9835919E+02;  1.1587974E-01; -1.2823369E+03;3; -5.9939125E+01;  0.0000000E+00; -6.5000615E+00;0;  2.2484250E+00;  3.0306824E+04;  0.0000000E+00; -4.5214573E-01;  4.0000000E+04;  0.0000000E+00;  3.9165375E+04;  2.3982944E+00;  0.0000000E+00; -1.4986943E-01;  8.5328894E+02;
  1.4648923E+00;  9.9999998E-03;  9.0856686E-02;9517;  1.3586981E+00;  0.0000000E+00; -1.1042140E-02;  9.9838556E+02;  1.1587672E-01; -1.2617455E+03;3; -6.0775597E+01;  0.0000000E+00; -7.3545690E+00;0;  2.2744968E+00;  3.0314570E+04;  0.0000000E+00; -3.0675381E-01;  4.0000000E+04;  0.0000000E+00;  3.9158934E+04;  2.4356787E+00;  0.0000000E+00; -1.6118191E-01;  1.2728459E+03;
  1.4732443E+00;  9.9999998E-03;  2.3281947E-01;9583;  1.0907619E+00;  0.0000000E+00; -1.5141147E-02;  9.9168365E+02;  1.1511633E-01; -6.4540239E+03;3; -1.5785878E+02;  0.0000000E+00;  7.9926128E+00;0;  2.0116124E+00;  3.0328043E+04;  0.0000000E+00;  8.9125576E+00;  4.0000000E+04;  0.0000000E+00;  3.9147340E+04;  2.0456703E+00;  0.0000000E+00; -3.4057908E-02;  1.4102692E+04;
  1.4736742E+00;  9.9999998E-03;  2.2273755E-01;9582;  1.1329795E+00;  0.0000000E+00; -1.6551010E-02;  9.8995959E+02;  1.1511529E-01; -7.7890444E+03;3; -1.4819438E+02;  0.0000000E+00;  4.6208377E+00;0;  2.2425454E+00;  3.0227219E+04;  0.0000000E+00;  2.1110941E+01;  4.0000000E+04;  0.0000000E+00;  3.9149832E+04;  2.3595378E+00;  0.0000000E+00; -1.1699256E-01;  2.6429188E+04;
  1.4740989E+00;  9.9999998E-03;  2.1264203E-01;9581;  1.1736877E+00;  0.0000000E+00; -1.7898815E-02;  9.8888690E+02;  1.1511215E-01; -8.6179551E+03;3; -1.3928569E+02;  0.0000000E+00;  5.2798080E-01;0;  2.4078341E+00;  3.0172014E+04;  0.0000000E+00;  3.1077961E+01;  4.0000000E+04;  0.0000000E+00;  3.9146090E+04;  2.5874341E+00;  0.0000000E+00; -1.7959993E-01;  3.5574527E+04;
  1.4744490E+00;  9.9999998E-03;  2.0252803E-01;9580;  1.2113082E+00;  0.0000000E+00; -1.9122208E-02;  9.8895581E+02;  1.1510302E-01; -8.5618398E+03;3; -1.3141879E+02;  0.0000000E+00; -2.7831318E+00;0;  2.5061460E+00;  3.0189381E+04;  0.0000000E+00;  3.8281357E+01;  4.0000000E+04;  0.0000000E+00;  3.9138648E+04;  2.7267652E+00;  0.0000000E+00; -2.2061911E-01;  4.1443363E+04;
  1.4746634E+00;  9.9999998E-03;  1.9238238E-01;9579;  1.2452177E+00;  0.0000000E+00; -1.9700332E-02;  9.9023901E+02;  1.1508836E-01; -7.5655825E+03;3; -1.2269948E+02;  0.0000000E+00; -5.4257088E+00;0;  2.5496590E+00;  3.0277389E+04;  0.0000000E+00;  4.3068836E+01;  4.0000000E+04;  0.0000000E+00;  3.9132852E+04;  2.7892029E+00;  0.0000000E+00; -2.3954402E-01;  4.4484500E+04;
  1.4747186E+00;  9.9999998E-03;  1.8216354E-01;9578;  1.2731171E+00;  0.0000000E+00; -1.9077122E-02;  9.9247040E+02;  1.1507155E-01; -5.8357998E+03;3; -1.1296349E+02;  0.0000000E+00; -7.6761951E+00;0;  2.5451779E+00;  3.0410619E+04;  0.0000000E+00;  4.5029465E+01;  4.0000000E+04;  0.0000000E+00;  3.9140645E+04;  2.7858233E+00;  0.0000000E+00; -2.4064529E-01;  4.4711301E+04;
  1.4747058E+00;  9.9999998E-03;  1.7184831E-01;9577;  1.2943506E+00;  0.0000000E+00; -1.7924406E-02;  9.9481396E+02;  1.1505555E-01; -4.0194517E+03;3; -1.0258532E+02;  0.0000000E+00; -8.6535530E+00;0;  2.5039239E+00;  3.0544529E+04;  0.0000000E+00;  4.2358822E+01;  4.0000000E+04;  0.0000000E+00;  3.9156191E+04;  2.7377913E+00;  0.0000000E+00; -2.3386751E-01;  4.1013977E+04;
  1.4747818E+00;  9.9999998E-03;  1.6151395E-01;9576;  1.3124154E+00;  0.0000000E+00; -1.6733423E-02;  9.9641284E+02;  1.1504086E-01; -2.7800769E+03;3; -9.1648979E+01;  0.0000000E+00; -1.0098151E+01;0;  2.4486260E+00;  3.0647211E+04;  0.0000000E+00;  3.4753677E+01;  4.0000000E+04;  0.0000000E+00;  3.9155887E+04;  2.6723151E+00;  0.0000000E+00; -2.2368914E-01;  3.3430754E+04;
  1.4750170E+00;  9.9999998E-03;  1.5125403E-01;9575;  1.3290931E+00;  0.0000000E+00; -1.5487979E-02;  9.9722272E+02;  1.1502846E-01; -2.1519399E+03;3; -8.0868317E+01;  0.0000000E+00; -1.0130634E+01;0;  2.3901465E+00;  3.0717023E+04;  0.0000000E+00;  2.5137768E+01;  4.0000000E+04;  0.0000000E+00;  3.9136188E+04;  2.6014996E+00;  0.0000000E+00; -2.1135309E-01;  2.4430133E+04;
  1.4753501E+00;  9.9999998E-03;  1.4108746E-01;9574;  1.3446509E+00;  0.0000000E+00; -1.4029087E-02;  9.9764685E+02;  1.1501624E-01; -1.8227457E+03;3; -7.2627060E+01;  0.0000000E+00; -1.0716214E+01;0;  2.3326511E+00;  3.0768066E+04;  0.0000000E+00;  1.6520428E+01;  4.0000000E+04;  0.0000000E+00;  3.9110734E+04;  2.5297992E+00;  0.0000000E+00; -1.9714810E-01;  1.6513910E+04;
  1.4756863E+00;  9.9999998E-03;  1.3098878E-01;9573;  1.3578982E+00;  0.0000000E+00; -1.2277104E-02;  9.9797864E+02;  1.1500578E-01; -1.5652855E+03;3; -6.5828407E+01;  0.0000000E+00; -1.0320464E+01;0;  2.2769961E+00;  3.0808539E+04;  0.0000000E+00;  1.0006810E+01;  4.0000000E+04;  0.0000000E+00;  3.9090602E+04;  2.4586608E+00;  0.0000000E+00; -1.8166462E-01;  1.0633403E+04;
  1.4759643E+00;  9.9999998E-03;  1.2092957E-01;9572;  1.3681834E+00;  0.0000000E+00; -1.0382151E-02;  9.9830243E+02;  1.1499931E-01; -1.3142334E+03;3; -6.0550751E+01;  0.0000000E+00; -1.0092780E+01;0;  2.2246654E+00;  3.0839693E+04;  0.0000000E+00;  5.4983029E+00;  4.0000000E+04;  0.0000000E+00;  3.9079371E+04;  2.3900914E+00;  0.0000000E+00; -1.6542593E-01;  6.7205659E+03;
  1.4761670E+00;  9.9999998E-03;  1.1089113E-01;9571;  1.3755031E+00;  0.0000000E+00; -8.5617555E-03;  9.9856421E+02;  1.1499359E-01; -1.1113621E+03;3; -5.6672482E+01;  0.0000000E+00; -9.4334412E+00;0;  2.1767032E+00;  3.0860422E+04;  0.0000000E+00;  2.5690889E+00;  4.0000000E+04;  0.0000000E+00;  3.9075938E+04;  2.3255246E+00;  0.0000000E+00; -1.4882144E-01;  4.3799844E+03;
  1.4763427E+00;  9.9999998E-03;  7.0711605E-02;9567;  1.3874151E+00;  0.0000000E+00; -3.9804671E-03;  9.9886829E+02;  1.1499544E-01; -8.7583685E+02;3; -4.9991600E+01;  0.0000000E+00; -5.9045382E+00;0;  2.0258570E+00;  3.0860357E+04;  0.0000000E+00; -6.6155595E-01;  4.0000000E+04;  0.0000000E+00;  3.9096668E+04;  2.1105905E+00;  0.0000000E+00; -8.4733389E-02;  1.5889785E+03;
  1.4763724E+00;  9.9999998E-03;  8.0778413E-02;9568;  1.3859202E+00;  0.0000000E+00; -4.7529633E-03;  9.9890308E+02;  1.1499233E-01; -8.4887494E+02;3; -5.0753487E+01;  0.0000000E+00; -6.6307483E+00;0;  2.0587180E+00;  3.0868803E+04;  0.0000000E+00; -5.6215912E-01;  4.0000000E+04;  0.0000000E+00;  3.9090281E+04;  2.1583879E+00;  0.0000000E+00; -9.9669836E-02;  1.9779088E+03;
  1.4763590E+00;  9.9999998E-03;  9.0827301E-02;9569;  1.3837870E+00;  0.0000000E+00; -5.6902170E-03;  9.9886823E+02;  1.1499093E-01; -8.7587000E+02;3; -5.2019417E+01;  0.0000000E+00; -7.3289185E+00;0;  2.0944097E+00;  3.0873197E+04;  0.0000000E+00; -1.4511688E-01;  4.0000000E+04;  0.0000000E+00;  3.9083785E+04;  2.2100210E+00;  0.0000000E+00; -1.1561121E-01;  2.4433457E+03;
  1.4762946E+00;  9.9999998E-03;  1.0086136E-01;9570;  1.3804629E+00;  0.0000000E+00; -6.9490126E-03;  9.9875562E+02;  1.1499099E-01; -9.6306171E+02;3; -5.3906685E+01;  0.0000000E+00; -8.4034462E+00;0;  2.1334620E+00;  3.0871219E+04;  0.0000000E+00;  8.0446166E-01;  4.0000000E+04;  0.0000000E+00;  3.9078219E+04;  2.2655780E+00;  0.0000000E+00; -1.3211614E-01;  3.1247571E+03;
  1.4843632E+00;  9.9999998E-03;  2.3303087E-01;9633;  1.1200689E+00;  0.0000000E+00; -7.9330998E-03;  9.9348749E+02;  1.1434633E-01; -5.0013193E+03;3; -1.6253860E+02;  0.0000000E+00;  1.0290613E+01;0;  2.0569382E+00;  3.0906119E+04;  0.0000000E+00; -3.5169578E-01;  4.0000000E+04;  0.0000000E+00;  3.9071852E+04;  2.0691869E+00;  0.0000000E+00; -1.2248772E-02;  3.7206995E+03;
  1.4846970E+00;  9.9999998E-03;  2.2296089E-01;9632;  1.1586574E+00;  0.0000000E+00; -7.7636600E-03;  9.9207159E+02;  1.1434548E-01; -6.0866201E+03;3; -1.5249915E+02;  0.0000000E+00;  7.5538526E+00;0;  2.2811210E+00;  3.0823055E+04;  0.0000000E+00;  9.5545149E+00;  4.0000000E+04;  0.0000000E+00;  3.9071793E+04;  2.3590889E+00;  0.0000000E+00; -7.7967994E-02;  1.3582080E+04;
  1.4850706E+00;  9.9999998E-03;  2.1287988E-01;9631;  1.1961575E+00;  0.0000000E+00; -8.8129723E-03;  9.9055115E+02;  1.1434589E-01; -7.2510737E+03;3; -1.4331789E+02;  0.0000000E+00;  3.9323344E+00;0;  2.4308145E+00;  3.0739512E+04;  0.0000000E+00;  2.2124577E+01;  4.0000000E+04;  0.0000000E+00;  3.9064965E+04;  2.5756710E+00;  0.0000000E+00; -1.4485639E-01;  2.4552186E+04;
  1.4854288E+00;  9.9999998E-03;  2.0278382E-01;9630;  1.2316170E+00;  0.0000000E+00; -1.0109967E-02;  9.8972144E+02;  1.1434294E-01; -7.8849551E+03;3; -1.3431693E+02;  0.0000000E+00;  2.9104710E-01;0;  2.5176775E+00;  3.0702703E+04;  0.0000000E+00;  3.2505543E+01;  4.0000000E+04;  0.0000000E+00;  3.9054582E+04;  2.7129900E+00;  0.0000000E+00; -1.9531244E-01;  3.2908316E+04;
  1.4857233E+00;  9.9999998E-03;  1.9266437E-01;9629;  1.2650504E+00;  0.0000000E+00; -1.0980465E-02;  9.8996460E+02;  1.1433594E-01; -7.6960840E+03;3; -1.2514218E+02;  0.0000000E+00; -3.3777418E+00;0;  2.5553045E+00;  3.0730467E+04;  0.0000000E+00;  3.9810909E+01;  4.0000000E+04;  0.0000000E+00;  3.9044902E+04;  2.7787642E+00;  0.0000000E+00; -2.2345971E-01;  3.8159348E+04;
  1.4859055E+00;  9.9999998E-03;  1.8250240E-01;9628;  1.2954553E+00;  0.0000000E+00; -1.1201340E-02;  9.9131470E+02;  1.1432309E-01; -6.6594517E+03;3; -1.1477218E+02;  0.0000000E+00; -5.7915130E+00;0;  2.5482264E+00;  3.0819869E+04;  0.0000000E+00;  4.4360950E+01;  4.0000000E+04;  0.0000000E+00;  3.9042711E+04;  2.7809033E+00;  0.0000000E+00; -2.3267688E-01;  4.0688742E+04;
  1.4859660E+00;  9.9999998E-03;  1.7225358E-01;9627;  1.3203499E+00;  0.0000000E+00; -1.0366747E-02;  9.9348712E+02;  1.1430831E-01; -4.9934448E+03;3; -1.0370142E+02;  0.0000000E+00; -7.5523515E+00;0;  2.5001757E+00;  3.0946400E+04;  0.0000000E+00;  4.5947220E+01;  4.0000000E+04;  0.0000000E+00;  3.9056504E+04;  2.7272582E+00;  0.0000000E+00; -2.2708252E-01;  4.0627934E+04;
  1.4859933E+00;  9.9999998E-03;  1.6191269E-01;9626;  1.3392957E+00;  0.0000000E+00; -9.1803577E-03;  9.9564459E+02;  1.1429328E-01; -3.3392283E+03;3; -9.3019394E+01;  0.0000000E+00; -9.1854115E+00;0;  2.4230394E+00;  3.1069236E+04;  0.0000000E+00;  4.2906681E+01;  4.0000000E+04;  0.0000000E+00;  3.9074652E+04;  2.6377933E+00;  0.0000000E+00; -2.1475375E-01;  3.7080254E+04;
  1.4861203E+00;  9.9999998E-03;  1.5156193E-01;9625;  1.3543322E+00;  0.0000000E+00; -7.8054778E-03;  9.9706604E+02;  1.1428107E-01; -2.2491338E+03;3; -8.0770668E+01;  0.0000000E+00; -9.6884899E+00;0;  2.3364682E+00;  3.1160555E+04;  0.0000000E+00;  3.5154900E+01;  4.0000000E+04;  0.0000000E+00;  3.9076078E+04;  2.5351725E+00;  0.0000000E+00; -1.9870429E-01;  3.0227088E+04;
  1.4863979E+00;  9.9999998E-03;  1.4128470E-01;9624;  1.3673261E+00;  0.0000000E+00; -6.5176482E-03;  9.9774500E+02;  1.1426871E-01; -1.7281639E+03;3; -7.0540245E+01;  0.0000000E+00; -1.0139893E+01;0;  2.2522593E+00;  3.1221234E+04;  0.0000000E+00;  2.5511154E+01;  4.0000000E+04;  0.0000000E+00;  3.9059367E+04;  2.4327261E+00;  0.0000000E+00; -1.8046683E-01;  2.2201029E+04;
  1.4867685E+00;  9.9999998E-03;  1.3109967E-01;9623;  1.3793875E+00;  0.0000000E+00; -5.0325030E-03;  9.9807227E+02;  1.1425751E-01; -1.4767760E+03;3; -6.1846130E+01;  0.0000000E+00; -9.8822746E+00;0;  2.1755533E+00;  3.1265057E+04;  0.0000000E+00;  1.6785255E+01;  4.0000000E+04;  0.0000000E+00;  3.9036488E+04;  2.3356771E+00;  0.0000000E+00; -1.6012378E-01;  1.5095590E+04;
  1.4871354E+00;  9.9999998E-03;  1.2098373E-01;9622;  1.3897591E+00;  0.0000000E+00; -3.3635530E-03;  9.9834851E+02;  1.1424816E-01; -1.2646541E+03;3; -5.5049477E+01;  0.0000000E+00; -9.6978931E+00;0;  2.1061890E+00;  3.1301096E+04;  0.0000000E+00;  1.0099959E+01;  4.0000000E+04;  0.0000000E+00;  3.9017824E+04;  2.2445104E+00;  0.0000000E+00; -1.3832147E-01;  9.7839092E+03;
  1.4874299E+00;  9.9999998E-03;  1.1090985E-01;9621;  1.3974746E+00;  0.0000000E+00; -1.7383554E-03;  9.9862854E+02;  1.1423951E-01; -1.0498971E+03;3; -4.9910557E+01;  0.0000000E+00; -9.3019762E+00;0;  2.0437748E+00;  3.1330799E+04;  0.0000000E+00;  5.4294944E+00;  4.0000000E+04;  0.0000000E+00;  3.9006887E+04;  2.1596539E+00;  0.0000000E+00; -1.1587901E-01;  6.2879873E+03;
  1.4876357E+00;  9.9999998E-03;  1.0085863E-01;9620;  1.4025629E+00;  0.0000000E+00; -3.2571569E-04;  9.9890076E+02;  1.1423497E-01; -8.4132440E+02;3; -4.6150364E+01;  0.0000000E+00; -8.6003904E+00;0;  1.9883869E+00;  3.1352088E+04;  0.0000000E+00;  2.3808310E+00;  4.0000000E+04;  0.0000000E+00;  3.9003070E+04;  2.0817924E+00;  0.0000000E+00; -9.3405478E-02;  4.2972017E+03;
  1.4877794E+00;  9.9999998E-03;  7.0708349E-02;9617;  1.4074199E+00;  0.0000000E+00;  1.7052791E-03;  9.9927069E+02;  1.1423547E-01; -5.5812256E+02;3; -4.0890778E+01;  0.0000000E+00; -6.6216502E+00;0;  1.8583211E+00;  3.1363070E+04;  0.0000000E+00; -8.0596668E-01;  4.0000000E+04;  0.0000000E+00;  3.9015941E+04;  1.8898524E+00;  0.0000000E+00; -3.1531341E-02;  2.4748704E+03;
  1.4877982E+00;  9.9999998E-03;  8.0769509E-02;9618;  1.4069395E+00;  0.0000000E+00;  1.3243087E-03;  9.9923492E+02;  1.1423416E-01; -5.8547888E+02;3; -4.1923599E+01;  0.0000000E+00; -6.9489675E+00;0;  1.8965662E+00;  3.1366965E+04;  0.0000000E+00; -4.1484728E-01;  4.0000000E+04;  0.0000000E+00;  3.9009590E+04;  1.9472561E+00;  0.0000000E+00; -5.0689887E-02;  2.8415139E+03;
  1.4877551E+00;  9.9999998E-03;  9.0815902E-02;9619;  1.4055177E+00;  0.0000000E+00;  7.1275939E-04;  9.9911615E+02;  1.1423393E-01; -6.7641473E+02;3; -4.3645920E+01;  0.0000000E+00; -7.4627261E+00;0;  1.9396144E+00;  3.1363916E+04;  0.0000000E+00;  5.5016047E-01;  4.0000000E+04;  0.0000000E+00;  3.9004773E+04;  2.0111041E+00;  0.0000000E+00; -7.1489722E-02;  3.3313708E+03;
  1.4954718E+00;  9.9999998E-03;  2.3323457E-01;9681;  1.1514151E+00;  0.0000000E+00; -2.7054732E-03;  9.9484845E+02;  1.1368760E-01; -3.9092205E+03;3; -1.6573088E+02;  0.0000000E+00;  1.1045015E+01;0;  2.0483940E+00;  3.1409484E+04;  0.0000000E+00;  2.0761523E+00;  4.0000000E+04;  0.0000000E+00;  3.8995820E+04;  2.0598609E+00;  0.0000000E+00; -1.1466865E-02;  2.2653198E+03;
  1.4957502E+00;  9.9999998E-03;  2.2317512E-01;9680;  1.1864054E+00;  0.0000000E+00; -1.8749486E-03;  9.9397113E+02;  1.1368543E-01; -4.5735098E+03;3; -1.5635703E+02;  0.0000000E+00;  8.8625755E+00;0;  2.2506948E+00;  3.1360092E+04;  0.0000000E+00; -1.5679517E+00;  4.0000000E+04;  0.0000000E+00;  3.8994359E+04;  2.3168325E+00;  0.0000000E+00; -6.6137753E-02;  3.1134045E+03;
  1.4960401E+00;  9.9999998E-03;  2.1310441E-01;9679;  1.2195746E+00;  0.0000000E+00; -1.8652214E-03;  9.9269482E+02;  1.1368603E-01; -5.5398745E+03;3; -1.4638460E+02;  0.0000000E+00;  6.2506790E+00;0;  2.3862677E+00;  3.1289691E+04;  0.0000000E+00;  8.6985884E+00;  4.0000000E+04;  0.0000000E+00;  3.8986465E+04;  2.5093555E+00;  0.0000000E+00; -1.2308785E-01;  1.1632539E+04;
  1.4963577E+00;  9.9999998E-03;  2.0302342E-01;9678;  1.2530017E+00;  0.0000000E+00; -2.3778735E-03;  9.9138245E+02;  1.1368634E-01; -6.5327192E+03;3; -1.3614662E+02;  0.0000000E+00;  3.1218400E+00;0;  2.4783759E+00;  3.1223059E+04;  0.0000000E+00;  2.1681543E+01;  4.0000000E+04;  0.0000000E+00;  3.8972109E+04;  2.6503403E+00;  0.0000000E+00; -1.7196444E-01;  2.1551537E+04;
  1.4966629E+00;  9.9999998E-03;  1.9292536E-01;9677;  1.2847658E+00;  0.0000000E+00; -2.8772617E-03;  9.9070996E+02;  1.1368500E-01; -7.0400049E+03;3; -1.2654147E+02;  0.0000000E+00; -1.4323938E-01;0;  2.5196791E+00;  3.1197750E+04;  0.0000000E+00;  3.2524353E+01;  4.0000000E+04;  0.0000000E+00;  3.8957230E+04;  2.7239923E+00;  0.0000000E+00; -2.0431334E-01;  2.9305361E+04;
  1.4969207E+00;  9.9999998E-03;  1.8279810E-01;9676;  1.3144830E+00;  0.0000000E+00; -2.8648034E-03;  9.9100562E+02;  1.1367935E-01; -6.8139307E+03;3; -1.1603923E+02;  0.0000000E+00; -3.4398503E+00;0;  2.5174999E+00;  3.1227832E+04;  0.0000000E+00;  4.0058208E+01;  4.0000000E+04;  0.0000000E+00;  3.8947480E+04;  2.7351444E+00;  0.0000000E+00; -2.1764436E-01;  3.4134664E+04;
  1.4970975E+00;  9.9999998E-03;  1.7261826E-01;9675;  1.3410726E+00;  0.0000000E+00; -2.4523519E-03;  9.9228595E+02;  1.1366741E-01; -5.8427559E+03;3; -1.0509578E+02;  0.0000000E+00; -5.8619928E+00;0;  2.4742863E+00;  3.1310430E+04;  0.0000000E+00;  4.4489479E+01;  4.0000000E+04;  0.0000000E+00;  3.8949375E+04;  2.6911621E+00;  0.0000000E+00; -2.1687588E-01;  3.6330625E+04;
  1.4971888E+00;  9.9999998E-03;  1.6234848E-01;9674;  1.3629210E+00;  0.0000000E+00; -1.3474220E-03;  9.9427100E+02;  1.1365439E-01; -4.3388071E+03;3; -9.3683434E+01;  0.0000000E+00; -7.9033847E+00;0;  2.3974941E+00;  3.1424416E+04;  0.0000000E+00;  4.5792347E+01;  4.0000000E+04;  0.0000000E+00;  3.8966430E+04;  2.6020741E+00;  0.0000000E+00; -2.0458014E-01;  3.6115230E+04;
  1.4972686E+00;  9.9999998E-03;  1.5199666E-01;9673;  1.3791276E+00;  0.0000000E+00;  1.2107236E-04;  9.9619885E+02;  1.1364070E-01; -2.8785029E+03;3; -8.1434448E+01;  0.0000000E+00; -9.1950674E+00;0;  2.2978964E+00;  3.1534051E+04;  0.0000000E+00;  4.2641975E+01;  4.0000000E+04;  0.0000000E+00;  3.8985352E+04;  2.4837179E+00;  0.0000000E+00; -1.8582147E-01;  3.2911250E+04;
  1.4974395E+00;  9.9999998E-03;  1.4163822E-01;9672;  1.3906008E+00;  0.0000000E+00;  1.4773442E-03;  9.9746893E+02;  1.1362990E-01; -1.9163024E+03;3; -6.9435707E+01;  0.0000000E+00; -9.0617151E+00;0;  2.1916895E+00;  3.1615041E+04;  0.0000000E+00;  3.5149246E+01;  4.0000000E+04;  0.0000000E+00;  3.8988926E+04;  2.3555515E+00;  0.0000000E+00; -1.6386189E-01;  2.6996855E+04;
  1.4977394E+00;  9.9999998E-03;  1.3134633E-01;9671;  1.3996687E+00;  0.0000000E+00;  2.8004311E-03;  9.9805835E+02;  1.1361852E-01; -1.4695189E+03;3; -5.9029976E+01;  0.0000000E+00; -9.2283764E+00;0;  2.0935354E+00;  3.1667871E+04;  0.0000000E+00;  2.5785633E+01;  4.0000000E+04;  0.0000000E+00;  3.8976008E+04;  2.2326531E+00;  0.0000000E+00; -1.3911769E-01;  2.0052934E+04;
  1.4981217E+00;  9.9999998E-03;  1.2114415E-01;9670;  1.4079307E+00;  0.0000000E+00;  4.2060041E-03;  9.9832239E+02;  1.1360928E-01; -1.2691483E+03;3; -5.0551361E+01;  0.0000000E+00; -8.5157061E+00;0;  2.0084383E+00;  3.1704986E+04;  0.0000000E+00;  1.7086382E+01;  4.0000000E+04;  0.0000000E+00;  3.8956406E+04;  2.1207089E+00;  0.0000000E+00; -1.1227063E-01;  1.3769399E+04;
  1.4984956E+00;  9.9999998E-03;  1.1101103E-01;9669;  1.4150207E+00;  0.0000000E+00;  5.5566919E-03;  9.9854089E+02;  1.1360121E-01; -1.1033560E+03;3; -4.4054012E+01;  0.0000000E+00; -7.8779531E+00;0;  1.9348992E+00;  3.1736320E+04;  0.0000000E+00;  1.0283283E+01;  4.0000000E+04;  0.0000000E+00;  3.8939270E+04;  2.0191929E+00;  0.0000000E+00; -8.4293760E-02;  9.0021377E+03;
  1.4987916E+00;  9.9999998E-03;  1.0091967E-01;9668;  1.4201034E+00;  0.0000000E+00;  6.7200684E-03;  9.9879022E+02;  1.1359335E-01; -9.1450049E+02;3; -3.9347431E+01;  0.0000000E+00; -6.9014688E+00;0;  1.8709220E+00;  3.1763768E+04;  0.0000000E+00;  5.4682393E+00;  4.0000000E+04;  0.0000000E+00;  3.8928770E+04;  1.9271163E+00;  0.0000000E+00; -5.6194361E-02;  5.8714248E+03;
  1.4989879E+00;  9.9999998E-03;  9.0851195E-02;9667;  1.4230698E+00;  0.0000000E+00;  7.5472025E-03;  9.9904950E+02;  1.1358885E-01; -7.1833966E+02;3; -3.6007401E+01;  0.0000000E+00; -5.8860488E+00;0;  1.8153225E+00;  3.1784904E+04;  0.0000000E+00;  2.3059072E+00;  4.0000000E+04;  0.0000000E+00;  3.8924637E+04;  1.8442339E+00;  0.0000000E+00; -2.8911376E-02;  4.1581987E+03;
  1.4990877E+00;  9.9999998E-03;  8.0791578E-02;9666;  1.4242383E+00;  0.0000000E+00;  7.9960581E-03;  9.9927209E+02;  1.1358797E-01; -5.5002966E+02;3; -3.3685009E+01;  0.0000000E+00; -5.4298491E+00;0;  1.7670606E+00;  3.1797730E+04;  0.0000000E+00;  4.1096696E-01;  4.0000000E+04;  0.0000000E+00;  3.8925664E+04;  1.7703103E+00;  0.0000000E+00; -3.2496920E-03;  3.4047627E+03;
  1.4991014E+00;  9.9999998E-03;  7.0728332E-02;9665;  1.4240861E+00;  0.0000000E+00;  8.1858300E-03;  9.9941199E+02;  1.1358864E-01; -4.4431335E+02;3; -3.2263935E+01;  0.0000000E+00; -5.1157265E+00;0;  1.7251318E+00;  3.1802277E+04;  0.0000000E+00; -5.6683928E-01;  4.0000000E+04;  0.0000000E+00;  3.8929688E+04;  1.7050270E+00;  0.0000000E+00;  2.0104788E-02;  3.0534761E+03;
  1.5064383E+00;  9.9999998E-03;  2.3342279E-01;9728;  1.1779320E+00;  0.0000000E+00;  3.9268997E-03;  9.9683655E+02;  1.1311818E-01; -2.3688113E+03;3; -1.6614549E+02;  0.0000000E+00;  1.1698798E+01;0;  1.9785755E+00;  3.1905918E+04;  0.0000000E+00;  2.5150862E+01;  4.0000000E+04;  0.0000000E+00;  3.8922078E+04;  1.9634706E+00;  0.0000000E+00;  1.5104912E-02;  9.9532129E+03;
  1.5068040E+00;  9.9999998E-03;  2.2337888E-01;9727;  1.2151545E+00;  0.0000000E+00;  3.4422374E-03;  9.9536243E+02;  1.1312405E-01; -3.4710186E+03;3; -1.5935197E+02;  0.0000000E+00;  8.3551664E+00;0;  2.1831639E+00;  3.1822115E+04;  0.0000000E+00;  6.1533487E-01;  4.0000000E+04;  0.0000000E+00;  3.8916012E+04;  2.2402143E+00;  0.0000000E+00; -5.7050429E-02;  2.2315229E+03;
  1.5070478E+00;  9.9999998E-03;  2.1331753E-01;9726;  1.2463824E+00;  0.0000000E+00;  4.4023343E-03;  9.9457404E+02;  1.1312313E-01; -4.0598108E+03;3; -1.4964131E+02;  0.0000000E+00;  6.9122968E+00;0;  2.3176534E+00;  3.1781533E+04;  0.0000000E+00; -3.2907958E+00;  4.0000000E+04;  0.0000000E+00;  3.8908461E+04;  2.4206233E+00;  0.0000000E+00; -1.0296977E-01;  2.2171951E+03;
  1.5072955E+00;  9.9999998E-03;  2.0324601E-01;9725;  1.2759912E+00;  0.0000000E+00;  4.7659939E-03;  9.9346283E+02;  1.1312413E-01; -4.8896646E+03;3; -1.3920909E+02;  0.0000000E+00;  5.0528922E+00;0;  2.4005587E+00;  3.1725953E+04;  0.0000000E+00;  6.6954827E+00;  4.0000000E+04;  0.0000000E+00;  3.8893082E+04;  2.5472713E+00;  0.0000000E+00; -1.4671251E-01;  9.0225469E+03;
  1.5075641E+00;  9.9999998E-03;  1.9316417E-01;9724;  1.3058006E+00;  0.0000000E+00;  4.8625860E-03;  9.9232703E+02;  1.1312472E-01; -5.7371870E+03;3; -1.2876707E+02;  0.0000000E+00;  2.0022626E+00;0;  2.4516141E+00;  3.1674018E+04;  0.0000000E+00;  1.9886286E+01;  4.0000000E+04;  0.0000000E+00;  3.8872547E+04;  2.6315618E+00;  0.0000000E+00; -1.7994769E-01;  1.7940104E+04;
  1.5078260E+00;  9.9999998E-03;  1.8306282E-01;9723;  1.3340485E+00;  0.0000000E+00;  5.0534364E-03;  9.9176111E+02;  1.1312325E-01; -6.1582505E+03;3; -1.1839493E+02;  0.0000000E+00; -1.0729398E+00;0;  2.4598322E+00;  3.1657021E+04;  0.0000000E+00;  3.1130495E+01;  4.0000000E+04;  0.0000000E+00;  3.8854516E+04;  2.6579547E+00;  0.0000000E+00; -1.9812253E-01;  2.5102461E+04;
  1.5080566E+00;  9.9999998E-03;  1.7292532E-01;9722;  1.3597436E+00;  0.0000000E+00;  5.8088521E-03;  9.9205231E+02;  1.1311740E-01; -5.9387788E+03;3; -1.0651160E+02;  0.0000000E+00; -3.5149760E+00;0;  2.4275608E+00;  3.1686375E+04;  0.0000000E+00;  3.8973743E+01;  4.0000000E+04;  0.0000000E+00;  3.8845883E+04;  2.6271694E+00;  0.0000000E+00; -1.9960850E-01;  2.9618494E+04;
  1.5082386E+00;  9.9999998E-03;  1.6272794E-01;9721;  1.3821148E+00;  0.0000000E+00;  6.8396619E-03;  9.9319904E+02;  1.1310788E-01; -5.0806899E+03;3; -9.4726997E+01;  0.0000000E+00; -5.8627281E+00;0;  2.3594415E+00;  3.1757891E+04;  0.0000000E+00;  4.3386440E+01;  4.0000000E+04;  0.0000000E+00;  3.8851215E+04;  2.5489464E+00;  0.0000000E+00; -1.8950482E-01;  3.1599080E+04;
  1.5083747E+00;  9.9999998E-03;  1.5244690E-01;9720;  1.3999766E+00;  0.0000000E+00;  8.3575230E-03;  9.9489001E+02;  1.1309609E-01; -3.8167488E+03;3; -8.1863899E+01;  0.0000000E+00; -7.5672770E+00;0;  2.2642517E+00;  3.1853475E+04;  0.0000000E+00;  4.4404778E+01;  4.0000000E+04;  0.0000000E+00;  3.8869262E+04;  2.4340320E+00;  0.0000000E+00; -1.6978024E-01;  3.1283256E+04;
  1.5085121E+00;  9.9999998E-03;  1.4209972E-01;9719;  1.4124951E+00;  0.0000000E+00;  9.8994067E-03;  9.9653516E+02;  1.1308603E-01; -2.5874839E+03;3; -6.8945358E+01;  0.0000000E+00; -8.4792261E+00;0;  2.1520998E+00;  3.1946479E+04;  0.0000000E+00;  4.1300526E+01;  4.0000000E+04;  0.0000000E+00;  3.8887184E+04;  2.2967944E+00;  0.0000000E+00; -1.4469448E-01;  2.8495236E+04;
  1.5087106E+00;  9.9999998E-03;  1.3174672E-01;9718;  1.4203956E+00;  0.0000000E+00;  1.1226047E-02;  9.9767719E+02;  1.1307716E-01; -1.7341803E+03;3; -5.7197922E+01;  0.0000000E+00; -8.1396198E+00;0;  2.0385180E+00;  3.2018178E+04;  0.0000000E+00;  3.4432896E+01;  4.0000000E+04;  0.0000000E+00;  3.8892336E+04;  2.1547408E+00;  0.0000000E+00; -1.1622279E-01;  2.3620867E+04;
  1.5090011E+00;  9.9999998E-03;  1.2144480E-01;9717;  1.4253707E+00;  0.0000000E+00;  1.2251272E-02;  9.9823889E+02;  1.1306709E-01; -1.3143049E+03;3; -4.7430763E+01;  0.0000000E+00; -7.1775255E+00;0;  1.9355593E+00;  3.2065789E+04;  0.0000000E+00;  2.5759323E+01;  4.0000000E+04;  0.0000000E+00;  3.8883660E+04;  2.0209169E+00;  0.0000000E+00; -8.5357673E-02;  1.7867398E+04;
  1.5093578E+00;  9.9999998E-03;  1.1122201E-01;9716;  1.4296358E+00;  0.0000000E+00;  1.3072998E-02;  9.9846820E+02;  1.1305948E-01; -1.1426381E+03;3; -3.9814030E+01;  0.0000000E+00; -5.9199114E+00;0;  1.8496653E+00;  3.2097361E+04;  0.0000000E+00;  1.7393007E+01;  4.0000000E+04;  0.0000000E+00;  3.8868379E+04;  1.9025106E+00;  0.0000000E+00; -5.2845381E-02;  1.2495155E+04;
  1.5097096E+00;  9.9999998E-03;  1.0106691E-01;9715;  1.4334922E+00;  0.0000000E+00;  1.3741994E-02;  9.9862616E+02;  1.1305246E-01; -1.0243339E+03;3; -3.4027603E+01;  0.0000000E+00; -4.6437669E+00;0;  1.7788812E+00;  3.2122527E+04;  0.0000000E+00;  1.0614463E+01;  4.0000000E+04;  0.0000000E+00;  3.8853566E+04;  1.7986903E+00;  0.0000000E+00; -1.9809073E-02;  8.2944844E+03;
  1.5099906E+00;  9.9999998E-03;  9.0954103E-02;9714;  1.4361963E+00;  0.0000000E+00;  1.4243090E-02;  9.9881451E+02;  1.1304604E-01; -8.8356750E+02;3; -2.9729813E+01;  0.0000000E+00; -3.9722388E+00;0;  1.7192781E+00;  3.2145664E+04;  0.0000000E+00;  5.7130461E+00;  4.0000000E+04;  0.0000000E+00;  3.8843781E+04;  1.7068145E+00;  0.0000000E+00;  1.2463529E-02;  5.4988428E+03;
  1.5101733E+00;  9.9999998E-03;  8.0863908E-02;9713;  1.4374130E+00;  0.0000000E+00;  1.4529210E-02;  9.9903894E+02;  1.1304212E-01; -7.1613287E+02;3; -2.6810005E+01;  0.0000000E+00; -3.3039310E+00;0;  1.6683146E+00;  3.2164809E+04;  0.0000000E+00;  2.4659657E+00;  4.0000000E+04;  0.0000000E+00;  3.8839637E+04;  1.6255752E+00;  0.0000000E+00;  4.2739440E-02;  3.9909629E+03;
  1.5102545E+00;  9.9999998E-03;  7.0782520E-02;9712;  1.4372369E+00;  0.0000000E+00;  1.4474161E-02;  9.9925061E+02;  1.1304036E-01; -5.5835773E+02;3; -2.5013269E+01;  0.0000000E+00; -2.4423223E+00;0;  1.6244479E+00;  3.2178037E+04;  0.0000000E+00;  5.2541381E-01;  4.0000000E+04;  0.0000000E+00;  3.8839895E+04;  1.5544138E+00;  0.0000000E+00;  7.0034184E-02;  3.3676743E+03;
  1.5177263E+00;  9.9999998E-03;  2.2356065E-01;9773;  1.2380149E+00;  0.0000000E+00;  1.0995298E-02;  9.9737158E+02;  1.1264090E-01; -1.9381250E+03;3; -1.5824670E+02;  0.0000000E+00;  9.6068077E+00;0;  2.0585268E+00;  3.2278777E+04;  0.0000000E+00;  2.6649473E+01;  4.0000000E+04;  0.0000000E+00;  3.8843461E+04;  2.0711060E+00;  0.0000000E+00; -1.2579186E-02;  1.0138416E+04;
  1.5180539E+00;  9.9999998E-03;  2.1351731E-01;9772;  1.2725511E+00;  0.0000000E+00;  1.0678528E-02;  9.9595160E+02;  1.1264719E-01; -2.9837429E+03;3; -1.5113998E+02;  0.0000000E+00;  6.5209603E+00;0;  2.2156043E+00;  3.2203146E+04;  0.0000000E+00;  1.2041718E-01;  4.0000000E+04;  0.0000000E+00;  3.8829023E+04;  2.2927651E+00;  0.0000000E+00; -7.7160753E-02;  2.1544114E+03;
  1.5182695E+00;  9.9999998E-03;  2.0345360E-01;9771;  1.3013142E+00;  0.0000000E+00;  1.1485533E-02;  9.9525079E+02;  1.1264727E-01; -3.4991306E+03;3; -1.4126672E+02;  0.0000000E+00;  4.7188215E+00;0;  2.3066933E+00;  3.2171922E+04;  0.0000000E+00; -5.2042222E+00;  4.0000000E+04;  0.0000000E+00;  3.8815211E+04;  2.4252229E+00;  0.0000000E+00; -1.1852955E-01;  1.7614424E+03;
  1.5184814E+00;  9.9999998E-03;  1.9337864E-01;9770;  1.3279775E+00;  0.0000000E+00;  1.1992822E-02;  9.9432861E+02;  1.1264767E-01; -4.1773125E+03;3; -1.3073647E+02;  0.0000000E+00;  2.8936887E+00;0;  2.3532262E+00;  3.2131393E+04;  0.0000000E+00;  3.7610207E+00;  4.0000000E+04;  0.0000000E+00;  3.8794738E+04;  2.5059299E+00;  0.0000000E+00; -1.5270373E-01;  6.1879663E+03;
  1.5187098E+00;  9.9999998E-03;  1.8329230E-01;9769;  1.3543903E+00;  0.0000000E+00;  1.2565581E-02;  9.9337396E+02;  1.1264796E-01; -4.8788315E+03;3; -1.1920754E+02;  0.0000000E+00;  8.6261773E-01;0;  2.3756196E+00;  3.2093633E+04;  0.0000000E+00;  1.6641495E+01;  4.0000000E+04;  0.0000000E+00;  3.8770066E+04;  2.5488648E+00;  0.0000000E+00; -1.7324513E-01;  1.3942455E+04;
  1.5189377E+00;  9.9999998E-03;  1.7318444E-01;9768;  1.3791430E+00;  0.0000000E+00;  1.3354335E-02;  9.9290491E+02;  1.1264706E-01; -5.2224932E+03;3; -1.0784061E+02;  0.0000000E+00; -1.9582360E+00;0;  2.3631215E+00;  3.2083359E+04;  0.0000000E+00;  2.7916298E+01;  4.0000000E+04;  0.0000000E+00;  3.8749586E+04;  2.5418098E+00;  0.0000000E+00; -1.7868817E-01;  2.0352531E+04;
  1.5191483E+00;  9.9999998E-03;  1.6303499E-01;9767;  1.4007142E+00;  0.0000000E+00;  1.4659185E-02;  9.9317792E+02;  1.1264208E-01; -5.0200088E+03;3; -9.5202393E+01;  0.0000000E+00; -4.2301350E+00;0;  2.3119617E+00;  3.2110447E+04;  0.0000000E+00;  3.5995323E+01;  4.0000000E+04;  0.0000000E+00;  3.8741887E+04;  2.4812603E+00;  0.0000000E+00; -1.6929854E-01;  2.4536705E+04;
  1.5193363E+00;  9.9999998E-03;  1.5282461E-01;9766;  1.4184760E+00;  0.0000000E+00;  1.6518477E-02;  9.9413391E+02;  1.1263567E-01; -4.3153550E+03;3; -8.1844063E+01;  0.0000000E+00; -6.9020014E+00;0;  2.2302775E+00;  3.2169076E+04;  0.0000000E+00;  4.0548199E+01;  4.0000000E+04;  0.0000000E+00;  3.8748668E+04;  2.3782785E+00;  0.0000000E+00; -1.4800106E-01;  2.6426969E+04;
  1.5195050E+00;  9.9999998E-03;  1.4254503E-01;9765;  1.4317394E+00;  0.0000000E+00;  1.8489948E-02;  9.9549042E+02;  1.1262593E-01; -3.3166055E+03;3; -6.8112930E+01;  0.0000000E+00; -7.4197922E+00;0;  2.1257813E+00;  3.2245611E+04;  0.0000000E+00;  4.1530708E+01;  4.0000000E+04;  0.0000000E+00;  3.8764715E+04;  2.2458031E+00;  0.0000000E+00; -1.2002183E-01;  2.6187592E+04;
  1.5196784E+00;  9.9999998E-03;  1.3221386E-01;9764;  1.4400012E+00;  0.0000000E+00;  2.0047173E-02;  9.9683002E+02;  1.1261719E-01; -2.3307798E+03;3; -5.5678097E+01;  0.0000000E+00; -7.4336286E+00;0;  2.0091960E+00;  3.2321705E+04;  0.0000000E+00;  3.8781811E+01;  4.0000000E+04;  0.0000000E+00;  3.8780219E+04;  2.0975759E+00;  0.0000000E+00; -8.8379882E-02;  2.3944650E+04;
  1.5198866E+00;  9.9999998E-03;  1.2187051E-01;9763;  1.4439108E+00;  0.0000000E+00;  2.1117708E-02;  9.9783099E+02;  1.1260851E-01; -1.5943268E+03;3; -4.5007309E+01;  0.0000000E+00; -6.5050554E+00;0;  1.8945839E+00;  3.2383758E+04;  0.0000000E+00;  3.2905571E+01;  4.0000000E+04;  0.0000000E+00;  3.8786992E+04;  1.9486619E+00;  0.0000000E+00; -5.4078031E-02;  2.0158732E+04;
  1.5201496E+00;  9.9999998E-03;  1.1156134E-01;9762;  1.4451805E+00;  0.0000000E+00;  2.1496259E-02;  9.9837817E+02;  1.1260071E-01; -1.1916686E+03;3; -3.6550224E+01;  0.0000000E+00; -3.9458251E+00;0;  1.7930290E+00;  3.2426010E+04;  0.0000000E+00;  2.5294172E+01;  4.0000000E+04;  0.0000000E+00;  3.8783195E+04;  1.8114915E+00;  0.0000000E+00; -1.8462498E-02;  1.5620676E+04;
  1.5204574E+00;  9.9999998E-03;  1.0131716E-01;9761;  1.4459019E+00;  0.0000000E+00;  2.1334972E-02;  9.9861365E+02;  1.1259684E-01; -1.0181700E+03;3; -3.0007555E+01;  0.0000000E+00; -1.9916272E+00;0;  1.7106521E+00;  3.2452473E+04;  0.0000000E+00;  1.7597609E+01;  4.0000000E+04;  0.0000000E+00;  3.8772414E+04;  1.6928831E+00;  0.0000000E+00;  1.7769005E-02;  1.1216928E+04;
  1.5207629E+00;  9.9999998E-03;  9.1133967E-02;9760;  1.4464617E+00;  0.0000000E+00;  2.0937465E-02;  9.9868726E+02;  1.1258946E-01; -9.6367065E+02;3; -2.5264027E+01;  0.0000000E+00; -4.8813492E-01;0;  1.6449203E+00;  3.2470998E+04;  0.0000000E+00;  1.1086533E+01;  4.0000000E+04;  0.0000000E+00;  3.8760707E+04;  1.5913872E+00;  0.0000000E+00;  5.3533208E-02;  7.6382280E+03;
  1.5210203E+00;  9.9999998E-03;  8.0990434E-02;9759;  1.4470030E+00;  0.0000000E+00;  2.0419585E-02;  9.9879620E+02;  1.1258665E-01; -8.8334735E+02;3; -2.1896561E+01;  0.0000000E+00;  7.7819926E-01;0;  1.5922484E+00;  3.2486598E+04;  0.0000000E+00;  6.2335858E+00;  4.0000000E+04;  0.0000000E+00;  3.8752230E+04;  1.5048606E+00;  0.0000000E+00;  8.7387741E-02;  5.1748940E+03;
  1.5211926E+00;  9.9999998E-03;  7.0868410E-02;9758;  1.4470299E+00;  0.0000000E+00;  1.9629108E-02;  9.9896649E+02;  1.1258492E-01; -7.5819110E+02;3; -1.9666653E+01;  0.0000000E+00;  1.7340719E+00;0;  1.5485593E+00;  3.2500703E+04;  0.0000000E+00;  2.9719098E+00;  4.0000000E+04;  0.0000000E+00;  3.8748410E+04;  1.4306245E+00;  0.0000000E+00;  1.1793485E-01;  3.8051260E+03;
  1.5289298E+00;  9.9999998E-03;  2.1368659E-01;9816;  1.2919207E+00;  0.0000000E+00;  1.9264849E-02;  9.9804352E+02;  1.1223704E-01; -1.4182335E+03;3; -1.4841232E+02;  0.0000000E+00;  7.4386530E+00;0;  2.0537133E+00;  3.2626854E+04;  0.0000000E+00;  2.9921888E+01;  4.0000000E+04;  0.0000000E+00;  3.8759934E+04;  2.0682898E+00;  0.0000000E+00; -1.4576527E-02;  1.0731123E+04;
  1.5292319E+00;  9.9999998E-03;  2.0364328E-01;9815;  1.3241839E+00;  0.0000000E+00;  1.8813951E-02;  9.9660938E+02;  1.1224358E-01; -2.4566506E+03;3; -1.4050053E+02;  0.0000000E+00;  4.9476585E+00;0;  2.1778316E+00;  3.2555832E+04;  0.0000000E+00;  9.7699523E-01;  4.0000000E+04;  0.0000000E+00;  3.8736812E+04;  2.2541928E+00;  0.0000000E+00; -7.6361209E-02;  2.0727493E+03;
  1.5294285E+00;  9.9999998E-03;  1.9357471E-01;9814;  1.3512447E+00;  0.0000000E+00;  1.9366147E-02;  9.9599976E+02;  1.1224509E-01; -2.8974434E+03;3; -1.3061201E+02;  0.0000000E+00;  3.1065283E+00;0;  2.2466843E+00;  3.2533191E+04;  0.0000000E+00; -6.9135132E+00;  4.0000000E+04;  0.0000000E+00;  3.8718207E+04;  2.3612189E+00;  0.0000000E+00; -1.1453462E-01;  2.0949285E+03;
  1.5296129E+00;  9.9999998E-03;  1.8349139E-01;9813;  1.3753191E+00;  0.0000000E+00;  2.0028071E-02;  9.9528864E+02;  1.1224550E-01; -3.4115220E+03;3; -1.1964362E+02;  0.0000000E+00;  1.1719193E+00;0;  2.2730746E+00;  3.2508039E+04;  0.0000000E+00; -4.6075289E-03;  4.0000000E+04;  0.0000000E+00;  3.8694520E+04;  2.4122121E+00;  0.0000000E+00; -1.3913757E-01;  3.3479109E+03;
  1.5298100E+00;  9.9999998E-03;  1.7339532E-01;9812;  1.3983794E+00;  0.0000000E+00;  2.0953413E-02;  9.9453558E+02;  1.1224442E-01; -3.9555439E+03;3; -1.0777674E+02;  0.0000000E+00; -1.2321119E+00;0;  2.2784336E+00;  3.2484396E+04;  0.0000000E+00;  1.1758306E+01;  4.0000000E+04;  0.0000000E+00;  3.8667559E+04;  2.4263768E+00;  0.0000000E+00; -1.4794327E-01;  9.6870166E+03;
  1.5300113E+00;  9.9999998E-03;  1.6327649E-01;9811;  1.4195879E+00;  0.0000000E+00;  2.2586465E-02;  9.9415527E+02;  1.1224383E-01; -4.2294385E+03;3; -9.4253036E+01;  0.0000000E+00; -3.1291761E+00;0;  2.2581642E+00;  3.2480354E+04;  0.0000000E+00;  2.2646894E+01;  4.0000000E+04;  0.0000000E+00;  3.8646090E+04;  2.3972239E+00;  0.0000000E+00; -1.3905968E-01;  1.5213775E+04;
  1.5302063E+00;  9.9999998E-03;  1.5311846E-01;9810;  1.4375827E+00;  0.0000000E+00;  2.4749916E-02;  9.9436615E+02;  1.1224134E-01; -4.0755496E+03;3; -8.0985283E+01;  0.0000000E+00; -5.7870398E+00;0;  2.2053359E+00;  3.2504129E+04;  0.0000000E+00;  3.0684662E+01;  4.0000000E+04;  0.0000000E+00;  3.8636629E+04;  2.3222296E+00;  0.0000000E+00; -1.1689372E-01;  1.8962691E+04;
  1.5303890E+00;  9.9999998E-03;  1.4290482E-01;9809;  1.4511423E+00;  0.0000000E+00;  2.7016133E-02;  9.9512946E+02;  1.1223536E-01; -3.5223315E+03;3; -6.7143326E+01;  0.0000000E+00; -6.2721386E+00;0;  2.1191278E+00;  3.2552695E+04;  0.0000000E+00;  3.5521019E+01;  4.0000000E+04;  0.0000000E+00;  3.8641324E+04;  2.2061901E+00;  0.0000000E+00; -8.7062456E-02;  2.0847025E+04;
  1.5305654E+00;  9.9999998E-03;  1.3263331E-01;9808;  1.4598111E+00;  0.0000000E+00;  2.8878961E-02;  9.9620245E+02;  1.1222834E-01; -2.7455569E+03;3; -5.4482479E+01;  0.0000000E+00; -6.2329779E+00;0;  2.0099728E+00;  3.2613637E+04;  0.0000000E+00;  3.6941059E+01;  4.0000000E+04;  0.0000000E+00;  3.8653836E+04;  2.0629528E+00;  0.0000000E+00; -5.2979883E-02;  2.0920348E+04;
  1.5307472E+00;  9.9999998E-03;  1.2231570E-01;9807;  1.4634700E+00;  0.0000000E+00;  3.0185845E-02;  9.9727277E+02;  1.1221998E-01; -1.9711483E+03;3; -4.3073627E+01;  0.0000000E+00; -4.7504492E+00;0;  1.8903719E+00;  3.2675012E+04;  0.0000000E+00;  3.5089836E+01;  4.0000000E+04;  0.0000000E+00;  3.8667500E+04;  1.9064397E+00;  0.0000000E+00; -1.6067686E-02;  1.9410346E+04;
  1.5309498E+00;  9.9999998E-03;  1.1198138E-01;9806;  1.4632854E+00;  0.0000000E+00;  3.0397350E-02;  9.9810632E+02;  1.1221258E-01; -1.3682583E+03;3; -3.3696953E+01;  0.0000000E+00; -1.7496778E+00;0;  1.7745868E+00;  3.2725295E+04;  0.0000000E+00;  3.0495340E+01;  4.0000000E+04;  0.0000000E+00;  3.8675852E+04;  1.7531550E+00;  0.0000000E+00;  2.1431854E-02;  1.6684354E+04;
  1.5311831E+00;  9.9999998E-03;  1.0167140E-01;9805;  1.4611385E+00;  0.0000000E+00;  2.9506063E-02;  9.9859796E+02;  1.1220821E-01; -1.0126187E+03;3; -2.6377356E+01;  0.0000000E+00;  5.7396758E-01;0;  1.6746348E+00;  3.2759604E+04;  0.0000000E+00;  2.4141975E+01;  4.0000000E+04;  0.0000000E+00;  3.8675301E+04;  1.6156384E+00;  0.0000000E+00;  5.8996424E-02;  1.3269760E+04;
  1.5314366E+00;  9.9999998E-03;  9.1410421E-02;9804;  1.4586024E+00;  0.0000000E+00;  2.7872479E-02;  9.9878918E+02;  1.1220440E-01; -8.7415198E+02;3; -2.1313452E+01;  0.0000000E+00;  2.6509526E+00;0;  1.5950667E+00;  3.2780219E+04;  0.0000000E+00;  1.7420536E+01;  4.0000000E+04;  0.0000000E+00;  3.8668730E+04;  1.4991207E+00;  0.0000000E+00;  9.5945954E-02;  9.8383145E+03;
  1.5316886E+00;  9.9999998E-03;  8.1186458E-02;9803;  1.4565290E+00;  0.0000000E+00;  2.5865331E-02;  9.9883618E+02;  1.1220141E-01; -8.3989526E+02;3; -1.8004492E+01;  0.0000000E+00;  4.2290397E+00;0;  1.5342476E+00;  3.2791328E+04;  0.0000000E+00;  1.1566780E+01;  4.0000000E+04;  0.0000000E+00;  3.8661227E+04;  1.4030266E+00;  0.0000000E+00;  1.3122103E-01;  6.9588047E+03;
  1.5319111E+00;  9.9999998E-03;  7.0987798E-02;9802;  1.4552543E+00;  0.0000000E+00;  2.3059778E-02;  9.9886365E+02;  1.1220014E-01; -8.1976562E+02;3; -1.5732467E+01;  0.0000000E+00;  5.4034929E+00;0;  1.4878361E+00;  3.2798145E+04;  0.0000000E+00;  7.0673738E+00;  4.0000000E+04;  0.0000000E+00;  3.8656074E+04;  1.3248488E+00;  0.0000000E+00;  1.6298734E-01;  4.8667236E+03;
  1.5400594E+00;  9.9999998E-03;  2.0379481E-01;9857;  1.3410031E+00;  0.0000000E+00;  2.8014086E-02;  9.9884448E+02;  1.1189809E-01; -8.2206555E+02;3; -1.3557730E+02;  0.0000000E+00;  5.7676339E+00;0;  2.0001075E+00;  3.2952559E+04;  0.0000000E+00;  3.5731049E+01;  4.0000000E+04;  0.0000000E+00;  3.8672309E+04;  2.0016792E+00;  0.0000000E+00; -1.5716620E-03;  1.1882401E+04;
  1.5403466E+00;  9.9999998E-03;  1.9374952E-01;9856;  1.3705380E+00;  0.0000000E+00;  2.7623940E-02;  9.9735803E+02;  1.1190506E-01; -1.8786531E+03;3; -1.2758578E+02;  0.0000000E+00;  3.4446838E+00;0;  2.1009245E+00;  3.2884070E+04;  0.0000000E+00;  3.9885898E+00;  4.0000000E+04;  0.0000000E+00;  3.8641027E+04;  2.1577239E+00;  0.0000000E+00; -5.6799479E-02;  2.2728267E+03;
  1.5405344E+00;  9.9999998E-03;  1.8367228E-01;9855;  1.3961009E+00;  0.0000000E+00;  2.8221337E-02;  9.9679926E+02;  1.1190614E-01; -2.2752434E+03;3; -1.1739838E+02;  0.0000000E+00;  1.0825658E+00;0;  2.1669850E+00;  3.2867980E+04;  0.0000000E+00; -7.6740341E+00;  4.0000000E+04;  0.0000000E+00;  3.8618668E+04;  2.2540324E+00;  0.0000000E+00; -8.7047227E-02;  2.4930085E+03;
  1.5407017E+00;  9.9999998E-03;  1.7357600E-01;9854;  1.4185015E+00;  0.0000000E+00;  2.9411789E-02;  9.9629004E+02;  1.1190563E-01; -2.6364241E+03;3; -1.0545548E+02;  0.0000000E+00; -8.3496398E-01;0;  2.1983855E+00;  3.2856570E+04;  0.0000000E+00; -4.1919274E+00;  4.0000000E+04;  0.0000000E+00;  3.8594000E+04;  2.2966132E+00;  0.0000000E+00; -9.8227739E-02;  8.8018719E+02;
  1.5408757E+00;  9.9999998E-03;  1.6346532E-01;9853;  1.4380926E+00;  0.0000000E+00;  3.0850228E-02;  9.9576282E+02;  1.1190517E-01; -3.0101416E+03;3; -9.2669525E+01;  0.0000000E+00; -2.0414205E+00;0;  2.1959631E+00;  3.2846594E+04;  0.0000000E+00;  5.4218397E+00;  4.0000000E+04;  0.0000000E+00;  3.8566785E+04;  2.2904842E+00;  0.0000000E+00; -9.4521150E-02;  5.4434336E+03;
  1.5410553E+00;  9.9999998E-03;  1.5333281E-01;9852;  1.4552778E+00;  0.0000000E+00;  3.2745551E-02;  9.9547815E+02;  1.1190370E-01; -3.2113501E+03;3; -7.9600563E+01;  0.0000000E+00; -4.3263130E+00;0;  2.1696014E+00;  3.2849242E+04;  0.0000000E+00;  1.5355084E+01;  4.0000000E+04;  0.0000000E+00;  3.8544387E+04;  2.2452328E+00;  0.0000000E+00; -7.5631365E-02;  9.9673271E+03;
  1.5412347E+00;  9.9999998E-03;  1.4316557E-01;9851;  1.4690193E+00;  0.0000000E+00;  3.4950558E-02;  9.9562384E+02;  1.1190161E-01; -3.1069026E+03;3; -6.6166153E+01;  0.0000000E+00; -5.0220981E+00;0;  2.1133976E+00;  3.2870469E+04;  0.0000000E+00;  2.3191090E+01;  4.0000000E+04;  0.0000000E+00;  3.8532746E+04;  2.1593442E+00;  0.0000000E+00; -4.5946594E-02;  1.3270469E+04;
  1.5414091E+00;  9.9999998E-03;  1.3294944E-01;9850;  1.4783812E+00;  0.0000000E+00;  3.6965117E-02;  9.9619586E+02;  1.1189774E-01; -2.6999485E+03;3; -5.3085648E+01;  0.0000000E+00; -4.7029257E+00;0;  2.0270593E+00;  3.2909172E+04;  0.0000000E+00;  2.8360758E+01;  4.0000000E+04;  0.0000000E+00;  3.8534070E+04;  2.0373018E+00;  0.0000000E+00; -1.0242486E-02;  1.5165225E+04;
  1.5415808E+00;  9.9999998E-03;  1.2268233E-01;9849;  1.4830576E+00;  0.0000000E+00;  3.8474724E-02;  9.9702075E+02;  1.1189215E-01; -2.1138171E+03;3; -4.1233391E+01;  0.0000000E+00; -3.3448789E+00;0;  1.9195112E+00;  3.2957320E+04;  0.0000000E+00;  3.0608128E+01;  4.0000000E+04;  0.0000000E+00;  3.8543594E+04;  1.8908180E+00;  0.0000000E+00;  2.8693162E-02;  1.5659265E+04;
  1.5417565E+00;  9.9999998E-03;  1.1237671E-01;9848;  1.4831034E+00;  0.0000000E+00;  3.8881596E-02;  9.9785284E+02;  1.1188675E-01; -1.5229601E+03;3; -3.0877995E+01;  0.0000000E+00; -2.7075738E-01;0;  1.8002645E+00;  3.3004750E+04;  0.0000000E+00;  2.9927462E+01;  4.0000000E+04;  0.0000000E+00;  3.8554441E+04;  1.7324994E+00;  0.0000000E+00;  6.7765124E-02;  1.4881335E+04;
  1.5419432E+00;  9.9999998E-03;  1.0205696E-01;9847;  1.4797007E+00;  0.0000000E+00;  3.7891742E-02;  9.9850696E+02;  1.1188185E-01; -1.0586538E+03;3; -2.2662142E+01;  0.0000000E+00;  2.5457740E+00;0;  1.6841469E+00;  3.3043305E+04;  0.0000000E+00;  2.6721476E+01;  4.0000000E+04;  0.0000000E+00;  3.8561648E+04;  1.5782385E+00;  0.0000000E+00;  1.0590834E-01;  1.3098486E+04;
  1.5421423E+00;  9.9999998E-03;  9.1752611E-02;9846;  1.4747089E+00;  0.0000000E+00;  3.5536095E-02;  9.9889160E+02;  1.1187873E-01; -7.8564807E+02;3; -1.7114437E+01;  0.0000000E+00;  5.1974473E+00;0;  1.5838466E+00;  3.3069266E+04;  0.0000000E+00;  2.1821974E+01;  4.0000000E+04;  0.0000000E+00;  3.8562555E+04;  1.4414958E+00;  0.0000000E+00;  1.4235084E-01;  1.0715442E+04;
  1.5423484E+00;  9.9999998E-03;  8.1464522E-02;9845;  1.4695795E+00;  0.0000000E+00;  3.2087915E-02;  9.9904974E+02;  1.1187632E-01; -6.7331415E+02;3; -1.3739118E+01;  0.0000000E+00;  7.1461978E+00;0;  1.5041155E+00;  3.3083156E+04;  0.0000000E+00;  1.6567560E+01;  4.0000000E+04;  0.0000000E+00;  3.8560969E+04;  1.3275852E+00;  0.0000000E+00;  1.7653020E-01;  8.2796152E+03;
  1.5425497E+00;  9.9999998E-03;  7.1185976E-02;9844;  1.4657342E+00;  0.0000000E+00;  2.6565557E-02;  9.9909070E+02;  1.1187518E-01; -6.4406708E+02;3; -1.1306440E+01;  0.0000000E+00;  6.6771822E+00;0;  1.4449120E+00;  3.3087762E+04;  0.0000000E+00;  1.1867944E+01;  4.0000000E+04;  0.0000000E+00;  3.8559176E+04;  1.2386694E+00;  0.0000000E+00;  2.0624255E-01;  6.1503569E+03;
  1.5514063E+00;  9.9999998E-03;  1.8382762E-01;9894;  1.4116969E+00;  0.0000000E+00;  3.6800861E-02;  9.9818164E+02;  1.1162218E-01; -1.2668356E+03;3; -1.1189030E+02;  0.0000000E+00;  1.7923244E+00;0;  2.0086961E+00;  3.3190535E+04;  0.0000000E+00;  1.0653394E+01;  4.0000000E+04;  0.0000000E+00;  3.8542172E+04;  2.0271821E+00;  0.0000000E+00; -1.8485997E-02;  3.5226433E+03;
  1.5515960E+00;  9.9999998E-03;  1.7374016E-01;9893;  1.4350054E+00;  0.0000000E+00;  3.7433188E-02;  9.9761249E+02;  1.1162451E-01; -1.6627594E+03;3; -1.0142886E+02;  0.0000000E+00; -4.4740587E-03;0;  2.0742564E+00;  3.3176125E+04;  0.0000000E+00; -6.0591083E+00;  4.0000000E+04;  0.0000000E+00;  3.8516434E+04;  2.1135898E+00;  0.0000000E+00; -3.9333299E-02;  2.2957812E+03;
  1.5517546E+00;  9.9999998E-03;  1.6362755E-01;9892;  1.4544773E+00;  0.0000000E+00;  3.8691547E-02;  9.9729028E+02;  1.1162353E-01; -1.8865892E+03;3; -8.9448418E+01;  0.0000000E+00; -1.4309244E+00;0;  2.1051059E+00;  3.3176117E+04;  0.0000000E+00; -7.5352597E+00;  4.0000000E+04;  0.0000000E+00;  3.8492719E+04;  2.1450212E+00;  0.0000000E+00; -3.9915219E-02;  1.3727893E+03;
  1.5519120E+00;  9.9999998E-03;  1.5349680E-01;9891;  1.4707593E+00;  0.0000000E+00;  4.0020473E-02;  9.9699365E+02;  1.1162185E-01; -2.0924475E+03;3; -7.7172882E+01;  0.0000000E+00; -2.9550343E+00;0;  2.1044683E+00;  3.3178762E+04;  0.0000000E+00; -1.2057995E+00;  4.0000000E+04;  0.0000000E+00;  3.8468316E+04;  2.1314514E+00;  0.0000000E+00; -2.6982950E-02;  1.7862780E+03;
  1.5520750E+00;  9.9999998E-03;  1.4334662E-01;9890;  1.4841906E+00;  0.0000000E+00;  4.1903973E-02;  9.9681641E+02;  1.1162063E-01; -2.2151260E+03;3; -6.4143623E+01;  0.0000000E+00; -3.8297632E+00;0;  2.0823560E+00;  3.3187070E+04;  0.0000000E+00;  7.0396175E+00;  4.0000000E+04;  0.0000000E+00;  3.8446754E+04;  2.0812843E+00;  0.0000000E+00;  1.0715948E-03;  5.2173174E+03;
  1.5522397E+00;  9.9999998E-03;  1.3316686E-01;9889;  1.4940063E+00;  0.0000000E+00;  4.3744352E-02;  9.9690973E+02;  1.1161784E-01; -2.1494946E+03;3; -5.1541576E+01;  0.0000000E+00; -4.0738707E+00;0;  2.0308392E+00;  3.3206645E+04;  0.0000000E+00;  1.4313281E+01;  4.0000000E+04;  0.0000000E+00;  3.8433508E+04;  1.9937143E+00;  0.0000000E+00;  3.7124883E-02;  8.0002925E+03;
  1.5524031E+00;  9.9999998E-03;  1.2294634E-01;9888;  1.4994813E+00;  0.0000000E+00;  4.5400284E-02;  9.9730560E+02;  1.1161484E-01; -1.8735287E+03;3; -3.9285732E+01;  0.0000000E+00; -2.6882098E+00;0;  1.9496447E+00;  3.3237000E+04;  0.0000000E+00;  1.9632132E+01;  4.0000000E+04;  0.0000000E+00;  3.8430848E+04;  1.8715658E+00;  0.0000000E+00;  7.8078821E-02;  9.8182402E+03;
  1.5525666E+00;  9.9999998E-03;  1.1268593E-01;9887;  1.5003501E+00;  0.0000000E+00;  4.6118625E-02;  9.9786816E+02;  1.1161117E-01; -1.4818898E+03;3; -2.8445192E+01;  0.0000000E+00;  8.3617866E-01;0;  1.8429842E+00;  3.3272258E+04;  0.0000000E+00;  2.2492950E+01;  4.0000000E+04;  0.0000000E+00;  3.8435285E+04;  1.7240525E+00;  0.0000000E+00;  1.1893170E-01;  1.0577964E+04;
  1.5527303E+00;  9.9999998E-03;  1.0239393E-01;9886;  1.4974188E+00;  0.0000000E+00;  4.5276061E-02;  9.9844897E+02;  1.1160798E-01; -1.0778243E+03;3; -1.9363668E+01;  0.0000000E+00;  4.3239145E+00;0;  1.7251008E+00;  3.3306449E+04;  0.0000000E+00;  2.2914339E+01;  4.0000000E+04;  0.0000000E+00;  3.8442039E+04;  1.5678439E+00;  0.0000000E+00;  1.5725678E-01;  1.0381457E+04;
  1.5528971E+00;  9.9999998E-03;  9.2089251E-02;9885;  1.4918793E+00;  0.0000000E+00;  4.2769514E-02;  9.9890973E+02;  1.1160540E-01; -7.5740369E+02;3; -1.3044442E+01;  0.0000000E+00;  7.4397759E+00;0;  1.6105498E+00;  3.3333754E+04;  0.0000000E+00;  2.1158276E+01;  4.0000000E+04;  0.0000000E+00;  3.8446949E+04;  1.4180169E+00;  0.0000000E+00;  1.9253288E-01;  9.4040537E+03;
  1.5530653E+00;  9.9999998E-03;  8.1775136E-02;9884;  1.4852479E+00;  0.0000000E+00;  3.8405191E-02;  9.9920972E+02;  1.1160365E-01; -5.4882599E+02;3; -9.1674166E+00;  0.0000000E+00;  9.4875517E+00;0;  1.5101719E+00;  3.3351547E+04;  0.0000000E+00;  1.8186728E+01;  4.0000000E+04;  0.0000000E+00;  3.8450852E+04;  1.2862521E+00;  0.0000000E+00;  2.2391970E-01;  8.0141362E+03;
  1.5532302E+00;  9.9999998E-03;  7.1455367E-02;9883;  1.4792355E+00;  0.0000000E+00;  3.1411722E-02;  9.9936536E+02;  1.1160268E-01; -4.4060785E+02;3; -6.3861775E+00;  0.0000000E+00;  7.9995618E+00;0;  1.4307237E+00;  3.3359918E+04;  0.0000000E+00;  1.4772141E+01;  4.0000000E+04;  0.0000000E+00;  3.8454074E+04;  1.1807265E+00;  0.0000000E+00;  2.4999718E-01;  6.5014014E+03;
  1.5624099E+00;  9.9999998E-03;  1.7386816E-01;9929;  1.4459254E+00;  0.0000000E+00;  4.5793641E-02;  9.9915063E+02;  1.1138436E-01; -5.7884686E+02;3; -9.3661194E+01;  0.0000000E+00;  1.8538120E+00;0;  1.8934976E+00;  3.3481738E+04;  0.0000000E+00;  2.2640743E+01;  4.0000000E+04;  0.0000000E+00;  3.8443430E+04;  1.8571429E+00;  0.0000000E+00;  3.6354609E-02;  6.2178604E+03;
  1.5626097E+00;  9.9999998E-03;  1.6377188E-01;9928;  1.4654452E+00;  0.0000000E+00;  4.6489216E-02;  9.9846228E+02;  1.1138708E-01; -1.0475420E+03;3; -8.4385971E+01;  0.0000000E+00; -7.0155555E-01;0;  1.9500519E+00;  3.3463633E+04;  0.0000000E+00;  6.8815112E-02;  4.0000000E+04;  0.0000000E+00;  3.8413336E+04;  1.9224768E+00;  0.0000000E+00;  2.7575122E-02;  1.6017659E+03;
  1.5627671E+00;  9.9999998E-03;  1.5364340E-01;9927;  1.4815539E+00;  0.0000000E+00;  4.7595721E-02;  9.9824780E+02;  1.1138675E-01; -1.1932440E+03;3; -7.2932915E+01;  0.0000000E+00; -1.8398517E+00;0;  1.9826953E+00;  3.3469875E+04;  0.0000000E+00; -7.7379475E+00;  4.0000000E+04;  0.0000000E+00;  3.8391230E+04;  1.9461832E+00;  0.0000000E+00;  3.6512151E-02;  1.9675233E+03;
  1.5629165E+00;  9.9999998E-03;  1.4349364E-01;9926;  1.4951032E+00;  0.0000000E+00;  4.8834477E-02;  9.9810260E+02;  1.1138453E-01; -1.2917209E+03;3; -6.1136707E+01;  0.0000000E+00; -3.2137990E+00;0;  1.9994302E+00;  3.3480191E+04;  0.0000000E+00; -6.2034783E+00;  4.0000000E+04;  0.0000000E+00;  3.8369828E+04;  1.9402648E+00;  0.0000000E+00;  5.9165392E-02;  6.7272919E+02;
  1.5630672E+00;  9.9999998E-03;  1.3332389E-01;9925;  1.5053902E+00;  0.0000000E+00;  5.0306201E-02;  9.9802466E+02;  1.1138311E-01; -1.3443745E+03;3; -4.8691586E+01;  0.0000000E+00; -2.9467704E+00;0;  1.9905308E+00;  3.3492859E+04;  0.0000000E+00; -7.8870153E-01;  4.0000000E+04;  0.0000000E+00;  3.8350340E+04;  1.8973720E+00;  0.0000000E+00;  9.3158863E-02;  1.5254331E+03;
  1.5632190E+00;  9.9999998E-03;  1.2313127E-01;9924;  1.5115503E+00;  0.0000000E+00;  5.1568929E-02;  9.9808752E+02;  1.1138124E-01; -1.3011659E+03;3; -3.6493767E+01;  0.0000000E+00; -9.2304027E-01;0;  1.9456044E+00;  3.3510855E+04;  0.0000000E+00;  5.0554099E+00;  4.0000000E+04;  0.0000000E+00;  3.8335816E+04;  1.8128515E+00;  0.0000000E+00;  1.3275293E-01;  3.5967539E+03;
  1.5633701E+00;  9.9999998E-03;  1.1290880E-01;9923;  1.5136868E+00;  0.0000000E+00;  5.1974207E-02;  9.9831836E+02;  1.1137962E-01; -1.1437449E+03;3; -2.5643129E+01;  0.0000000E+00;  3.0243170E+00;0;  1.8688607E+00;  3.3533754E+04;  0.0000000E+00;  9.8134346E+00;  4.0000000E+04;  0.0000000E+00;  3.8328695E+04;  1.6962966E+00;  0.0000000E+00;  1.7256415E-01;  5.1194336E+03;
  1.5635201E+00;  9.9999998E-03;  1.0265422E-01;9922;  1.5119029E+00;  0.0000000E+00;  5.0870631E-02;  9.9866821E+02;  1.1137828E-01; -9.0553387E+02;3; -1.6380672E+01;  0.0000000E+00;  6.8770962E+00;0;  1.7660840E+00;  3.3558773E+04;  0.0000000E+00;  1.2941064E+01;  4.0000000E+04;  0.0000000E+00;  3.8327945E+04;  1.5567647E+00;  0.0000000E+00;  2.0931923E-01;  5.9736792E+03;
  1.5636687E+00;  9.9999998E-03;  9.2369683E-02;9921;  1.5068305E+00;  0.0000000E+00;  4.7758773E-02;  9.9904205E+02;  1.1137708E-01; -6.5114636E+02;3; -9.6531591E+00;  0.0000000E+00;  1.0080804E+01;0;  1.6488245E+00;  3.3581039E+04;  0.0000000E+00;  1.4380564E+01;  4.0000000E+04;  0.0000000E+00;  3.8331297E+04;  1.4074723E+00;  0.0000000E+00;  2.4135226E-01;  6.2001333E+03;
  1.5638137E+00;  9.9999998E-03;  8.2060888E-02;9920;  1.5004447E+00;  0.0000000E+00;  4.1931309E-02;  9.9935895E+02;  1.1137520E-01; -4.3559930E+02;3; -4.8050652E+00;  0.0000000E+00;  1.0021494E+01;0;  1.5375383E+00;  3.3598664E+04;  0.0000000E+00;  1.4384901E+01;  4.0000000E+04;  0.0000000E+00;  3.8336961E+04;  1.2702066E+00;  0.0000000E+00;  2.6733169E-01;  5.9290366E+03;
  1.5639528E+00;  9.9999998E-03;  7.1737334E-02;9919;  1.4936460E+00;  0.0000000E+00;  3.5126794E-02;  9.9958380E+02;  1.1137448E-01; -2.8274319E+02;3; -1.5114563E+00;  0.0000000E+00;  8.8880816E+00;0;  1.4430790E+00;  3.3609547E+04;  0.0000000E+00;  1.3253086E+01;  4.0000000E+04;  0.0000000E+00;  3.8342582E+04;  1.1516576E+00;  0.0000000E+00;  2.9142135E-01;  5.2980879E+03;
  1.5733589E+00;  9.9999998E-03;  1.6386341E-01;9962;  1.4720297E+00;  0.0000000E+00;  5.4520186E-02;  1.0003185E+03;  1.1118469E-01;  2.1203400E+02;3; -7.5892281E+01;  0.0000000E+00;  8.2968615E-02;0;  1.7539823E+00;  3.3760766E+04;  0.0000000E+00;  4.0681122E+01;  4.0000000E+04;  0.0000000E+00;  3.8349281E+04;  1.6423800E+00;  0.0000000E+00;  1.1160228E-01;  9.9898281E+03;
  1.5735719E+00;  9.9999998E-03;  1.5376148E-01;9961;  1.4874214E+00;  0.0000000E+00;  5.6180350E-02;  9.9943805E+02;  1.1119036E-01; -3.7389838E+02;3; -6.7139908E+01;  0.0000000E+00; -2.4770010E+00;0;  1.8091105E+00;  3.3734875E+04;  0.0000000E+00;  1.2309207E+01;  4.0000000E+04;  0.0000000E+00;  3.8313105E+04;  1.6852105E+00;  0.0000000E+00;  1.2390006E-01;  3.2517427E+03;
  1.5737393E+00;  9.9999998E-03;  1.4362423E-01;9960;  1.5006000E+00;  0.0000000E+00;  5.7183564E-02;  9.9912372E+02;  1.1119139E-01; -5.8283990E+02;3; -5.6478039E+01;  0.0000000E+00; -1.7554530E+00;0;  1.8513469E+00;  3.3736590E+04;  0.0000000E+00; -2.5493493E+00;  4.0000000E+04;  0.0000000E+00;  3.8288602E+04;  1.7103537E+00;  0.0000000E+00;  1.4099315E-01;  1.3466063E+03;
  1.5738866E+00;  9.9999998E-03;  1.3345805E-01;9959;  1.5104427E+00;  0.0000000E+00;  5.7137333E-02;  9.9905206E+02;  1.1119023E-01; -6.3028534E+02;3; -4.4846714E+01;  0.0000000E+00;  1.4726077E+00;0;  1.8610462E+00;  3.3749172E+04;  0.0000000E+00; -7.1226125E+00;  4.0000000E+04;  0.0000000E+00;  3.8269648E+04;  1.7001532E+00;  0.0000000E+00;  1.6089301E-01;  1.5244072E+03;
  1.5740296E+00;  9.9999998E-03;  1.2327015E-01;9958;  1.5177373E+00;  0.0000000E+00;  5.6587320E-02;  9.9903693E+02;  1.1118961E-01; -6.4014813E+02;3; -3.3821606E+01;  0.0000000E+00;  4.3608422E+00;0;  1.8556201E+00;  3.3763383E+04;  0.0000000E+00; -5.9527578E+00;  4.0000000E+04;  0.0000000E+00;  3.8252828E+04;  1.6673336E+00;  0.0000000E+00;  1.8828650E-01;  7.6699451E+02;
  1.5741687E+00;  9.9999998E-03;  1.1305740E-01;9957;  1.5208302E+00;  0.0000000E+00;  5.4938994E-02;  9.9912256E+02;  1.1118797E-01; -5.8303668E+02;3; -2.3510124E+01;  0.0000000E+00;  6.9584742E+00;0;  1.8091812E+00;  3.3780812E+04;  0.0000000E+00; -2.4131646E+00;  4.0000000E+04;  0.0000000E+00;  3.8240691E+04;  1.5915043E+00;  0.0000000E+00;  2.1767683E-01;  6.4607031E+02;
  1.5743066E+00;  9.9999998E-03;  1.0282259E-01;9956;  1.5205904E+00;  0.0000000E+00;  5.1783897E-02;  9.9926227E+02;  1.1118676E-01; -4.9005035E+02;3; -1.4530688E+01;  0.0000000E+00;  8.5746393E+00;0;  1.7352372E+00;  3.3798109E+04;  0.0000000E+00;  1.3059372E+00;  4.0000000E+04;  0.0000000E+00;  3.8232613E+04;  1.4891247E+00;  0.0000000E+00;  2.4611254E-01;  1.6946001E+03;
  1.5744399E+00;  9.9999998E-03;  9.2560351E-02;9955;  1.5177158E+00;  0.0000000E+00;  4.7841106E-02;  9.9948059E+02;  1.1118617E-01; -3.4491656E+02;3; -6.9925575E+00;  0.0000000E+00;  9.5522337E+00;0;  1.6482853E+00;  3.3815969E+04;  0.0000000E+00;  4.3958058E+00;  4.0000000E+04;  0.0000000E+00;  3.8229984E+04;  1.3727453E+00;  0.0000000E+00;  2.7553996E-01;  2.4888198E+03;
  1.5745677E+00;  9.9999998E-03;  8.2269050E-02;9954;  1.5129606E+00;  0.0000000E+00;  4.3053094E-02;  9.9973608E+02;  1.1118540E-01; -1.7521872E+02;3; -1.2116547E+00;  0.0000000E+00;  9.8386068E+00;0;  1.5572457E+00;  3.3831559E+04;  0.0000000E+00;  6.5886288E+00;  4.0000000E+04;  0.0000000E+00;  3.8232000E+04;  1.2536851E+00;  0.0000000E+00;  3.0356067E-01;  2.9400991E+03;
  1.5746886E+00;  9.9999998E-03;  7.1958564E-02;9953;  1.5070709E+00;  0.0000000E+00;  3.7305411E-02;  9.9994995E+02;  1.1118481E-01; -3.3230366E+01;3;  2.8498063E+00;  0.0000000E+00;  9.3336868E+00;0;  1.4689980E+00;  3.3843180E+04;  0.0000000E+00;  7.6461000E+00;  4.0000000E+04;  0.0000000E+00;  3.8235938E+04;  1.1407146E+00;  0.0000000E+00;  3.2828337E-01;  3.0398171E+03;
  1.5844829E+00;  9.9999998E-03;  1.4369880E-01;9991;  1.5035694E+00;  0.0000000E+00;  6.5159798E-02;  1.0005806E+03;  1.1102492E-01;  3.7678992E+02;3; -5.1327290E+01;  0.0000000E+00;  1.6228946E+00;0;  1.6754216E+00;  3.3991039E+04;  0.0000000E+00;  3.1067501E+01;  4.0000000E+04;  0.0000000E+00;  3.8222254E+04;  1.4406939E+00;  0.0000000E+00;  2.3472774E-01;  6.8909414E+03;
  1.5846611E+00;  9.9999998E-03;  1.3355982E-01;9990;  1.5139195E+00;  0.0000000E+00;  6.3454866E-02;  1.0000518E+03;  1.1102808E-01;  3.3641762E+01;3; -4.1014450E+01;  0.0000000E+00;  4.7639871E+00;0;  1.7027687E+00;  3.3984348E+04;  0.0000000E+00;  9.8658590E+00;  4.0000000E+04;  0.0000000E+00;  3.8190527E+04;  1.4663883E+00;  0.0000000E+00;  2.3638037E-01;  2.4791123E+03;
  1.5848126E+00;  9.9999998E-03;  1.2338576E-01;9989;  1.5212690E+00;  0.0000000E+00;  6.0378250E-02;  9.9987354E+02;  1.1102940E-01; -8.2025909E+01;3; -3.1176815E+01;  0.0000000E+00;  6.7100940E+00;0;  1.7078428E+00;  3.3991824E+04;  0.0000000E+00; -1.3440593E+00;  4.0000000E+04;  0.0000000E+00;  3.8169570E+04;  1.4652413E+00;  0.0000000E+00;  2.4260156E-01;  1.0384445E+03;
  1.5849493E+00;  9.9999998E-03;  1.1318403E-01;9988;  1.5257796E+00;  0.0000000E+00;  5.6916147E-02;  9.9987372E+02;  1.1102896E-01; -8.1883781E+01;3; -2.1492058E+01;  0.0000000E+00;  8.0152702E+00;0;  1.6982365E+00;  3.4005766E+04;  0.0000000E+00; -5.5491524E+00;  4.0000000E+04;  0.0000000E+00;  3.8154277E+04;  1.4388050E+00;  0.0000000E+00;  2.5943154E-01;  1.1666787E+03;
  1.5850772E+00;  9.9999998E-03;  1.0295467E-01;9987;  1.5267538E+00;  0.0000000E+00;  5.3040978E-02;  9.9996973E+02;  1.1102711E-01; -1.9624590E+01;3; -1.2679314E+01;  0.0000000E+00;  9.1327686E+00;0;  1.6597196E+00;  3.4021898E+04;  0.0000000E+00; -5.6867461E+00;  4.0000000E+04;  0.0000000E+00;  3.8144734E+04;  1.3768030E+00;  0.0000000E+00;  2.8291658E-01;  9.1858508E+02;
  1.5852003E+00;  9.9999998E-03;  9.2700958E-02;9986;  1.5251577E+00;  0.0000000E+00;  4.8509464E-02;  1.0001027E+03;  1.1102597E-01;  6.6580780E+01;3; -5.2059546E+00;  0.0000000E+00;  9.8826971E+00;0;  1.6030703E+00;  3.4036102E+04;  0.0000000E+00; -3.9523852E+00;  4.0000000E+04;  0.0000000E+00;  3.8138996E+04;  1.2945490E+00;  0.0000000E+00;  3.0852130E-01;  4.3352328E+02;
  1.5853156E+00;  9.9999998E-03;  8.2427941E-02;9985;  1.5211669E+00;  0.0000000E+00;  4.3535851E-02;  1.0002629E+03;  1.1102583E-01;  1.7026794E+02;3;  1.2139698E+00;  0.0000000E+00;  1.0071177E+01;0;  1.5295258E+00;  3.4049969E+04;  0.0000000E+00; -1.8064622E+00;  4.0000000E+04;  0.0000000E+00;  3.8135938E+04;  1.1949434E+00;  0.0000000E+00;  3.3458236E-01;  3.3696774E+02;
  1.5854238E+00;  9.9999998E-03;  7.2134972E-02;9984;  1.5160917E+00;  0.0000000E+00;  3.8087130E-02;  1.0004167E+03;  1.1102547E-01;  2.6988922E+02;3;  6.0325904E+00;  0.0000000E+00;  9.7478428E+00;0;  1.4549636E+00;  3.4060945E+04;  0.0000000E+00;  7.3406644E-02;  4.0000000E+04;  0.0000000E+00;  3.8135590E+04;  1.0962179E+00;  0.0000000E+00;  3.5874572E-01;  6.4815894E+02;
  1.5955303E+00;  9.9999998E-03;  1.2343770E-01;10016;  1.5225114E+00;  0.0000000E+00;  6.6888176E-02;  1.0011469E+03;  1.1089351E-01;  7.2501056E+02;3; -2.7728792E+01;  0.0000000E+00;  9.9605446E+00;0;  1.5516678E+00;  3.4216629E+04;  0.0000000E+00;  2.9271715E+01;  4.0000000E+04;  0.0000000E+00;  3.8104094E+04;  1.2261890E+00;  0.0000000E+00;  3.2547882E-01;  5.8991699E+03;
  1.5956854E+00;  9.9999998E-03;  1.1326502E-01;10015;  1.5276014E+00;  0.0000000E+00;  6.2156785E-02;  1.0007687E+03;  1.1089540E-01;  4.8571921E+02;3; -1.9145882E+01;  0.0000000E+00;  1.1234218E+01;0;  1.5566695E+00;  3.4216918E+04;  0.0000000E+00;  1.2380720E+01;  4.0000000E+04;  0.0000000E+00;  3.8075824E+04;  1.2307637E+00;  0.0000000E+00;  3.2590580E-01;  2.7189062E+03;
  1.5958188E+00;  9.9999998E-03;  1.0306093E-01;10014;  1.5300571E+00;  0.0000000E+00;  5.7170603E-02;  1.0006535E+03;  1.1089621E-01;  4.1281772E+02;3; -1.0918051E+01;  0.0000000E+00;  1.1751862E+01;0;  1.5493551E+00;  3.4226273E+04;  0.0000000E+00;  2.5230868E+00;  4.0000000E+04;  0.0000000E+00;  3.8057277E+04;  1.2127562E+00;  0.0000000E+00;  3.3659899E-01;  1.1095129E+03;
  1.5959388E+00;  9.9999998E-03;  9.2826627E-02;10013;  1.5298556E+00;  0.0000000E+00;  5.1728282E-02;  1.0006756E+03;  1.1089531E-01;  4.2662439E+02;3; -3.6384485E+00;  0.0000000E+00;  1.1875678E+01;0;  1.5222665E+00;  3.4238266E+04;  0.0000000E+00; -2.3068604E+00;  4.0000000E+04;  0.0000000E+00;  3.8046320E+04;  1.1698154E+00;  0.0000000E+00;  3.5245112E-01;  8.0136981E+02;
  1.5960475E+00;  9.9999998E-03;  8.2568586E-02;10012;  1.5275170E+00;  0.0000000E+00;  4.6066292E-02;  1.0007694E+03;  1.1089506E-01;  4.8574280E+02;3;  2.8136375E+00;  0.0000000E+00;  1.1631128E+01;0;  1.4798167E+00;  3.4250895E+04;  0.0000000E+00; -4.0156860E+00;  4.0000000E+04;  0.0000000E+00;  3.8039727E+04;  1.1082805E+00;  0.0000000E+00;  3.7153617E-01;  8.0909717E+02;
  1.5961454E+00;  9.9999998E-03;  7.2294198E-02;10011;  1.5235366E+00;  0.0000000E+00;  4.0738095E-02;  1.0008849E+03;  1.1089385E-01;  5.5853870E+02;3;  8.3894892E+00;  0.0000000E+00;  1.0993704E+01;0;  1.4269749E+00;  3.4263227E+04;  0.0000000E+00; -4.1065040E+00;  4.0000000E+04;  0.0000000E+00;  3.8035418E+04;  1.0339191E+00;  0.0000000E+00;  3.9305583E-01;  7.0266174E+02;
  1.6066339E+00;  9.9999998E-03;  9.2877313E-02;10035;  1.5302813E+00;  0.0000000E+00;  5.6283630E-02;  1.0015668E+03;  1.1078416E-01;  9.6371307E+02;3; -2.7020679E+00;  0.0000000E+00;  1.5718107E+01;0;  1.3854376E+00;  3.4432238E+04;  0.0000000E+00;  1.7822556E+01;  4.0000000E+04;  0.0000000E+00;  3.7971961E+04;  9.7733867E-01;  0.0000000E+00;  4.0809894E-01;  3.4408325E+03;
  1.6067457E+00;  9.9999998E-03;  8.2646862E-02;10034;  1.5290266E+00;  0.0000000E+00;  5.0071958E-02;  1.0014603E+03;  1.1078475E-01;  8.9791412E+02;3;  3.5840125E+00;  0.0000000E+00;  1.5051740E+01;0;  1.3626882E+00;  3.4440688E+04;  0.0000000E+00;  8.7005405E+00;  4.0000000E+04;  0.0000000E+00;  3.7955355E+04;  9.4503546E-01;  0.0000000E+00;  4.1765270E-01;  1.9436255E+03;
  1.6068434E+00;  9.9999998E-03;  7.2394192E-02;10033;  1.5266907E+00;  0.0000000E+00;  4.4116840E-02;  1.0014503E+03;  1.1078487E-01;  8.9153931E+02;3;  9.0331926E+00;  0.0000000E+00;  1.3994502E+01;0;  1.3382263E+00;  3.4450031E+04;  0.0000000E+00;  3.2557864E+00;  4.0000000E+04;  0.0000000E+00;  3.7944504E+04;  9.0684122E-01;  0.0000000E+00;  4.3138507E-01;  1.1339565E+03;
  1.8653388E-03;  9.9999998E-03;  2.3987202E-01;2501;  7.6527237E-03;  0.0000000E+00; -1.1193657E-03;  9.8960754E+02;  1.0000000E-01; -8.6099297E+03;3;  6.9498344E+01;  0.0000000E+00; -2.6426081E+01;0;  3.2413490E-02;  3.9163188E+04;  0.0000000E+00; -6.1432970E-01;  4.0000000E+04;  0.0000000E+00;  4.0016160E+04;  3.2361958E-02;  0.0000000E+00;  5.1531009E-05;  3.0531843E+03;
  1.5273354E-03;  9.9999998E-03;  2.4985032E-01;2502;  6.9958540E-03;  0.0000000E+00; -1.3179864E-03;  9.9077960E+02;  1.0000000E-01; -7.6389443E+03;3;  6.0308109E+01;  0.0000000E+00; -2.8521994E+01;0;  3.1185735E-02;  3.9256859E+04;  0.0000000E+00; -5.7951766E-01;  4.0000000E+04;  0.0000000E+00;  4.0013855E+04;  3.0417092E-02;  0.0000000E+00;  7.6864287E-04;  2.5521423E+03;
  1.1656154E-03;  9.9999998E-03;  2.5983056E-01;2503;  6.1640148E-03;  0.0000000E+00; -1.5063896E-03;  9.9198273E+02;  1.0000000E-01; -6.6421826E+03;3;  5.0396217E+01;  0.0000000E+00; -3.0491150E+01;0;  2.9527714E-02;  3.9355387E+04;  0.0000000E+00; -5.3495443E-01;  4.0000000E+04;  0.0000000E+00;  4.0007273E+04;  2.7954228E-02;  0.0000000E+00;  1.5734867E-03;  1.8145740E+03;
  7.9365063E-04;  9.9999998E-03;  2.6982379E-01;2504;  5.1757172E-03;  0.0000000E+00; -1.6498531E-03;  9.9318195E+02;  1.0000000E-01; -5.6486304E+03;3;  4.0601124E+01;  0.0000000E+00; -3.2504818E+01;0;  2.7436821E-02;  3.9455203E+04;  0.0000000E+00; -4.8609826E-01;  4.0000000E+04;  0.0000000E+00;  4.0000887E+04;  2.5041338E-02;  0.0000000E+00;  2.3954823E-03;  9.7798792E+02;
  4.4380687E-04;  9.9999998E-03;  2.7983716E-01;2505;  4.0386231E-03;  0.0000000E+00; -1.6820495E-03;  9.9433124E+02;  1.0000000E-01; -4.6964600E+03;3;  3.1827860E+01;  0.0000000E+00; -3.4556385E+01;0;  2.4937678E-02;  3.9552270E+04;  0.0000000E+00; -4.3592992E-01;  4.0000000E+04;  0.0000000E+00;  3.9993277E+04;  2.1798979E-02;  0.0000000E+00;  3.1386977E-03;  7.0639166E+02;
  1.4698788E-04;  9.9999998E-03;  2.8986892E-01;2506;  2.6702096E-03;  0.0000000E+00; -1.3768076E-03;  9.9540167E+02;  1.0000000E-01; -3.8096206E+03;3;  2.4709251E+01;  0.0000000E+00; -3.5963943E+01;0;  2.2081826E-02;  3.9643348E+04;  0.0000000E+00; -3.8431007E-01;  4.0000000E+04;  0.0000000E+00;  3.9986328E+04;  1.8397726E-02;  0.0000000E+00;  3.6840998E-03;  1.4236777E+03;
  1.1834696E-02;  9.9999998E-03;  2.3991047E-01;2561;  6.8801967E-03;  0.0000000E+00; -1.1020849E-03;  9.9099768E+02;  1.0000000E-01; -7.4582583E+03;3;  5.4185017E+01;  0.0000000E+00; -2.2445475E+01;0;  2.9984578E-02;  3.9269367E+04;  0.0000000E+00; -7.2948229E-01;  4.0000000E+04;  0.0000000E+00;  4.0018906E+04;  2.9796526E-02;  0.0000000E+00;  1.8805359E-04;  3.2700669E+03;
  1.1523847E-02;  9.9999998E-03;  2.4987617E-01;2562;  6.3327779E-03;  0.0000000E+00; -1.2944184E-03;  9.9195099E+02;  1.0000000E-01; -6.6684536E+03;3;  4.7746506E+01;  0.0000000E+00; -2.4264059E+01;0;  2.9178640E-02;  3.9345812E+04;  0.0000000E+00; -6.7895687E-01;  4.0000000E+04;  0.0000000E+00;  4.0015832E+04;  2.8228480E-02;  0.0000000E+00;  9.5015951E-04;  2.8272002E+03;
  1.1179065E-02;  9.9999998E-03;  2.5983980E-01;2563;  5.6026904E-03;  0.0000000E+00; -1.4883581E-03;  9.9294196E+02;  1.0000000E-01; -5.8474395E+03;3;  4.0330074E+01;  0.0000000E+00; -2.6183535E+01;0;  2.7973244E-02;  3.9427773E+04;  0.0000000E+00; -6.2381327E-01;  4.0000000E+04;  0.0000000E+00;  4.0009996E+04;  2.6165280E-02;  0.0000000E+00;  1.8079630E-03;  2.1050508E+03;
  1.0806811E-02;  9.9999998E-03;  2.6981333E-01;2564;  4.7043348E-03;  0.0000000E+00; -1.6628950E-03;  9.9393280E+02;  1.0000000E-01; -5.0265737E+03;3;  3.2653950E+01;  0.0000000E+00; -2.8547874E+01;0;  2.6343795E-02;  3.9512191E+04;  0.0000000E+00; -5.7133293E-01;  4.0000000E+04;  0.0000000E+00;  4.0003023E+04;  2.3654208E-02;  0.0000000E+00;  2.6895865E-03;  1.2273289E+03;
  1.0447427E-02;  9.9999998E-03;  2.7980170E-01;2565;  3.6587440E-03;  0.0000000E+00; -1.7673227E-03;  9.9490222E+02;  1.0000000E-01; -4.2234360E+03;3;  2.5393827E+01;  0.0000000E+00; -3.1431475E+01;0;  2.4286857E-02;  3.9595781E+04;  0.0000000E+00; -5.2347785E-01;  4.0000000E+04;  0.0000000E+00;  3.9994863E+04;  2.0792648E-02;  0.0000000E+00;  3.4942091E-03;  7.6692017E+02;
  1.0149106E-02;  9.9999998E-03;  2.8979838E-01;2566;  2.4503875E-03;  0.0000000E+00; -1.6676548E-03;  9.9580945E+02;  1.0000000E-01; -3.4718030E+03;3;  1.9175726E+01;  0.0000000E+00; -3.4452644E+01;0;  2.1832539E-02;  3.9675555E+04;  0.0000000E+00; -4.7644499E-01;  4.0000000E+04;  0.0000000E+00;  3.9987117E+04;  1.7731018E-02;  0.0000000E+00;  4.1015204E-03;  1.4504926E+03;
  9.9276202E-03;  9.9999998E-03;  2.9980493E-01;2567;  7.8307540E-04;  0.0000000E+00; -7.7056250E-04;  9.9663568E+02;  1.0000000E-01; -2.7872793E+03;3;  1.4008888E+01;  0.0000000E+00; -3.6216717E+01;0;  1.9034922E-02;  3.9748004E+04;  0.0000000E+00; -4.2318308E-01;  4.0000000E+04;  0.0000000E+00;  3.9980125E+04;  1.4652078E-02;  0.0000000E+00;  4.3828432E-03;  2.2792605E+03;
  2.1750258E-02;  9.9999998E-03;  2.3997931E-01;2622;  6.0829557E-03;  0.0000000E+00; -1.0019231E-03;  9.9279279E+02;  1.0000000E-01; -5.9710410E+03;3;  3.6546280E+01;  0.0000000E+00; -1.6949903E+01;0;  2.7890217E-02;  3.9408012E+04;  0.0000000E+00; -8.0479038E-01;  4.0000000E+04;  0.0000000E+00;  4.0019973E+04;  2.7522948E-02;  0.0000000E+00;  3.6726939E-04;  3.3533269E+03;
  2.1464083E-02;  9.9999998E-03;  2.4994433E-01;2623;  5.6417249E-03;  0.0000000E+00; -1.1661381E-03;  9.9348651E+02;  1.0000000E-01; -5.3962920E+03;3;  3.3255703E+01;  0.0000000E+00; -1.8232853E+01;0;  2.7415467E-02;  3.9463980E+04;  0.0000000E+00; -7.4738812E-01;  4.0000000E+04;  0.0000000E+00;  4.0018016E+04;  2.6256802E-02;  0.0000000E+00;  1.1586659E-03;  3.0001099E+03;
  2.1139128E-02;  9.9999998E-03;  2.5990272E-01;2624;  5.0131716E-03;  0.0000000E+00; -1.3428056E-03;  9.9421375E+02;  1.0000000E-01; -4.7937905E+03;3;  2.8932735E+01;  0.0000000E+00; -1.9962284E+01;0;  2.6577050E-02;  3.9525473E+04;  0.0000000E+00; -6.9046259E-01;  4.0000000E+04;  0.0000000E+00;  4.0012891E+04;  2.4531104E-02;  0.0000000E+00;  2.0459469E-03;  2.3348896E+03;
  2.0775305E-02;  9.9999998E-03;  2.6986900E-01;2625;  4.1988059E-03;  0.0000000E+00; -1.5073717E-03;  9.9495752E+02;  1.0000000E-01; -4.1776104E+03;3;  2.4041840E+01;  0.0000000E+00; -2.2546749E+01;0;  2.5331059E-02;  3.9590285E+04;  0.0000000E+00; -6.4216679E-01;  4.0000000E+04;  0.0000000E+00;  4.0005691E+04;  2.2375481E-02;  0.0000000E+00;  2.9555783E-03;  1.4659934E+03;
  2.0408943E-02;  9.9999998E-03;  2.7985030E-01;2626;  3.2345634E-03;  0.0000000E+00; -1.6272783E-03;  9.9568915E+02;  1.0000000E-01; -3.5714546E+03;3;  1.9175165E+01;  0.0000000E+00; -2.6134489E+01;0;  2.3648718E-02;  3.9656137E+04;  0.0000000E+00; -6.0279638E-01;  4.0000000E+04;  0.0000000E+00;  3.9997195E+04;  1.9863926E-02;  0.0000000E+00;  3.7847925E-03;  8.5441827E+02;
  2.0099673E-02;  9.9999998E-03;  2.8983438E-01;2627;  2.0752200E-03;  0.0000000E+00; -1.5577257E-03;  9.9639807E+02;  1.0000000E-01; -2.9841130E+03;3;  1.4650243E+01;  0.0000000E+00; -3.0282015E+01;0;  2.1539295E-02;  3.9720402E+04;  0.0000000E+00; -5.6482774E-01;  4.0000000E+04;  0.0000000E+00;  3.9988117E+04;  1.7128820E-02;  0.0000000E+00;  4.4104755E-03;  1.3952766E+03;
  1.9881420E-02;  9.9999998E-03;  2.9981318E-01;2628;  5.3816446E-04;  0.0000000E+00; -8.3724112E-04;  9.9705609E+02;  1.0000000E-01; -2.4389927E+03;3;  1.0466755E+01;  0.0000000E+00; -3.3855976E+01;0;  1.9046964E-02;  3.9780469E+04;  0.0000000E+00; -5.1639146E-01;  4.0000000E+04;  0.0000000E+00;  3.9980781E+04;  1.4329602E-02;  0.0000000E+00;  4.7173626E-03;  2.2663892E+03;
  3.1663328E-02;  9.9999998E-03;  2.4002483E-01;2683;  5.3751152E-03;  0.0000000E+00; -8.5654232E-04;  9.9474316E+02;  1.0000000E-01; -4.3551855E+03;3;  2.0255293E+01;  0.0000000E+00; -1.0577926E+01;0;  2.7001318E-02;  3.9560945E+04;  0.0000000E+00; -7.9600686E-01;  4.0000000E+04;  0.0000000E+00;  4.0021137E+04;  2.6424896E-02;  0.0000000E+00;  5.7642104E-04;  3.2765339E+03;
  3.1401780E-02;  9.9999998E-03;  2.4999531E-01;2684;  5.0207386E-03;  0.0000000E+00; -9.8865118E-04;  9.9515955E+02;  1.0000000E-01; -4.0102075E+03;3;  1.9848297E+01;  0.0000000E+00; -1.1148304E+01;0;  2.6723213E-02;  3.9594523E+04;  0.0000000E+00; -7.4761724E-01;  4.0000000E+04;  0.0000000E+00;  4.0019270E+04;  2.5335042E-02;  0.0000000E+00;  1.3881708E-03;  3.0317993E+03;
  3.1093741E-02;  9.9999998E-03;  2.5995773E-01;2685;  4.4701979E-03;  0.0000000E+00; -1.1359218E-03;  9.9561389E+02;  1.0000000E-01; -3.6338232E+03;3;  1.8441322E+01;  0.0000000E+00; -1.2527246E+01;0;  2.6110847E-02;  3.9634109E+04;  0.0000000E+00; -7.0597583E-01;  4.0000000E+04;  0.0000000E+00;  4.0014938E+04;  2.3821477E-02;  0.0000000E+00;  2.2893702E-03;  2.4512466E+03;
  3.0737244E-02;  9.9999998E-03;  2.6992866E-01;2686;  3.7361959E-03;  0.0000000E+00; -1.2797792E-03;  9.9608905E+02;  1.0000000E-01; -3.2401553E+03;3;  1.6342131E+01;  0.0000000E+00; -1.5289334E+01;0;  2.5099544E-02;  3.9677742E+04;  0.0000000E+00; -6.7798978E-01;  4.0000000E+04;  0.0000000E+00;  4.0007406E+04;  2.1893641E-02;  0.0000000E+00;  3.2059024E-03;  1.6277085E+03;
  3.0365398E-02;  9.9999998E-03;  2.7991512E-01;2687;  2.8242767E-03;  0.0000000E+00; -1.3731538E-03;  9.9657483E+02;  1.0000000E-01; -2.8376975E+03;3;  1.3889610E+01;  0.0000000E+00; -1.9586573E+01;0;  2.3645241E-02;  3.9723863E+04;  0.0000000E+00; -6.6047692E-01;  4.0000000E+04;  0.0000000E+00;  3.9998895E+04;  1.9612074E-02;  0.0000000E+00;  4.0331678E-03;  9.5361914E+02;
  3.0040827E-02;  9.9999998E-03;  2.8990331E-01;2688;  1.6467333E-03;  0.0000000E+00; -1.2240551E-03;  9.9705927E+02;  1.0000000E-01; -2.4363262E+03;3;  1.1264100E+01;  0.0000000E+00; -2.4881021E+01;0;  2.1743737E-02;  3.9771285E+04;  0.0000000E+00; -6.4092523E-01;  4.0000000E+04;  0.0000000E+00;  3.9989781E+04;  1.7093644E-02;  0.0000000E+00;  4.6500927E-03;  1.3442273E+03;
  2.9820049E-02;  9.9999998E-03;  2.9987988E-01;2689;  1.3757416E-04;  0.0000000E+00; -4.9262360E-04;  9.9753290E+02;  1.0000000E-01; -2.0439421E+03;3;  8.3406668E+00;  0.0000000E+00; -2.9896132E+01;0;  1.9429162E-02;  3.9817156E+04;  0.0000000E+00; -6.0266685E-01;  4.0000000E+04;  0.0000000E+00;  3.9982160E+04;  1.4472142E-02;  0.0000000E+00;  4.9570194E-03;  2.2099414E+03;
  4.1579679E-02;  9.9999998E-03;  2.4004315E-01;2744;  4.7943965E-03;  0.0000000E+00; -6.8618165E-04;  9.9661017E+02;  1.0000000E-01; -2.8084143E+03;3;  7.9714489E+00;  0.0000000E+00; -4.0921845E+00;0;  2.7907580E-02;  3.9709590E+04;  0.0000000E+00; -6.6370004E-01;  4.0000000E+04;  0.0000000E+00;  4.0021324E+04;  2.7120505E-02;  0.0000000E+00;  7.8707596E-04;  3.0728599E+03;
  4.1343201E-02;  9.9999998E-03;  2.5002122E-01;2745;  4.5050704E-03;  0.0000000E+00; -7.8256964E-04;  9.9677563E+02;  1.0000000E-01; -2.6713318E+03;3;  9.6516190E+00;  0.0000000E+00; -3.8389711E+00;0;  2.7659101E-02;  3.9722379E+04;  0.0000000E+00; -6.4452302E-01;  4.0000000E+04;  0.0000000E+00;  4.0019785E+04;  2.6041575E-02;  0.0000000E+00;  1.6175263E-03;  2.9405352E+03;
  4.1054934E-02;  9.9999998E-03;  2.5999022E-01;2746;  4.0200753E-03;  0.0000000E+00; -8.9937722E-04;  9.9696649E+02;  1.0000000E-01; -2.5132129E+03;3;  1.0545814E+01;  0.0000000E+00; -4.7916198E+00;0;  2.7094074E-02;  3.9740250E+04;  0.0000000E+00; -6.4188528E-01;  4.0000000E+04;  0.0000000E+00;  4.0016270E+04;  2.4566136E-02;  0.0000000E+00;  2.5279378E-03;  2.4534099E+03;
  4.0711574E-02;  9.9999998E-03;  2.6996624E-01;2747;  3.3435593E-03;  0.0000000E+00; -1.0107502E-03;  9.9718207E+02;  1.0000000E-01; -2.3346006E+03;3;  1.0734138E+01;  0.0000000E+00; -7.6814642E+00;0;  2.6132461E-02;  3.9763258E+04;  0.0000000E+00; -6.5801728E-01;  4.0000000E+04;  0.0000000E+00;  4.0009539E+04;  2.2689451E-02;  0.0000000E+00;  3.4430111E-03;  1.6901885E+03;
  4.0343020E-02;  9.9999998E-03;  2.7995792E-01;2748;  2.4453606E-03;  0.0000000E+00; -1.0448194E-03;  9.9742706E+02;  1.0000000E-01; -2.1316433E+03;3;  1.0310786E+01;  0.0000000E+00; -1.2709314E+01;0;  2.4719205E-02;  3.9790309E+04;  0.0000000E+00; -6.8322498E-01;  4.0000000E+04;  0.0000000E+00;  4.0000430E+04;  2.0461261E-02;  0.0000000E+00;  4.2579435E-03;  1.0130620E+03;
  4.0006924E-02;  9.9999998E-03;  2.8995535E-01;2749;  1.1688746E-03;  0.0000000E+00; -6.7157712E-04;  9.9769958E+02;  1.0000000E-01; -1.9058721E+03;3;  9.3009691E+00;  0.0000000E+00; -1.9154259E+01;0;  2.2844961E-02;  3.9820680E+04;  0.0000000E+00; -6.9772696E-01;  4.0000000E+04;  0.0000000E+00;  3.9991316E+04;  1.7985985E-02;  0.0000000E+00;  4.8589762E-03;  1.3235123E+03;
  3.9771698E-02;  9.9999998E-03;  2.9995054E-01;2750; -1.6406571E-04;  0.0000000E+00; -4.5489760E-05;  9.9798816E+02;  1.0000000E-01; -1.6667677E+03;3;  7.0716262E+00;  0.0000000E+00; -2.5319693E+01;0;  2.0522777E-02;  3.9852223E+04;  0.0000000E+00; -6.7931372E-01;  4.0000000E+04;  0.0000000E+00;  3.9982965E+04;  1.5363927E-02;  0.0000000E+00;  5.1588509E-03;  2.1770728E+03;
  5.1497374E-02;  9.9999998E-03;  2.4004558E-01;2805;  4.3554930E-03;  0.0000000E+00; -5.0019211E-04;  9.9823425E+02;  1.0000000E-01; -1.4628722E+03;3;  5.6818819E-01;  0.0000000E+00;  1.9357902E+00;0;  3.0828614E-02;  3.9839551E+04;  0.0000000E+00; -3.9102870E-01;  4.0000000E+04;  0.0000000E+00;  4.0021270E+04;  2.9868435E-02;  0.0000000E+00;  9.6017960E-04;  2.8332021E+03;
  5.1286731E-02;  9.9999998E-03;  2.5002974E-01;2806;  4.1156788E-03;  0.0000000E+00; -5.6399312E-04;  9.9817261E+02;  1.0000000E-01; -1.5139818E+03;3;  3.5136487E+00;  0.0000000E+00;  2.9608114E+00;0;  3.0432072E-02;  3.9833793E+04;  0.0000000E+00; -4.2089796E-01;  4.0000000E+04;  0.0000000E+00;  4.0020816E+04;  2.8616024E-02;  0.0000000E+00;  1.8160477E-03;  2.7959856E+03;
  5.1021118E-02;  9.9999998E-03;  2.6000521E-01;2807;  3.6776066E-03;  0.0000000E+00; -6.4259733E-04;  9.9813403E+02;  1.0000000E-01; -1.5459316E+03;3;  5.8970766E+00;  0.0000000E+00;  2.4419324E+00;0;  2.9730540E-02;  3.9832945E+04;  0.0000000E+00; -4.8320472E-01;  4.0000000E+04;  0.0000000E+00;  4.0016879E+04;  2.6986934E-02;  0.0000000E+00;  2.7436058E-03;  2.3832075E+03;
  5.0698452E-02;  9.9999998E-03;  2.6998359E-01;2808;  3.0220672E-03;  0.0000000E+00; -7.0622918E-04;  9.9812463E+02;  1.0000000E-01; -1.5536844E+03;3;  7.6456623E+00;  0.0000000E+00; -5.4418141E-01;0;  2.8632393E-02;  3.9837410E+04;  0.0000000E+00; -5.7100892E-01;  4.0000000E+04;  0.0000000E+00;  4.0009977E+04;  2.4966631E-02;  0.0000000E+00;  3.6657625E-03;  1.6644301E+03;
  5.0341874E-02;  9.9999998E-03;  2.7997771E-01;2809;  2.0569435E-03;  0.0000000E+00; -5.9322326E-04;  9.9815564E+02;  1.0000000E-01; -1.5280062E+03;3;  8.7061806E+00;  0.0000000E+00; -6.2044730E+00;0;  2.7073612E-02;  3.9847348E+04;  0.0000000E+00; -6.6374707E-01;  4.0000000E+04;  0.0000000E+00;  4.0002082E+04;  2.2593729E-02;  0.0000000E+00;  4.4798828E-03;  1.0043862E+03;
  5.0000735E-02;  9.9999998E-03;  2.8998467E-01;2810;  6.7856786E-04;  0.0000000E+00; -1.8550385E-05;  9.9823035E+02;  1.0000000E-01; -1.4661313E+03;3;  9.0156221E+00;  0.0000000E+00; -1.3600492E+01;0;  2.5031641E-02;  3.9862395E+04;  0.0000000E+00; -7.3174244E-01;  4.0000000E+04;  0.0000000E+00;  3.9992113E+04;  1.9951722E-02;  0.0000000E+00;  5.0799185E-03;  1.3338058E+03;
  4.9752191E-02;  9.9999998E-03;  2.9999617E-01;2811; -2.1152059E-04;  0.0000000E+00;  1.3916842E-04;  9.9835840E+02;  1.0000000E-01; -1.3600603E+03;3;  6.9026628E+00;  0.0000000E+00; -2.0414108E+01;0;  2.2497959E-02;  3.9881160E+04;  0.0000000E+00; -7.4642003E-01;  4.0000000E+04;  0.0000000E+00;  3.9983152E+04;  1.7128613E-02;  0.0000000E+00;  5.3693466E-03;  2.2116716E+03;
  6.1416417E-02;  9.9999998E-03;  2.4004404E-01;2866;  4.0525198E-03;  0.0000000E+00; -2.6986538E-04;  9.9948810E+02;  1.0000000E-01; -4.2408676E+02;3; -2.3962226E+00;  0.0000000E+00;  7.1352806E+00;0;  3.5591748E-02;  3.9940820E+04;  0.0000000E+00;  5.9871539E-03;  4.0000000E+04;  0.0000000E+00;  4.0021000E+04;  3.4536887E-02;  0.0000000E+00;  1.0548624E-03;  2.7079746E+03;
  6.1230168E-02;  9.9999998E-03;  2.5003189E-01;2867;  3.8443895E-03;  0.0000000E+00; -3.0092895E-04;  9.9925061E+02;  1.0000000E-01; -6.2087134E+02;3;  1.0649285E+00;  0.0000000E+00;  8.8742781E+00;0;  3.4885965E-02;  3.9920258E+04;  0.0000000E+00; -8.5812926E-02;  4.0000000E+04;  0.0000000E+00;  4.0021184E+04;  3.2934424E-02;  0.0000000E+00;  1.9515406E-03;  2.7169963E+03;
  6.0989480E-02;  9.9999998E-03;  2.6001179E-01;2868;  3.4289649E-03;  0.0000000E+00; -3.4944597E-04;  9.9902679E+02;  1.0000000E-01; -8.0629816E+02;3;  4.2064462E+00;  0.0000000E+00;  8.7080612E+00;0;  3.3890262E-02;  3.9904172E+04;  0.0000000E+00; -2.2969680E-01;  4.0000000E+04;  0.0000000E+00;  4.0017531E+04;  3.0973405E-02;  0.0000000E+00;  2.9168560E-03;  2.3221846E+03;
  6.0693171E-02;  9.9999998E-03;  2.6999030E-01;2869;  2.7611717E-03;  0.0000000E+00; -3.3783246E-04;  9.9883191E+02;  1.0000000E-01; -9.6772571E+02;3;  6.8880072E+00;  0.0000000E+00;  5.6467795E+00;0;  3.2502450E-02;  3.9893660E+04;  0.0000000E+00; -4.0609494E-01;  4.0000000E+04;  0.0000000E+00;  4.0011316E+04;  2.8629117E-02;  0.0000000E+00;  3.8733315E-03;  1.5848098E+03;
  6.0354095E-02;  9.9999998E-03;  2.7998364E-01;2870;  1.7087593E-03;  0.0000000E+00; -5.8485086E-05;  9.9868140E+02;  1.0000000E-01; -1.0924136E+03;3;  9.0073109E+00;  0.0000000E+00; -4.4459328E-01;0;  3.0640958E-02;  3.9889625E+04;  0.0000000E+00; -5.8205134E-01;  4.0000000E+04;  0.0000000E+00;  4.0001344E+04;  2.5920821E-02;  0.0000000E+00;  4.7201370E-03;  8.9587042E+02;
  6.0016021E-02;  9.9999998E-03;  2.8999713E-01;2871;  4.9143692E-04;  0.0000000E+00;  3.1558026E-04;  9.9859943E+02;  1.0000000E-01; -1.1603623E+03;3;  9.8756008E+00;  0.0000000E+00; -8.4531727E+00;0;  2.8245671E-02;  3.9891980E+04;  0.0000000E+00; -7.1797699E-01;  4.0000000E+04;  0.0000000E+00;  3.9991797E+04;  2.2909153E-02;  0.0000000E+00;  5.3365175E-03;  1.3485043E+03;
  5.9758414E-02;  9.9999998E-03;  3.0002251E-01;2872; -1.9760366E-04;  0.0000000E+00;  3.0982491E-04;  9.9859229E+02;  1.0000000E-01; -1.1662880E+03;3;  8.0188341E+00;  0.0000000E+00; -1.6780233E+01;0;  2.5355609E-02;  3.9900270E+04;  0.0000000E+00; -7.7924216E-01;  4.0000000E+04;  0.0000000E+00;  3.9982770E+04;  1.9715268E-02;  0.0000000E+00;  5.6403410E-03;  2.3226042E+03;
  7.1339324E-02;  9.9999998E-03;  2.4004473E-01;2927;  3.8652511E-03;  0.0000000E+00;  2.5660072E-05;  1.0003259E+03;  1.0000000E-01;  2.7001706E+02;3; -2.2914021E+00;  0.0000000E+00;  1.1363744E+01;0;  4.1675176E-02;  4.0008090E+04;  0.0000000E+00;  4.9107111E-01;  4.0000000E+04;  0.0000000E+00;  4.0022316E+04;  4.0639047E-02;  0.0000000E+00;  1.0361287E-03;  2.8517251E+03;
  7.1174659E-02;  9.9999998E-03;  2.5003609E-01;2928;  3.6617380E-03;  0.0000000E+00;  6.3325140E-05;  9.9996094E+02;  1.0000000E-01; -3.2344765E+01;3;  1.2298747E+00;  0.0000000E+00;  1.3776504E+01;0;  4.0544532E-02;  3.9976922E+04;  0.0000000E+00;  3.5262877E-01;  4.0000000E+04;  0.0000000E+00;  4.0022074E+04;  3.8545497E-02;  0.0000000E+00;  1.9990343E-03;  2.8374951E+03;
  7.0960194E-02;  9.9999998E-03;  2.6001775E-01;2929;  3.2506434E-03;  0.0000000E+00;  5.3419993E-05;  9.9959875E+02;  1.0000000E-01; -3.3243503E+02;3;  4.6561990E+00;  0.0000000E+00;  1.3921220E+01;0;  3.9152388E-02;  3.9949691E+04;  0.0000000E+00;  1.4430363E-01;  4.0000000E+04;  0.0000000E+00;  4.0019062E+04;  3.6117099E-02;  0.0000000E+00;  3.0352869E-03;  2.3798105E+03;
  7.0692301E-02;  9.9999998E-03;  2.6999480E-01;2930;  2.5708310E-03;  0.0000000E+00;  1.0984622E-04;  9.9926050E+02;  1.0000000E-01; -6.1267401E+02;3;  7.8209429E+00;  0.0000000E+00;  1.0728031E+01;0;  3.7380330E-02;  3.9928172E+04;  0.0000000E+00; -1.0569831E-01;  4.0000000E+04;  0.0000000E+00;  4.0011832E+04;  3.3313248E-02;  0.0000000E+00;  4.0670838E-03;  1.5140919E+03;
  7.0378155E-02;  9.9999998E-03;  2.7998179E-01;2931;  1.5915957E-03;  0.0000000E+00;  3.1061488E-04;  9.9897504E+02;  1.0000000E-01; -8.4916119E+02;3;  1.0397449E+01;  0.0000000E+00;  3.9793510E+00;0;  3.5111453E-02;  3.9913629E+04;  0.0000000E+00; -3.5669729E-01;  4.0000000E+04;  0.0000000E+00;  4.0002043E+04;  3.0128188E-02;  0.0000000E+00;  4.9832650E-03;  5.9025098E+02;
  7.0052974E-02;  9.9999998E-03;  2.8999460E-01;2932;  5.3966022E-04;  0.0000000E+00;  5.0389528E-04;  9.9877063E+02;  1.0000000E-01; -1.0184897E+03;3;  1.1495477E+01;  0.0000000E+00; -5.2182589E+00;0;  3.2273885E-02;  3.9906824E+04;  0.0000000E+00; -5.6300634E-01;  4.0000000E+04;  0.0000000E+00;  3.9990953E+04;  2.6613995E-02;  0.0000000E+00;  5.6598904E-03;  1.2951559E+03;
  6.9788694E-02;  9.9999998E-03;  3.0003703E-01;2933; -1.0786585E-04;  0.0000000E+00;  4.6811512E-04;  9.9866400E+02;  1.0000000E-01; -1.1068329E+03;3;  1.0128928E+01;  0.0000000E+00; -1.5179670E+01;0;  2.8927285E-02;  3.9907621E+04;  0.0000000E+00; -6.8515170E-01;  4.0000000E+04;  0.0000000E+00;  3.9980699E+04;  2.2906478E-02;  0.0000000E+00;  6.0208058E-03;  2.4754546E+03;
  8.1270263E-02;  9.9999998E-03;  2.4004950E-01;2988;  3.8276475E-03;  0.0000000E+00;  4.1772588E-04;  1.0007535E+03;  1.0000000E-01;  6.2427863E+02;3; -6.0357684E-01;  0.0000000E+00;  1.4751805E+01;0;  4.8308738E-02;  4.0041273E+04;  0.0000000E+00;  1.0493999E+00;  4.0000000E+04;  0.0000000E+00;  4.0024133E+04;  4.7424577E-02;  0.0000000E+00;  8.8415877E-04;  3.3288884E+03;
  8.1123754E-02;  9.9999998E-03;  2.5004423E-01;2989;  3.6319997E-03;  0.0000000E+00;  4.5260621E-04;  1.0003040E+03;  1.0000000E-01;  2.5184473E+02;3;  2.7183449E+00;  0.0000000E+00;  1.7680826E+01;0;  4.6694010E-02;  4.0003457E+04;  0.0000000E+00;  9.2677766E-01;  4.0000000E+04;  0.0000000E+00;  4.0023633E+04;  4.4755407E-02;  0.0000000E+00;  1.9386036E-03;  3.2742913E+03;
  8.0936290E-02;  9.9999998E-03;  2.6002511E-01;2990;  3.2538259E-03;  0.0000000E+00;  4.0405407E-04;  9.9984601E+02;  1.0000000E-01; -1.2760133E+02;3;  6.1192098E+00;  0.0000000E+00;  1.7908365E+01;0;  4.4871774E-02;  3.9968871E+04;  0.0000000E+00;  7.2235948E-01;  4.0000000E+04;  0.0000000E+00;  4.0020379E+04;  4.1790918E-02;  0.0000000E+00;  3.0808561E-03;  2.7295269E+03;
  8.0698945E-02;  9.9999998E-03;  2.6999736E-01;2991;  2.6550326E-03;  0.0000000E+00;  3.7822174E-04;  9.9941034E+02;  1.0000000E-01; -4.8852939E+02;3;  9.4043522E+00;  0.0000000E+00;  1.4213410E+01;0;  4.2700026E-02;  3.9940117E+04;  0.0000000E+00;  4.5996535E-01;  4.0000000E+04;  0.0000000E+00;  4.0012293E+04;  3.8469594E-02;  0.0000000E+00;  4.2304317E-03;  1.7057699E+03;
  8.0416933E-02;  9.9999998E-03;  2.7997366E-01;2992;  1.7736652E-03;  0.0000000E+00;  4.8158440E-04;  9.9902960E+02;  1.0000000E-01; -8.0397723E+02;3;  1.2233636E+01;  0.0000000E+00;  6.3991623E+00;0;  4.0032364E-02;  3.9918785E+04;  0.0000000E+00;  1.7590792E-01;  4.0000000E+04;  0.0000000E+00;  4.0001109E+04;  3.4759302E-02;  0.0000000E+00;  5.2730632E-03;  3.5908264E+02;
  8.0111019E-02;  9.9999998E-03;  2.8998315E-01;2993;  7.7165721E-04;  0.0000000E+00;  6.1705022E-04;  9.9873962E+02;  1.0000000E-01; -1.0442174E+03;3;  1.3707266E+01;  0.0000000E+00; -4.3639083E+00;0;  3.6759585E-02;  3.9906434E+04;  0.0000000E+00; -8.6303711E-02;  4.0000000E+04;  0.0000000E+00;  3.9989465E+04;  3.0683985E-02;  0.0000000E+00;  6.0755992E-03;  1.2454003E+03;
  7.9844721E-02;  9.9999998E-03;  3.0004114E-01;2994;  6.8139190E-05;  0.0000000E+00;  5.9806765E-04;  9.9856598E+02;  1.0000000E-01; -1.1880652E+03;3;  1.2934301E+01;  0.0000000E+00; -1.5935046E+01;0;  3.2927323E-02;  3.9903102E+04;  0.0000000E+00; -2.8500003E-01;  4.0000000E+04;  0.0000000E+00;  3.9977812E+04;  2.6384737E-02;  0.0000000E+00;  6.5425867E-03;  2.6781372E+03;
  9.1213144E-02;  9.9999998E-03;  2.4005285E-01;3049;  4.0506371E-03;  0.0000000E+00;  6.3496106E-04;  1.0008137E+03;  1.0000000E-01;  6.7415375E+02;3;  1.3438953E+00;  0.0000000E+00;  1.6997086E+01;0;  5.4600131E-02;  4.0044117E+04;  0.0000000E+00;  1.7064523E+00;  4.0000000E+04;  0.0000000E+00;  4.0027180E+04;  5.4013215E-02;  0.0000000E+00;  5.8691623E-04;  4.1335854E+03;
  9.1082260E-02;  9.9999998E-03;  2.5005007E-01;3050;  3.9402470E-03;  0.0000000E+00;  5.9304858E-04;  1.0003199E+03;  1.0000000E-01;  2.6507892E+02;3;  4.3649530E+00;  0.0000000E+00;  2.0126049E+01;0;  5.2514885E-02;  4.0002672E+04;  0.0000000E+00;  1.7151175E+00;  4.0000000E+04;  0.0000000E+00;  4.0026738E+04;  5.0761491E-02;  0.0000000E+00;  1.7533922E-03;  4.1378457E+03;
  9.0918325E-02;  9.9999998E-03;  2.6002952E-01;3051;  3.6515694E-03;  0.0000000E+00;  4.7760236E-04;  9.9980511E+02;  1.0000000E-01; -1.6147691E+02;3;  7.6455598E+00;  0.0000000E+00;  2.0205523E+01;0;  5.0311953E-02;  3.9964246E+04;  0.0000000E+00;  1.6399292E+00;  4.0000000E+04;  0.0000000E+00;  4.0022047E+04;  4.7277216E-02;  0.0000000E+00;  3.0347351E-03;  3.6422600E+03;
  9.0710424E-02;  9.9999998E-03;  2.6999554E-01;3052;  3.1214675E-03;  0.0000000E+00;  3.8753226E-04;  9.9930560E+02;  1.0000000E-01; -5.7529236E+02;3;  1.0989937E+01;  0.0000000E+00;  1.5833885E+01;0;  4.7827087E-02;  3.9931246E+04;  0.0000000E+00;  1.4794797E+00;  4.0000000E+04;  0.0000000E+00;  4.0012875E+04;  4.3477364E-02;  0.0000000E+00;  4.3497253E-03;  2.7172183E+03;
  9.0465285E-02;  9.9999998E-03;  2.7995977E-01;3053;  2.3063456E-03;  0.0000000E+00;  4.2058065E-04;  9.9885956E+02;  1.0000000E-01; -9.4481281E+02;3;  1.4050766E+01;  0.0000000E+00;  6.6802483E+00;0;  4.4871859E-02;  3.9906469E+04;  0.0000000E+00;  1.2458063E+00;  4.0000000E+04;  0.0000000E+00;  4.0000648E+04;  3.9293487E-02;  0.0000000E+00;  5.5783736E-03;  1.8026870E+03;
  9.0186112E-02;  9.9999998E-03;  2.8996161E-01;3054;  1.2657554E-03;  0.0000000E+00;  5.8055593E-04;  9.9851874E+02;  1.0000000E-01; -1.2271752E+03;3;  1.6083685E+01;  0.0000000E+00; -5.8927922E+00;0;  4.1270167E-02;  3.9891512E+04;  0.0000000E+00;  9.6614516E-01;  4.0000000E+04;  0.0000000E+00;  3.9986688E+04;  3.4693111E-02;  0.0000000E+00;  6.5770578E-03;  2.0548889E+03;
  8.9928359E-02;  9.9999998E-03;  3.0003124E-01;3055;  3.8616153E-04;  0.0000000E+00;  6.6001760E-04;  9.9831177E+02;  1.0000000E-01; -1.3986765E+03;3;  1.6009895E+01;  0.0000000E+00; -1.9094728E+01;0;  3.7013084E-02;  3.9886719E+04;  0.0000000E+00;  6.7818373E-01;  4.0000000E+04;  0.0000000E+00;  3.9973660E+04;  2.9804146E-02;  0.0000000E+00;  7.2089382E-03;  3.2848279E+03;
  1.0117491E-01;  9.9999998E-03;  2.4004608E-01;3110;  5.1863571E-03;  0.0000000E+00;  1.9331856E-04;  1.0005902E+03;  1.0000000E-01;  4.8897382E+02;3;  2.8363345E+00;  0.0000000E+00;  1.7762014E+01;0;  5.9711613E-02;  4.0022918E+04;  0.0000000E+00;  2.5174341E+00;  4.0000000E+04;  0.0000000E+00;  4.0030988E+04;  5.9571713E-02;  0.0000000E+00;  1.3990095E-04;  5.2684355E+03;
  1.0105679E-01;  9.9999998E-03;  2.5004360E-01;3111;  5.4529281E-03;  0.0000000E+00;  7.1248851E-06;  1.0000745E+03;  1.0000000E-01;  6.1726650E+01;3;  5.7216244E+00;  0.0000000E+00;  2.0923077E+01;0;  5.7269428E-02;  3.9980211E+04;  0.0000000E+00;  2.8184342E+00;  4.0000000E+04;  0.0000000E+00;  4.0030586E+04;  5.5855092E-02;  0.0000000E+00;  1.4143359E-03;  5.5472676E+03;
  1.0090789E-01;  9.9999998E-03;  2.6002130E-01;3112;  5.2943318E-03;  0.0000000E+00; -1.8094698E-04;  9.9952582E+02;  1.0000000E-01; -3.9282840E+02;3;  9.0167599E+00;  0.0000000E+00;  2.0832712E+01;0;  5.4834805E-02;  3.9939891E+04;  0.0000000E+00;  3.0501630E+00;  4.0000000E+04;  0.0000000E+00;  4.0024488E+04;  5.1994018E-02;  0.0000000E+00;  2.8407855E-03;  5.3961855E+03;
  1.0072793E-01;  9.9999998E-03;  2.6997817E-01;3113;  4.6222019E-03;  0.0000000E+00; -2.7666843E-04;  9.9898657E+02;  1.0000000E-01; -8.3958118E+02;3;  1.2418382E+01;  0.0000000E+00;  1.5714443E+01;0;  5.2212950E-02;  3.9905129E+04;  0.0000000E+00;  3.1616764E+00;  4.0000000E+04;  0.0000000E+00;  4.0014684E+04;  4.7867380E-02;  0.0000000E+00;  4.3455688E-03;  4.9279600E+03;
  1.0051715E-01;  9.9999998E-03;  2.7993163E-01;3114;  3.6073641E-03;  0.0000000E+00; -2.0441963E-04;  9.9850488E+02;  1.0000000E-01; -1.2386810E+03;3;  1.5642760E+01;  0.0000000E+00;  5.2091885E+00;0;  4.9166020E-02;  3.9878980E+04;  0.0000000E+00;  3.1112120E+00;  4.0000000E+04;  0.0000000E+00;  4.0000336E+04;  4.3356393E-02;  0.0000000E+00;  5.8096261E-03;  4.4786958E+03;
  1.0027501E-01;  9.9999998E-03;  2.8992188E-01;3115;  2.3299416E-03;  0.0000000E+00;  1.1309688E-04;  9.9813306E+02;  1.0000000E-01; -1.5467217E+03;3;  1.8215105E+01;  0.0000000E+00; -9.2552452E+00;0;  4.5439661E-02;  3.9863754E+04;  0.0000000E+00;  2.8884788E+00;  4.0000000E+04;  0.0000000E+00;  3.9984918E+04;  3.8359329E-02;  0.0000000E+00;  7.0803310E-03;  4.5151641E+03;
  1.0004049E-01;  9.9999998E-03;  2.9999745E-01;3116;  1.0697509E-03;  0.0000000E+00;  4.8563202E-04;  9.9791095E+02;  1.0000000E-01; -1.7307164E+03;3;  1.9060635E+01;  0.0000000E+00; -2.4478722E+01;0;  4.0903158E-02;  3.9859793E+04;  0.0000000E+00;  2.5121133E+00;  4.0000000E+04;  0.0000000E+00;  3.9969172E+04;  3.2938626E-02;  0.0000000E+00;  7.9645328E-03;  5.1526533E+03;
  1.1117336E-01;  9.9999998E-03;  2.4001858E-01;3171;  9.1206422E-03;  0.0000000E+00; -1.3835703E-03;  1.0001802E+03;  1.0000000E-01;  1.4923035E+02;3;  4.8546662E+00;  0.0000000E+00;  1.7897312E+01;0;  6.3181303E-02;  3.9985668E+04;  0.0000000E+00;  3.5369294E+00;  4.0000000E+04;  0.0000000E+00;  4.0036371E+04;  6.3665435E-02;  0.0000000E+00; -4.8412941E-04;  6.7563584E+03;
  1.1105951E-01;  9.9999998E-03;  2.5000948E-01;3172;  9.1051981E-03;  0.0000000E+00; -1.5658423E-03;  9.9965460E+02;  1.0000000E-01; -2.8616473E+02;3;  7.6316557E+00;  0.0000000E+00;  2.1206409E+01;0;  6.0584515E-02;  3.9942441E+04;  0.0000000E+00;  4.3190560E+00;  4.0000000E+04;  0.0000000E+00;  4.0034852E+04;  5.9725486E-02;  0.0000000E+00;  8.5902913E-04;  7.6104424E+03;
  1.1091872E-01;  9.9999998E-03;  2.5998071E-01;3173;  8.7685753E-03;  0.0000000E+00; -1.7473401E-03;  9.9908612E+02;  1.0000000E-01; -7.5711438E+02;3;  1.1055839E+01;  0.0000000E+00;  2.1152605E+01;0;  5.8184382E-02;  3.9901195E+04;  0.0000000E+00;  5.0767279E+00;  4.0000000E+04;  0.0000000E+00;  4.0028789E+04;  5.5794474E-02;  0.0000000E+00;  2.3899069E-03;  8.1783193E+03;
  1.1075586E-01;  9.9999998E-03;  2.6992849E-01;3174;  8.1157265E-03;  0.0000000E+00; -1.9468202E-03;  9.9852057E+02;  1.0000000E-01; -1.2256937E+03;3;  1.4909857E+01;  0.0000000E+00;  1.5910369E+01;0;  5.5771984E-02;  3.9865828E+04;  0.0000000E+00;  5.6849780E+00;  4.0000000E+04;  0.0000000E+00;  4.0017184E+04;  5.1743813E-02;  0.0000000E+00;  4.0281722E-03;  8.5022695E+03;
  1.1057264E-01;  9.9999998E-03;  2.7987000E-01;3175;  6.7808377E-03;  0.0000000E+00; -1.9731594E-03;  9.9801056E+02;  1.0000000E-01; -1.6482003E+03;3;  1.8285822E+01;  0.0000000E+00;  4.4562898E+00;0;  5.2946031E-02;  3.9839434E+04;  0.0000000E+00;  6.0169744E+00;  4.0000000E+04;  0.0000000E+00;  4.0001242E+04;  4.7259722E-02;  0.0000000E+00;  5.6863111E-03;  8.6785176E+03;
  1.1037342E-01;  9.9999998E-03;  2.8984439E-01;3176;  4.9712081E-03;  0.0000000E+00; -1.6264356E-03;  9.9761554E+02;  1.0000000E-01; -1.9754996E+03;3;  2.0941629E+01;  0.0000000E+00; -1.1949928E+01;0;  4.9356420E-02;  3.9824453E+04;  0.0000000E+00;  5.9848309E+00;  4.0000000E+04;  0.0000000E+00;  3.9983406E+04;  4.2115409E-02;  0.0000000E+00;  7.2410102E-03;  8.8175625E+03;
  1.1017614E-01;  9.9999998E-03;  2.9992205E-01;3177;  2.9631755E-03;  0.0000000E+00; -7.8562403E-04;  9.9737830E+02;  1.0000000E-01; -2.1720374E+03;3;  2.2250233E+01;  0.0000000E+00; -3.0081640E+01;0;  4.4741243E-02;  3.9822184E+04;  0.0000000E+00;  5.5520539E+00;  4.0000000E+04;  0.0000000E+00;  3.9965445E+04;  3.6232255E-02;  0.0000000E+00;  8.5089887E-03;  8.9819590E+03;
  1.2120295E-01;  9.9999998E-03;  2.3996656E-01;3232;  1.0941268E-02;  0.0000000E+00; -2.3488994E-03;  9.9968170E+02;  1.0000000E-01; -2.6369626E+02;3;  5.3529000E+00;  0.0000000E+00;  1.7783110E+01;0;  6.4560004E-02;  3.9940441E+04;  0.0000000E+00;  4.7809100E+00;  4.0000000E+04;  0.0000000E+00;  4.0040984E+04;  6.5704226E-02;  0.0000000E+00; -1.1442197E-03;  8.5983252E+03;
  1.2107204E-01;  9.9999998E-03;  2.4994785E-01;3233;  1.0536932E-02;  0.0000000E+00; -2.4412016E-03;  9.9914758E+02;  1.0000000E-01; -7.0620227E+02;3;  7.8608031E+00;  0.0000000E+00;  2.1156197E+01;0;  6.2034175E-02;  3.9896777E+04;  0.0000000E+00;  6.2376237E+00;  4.0000000E+04;  0.0000000E+00;  4.0040203E+04;  6.1793875E-02;  0.0000000E+00;  2.4030171E-04;  1.0358882E+04;
  1.2092046E-01;  9.9999998E-03;  2.5990927E-01;3234;  1.0052989E-02;  0.0000000E+00; -2.6032501E-03;  9.9856262E+02;  1.0000000E-01; -1.1908306E+03;3;  1.1242497E+01;  0.0000000E+00;  2.1111340E+01;0;  5.9888270E-02;  3.9854871E+04;  0.0000000E+00;  7.7690239E+00;  4.0000000E+04;  0.0000000E+00;  4.0034055E+04;  5.8053553E-02;  0.0000000E+00;  1.8347176E-03;  1.2048207E+04;
  1.2075819E-01;  9.9999998E-03;  2.6984945E-01;3235;  9.5021650E-03;  0.0000000E+00; -2.8518692E-03;  9.9798090E+02;  1.0000000E-01; -1.6727922E+03;3;  1.5416632E+01;  0.0000000E+00;  1.5858765E+01;0;  5.7935279E-02;  3.9818723E+04;  0.0000000E+00;  9.1584091E+00;  4.0000000E+04;  0.0000000E+00;  4.0022043E+04;  5.4375883E-02;  0.0000000E+00;  3.5593947E-03;  1.3555116E+04;
  1.2060004E-01;  9.9999998E-03;  2.7977774E-01;3236;  8.8325059E-03;  0.0000000E+00; -3.1687352E-03;  9.9745135E+02;  1.0000000E-01; -2.1114958E+03;3;  2.0082695E+01;  0.0000000E+00;  4.6666121E+00;0;  5.5859283E-02;  3.9791719E+04;  0.0000000E+00;  1.0165407E+01;  4.0000000E+04;  0.0000000E+00;  4.0005406E+04;  5.0568178E-02;  0.0000000E+00;  5.2911043E-03;  1.4716785E+04;
  1.2044646E-01;  9.9999998E-03;  2.8973466E-01;3237;  7.8302780E-03;  0.0000000E+00; -3.4638259E-03;  9.9702936E+02;  1.0000000E-01; -2.4611155E+03;3;  2.4403681E+01;  0.0000000E+00; -1.1849659E+01;0;  5.3157426E-02;  3.9776738E+04;  0.0000000E+00;  1.0566245E+01;  4.0000000E+04;  0.0000000E+00;  3.9985348E+04;  4.6271309E-02;  0.0000000E+00;  6.8861172E-03;  1.5332020E+04;
  1.2031710E-01;  9.9999998E-03;  2.9979327E-01;3238;  6.2870802E-03;  0.0000000E+00; -3.4080788E-03;  9.9674469E+02;  1.0000000E-01; -2.6969607E+03;3;  2.7383051E+01;  0.0000000E+00; -3.1498352E+01;0;  4.9263202E-02;  3.9773602E+04;  0.0000000E+00;  1.0184665E+01;  4.0000000E+04;  0.0000000E+00;  3.9964844E+04;  4.1023929E-02;  0.0000000E+00;  8.2392711E-03;  1.5243214E+04;
  1.3122143E-01;  9.9999998E-03;  2.3991355E-01;3293;  1.1361454E-02;  0.0000000E+00; -2.4357133E-03;  9.9918713E+02;  1.0000000E-01; -6.7346246E+02;3;  5.2390695E+00;  0.0000000E+00;  1.7972876E+01;0;  6.4164378E-02;  3.9895691E+04;  0.0000000E+00;  6.1971827E+00;  4.0000000E+04;  0.0000000E+00;  4.0046184E+04;  6.5895207E-02;  0.0000000E+00; -1.7308281E-03;  1.0702229E+04;
  1.3107428E-01;  9.9999998E-03;  2.4988098E-01;3294;  1.0844191E-02;  0.0000000E+00; -2.5303494E-03;  9.9864319E+02;  1.0000000E-01; -1.1241163E+03;3;  7.7952409E+00;  0.0000000E+00;  2.1684904E+01;0;  6.1990477E-02;  3.9850090E+04;  0.0000000E+00;  8.5007725E+00;  4.0000000E+04;  0.0000000E+00;  4.0047230E+04;  6.2330049E-02;  0.0000000E+00; -3.3957046E-04;  1.3685000E+04;
  1.3090645E-01;  9.9999998E-03;  2.5982913E-01;3295;  1.0308077E-02;  0.0000000E+00; -2.7124106E-03;  9.9804742E+02;  1.0000000E-01; -1.6176826E+03;3;  1.1390489E+01;  0.0000000E+00;  2.2105556E+01;0;  6.0325101E-02;  3.9806562E+04;  0.0000000E+00;  1.1068569E+01;  4.0000000E+04;  0.0000000E+00;  4.0041430E+04;  5.9049696E-02;  0.0000000E+00;  1.2754053E-03;  1.6914398E+04;
  1.3073899E-01;  9.9999998E-03;  2.6975566E-01;3296;  9.7484253E-03;  0.0000000E+00; -2.9608102E-03;  9.9745422E+02;  1.0000000E-01; -2.1091255E+03;3;  1.5984145E+01;  0.0000000E+00;  1.7513252E+01;0;  5.8998540E-02;  3.9769520E+04;  0.0000000E+00;  1.3603837E+01;  4.0000000E+04;  0.0000000E+00;  4.0029758E+04;  5.5950671E-02;  0.0000000E+00;  3.0478677E-03;  2.0125016E+04;
  1.3058469E-01;  9.9999998E-03;  2.7967635E-01;3297;  9.1548767E-03;  0.0000000E+00; -3.2916027E-03;  9.9691736E+02;  1.0000000E-01; -2.5539031E+03;3;  2.1169975E+01;  0.0000000E+00;  7.0015502E+00;0;  5.7703517E-02;  3.9742156E+04;  0.0000000E+00;  1.5710630E+01;  4.0000000E+04;  0.0000000E+00;  4.0013586E+04;  5.2854612E-02;  0.0000000E+00;  4.8489049E-03;  2.2855436E+04;
  1.3046518E-01;  9.9999998E-03;  2.8961629E-01;3298;  8.4639993E-03;  0.0000000E+00; -3.6865508E-03;  9.9647363E+02;  1.0000000E-01; -2.9215471E+03;3;  2.6252348E+01;  0.0000000E+00; -8.8431969E+00;0;  5.6000721E-02;  3.9725684E+04;  0.0000000E+00;  1.6960070E+01;  4.0000000E+04;  0.0000000E+00;  3.9993562E+04;  4.9494147E-02;  0.0000000E+00;  6.5065734E-03;  2.4551271E+04;
  1.3039811E-01;  9.9999998E-03;  2.9966256E-01;3299;  7.5118840E-03;  0.0000000E+00; -4.0404452E-03;  9.9610999E+02;  1.0000000E-01; -3.2228225E+03;3;  3.0301647E+01;  0.0000000E+00; -2.9357096E+01;0;  5.3269874E-02;  3.9718918E+04;  0.0000000E+00;  1.6871773E+01;  4.0000000E+04;  0.0000000E+00;  3.9970594E+04;  4.5423023E-02;  0.0000000E+00;  7.8468509E-03;  2.4598750E+04;
  1.4124018E-01;  9.9999998E-03;  2.3987862E-01;3354;  1.1353271E-02;  0.0000000E+00; -2.2174527E-03;  9.9877301E+02;  1.0000000E-01; -1.0165145E+03;3;  5.1175303E+00;  0.0000000E+00;  1.8142252E+01;0;  6.2716089E-02;  3.9857191E+04;  0.0000000E+00;  7.6541314E+00;  4.0000000E+04;  0.0000000E+00;  4.0051070E+04;  6.4940169E-02;  0.0000000E+00; -2.2240803E-03;  1.2863149E+04;
  1.4109702E-01;  9.9999998E-03;  2.4982411E-01;3355;  1.0777568E-02;  0.0000000E+00; -2.3109585E-03;  9.9820490E+02;  1.0000000E-01; -1.4872172E+03;3;  8.0284290E+00;  0.0000000E+00;  2.2519037E+01;0;  6.1128229E-02;  3.9807988E+04;  0.0000000E+00;  1.0919067E+01;  4.0000000E+04;  0.0000000E+00;  4.0054449E+04;  6.1982177E-02;  0.0000000E+00; -8.5395016E-04;  1.7315891E+04;
  1.4092341E-01;  9.9999998E-03;  2.5975087E-01;3356;  1.0195157E-02;  0.0000000E+00; -2.4873554E-03;  9.9759558E+02;  1.0000000E-01; -1.9919930E+03;3;  1.2382917E+01;  0.0000000E+00;  2.4160709E+01;0;  6.0131386E-02;  3.9761059E+04;  0.0000000E+00;  1.4786221E+01;  4.0000000E+04;  0.0000000E+00;  4.0051625E+04;  5.9381451E-02;  0.0000000E+00;  7.4993633E-04;  2.2518197E+04;
  1.4072952E-01;  9.9999998E-03;  2.6966801E-01;3357;  9.6502416E-03;  0.0000000E+00; -2.7615605E-03;  9.9700739E+02;  1.0000000E-01; -2.4793374E+03;3;  1.8138798E+01;  0.0000000E+00;  2.1191690E+01;0;  5.9576258E-02;  3.9722059E+04;  0.0000000E+00;  1.8920612E+01;  4.0000000E+04;  0.0000000E+00;  4.0042332E+04;  5.7071000E-02;  0.0000000E+00;  2.5052568E-03;  2.8091766E+04;
  1.4056423E-01;  9.9999998E-03;  2.7957568E-01;3358;  9.1571519E-03;  0.0000000E+00; -3.1307198E-03;  9.9648230E+02;  1.0000000E-01; -2.9143374E+03;3;  2.4819862E+01;  0.0000000E+00;  1.2738674E+01;0;  5.9215143E-02;  3.9693840E+04;  0.0000000E+00;  2.2752956E+01;  4.0000000E+04;  0.0000000E+00;  4.0027879E+04;  5.4935675E-02;  0.0000000E+00;  4.2794701E-03;  3.3290305E+04;
  1.4045684E-01;  9.9999998E-03;  2.8950536E-01;3359;  8.6868908E-03;  0.0000000E+00; -3.6009504E-03;  9.9602814E+02;  1.0000000E-01; -3.2906230E+03;3;  3.1340080E+01;  0.0000000E+00; -1.3784499E+00;0;  5.8676414E-02;  3.9675863E+04;  0.0000000E+00;  2.5504597E+01;  4.0000000E+04;  0.0000000E+00;  4.0009348E+04;  5.2791126E-02;  0.0000000E+00;  5.8852863E-03;  3.7009930E+04;
  1.4044599E-01;  9.9999998E-03;  2.9953897E-01;3360;  8.1162639E-03;  0.0000000E+00; -4.0935944E-03;  9.9554266E+02;  1.0000000E-01; -3.6928337E+03;3;  3.6173748E+01;  0.0000000E+00; -2.2288801E+01;0;  5.7420410E-02;  3.9661191E+04;  0.0000000E+00;  2.6157471E+01;  4.0000000E+04;  0.0000000E+00;  3.9985160E+04;  5.0272271E-02;  0.0000000E+00;  7.1481373E-03;  3.7844680E+04;
  1.5128718E-01;  9.9999998E-03;  2.3987429E-01;3415;  1.1144822E-02;  0.0000000E+00; -1.8175381E-03;  9.9846234E+02;  1.0000000E-01; -1.2739393E+03;3;  5.1355257E+00;  0.0000000E+00;  1.7969044E+01;0;  6.1033793E-02;  3.9828965E+04;  0.0000000E+00;  8.9488602E+00;  4.0000000E+04;  0.0000000E+00;  4.0054051E+04;  6.3587770E-02;  0.0000000E+00; -2.5539771E-03;  1.4753702E+04;
  1.5115914E-01;  9.9999998E-03;  2.4980085E-01;3416;  1.0505557E-02;  0.0000000E+00; -1.9184228E-03;  9.9786359E+02;  1.0000000E-01; -1.7699746E+03;3;  8.7441301E+00;  0.0000000E+00;  2.3111340E+01;0;  6.0187861E-02;  3.9774199E+04;  0.0000000E+00;  1.3180685E+01;  4.0000000E+04;  0.0000000E+00;  4.0060449E+04;  6.1403483E-02;  0.0000000E+00; -1.2156214E-03;  2.0763994E+04;
  1.5099487E-01;  9.9999998E-03;  2.5970757E-01;3417;  9.8895272E-03;  0.0000000E+00; -2.0829202E-03;  9.9722479E+02;  1.0000000E-01; -2.2991943E+03;3;  1.4559122E+01;  0.0000000E+00;  2.6395536E+01;0;  5.9990015E-02;  3.9720344E+04;  0.0000000E+00;  1.8515236E+01;  4.0000000E+04;  0.0000000E+00;  4.0062137E+04;  5.9625309E-02;  0.0000000E+00;  3.6470592E-04;  2.8248840E+04;
  1.5078920E-01;  9.9999998E-03;  2.6960617E-01;3418;  9.3359109E-03;  0.0000000E+00; -2.3490172E-03;  9.9663245E+02;  1.0000000E-01; -2.7899458E+03;3;  2.2749008E+01;  0.0000000E+00;  2.6050133E+01;0;  6.0288895E-02;  3.9676516E+04;  0.0000000E+00;  2.4717943E+01;  4.0000000E+04;  0.0000000E+00;  4.0058426E+04;  5.8209684E-02;  0.0000000E+00;  2.0792112E-03;  3.6914809E+04;
  1.5057643E-01;  9.9999998E-03;  2.7951366E-01;3419;  8.9105247E-03;  0.0000000E+00; -2.7038881E-03;  9.9616034E+02;  1.0000000E-01; -3.1810952E+03;3;  3.2681946E+01;  0.0000000E+00;  2.0585896E+01;0;  6.0941100E-02;  3.9648027E+04;  0.0000000E+00;  3.1078108E+01;  4.0000000E+04;  0.0000000E+00;  4.0048449E+04;  5.7140157E-02;  0.0000000E+00;  3.8009435E-03;  4.5739688E+04;
  1.5045725E-01;  9.9999998E-03;  2.8944713E-01;3420;  8.6411545E-03;  0.0000000E+00; -3.1738337E-03;  9.9571350E+02;  1.0000000E-01; -3.5513069E+03;3;  4.2674644E+01;  0.0000000E+00;  8.7142630E+00;0;  6.1754104E-02;  3.9628641E+04;  0.0000000E+00;  3.6223114E+01;  4.0000000E+04;  0.0000000E+00;  4.0032492E+04;  5.6447037E-02;  0.0000000E+00;  5.3070672E-03;  5.2765020E+04;
  1.5049382E-01;  9.9999998E-03;  2.9948694E-01;3421;  8.4829060E-03;  0.0000000E+00; -3.7415344E-03;  9.9502972E+02;  1.0000000E-01; -4.1177603E+03;3;  4.9554718E+01;  0.0000000E+00; -1.3616657E+01;0;  6.2480211E-02;  3.9600402E+04;  0.0000000E+00;  3.8063221E+01;  4.0000000E+04;  0.0000000E+00;  4.0006711E+04;  5.6104787E-02;  0.0000000E+00;  6.3754264E-03;  5.5039656E+04;
  1.6136977E-01;  9.9999998E-03;  2.3991118E-01;3476;  1.0840341E-02;  0.0000000E+00; -1.3044497E-03;  9.9824921E+02;  1.0000000E-01; -1.4504775E+03;3;  5.2053447E+00;  0.0000000E+00;  1.6898611E+01;0;  5.9880324E-02;  3.9812473E+04;  0.0000000E+00;  9.8402777E+00;  4.0000000E+04;  0.0000000E+00;  4.0053250E+04;  6.2513985E-02;  0.0000000E+00; -2.6336613E-03;  1.5956421E+04;
  1.6130029E-01;  9.9999998E-03;  2.4982762E-01;3477;  1.0123902E-02;  0.0000000E+00; -1.3846074E-03;  9.9757977E+02;  1.0000000E-01; -2.0051284E+03;3;  9.7764864E+00;  0.0000000E+00;  2.2376825E+01;0;  5.9899345E-02;  3.9748156E+04;  0.0000000E+00;  1.4805531E+01;  4.0000000E+04;  0.0000000E+00;  4.0063711E+04;  6.1177667E-02;  0.0000000E+00; -1.2783222E-03;  2.3254705E+04;
  1.6115233E-01;  9.9999998E-03;  2.5972220E-01;3478;  9.4395960E-03;  0.0000000E+00; -1.5084487E-03;  9.9687982E+02;  1.0000000E-01; -2.5850134E+03;3;  1.7657452E+01;  0.0000000E+00;  2.6993465E+01;0;  6.0586318E-02;  3.9684082E+04;  0.0000000E+00;  2.1483196E+01;  4.0000000E+04;  0.0000000E+00;  4.0071098E+04;  6.0244199E-02;  0.0000000E+00;  3.4211855E-04;  3.2919996E+04;
  1.6093856E-01;  9.9999998E-03;  2.6960862E-01;3479;  8.8539040E-03;  0.0000000E+00; -1.6798972E-03;  9.9626013E+02;  1.0000000E-01; -3.0984309E+03;3;  2.9626459E+01;  0.0000000E+00;  2.9255295E+01;0;  6.1847642E-02;  3.9630629E+04;  0.0000000E+00;  2.9941462E+01;  4.0000000E+04;  0.0000000E+00;  4.0074469E+04;  5.9705760E-02;  0.0000000E+00;  2.1418822E-03;  4.5024891E+04;
  1.6069745E-01;  9.9999998E-03;  2.7952549E-01;3480;  8.4733795E-03;  0.0000000E+00; -1.9176961E-03;  9.9578192E+02;  1.0000000E-01; -3.4946172E+03;3;  4.5060249E+01;  0.0000000E+00;  2.5981722E+01;0;  6.3649759E-02;  3.9596781E+04;  0.0000000E+00;  3.9392517E+01;  4.0000000E+04;  0.0000000E+00;  4.0069516E+04;  5.9689663E-02;  0.0000000E+00;  3.9600935E-03;  5.8319961E+04;
  1.6054398E-01;  9.9999998E-03;  2.8950512E-01;3481;  8.4418105E-03;  0.0000000E+00; -2.2778278E-03;  9.9528009E+02;  1.0000000E-01; -3.9103586E+03;3;  6.0531086E+01;  0.0000000E+00;  1.2633609E+01;0;  6.6196837E-02;  3.9573734E+04;  0.0000000E+00;  4.7427002E+01;  4.0000000E+04;  0.0000000E+00;  4.0052930E+04;  6.0692467E-02;  0.0000000E+00;  5.5043725E-03;  6.9318844E+04;
  1.6062668E-01;  9.9999998E-03;  2.9959628E-01;3482;  8.8926898E-03;  0.0000000E+00; -2.9410445E-03;  9.9418414E+02;  1.0000000E-01; -4.8183330E+03;3;  6.9684212E+01;  0.0000000E+00; -1.7251471E+01;0;  6.9931999E-02;  3.9520199E+04;  0.0000000E+00;  4.9845181E+01;  4.0000000E+04;  0.0000000E+00;  4.0019770E+04;  6.3735045E-02;  0.0000000E+00;  6.1969496E-03;  7.2156188E+04;
  1.7144060E-01;  9.9999998E-03;  2.3999909E-01;3537;  1.0502428E-02;  0.0000000E+00; -7.0900656E-04;  9.9809937E+02;  1.0000000E-01; -1.5746222E+03;3;  5.0544014E+00;  0.0000000E+00;  1.4370379E+01;0;  5.9842464E-02;  3.9807469E+04;  0.0000000E+00;  1.0154548E+01;  4.0000000E+04;  0.0000000E+00;  4.0045961E+04;  6.2198162E-02;  0.0000000E+00; -2.3556985E-03;  1.6109975E+04;
  1.7144421E-01;  9.9999998E-03;  2.4992619E-01;3538;  9.6924827E-03;  0.0000000E+00; -7.4863830E-04;  9.9731903E+02;  1.0000000E-01; -2.2211223E+03;3;  1.0422396E+01;  0.0000000E+00;  1.8817007E+01;0;  6.0832404E-02;  3.9732934E+04;  0.0000000E+00;  1.5325639E+01;  4.0000000E+04;  0.0000000E+00;  4.0057531E+04;  6.1693460E-02;  0.0000000E+00; -8.6105778E-04;  2.3919494E+04;
  1.7135988E-01;  9.9999998E-03;  2.5982112E-01;3539;  8.8953543E-03;  0.0000000E+00; -7.8888558E-04;  9.9648578E+02;  1.0000000E-01; -2.9114731E+03;3;  2.0230486E+01;  0.0000000E+00;  2.2957685E+01;0;  6.2502578E-02;  3.9653758E+04;  0.0000000E+00;  2.2590218E+01;  4.0000000E+04;  0.0000000E+00;  4.0069742E+04;  6.1514322E-02;  0.0000000E+00;  9.8825595E-04;  3.4739695E+04;
  1.7118059E-01;  9.9999998E-03;  2.6971197E-01;3540;  8.2362806E-03;  0.0000000E+00; -7.9789036E-04;  9.9572009E+02;  1.0000000E-01; -3.5458257E+03;3;  3.6120586E+01;  0.0000000E+00;  2.5180851E+01;0;  6.4872243E-02;  3.9582715E+04;  0.0000000E+00;  3.2515049E+01;  4.0000000E+04;  0.0000000E+00;  4.0078988E+04;  6.1694883E-02;  0.0000000E+00;  3.1773592E-03;  4.9239234E+04;
  1.7095530E-01;  9.9999998E-03;  2.7965257E-01;3541;  7.9693235E-03;  0.0000000E+00; -8.4714475E-04;  9.9504761E+02;  1.0000000E-01; -4.1029458E+03;3;  5.7432827E+01;  0.0000000E+00;  1.9728325E+01;0;  6.8221860E-02;  3.9530621E+04;  0.0000000E+00;  4.4299797E+01;  4.0000000E+04;  0.0000000E+00;  4.0076727E+04;  6.2774926E-02;  0.0000000E+00;  5.4469341E-03;  6.6004469E+04;
  1.7082442E-01;  9.9999998E-03;  2.8969851E-01;3542;  8.4747160E-03;  0.0000000E+00; -1.2110685E-03;  9.9413300E+02;  1.0000000E-01; -4.8607021E+03;3;  7.7229515E+01;  0.0000000E+00; -3.8483903E+00;0;  7.3437728E-02;  3.9482793E+04;  0.0000000E+00;  5.3702873E+01;  4.0000000E+04;  0.0000000E+00;  4.0051266E+04;  6.6497214E-02;  0.0000000E+00;  6.9405171E-03;  7.8840664E+04;
  1.7099293E-01;  9.9999998E-03;  2.9987696E-01;3543;  1.0406877E-02;  0.0000000E+00; -2.3515401E-03;  9.9203174E+02;  1.0000000E-01; -6.6015415E+03;3;  8.2954559E+01;  0.0000000E+00; -5.3089321E+01;0;  8.3583660E-02;  3.9369699E+04;  0.0000000E+00;  5.2973324E+01;  4.0000000E+04;  0.0000000E+00;  3.9997770E+04;  7.7417254E-02;  0.0000000E+00;  6.1664050E-03;  7.6986828E+04;
  1.8143262E-01;  9.9999998E-03;  2.4012117E-01;3598;  1.0188941E-02;  0.0000000E+00; -9.4670773E-05;  9.9798676E+02;  1.0000000E-01; -1.6679529E+03;3;  4.3494868E+00;  0.0000000E+00;  1.0142776E+01;0;  6.1138012E-02;  3.9814520E+04;  0.0000000E+00;  9.9673681E+00;  4.0000000E+04;  0.0000000E+00;  4.0029371E+04;  6.2793918E-02;  0.0000000E+00; -1.6559073E-03;  1.5330235E+04;
  1.8147786E-01;  9.9999998E-03;  2.5007248E-01;3599;  9.3168216E-03;  0.0000000E+00; -1.1788119E-04;  9.9711243E+02;  1.0000000E-01; -2.3922781E+03;3;  9.7500515E+00;  0.0000000E+00;  1.1849034E+01;0;  6.3161850E-02;  3.9735180E+04;  0.0000000E+00;  1.4836793E+01;  4.0000000E+04;  0.0000000E+00;  4.0038625E+04;  6.3052915E-02;  0.0000000E+00;  1.0893421E-04;  2.2806201E+04;
  1.8146713E-01;  9.9999998E-03;  2.5998676E-01;3600;  8.4680272E-03;  0.0000000E+00; -1.0565044E-04;  9.9611639E+02;  1.0000000E-01; -3.2174893E+03;3;  2.0108072E+01;  0.0000000E+00;  1.2589463E+01;0;  6.5953396E-02;  3.9643270E+04;  0.0000000E+00;  2.1664824E+01;  4.0000000E+04;  0.0000000E+00;  4.0050355E+04;  6.3590795E-02;  0.0000000E+00;  2.3626029E-03;  3.3232934E+04;
  1.8138988E-01;  9.9999998E-03;  2.6989955E-01;3601;  7.8194970E-03;  0.0000000E+00;  6.2082017E-06;  9.9505176E+02;  1.0000000E-01; -4.0995386E+03;3;  3.7481323E+01;  0.0000000E+00;  1.0056517E+01;0;  6.9749780E-02;  3.9547859E+04;  0.0000000E+00;  3.1079599E+01;  4.0000000E+04;  0.0000000E+00;  4.0060273E+04;  6.4544715E-02;  0.0000000E+00;  5.2050659E-03;  4.7317094E+04;
  1.8129134E-01;  9.9999998E-03;  2.7986249E-01;3602;  7.8215543E-03;  0.0000000E+00; -6.6915192E-05;  9.9383850E+02;  1.0000000E-01; -5.1046953E+03;3;  6.0656700E+01;  0.0000000E+00; -3.8138027E+00;0;  7.4926339E-02;  3.9454020E+04;  0.0000000E+00;  4.1891739E+01;  4.0000000E+04;  0.0000000E+00;  4.0056012E+04;  6.7165442E-02;  0.0000000E+00;  7.7608963E-03;  6.2994527E+04;
  1.8130332E-01;  9.9999998E-03;  2.8992566E-01;3603;  9.1877403E-03;  0.0000000E+00; -9.1917609E-04;  9.9197156E+02;  1.0000000E-01; -6.6514170E+03;3;  7.9051743E+01;  0.0000000E+00; -4.2035213E+01;0;  8.3095275E-02;  3.9338184E+04;  0.0000000E+00;  4.8179802E+01;  4.0000000E+04;  0.0000000E+00;  4.0022531E+04;  7.5370863E-02;  0.0000000E+00;  7.7244136E-03;  7.1549422E+04;
  1.8160886E-01;  9.9999998E-03;  3.0006349E-01;3604;  1.1345580E-02;  0.0000000E+00; -3.0302904E-03;  9.8844940E+02;  1.0000000E-01; -9.5694580E+03;3;  7.7347450E+01;  0.0000000E+00; -1.0254865E+02;0;  9.3948558E-02;  3.9115430E+04;  0.0000000E+00;  4.0843040E+01;  4.0000000E+04;  0.0000000E+00;  3.9965512E+04;  9.1165014E-02;  0.0000000E+00;  2.7835406E-03;  6.0044367E+04;
  1.9134927E-01;  9.9999998E-03;  2.4023412E-01;3659;  1.0001390E-02;  0.0000000E+00;  3.9575997E-04;  9.9789551E+02;  1.0000000E-01; -1.7435557E+03;3;  2.9842482E+00;  0.0000000E+00;  4.9707274E+00;0;  6.3448250E-02;  3.9830039E+04;  0.0000000E+00;  9.5712719E+00;  4.0000000E+04;  0.0000000E+00;  4.0006605E+04;  6.4099513E-02;  0.0000000E+00; -6.5126037E-04;  1.4373314E+04;
  1.9140673E-01;  9.9999998E-03;  2.5020227E-01;3660;  9.1643659E-03;  0.0000000E+00;  3.2353748E-04;  9.9699530E+02;  1.0000000E-01; -2.4893123E+03;3;  7.5564513E+00;  0.0000000E+00;  3.1972589E+00;0;  6.6460349E-02;  3.9753523E+04;  0.0000000E+00;  1.3960034E+01;  4.0000000E+04;  0.0000000E+00;  4.0010836E+04;  6.5071896E-02;  0.0000000E+00;  1.3884536E-03;  2.1166230E+04;
  1.9143084E-01;  9.9999998E-03;  2.6013172E-01;3661;  8.4310742E-03;  0.0000000E+00;  2.8333755E-04;  9.9593890E+02;  1.0000000E-01; -3.3645469E+03;3;  1.6872574E+01;  0.0000000E+00; -5.4952997E-01;0;  7.0420645E-02;  3.9660121E+04;  0.0000000E+00;  1.9999018E+01;  4.0000000E+04;  0.0000000E+00;  4.0019285E+04;  6.6460975E-02;  0.0000000E+00;  3.9596697E-03;  3.0546658E+04;
  1.9142762E-01;  9.9999998E-03;  2.7006263E-01;3662;  8.0690710E-03;  0.0000000E+00;  2.8860415E-04;  9.9469330E+02;  1.0000000E-01; -4.3965176E+03;3;  3.2761982E+01;  0.0000000E+00; -9.1709833E+00;0;  7.5798936E-02;  3.9551926E+04;  0.0000000E+00;  2.7975134E+01;  4.0000000E+04;  0.0000000E+00;  4.0026809E+04;  6.8773098E-02;  0.0000000E+00;  7.0258384E-03;  4.2756660E+04;
  1.9149852E-01;  9.9999998E-03;  2.8002843E-01;3663;  8.4584747E-03;  0.0000000E+00; -4.7943300E-05;  9.9290930E+02;  1.0000000E-01; -5.8745005E+03;3;  5.3104477E+01;  0.0000000E+00; -3.0509726E+01;0;  8.2652189E-02;  3.9412570E+04;  0.0000000E+00;  3.4841686E+01;  4.0000000E+04;  0.0000000E+00;  4.0022594E+04;  7.3671244E-02;  0.0000000E+00;  8.9809448E-03;  5.3048488E+04;
  1.9179611E-01;  9.9999998E-03;  2.9001227E-01;3664;  8.6426875E-03;  0.0000000E+00; -1.1929583E-03;  9.8985663E+02;  1.0000000E-01; -8.4036143E+03;3;  6.9275047E+01;  0.0000000E+00; -6.6394157E+01;0;  8.6655252E-02;  3.9183133E+04;  0.0000000E+00;  3.2575310E+01;  4.0000000E+04;  0.0000000E+00;  4.0007898E+04;  7.9588540E-02;  0.0000000E+00;  7.0667118E-03;  4.9364746E+04;
  1.9225584E-01;  9.9999998E-03;  2.9994896E-01;3665;  5.3707864E-03;  0.0000000E+00; -2.1676451E-03;  9.8534259E+02;  1.0000000E-01; -1.2143409E+04;3;  8.3595963E+01;  0.0000000E+00; -9.6009010E+01;0;  7.4339360E-02;  3.8823535E+04;  0.0000000E+00;  2.0799929E+01;  4.0000000E+04;  0.0000000E+00;  4.0011426E+04;  6.9684066E-02;  0.0000000E+00;  4.6552978E-03;  3.0173836E+04;
  2.0123273E-01;  9.9999998E-03;  2.4028586E-01;3720;  1.0017163E-02;  0.0000000E+00;  6.5798016E-04;  9.9784595E+02;  1.0000000E-01; -1.7845916E+03;3;  1.3832060E+00;  0.0000000E+00;  6.8689579E-01;0;  6.5997072E-02;  3.9847664E+04;  0.0000000E+00;  9.2661572E+00;  4.0000000E+04;  0.0000000E+00;  3.9985316E+04;  6.5598577E-02;  0.0000000E+00;  3.9849232E-04;  1.4017982E+04;
  2.0128459E-01;  9.9999998E-03;  2.5025687E-01;3721;  9.2565138E-03;  0.0000000E+00;  4.7460248E-04;  9.9701355E+02;  1.0000000E-01; -2.4742017E+03;3;  4.8149443E+00;  0.0000000E+00; -3.4488652E+00;0;  6.9713317E-02;  3.9780383E+04;  0.0000000E+00;  1.3396894E+01;  4.0000000E+04;  0.0000000E+00;  3.9985836E+04;  6.7159787E-02;  0.0000000E+00;  2.5535272E-03;  2.0398262E+04;
  2.0131601E-01;  9.9999998E-03;  2.6019272E-01;3722;  8.7125935E-03;  0.0000000E+00;  3.7296716E-04;  9.9605200E+02;  1.0000000E-01; -3.2708210E+03;3;  1.2522181E+01;  0.0000000E+00; -9.9887848E+00;0;  7.4748084E-02;  3.9695480E+04;  0.0000000E+00;  1.9034838E+01;  4.0000000E+04;  0.0000000E+00;  3.9992742E+04;  6.9392465E-02;  0.0000000E+00;  5.3556180E-03;  2.9132297E+04;
  2.0134746E-01;  9.9999998E-03;  2.7013507E-01;3723;  8.7519381E-03;  0.0000000E+00;  3.2664003E-04;  9.9482886E+02;  1.0000000E-01; -4.2841753E+03;3;  2.5970102E+01;  0.0000000E+00; -2.2223692E+01;0;  8.2026921E-02;  3.9589805E+04;  0.0000000E+00;  2.6070673E+01;  4.0000000E+04;  0.0000000E+00;  3.9999148E+04;  7.3306404E-02;  0.0000000E+00;  8.7205172E-03;  3.9958844E+04;
  2.0151030E-01;  9.9999998E-03;  2.8009719E-01;3724;  9.7689712E-03;  0.0000000E+00; -8.8070163E-05;  9.9287628E+02;  1.0000000E-01; -5.9018579E+03;3;  4.3040268E+01;  0.0000000E+00; -4.4594563E+01;0;  9.1743559E-02;  3.9431105E+04;  0.0000000E+00;  2.9646570E+01;  4.0000000E+04;  0.0000000E+00;  4.0000355E+04;  8.1285961E-02;  0.0000000E+00;  1.0457601E-02;  4.5362062E+04;
  2.0194446E-01;  9.9999998E-03;  2.9001677E-01;3725;  7.1547893E-03;  0.0000000E+00; -2.7567253E-04;  9.8950781E+02;  1.0000000E-01; -8.6925938E+03;3;  6.0352516E+01;  0.0000000E+00; -6.3105881E+01;0;  9.0495124E-02;  3.9143461E+04;  0.0000000E+00;  2.0753445E+01;  4.0000000E+04;  0.0000000E+00;  4.0019512E+04;  7.7884920E-02;  0.0000000E+00;  1.2610202E-02;  3.1463273E+04;
  2.0227320E-01;  9.9999998E-03;  2.9987657E-01;3726;  1.2104641E-04;  0.0000000E+00;  2.4818042E-03;  9.8578094E+02;  1.0000000E-01; -1.1780210E+04;3;  8.7829094E+01;  0.0000000E+00; -5.0216011E+01;0;  7.6547712E-02;  3.8795426E+04;  0.0000000E+00;  1.4123465E+01;  4.0000000E+04;  0.0000000E+00;  4.0074488E+04;  4.5870259E-02;  0.0000000E+00;  3.0677449E-02;  2.1287695E+04;
  2.1113513E-01;  9.9999998E-03;  2.4026339E-01;3781;  1.0252542E-02;  0.0000000E+00;  6.2049052E-04;  9.9785571E+02;  1.0000000E-01; -1.7764929E+03;3;  1.3557059E-01;  0.0000000E+00; -1.3914694E+00;0;  6.7650631E-02;  3.9860391E+04;  0.0000000E+00;  9.0203571E+00;  4.0000000E+04;  0.0000000E+00;  3.9973633E+04;  6.6539682E-02;  0.0000000E+00;  1.1109464E-03;  1.3900411E+04;
  2.1116827E-01;  9.9999998E-03;  2.5023654E-01;3782;  9.6007083E-03;  0.0000000E+00;  3.8800162E-04;  9.9716779E+02;  1.0000000E-01; -2.3464521E+03;3;  2.5297680E+00;  0.0000000E+00; -6.0243802E+00;0;  7.1888514E-02;  3.9805977E+04;  0.0000000E+00;  1.3191628E+01;  4.0000000E+04;  0.0000000E+00;  3.9972852E+04;  6.8528771E-02;  0.0000000E+00;  3.3597401E-03;  2.0241281E+04;
  2.1119151E-01;  9.9999998E-03;  2.6018476E-01;3783;  9.2425821E-03;  0.0000000E+00;  2.0650639E-04;  9.9637317E+02;  1.0000000E-01; -3.0047546E+03;3;  8.6031923E+00;  0.0000000E+00; -1.3351362E+01;0;  7.7574335E-02;  3.9735801E+04;  0.0000000E+00;  1.8923479E+01;  4.0000000E+04;  0.0000000E+00;  3.9979070E+04;  7.1417950E-02;  0.0000000E+00;  6.1563845E-03;  2.8967721E+04;
  2.1124886E-01;  9.9999998E-03;  2.7014524E-01;3784;  1.0207533E-02;  0.0000000E+00; -1.8018675E-04;  9.9525494E+02;  1.0000000E-01; -3.9311975E+03;3;  1.9389456E+01;  0.0000000E+00; -2.7174198E+01;0;  8.6067222E-02;  3.9640145E+04;  0.0000000E+00;  2.5379238E+01;  4.0000000E+04;  0.0000000E+00;  3.9983410E+04;  7.7860549E-02;  0.0000000E+00;  8.2066748E-03;  3.8802656E+04;
  2.1147414E-01;  9.9999998E-03;  2.8010279E-01;3785;  1.4088234E-02;  0.0000000E+00; -9.5300714E-04;  9.9336981E+02;  1.0000000E-01; -5.4929805E+03;3;  3.4005756E+01;  0.0000000E+00; -4.6524765E+01;0;  1.0315578E-01;  3.9479031E+04;  0.0000000E+00;  2.6201523E+01;  4.0000000E+04;  0.0000000E+00;  3.9992078E+04;  9.5676512E-02;  0.0000000E+00;  7.4792728E-03;  3.9863184E+04;
  2.1180859E-01;  9.9999998E-03;  2.9003447E-01;3786;  7.6635676E-03;  0.0000000E+00;  1.0995879E-04;  9.9057489E+02;  1.0000000E-01; -7.8085200E+03;3;  4.8022739E+01;  0.0000000E+00; -6.0381878E+01;0;  9.8968901E-02;  3.9229051E+04;  0.0000000E+00;  1.8173391E+01;  4.0000000E+04;  0.0000000E+00;  4.0017285E+04;  8.1471562E-02;  0.0000000E+00;  1.7497336E-02;  2.6623182E+04;
  2.1200953E-01;  9.9999998E-03;  2.9994360E-01;3787;  1.3334326E-03;  0.0000000E+00;  3.9167879E-03;  9.8761914E+02;  1.0000000E-01; -1.0257290E+04;3;  6.9088333E+01;  0.0000000E+00; -5.2104607E+01;0;  1.0114463E-01;  3.8948637E+04;  0.0000000E+00;  1.3849834E+01;  4.0000000E+04;  0.0000000E+00;  4.0063867E+04;  5.3797454E-02;  0.0000000E+00;  4.7347181E-02;  1.8926604E+04;
  2.2109777E-01;  9.9999998E-03;  2.4019331E-01;3842;  1.0891351E-02;  0.0000000E+00;  1.3246456E-04;  9.9788721E+02;  1.0000000E-01; -1.7504197E+03;3; -3.7504232E-01;  0.0000000E+00; -1.4855648E+00;0;  6.6961914E-02;  3.9863332E+04;  0.0000000E+00;  8.4628210E+00;  4.0000000E+04;  0.0000000E+00;  3.9973484E+04;  6.6219255E-02;  0.0000000E+00;  7.4266235E-04;  1.3071791E+04;
  2.2111684E-01;  9.9999998E-03;  2.5018108E-01;3843;  1.0358690E-02;  0.0000000E+00; -2.1225520E-04;  9.9733655E+02;  1.0000000E-01; -2.2066042E+03;3;  1.0792264E+00;  0.0000000E+00; -5.7824464E+00;0;  7.0933871E-02;  3.9821754E+04;  0.0000000E+00;  1.2505853E+01;  4.0000000E+04;  0.0000000E+00;  3.9972145E+04;  6.8504766E-02;  0.0000000E+00;  2.4291049E-03;  1.9183270E+04;
  2.2114696E-01;  9.9999998E-03;  2.6015070E-01;3844;  1.0586360E-02;  0.0000000E+00; -7.4344309E-04;  9.9666223E+02;  1.0000000E-01; -2.7652551E+03;3;  5.3673701E+00;  0.0000000E+00; -1.3177752E+01;0;  7.5769797E-02;  3.9764117E+04;  0.0000000E+00;  1.7812963E+01;  4.0000000E+04;  0.0000000E+00;  3.9975188E+04;  7.2467044E-02;  0.0000000E+00;  3.3027504E-03;  2.7214965E+04;
  2.2125439E-01;  9.9999998E-03;  2.7011976E-01;3845;  1.4313892E-02;  0.0000000E+00; -1.8249302E-03;  9.9564264E+02;  1.0000000E-01; -3.6099719E+03;3;  1.3573677E+01;  0.0000000E+00; -2.5670126E+01;0;  8.5398756E-02;  3.9675293E+04;  0.0000000E+00;  2.2476374E+01;  4.0000000E+04;  0.0000000E+00;  3.9980922E+04;  8.5100114E-02;  0.0000000E+00;  2.9864395E-04;  3.4293250E+04;
  2.2148630E-01;  9.9999998E-03;  2.8008267E-01;3846;  1.6824519E-02;  0.0000000E+00; -2.5239638E-03;  9.9397931E+02;  1.0000000E-01; -4.9880068E+03;3;  1.8855633E+01;  0.0000000E+00; -4.0955521E+01;0;  9.9363983E-02;  3.9527801E+04;  0.0000000E+00;  2.1368439E+01;  4.0000000E+04;  0.0000000E+00;  3.9993172E+04;  1.0168518E-01;  0.0000000E+00; -2.3211995E-03;  3.2336531E+04;
  2.2169587E-01;  9.9999998E-03;  2.9004306E-01;3847;  1.2244776E-02;  0.0000000E+00; -2.1080843E-03;  9.9179517E+02;  1.0000000E-01; -6.7975361E+03;3;  3.4582191E+01;  0.0000000E+00; -5.6595177E+01;0;  9.9979520E-02;  3.9334250E+04;  0.0000000E+00;  1.6681822E+01;  4.0000000E+04;  0.0000000E+00;  4.0009801E+04;  9.7168736E-02;  0.0000000E+00;  2.8107865E-03;  2.3817586E+04;
  2.2181255E-01;  9.9999998E-03;  3.0000535E-01;3848;  6.1384290E-03;  0.0000000E+00;  2.6602941E-04;  9.8935016E+02;  1.0000000E-01; -8.8232070E+03;3;  4.8427189E+01;  0.0000000E+00; -7.1423447E+01;0;  1.0246745E-01;  3.9118945E+04;  0.0000000E+00;  1.4015973E+01;  4.0000000E+04;  0.0000000E+00;  4.0029551E+04;  7.7261776E-02;  0.0000000E+00;  2.5205676E-02;  1.7293732E+04;
  2.3112391E-01;  9.9999998E-03;  2.4010186E-01;3903;  1.2767499E-02;  0.0000000E+00; -1.0730685E-03;  9.9793042E+02;  1.0000000E-01; -1.7146182E+03;3; -1.6594818E-02;  0.0000000E+00; -5.1187652E-01;0;  6.2356692E-02;  3.9856723E+04;  0.0000000E+00;  7.3396311E+00;  4.0000000E+04;  0.0000000E+00;  3.9984156E+04;  6.4409509E-02;  0.0000000E+00; -2.0528161E-03;  1.1165479E+04;
  2.3113962E-01;  9.9999998E-03;  2.5011405E-01;3904;  1.2461510E-02;  0.0000000E+00; -1.5782750E-03;  9.9747583E+02;  1.0000000E-01; -2.0912495E+03;3;  6.5432709E-01;  0.0000000E+00; -3.9910700E+00;0;  6.5011956E-02;  3.9825691E+04;  0.0000000E+00;  1.0783803E+01;  4.0000000E+04;  0.0000000E+00;  3.9979941E+04;  6.7213953E-02;  0.0000000E+00; -2.2020002E-03;  1.6451971E+04;
  2.3119080E-01;  9.9999998E-03;  2.6010227E-01;3905;  1.3370913E-02;  0.0000000E+00; -2.3745100E-03;  9.9690100E+02;  1.0000000E-01; -2.5674829E+03;3;  3.2919855E+00;  0.0000000E+00; -1.0065228E+01;0;  6.7857705E-02;  3.9778648E+04;  0.0000000E+00;  1.4778130E+01;  4.0000000E+04;  0.0000000E+00;  3.9981547E+04;  7.2465420E-02;  0.0000000E+00; -4.6077147E-03;  2.2567502E+04;
  2.3130478E-01;  9.9999998E-03;  2.7007800E-01;3906;  1.6295878E-02;  0.0000000E+00; -3.3647583E-03;  9.9607715E+02;  1.0000000E-01; -3.2500315E+03;3;  4.8355904E+00;  0.0000000E+00; -1.9246418E+01;0;  7.3872544E-02;  3.9703816E+04;  0.0000000E+00;  1.7828615E+01;  4.0000000E+04;  0.0000000E+00;  3.9989199E+04;  8.3997309E-02;  0.0000000E+00; -1.0124767E-02;  2.7230008E+04;
  2.3148711E-01;  9.9999998E-03;  2.8005129E-01;3907;  1.6957706E-02;  0.0000000E+00; -3.6005583E-03;  9.9477924E+02;  1.0000000E-01; -4.3253096E+03;3;  8.9130535E+00;  0.0000000E+00; -3.0401360E+01;0;  8.3440490E-02;  3.9586465E+04;  0.0000000E+00;  1.6869089E+01;  4.0000000E+04;  0.0000000E+00;  4.0000527E+04;  9.5340684E-02;  0.0000000E+00; -1.1900197E-02;  2.5564039E+04;
  2.3163834E-01;  9.9999998E-03;  2.9002368E-01;3908;  1.6698146E-02;  0.0000000E+00; -3.6878206E-03;  9.9309888E+02;  1.0000000E-01; -5.7174678E+03;3;  1.6726442E+01;  0.0000000E+00; -4.3624065E+01;0;  9.4471589E-02;  3.9435535E+04;  0.0000000E+00;  1.4022008E+01;  4.0000000E+04;  0.0000000E+00;  4.0014309E+04;  1.0675032E-01;  0.0000000E+00; -1.2278739E-02;  2.0148496E+04;
  2.3169950E-01;  9.9999998E-03;  3.0000189E-01;3909;  1.4951217E-02;  0.0000000E+00; -3.8636161E-03;  9.9121887E+02;  1.0000000E-01; -7.2750039E+03;3;  3.1780415E+01;  0.0000000E+00; -6.0486549E+01;0;  9.9424198E-02;  3.9273035E+04;  0.0000000E+00;  1.4139493E+01;  4.0000000E+04;  0.0000000E+00;  4.0025418E+04;  1.1239218E-01;  0.0000000E+00; -1.2967980E-02;  1.8097160E+04;
  2.4115653E-01;  9.9999998E-03;  2.4003060E-01;3964;  1.5617563E-02;  0.0000000E+00; -2.5555673E-03;  9.9793146E+02;  1.0000000E-01; -1.7137294E+03;3; -3.8324103E-01;  0.0000000E+00;  3.7213415E-01;0;  5.3751864E-02;  3.9844902E+04;  0.0000000E+00;  5.9286323E+00;  4.0000000E+04;  0.0000000E+00;  3.9996273E+04;  6.0383372E-02;  0.0000000E+00; -6.6315075E-03;  8.9308799E+03;
  2.4121569E-01;  9.9999998E-03;  2.5005120E-01;3965;  1.5195238E-02;  0.0000000E+00; -2.9469938E-03;  9.9757739E+02;  1.0000000E-01; -2.0071038E+03;3; -8.7186888E-02;  0.0000000E+00; -1.6998168E+00;0;  5.5084817E-02;  3.9821699E+04;  0.0000000E+00;  8.1445293E+00;  4.0000000E+04;  0.0000000E+00;  3.9993020E+04;  6.3358732E-02;  0.0000000E+00; -8.2739163E-03;  1.2392900E+04;
  2.4128246E-01;  9.9999998E-03;  2.6005247E-01;3966;  1.5660862E-02;  0.0000000E+00; -3.6080410E-03;  9.9712012E+02;  1.0000000E-01; -2.3859077E+03;3;  1.7513086E-01;  0.0000000E+00; -5.6929555E+00;0;  5.5817224E-02;  3.9785672E+04;  0.0000000E+00;  1.0403784E+01;  4.0000000E+04;  0.0000000E+00;  3.9993523E+04;  6.8262964E-02;  0.0000000E+00; -1.2445741E-02;  1.5989646E+04;
  2.4135619E-01;  9.9999998E-03;  2.7003798E-01;3967;  1.6432622E-02;  0.0000000E+00; -4.0789954E-03;  9.9654297E+02;  1.0000000E-01; -2.8640671E+03;3; -6.5790373E-01;  0.0000000E+00; -1.1009051E+01;0;  5.8530491E-02;  3.9731887E+04;  0.0000000E+00;  1.2637841E+01;  4.0000000E+04;  0.0000000E+00;  4.0000461E+04;  7.5664245E-02;  0.0000000E+00; -1.7133754E-02;  1.9494629E+04;
  2.4147588E-01;  9.9999998E-03;  2.8002062E-01;3968;  1.6642926E-02;  0.0000000E+00; -4.0548057E-03;  9.9563824E+02;  1.0000000E-01; -3.6136262E+03;3;  1.8945982E+00;  0.0000000E+00; -1.9281897E+01;0;  6.6367403E-02;  3.9647961E+04;  0.0000000E+00;  1.2688810E+01;  4.0000000E+04;  0.0000000E+00;  4.0009855E+04;  8.4402204E-02;  0.0000000E+00; -1.8034805E-02;  1.9526260E+04;
  2.4158534E-01;  9.9999998E-03;  2.9000312E-01;3969;  1.6669819E-02;  0.0000000E+00; -4.0131654E-03;  9.9439185E+02;  1.0000000E-01; -4.6462388E+03;3;  5.9254656E+00;  0.0000000E+00; -2.9922659E+01;0;  7.7040091E-02;  3.9535918E+04;  0.0000000E+00;  1.1405189E+01;  4.0000000E+04;  0.0000000E+00;  4.0019801E+04;  9.4952650E-02;  0.0000000E+00; -1.7912559E-02;  1.6942387E+04;
  2.4164505E-01;  9.9999998E-03;  2.9998508E-01;3970;  1.6577231E-02;  0.0000000E+00; -3.9757080E-03;  9.9291974E+02;  1.0000000E-01; -5.8658589E+03;3;  1.1862711E+01;  0.0000000E+00; -4.1681892E+01;0;  9.0152338E-02;  3.9405430E+04;  0.0000000E+00;  1.1431367E+01;  4.0000000E+04;  0.0000000E+00;  4.0030699E+04;  1.0717227E-01;  0.0000000E+00; -1.7019931E-02;  1.5658363E+04;
  2.5116956E-01;  9.9999998E-03;  2.3998618E-01;4025;  1.7613096E-02;  0.0000000E+00; -3.7167044E-03;  9.9786499E+02;  1.0000000E-01; -1.7688389E+03;3; -4.1981578E+00;  0.0000000E+00;  2.4830661E+00;0;  4.1998655E-02;  3.9830613E+04;  0.0000000E+00;  4.5152383E+00;  4.0000000E+04;  0.0000000E+00;  4.0005812E+04;  5.3220261E-02;  0.0000000E+00; -1.1221604E-02;  6.8847261E+03;
  2.5125548E-01;  9.9999998E-03;  2.5000939E-01;4026;  1.6913559E-02;  0.0000000E+00; -3.9321710E-03;  9.9764148E+02;  1.0000000E-01; -1.9539695E+03;3; -4.0105181E+00;  0.0000000E+00;  1.2217218E+00;0;  4.1897304E-02;  3.9817121E+04;  0.0000000E+00;  5.8086638E+00;  4.0000000E+04;  0.0000000E+00;  4.0003301E+04;  5.5839833E-02;  0.0000000E+00; -1.3942530E-02;  8.9181631E+03;
  2.5133687E-01;  9.9999998E-03;  2.6001537E-01;4027;  1.6507879E-02;  0.0000000E+00; -4.2841285E-03;  9.9733350E+02;  1.0000000E-01; -2.2091721E+03;3; -4.4314108E+00;  0.0000000E+00; -9.4489604E-01;0;  4.1071497E-02;  3.9793680E+04;  0.0000000E+00;  6.7335720E+00;  4.0000000E+04;  0.0000000E+00;  4.0003730E+04;  5.9468418E-02;  0.0000000E+00; -1.8396921E-02;  1.0543145E+04;
  2.5138178E-01;  9.9999998E-03;  2.7000841E-01;4028;  1.6268866E-02;  0.0000000E+00; -4.3806951E-03;  9.9697467E+02;  1.0000000E-01; -2.5064475E+03;3; -4.3749647E+00;  0.0000000E+00; -4.3510952E+00;0;  4.2661764E-02;  3.9759535E+04;  0.0000000E+00;  8.1878977E+00;  4.0000000E+04;  0.0000000E+00;  4.0009273E+04;  6.4420700E-02;  0.0000000E+00; -2.1758938E-02;  1.2968885E+04;
  2.5144675E-01;  9.9999998E-03;  2.7999818E-01;4029;  1.6260227E-02;  0.0000000E+00; -4.2258082E-03;  9.9641406E+02;  1.0000000E-01; -2.9708789E+03;3; -3.0113337E+00;  0.0000000E+00; -1.0244196E+01;0;  4.9044814E-02;  3.9706094E+04;  0.0000000E+00;  9.2701454E+00;  4.0000000E+04;  0.0000000E+00;  4.0016293E+04;  7.1167797E-02;  0.0000000E+00; -2.2122983E-02;  1.4680963E+04;
  2.5153115E-01;  9.9999998E-03;  2.8998673E-01;4030;  1.6301800E-02;  0.0000000E+00; -4.0049879E-03;  9.9555255E+02;  1.0000000E-01; -3.6846365E+03;3; -1.1469215E+00;  0.0000000E+00; -1.8170263E+01;0;  5.9640992E-02;  3.9627062E+04;  0.0000000E+00;  8.9196854E+00;  4.0000000E+04;  0.0000000E+00;  4.0024164E+04;  7.9847902E-02;  0.0000000E+00; -2.0206910E-02;  1.3950657E+04;
  2.5159240E-01;  9.9999998E-03;  2.9997396E-01;4031;  1.6283464E-02;  0.0000000E+00; -3.8458444E-03;  9.9443469E+02;  1.0000000E-01; -4.6107339E+03;3;  1.6923299E+00;  0.0000000E+00; -2.6846004E+01;0;  7.2601721E-02;  3.9526609E+04;  0.0000000E+00;  8.6491222E+00;  4.0000000E+04;  0.0000000E+00;  4.0032551E+04;  9.0348616E-02;  0.0000000E+00; -1.7746896E-02;  1.2991151E+04;
  2.6116982E-01;  9.9999998E-03;  2.3995624E-01;4086;  1.7846769E-02;  0.0000000E+00; -3.7442660E-03;  9.9776917E+02;  1.0000000E-01; -1.8481947E+03;3; -5.7528248E+00;  0.0000000E+00;  3.9059472E+00;0;  3.1359099E-02;  3.9815141E+04;  0.0000000E+00;  3.2254393E+00;  4.0000000E+04;  0.0000000E+00;  4.0013633E+04;  4.3338299E-02;  0.0000000E+00; -1.1979201E-02;  5.2650015E+03;
  2.6125237E-01;  9.9999998E-03;  2.4998114E-01;4087;  1.7166972E-02;  0.0000000E+00; -3.9760037E-03;  9.9766754E+02;  1.0000000E-01; -1.9323898E+03;3; -6.0176663E+00;  0.0000000E+00;  3.4941487E+00;0;  3.0181013E-02;  3.9811609E+04;  0.0000000E+00;  4.0450850E+00;  4.0000000E+04;  0.0000000E+00;  4.0011477E+04;  4.5382287E-02;  0.0000000E+00; -1.5201274E-02;  6.4517974E+03;
  2.6133415E-01;  9.9999998E-03;  2.5998923E-01;4088;  1.6524862E-02;  0.0000000E+00; -4.1971947E-03;  9.9752136E+02;  1.0000000E-01; -2.0535222E+03;3; -6.1951084E+00;  0.0000000E+00;  2.2654161E+00;0;  2.8754059E-02;  3.9801508E+04;  0.0000000E+00;  4.3971348E+00;  4.0000000E+04;  0.0000000E+00;  4.0011898E+04;  4.8065733E-02;  0.0000000E+00; -1.9311674E-02;  7.1877339E+03;
  2.6137021E-01;  9.9999998E-03;  2.6998708E-01;4089;  1.6051155E-02;  0.0000000E+00; -4.2552855E-03;  9.9734589E+02;  1.0000000E-01; -2.1989009E+03;3; -5.9508314E+00;  0.0000000E+00; -1.5484315E-01;0;  2.9167039E-02;  3.9784578E+04;  0.0000000E+00;  5.2027330E+00;  4.0000000E+04;  0.0000000E+00;  4.0015785E+04;  5.1720053E-02;  0.0000000E+00; -2.2553014E-02;  8.6765947E+03;
  2.6140621E-01;  9.9999998E-03;  2.7998200E-01;4090;  1.5886134E-02;  0.0000000E+00; -4.1292724E-03;  9.9704407E+02;  1.0000000E-01; -2.4489185E+03;3; -5.7832432E+00;  0.0000000E+00; -4.0093708E+00;0;  3.3541262E-02;  3.9754836E+04;  0.0000000E+00;  6.4219460E+00;  4.0000000E+04;  0.0000000E+00;  4.0020488E+04;  5.6855947E-02;  0.0000000E+00; -2.3314685E-02;  1.0670433E+04;
  2.6147336E-01;  9.9999998E-03;  2.8997505E-01;4091;  1.5845452E-02;  0.0000000E+00; -3.8779872E-03;  9.9650397E+02;  1.0000000E-01; -2.8964119E+03;3; -5.5774374E+00;  0.0000000E+00; -9.2616558E+00;0;  4.2659760E-02;  3.9703801E+04;  0.0000000E+00;  6.5579271E+00;  4.0000000E+04;  0.0000000E+00;  4.0026141E+04;  6.3647874E-02;  0.0000000E+00; -2.0988116E-02;  1.0971511E+04;
  2.6153487E-01;  9.9999998E-03;  2.9996645E-01;4092;  1.5793979E-02;  0.0000000E+00; -3.6254285E-03;  9.9571124E+02;  1.0000000E-01; -3.5531340E+03;3; -4.8521152E+00;  0.0000000E+00; -1.5174600E+01;0;  5.5049263E-02;  3.9631891E+04;  0.0000000E+00;  6.1347837E+00;  4.0000000E+04;  0.0000000E+00;  4.0032770E+04;  7.2148867E-02;  0.0000000E+00; -1.7099604E-02;  1.0356352E+04;
  2.7117687E-01;  9.9999998E-03;  2.3993714E-01;4147;  1.7733643E-02;  0.0000000E+00; -3.4690318E-03;  9.9765308E+02;  1.0000000E-01; -1.9443894E+03;3; -5.4755154E+00;  0.0000000E+00;  3.7414672E+00;0;  2.1080591E-02;  3.9799305E+04;  0.0000000E+00;  2.1013641E+00;  4.0000000E+04;  0.0000000E+00;  4.0020359E+04;  3.2448437E-02;  0.0000000E+00; -1.1367846E-02;  4.2366167E+03;
  2.7122912E-01;  9.9999998E-03;  2.4996069E-01;4148;  1.7048147E-02;  0.0000000E+00; -3.6499072E-03;  9.9765723E+02;  1.0000000E-01; -1.9409327E+03;3; -5.7943277E+00;  0.0000000E+00;  3.7289248E+00;0;  1.9781847E-02;  3.9804008E+04;  0.0000000E+00;  2.7019036E+00;  4.0000000E+04;  0.0000000E+00;  4.0018293E+04;  3.3905849E-02;  0.0000000E+00; -1.4124003E-02;  4.8909072E+03;
  2.7129295E-01;  9.9999998E-03;  2.5997031E-01;4149;  1.6400605E-02;  0.0000000E+00; -3.8279400E-03;  9.9764722E+02;  1.0000000E-01; -1.9492289E+03;3; -6.0552149E+00;  0.0000000E+00;  3.1714396E+00;0;  1.8209442E-02;  3.9805785E+04;  0.0000000E+00;  3.0039380E+00;  4.0000000E+04;  0.0000000E+00;  4.0018543E+04;  3.5881460E-02;  0.0000000E+00; -1.7672017E-02;  5.4246460E+03;
  2.7132937E-01;  9.9999998E-03;  2.6997221E-01;4150;  1.5889989E-02;  0.0000000E+00; -3.9337501E-03;  9.9761426E+02;  1.0000000E-01; -1.9765367E+03;3; -6.3569641E+00;  0.0000000E+00;  1.9898938E+00;0;  1.7453678E-02;  3.9802703E+04;  0.0000000E+00;  3.4194860E+00;  4.0000000E+04;  0.0000000E+00;  4.0020289E+04;  3.8616482E-02;  0.0000000E+00; -2.1162804E-02;  6.2433037E+03;
  2.7135551E-01;  9.9999998E-03;  2.7997053E-01;4151;  1.5571698E-02;  0.0000000E+00; -3.8690101E-03;  9.9750427E+02;  1.0000000E-01; -2.0676453E+03;3; -6.9378786E+00;  0.0000000E+00; -1.4355424E-01;0;  1.9952197E-02;  3.9791020E+04;  0.0000000E+00;  4.2463984E+00;  4.0000000E+04;  0.0000000E+00;  4.0023109E+04;  4.2410705E-02;  0.0000000E+00; -2.2458509E-02;  7.6339590E+03;
  2.7140322E-01;  9.9999998E-03;  2.8996679E-01;4152;  1.5408876E-02;  0.0000000E+00; -3.6205952E-03;  9.9723169E+02;  1.0000000E-01; -2.2935154E+03;3; -7.7019234E+00;  0.0000000E+00; -3.2991624E+00;0;  2.7594391E-02;  3.9764488E+04;  0.0000000E+00;  4.6888032E+00;  4.0000000E+04;  0.0000000E+00;  4.0026785E+04;  4.7548331E-02;  0.0000000E+00; -1.9953940E-02;  8.4821602E+03;
  2.7146634E-01;  9.9999998E-03;  2.9996139E-01;4153;  1.5244816E-02;  0.0000000E+00; -3.3527908E-03;  9.9672595E+02;  1.0000000E-01; -2.7124666E+03;3; -8.3284016E+00;  0.0000000E+00; -6.9614081E+00;0;  3.8453124E-02;  3.9718094E+04;  0.0000000E+00;  3.9954343E+00;  4.0000000E+04;  0.0000000E+00;  4.0031230E+04;  5.4098051E-02;  0.0000000E+00; -1.5644927E-02;  7.8555117E+03;
  2.8122512E-01;  9.9999998E-03;  2.3992752E-01;4208;  1.7556744E-02;  0.0000000E+00; -3.1256923E-03;  9.9753253E+02;  1.0000000E-01; -2.0442385E+03;3; -5.1322961E+00;  0.0000000E+00;  3.3513978E+00;0;  1.1071286E-02;  3.9785129E+04;  0.0000000E+00;  1.1785669E+00;  4.0000000E+04;  0.0000000E+00;  4.0025305E+04;  2.1462126E-02;  0.0000000E+00; -1.0390840E-02;  3.8182566E+03;
  2.8122410E-01;  9.9999998E-03;  2.4994807E-01;4209;  1.6898204E-02;  0.0000000E+00; -3.2717476E-03;  9.9760193E+02;  1.0000000E-01; -1.9867587E+03;3; -5.3472023E+00;  0.0000000E+00;  3.4992282E+00;0;  9.7977538E-03;  3.9794711E+04;  0.0000000E+00;  1.5663738E+00;  4.0000000E+04;  0.0000000E+00;  4.0023480E+04;  2.2445995E-02;  0.0000000E+00; -1.2648242E-02;  4.0081646E+03;
  2.8125027E-01;  9.9999998E-03;  2.5995809E-01;4210;  1.6275901E-02;  0.0000000E+00; -3.4174216E-03;  9.9769025E+02;  1.0000000E-01; -1.9135756E+03;3; -5.6343441E+00;  0.0000000E+00;  3.4151349E+00;0;  8.2292827E-03;  3.9804512E+04;  0.0000000E+00;  1.9092835E+00;  4.0000000E+04;  0.0000000E+00;  4.0023254E+04;  2.3846151E-02;  0.0000000E+00; -1.5616869E-02;  4.3680332E+03;
  2.8127679E-01;  9.9999998E-03;  2.6996243E-01;4211;  1.5735025E-02;  0.0000000E+00; -3.5429436E-03;  9.9775873E+02;  1.0000000E-01; -1.8568364E+03;3; -6.1849942E+00;  0.0000000E+00;  2.9454451E+00;0;  6.8401285E-03;  3.9811703E+04;  0.0000000E+00;  2.2382200E+00;  4.0000000E+04;  0.0000000E+00;  4.0023320E+04;  2.5802836E-02;  0.0000000E+00; -1.8962707E-02;  4.8265386E+03;
  2.8130379E-01;  9.9999998E-03;  2.7996299E-01;4212;  1.5305837E-02;  0.0000000E+00; -3.5312653E-03;  9.9778052E+02;  1.0000000E-01; -1.8388121E+03;3; -6.9968266E+00;  0.0000000E+00;  1.9385321E+00;0;  7.8579374E-03;  3.9813188E+04;  0.0000000E+00;  2.5882494E+00;  4.0000000E+04;  0.0000000E+00;  4.0024328E+04;  2.8507989E-02;  0.0000000E+00; -2.0650052E-02;  5.4257212E+03;
  2.8133795E-01;  9.9999998E-03;  2.8996122E-01;4213;  1.4982498E-02;  0.0000000E+00; -3.3267895E-03;  9.9770593E+02;  1.0000000E-01; -1.9005883E+03;3; -8.1252127E+00;  0.0000000E+00;  2.7942073E-01;0;  1.3651539E-02;  3.9805219E+04;  0.0000000E+00;  2.7701750E+00;  4.0000000E+04;  0.0000000E+00;  4.0026445E+04;  3.2202523E-02;  0.0000000E+00; -1.8550985E-02;  5.9038989E+03;
  2.8138494E-01;  9.9999998E-03;  2.9995811E-01;4214;  1.4701145E-02;  0.0000000E+00; -3.0675540E-03;  9.9746368E+02;  1.0000000E-01; -2.1012739E+03;3; -9.3859396E+00;  0.0000000E+00; -1.7718005E+00;0;  2.2827512E-02;  3.9783395E+04;  0.0000000E+00;  2.1539845E+00;  4.0000000E+04;  0.0000000E+00;  4.0028891E+04;  3.7070323E-02;  0.0000000E+00; -1.4242811E-02;  5.5320342E+03;
  2.9133207E-01;  9.9999998E-03;  2.3992735E-01;4269;  1.7354941E-02;  0.0000000E+00; -2.7602771E-03;  9.9743158E+02;  1.0000000E-01; -2.1278904E+03;3; -4.8215752E+00;  0.0000000E+00;  2.9258304E+00;0;  1.7443663E-03;  3.9775098E+04;  0.0000000E+00;  5.5182695E-01;  4.0000000E+04;  0.0000000E+00;  4.0027355E+04;  1.1060791E-02;  0.0000000E+00; -9.3164248E-03;  3.7359768E+03;
  2.9128939E-01;  9.9999998E-03;  2.4994248E-01;4270;  1.6729878E-02;  0.0000000E+00; -2.8738142E-03;  9.9752643E+02;  1.0000000E-01; -2.0493247E+03;3; -4.9251633E+00;  0.0000000E+00;  3.1260014E+00;0;  5.4002274E-04;  3.9785703E+04;  0.0000000E+00;  5.9562045E-01;  4.0000000E+04;  0.0000000E+00;  4.0026582E+04;  1.1646636E-02;  0.0000000E+00; -1.1106613E-02;  3.6867412E+03;
  2.9125026E-01;  9.9999998E-03;  2.5995153E-01;4271;  1.6125854E-02;  0.0000000E+00; -2.9931660E-03;  9.9766064E+02;  1.0000000E-01; -1.9381180E+03;3; -5.1986036E+00;  0.0000000E+00;  3.2530696E+00;0; -9.4787218E-04;  3.9799176E+04;  0.0000000E+00;  8.5070318E-01;  4.0000000E+04;  0.0000000E+00;  4.0026113E+04;  1.2584252E-02;  0.0000000E+00; -1.3532124E-02;  3.7389700E+03;
  2.9124281E-01;  9.9999998E-03;  2.6995653E-01;4272;  1.5566251E-02;  0.0000000E+00; -3.1056628E-03;  9.9779553E+02;  1.0000000E-01; -1.8263680E+03;3; -5.7037077E+00;  0.0000000E+00;  3.1873903E+00;0; -2.4933545E-03;  3.9812703E+04;  0.0000000E+00;  1.1617556E+00;  4.0000000E+04;  0.0000000E+00;  4.0025195E+04;  1.3905008E-02;  0.0000000E+00; -1.6398363E-02;  3.8739475E+03;
  2.9126969E-01;  9.9999998E-03;  2.7995834E-01;4273;  1.5062251E-02;  0.0000000E+00; -3.1420027E-03;  9.9789630E+02;  1.0000000E-01; -1.7428643E+03;3; -6.4405904E+00;  0.0000000E+00;  2.8280098E+00;0; -2.7028769E-03;  3.9822340E+04;  0.0000000E+00;  1.1184645E+00;  4.0000000E+04;  0.0000000E+00;  4.0024805E+04;  1.5718462E-02;  0.0000000E+00; -1.8421339E-02;  3.8571536E+03;
  2.9130733E-01;  9.9999998E-03;  2.8995773E-01;4274;  1.4605367E-02;  0.0000000E+00; -3.0078958E-03;  9.9793872E+02;  1.0000000E-01; -1.7077542E+03;3; -7.4682870E+00;  0.0000000E+00;  2.0816469E+00;0;  1.0009054E-03;  3.9826145E+04;  0.0000000E+00;  5.9203416E-01;  4.0000000E+04;  0.0000000E+00;  4.0025633E+04;  1.8211260E-02;  0.0000000E+00; -1.7210355E-02;  3.6435542E+03;
  2.9134342E-01;  9.9999998E-03;  2.9995593E-01;4275;  1.4161717E-02;  0.0000000E+00; -2.8168480E-03;  9.9787714E+02;  1.0000000E-01; -1.7587650E+03;3; -8.7441607E+00;  0.0000000E+00;  1.1176425E+00;0;  7.5792521E-03;  3.9821367E+04;  0.0000000E+00; -5.1014793E-01;  4.0000000E+04;  0.0000000E+00;  4.0026605E+04;  2.1563105E-02;  0.0000000E+00; -1.3983853E-02;  3.4758650E+03;
  3.0142653E-01;  9.9999998E-03;  2.3993401E-01;4330;  1.7139835E-02;  0.0000000E+00; -2.3697882E-03;  9.9739044E+02;  1.0000000E-01; -2.1619636E+03;3; -4.6185646E+00;  0.0000000E+00;  2.5592384E+00;0; -6.3563385E-03;  3.9771730E+04;  0.0000000E+00;  3.3317673E-01;  4.0000000E+04;  0.0000000E+00;  4.0027566E+04;  1.8374273E-03;  0.0000000E+00; -8.1937658E-03;  3.6816963E+03;
  3.0135536E-01;  9.9999998E-03;  2.4994342E-01;4331;  1.6543895E-02;  0.0000000E+00; -2.4621228E-03;  9.9748218E+02;  1.0000000E-01; -2.0859656E+03;3; -4.6495023E+00;  0.0000000E+00;  2.7519007E+00;0; -7.5235637E-03;  3.9780762E+04;  0.0000000E+00;  1.7742923E-01;  4.0000000E+04;  0.0000000E+00;  4.0027590E+04;  2.1108550E-03;  0.0000000E+00; -9.6344184E-03;  3.6696921E+03;
  3.0128357E-01;  9.9999998E-03;  2.5994986E-01;4332;  1.5954504E-02;  0.0000000E+00; -2.5549945E-03;  9.9761896E+02;  1.0000000E-01; -1.9726356E+03;3; -4.8274369E+00;  0.0000000E+00;  2.9312043E+00;0; -8.9302501E-03;  3.9794180E+04;  0.0000000E+00;  1.5976071E-01;  4.0000000E+04;  0.0000000E+00;  4.0027098E+04;  2.6458113E-03;  0.0000000E+00; -1.1576061E-02;  3.6011628E+03;
  3.0126449E-01;  9.9999998E-03;  2.6995409E-01;4333;  1.5382432E-02;  0.0000000E+00; -2.6529671E-03;  9.9776849E+02;  1.0000000E-01; -1.8487378E+03;3; -5.1701779E+00;  0.0000000E+00;  3.0351739E+00;0; -1.0587897E-02;  3.9808984E+04;  0.0000000E+00;  1.1094376E-01;  4.0000000E+04;  0.0000000E+00;  4.0026051E+04;  3.4218277E-03;  0.0000000E+00; -1.4009725E-02;  3.4380952E+03;
  3.0129117E-01;  9.9999998E-03;  2.7995589E-01;4334;  1.4835277E-02;  0.0000000E+00; -2.6986632E-03;  9.9790692E+02;  1.0000000E-01; -1.7340745E+03;3; -5.6771259E+00;  0.0000000E+00;  2.9928644E+00;0; -1.1420222E-02;  3.9822695E+04;  0.0000000E+00; -3.1199136E-01;  4.0000000E+04;  0.0000000E+00;  4.0024969E+04;  4.5108092E-03;  0.0000000E+00; -1.5931031E-02;  3.2909834E+03;
  3.0133548E-01;  9.9999998E-03;  2.8995597E-01;4335;  1.4300128E-02;  0.0000000E+00; -2.6523788E-03;  9.9800665E+02;  1.0000000E-01; -1.6514595E+03;3; -6.4396758E+00;  0.0000000E+00;  2.7621777E+00;0; -9.9635534E-03;  3.9832645E+04;  0.0000000E+00; -1.3333055E+00;  4.0000000E+04;  0.0000000E+00;  4.0024434E+04;  6.0437880E-03;  0.0000000E+00; -1.6007341E-02;  3.5592056E+03;
  3.0138117E-01;  9.9999998E-03;  2.9995456E-01;4336;  1.3746927E-02;  0.0000000E+00; -2.4996796E-03;  9.9803943E+02;  1.0000000E-01; -1.6242997E+03;3; -7.4225845E+00;  0.0000000E+00;  2.3926575E+00;0; -5.3235302E-03;  3.9837094E+04;  0.0000000E+00; -3.0616450E+00;  4.0000000E+04;  0.0000000E+00;  4.0024645E+04;  8.1550172E-03;  0.0000000E+00; -1.3478547E-02;  5.0537612E+03;
  3.1153303E-01;  9.9999998E-03;  2.3994447E-01;4391;  1.6917968E-02;  0.0000000E+00; -1.9434605E-03;  9.9742328E+02;  1.0000000E-01; -2.1347544E+03;3; -4.5054798E+00;  0.0000000E+00;  2.2980640E+00;0; -1.2947543E-02;  3.9775234E+04;  0.0000000E+00;  3.3244994E-01;  4.0000000E+04;  0.0000000E+00;  4.0026203E+04; -5.9254197E-03;  0.0000000E+00; -7.0221229E-03;  3.5138950E+03;
  3.1143498E-01;  9.9999998E-03;  2.4994849E-01;4392;  1.6342692E-02;  0.0000000E+00; -2.0232277E-03;  9.9748712E+02;  1.0000000E-01; -2.0818669E+03;3; -4.4823236E+00;  0.0000000E+00;  2.4424672E+00;0; -1.4071951E-02;  3.9781426E+04;  0.0000000E+00;  1.0967307E-01;  4.0000000E+04;  0.0000000E+00;  4.0026895E+04; -5.8638481E-03;  0.0000000E+00; -8.2081025E-03;  3.5693271E+03;
  3.1133634E-01;  9.9999998E-03;  2.5995207E-01;4393;  1.5765628E-02;  0.0000000E+00; -2.1048677E-03;  9.9760040E+02;  1.0000000E-01; -1.9880425E+03;3; -4.5617132E+00;  0.0000000E+00;  2.6045072E+00;0; -1.5494961E-02;  3.9792359E+04;  0.0000000E+00; -7.6251872E-02;  4.0000000E+04;  0.0000000E+00;  4.0026730E+04; -5.6281686E-03;  0.0000000E+00; -9.8667927E-03;  3.5219924E+03;
  3.1130970E-01;  9.9999998E-03;  2.6995462E-01;4394;  1.5193393E-02;  0.0000000E+00; -2.1902740E-03;  9.9773700E+02;  1.0000000E-01; -1.8748606E+03;3; -4.7156320E+00;  0.0000000E+00;  2.7463779E+00;0; -1.7266106E-02;  3.9806129E+04;  0.0000000E+00; -3.6067471E-01;  4.0000000E+04;  0.0000000E+00;  4.0025336E+04; -5.2664331E-03;  0.0000000E+00; -1.1999672E-02;  3.3976250E+03;
  3.1134391E-01;  9.9999998E-03;  2.7995548E-01;4395;  1.4625615E-02;  0.0000000E+00; -2.2215883E-03;  9.9787939E+02;  1.0000000E-01; -1.7568885E+03;3; -5.0089726E+00;  0.0000000E+00;  2.8364010E+00;0; -1.8359911E-02;  3.9820090E+04;  0.0000000E+00; -9.8497653E-01;  4.0000000E+04;  0.0000000E+00;  4.0024711E+04; -4.7383970E-03;  0.0000000E+00; -1.3621515E-02;  3.4749136E+03;
  3.1140450E-01;  9.9999998E-03;  2.8995541E-01;4396;  1.4053666E-02;  0.0000000E+00; -2.2080902E-03;  9.9800055E+02;  1.0000000E-01; -1.6564963E+03;3; -5.4698691E+00;  0.0000000E+00;  2.8428991E+00;0; -1.8171323E-02;  3.9832527E+04;  0.0000000E+00; -2.1525850E+00;  4.0000000E+04;  0.0000000E+00;  4.0023648E+04; -3.9559719E-03;  0.0000000E+00; -1.4215351E-02;  4.2169072E+03;
  3.1147355E-01;  9.9999998E-03;  2.9995418E-01;4397;  1.3458876E-02;  0.0000000E+00; -2.0992672E-03;  9.9808368E+02;  1.0000000E-01; -1.5876588E+03;3; -6.1078954E+00;  0.0000000E+00;  2.7638712E+00;0; -1.5366098E-02;  3.9841609E+04;  0.0000000E+00; -3.9564898E+00;  4.0000000E+04;  0.0000000E+00;  4.0023129E+04; -2.8208313E-03;  0.0000000E+00; -1.2545266E-02;  6.1567441E+03;
  3.2166174E-01;  9.9999998E-03;  2.3995540E-01;4452;  1.6692631E-02;  0.0000000E+00; -1.4698316E-03;  9.9752942E+02;  1.0000000E-01; -2.0468062E+03;3; -4.4664779E+00;  0.0000000E+00;  2.1241157E+00;0; -1.7896915E-02;  3.9785215E+04;  0.0000000E+00;  4.0810427E-01;  4.0000000E+04;  0.0000000E+00;  4.0024219E+04; -1.2129125E-02;  0.0000000E+00; -5.7677892E-03;  3.3028428E+03;
  3.2156023E-01;  9.9999998E-03;  2.4995588E-01;4453;  1.6132170E-02;  0.0000000E+00; -1.5465126E-03;  9.9755322E+02;  1.0000000E-01; -2.0271030E+03;3; -4.4078798E+00;  0.0000000E+00;  2.2316039E+00;0; -1.8995997E-02;  3.9787688E+04;  0.0000000E+00;  1.9809990E-01;  4.0000000E+04;  0.0000000E+00;  4.0025324E+04; -1.2195228E-02;  0.0000000E+00; -6.8007684E-03;  3.3555269E+03;
  3.2144326E-01;  9.9999998E-03;  2.5995687E-01;4454;  1.5565726E-02;  0.0000000E+00; -1.6334164E-03;  9.9762354E+02;  1.0000000E-01; -1.9688330E+03;3; -4.3995266E+00;  0.0000000E+00;  2.3447146E+00;0; -2.0535227E-02;  3.9795043E+04;  0.0000000E+00; -5.1718358E-02;  4.0000000E+04;  0.0000000E+00;  4.0025094E+04; -1.2153428E-02;  0.0000000E+00; -8.3817998E-03;  3.3111130E+03;
  3.2138830E-01;  9.9999998E-03;  2.6995739E-01;4455;  1.4995918E-02;  0.0000000E+00; -1.7145200E-03;  9.9773352E+02;  1.0000000E-01; -1.8777245E+03;3; -4.4278445E+00;  0.0000000E+00;  2.4643111E+00;0; -2.2465616E-02;  3.9805855E+04;  0.0000000E+00; -3.8966402E-01;  4.0000000E+04;  0.0000000E+00;  4.0024164E+04; -1.2055863E-02;  0.0000000E+00; -1.0409755E-02;  3.2423884E+03;
  3.2140541E-01;  9.9999998E-03;  2.7995685E-01;4456;  1.4419990E-02;  0.0000000E+00; -1.7260154E-03;  9.9786346E+02;  1.0000000E-01; -1.7700732E+03;3; -4.5552239E+00;  0.0000000E+00;  2.5946214E+00;0; -2.3678033E-02;  3.9818332E+04;  0.0000000E+00; -9.3830717E-01;  4.0000000E+04;  0.0000000E+00;  4.0023664E+04; -1.1898557E-02;  0.0000000E+00; -1.1779476E-02;  3.3631863E+03;
  3.2145095E-01;  9.9999998E-03;  2.8995588E-01;4457;  1.3831531E-02;  0.0000000E+00; -1.6762367E-03;  9.9799316E+02;  1.0000000E-01; -1.6626195E+03;3; -4.7780499E+00;  0.0000000E+00;  2.6959066E+00;0; -2.3489807E-02;  3.9831234E+04;  0.0000000E+00; -1.7719885E+00;  4.0000000E+04;  0.0000000E+00;  4.0022824E+04; -1.1624858E-02;  0.0000000E+00; -1.1864949E-02;  3.8584795E+03;
  3.2149717E-01;  9.9999998E-03;  2.9995474E-01;4458;  1.3223010E-02;  0.0000000E+00; -1.6081466E-03;  9.9810559E+02;  1.0000000E-01; -1.5694863E+03;3; -5.1306005E+00;  0.0000000E+00;  2.7582638E+00;0; -2.2185519E-02;  3.9843094E+04;  0.0000000E+00; -2.8873687E+00;  4.0000000E+04;  0.0000000E+00;  4.0021738E+04; -1.1165623E-02;  0.0000000E+00; -1.1019897E-02;  4.8913384E+03;
  3.3174592E-01;  9.9999998E-03;  2.3996708E-01;4513;  1.6466361E-02;  0.0000000E+00; -9.6691796E-04;  9.9768988E+02;  1.0000000E-01; -1.9138717E+03;3; -4.4817228E+00;  0.0000000E+00;  1.9988952E+00;0; -2.1321829E-02;  3.9799855E+04;  0.0000000E+00;  4.8501208E-01;  4.0000000E+04;  0.0000000E+00;  4.0021852E+04; -1.6814768E-02;  0.0000000E+00; -4.5070602E-03;  3.0095898E+03;
  3.3164856E-01;  9.9999998E-03;  2.4996465E-01;4514;  1.5915958E-02;  0.0000000E+00; -1.0472786E-03;  9.9766925E+02;  1.0000000E-01; -1.9309576E+03;3; -4.3996997E+00;  0.0000000E+00;  2.0684097E+00;0; -2.2414956E-02;  3.9798641E+04;  0.0000000E+00;  3.6085972E-01;  4.0000000E+04;  0.0000000E+00;  4.0022484E+04; -1.6923659E-02;  0.0000000E+00; -5.4912977E-03;  3.0606240E+03;
  3.3152840E-01;  9.9999998E-03;  2.5996318E-01;4515;  1.5357570E-02;  0.0000000E+00; -1.1427522E-03;  9.9769604E+02;  1.0000000E-01; -1.9087854E+03;3; -4.3354564E+00;  0.0000000E+00;  2.1471102E+00;0; -2.4104441E-02;  3.9801816E+04;  0.0000000E+00;  1.6794150E-01;  4.0000000E+04;  0.0000000E+00;  4.0022449E+04; -1.6979445E-02;  0.0000000E+00; -7.1249953E-03;  3.0130984E+03;
  3.3144960E-01;  9.9999998E-03;  2.6996142E-01;4516;  1.4791094E-02;  0.0000000E+00; -1.2171520E-03;  9.9776550E+02;  1.0000000E-01; -1.8512561E+03;3; -4.3023887E+00;  0.0000000E+00;  2.2505026E+00;0; -2.6162438E-02;  3.9808777E+04;  0.0000000E+00; -1.0599624E-01;  4.0000000E+04;  0.0000000E+00;  4.0022285E+04; -1.7024979E-02;  0.0000000E+00; -9.1374600E-03;  2.9726455E+03;
  3.3143523E-01;  9.9999998E-03;  2.7995926E-01;4517;  1.4211375E-02;  0.0000000E+00; -1.2060858E-03;  9.9786786E+02;  1.0000000E-01; -1.7664191E+03;3; -4.3107138E+00;  0.0000000E+00;  2.3847804E+00;0; -2.7386518E-02;  3.9818320E+04;  0.0000000E+00; -4.9630827E-01;  4.0000000E+04;  0.0000000E+00;  4.0022148E+04; -1.7072326E-02;  0.0000000E+00; -1.0314193E-02;  3.0330679E+03;
  3.3145860E-01;  9.9999998E-03;  2.8995728E-01;4518;  1.3611088E-02;  0.0000000E+00; -1.1190161E-03;  9.9798230E+02;  1.0000000E-01; -1.6716069E+03;3; -4.3814001E+00;  0.0000000E+00;  2.5141222E+00;0; -2.7057841E-02;  3.9829254E+04;  0.0000000E+00; -1.0213851E+00;  4.0000000E+04;  0.0000000E+00;  4.0021941E+04; -1.7098879E-02;  0.0000000E+00; -9.9589620E-03;  3.2278113E+03;
  3.3148512E-01;  9.9999998E-03;  2.9995549E-01;4519;  1.2985966E-02;  0.0000000E+00; -9.9812855E-04;  9.9809314E+02;  1.0000000E-01; -1.5798070E+03;3; -4.5302444E+00;  0.0000000E+00;  2.6433177E+00;0; -2.5459521E-02;  3.9840383E+04;  0.0000000E+00; -1.6532842E+00;  4.0000000E+04;  0.0000000E+00;  4.0021094E+04; -1.7064774E-02;  0.0000000E+00; -8.3947461E-03;  3.6115874E+03;
  3.4180322E-01;  9.9999998E-03;  2.3997921E-01;4574;  1.6240105E-02;  0.0000000E+00; -4.4770626E-04;  9.9786078E+02;  1.0000000E-01; -1.7722954E+03;3; -4.5214896E+00;  0.0000000E+00;  1.9068826E+00;0; -2.3502603E-02;  3.9816020E+04;  0.0000000E+00;  4.9094641E-01;  4.0000000E+04;  0.0000000E+00;  4.0018805E+04; -2.0208977E-02;  0.0000000E+00; -3.2936260E-03;  2.6178474E+03;
  3.4171763E-01;  9.9999998E-03;  2.4997361E-01;4575;  1.5694816E-02;  0.0000000E+00; -5.2880950E-04;  9.9780927E+02;  1.0000000E-01; -1.8149609E+03;3; -4.4281979E+00;  0.0000000E+00;  1.9521683E+00;0; -2.4592448E-02;  3.9811473E+04;  0.0000000E+00;  4.4540405E-01;  4.0000000E+04;  0.0000000E+00;  4.0019723E+04; -2.0298444E-02;  0.0000000E+00; -4.2940048E-03;  2.7146833E+03;
  3.4160501E-01;  9.9999998E-03;  2.5996944E-01;4576;  1.5140246E-02;  0.0000000E+00; -6.2131265E-04;  9.9779401E+02;  1.0000000E-01; -1.8276025E+03;3; -4.3471193E+00;  0.0000000E+00;  2.0189741E+00;0; -2.6349610E-02;  3.9810574E+04;  0.0000000E+00;  3.3306858E-01;  4.0000000E+04;  0.0000000E+00;  4.0020145E+04; -2.0373367E-02;  0.0000000E+00; -5.9762434E-03;  2.7351702E+03;
  3.4151599E-01;  9.9999998E-03;  2.6996550E-01;4577;  1.4574624E-02;  0.0000000E+00; -6.7402865E-04;  9.9782410E+02;  1.0000000E-01; -1.8027144E+03;3; -4.2759032E+00;  0.0000000E+00;  2.1135597E+00;0; -2.8349631E-02;  3.9813348E+04;  0.0000000E+00;  1.4866143E-01;  4.0000000E+04;  0.0000000E+00;  4.0020758E+04; -2.0466499E-02;  0.0000000E+00; -7.8831315E-03;  2.7656194E+03;
  3.4146753E-01;  9.9999998E-03;  2.7996188E-01;4578;  1.3992960E-02;  0.0000000E+00; -6.3039258E-04;  9.9788544E+02;  1.0000000E-01; -1.7518516E+03;3; -4.2324228E+00;  0.0000000E+00;  2.2306383E+00;0; -2.9347204E-02;  3.9818918E+04;  0.0000000E+00; -1.0995800E-01;  4.0000000E+04;  0.0000000E+00;  4.0021273E+04; -2.0589754E-02;  0.0000000E+00; -8.7574488E-03;  2.8364219E+03;
  3.4145275E-01;  9.9999998E-03;  2.8995889E-01;4579;  1.3385450E-02;  0.0000000E+00; -4.9875409E-04;  9.9797064E+02;  1.0000000E-01; -1.6812856E+03;3; -4.2218289E+00;  0.0000000E+00;  2.3699324E+00;0; -2.8595304E-02;  3.9826180E+04;  0.0000000E+00; -4.3538332E-01;  4.0000000E+04;  0.0000000E+00;  4.0021441E+04; -2.0738009E-02;  0.0000000E+00; -7.8572948E-03;  2.9123875E+03;
  3.4145543E-01;  9.9999998E-03;  2.9995635E-01;4580;  1.2748390E-02;  0.0000000E+00; -3.1589536E-04;  9.9805231E+02;  1.0000000E-01; -1.6136333E+03;3; -4.2563505E+00;  0.0000000E+00;  2.5643282E+00;0; -2.6349142E-02;  3.9834500E+04;  0.0000000E+00; -7.9721284E-01;  4.0000000E+04;  0.0000000E+00;  4.0021152E+04; -2.0896675E-02;  0.0000000E+00; -5.4524681E-03;  3.0112859E+03;
  3.5181746E-01;  9.9999998E-03;  2.3998909E-01;4635;  1.6014947E-02;  0.0000000E+00;  1.0125947E-04;  9.9802130E+02;  1.0000000E-01; -1.6393115E+03;3; -4.5657907E+00;  0.0000000E+00;  1.8288549E+00;0; -2.4642875E-02;  3.9830352E+04;  0.0000000E+00;  4.3110824E-01;  4.0000000E+04;  0.0000000E+00;  4.0016066E+04; -2.2590837E-02;  0.0000000E+00; -2.0520384E-03;  2.2452280E+03;
  3.5174456E-01;  9.9999998E-03;  2.4998078E-01;4636;  1.5470599E-02;  0.0000000E+00;  2.5891981E-05;  9.9794037E+02;  1.0000000E-01; -1.7063713E+03;3; -4.4747877E+00;  0.0000000E+00;  1.8750269E+00;0; -2.5692012E-02;  3.9823168E+04;  0.0000000E+00;  4.2990011E-01;  4.0000000E+04;  0.0000000E+00;  4.0017297E+04; -2.2621393E-02;  0.0000000E+00; -3.0706187E-03;  2.4063503E+03;
  3.5164538E-01;  9.9999998E-03;  2.5997445E-01;4637;  1.4915409E-02;  0.0000000E+00; -5.3158270E-05;  9.9789093E+02;  1.0000000E-01; -1.7473085E+03;3; -4.3879223E+00;  0.0000000E+00;  1.9331386E+00;0; -2.7406752E-02;  3.9818836E+04;  0.0000000E+00;  3.7432161E-01;  4.0000000E+04;  0.0000000E+00;  4.0018449E+04; -2.2662196E-02;  0.0000000E+00; -4.7445553E-03;  2.5157500E+03;
  3.5155904E-01;  9.9999998E-03;  2.6996869E-01;4638;  1.4347416E-02;  0.0000000E+00; -6.0862592E-05;  9.9788495E+02;  1.0000000E-01; -1.7522960E+03;3; -4.3101096E+00;  0.0000000E+00;  2.0220523E+00;0; -2.9027112E-02;  3.9817301E+04;  0.0000000E+00;  2.6031604E-01;  4.0000000E+04;  0.0000000E+00;  4.0019656E+04; -2.2735462E-02;  0.0000000E+00; -6.2916512E-03;  2.6616997E+03;
  3.5149270E-01;  9.9999998E-03;  2.7996391E-01;4639;  1.3762441E-02;  0.0000000E+00;  3.2967542E-05;  9.9790704E+02;  1.0000000E-01; -1.7339755E+03;3; -4.2480869E+00;  0.0000000E+00;  2.1310732E+00;0; -2.9436857E-02;  3.9818668E+04;  0.0000000E+00;  9.1265261E-02;  4.0000000E+04;  0.0000000E+00;  4.0021133E+04; -2.2848092E-02;  0.0000000E+00; -6.5887654E-03;  2.8009541E+03;
  3.5143903E-01;  9.9999998E-03;  2.8996009E-01;4640;  1.3150180E-02;  0.0000000E+00;  2.2496472E-04;  9.9794757E+02;  1.0000000E-01; -1.7003962E+03;3; -4.2082572E+00;  0.0000000E+00;  2.3039155E+00;0; -2.7843168E-02;  3.9821828E+04;  0.0000000E+00; -1.2263024E-01;  4.0000000E+04;  0.0000000E+00;  4.0021770E+04; -2.2997402E-02;  0.0000000E+00; -4.8457668E-03;  2.8922964E+03;
  3.5140920E-01;  9.9999998E-03;  2.9995695E-01;4641;  1.2508839E-02;  0.0000000E+00;  4.9549883E-04;  9.9799042E+02;  1.0000000E-01; -1.6648911E+03;3; -4.1879611E+00;  0.0000000E+00;  2.5886858E+00;0; -2.4314180E-02;  3.9826211E+04;  0.0000000E+00; -3.5687366E-01;  4.0000000E+04;  0.0000000E+00;  4.0021816E+04; -2.3181347E-02;  0.0000000E+00; -1.1328334E-03;  2.9378823E+03;
  3.6178574E-01;  9.9999998E-03;  2.3999481E-01;4696;  1.5789146E-02;  0.0000000E+00;  6.8940734E-04;  9.9813733E+02;  1.0000000E-01; -1.5431661E+03;3; -4.6042209E+00;  0.0000000E+00;  1.7675241E+00;0; -2.4992997E-02;  3.9840605E+04;  0.0000000E+00;  3.4077609E-01;  4.0000000E+04;  0.0000000E+00;  4.0014262E+04; -2.4258161E-02;  0.0000000E+00; -7.3483551E-04;  1.9955278E+03;
  3.6172661E-01;  9.9999998E-03;  2.4998499E-01;4697;  1.5240846E-02;  0.0000000E+00;  6.2772015E-04;  9.9803979E+02;  1.0000000E-01; -1.6240033E+03;3; -4.5184040E+00;  0.0000000E+00;  1.8116528E+00;0; -2.5938548E-02;  3.9831223E+04;  0.0000000E+00;  3.5105264E-01;  4.0000000E+04;  0.0000000E+00;  4.0016031E+04; -2.4209999E-02;  0.0000000E+00; -1.7285501E-03;  2.2092148E+03;
  3.6164519E-01;  9.9999998E-03;  2.5997716E-01;4698;  1.4680862E-02;  0.0000000E+00;  5.8249797E-04;  9.9796320E+02;  1.0000000E-01; -1.6874584E+03;3; -4.4360156E+00;  0.0000000E+00;  1.8730674E+00;0; -2.7394358E-02;  3.9823887E+04;  0.0000000E+00;  3.1859988E-01;  4.0000000E+04;  0.0000000E+00;  4.0017691E+04; -2.4186881E-02;  0.0000000E+00; -3.2074766E-03;  2.4140083E+03;
  3.6157027E-01;  9.9999998E-03;  2.6997039E-01;4699;  1.4108362E-02;  0.0000000E+00;  6.2871771E-04;  9.9792615E+02;  1.0000000E-01; -1.7181241E+03;3; -4.3638268E+00;  0.0000000E+00;  1.9576299E+00;0; -2.8435379E-02;  3.9818828E+04;  0.0000000E+00;  2.4042253E-01;  4.0000000E+04;  0.0000000E+00;  4.0019609E+04; -2.4200354E-02;  0.0000000E+00; -4.2350260E-03;  2.6551042E+03;
  3.6150023E-01;  9.9999998E-03;  2.7996489E-01;4700;  1.3518028E-02;  0.0000000E+00;  7.8969687E-04;  9.9790845E+02;  1.0000000E-01; -1.7327904E+03;3; -4.3023400E+00;  0.0000000E+00;  2.0761132E+00;0; -2.7902581E-02;  3.9816039E+04;  0.0000000E+00;  1.2015920E-01;  4.0000000E+04;  0.0000000E+00;  4.0021406E+04; -2.4251364E-02;  0.0000000E+00; -3.6512169E-03;  2.8756213E+03;
  3.6142790E-01;  9.9999998E-03;  2.8996053E-01;4701;  1.2905677E-02;  0.0000000E+00;  1.0961257E-03;  9.9790381E+02;  1.0000000E-01; -1.7366421E+03;3; -4.2481389E+00;  0.0000000E+00;  2.3466265E+00;0; -2.4481235E-02;  3.9815180E+04;  0.0000000E+00; -3.3571266E-02;  4.0000000E+04;  0.0000000E+00;  4.0022906E+04; -2.4337580E-02;  0.0000000E+00; -1.4365463E-04;  3.0207532E+03;
  3.6136627E-01;  9.9999998E-03;  2.9995704E-01;4702;  1.2274473E-02;  0.0000000E+00;  1.4854620E-03;  9.9790625E+02;  1.0000000E-01; -1.7346174E+03;3; -4.2032270E+00;  0.0000000E+00;  2.6338882E+00;0; -1.8896904E-02;  3.9815570E+04;  0.0000000E+00; -2.0523250E-01;  4.0000000E+04;  0.0000000E+00;  4.0023035E+04; -2.4458084E-02;  0.0000000E+00;  5.5611799E-03;  3.0757751E+03;
  3.7172803E-01;  9.9999998E-03;  2.3999545E-01;4757;  1.5557568E-02;  0.0000000E+00;  1.3260389E-03;  9.9820245E+02;  1.0000000E-01; -1.4892417E+03;3; -4.6306539E+00;  0.0000000E+00;  1.7275176E+00;0; -2.4786605E-02;  3.9844719E+04;  0.0000000E+00;  2.4561331E-01;  4.0000000E+04;  0.0000000E+00;  4.0014020E+04; -2.5476813E-02;  0.0000000E+00;  6.9020857E-04;  1.9367136E+03;
  3.7167957E-01;  9.9999998E-03;  2.4998550E-01;4758;  1.5002533E-02;  0.0000000E+00;  1.2896771E-03;  9.9808899E+02;  1.0000000E-01; -1.5832144E+03;3; -4.5526214E+00;  0.0000000E+00;  1.7701805E+00;0; -2.5522597E-02;  3.9833879E+04;  0.0000000E+00;  2.5232360E-01;  4.0000000E+04;  0.0000000E+00;  4.0016035E+04; -2.5336619E-02;  0.0000000E+00; -1.8597749E-04;  2.1923013E+03;
  3.7161896E-01;  9.9999998E-03;  2.5997713E-01;4759;  1.4434558E-02;  0.0000000E+00;  1.2994455E-03;  9.9799780E+02;  1.0000000E-01; -1.6587678E+03;3; -4.4786005E+00;  0.0000000E+00;  1.8288702E+00;0; -2.6458232E-02;  3.9824125E+04;  0.0000000E+00;  2.2400245E-01;  4.0000000E+04;  0.0000000E+00;  4.0018324E+04; -2.5232101E-02;  0.0000000E+00; -1.2261308E-03;  2.4820664E+03;
  3.7155983E-01;  9.9999998E-03;  2.6997012E-01;4760;  1.3854697E-02;  0.0000000E+00;  1.4137528E-03;  9.9793024E+02;  1.0000000E-01; -1.7147662E+03;3; -4.4139881E+00;  0.0000000E+00;  1.9261907E+00;0; -2.6625726E-02;  3.9816199E+04;  0.0000000E+00;  1.5983614E-01;  4.0000000E+04;  0.0000000E+00;  4.0020949E+04; -2.5164949E-02;  0.0000000E+00; -1.4607783E-03;  2.7916594E+03;
  3.7149593E-01;  9.9999998E-03;  2.7996460E-01;4761;  1.3262779E-02;  0.0000000E+00;  1.6800399E-03;  9.9787439E+02;  1.0000000E-01; -1.7610365E+03;3; -4.3463526E+00;  0.0000000E+00;  2.1588292E+00;0; -2.4486640E-02;  3.9810281E+04;  0.0000000E+00;  6.4396411E-02;  4.0000000E+04;  0.0000000E+00;  4.0022949E+04; -2.5132798E-02;  0.0000000E+00;  6.4615638E-04;  3.0494087E+03;
  3.7142205E-01;  9.9999998E-03;  2.8996027E-01;4762;  1.2659333E-02;  0.0000000E+00;  2.1179714E-03;  9.9783160E+02;  1.0000000E-01; -1.7964923E+03;3; -4.2832136E+00;  0.0000000E+00;  2.4020557E+00;0; -1.8697355E-02;  3.9805785E+04;  0.0000000E+00; -5.5177767E-02;  4.0000000E+04;  0.0000000E+00;  4.0024152E+04; -2.5132731E-02;  0.0000000E+00;  6.4353761E-03;  3.2026228E+03;
  3.7134776E-01;  9.9999998E-03;  2.9995665E-01;4763;  1.2046681E-02;  0.0000000E+00;  2.5537033E-03;  9.9779187E+02;  1.0000000E-01; -1.8293802E+03;3; -4.2287068E+00;  0.0000000E+00;  2.5718386E+00;0; -1.2132614E-02;  3.9802840E+04;  0.0000000E+00; -1.8884255E-01;  4.0000000E+04;  0.0000000E+00;  4.0024430E+04; -2.5162844E-02;  0.0000000E+00;  1.3030230E-02;  3.2669570E+03;
  3.8168460E-01;  9.9999998E-03;  2.3999093E-01;4818;  1.5313267E-02;  0.0000000E+00;  2.0172803E-03;  9.9821039E+02;  1.0000000E-01; -1.4826740E+03;3; -4.6512733E+00;  0.0000000E+00;  1.6950644E+00;0; -2.4220254E-02;  3.9842738E+04;  0.0000000E+00;  1.5058750E-01;  4.0000000E+04;  0.0000000E+00;  4.0015398E+04; -2.6450049E-02;  0.0000000E+00;  2.2297953E-03;  2.0915789E+03;
  3.8163856E-01;  9.9999998E-03;  2.4998248E-01;4819;  1.4750774E-02;  0.0000000E+00;  2.0159129E-03;  9.9808624E+02;  1.0000000E-01; -1.5855353E+03;3; -4.5791607E+00;  0.0000000E+00;  1.7421876E+00;0; -2.4634773E-02;  3.9830738E+04;  0.0000000E+00;  1.4912251E-01;  4.0000000E+04;  0.0000000E+00;  4.0017398E+04; -2.6200239E-02;  0.0000000E+00;  1.5654651E-03;  2.3617927E+03;
  3.8159418E-01;  9.9999998E-03;  2.5997487E-01;4820;  1.4173343E-02;  0.0000000E+00;  2.0807397E-03;  9.9797736E+02;  1.0000000E-01; -1.6757056E+03;3; -4.5097942E+00;  0.0000000E+00;  1.8281486E+00;0; -2.4972873E-02;  3.9819621E+04;  0.0000000E+00;  1.2127636E-01;  4.0000000E+04;  0.0000000E+00;  4.0020094E+04; -2.5995914E-02;  0.0000000E+00;  1.0230410E-03;  2.6844814E+03;
  3.8155663E-01;  9.9999998E-03;  2.6996836E-01;4821;  1.3591434E-02;  0.0000000E+00;  2.3040415E-03;  9.9788672E+02;  1.0000000E-01; -1.7508146E+03;3; -4.4339685E+00;  0.0000000E+00;  2.0184686E+00;0; -2.3718011E-02;  3.9809629E+04;  0.0000000E+00;  6.5698795E-02;  4.0000000E+04;  0.0000000E+00;  4.0022875E+04; -2.5834287E-02;  0.0000000E+00;  2.1162766E-03;  3.0247603E+03;
  3.8150823E-01;  9.9999998E-03;  2.7996334E-01;4822;  1.3006677E-02;  0.0000000E+00;  2.7139869E-03;  9.9780402E+02;  1.0000000E-01; -1.8193064E+03;3; -4.3664446E+00;  0.0000000E+00;  2.2186949E+00;0; -1.9158620E-02;  3.9801281E+04;  0.0000000E+00; -1.0670702E-02;  4.0000000E+04;  0.0000000E+00;  4.0024688E+04; -2.5710359E-02;  0.0000000E+00;  6.5517398E-03;  3.2760654E+03;
  3.8144481E-01;  9.9999998E-03;  2.8995934E-01;4823;  1.2413223E-02;  0.0000000E+00;  3.2135760E-03;  9.9772632E+02;  1.0000000E-01; -1.8836997E+03;3; -4.3104901E+00;  0.0000000E+00;  2.3408093E+00;0; -1.1874461E-02;  3.9794230E+04;  0.0000000E+00; -1.0141617E-01;  4.0000000E+04;  0.0000000E+00;  4.0025547E+04; -2.5620256E-02;  0.0000000E+00;  1.3745795E-02;  3.4110779E+03;
  3.8137338E-01;  9.9999998E-03;  2.9995584E-01;4824;  1.1813113E-02;  0.0000000E+00;  3.5714065E-03;  9.9765503E+02;  1.0000000E-01; -1.9427598E+03;3; -4.2632146E+00;  0.0000000E+00;  2.3732660E+00;0; -6.4266156E-03;  3.9788570E+04;  0.0000000E+00; -1.9990622E-01;  4.0000000E+04;  0.0000000E+00;  4.0026008E+04; -2.5560921E-02;  0.0000000E+00;  1.9134305E-02;  3.4604028E+03;
  3.9168161E-01;  9.9999998E-03;  2.3998177E-01;4879;  1.5054254E-02;  0.0000000E+00;  2.7868459E-03;  9.9817596E+02;  1.0000000E-01; -1.5111670E+03;3; -4.6487579E+00;  0.0000000E+00;  1.7622097E+00;0; -2.3347963E-02;  3.9836551E+04;  0.0000000E+00;  5.9692003E-02;  4.0000000E+04;  0.0000000E+00;  4.0018191E+04; -2.7299641E-02;  0.0000000E+00;  3.9516771E-03;  2.4517910E+03;
  3.9163953E-01;  9.9999998E-03;  2.4997690E-01;4880;  1.4482868E-02;  0.0000000E+00;  2.8212906E-03;  9.9804059E+02;  1.0000000E-01; -1.6233120E+03;3; -4.5782075E+00;  0.0000000E+00;  1.8276181E+00;0; -2.3346324E-02;  3.9823680E+04;  0.0000000E+00;  4.9893580E-02;  4.0000000E+04;  0.0000000E+00;  4.0019742E+04; -2.6919182E-02;  0.0000000E+00;  3.5728593E-03;  2.6661997E+03;
  3.9160475E-01;  9.9999998E-03;  2.5997132E-01;4881;  1.3899735E-02;  0.0000000E+00;  2.9437598E-03;  9.9791504E+02;  1.0000000E-01; -1.7273584E+03;3; -4.5103626E+00;  0.0000000E+00;  1.9308139E+00;0; -2.2932760E-02;  3.9811520E+04;  0.0000000E+00;  2.3990139E-02;  4.0000000E+04;  0.0000000E+00;  4.0022297E+04; -2.6595591E-02;  0.0000000E+00;  3.6628311E-03;  2.9474158E+03;
  3.9158037E-01;  9.9999998E-03;  2.6996592E-01;4882;  1.3317603E-02;  0.0000000E+00;  3.2596542E-03;  9.9780920E+02;  1.0000000E-01; -1.8150103E+03;3; -4.4395618E+00;  0.0000000E+00;  2.0840678E+00;0; -2.0242525E-02;  3.9800254E+04;  0.0000000E+00; -1.9166850E-02;  4.0000000E+04;  0.0000000E+00;  4.0024656E+04; -2.6324322E-02;  0.0000000E+00;  6.0817967E-03;  3.2636411E+03;
  3.9154783E-01;  9.9999998E-03;  2.7996156E-01;4883;  1.2735904E-02;  0.0000000E+00;  3.7468511E-03;  9.9770422E+02;  1.0000000E-01; -1.9020201E+03;3; -4.3790331E+00;  0.0000000E+00;  2.2030380E+00;0; -1.4073325E-02;  3.9790246E+04;  0.0000000E+00; -7.3753230E-02;  4.0000000E+04;  0.0000000E+00;  4.0026484E+04; -2.6099229E-02;  0.0000000E+00;  1.2025904E-02;  3.4960183E+03;
  3.9149663E-01;  9.9999998E-03;  2.8995803E-01;4884;  1.2148787E-02;  0.0000000E+00;  4.2202389E-03;  9.9760571E+02;  1.0000000E-01; -1.9835980E+03;3; -4.3380690E+00;  0.0000000E+00;  2.1787090E+00;0; -6.7257416E-03;  3.9781590E+04;  0.0000000E+00; -1.3306667E-01;  4.0000000E+04;  0.0000000E+00;  4.0026945E+04; -2.5914855E-02;  0.0000000E+00;  1.9189114E-02;  3.5974438E+03;
  3.9143282E-01;  9.9999998E-03;  2.9995468E-01;4885;  1.1549469E-02;  0.0000000E+00;  4.4569103E-03;  9.9751422E+02;  1.0000000E-01; -2.0593984E+03;3; -4.2981238E+00;  0.0000000E+00;  2.1476114E+00;0; -3.2505058E-03;  3.9774344E+04;  0.0000000E+00; -1.9498822E-01;  4.0000000E+04;  0.0000000E+00;  4.0027223E+04; -2.5766645E-02;  0.0000000E+00;  2.2516139E-02;  3.6375544E+03;
  4.0169108E-01;  9.9999998E-03;  2.3997076E-01;4940;  1.4783816E-02;  0.0000000E+00;  3.6430703E-03;  9.9812457E+02;  1.0000000E-01; -1.5537338E+03;3; -4.6328197E+00;  0.0000000E+00;  1.8413625E+00;0; -2.2181388E-02;  3.9827914E+04;  0.0000000E+00; -2.3513142E-02;  4.0000000E+04;  0.0000000E+00;  4.0021785E+04; -2.8071284E-02;  0.0000000E+00;  5.8898963E-03;  2.8907268E+03;
  4.0165555E-01;  9.9999998E-03;  2.4997003E-01;4941;  1.4206417E-02;  0.0000000E+00;  3.7210090E-03;  9.9797894E+02;  1.0000000E-01; -1.6744216E+03;3; -4.5648046E+00;  0.0000000E+00;  1.9113249E+00;0; -2.1581696E-02;  3.9814840E+04;  0.0000000E+00; -3.7335619E-02;  4.0000000E+04;  0.0000000E+00;  4.0022758E+04; -2.7537316E-02;  0.0000000E+00;  5.9556202E-03;  3.0286233E+03;
  4.0162787E-01;  9.9999998E-03;  2.5996733E-01;4942;  1.3613367E-02;  0.0000000E+00;  3.8544398E-03;  9.9783844E+02;  1.0000000E-01; -1.7908134E+03;3; -4.5065923E+00;  0.0000000E+00;  1.9910235E+00;0; -2.0642884E-02;  3.9802359E+04;  0.0000000E+00; -5.7033777E-02;  4.0000000E+04;  0.0000000E+00;  4.0024117E+04; -2.7074417E-02;  0.0000000E+00;  6.4315321E-03;  3.2016431E+03;
  4.0160865E-01;  9.9999998E-03;  2.6996335E-01;4943;  1.3024902E-02;  0.0000000E+00;  4.1831471E-03;  9.9771765E+02;  1.0000000E-01; -1.8908600E+03;3; -4.4445133E+00;  0.0000000E+00;  2.1002004E+00;0; -1.7353782E-02;  3.9790535E+04;  0.0000000E+00; -8.4048055E-02;  4.0000000E+04;  0.0000000E+00;  4.0026090E+04; -2.6677176E-02;  0.0000000E+00;  9.3233939E-03;  3.4572002E+03;
  4.0158433E-01;  9.9999998E-03;  2.7995974E-01;4944;  1.2443146E-02;  0.0000000E+00;  4.6549723E-03;  9.9760321E+02;  1.0000000E-01; -1.9856721E+03;3; -4.3859673E+00;  0.0000000E+00;  2.1365981E+00;0; -1.0981297E-02;  3.9779957E+04;  0.0000000E+00; -1.1571892E-01;  4.0000000E+04;  0.0000000E+00;  4.0027449E+04; -2.6338397E-02;  0.0000000E+00;  1.5357099E-02;  3.6516785E+03;
  4.0154675E-01;  9.9999998E-03;  2.8995657E-01;4945;  1.1855938E-02;  0.0000000E+00;  5.0603966E-03;  9.9749365E+02;  1.0000000E-01; -2.0764844E+03;3; -4.3555579E+00;  0.0000000E+00;  2.0217900E+00;0; -4.4885501E-03;  3.9770680E+04;  0.0000000E+00; -1.4795080E-01;  4.0000000E+04;  0.0000000E+00;  4.0028074E+04; -2.6051160E-02;  0.0000000E+00;  2.1562610E-02;  3.7393425E+03;
  4.0149429E-01;  9.9999998E-03;  2.9995334E-01;4946;  1.1259640E-02;  0.0000000E+00;  5.2312827E-03;  9.9739197E+02;  1.0000000E-01; -2.1607288E+03;3; -4.3165007E+00;  0.0000000E+00;  1.9657618E+00;0; -2.1493230E-03;  3.9762547E+04;  0.0000000E+00; -1.7853835E-01;  4.0000000E+04;  0.0000000E+00;  4.0028336E+04; -2.5808794E-02;  0.0000000E+00;  2.3659471E-02;  3.7829990E+03;
  4.1171011E-01;  9.9999998E-03;  2.3996259E-01;5001;  1.4492839E-02;  0.0000000E+00;  4.5052189E-03;  9.9805914E+02;  1.0000000E-01; -1.6079543E+03;3; -4.6073389E+00;  0.0000000E+00;  1.9192510E+00;0; -2.1108694E-02;  3.9819617E+04;  0.0000000E+00; -9.8013520E-02;  4.0000000E+04;  0.0000000E+00;  4.0024062E+04; -2.8768687E-02;  0.0000000E+00;  7.6599913E-03;  3.1919612E+03;
  4.1168576E-01;  9.9999998E-03;  2.4996457E-01;5002;  1.3913957E-02;  0.0000000E+00;  4.6208464E-03;  9.9791180E+02;  1.0000000E-01; -1.7300250E+03;3; -4.5425286E+00;  0.0000000E+00;  1.9877033E+00;0; -1.9970765E-02;  3.9806941E+04;  0.0000000E+00; -1.1263892E-01;  4.0000000E+04;  0.0000000E+00;  4.0024711E+04; -2.8057508E-02;  0.0000000E+00;  8.0867428E-03;  3.2783010E+03;
  4.1166735E-01;  9.9999998E-03;  2.5996417E-01;5003;  1.3313167E-02;  0.0000000E+00;  4.7277631E-03;  9.9776544E+02;  1.0000000E-01; -1.8513055E+03;3; -4.4947553E+00;  0.0000000E+00;  2.0290086E+00;0; -1.8872809E-02;  3.9794902E+04;  0.0000000E+00; -1.2568934E-01;  4.0000000E+04;  0.0000000E+00;  4.0025312E+04; -2.7433358E-02;  0.0000000E+00;  8.5605485E-03;  3.3508591E+03;
  4.1165176E-01;  9.9999998E-03;  2.6996127E-01;5004;  1.2717507E-02;  0.0000000E+00;  5.0106728E-03;  9.9764081E+02;  1.0000000E-01; -1.9545619E+03;3; -4.4401503E+00;  0.0000000E+00;  2.0820689E+00;0; -1.5778106E-02;  3.9783578E+04;  0.0000000E+00; -1.3902174E-01;  4.0000000E+04;  0.0000000E+00;  4.0026605E+04; -2.6890574E-02;  0.0000000E+00;  1.1112467E-02;  3.5512930E+03;
  4.1163024E-01;  9.9999998E-03;  2.7995819E-01;5005;  1.2131007E-02;  0.0000000E+00;  5.4060998E-03;  9.9752533E+02;  1.0000000E-01; -2.0502134E+03;3; -4.3868098E+00;  0.0000000E+00;  2.0707614E+00;0; -1.0308502E-02;  3.9772777E+04;  0.0000000E+00; -1.5238565E-01;  4.0000000E+04;  0.0000000E+00;  4.0027898E+04; -2.6421582E-02;  0.0000000E+00;  1.6113080E-02;  3.7229246E+03;
  4.1159585E-01;  9.9999998E-03;  2.8995526E-01;5006;  1.1545792E-02;  0.0000000E+00;  5.7514911E-03;  9.9741681E+02;  1.0000000E-01; -2.1401370E+03;3; -4.3540702E+00;  0.0000000E+00;  1.9395015E+00;0; -4.8090909E-03;  3.9763234E+04;  0.0000000E+00; -1.6119884E-01;  4.0000000E+04;  0.0000000E+00;  4.0028660E+04; -2.6017971E-02;  0.0000000E+00;  2.1208880E-02;  3.8118054E+03;
  4.1154712E-01;  9.9999998E-03;  2.9995218E-01;5007;  1.0951315E-02;  0.0000000E+00;  5.9055150E-03;  9.9731696E+02;  1.0000000E-01; -2.2228506E+03;3; -4.3241129E+00;  0.0000000E+00;  1.8659861E+00;0; -2.8202385E-03;  3.9755031E+04;  0.0000000E+00; -1.6003783E-01;  4.0000000E+04;  0.0000000E+00;  4.0028945E+04; -2.5671056E-02;  0.0000000E+00;  2.2850817E-02;  3.8609602E+03;
  4.2175245E-01;  9.9999998E-03;  2.3995776E-01;5062;  1.4184035E-02;  0.0000000E+00;  5.3536203E-03;  9.9801385E+02;  1.0000000E-01; -1.6454843E+03;3; -4.5820107E+00;  0.0000000E+00;  1.9687884E+00;0; -2.0208512E-02;  3.9814477E+04;  0.0000000E+00; -1.6148786E-01;  4.0000000E+04;  0.0000000E+00;  4.0025168E+04; -2.9378299E-02;  0.0000000E+00;  9.1697862E-03;  3.3278020E+03;
  4.2174217E-01;  9.9999998E-03;  2.4996108E-01;5063;  1.3607522E-02;  0.0000000E+00;  5.4846313E-03;  9.9787280E+02;  1.0000000E-01; -1.7623204E+03;3; -4.5210357E+00;  0.0000000E+00;  2.0217335E+00;0; -1.8724550E-02;  3.9802754E+04;  0.0000000E+00; -1.7573057E-01;  4.0000000E+04;  0.0000000E+00;  4.0025516E+04; -2.8467003E-02;  0.0000000E+00;  9.7424528E-03;  3.3831299E+03;
  4.2173287E-01;  9.9999998E-03;  2.5996223E-01;5064;  1.3004863E-02;  0.0000000E+00;  5.5408054E-03;  9.9773053E+02;  1.0000000E-01; -1.8801936E+03;3; -4.4756517E+00;  0.0000000E+00;  2.0346200E+00;0; -1.7783467E-02;  3.9791469E+04;  0.0000000E+00; -1.8337338E-01;  4.0000000E+04;  0.0000000E+00;  4.0025191E+04; -2.7659373E-02;  0.0000000E+00;  9.8759057E-03;  3.3686902E+03;
  4.2171812E-01;  9.9999998E-03;  2.6996008E-01;5065;  1.2405462E-02;  0.0000000E+00;  5.7380171E-03;  9.9760815E+02;  1.0000000E-01; -1.9816228E+03;3; -4.4269924E+00;  0.0000000E+00;  2.0536966E+00;0; -1.5506290E-02;  3.9780684E+04;  0.0000000E+00; -1.8445212E-01;  4.0000000E+04;  0.0000000E+00;  4.0026438E+04; -2.6950553E-02;  0.0000000E+00;  1.1444263E-02;  3.5199658E+03;
  4.2169377E-01;  9.9999998E-03;  2.7995732E-01;5066;  1.1814944E-02;  0.0000000E+00;  6.0360539E-03;  9.9750269E+02;  1.0000000E-01; -2.0689783E+03;3; -4.3794246E+00;  0.0000000E+00;  2.0183301E+00;0; -1.1457988E-02;  3.9770832E+04;  0.0000000E+00; -1.7701475E-01;  4.0000000E+04;  0.0000000E+00;  4.0027410E+04; -2.6333166E-02;  0.0000000E+00;  1.4875178E-02;  3.6744004E+03;
  4.2165619E-01;  9.9999998E-03;  2.8995445E-01;5067;  1.1231322E-02;  0.0000000E+00;  6.3258298E-03;  9.9739966E+02;  1.0000000E-01; -2.1543093E+03;3; -4.3419490E+00;  0.0000000E+00;  1.9155974E+00;0; -7.0564132E-03;  3.9761953E+04;  0.0000000E+00; -1.5529655E-01;  4.0000000E+04;  0.0000000E+00;  4.0028398E+04; -2.5797935E-02;  0.0000000E+00;  1.8741522E-02;  3.7781506E+03;
  4.2160174E-01;  9.9999998E-03;  2.9995149E-01;5068;  1.0640972E-02;  0.0000000E+00;  6.4869742E-03;  9.9730768E+02;  1.0000000E-01; -2.2305540E+03;3; -4.3167591E+00;  0.0000000E+00;  1.8483227E+00;0; -5.0372258E-03;  3.9754156E+04;  0.0000000E+00; -1.1138438E-01;  4.0000000E+04;  0.0000000E+00;  4.0028801E+04; -2.5334613E-02;  0.0000000E+00;  2.0297388E-02;  3.8354846E+03;
  4.3181235E-01;  9.9999998E-03;  2.3995554E-01;5123;  1.3867196E-02;  0.0000000E+00;  6.1873691E-03;  9.9801440E+02;  1.0000000E-01; -1.6450398E+03;3; -4.5525093E+00;  0.0000000E+00;  2.0020075E+00;0; -1.9458508E-02;  3.9814277E+04;  0.0000000E+00; -2.0692489E-01;  4.0000000E+04;  0.0000000E+00;  4.0025137E+04; -2.9887008E-02;  0.0000000E+00;  1.0428499E-02;  3.3252556E+03;
  4.3181056E-01;  9.9999998E-03;  2.4995947E-01;5124;  1.3301622E-02;  0.0000000E+00;  6.3139875E-03;  9.9788556E+02;  1.0000000E-01; -1.7517528E+03;3; -4.4922333E+00;  0.0000000E+00;  2.0370030E+00;0; -1.7787861E-02;  3.9803977E+04;  0.0000000E+00; -2.1709137E-01;  4.0000000E+04;  0.0000000E+00;  4.0025219E+04; -2.8755972E-02;  0.0000000E+00;  1.0968111E-02;  3.3500352E+03;
  4.3180636E-01;  9.9999998E-03;  2.5996149E-01;5125;  1.2704919E-02;  0.0000000E+00;  6.3218125E-03;  9.9775500E+02;  1.0000000E-01; -1.8599473E+03;3; -4.4512753E+00;  0.0000000E+00;  2.0253942E+00;0; -1.7048618E-02;  3.9794133E+04;  0.0000000E+00; -2.1620931E-01;  4.0000000E+04;  0.0000000E+00;  4.0024496E+04; -2.7745858E-02;  0.0000000E+00;  1.0697240E-02;  3.2717471E+03;
  4.3179184E-01;  9.9999998E-03;  2.6995984E-01;5126;  1.2107274E-02;  0.0000000E+00;  6.4261123E-03;  9.9764301E+02;  1.0000000E-01; -1.9527347E+03;3; -4.4061098E+00;  0.0000000E+00;  2.0153110E+00;0; -1.5725205E-02;  3.9784492E+04;  0.0000000E+00; -2.0199369E-01;  4.0000000E+04;  0.0000000E+00;  4.0025168E+04; -2.6853273E-02;  0.0000000E+00;  1.1128068E-02;  3.3690149E+03;
  4.3176726E-01;  9.9999998E-03;  2.7995721E-01;5127;  1.1517739E-02;  0.0000000E+00;  6.6261818E-03;  9.9754822E+02;  1.0000000E-01; -2.0312511E+03;3; -4.3605971E+00;  0.0000000E+00;  1.9875722E+00;0; -1.3160704E-02;  3.9775695E+04;  0.0000000E+00; -1.6963725E-01;  4.0000000E+04;  0.0000000E+00;  4.0026449E+04; -2.6071317E-02;  0.0000000E+00;  1.2910614E-02;  3.5100459E+03;
  4.3172896E-01;  9.9999998E-03;  2.8995442E-01;5128;  1.0934455E-02;  0.0000000E+00;  6.8609091E-03;  9.9746136E+02;  1.0000000E-01; -2.1031997E+03;3; -4.3262897E+00;  0.0000000E+00;  1.9186594E+00;0; -9.8584536E-03;  3.9767770E+04;  0.0000000E+00; -1.1079989E-01;  4.0000000E+04;  0.0000000E+00;  4.0027211E+04; -2.5390618E-02;  0.0000000E+00;  1.5532164E-02;  3.6176045E+03;
  4.3167299E-01;  9.9999998E-03;  2.9995146E-01;5129;  1.0346701E-02;  0.0000000E+00;  7.0180488E-03;  9.9737836E+02;  1.0000000E-01; -2.1719878E+03;3; -4.2999277E+00;  0.0000000E+00;  1.8637898E+00;0; -7.9748575E-03;  3.9760617E+04;  0.0000000E+00; -1.5283482E-02;  4.0000000E+04;  0.0000000E+00;  4.0027547E+04; -2.4799787E-02;  0.0000000E+00;  1.6824929E-02;  3.6901780E+03;
  4.4188091E-01;  9.9999998E-03;  2.3995619E-01;5184;  1.3550242E-02;  0.0000000E+00;  6.9852252E-03;  9.9807068E+02;  1.0000000E-01; -1.5984238E+03;3; -4.5203209E+00;  0.0000000E+00;  2.0108235E+00;0; -1.8926550E-02;  3.9820113E+04;  0.0000000E+00; -2.2924609E-01;  4.0000000E+04;  0.0000000E+00;  4.0023727E+04; -3.0293897E-02;  0.0000000E+00;  1.1367347E-02;  3.1729246E+03;
  4.4188440E-01;  9.9999998E-03;  2.4996002E-01;5185;  1.3003916E-02;  0.0000000E+00;  7.0973234E-03;  9.9796222E+02;  1.0000000E-01; -1.6882484E+03;3; -4.4559765E+00;  0.0000000E+00;  2.0394557E+00;0; -1.7195363E-02;  3.9811500E+04;  0.0000000E+00; -2.3227392E-01;  4.0000000E+04;  0.0000000E+00;  4.0023711E+04; -2.8929118E-02;  0.0000000E+00;  1.1733755E-02;  3.1671047E+03;
  4.4188344E-01;  9.9999998E-03;  2.5996190E-01;5186;  1.2423768E-02;  0.0000000E+00;  7.0835543E-03;  9.9784711E+02;  1.0000000E-01; -1.7836531E+03;3; -4.4146829E+00;  0.0000000E+00;  2.0139296E+00;0; -1.6497340E-02;  3.9803184E+04;  0.0000000E+00; -2.2036208E-01;  4.0000000E+04;  0.0000000E+00;  4.0022910E+04; -2.7703105E-02;  0.0000000E+00;  1.1205764E-02;  3.0708413E+03;
  4.4187221E-01;  9.9999998E-03;  2.6996046E-01;5187;  1.1837082E-02;  0.0000000E+00;  7.1227332E-03;  9.9775409E+02;  1.0000000E-01; -1.8606880E+03;3; -4.3760180E+00;  0.0000000E+00;  1.9884998E+00;0; -1.5807614E-02;  3.9795039E+04;  0.0000000E+00; -1.8901220E-01;  4.0000000E+04;  0.0000000E+00;  4.0023293E+04; -2.6613852E-02;  0.0000000E+00;  1.0806238E-02;  3.1223752E+03;
  4.4185260E-01;  9.9999998E-03;  2.7995786E-01;5188;  1.1252468E-02;  0.0000000E+00;  7.2527910E-03;  9.9767316E+02;  1.0000000E-01; -1.9277478E+03;3; -4.3354712E+00;  0.0000000E+00;  1.9595146E+00;0; -1.4241603E-02;  3.9787746E+04;  0.0000000E+00; -1.3089389E-01;  4.0000000E+04;  0.0000000E+00;  4.0024359E+04; -2.5655260E-02;  0.0000000E+00;  1.1413657E-02;  3.2452288E+03;
  4.4181886E-01;  9.9999998E-03;  2.8995502E-01;5189;  1.0672055E-02;  0.0000000E+00;  7.4275904E-03;  9.9759766E+02;  1.0000000E-01; -1.9903140E+03;3; -4.3015008E+00;  0.0000000E+00;  1.9133235E+00;0; -1.1976815E-02;  3.9780742E+04;  0.0000000E+00; -3.5845455E-02;  4.0000000E+04;  0.0000000E+00;  4.0025211E+04; -2.4818348E-02;  0.0000000E+00;  1.2841533E-02;  3.3589248E+03;
  4.4176731E-01;  9.9999998E-03;  2.9995215E-01;5190;  1.0086810E-02;  0.0000000E+00;  7.5616315E-03;  9.9752985E+02;  1.0000000E-01; -2.0464604E+03;3; -4.2813292E+00;  0.0000000E+00;  1.8758056E+00;0; -1.0474601E-02;  3.9774840E+04;  0.0000000E+00;  1.0772614E-01;  4.0000000E+04;  0.0000000E+00;  4.0025891E+04; -2.4091344E-02;  0.0000000E+00;  1.3616743E-02;  3.4408950E+03;
  4.5195717E-01;  9.9999998E-03;  2.3995943E-01;5245;  1.3239557E-02;  0.0000000E+00;  7.7366792E-03;  9.9817395E+02;  1.0000000E-01; -1.5128459E+03;3; -4.4813461E+00;  0.0000000E+00;  2.0040472E+00;0; -1.8642364E-02;  3.9830906E+04;  0.0000000E+00; -2.2917020E-01;  4.0000000E+04;  0.0000000E+00;  4.0021621E+04; -3.0611711E-02;  0.0000000E+00;  1.1969347E-02;  2.8909888E+03;
  4.5196253E-01;  9.9999998E-03;  2.4996229E-01;5246;  1.2720366E-02;  0.0000000E+00;  7.8342007E-03;  9.9808746E+02;  1.0000000E-01; -1.5844983E+03;3; -4.4153781E+00;  0.0000000E+00;  2.0206385E+00;0; -1.6915869E-02;  3.9824043E+04;  0.0000000E+00; -2.2439362E-01;  4.0000000E+04;  0.0000000E+00;  4.0021445E+04; -2.9005310E-02;  0.0000000E+00;  1.2089442E-02;  2.8746067E+03;
  4.5196456E-01;  9.9999998E-03;  2.5996321E-01;5247;  1.2166377E-02;  0.0000000E+00;  7.8306235E-03;  9.9799890E+02;  1.0000000E-01; -1.6578789E+03;3; -4.3708344E+00;  0.0000000E+00;  2.0005834E+00;0; -1.6046610E-02;  3.9817465E+04;  0.0000000E+00; -2.0115644E-01;  4.0000000E+04;  0.0000000E+00;  4.0020809E+04; -2.7556071E-02;  0.0000000E+00;  1.1509460E-02;  2.8026338E+03;
  4.5196104E-01;  9.9999998E-03;  2.6996166E-01;5248;  1.1596883E-02;  0.0000000E+00;  7.8434311E-03;  9.9792365E+02;  1.0000000E-01; -1.7201981E+03;3; -4.3348746E+00;  0.0000000E+00;  1.9706451E+00;0; -1.5522467E-02;  3.9811230E+04;  0.0000000E+00; -1.5318449E-01;  4.0000000E+04;  0.0000000E+00;  4.0021082E+04; -2.6262971E-02;  0.0000000E+00;  1.0740504E-02;  2.8306282E+03;
  4.5195124E-01;  9.9999998E-03;  2.7995902E-01;5249;  1.1025651E-02;  0.0000000E+00;  7.9302471E-03;  9.9785620E+02;  1.0000000E-01; -1.7760978E+03;3; -4.3001122E+00;  0.0000000E+00;  1.9397948E+00;0; -1.4446837E-02;  3.9805148E+04;  0.0000000E+00; -7.2072312E-02;  4.0000000E+04;  0.0000000E+00;  4.0021941E+04; -2.5120867E-02;  0.0000000E+00;  1.0674031E-02;  2.9337822E+03;
  4.5192721E-01;  9.9999998E-03;  2.8995621E-01;5250;  1.0453355E-02;  0.0000000E+00;  8.0505386E-03;  9.9779663E+02;  1.0000000E-01; -1.8254297E+03;3; -4.2721667E+00;  0.0000000E+00;  1.8987527E+00;0; -1.2965888E-02;  3.9799430E+04;  0.0000000E+00;  5.1943552E-02;  4.0000000E+04;  0.0000000E+00;  4.0022742E+04; -2.4121549E-02;  0.0000000E+00;  1.1155661E-02;  3.0367542E+03;
  4.5188513E-01;  9.9999998E-03;  2.9995337E-01;5251;  9.8748021E-03;  0.0000000E+00;  8.1429053E-03;  9.9774200E+02;  1.0000000E-01; -1.8707124E+03;3; -4.2527509E+00;  0.0000000E+00;  1.8738337E+00;0; -1.2059740E-02;  3.9794602E+04;  0.0000000E+00;  2.3032580E-01;  4.0000000E+04;  0.0000000E+00;  4.0023129E+04; -2.3253379E-02;  0.0000000E+00;  1.1193640E-02;  3.1280146E+03;
  4.6202534E-01;  9.9999998E-03;  2.3996511E-01;5306;  1.2938765E-02;  0.0000000E+00;  8.4401639E-03;  9.9830420E+02;  1.0000000E-01; -1.4049478E+03;3; -4.4401460E+00;  0.0000000E+00;  1.9809183E+00;0; -1.8594163E-02;  3.9844496E+04;  0.0000000E+00; -2.0920618E-01;  4.0000000E+04;  0.0000000E+00;  4.0018668E+04; -3.0861899E-02;  0.0000000E+00;  1.2267737E-02;  2.5059697E+03;
  4.6202973E-01;  9.9999998E-03;  2.4996573E-01;5307;  1.2451600E-02;  0.0000000E+00;  8.5307322E-03;  9.9823724E+02;  1.0000000E-01; -1.4604031E+03;3; -4.3712745E+00;  0.0000000E+00;  2.0023103E+00;0; -1.6885364E-02;  3.9839258E+04;  0.0000000E+00; -1.9743639E-01;  4.0000000E+04;  0.0000000E+00;  4.0018797E+04; -2.9012047E-02;  0.0000000E+00;  1.2126682E-02;  2.5238101E+03;
  4.6203104E-01;  9.9999998E-03;  2.5996494E-01;5308;  1.1933681E-02;  0.0000000E+00;  8.5741980E-03;  9.9817554E+02;  1.0000000E-01; -1.5115127E+03;3; -4.3210115E+00;  0.0000000E+00;  1.9873972E+00;0; -1.5554568E-02;  3.9834219E+04;  0.0000000E+00; -1.6373390E-01;  4.0000000E+04;  0.0000000E+00;  4.0018828E+04; -2.7338350E-02;  0.0000000E+00;  1.1783782E-02;  2.5242920E+03;
  4.6202651E-01;  9.9999998E-03;  2.6996303E-01;5309;  1.1390770E-02;  0.0000000E+00;  8.5935248E-03;  9.9811804E+02;  1.0000000E-01; -1.5591656E+03;3; -4.2841229E+00;  0.0000000E+00;  1.9592532E+00;0; -1.4746329E-02;  3.9829238E+04;  0.0000000E+00; -1.0076264E-01;  4.0000000E+04;  0.0000000E+00;  4.0019016E+04; -2.5840705E-02;  0.0000000E+00;  1.1094376E-02;  2.5500496E+03;
  4.6201617E-01;  9.9999998E-03;  2.7996039E-01;5310;  1.0838889E-02;  0.0000000E+00;  8.6488901E-03;  9.9806659E+02;  1.0000000E-01; -1.6017817E+03;3; -4.2542167E+00;  0.0000000E+00;  1.9220884E+00;0; -1.3834265E-02;  3.9824621E+04;  0.0000000E+00; -1.2186602E-03;  4.0000000E+04;  0.0000000E+00;  4.0019504E+04; -2.4514982E-02;  0.0000000E+00;  1.0680717E-02;  2.6220554E+03;
  4.6199504E-01;  9.9999998E-03;  2.8995761E-01;5311;  1.0282729E-02;  0.0000000E+00;  8.7198820E-03;  9.9801807E+02;  1.0000000E-01; -1.6419781E+03;3; -4.2314930E+00;  0.0000000E+00;  1.8835430E+00;0; -1.2897142E-02;  3.9820301E+04;  0.0000000E+00;  1.4144070E-01;  4.0000000E+04;  0.0000000E+00;  4.0020379E+04; -2.3353525E-02;  0.0000000E+00;  1.0456382E-02;  2.7107646E+03;
  4.6195909E-01;  9.9999998E-03;  2.9995480E-01;5312;  9.7188344E-03;  0.0000000E+00;  8.7578753E-03;  9.9797174E+02;  1.0000000E-01; -1.6803969E+03;3; -4.2180629E+00;  0.0000000E+00;  1.8667754E+00;0; -1.2706021E-02;  3.9816055E+04;  0.0000000E+00;  3.3525908E-01;  4.0000000E+04;  0.0000000E+00;  4.0020672E+04; -2.2344802E-02;  0.0000000E+00;  9.6387807E-03;  2.8115396E+03;
  4.7202498E-01;  9.9999998E-03;  2.3997229E-01;5367;  1.2649526E-02;  0.0000000E+00;  9.0971645E-03;  9.9841431E+02;  1.0000000E-01; -1.3137405E+03;3; -4.3922205E+00;  0.0000000E+00;  1.9651171E+00;0; -1.8751375E-02;  3.9857375E+04;  0.0000000E+00; -1.7258970E-01;  4.0000000E+04;  0.0000000E+00;  4.0015414E+04; -3.1068129E-02;  0.0000000E+00;  1.2316754E-02;  2.0794985E+03;
  4.7202140E-01;  9.9999998E-03;  2.4996944E-01;5368;  1.2199287E-02;  0.0000000E+00;  9.2016179E-03;  9.9837238E+02;  1.0000000E-01; -1.3484556E+03;3; -4.3214245E+00;  0.0000000E+00;  1.9865717E+00;0; -1.6963361E-02;  3.9852949E+04;  0.0000000E+00; -1.5628122E-01;  4.0000000E+04;  0.0000000E+00;  4.0016312E+04; -2.8978692E-02;  0.0000000E+00;  1.2015332E-02;  2.1879490E+03;
  4.7201788E-01;  9.9999998E-03;  2.5996640E-01;5369;  1.1726134E-02;  0.0000000E+00;  9.3165413E-03;  9.9833032E+02;  1.0000000E-01; -1.3833188E+03;3; -4.2633805E+00;  0.0000000E+00;  1.9833379E+00;0; -1.4943394E-02;  3.9848891E+04;  0.0000000E+00; -1.1668424E-01;  4.0000000E+04;  0.0000000E+00;  4.0017219E+04; -2.7084924E-02;  0.0000000E+00;  1.2141530E-02;  2.3050452E+03;
  4.7200909E-01;  9.9999998E-03;  2.6996416E-01;5370;  1.1215582E-02;  0.0000000E+00;  9.3523953E-03;  9.9828711E+02;  1.0000000E-01; -1.4191202E+03;3; -4.2274818E+00;  0.0000000E+00;  1.9490697E+00;0; -1.3650995E-02;  3.9844938E+04;  0.0000000E+00; -4.6644341E-02;  4.0000000E+04;  0.0000000E+00;  4.0017336E+04; -2.5387211E-02;  0.0000000E+00;  1.1736216E-02;  2.3322297E+03;
  4.7199208E-01;  9.9999998E-03;  2.7996159E-01;5371;  1.0689085E-02;  0.0000000E+00;  9.3739284E-03;  9.9824780E+02;  1.0000000E-01; -1.4516626E+03;3; -4.2026196E+00;  0.0000000E+00;  1.9055033E+00;0; -1.2824529E-02;  3.9841270E+04;  0.0000000E+00;  5.8377404E-02;  4.0000000E+04;  0.0000000E+00;  4.0017758E+04; -2.3882587E-02;  0.0000000E+00;  1.1058058E-02;  2.3711543E+03;
  4.7196892E-01;  9.9999998E-03;  2.8995883E-01;5372;  1.0155463E-02;  0.0000000E+00;  9.3863914E-03;  9.9820575E+02;  1.0000000E-01; -1.4865258E+03;3; -4.1844683E+00;  0.0000000E+00;  1.8701366E+00;0; -1.2495939E-02;  3.9837852E+04;  0.0000000E+00;  2.0007135E-01;  4.0000000E+04;  0.0000000E+00;  4.0018145E+04; -2.2563506E-02;  0.0000000E+00;  1.0067567E-02;  2.4415449E+03;
  4.7193721E-01;  9.9999998E-03;  2.9995605E-01;5373;  9.6154101E-03;  0.0000000E+00;  9.3645891E-03;  9.9816571E+02;  1.0000000E-01; -1.5196606E+03;3; -4.1732855E+00;  0.0000000E+00;  1.8667036E+00;0; -1.3071815E-02;  3.9834297E+04;  0.0000000E+00;  3.8108474E-01;  4.0000000E+04;  0.0000000E+00;  4.0018520E+04; -2.1418158E-02;  0.0000000E+00;  8.3463434E-03;  2.5371729E+03;
  4.8185402E-01;  9.9999998E-03;  2.9995686E-01;5434;  9.5542809E-03;  0.0000000E+00;  9.9509945E-03;  9.9828485E+02;  1.0000147E-01; -1.4209474E+03;3; -4.1221452E+00;  0.0000000E+00;  1.8730587E+00;0; -1.3369545E-02;  3.9844539E+04;  0.0000000E+00;  3.3876887E-01;  4.0000000E+04;  0.0000000E+00;  4.0017051E+04; -2.0500209E-02;  0.0000000E+00;  7.1306643E-03;  2.3309622E+03;
  4.8188061E-01;  9.9999998E-03;  2.8995961E-01;5433;  1.0060609E-02;  0.0000000E+00;  1.0019605E-02;  9.9832056E+02;  1.0000147E-01; -1.3913679E+03;3; -4.1315866E+00;  0.0000000E+00;  1.8677014E+00;0; -1.2266636E-02;  3.9847777E+04;  0.0000000E+00;  1.9665912E-01;  4.0000000E+04;  0.0000000E+00;  4.0016836E+04; -2.1778319E-02;  0.0000000E+00;  9.5116831E-03;  2.2585381E+03;
  4.8190072E-01;  9.9999998E-03;  2.7996236E-01;5432;  1.0564523E-02;  0.0000000E+00;  1.0060865E-02;  9.9835999E+02;  1.0000148E-01; -1.3587269E+03;3; -4.1461549E+00;  0.0000000E+00;  1.8941252E+00;0; -1.2053663E-02;  3.9850891E+04;  0.0000000E+00;  7.8060962E-02;  4.0000000E+04;  0.0000000E+00;  4.0016535E+04; -2.3250433E-02;  0.0000000E+00;  1.1196770E-02;  2.2127273E+03;
  4.8195159E-01;  9.9999998E-03;  2.3997995E-01;5428;  1.2372101E-02;  0.0000000E+00;  9.7245667E-03;  9.9848602E+02;  1.0000148E-01; -1.2542854E+03;3; -4.3348727E+00;  0.0000000E+00;  1.9520359E+00;0; -1.9027334E-02;  3.9865566E+04;  0.0000000E+00; -1.2759933E-01;  4.0000000E+04;  0.0000000E+00;  4.0012348E+04; -3.1251650E-02;  0.0000000E+00;  1.2224316E-02;  1.6738910E+03;
  4.8193973E-01;  9.9999998E-03;  2.4997255E-01;5429;  1.1963781E-02;  0.0000000E+00;  9.8684011E-03;  9.9846271E+02;  1.0000146E-01; -1.2735935E+03;3; -4.2612443E+00;  0.0000000E+00;  1.9755318E+00;0; -1.6995737E-02;  3.9861375E+04;  0.0000000E+00; -1.1296858E-01;  4.0000000E+04;  0.0000000E+00;  4.0014461E+04; -2.8928548E-02;  0.0000000E+00;  1.1932811E-02;  1.9358683E+03;
  4.8192951E-01;  9.9999998E-03;  2.5996742E-01;5430;  1.1537581E-02;  0.0000000E+00;  1.0050369E-02;  9.9843866E+02;  1.0000145E-01; -1.2935436E+03;3; -4.2012291E+00;  0.0000000E+00;  1.9729919E+00;0; -1.4260218E-02;  3.9857535E+04;  0.0000000E+00; -7.7223651E-02;  4.0000000E+04;  0.0000000E+00;  4.0016234E+04; -2.6820585E-02;  0.0000000E+00;  1.2560367E-02;  2.1694248E+03;
  4.8191810E-01;  9.9999998E-03;  2.6996493E-01;5431;  1.1061629E-02;  0.0000000E+00;  1.0083360E-02;  9.9840082E+02;  1.0000148E-01; -1.3249008E+03;3; -4.1678767E+00;  0.0000000E+00;  1.9334300E+00;0; -1.2650222E-02;  3.9854031E+04;  0.0000000E+00; -1.4064418E-02;  4.0000000E+04;  0.0000000E+00;  4.0016301E+04; -2.4928670E-02;  0.0000000E+00;  1.2278449E-02;  2.1967725E+03;
  4.9195251E-01;  9.9999998E-03;  2.3998272E-01;5489;  1.2111506E-02;  0.0000000E+00;  1.0408492E-02;  9.9849133E+02;  1.0000210E-01; -1.2498905E+03;3; -4.2620187E+00;  0.0000000E+00;  1.9575936E+00;0; -1.9064646E-02;  3.9866668E+04;  0.0000000E+00; -9.0707153E-02;  4.0000000E+04;  0.0000000E+00;  4.0011285E+04; -3.1427503E-02;  0.0000000E+00;  1.2362856E-02;  1.5473157E+03;
  4.9191761E-01;  9.9999998E-03;  2.4997275E-01;5490;  1.1745459E-02;  0.0000000E+00;  1.0583878E-02;  9.9847107E+02;  1.0000207E-01; -1.2666802E+03;3; -4.1920123E+00;  0.0000000E+00;  1.9744714E+00;0; -1.6673787E-02;  3.9861871E+04;  0.0000000E+00; -8.5028820E-02;  4.0000000E+04;  0.0000000E+00;  4.0014375E+04; -2.8872579E-02;  0.0000000E+00;  1.2198793E-02;  1.9280199E+03;
  4.9188149E-01;  9.9999998E-03;  2.5996709E-01;5491;  1.1356068E-02;  0.0000000E+00;  1.0762259E-02;  9.9844446E+02;  1.0000200E-01; -1.2887535E+03;3; -4.1313872E+00;  0.0000000E+00;  1.9662219E+00;0; -1.3670295E-02;  3.9857645E+04;  0.0000000E+00; -6.2648259E-02;  4.0000000E+04;  0.0000000E+00;  4.0016520E+04; -2.6553176E-02;  0.0000000E+00;  1.2882882E-02;  2.2015063E+03;
  4.9185103E-01;  9.9999998E-03;  2.6996467E-01;5492;  1.0917457E-02;  0.0000000E+00;  1.0772240E-02;  9.9840149E+02;  1.0000207E-01; -1.3243575E+03;3; -4.1026783E+00;  0.0000000E+00;  1.9247936E+00;0; -1.1953215E-02;  3.9853883E+04;  0.0000000E+00; -1.9224474E-02;  4.0000000E+04;  0.0000000E+00;  4.0016664E+04; -2.4471069E-02;  0.0000000E+00;  1.2517854E-02;  2.2164470E+03;
  4.9182484E-01;  9.9999998E-03;  2.7996221E-01;5493;  1.0455878E-02;  0.0000000E+00;  1.0711712E-02;  9.9835596E+02;  1.0000204E-01; -1.3620354E+03;3; -4.0847516E+00;  0.0000000E+00;  1.8889829E+00;0; -1.1519903E-02;  3.9850477E+04;  0.0000000E+00;  4.4154063E-02;  4.0000000E+04;  0.0000000E+00;  4.0016422E+04; -2.2623166E-02;  0.0000000E+00;  1.1103263E-02;  2.2075027E+03;
  4.9180275E-01;  9.9999998E-03;  2.8995952E-01;5494;  9.9865999E-03;  0.0000000E+00;  1.0622569E-02;  9.9831506E+02;  1.0000199E-01; -1.3959604E+03;3; -4.0747414E+00;  0.0000000E+00;  1.8661705E+00;0; -1.2172624E-02;  3.9847133E+04;  0.0000000E+00;  1.2217151E-01;  4.0000000E+04;  0.0000000E+00;  4.0016551E+04; -2.1001117E-02;  0.0000000E+00;  8.8284928E-03;  2.2259854E+03;
  4.9178207E-01;  9.9999998E-03;  2.9995677E-01;5495;  9.5203994E-03;  0.0000000E+00;  1.0514624E-02;  9.9827631E+02;  1.0000207E-01; -1.4280582E+03;3; -4.0674448E+00;  0.0000000E+00;  1.8779225E+00;0; -1.3659630E-02;  3.9843957E+04;  0.0000000E+00;  2.0867606E-01;  4.0000000E+04;  0.0000000E+00;  4.0016773E+04; -1.9591618E-02;  0.0000000E+00;  5.9319884E-03;  2.2733130E+03;
  5.0196308E-01;  9.9999998E-03;  2.3998159E-01;5550;  1.1857974E-02;  0.0000000E+00;  1.1113808E-02;  9.9843170E+02;  1.0000383E-01; -1.2993212E+03;3; -4.1778698E+00;  0.0000000E+00;  1.9660095E+00;0; -1.8979903E-02;  3.9859836E+04;  0.0000000E+00; -6.4764015E-02;  4.0000000E+04;  0.0000000E+00;  4.0012129E+04; -3.1592172E-02;  0.0000000E+00;  1.2612267E-02;  1.6562704E+03;
  5.0194144E-01;  9.9999998E-03;  2.4997161E-01;5551;  1.1523972E-02;  0.0000000E+00;  1.1268465E-02;  9.9839581E+02;  1.0000373E-01; -1.3290487E+03;3; -4.1112561E+00;  0.0000000E+00;  1.9718611E+00;0; -1.6483795E-02;  3.9853762E+04;  0.0000000E+00; -7.5351655E-02;  4.0000000E+04;  0.0000000E+00;  4.0015172E+04; -2.8806427E-02;  0.0000000E+00;  1.2322633E-02;  2.0554019E+03;
  5.0191325E-01;  9.9999998E-03;  2.5996575E-01;5552;  1.1173122E-02;  0.0000000E+00;  1.1440393E-02;  9.9835980E+02;  1.0000370E-01; -1.3588750E+03;3; -4.0575848E+00;  0.0000000E+00;  1.9603144E+00;0; -1.3255712E-02;  3.9848305E+04;  0.0000000E+00; -7.3759831E-02;  4.0000000E+04;  0.0000000E+00;  4.0017719E+04; -2.6275830E-02;  0.0000000E+00;  1.3020119E-02;  2.3621536E+03;
  5.0188714E-01;  9.9999998E-03;  2.6996341E-01;5553;  1.0776115E-02;  0.0000000E+00;  1.1439236E-02;  9.9830347E+02;  1.0000364E-01; -1.4055404E+03;3; -4.0311184E+00;  0.0000000E+00;  1.9170750E+00;0; -1.1314027E-02;  3.9843719E+04;  0.0000000E+00; -5.5781052E-02;  4.0000000E+04;  0.0000000E+00;  4.0017883E+04; -2.4002871E-02;  0.0000000E+00;  1.2688844E-02;  2.3832366E+03;
  5.0186980E-01;  9.9999998E-03;  2.7996114E-01;5554;  1.0352198E-02;  0.0000000E+00;  1.1341168E-02;  9.9824829E+02;  1.0000388E-01; -1.4512675E+03;3; -4.0206528E+00;  0.0000000E+00;  1.8751427E+00;0; -1.1020203E-02;  3.9839523E+04;  0.0000000E+00; -2.3849966E-02;  4.0000000E+04;  0.0000000E+00;  4.0017711E+04; -2.1983914E-02;  0.0000000E+00;  1.0963711E-02;  2.3536108E+03;
  5.0185746E-01;  9.9999998E-03;  2.8995860E-01;5555;  9.9211764E-03;  0.0000000E+00;  1.1204976E-02;  9.9820129E+02;  1.0000371E-01; -1.4901799E+03;3; -4.0124874E+00;  0.0000000E+00;  1.8633350E+00;0; -1.2088507E-02;  3.9835766E+04;  0.0000000E+00;  1.6306680E-02;  4.0000000E+04;  0.0000000E+00;  4.0017508E+04; -2.0209735E-02;  0.0000000E+00;  8.1212278E-03;  2.3492122E+03;
  5.0184929E-01;  9.9999998E-03;  2.9995584E-01;5556;  9.4974432E-03;  0.0000000E+00;  1.1060835E-02;  9.9815710E+02;  1.0000388E-01; -1.5268209E+03;3; -4.0105219E+00;  0.0000000E+00;  1.8743600E+00;0; -1.3882084E-02;  3.9832234E+04;  0.0000000E+00;  5.8762182E-02;  4.0000000E+04;  0.0000000E+00;  4.0017809E+04; -1.8665349E-02;  0.0000000E+00;  4.7832658E-03;  2.3822263E+03;
  5.1192176E-01;  9.9999998E-03;  2.3997933E-01;5611;  1.1593195E-02;  0.0000000E+00;  1.1767195E-02;  9.9829266E+02;  1.0000615E-01; -1.4144784E+03;3; -4.0922666E+00;  0.0000000E+00;  1.9645054E+00;0; -1.9055381E-02;  3.9845367E+04;  0.0000000E+00; -4.5935377E-02;  4.0000000E+04;  0.0000000E+00;  4.0013785E+04; -3.1727694E-02;  0.0000000E+00;  1.2672313E-02;  1.8660170E+03;
  5.1189709E-01;  9.9999998E-03;  2.4997002E-01;5612;  1.1291322E-02;  0.0000000E+00;  1.1880931E-02;  9.9823395E+02;  1.0000618E-01; -1.4631190E+03;3; -4.0331330E+00;  0.0000000E+00;  1.9625494E+00;0; -1.6600566E-02;  3.9837742E+04;  0.0000000E+00; -6.9796748E-02;  4.0000000E+04;  0.0000000E+00;  4.0016543E+04; -2.8711405E-02;  0.0000000E+00;  1.2110839E-02;  2.2475996E+03;
  5.1186752E-01;  9.9999998E-03;  2.5996366E-01;5613;  1.0981609E-02;  0.0000000E+00;  1.2051215E-02;  9.9818433E+02;  1.0000620E-01; -1.5042537E+03;3; -3.9852183E+00;  0.0000000E+00;  1.9427253E+00;0; -1.3167589E-02;  3.9830844E+04;  0.0000000E+00; -8.4415160E-02;  4.0000000E+04;  0.0000000E+00;  4.0019723E+04; -2.5970487E-02;  0.0000000E+00;  1.2802898E-02;  2.6128232E+03;
  5.1183581E-01;  9.9999998E-03;  2.6996124E-01;5614;  1.0630012E-02;  0.0000000E+00;  1.2059190E-02;  9.9811932E+02;  1.0000632E-01; -1.5581287E+03;3; -3.9619184E+00;  0.0000000E+00;  1.8988030E+00;0; -1.0812677E-02;  3.9824992E+04;  0.0000000E+00; -8.3651185E-02;  4.0000000E+04;  0.0000000E+00;  4.0020059E+04; -2.3507345E-02;  0.0000000E+00;  1.2694668E-02;  2.6706082E+03;
  5.1181918E-01;  9.9999998E-03;  2.7995923E-01;5615;  1.0245858E-02;  0.0000000E+00;  1.1929118E-02;  9.9805334E+02;  1.0000617E-01; -1.6127444E+03;3; -3.9532511E+00;  0.0000000E+00;  1.8612674E+00;0; -1.0574660E-02;  3.9819926E+04;  0.0000000E+00; -7.1488664E-02;  4.0000000E+04;  0.0000000E+00;  4.0019691E+04; -2.1317348E-02;  0.0000000E+00;  1.0742688E-02;  2.6309712E+03;
  5.1181293E-01;  9.9999998E-03;  2.8995687E-01;5616;  9.8526264E-03;  0.0000000E+00;  1.1746934E-02;  9.9799567E+02;  1.0000617E-01; -1.6605455E+03;3; -3.9500098E+00;  0.0000000E+00;  1.8530545E+00;0; -1.2017682E-02;  3.9815496E+04;  0.0000000E+00; -5.3298242E-02;  4.0000000E+04;  0.0000000E+00;  4.0019402E+04; -1.9389825E-02;  0.0000000E+00;  7.3721432E-03;  2.6130259E+03;
  5.1181746E-01;  9.9999998E-03;  2.9995424E-01;5617;  9.4705643E-03;  0.0000000E+00;  1.1571723E-02;  9.9794696E+02;  1.0000626E-01; -1.7008900E+03;3; -3.9513056E+00;  0.0000000E+00;  1.8728298E+00;0; -1.4018651E-02;  3.9811617E+04;  0.0000000E+00; -3.3966582E-02;  4.0000000E+04;  0.0000000E+00;  4.0019668E+04; -1.7707288E-02;  0.0000000E+00;  3.6886372E-03;  2.6372156E+03;
  5.2189827E-01;  9.9999998E-03;  2.3997551E-01;5672;  1.1316744E-02;  0.0000000E+00;  1.2388579E-02;  9.9811346E+02;  1.0001042E-01; -1.5629680E+03;3; -4.0011373E+00;  0.0000000E+00;  1.9586214E+00;0; -1.9178007E-02;  3.9824988E+04;  0.0000000E+00; -3.9690409E-02;  4.0000000E+04;  0.0000000E+00;  4.0016141E+04; -3.1808250E-02;  0.0000000E+00;  1.2630242E-02;  2.1725725E+03;
  5.2187455E-01;  9.9999998E-03;  2.4996744E-01;5673;  1.1048747E-02;  0.0000000E+00;  1.2460422E-02;  9.9803186E+02;  1.0001062E-01; -1.6305710E+03;3; -3.9497111E+00;  0.0000000E+00;  1.9488250E+00;0; -1.6746189E-02;  3.9815672E+04;  0.0000000E+00; -7.4110739E-02;  4.0000000E+04;  0.0000000E+00;  4.0018672E+04; -2.8556153E-02;  0.0000000E+00;  1.1809965E-02;  2.5158018E+03;
  5.2184331E-01;  9.9999998E-03;  2.5996113E-01;5674;  1.0777399E-02;  0.0000000E+00;  1.2606825E-02;  9.9796631E+02;  1.0001060E-01; -1.6848905E+03;3; -3.9077249E+00;  0.0000000E+00;  1.9261128E+00;0; -1.3282877E-02;  3.9807492E+04;  0.0000000E+00; -9.9063925E-02;  4.0000000E+04;  0.0000000E+00;  4.0021711E+04; -2.5599627E-02;  0.0000000E+00;  1.2316749E-02;  2.9015049E+03;
  5.2180731E-01;  9.9999998E-03;  2.6995865E-01;5675;  1.0469839E-02;  0.0000000E+00;  1.2611061E-02;  9.9788757E+02;  1.0001048E-01; -1.7501232E+03;3; -3.8874207E+00;  0.0000000E+00;  1.8816215E+00;0; -1.0694962E-02;  3.9800469E+04;  0.0000000E+00; -1.0510343E-01;  4.0000000E+04;  0.0000000E+00;  4.0022363E+04; -2.2940720E-02;  0.0000000E+00;  1.2245758E-02;  2.9977559E+03;
  5.2178538E-01;  9.9999998E-03;  2.7995688E-01;5676;  1.0125903E-02;  0.0000000E+00;  1.2451838E-02;  9.9780859E+02;  1.0001054E-01; -1.8155535E+03;3; -3.8861637E+00;  0.0000000E+00;  1.8466486E+00;0; -1.0521815E-02;  3.9794387E+04;  0.0000000E+00; -9.6773989E-02;  4.0000000E+04;  0.0000000E+00;  4.0021984E+04; -2.0573812E-02;  0.0000000E+00;  1.0051996E-02;  2.9612148E+03;
  5.2178097E-01;  9.9999998E-03;  2.8995478E-01;5677;  9.7716879E-03;  0.0000000E+00;  1.2238050E-02;  9.9774402E+02;  1.0001048E-01; -1.8690334E+03;3; -3.8875208E+00;  0.0000000E+00;  1.8479233E+00;0; -1.2132689E-02;  3.9789484E+04;  0.0000000E+00; -8.4277630E-02;  4.0000000E+04;  0.0000000E+00;  4.0021812E+04; -1.8485976E-02;  0.0000000E+00;  6.3532866E-03;  2.9336152E+03;
  5.2179092E-01;  9.9999998E-03;  2.9995227E-01;5678;  9.4277654E-03;  0.0000000E+00;  1.2035373E-02;  9.9769116E+02;  1.0001039E-01; -1.9128346E+03;3; -3.8920281E+00;  0.0000000E+00;  1.8727695E+00;0; -1.4261637E-02;  3.9785070E+04;  0.0000000E+00; -7.3132940E-02;  4.0000000E+04;  0.0000000E+00;  4.0021832E+04; -1.6657621E-02;  0.0000000E+00;  2.3959838E-03;  2.9542686E+03;
  5.3189921E-01;  9.9999998E-03;  2.3997152E-01;5733;  1.1027113E-02;  0.0000000E+00;  1.2963300E-02;  9.9793188E+02;  1.0001750E-01; -1.7133835E+03;3; -3.9037185E+00;  0.0000000E+00;  1.9543153E+00;0; -1.9366758E-02;  3.9802359E+04;  0.0000000E+00; -4.3745138E-02;  4.0000000E+04;  0.0000000E+00;  4.0018297E+04; -3.1801868E-02;  0.0000000E+00;  1.2435110E-02;  2.4772463E+03;
  5.3188235E-01;  9.9999998E-03;  2.4996483E-01;5734;  1.0796290E-02;  0.0000000E+00;  1.2990203E-02;  9.9782684E+02;  1.0001737E-01; -1.8004427E+03;3; -3.8630548E+00;  0.0000000E+00;  1.9305686E+00;0; -1.6969386E-02;  3.9791879E+04;  0.0000000E+00; -8.3169200E-02;  4.0000000E+04;  0.0000000E+00;  4.0020547E+04; -2.8305272E-02;  0.0000000E+00;  1.1335886E-02;  2.7625000E+03;
  5.3185463E-01;  9.9999998E-03;  2.5995889E-01;5735;  1.0559514E-02;  0.0000000E+00;  1.3086139E-02;  9.9774597E+02;  1.0001739E-01; -1.8674038E+03;3; -3.8278682E+00;  0.0000000E+00;  1.9075505E+00;0; -1.3719097E-02;  3.9782793E+04;  0.0000000E+00; -1.1003181E-01;  4.0000000E+04;  0.0000000E+00;  4.0023320E+04; -2.5123803E-02;  0.0000000E+00;  1.1404706E-02;  3.1324263E+03;
  5.3181857E-01;  9.9999998E-03;  2.6995614E-01;5736;  1.0296126E-02;  0.0000000E+00;  1.3090863E-02;  9.9766113E+02;  1.0001741E-01; -1.9377228E+03;3; -3.8196769E+00;  0.0000000E+00;  1.8602552E+00;0; -1.0918560E-02;  3.9774453E+04;  0.0000000E+00; -1.1003260E-01;  4.0000000E+04;  0.0000000E+00;  4.0024523E+04; -2.2259548E-02;  0.0000000E+00;  1.1340988E-02;  3.2813149E+03;
  5.3179681E-01;  9.9999998E-03;  2.7995458E-01;5737;  9.9936211E-03;  0.0000000E+00;  1.2917117E-02;  9.9757672E+02;  1.0001760E-01; -2.0076467E+03;3; -3.8181984E+00;  0.0000000E+00;  1.8370507E+00;0; -1.0660746E-02;  3.9767977E+04;  0.0000000E+00; -8.8917814E-02;  4.0000000E+04;  0.0000000E+00;  4.0024195E+04; -1.9704783E-02;  0.0000000E+00;  9.0440372E-03;  3.2579087E+03;
  5.3179741E-01;  9.9999998E-03;  2.8995273E-01;5738;  9.6760886E-03;  0.0000000E+00;  1.2678731E-02;  9.9750592E+02;  1.0001747E-01; -2.0663118E+03;3; -3.8272531E+00;  0.0000000E+00;  1.8412859E+00;0; -1.2332981E-02;  3.9762492E+04;  0.0000000E+00; -6.8125904E-02;  4.0000000E+04;  0.0000000E+00;  4.0024105E+04; -1.7444709E-02;  0.0000000E+00;  5.1117288E-03;  3.2286829E+03;
  5.3181440E-01;  9.9999998E-03;  2.9995048E-01;5739;  9.3674688E-03;  0.0000000E+00;  1.2452480E-02;  9.9745312E+02;  1.0001730E-01; -2.1100142E+03;3; -3.8349133E+00;  0.0000000E+00;  1.8688117E+00;0; -1.4509523E-02;  3.9758434E+04;  0.0000000E+00; -5.8576897E-02;  4.0000000E+04;  0.0000000E+00;  4.0024000E+04; -1.5457825E-02;  0.0000000E+00;  9.4830111E-04;  3.2394302E+03;
  5.4192930E-01;  9.9999998E-03;  2.3996818E-01;5794;  1.0728636E-02;  0.0000000E+00;  1.3492586E-02;  9.9781586E+02;  1.0002956E-01; -1.8095289E+03;3; -3.8031373E+00;  0.0000000E+00;  1.9454978E+00;0; -1.9568060E-02;  3.9781375E+04;  0.0000000E+00; -5.2878097E-02;  4.0000000E+04;  0.0000000E+00;  4.0019812E+04; -3.1681400E-02;  0.0000000E+00;  1.2113341E-02;  2.6956990E+03;
  5.4192340E-01;  9.9999998E-03;  2.4996272E-01;5795;  1.0539252E-02;  0.0000000E+00;  1.3478846E-02;  9.9769275E+02;  1.0002953E-01; -1.9115013E+03;3; -3.7704129E+00;  0.0000000E+00;  1.9161590E+00;0; -1.7153034E-02;  3.9770191E+04;  0.0000000E+00; -9.0459861E-02;  4.0000000E+04;  0.0000000E+00;  4.0021543E+04; -2.7929777E-02;  0.0000000E+00;  1.0776743E-02;  2.9110432E+03;
  5.4190129E-01;  9.9999998E-03;  2.5995743E-01;5796;  1.0338317E-02;  0.0000000E+00;  1.3506808E-02;  9.9759808E+02;  1.0002952E-01; -1.9899188E+03;3; -3.7521737E+00;  0.0000000E+00;  1.8806123E+00;0; -1.4233248E-02;  3.9760340E+04;  0.0000000E+00; -1.1065082E-01;  4.0000000E+04;  0.0000000E+00;  4.0023781E+04; -2.4511553E-02;  0.0000000E+00;  1.0278305E-02;  3.2231411E+03;
  5.4186803E-01;  9.9999998E-03;  2.6995435E-01;5797;  1.0116700E-02;  0.0000000E+00;  1.3500636E-02;  9.9751007E+02;  1.0002949E-01; -2.0628550E+03;3; -3.7436399E+00;  0.0000000E+00;  1.8430036E+00;0; -1.1369833E-02;  3.9751953E+04;  0.0000000E+00; -9.4512016E-02;  4.0000000E+04;  0.0000000E+00;  4.0025406E+04; -2.1429533E-02;  0.0000000E+00;  1.0059700E-02;  3.4215537E+03;
  5.4184824E-01;  9.9999998E-03;  2.7995288E-01;5798;  9.8551735E-03;  0.0000000E+00;  1.3328104E-02;  9.9742682E+02;  1.0002955E-01; -2.1318408E+03;3; -3.7514658E+00;  0.0000000E+00;  1.8226453E+00;0; -1.0832314E-02;  3.9745051E+04;  0.0000000E+00; -5.0738335E-02;  4.0000000E+04;  0.0000000E+00;  4.0025422E+04; -1.8673517E-02;  0.0000000E+00;  7.8412024E-03;  3.4239443E+03;
  5.4185563E-01;  9.9999998E-03;  2.8995138E-01;5799;  9.5743462E-03;  0.0000000E+00;  1.3073639E-02;  9.9735864E+02;  1.0002948E-01; -2.1883330E+03;3; -3.7683995E+00;  0.0000000E+00;  1.8319484E+00;0; -1.2418090E-02;  3.9739852E+04;  0.0000000E+00; -1.9987833E-02;  4.0000000E+04;  0.0000000E+00;  4.0025062E+04; -1.6226644E-02;  0.0000000E+00;  3.8085533E-03;  3.3895168E+03;
  5.4188192E-01;  9.9999998E-03;  2.9994956E-01;5800;  9.2974827E-03;  0.0000000E+00;  1.2826405E-02;  9.9731445E+02;  1.0002959E-01; -2.2249246E+03;3; -3.7827301E+00;  0.0000000E+00;  1.8678126E+00;0; -1.4579394E-02;  3.9736246E+04;  0.0000000E+00; -2.3467172E-02;  4.0000000E+04;  0.0000000E+00;  4.0024992E+04; -1.4065851E-02;  0.0000000E+00; -5.1354209E-04;  3.3831372E+03;
  5.5199474E-01;  9.9999998E-03;  2.3996541E-01;5855;  1.0428963E-02;  0.0000000E+00;  1.3974873E-02;  9.9780151E+02;  1.0004855E-01; -1.8213805E+03;3; -3.6997318E+00;  0.0000000E+00;  1.9327493E+00;0; -1.9750979E-02;  3.9763742E+04;  0.0000000E+00; -6.0724348E-02;  4.0000000E+04;  0.0000000E+00;  4.0020422E+04; -3.1433202E-02;  0.0000000E+00;  1.1682224E-02;  2.7877595E+03;
  5.5200315E-01;  9.9999998E-03;  2.4996132E-01;5856;  1.0286039E-02;  0.0000000E+00;  1.3926594E-02;  9.9767090E+02;  1.0004877E-01; -1.9296243E+03;3; -3.6785939E+00;  0.0000000E+00;  1.8966697E+00;0; -1.7242471E-02;  3.9752871E+04;  0.0000000E+00; -9.2784360E-02;  4.0000000E+04;  0.0000000E+00;  4.0021273E+04; -2.7416088E-02;  0.0000000E+00;  1.0173617E-02;  2.9086426E+03;
  5.5198920E-01;  9.9999998E-03;  2.5995696E-01;5857;  1.0124201E-02;  0.0000000E+00;  1.3887897E-02;  9.9756927E+02;  1.0004857E-01; -2.0138195E+03;3; -3.6681738E+00;  0.0000000E+00;  1.8649459E+00;0; -1.4594836E-02;  3.9743094E+04;  0.0000000E+00; -1.0545944E-01;  4.0000000E+04;  0.0000000E+00;  4.0023031E+04; -2.3748698E-02;  0.0000000E+00;  9.1538616E-03;  3.1322788E+03;
  5.5196035E-01;  9.9999998E-03;  2.6995370E-01;5858;  9.9430336E-03;  0.0000000E+00;  1.3859795E-02;  9.9748889E+02;  1.0004877E-01; -2.0803855E+03;3; -3.6700144E+00;  0.0000000E+00;  1.8302171E+00;0; -1.1739743E-02;  3.9734848E+04;  0.0000000E+00; -7.6252267E-02;  4.0000000E+04;  0.0000000E+00;  4.0024617E+04; -2.0435357E-02;  0.0000000E+00;  8.6956145E-03;  3.3531907E+03;
  5.5193990E-01;  9.9999998E-03;  2.7995232E-01;5859;  9.7213648E-03;  0.0000000E+00;  1.3688888E-02;  9.9741199E+02;  1.0004848E-01; -2.1441367E+03;3; -3.6907487E+00;  0.0000000E+00;  1.8105212E+00;0; -1.0889513E-02;  3.9728457E+04;  0.0000000E+00; -1.4068055E-02;  4.0000000E+04;  0.0000000E+00;  4.0024945E+04; -1.7463902E-02;  0.0000000E+00;  6.5743886E-03;  3.3885242E+03;
  5.5195004E-01;  9.9999998E-03;  2.8995126E-01;5860;  9.4760638E-03;  0.0000000E+00;  1.3424185E-02;  9.9735138E+02;  1.0004845E-01; -2.1943081E+03;3; -3.7156196E+00;  0.0000000E+00;  1.8214792E+00;0; -1.2264881E-02;  3.9723949E+04;  0.0000000E+00;  1.6942671E-02;  4.0000000E+04;  0.0000000E+00;  4.0024602E+04; -1.4815458E-02;  0.0000000E+00;  2.5505770E-03;  3.3510977E+03;
  5.5198008E-01;  9.9999998E-03;  2.9994994E-01;5861;  9.2295464E-03;  0.0000000E+00;  1.3158476E-02;  9.9731744E+02;  1.0004847E-01; -2.2224556E+03;3; -3.7375867E+00;  0.0000000E+00;  1.8631554E+00;0; -1.4334594E-02;  3.9721602E+04;  0.0000000E+00; -1.3158579E-02;  4.0000000E+04;  0.0000000E+00;  4.0024445E+04; -1.2466254E-02;  0.0000000E+00; -1.8683404E-03;  3.3278518E+03;
  5.6209975E-01;  9.9999998E-03;  2.3996340E-01;5916;  1.0135121E-02;  0.0000000E+00;  1.4407984E-02;  9.9790894E+02;  1.0007975E-01; -1.7323953E+03;3; -3.5897520E+00;  0.0000000E+00;  1.9255201E+00;0; -1.9900665E-02;  3.9747781E+04;  0.0000000E+00; -6.3639238E-02;  4.0000000E+04;  0.0000000E+00;  4.0019520E+04; -3.1060448E-02;  0.0000000E+00;  1.1159783E-02;  2.7102227E+03;
  5.6212574E-01;  9.9999998E-03;  2.4996082E-01;5917;  1.0044300E-02;  0.0000000E+00;  1.4328007E-02;  9.9778296E+02;  1.0007986E-01; -1.8367875E+03;3; -3.5796716E+00;  0.0000000E+00;  1.8833030E+00;0; -1.7239379E-02;  3.9738156E+04;  0.0000000E+00; -9.5494866E-02;  4.0000000E+04;  0.0000000E+00;  4.0019594E+04; -2.6769865E-02;  0.0000000E+00;  9.5304865E-03;  2.7174226E+03;
  5.6212533E-01;  9.9999998E-03;  2.5995728E-01;5918;  9.9275196E-03;  0.0000000E+00;  1.4238614E-02;  9.9768243E+02;  1.0007985E-01; -1.9200443E+03;3; -3.5800548E+00;  0.0000000E+00;  1.8481333E+00;0; -1.4668443E-02;  3.9729188E+04;  0.0000000E+00; -1.1801920E-01;  4.0000000E+04;  0.0000000E+00;  4.0020527E+04; -2.2842757E-02;  0.0000000E+00;  8.1743142E-03;  2.8579380E+03;
  5.6209874E-01;  9.9999998E-03;  2.6995412E-01;5919;  9.7871181E-03;  0.0000000E+00;  1.4181929E-02;  9.9761023E+02;  1.0007992E-01; -1.9798945E+03;3; -3.6041255E+00;  0.0000000E+00;  1.8112565E+00;0; -1.1804832E-02;  3.9721703E+04;  0.0000000E+00; -1.0057037E-01;  4.0000000E+04;  0.0000000E+00;  4.0022309E+04; -1.9285833E-02;  0.0000000E+00;  7.4810009E-03;  3.0849548E+03;
  5.6207299E-01;  9.9999998E-03;  2.7995303E-01;5920;  9.6053760E-03;  0.0000000E+00;  1.4008057E-02;  9.9754596E+02;  1.0007984E-01; -2.0331276E+03;3; -3.6325991E+00;  0.0000000E+00;  1.7979709E+00;0; -1.0638899E-02;  3.9716141E+04;  0.0000000E+00; -4.5254689E-02;  4.0000000E+04;  0.0000000E+00;  4.0022777E+04; -1.6086100E-02;  0.0000000E+00;  5.4472005E-03;  3.1366792E+03;
  5.6207877E-01;  9.9999998E-03;  2.8995261E-01;5921;  9.3942229E-03;  0.0000000E+00;  1.3731487E-02;  9.9749982E+02;  1.0007969E-01; -2.0713486E+03;3; -3.6632411E+00;  0.0000000E+00;  1.8155550E+00;0; -1.1783251E-02;  3.9712941E+04;  0.0000000E+00; -3.3349302E-02;  4.0000000E+04;  0.0000000E+00;  4.0022488E+04; -1.3223131E-02;  0.0000000E+00;  1.4398806E-03;  3.0890627E+03;
  5.6210244E-01;  9.9999998E-03;  2.9995197E-01;5922;  9.1770915E-03;  0.0000000E+00;  1.3446200E-02;  9.9748230E+02;  1.0007991E-01; -2.0858667E+03;3; -3.6908140E+00;  0.0000000E+00;  1.8659528E+00;0; -1.3749078E-02;  3.9712262E+04;  0.0000000E+00; -8.7623700E-02;  4.0000000E+04;  0.0000000E+00;  4.0022137E+04; -1.0674083E-02;  0.0000000E+00; -3.0749952E-03;  3.0458809E+03;
  5.7224137E-01;  9.9999998E-03;  2.3996130E-01;5977;  9.8551773E-03;  0.0000000E+00;  1.4793310E-02;  9.9812506E+02;  1.0013139E-01; -1.5533385E+03;3; -3.4738393E+00;  0.0000000E+00;  1.9242872E+00;0; -1.9996915E-02;  3.9725758E+04;  0.0000000E+00; -6.3478351E-02;  4.0000000E+04;  0.0000000E+00;  4.0017699E+04; -3.0584399E-02;  0.0000000E+00;  1.0587483E-02;  2.4944307E+03;
  5.7227796E-01;  9.9999998E-03;  2.4996102E-01;5978;  9.8207379E-03;  0.0000000E+00;  1.4674332E-02;  9.9800378E+02;  1.0013139E-01; -1.6538295E+03;3; -3.4679868E+00;  0.0000000E+00;  1.8825325E+00;0; -1.7179132E-02;  3.9717695E+04;  0.0000000E+00; -1.0678514E-01;  4.0000000E+04;  0.0000000E+00;  4.0016469E+04; -2.6017215E-02;  0.0000000E+00;  8.8380845E-03;  2.3561802E+03;
  5.7228822E-01;  9.9999998E-03;  2.5995827E-01;5979;  9.7538820E-03;  0.0000000E+00;  1.4550679E-02;  9.9791547E+02;  1.0013117E-01; -1.7270126E+03;3; -3.4950745E+00;  0.0000000E+00;  1.8366091E+00;0; -1.4494941E-02;  3.9710324E+04;  0.0000000E+00; -1.6411123E-01;  4.0000000E+04;  0.0000000E+00;  4.0017184E+04; -2.1825632E-02;  0.0000000E+00;  7.3306910E-03;  2.4385039E+03;
  5.7226425E-01;  9.9999998E-03;  2.6995555E-01;5980;  9.6595986E-03;  0.0000000E+00;  1.4473659E-02;  9.9785895E+02;  1.0013127E-01; -1.7738260E+03;3; -3.5270841E+00;  0.0000000E+00;  1.8050866E+00;0; -1.1448933E-02;  3.9704254E+04;  0.0000000E+00; -1.9794327E-01;  4.0000000E+04;  0.0000000E+00;  4.0018840E+04; -1.8017843E-02;  0.0000000E+00;  6.5689110E-03;  2.6630442E+03;
  5.7223094E-01;  9.9999998E-03;  2.7995512E-01;5981;  9.5166126E-03;  0.0000000E+00;  1.4285818E-02;  9.9780743E+02;  1.0013135E-01; -1.8164916E+03;3; -3.5716705E+00;  0.0000000E+00;  1.7897470E+00;0; -1.0029625E-02;  3.9699816E+04;  0.0000000E+00; -1.9028501E-01;  4.0000000E+04;  0.0000000E+00;  4.0019199E+04; -1.4580742E-02;  0.0000000E+00;  4.5511159E-03;  2.7173889E+03;
  5.7222295E-01;  9.9999998E-03;  2.8995553E-01;5982;  9.3395310E-03;  0.0000000E+00;  1.3991463E-02;  9.9777765E+02;  1.0013096E-01; -1.8411823E+03;3; -3.6086233E+00;  0.0000000E+00;  1.8133414E+00;0; -1.0987007E-02;  3.9697977E+04;  0.0000000E+00; -2.1097590E-01;  4.0000000E+04;  0.0000000E+00;  4.0018660E+04; -1.1495511E-02;  0.0000000E+00;  5.0850399E-04;  2.6560691E+03;
  5.7222986E-01;  9.9999998E-03;  2.9995579E-01;5983;  9.1567831E-03;  0.0000000E+00;  1.3684510E-02;  9.9777545E+02;  1.0013086E-01; -1.8430093E+03;3; -3.6367748E+00;  0.0000000E+00;  1.8706319E+00;0; -1.2861665E-02;  3.9698578E+04;  0.0000000E+00; -2.7149543E-01;  4.0000000E+04;  0.0000000E+00;  4.0018293E+04; -8.7421183E-03;  0.0000000E+00; -4.1195466E-03;  2.6010508E+03;
  5.8239734E-01;  9.9999998E-03;  2.3995636E-01;6038;  9.5958067E-03;  0.0000000E+00;  1.5130404E-02;  9.9837872E+02;  1.0021478E-01; -1.3432211E+03;3; -3.3455982E+00;  0.0000000E+00;  1.9392496E+00;0; -2.0044159E-02;  3.9682102E+04;  0.0000000E+00; -6.2130071E-02;  4.0000000E+04;  0.0000000E+00;  4.0015828E+04; -3.0043751E-02;  0.0000000E+00;  9.9995909E-03;  2.2888945E+03;
  5.8243823E-01;  9.9999998E-03;  2.4995925E-01;6039;  9.6241524E-03;  0.0000000E+00;  1.4992602E-02;  9.9826886E+02;  1.0021477E-01; -1.4342308E+03;3; -3.3615928E+00;  0.0000000E+00;  1.8853760E+00;0; -1.6878095E-02;  3.9675797E+04;  0.0000000E+00; -1.2699445E-01;  4.0000000E+04;  0.0000000E+00;  4.0013582E+04; -2.5205685E-02;  0.0000000E+00;  8.3275903E-03;  2.0393018E+03;
  5.8244646E-01;  9.9999998E-03;  2.5995842E-01;6040;  9.6142050E-03;  0.0000000E+00;  1.4848643E-02;  9.9819720E+02;  1.0021447E-01; -1.4935872E+03;3; -3.3991740E+00;  0.0000000E+00;  1.8372707E+00;0; -1.3844386E-02;  3.9670242E+04;  0.0000000E+00; -2.2790042E-01;  4.0000000E+04;  0.0000000E+00;  4.0013594E+04; -2.0754028E-02;  0.0000000E+00;  6.9096424E-03;  2.0594578E+03;
  5.8242130E-01;  9.9999998E-03;  2.6995707E-01;6041;  9.5714424E-03;  0.0000000E+00;  1.4757317E-02;  9.9815540E+02;  1.0021449E-01; -1.5282035E+03;3; -3.4441488E+00;  0.0000000E+00;  1.7993550E+00;0; -1.0388399E-02;  3.9665770E+04;  0.0000000E+00; -3.3114928E-01;  4.0000000E+04;  0.0000000E+00;  4.0014945E+04; -1.6697323E-02;  0.0000000E+00;  6.3089235E-03;  2.2746072E+03;
  5.8238018E-01;  9.9999998E-03;  2.7995804E-01;6042;  9.4687138E-03;  0.0000000E+00;  1.4535720E-02;  9.9811633E+02;  1.0021434E-01; -1.5605977E+03;3; -3.5007870E+00;  0.0000000E+00;  1.7841592E+00;0; -8.8460948E-03;  3.9662918E+04;  0.0000000E+00; -3.9828011E-01;  4.0000000E+04;  0.0000000E+00;  4.0015336E+04; -1.3021767E-02;  0.0000000E+00;  4.1756718E-03;  2.3064016E+03;
  5.8235347E-01;  9.9999998E-03;  2.8995970E-01;6043;  9.3293609E-03;  0.0000000E+00;  1.4202281E-02;  9.9809686E+02;  1.0021405E-01; -1.5766959E+03;3; -3.5479059E+00;  0.0000000E+00;  1.8149897E+00;0; -9.8938029E-03;  3.9662203E+04;  0.0000000E+00; -4.5982090E-01;  4.0000000E+04;  0.0000000E+00;  4.0014391E+04; -9.7150207E-03;  0.0000000E+00; -1.7878233E-04;  2.2308208E+03;
  5.8233690E-01;  9.9999998E-03;  2.9996106E-01;6044;  9.1946265E-03;  0.0000000E+00;  1.3866017E-02;  9.9810583E+02;  1.0021381E-01; -1.5692887E+03;3; -3.5713627E+00;  0.0000000E+00;  1.8795862E+00;0; -1.1802988E-02;  3.9664055E+04;  0.0000000E+00; -5.1177830E-01;  4.0000000E+04;  0.0000000E+00;  4.0013766E+04; -6.7636045E-03;  0.0000000E+00; -5.0393837E-03;  2.1690740E+03;
  5.9250259E-01;  9.9999998E-03;  2.3994890E-01;6099;  9.3564764E-03;  0.0000000E+00;  1.5383807E-02;  9.9856482E+02;  1.0034949E-01; -1.1890032E+03;3; -3.2257819E+00;  0.0000000E+00;  1.9515847E+00;0; -2.0211380E-02;  3.9593180E+04;  0.0000000E+00; -4.3199785E-02;  4.0000000E+04;  0.0000000E+00;  4.0013730E+04; -2.9489022E-02;  0.0000000E+00;  9.2776408E-03;  2.1389983E+03;
  5.9254140E-01;  9.9999998E-03;  2.4995562E-01;6100;  9.4560059E-03;  0.0000000E+00;  1.5242097E-02;  9.9846985E+02;  1.0034920E-01; -1.2677170E+03;3; -3.2396035E+00;  0.0000000E+00;  1.9022682E+00;0; -1.6620500E-02;  3.9588824E+04;  0.0000000E+00; -1.1326703E-01;  4.0000000E+04;  0.0000000E+00;  4.0011008E+04; -2.4397435E-02;  0.0000000E+00;  7.7769347E-03;  1.8265233E+03;
  5.9254682E-01;  9.9999998E-03;  2.5995806E-01;6101;  9.5076840E-03;  0.0000000E+00;  1.5075912E-02;  9.9841125E+02;  1.0034929E-01; -1.3162589E+03;3; -3.2944176E+00;  0.0000000E+00;  1.8420359E+00;0; -1.3244877E-02;  3.9584973E+04;  0.0000000E+00; -2.3256405E-01;  4.0000000E+04;  0.0000000E+00;  4.0010543E+04; -1.9700751E-02;  0.0000000E+00;  6.4558741E-03;  1.7699634E+03;
  5.9251934E-01;  9.9999998E-03;  2.6995876E-01;6102;  9.5262276E-03;  0.0000000E+00;  1.4980282E-02;  9.9838495E+02;  1.0034879E-01; -1.3380360E+03;3; -3.3492553E+00;  0.0000000E+00;  1.8075107E+00;0; -9.2675565E-03;  3.9581949E+04;  0.0000000E+00; -3.7179595E-01;  4.0000000E+04;  0.0000000E+00;  4.0011910E+04; -1.5410047E-02;  0.0000000E+00;  6.1424905E-03;  1.9797961E+03;
  5.9247804E-01;  9.9999998E-03;  2.7996165E-01;6103;  9.4717750E-03;  0.0000000E+00;  1.4730588E-02;  9.9836157E+02;  1.0034849E-01; -1.3573936E+03;3; -3.4186397E+00;  0.0000000E+00;  1.7892483E+00;0; -7.5057428E-03;  3.9580438E+04;  0.0000000E+00; -5.0423336E-01;  4.0000000E+04;  0.0000000E+00;  4.0011641E+04; -1.1507775E-02;  0.0000000E+00;  4.0020319E-03;  2.0066204E+03;
  5.9244382E-01;  9.9999998E-03;  2.8996497E-01;6104;  9.3857013E-03;  0.0000000E+00;  1.4350199E-02;  9.9834955E+02;  1.0034816E-01; -1.3673685E+03;3; -3.4597144E+00;  0.0000000E+00;  1.8180729E+00;0; -8.7566841E-03;  3.9581137E+04;  0.0000000E+00; -6.3443124E-01;  4.0000000E+04;  0.0000000E+00;  4.0010422E+04; -7.9926113E-03;  0.0000000E+00; -7.6407252E-04;  1.9464478E+03;
  5.9241462E-01;  9.9999998E-03;  2.9996768E-01;6105;  9.3217148E-03;  0.0000000E+00;  1.3977615E-02;  9.9836890E+02;  1.0034749E-01; -1.3513196E+03;3; -3.4624922E+00;  0.0000000E+00;  1.8787181E+00;0; -1.0839830E-02;  3.9583965E+04;  0.0000000E+00; -7.3881370E-01;  4.0000000E+04;  0.0000000E+00;  4.0009680E+04; -4.8607746E-03;  0.0000000E+00; -5.9790555E-03;  1.9222487E+03;
  6.0252130E-01;  9.9999998E-03;  2.3993911E-01;6160;  9.1364942E-03;  0.0000000E+00;  1.5536971E-02;  9.9859515E+02;  1.0056426E-01; -1.1638682E+03;3; -3.0907476E+00;  0.0000000E+00;  1.9737462E+00;0; -2.0605247E-02;  3.9429586E+04;  0.0000000E+00;  1.1960915E-02;  4.0000000E+04;  0.0000000E+00;  4.0012293E+04; -2.8971607E-02;  0.0000000E+00;  8.3663585E-03;  2.1244446E+03;
  6.0255450E-01;  9.9999998E-03;  2.4995075E-01;6161;  9.3125477E-03;  0.0000000E+00;  1.5393956E-02;  9.9851410E+02;  1.0056369E-01; -1.2310267E+03;3; -3.1113384E+00;  0.0000000E+00;  1.9221202E+00;0; -1.6628958E-02;  3.9426289E+04;  0.0000000E+00; -2.5534593E-02;  4.0000000E+04;  0.0000000E+00;  4.0009402E+04; -2.3653928E-02;  0.0000000E+00;  7.0249704E-03;  1.7828789E+03;
  6.0255522E-01;  9.9999998E-03;  2.5995797E-01;6162;  9.4279842E-03;  0.0000000E+00;  1.5181574E-02;  9.9845721E+02;  1.0056348E-01; -1.2781859E+03;3; -3.1774273E+00;  0.0000000E+00;  1.8568332E+00;0; -1.3200795E-02;  3.9424039E+04;  0.0000000E+00; -1.0434440E-01;  4.0000000E+04;  0.0000000E+00;  4.0007840E+04; -1.8738002E-02;  0.0000000E+00;  5.5372058E-03;  1.5974813E+03;
  6.0252696E-01;  9.9999998E-03;  2.6996157E-01;6163;  9.5102843E-03;  0.0000000E+00;  1.5055791E-02;  9.9844324E+02;  1.0056274E-01; -1.2897411E+03;3; -3.2503774E+00;  0.0000000E+00;  1.8165543E+00;0; -9.1527067E-03;  3.9422465E+04;  0.0000000E+00; -2.0474686E-01;  4.0000000E+04;  0.0000000E+00;  4.0008953E+04; -1.4238787E-02;  0.0000000E+00;  5.0860802E-03;  1.7473455E+03;
  6.0248733E-01;  9.9999998E-03;  2.7996635E-01;6164;  9.5299026E-03;  0.0000000E+00;  1.4811687E-02;  9.9843414E+02;  1.0056198E-01; -1.2972964E+03;3; -3.3136208E+00;  0.0000000E+00;  1.7963034E+00;0; -6.9037108E-03;  3.9422355E+04;  0.0000000E+00; -3.1076261E-01;  4.0000000E+04;  0.0000000E+00;  4.0008977E+04; -1.0142222E-02;  0.0000000E+00;  3.2385110E-03;  1.7672875E+03;
  6.0244870E-01;  9.9999998E-03;  2.8997138E-01;6165;  9.5304465E-03;  0.0000000E+00;  1.4414616E-02;  9.9843024E+02;  1.0056148E-01; -1.3005062E+03;3; -3.3145771E+00;  0.0000000E+00;  1.8176454E+00;0; -7.9771429E-03;  3.9423770E+04;  0.0000000E+00; -4.0708151E-01;  4.0000000E+04;  0.0000000E+00;  4.0007660E+04; -6.4532235E-03;  0.0000000E+00; -1.5239198E-03;  1.6716553E+03;
  6.0241020E-01;  9.9999998E-03;  2.9997543E-01;6166;  9.5940186E-03;  0.0000000E+00;  1.4018736E-02;  9.9844476E+02;  1.0056042E-01; -1.2885066E+03;3; -3.2561927E+00;  0.0000000E+00;  1.8821579E+00;0; -1.0070187E-02;  3.9426855E+04;  0.0000000E+00; -4.4956928E-01;  4.0000000E+04;  0.0000000E+00;  4.0007137E+04; -3.1835556E-03;  0.0000000E+00; -6.8866313E-03;  1.6062296E+03;
  6.1247969E-01;  9.9999998E-03;  2.3992623E-01;6221;  8.9335199E-03;  0.0000000E+00;  1.5616262E-02;  9.9846497E+02;  1.0089970E-01; -1.2717664E+03;3; -2.9618492E+00;  0.0000000E+00;  1.9985362E+00;0; -2.1136889E-02;  3.9159598E+04;  0.0000000E+00;  9.1287062E-02;  4.0000000E+04;  0.0000000E+00;  4.0011922E+04; -2.8532520E-02;  0.0000000E+00;  7.3956302E-03;  2.3915295E+03;
  6.1250448E-01;  9.9999998E-03;  2.4994487E-01;6222;  9.1945417E-03;  0.0000000E+00;  1.5477809E-02;  9.9838922E+02;  1.0089895E-01; -1.3344806E+03;3; -2.9774363E+00;  0.0000000E+00;  1.9533032E+00;0; -1.6748847E-02;  3.9157215E+04;  0.0000000E+00;  1.1051112E-01;  4.0000000E+04;  0.0000000E+00;  4.0009062E+04; -2.3023661E-02;  0.0000000E+00;  6.2748133E-03;  2.0340145E+03;
  6.1250305E-01;  9.9999998E-03;  2.5995848E-01;6223;  9.3780374E-03;  0.0000000E+00;  1.5208494E-02;  9.9832880E+02;  1.0089819E-01; -1.3845532E+03;3; -3.0460019E+00;  0.0000000E+00;  1.8844799E+00;0; -1.3369871E-02;  3.9155750E+04;  0.0000000E+00;  1.0319407E-01;  4.0000000E+04;  0.0000000E+00;  4.0006410E+04; -1.7923705E-02;  0.0000000E+00;  4.5538335E-03;  1.7018871E+03;
  6.1247420E-01;  9.9999998E-03;  2.6996598E-01;6224;  9.5271207E-03;  0.0000000E+00;  1.5024931E-02;  9.9831360E+02;  1.0089751E-01; -1.3971455E+03;3; -3.1326168E+00;  0.0000000E+00;  1.8345592E+00;0; -9.6127279E-03;  3.9155047E+04;  0.0000000E+00;  8.6322330E-02;  4.0000000E+04;  0.0000000E+00;  4.0006828E+04; -1.3251498E-02;  0.0000000E+00;  3.6387704E-03;  1.7585090E+03;
  6.1243147E-01;  9.9999998E-03;  2.7997291E-01;6225;  9.6424837E-03;  0.0000000E+00;  1.4783871E-02;  9.9830969E+02;  1.0089610E-01; -1.4004047E+03;3; -3.1494200E+00;  0.0000000E+00;  1.8099086E+00;0; -7.0310244E-03;  3.9155559E+04;  0.0000000E+00;  7.9697244E-02;  4.0000000E+04;  0.0000000E+00;  4.0007035E+04; -9.0030348E-03;  0.0000000E+00;  1.9720104E-03;  1.7912347E+03;
  6.1238569E-01;  9.9999998E-03;  2.8997958E-01;6226;  9.7979065E-03;  0.0000000E+00;  1.4391690E-02;  9.9830371E+02;  1.0089499E-01; -1.4053428E+03;3; -3.0566626E+00;  0.0000000E+00;  1.8265878E+00;0; -7.6988400E-03;  3.9157531E+04;  0.0000000E+00;  1.0988580E-01;  4.0000000E+04;  0.0000000E+00;  4.0006344E+04; -5.1957620E-03;  0.0000000E+00; -2.5030780E-03;  1.7074333E+03;
  6.1233544E-01;  9.9999998E-03;  2.9998505E-01;6227;  1.0035650E-02;  0.0000000E+00;  1.3988171E-02;  9.9831146E+02;  1.0089329E-01; -1.3989232E+03;3; -2.9111738E+00;  0.0000000E+00;  1.9066038E+00;0; -9.6023437E-03;  3.9160223E+04;  0.0000000E+00;  2.4412973E-01;  4.0000000E+04;  0.0000000E+00;  4.0006051E+04; -1.8351915E-03;  0.0000000E+00; -7.7671520E-03;  1.6700952E+03;
  6.2239784E-01;  9.9999998E-03;  2.3991440E-01;6282;  8.7396307E-03;  0.0000000E+00;  1.5628442E-02;  9.9826221E+02;  1.0140960E-01; -1.4397120E+03;3; -2.8132424E+00;  0.0000000E+00;  2.0429921E+00;0; -2.1792544E-02;  3.8753023E+04;  0.0000000E+00;  1.6955927E-01;  4.0000000E+04;  0.0000000E+00;  4.0012297E+04; -2.8184623E-02;  0.0000000E+00;  6.3920789E-03;  2.8697571E+03;
  6.2241077E-01;  9.9999998E-03;  2.4994071E-01;6283;  9.0965033E-03;  0.0000000E+00;  1.5516607E-02;  9.9818439E+02;  1.0140868E-01; -1.5042040E+03;3; -2.8179309E+00;  0.0000000E+00;  2.0075886E+00;0; -1.6846094E-02;  3.8750449E+04;  0.0000000E+00;  2.4245431E-01;  4.0000000E+04;  0.0000000E+00;  4.0009332E+04; -2.2523755E-02;  0.0000000E+00;  5.6776605E-03;  2.5331477E+03;
  6.2240434E-01;  9.9999998E-03;  2.5996116E-01;6284;  9.3564810E-03;  0.0000000E+00;  1.5205153E-02;  9.9810712E+02;  1.0140751E-01; -1.5682021E+03;3; -2.9088202E+00;  0.0000000E+00;  1.9101373E+00;0; -1.3321963E-02;  3.8748906E+04;  0.0000000E+00;  3.0228776E-01;  4.0000000E+04;  0.0000000E+00;  4.0005598E+04; -1.7283181E-02;  0.0000000E+00;  3.9612176E-03;  2.1021794E+03;
  6.2237287E-01;  9.9999998E-03;  2.6997334E-01;6285;  9.5761055E-03;  0.0000000E+00;  1.4944781E-02;  9.9807550E+02;  1.0140579E-01; -1.5944237E+03;3; -2.9829340E+00;  0.0000000E+00;  1.8553047E+00;0; -9.9896453E-03;  3.8748480E+04;  0.0000000E+00;  3.5923615E-01;  4.0000000E+04;  0.0000000E+00;  4.0005148E+04; -1.2481430E-02;  0.0000000E+00;  2.4917840E-03;  2.0621807E+03;
  6.2232369E-01;  9.9999998E-03;  2.7998275E-01;6286;  9.8241782E-03;  0.0000000E+00;  1.4677694E-02;  9.9806427E+02;  1.0140418E-01; -1.6037074E+03;3; -2.8798881E+00;  0.0000000E+00;  1.8270886E+00;0; -7.4706692E-03;  3.8748938E+04;  0.0000000E+00;  4.4198775E-01;  4.0000000E+04;  0.0000000E+00;  4.0005547E+04; -8.1315311E-03;  0.0000000E+00;  6.6086190E-04;  2.1346194E+03;
  6.2226880E-01;  9.9999998E-03;  2.8999105E-01;6287;  1.0168203E-02;  0.0000000E+00;  1.4297648E-02;  9.9804767E+02;  1.0140157E-01; -1.6174847E+03;3; -2.6832950E+00;  0.0000000E+00;  1.8732675E+00;0; -7.6786187E-03;  3.8750336E+04;  0.0000000E+00;  5.8873594E-01;  4.0000000E+04;  0.0000000E+00;  4.0005207E+04; -4.2506689E-03;  0.0000000E+00; -3.4279495E-03;  2.1776016E+03;
  6.2220454E-01;  9.9999998E-03;  2.9999787E-01;6288;  1.0602717E-02;  0.0000000E+00;  1.3902385E-02;  9.9803265E+02;  1.0139902E-01; -1.6299288E+03;3; -2.4510272E+00;  0.0000000E+00;  1.9784400E+00;0; -9.1535766E-03;  3.8752234E+04;  0.0000000E+00;  8.8058412E-01;  4.0000000E+04;  0.0000000E+00;  4.0005137E+04; -8.3565176E-04;  0.0000000E+00; -8.3179250E-03;  2.3546228E+03;
  6.3227761E-01;  9.9999998E-03;  2.3991245E-01;6343;  8.5384557E-03;  0.0000000E+00;  1.5546977E-02;  9.9813324E+02;  1.0215342E-01; -1.5465732E+03;3; -2.6530960E+00;  0.0000000E+00;  2.0981395E+00;0; -2.2657640E-02;  3.8183309E+04;  0.0000000E+00;  2.1385394E-01;  4.0000000E+04;  0.0000000E+00;  4.0010270E+04; -2.7888250E-02;  0.0000000E+00;  5.2306103E-03;  3.2700791E+03;
  6.3227415E-01;  9.9999998E-03;  2.4994363E-01;6344;  9.0021826E-03;  0.0000000E+00;  1.5495691E-02;  9.9804456E+02;  1.0215217E-01; -1.6200526E+03;3; -2.6386933E+00;  0.0000000E+00;  2.0817304E+00;0; -1.6972832E-02;  3.8179684E+04;  0.0000000E+00;  3.0053461E-01;  4.0000000E+04;  0.0000000E+00;  4.0008238E+04; -2.2109665E-02;  0.0000000E+00;  5.1368321E-03;  3.0354875E+03;
  6.3225681E-01;  9.9999998E-03;  2.5996950E-01;6345;  9.3559464E-03;  0.0000000E+00;  1.5184268E-02;  9.9794409E+02;  1.0215039E-01; -1.7032601E+03;3; -2.7332337E+00;  0.0000000E+00;  1.9590021E+00;0; -1.2901817E-02;  3.8177520E+04;  0.0000000E+00;  3.6291432E-01;  4.0000000E+04;  0.0000000E+00;  4.0004062E+04; -1.6768798E-02;  0.0000000E+00;  3.8669822E-03;  2.5511575E+03;
  6.3222051E-01;  9.9999998E-03;  2.6998606E-01;6346;  9.6602095E-03;  0.0000000E+00;  1.4848343E-02;  9.9787988E+02;  1.0214785E-01; -1.7564932E+03;3; -2.7705688E+00;  0.0000000E+00;  1.8773693E+00;0; -9.8366309E-03;  3.8176180E+04;  0.0000000E+00;  3.9838225E-01;  4.0000000E+04;  0.0000000E+00;  4.0002652E+04; -1.1880999E-02;  0.0000000E+00;  2.0443690E-03;  2.3738015E+03;
  6.3216722E-01;  9.9999998E-03;  2.7999800E-01;6347;  1.0066296E-02;  0.0000000E+00;  1.4530765E-02;  9.9784515E+02;  1.0214505E-01; -1.7852330E+03;3; -2.5184391E+00;  0.0000000E+00;  1.8756319E+00;0; -7.6221698E-03;  3.8176238E+04;  0.0000000E+00;  4.3138480E-01;  4.0000000E+04;  0.0000000E+00;  4.0002523E+04; -7.4682413E-03;  0.0000000E+00; -1.5392844E-04;  2.3844771E+03;
  6.3210583E-01;  9.9999998E-03;  2.9000786E-01;6348;  1.0581450E-02;  0.0000000E+00;  1.4149842E-02;  9.9780725E+02;  1.0214166E-01; -1.8166395E+03;3; -2.2358708E+00;  0.0000000E+00;  1.9652878E+00;0; -7.5343195E-03;  3.8176496E+04;  0.0000000E+00;  5.2074158E-01;  4.0000000E+04;  0.0000000E+00;  4.0002531E+04; -3.5365322E-03;  0.0000000E+00; -3.9977874E-03;  2.4125110E+03;
  6.3203096E-01;  9.9999998E-03;  3.0001584E-01;6349;  1.1192859E-02;  0.0000000E+00;  1.3755575E-02;  9.9776422E+02;  1.0213718E-01; -1.8522928E+03;3; -2.0162718E+00;  0.0000000E+00;  2.0773823E+00;0; -8.6881211E-03;  3.8177473E+04;  0.0000000E+00;  7.6609838E-01;  4.0000000E+04;  0.0000000E+00;  4.0002551E+04; -8.4383144E-05;  0.0000000E+00; -8.6037377E-03;  2.5588784E+03;
  6.4213628E-01;  9.9999998E-03;  2.3992884E-01;6404;  8.3204806E-03;  0.0000000E+00;  1.5338675E-02;  9.9820679E+02;  1.0318413E-01; -1.4856367E+03;3; -2.5403802E+00;  0.0000000E+00;  2.0792027E+00;0; -2.3776069E-02;  3.7434367E+04;  0.0000000E+00;  1.7539507E-01;  4.0000000E+04;  0.0000000E+00;  4.0003953E+04; -2.7535487E-02;  0.0000000E+00;  3.7594175E-03;  3.2977397E+03;
  6.4211571E-01;  9.9999998E-03;  2.4995935E-01;6405;  8.8859424E-03;  0.0000000E+00;  1.5364877E-02;  9.9811340E+02;  1.0318229E-01; -1.5630172E+03;3; -2.4730828E+00;  0.0000000E+00;  2.1268880E+00;0; -1.7339308E-02;  3.7429195E+04;  0.0000000E+00;  1.8274292E-01;  4.0000000E+04;  0.0000000E+00;  4.0003430E+04; -2.1656483E-02;  0.0000000E+00;  4.3171747E-03;  3.2517532E+03;
  6.4208621E-01;  9.9999998E-03;  2.5998768E-01;6406;  9.3600210E-03;  0.0000000E+00;  1.5108619E-02;  9.9798553E+02;  1.0317974E-01; -1.6689401E+03;3; -2.5226798E+00;  0.0000000E+00;  2.0387716E+00;0; -1.2312246E-02;  3.7425160E+04;  0.0000000E+00;  9.4380781E-02;  4.0000000E+04;  0.0000000E+00;  3.9999324E+04; -1.6239963E-02;  0.0000000E+00;  3.9277170E-03;  2.7459639E+03;
  6.4204389E-01;  9.9999998E-03;  2.7000719E-01;6407;  9.7778887E-03;  0.0000000E+00;  1.4712515E-02;  9.9788019E+02;  1.0317664E-01; -1.7562462E+03;3; -2.4516423E+00;  0.0000000E+00;  1.9145286E+00;0; -9.2793880E-03;  3.7422590E+04;  0.0000000E+00; -1.1476230E-01;  4.0000000E+04;  0.0000000E+00;  3.9996727E+04; -1.1295894E-02;  0.0000000E+00;  2.0165062E-03;  2.4346672E+03;
  6.4198911E-01;  9.9999998E-03;  2.8002095E-01;6408;  1.0328062E-02;  0.0000000E+00;  1.4338050E-02;  9.9780896E+02;  1.0317304E-01; -1.8152568E+03;3; -2.1254618E+00;  0.0000000E+00;  1.9517329E+00;0; -7.3638014E-03;  3.7421348E+04;  0.0000000E+00; -4.2051315E-01;  4.0000000E+04;  0.0000000E+00;  3.9996289E+04; -6.8359468E-03;  0.0000000E+00; -5.2785443E-04;  2.4427004E+03;
  6.4192587E-01;  9.9999998E-03;  2.9003197E-01;6409;  1.0989220E-02;  0.0000000E+00;  1.3930447E-02;  9.9773883E+02;  1.0316797E-01; -1.8733293E+03;3; -1.8881031E+00;  0.0000000E+00;  2.0414901E+00;0; -7.3132413E-03;  3.7420793E+04;  0.0000000E+00; -7.2639453E-01;  4.0000000E+04;  0.0000000E+00;  3.9996016E+04; -2.8649559E-03;  0.0000000E+00; -4.4482853E-03;  2.5904783E+03;
  6.4184576E-01;  9.9999998E-03;  3.0004084E-01;6410;  1.1741935E-02;  0.0000000E+00;  1.3519948E-02;  9.9766656E+02;  1.0316148E-01; -1.9332289E+03;3; -1.6816285E+00;  0.0000000E+00;  2.1297815E+00;0; -8.4214816E-03;  3.7421078E+04;  0.0000000E+00; -8.8341391E-01;  4.0000000E+04;  0.0000000E+00;  3.9996457E+04;  6.1712530E-04;  0.0000000E+00; -9.0386067E-03;  2.7357893E+03;
  6.5169984E-01;  9.9999998E-03;  3.0007350E-01;6471;  1.2296712E-02;  0.0000000E+00;  1.3193858E-02;  9.9777142E+02;  1.0450038E-01; -1.8463175E+03;3; -1.4243199E+00;  0.0000000E+00;  2.1944494E+00;0; -8.0082649E-03;  3.6481469E+04;  0.0000000E+00; -4.4709864E+00;  4.0000000E+04;  0.0000000E+00;  3.9986246E+04;  1.6181770E-03;  0.0000000E+00; -9.6264416E-03;  7.2608691E+03;
  6.5177292E-01;  9.9999998E-03;  2.9006401E-01;6470;  1.1401675E-02;  0.0000000E+00;  1.3618278E-02;  9.9786505E+02;  1.0450910E-01; -1.7687394E+03;3; -1.5869745E+00;  0.0000000E+00;  2.0947747E+00;0; -6.9837593E-03;  3.6481184E+04;  0.0000000E+00; -3.5267544E+00;  4.0000000E+04;  0.0000000E+00;  3.9985609E+04; -1.8978226E-03;  0.0000000E+00; -5.0859367E-03;  5.8761221E+03;
  6.5183049E-01;  9.9999998E-03;  2.8005233E-01;6469;  1.0598804E-02;  0.0000000E+00;  1.4069167E-02;  9.9796552E+02;  1.0451502E-01; -1.6855320E+03;3; -1.8242435E+00;  0.0000000E+00;  2.0200856E+00;0; -6.7739733E-03;  3.6482832E+04;  0.0000000E+00; -2.4161763E+00;  4.0000000E+04;  0.0000000E+00;  3.9986062E+04; -5.9139780E-03;  0.0000000E+00; -8.5999531E-04;  4.3496465E+03;
  6.5188187E-01;  9.9999998E-03;  2.7003771E-01;6468;  9.9121146E-03;  0.0000000E+00;  1.4499483E-02;  9.9808081E+02;  1.0452000E-01; -1.5900286E+03;3; -2.0895748E+00;  0.0000000E+00;  1.9808408E+00;0; -8.4638270E-03;  3.6485938E+04;  0.0000000E+00; -1.3978578E+00;  4.0000000E+04;  0.0000000E+00;  3.9987066E+04; -1.0427206E-02;  0.0000000E+00;  1.9633791E-03;  3.2001028E+03;
  6.5192956E-01;  9.9999998E-03;  2.6001713E-01;6467;  9.3366345E-03;  0.0000000E+00;  1.4906553E-02;  9.9822528E+02;  1.0452373E-01; -1.4703282E+03;3; -2.3104126E+00;  0.0000000E+00;  2.0988173E+00;0; -1.1935109E-02;  3.6490297E+04;  0.0000000E+00; -6.4157867E-01;  4.0000000E+04;  0.0000000E+00;  3.9990656E+04; -1.5432537E-02;  0.0000000E+00;  3.4974271E-03;  2.9220564E+03;
  6.5197432E-01;  9.9999998E-03;  2.4999017E-01;6466;  8.7512881E-03;  0.0000000E+00;  1.5091189E-02;  9.9838104E+02;  1.0452656E-01; -1.3412949E+03;3; -2.3701372E+00;  0.0000000E+00;  2.0829551E+00;0; -1.7928962E-02;  3.6495957E+04;  0.0000000E+00; -1.8861212E-01;  4.0000000E+04;  0.0000000E+00;  3.9993883E+04; -2.0933662E-02;  0.0000000E+00;  3.0047006E-03;  3.1495317E+03;
  6.5201819E-01;  9.9999998E-03;  2.3996775E-01;6465;  8.0928877E-03;  0.0000000E+00;  1.4975668E-02;  9.9846979E+02;  1.0452793E-01; -1.2677661E+03;3; -2.4518180E+00;  0.0000000E+00;  2.0177493E+00;0; -2.5090344E-02;  3.6502984E+04;  0.0000000E+00;  1.6426396E-02;  4.0000000E+04;  0.0000000E+00;  3.9991504E+04; -2.6923329E-02;  0.0000000E+00;  1.8329845E-03;  2.8310366E+03;
  6.6172636E-01;  9.9999998E-03;  3.0011284E-01;6532;  1.2883345E-02;  0.0000000E+00;  1.2761638E-02;  9.9792950E+02;  1.0615198E-01; -1.7153583E+03;3; -1.2185454E+00;  0.0000000E+00;  2.2370665E+00;0; -6.9866916E-03;  3.5371121E+04;  0.0000000E+00; -9.3470831E+00;  4.0000000E+04;  0.0000000E+00;  3.9973094E+04;  3.4768574E-03;  0.0000000E+00; -1.0463549E-02;  1.4996539E+04;
  6.6208279E-01;  9.9999998E-03;  2.4002479E-01;6526;  7.8579150E-03;  0.0000000E+00;  1.4436087E-02;  9.9870624E+02;  1.0617972E-01; -1.0718705E+03;3; -2.3493676E+00;  0.0000000E+00;  1.9369102E+00;0; -2.6384784E-02;  3.5398742E+04;  0.0000000E+00; -2.2099710E-01;  4.0000000E+04;  0.0000000E+00;  3.9975215E+04; -2.5723903E-02;  0.0000000E+00; -6.6088187E-04;  2.1472332E+03;
  6.6178000E-01;  9.9999998E-03;  2.9010281E-01;6531;  1.1798223E-02;  0.0000000E+00;  1.3196478E-02;  9.9802905E+02;  1.0616223E-01; -1.6328915E+03;3; -1.4062473E+00;  0.0000000E+00;  2.1121359E+00;0; -6.1769169E-03;  3.5370020E+04;  0.0000000E+00; -7.4152470E+00;  4.0000000E+04;  0.0000000E+00;  3.9972906E+04; -1.1508580E-04;  0.0000000E+00; -6.0618310E-03;  1.1987473E+04;
  6.6202486E-01;  9.9999998E-03;  2.5003392E-01;6527;  8.6000543E-03;  0.0000000E+00;  1.4626964E-02;  9.9863062E+02;  1.0617909E-01; -1.1344860E+03;3; -2.2713168E+00;  0.0000000E+00;  2.0066409E+00;0; -1.8690789E-02;  3.5389879E+04;  0.0000000E+00; -7.2783142E-01;  4.0000000E+04;  0.0000000E+00;  3.9981004E+04; -1.9570487E-02;  0.0000000E+00;  8.7969837E-04;  3.1021724E+03;
  6.6187203E-01;  9.9999998E-03;  2.7007598E-01;6529;  1.0001754E-02;  0.0000000E+00;  1.4149143E-02;  9.9830365E+02;  1.0617333E-01; -1.4053918E+03;3; -1.8184357E+00;  0.0000000E+00;  2.0146255E+00;0; -7.5733815E-03;  3.5377227E+04;  0.0000000E+00; -3.2529554E+00;  4.0000000E+04;  0.0000000E+00;  3.9975504E+04; -8.8275652E-03;  0.0000000E+00;  1.2541836E-03;  5.7081538E+03;
  6.6194212E-01;  9.9999998E-03;  2.6005581E-01;6528;  9.2809601E-03;  0.0000000E+00;  1.4545003E-02;  9.9848297E+02;  1.0617708E-01; -1.2568529E+03;3; -2.2098000E+00;  0.0000000E+00;  2.0269356E+00;0; -1.1601089E-02;  3.5383156E+04;  0.0000000E+00; -1.7119501E+00;  4.0000000E+04;  0.0000000E+00;  3.9979582E+04; -1.3940815E-02;  0.0000000E+00;  2.3397251E-03;  3.8835698E+03;
  6.6182661E-01;  9.9999998E-03;  2.8009087E-01;6530;  1.0853582E-02;  0.0000000E+00;  1.3686487E-02;  9.9815308E+02;  1.0616936E-01; -1.5301290E+03;3; -1.5922232E+00;  0.0000000E+00;  2.0406873E+00;0; -5.8002602E-03;  3.5372320E+04;  0.0000000E+00; -5.2353168E+00;  4.0000000E+04;  0.0000000E+00;  3.9973688E+04; -4.2140661E-03;  0.0000000E+00; -1.5861943E-03;  8.6277207E+03;
  6.7208815E-01;  9.9999998E-03;  2.4008258E-01;6587;  7.6271114E-03;  0.0000000E+00;  1.3849615E-02;  9.9875415E+02;  1.0811506E-01; -1.0321678E+03;3; -2.2576740E+00;  0.0000000E+00;  1.8373504E+00;0; -2.6696833E-02;  3.4149016E+04;  0.0000000E+00; -5.8249301E-01;  4.0000000E+04;  0.0000000E+00;  3.9960555E+04; -2.3574971E-02;  0.0000000E+00; -3.1218620E-03;  2.1298547E+03;
  6.7204821E-01;  9.9999998E-03;  2.5008324E-01;6588;  8.4354244E-03;  0.0000000E+00;  1.4031709E-02;  9.9868372E+02;  1.0811606E-01; -1.0905366E+03;3; -2.1824086E+00;  0.0000000E+00;  1.9002396E+00;0; -1.8832071E-02;  3.4139320E+04;  0.0000000E+00; -1.4754802E+00;  4.0000000E+04;  0.0000000E+00;  3.9968141E+04; -1.7150175E-02;  0.0000000E+00; -1.6818967E-03;  3.7884902E+03;
  6.7201835E-01;  9.9999998E-03;  2.6009956E-01;6589;  9.2054438E-03;  0.0000000E+00;  1.4034511E-02;  9.9853082E+02;  1.0811608E-01; -1.2171996E+03;3; -2.1188569E+00;  0.0000000E+00;  1.9228240E+00;0; -1.0759946E-02;  3.4129902E+04;  0.0000000E+00; -3.0081291E+00;  4.0000000E+04;  0.0000000E+00;  3.9968590E+04; -1.1274189E-02;  0.0000000E+00;  5.1424245E-04;  5.8638149E+03;
  6.7201585E-01;  9.9999998E-03;  2.7011901E-01;6590;  1.0007018E-02;  0.0000000E+00;  1.3628518E-02;  9.9832550E+02;  1.0811607E-01; -1.3872688E+03;3; -1.7634541E+00;  0.0000000E+00;  1.9165105E+00;0; -6.3712513E-03;  3.4120355E+04;  0.0000000E+00; -5.2342587E+00;  4.0000000E+04;  0.0000000E+00;  3.9964367E+04; -5.9430241E-03;  0.0000000E+00; -4.2822704E-04;  9.0853711E+03;
  6.7202151E-01;  9.9999998E-03;  2.8013414E-01;6591;  1.1003329E-02;  0.0000000E+00;  1.3145066E-02;  9.9814990E+02;  1.0811489E-01; -1.5327461E+03;3; -1.4839082E+00;  0.0000000E+00;  1.9911737E+00;0; -4.3799249E-03;  3.4112922E+04;  0.0000000E+00; -8.0385237E+00;  4.0000000E+04;  0.0000000E+00;  3.9961469E+04; -1.1223372E-03;  0.0000000E+00; -3.2575876E-03;  1.3498975E+04;
  6.7201978E-01;  9.9999998E-03;  2.9014650E-01;6592;  1.2111104E-02;  0.0000000E+00;  1.2626356E-02;  9.9801715E+02;  1.0810889E-01; -1.6427676E+03;3; -1.3206170E+00;  0.0000000E+00;  2.0825510E+00;0; -4.6983119E-03;  3.4110258E+04;  0.0000000E+00; -1.1053429E+01;  4.0000000E+04;  0.0000000E+00;  3.9960438E+04;  3.1615498E-03;  0.0000000E+00; -7.8598615E-03;  1.8329910E+04;
  6.7202812E-01;  9.9999998E-03;  3.0015719E-01;6593;  1.3350270E-02;  0.0000000E+00;  1.2171584E-02;  9.9791681E+02;  1.0809863E-01; -1.7258763E+03;3; -1.1520023E+00;  0.0000000E+00;  2.2100542E+00;0; -5.3009982E-03;  3.4111945E+04;  0.0000000E+00; -1.3530752E+01;  4.0000000E+04;  0.0000000E+00;  3.9960328E+04;  6.9279349E-03;  0.0000000E+00; -1.2228933E-02;  2.2293516E+04;
  6.8232512E-01;  9.9999998E-03;  2.4014100E-01;6648;  7.3791724E-03;  0.0000000E+00;  1.3145152E-02;  9.9844598E+02;  1.1032353E-01; -1.2874691E+03;3; -2.1488264E+00;  0.0000000E+00;  1.7432431E+00;0; -2.5832729E-02;  3.2780457E+04;  0.0000000E+00; -9.3052316E-01;  4.0000000E+04;  0.0000000E+00;  3.9947285E+04; -1.9985290E-02;  0.0000000E+00; -5.8474392E-03;  2.6524814E+03;
  6.8228483E-01;  9.9999998E-03;  2.5013497E-01;6649;  8.2442937E-03;  0.0000000E+00;  1.3292959E-02;  9.9840845E+02;  1.1033116E-01; -1.3185793E+03;3; -2.0887165E+00;  0.0000000E+00;  1.7914350E+00;0; -1.7847169E-02;  3.2768746E+04;  0.0000000E+00; -2.1909842E+00;  4.0000000E+04;  0.0000000E+00;  3.9955992E+04; -1.3136980E-02;  0.0000000E+00; -4.7101886E-03;  5.0264224E+03;
  6.8230224E-01;  9.9999998E-03;  2.6014653E-01;6650;  9.0980595E-03;  0.0000000E+00;  1.3371844E-02;  9.9828864E+02;  1.1034176E-01; -1.4178357E+03;3; -2.0206032E+00;  0.0000000E+00;  1.8223289E+00;0; -8.7887365E-03;  3.2754020E+04;  0.0000000E+00; -4.1897941E+00;  4.0000000E+04;  0.0000000E+00;  3.9958395E+04; -6.8466468E-03;  0.0000000E+00; -1.9420895E-03;  8.1705947E+03;
  6.8236959E-01;  9.9999998E-03;  2.7016559E-01;6651;  9.9677797E-03;  0.0000000E+00;  1.2968666E-02;  9.9808270E+02;  1.1035369E-01; -1.5884481E+03;3; -1.7761164E+00;  0.0000000E+00;  1.7977701E+00;0; -3.7901015E-03;  3.2738568E+04;  0.0000000E+00; -6.9262319E+00;  4.0000000E+04;  0.0000000E+00;  3.9954289E+04; -1.1267948E-03;  0.0000000E+00; -2.6633067E-03;  1.2441164E+04;
  6.8245339E-01;  9.9999998E-03;  2.8018150E-01;6652;  1.1027751E-02;  0.0000000E+00;  1.2440464E-02;  9.9790314E+02;  1.1036298E-01; -1.7372339E+03;3; -1.5078206E+00;  0.0000000E+00;  1.8789339E+00;0; -1.7631692E-03;  3.2725596E+04;  0.0000000E+00; -1.0174553E+01;  4.0000000E+04;  0.0000000E+00;  3.9950410E+04;  4.0580505E-03;  0.0000000E+00; -5.8212196E-03;  1.7767189E+04;
  6.8255270E-01;  9.9999998E-03;  2.9019475E-01;6653;  1.2236099E-02;  0.0000000E+00;  1.1879313E-02;  9.9776953E+02;  1.1036934E-01; -1.8478973E+03;3; -1.3422592E+00;  0.0000000E+00;  1.9884272E+00;0; -2.0499509E-03;  3.2716527E+04;  0.0000000E+00; -1.3268346E+01;  4.0000000E+04;  0.0000000E+00;  3.9948645E+04;  8.7052556E-03;  0.0000000E+00; -1.0755206E-02;  2.2891283E+04;
  6.8266398E-01;  9.9999998E-03;  3.0020657E-01;6654;  1.3568455E-02;  0.0000000E+00;  1.1387947E-02;  9.9768262E+02;  1.1036929E-01; -1.9198953E+03;3; -1.1484357E+00;  0.0000000E+00;  2.1571543E+00;0; -2.5215922E-03;  3.2713590E+04;  0.0000000E+00; -1.5400772E+01;  4.0000000E+04;  0.0000000E+00;  3.9948137E+04;  1.2825472E-02;  0.0000000E+00; -1.5347064E-02;  2.6381482E+04;
  6.9333601E-01;  9.9999998E-03;  2.4019720E-01;6709;  7.1018767E-03;  0.0000000E+00;  1.2330216E-02;  9.9789362E+02;  1.1291512E-01; -1.7450854E+03;3; -2.0246139E+00;  0.0000000E+00;  1.6600447E+00;0; -2.2855787E-02;  3.1268490E+04;  0.0000000E+00; -9.4952571E-01;  4.0000000E+04;  0.0000000E+00;  3.9935305E+04; -1.4171483E-02;  0.0000000E+00; -8.6843036E-03;  3.2193916E+03;
  6.9343883E-01;  9.9999998E-03;  2.5019008E-01;6710;  8.0233486E-03;  0.0000000E+00;  1.2395171E-02;  9.9786707E+02;  1.1294329E-01; -1.7671095E+03;3; -1.9964218E+00;  0.0000000E+00;  1.6807855E+00;0; -1.4596431E-02;  3.1246701E+04;  0.0000000E+00; -2.1408103E+00;  4.0000000E+04;  0.0000000E+00;  3.9943738E+04; -6.5413271E-03;  0.0000000E+00; -8.0551030E-03;  5.5571685E+03;
  6.9358313E-01;  9.9999998E-03;  2.6019928E-01;6711;  8.9396248E-03;  0.0000000E+00;  1.2478187E-02;  9.9780420E+02;  1.1297821E-01; -1.8191573E+03;3; -1.9343940E+00;  0.0000000E+00;  1.7179210E+00;0; -4.7946316E-03;  3.1222168E+04;  0.0000000E+00; -3.9223368E+00;  4.0000000E+04;  0.0000000E+00;  3.9947555E+04;  5.0489599E-04;  0.0000000E+00; -5.2995277E-03;  8.5300674E+03;
  6.9379342E-01;  9.9999998E-03;  2.7021891E-01;6712;  9.8748077E-03;  0.0000000E+00;  1.2122722E-02;  9.9765393E+02;  1.1302113E-01; -1.9436969E+03;3; -1.7790593E+00;  0.0000000E+00;  1.6979513E+00;0;  1.6487096E-03;  3.1193764E+04;  0.0000000E+00; -6.1588359E+00;  4.0000000E+04;  0.0000000E+00;  3.9943352E+04;  6.9760401E-03;  0.0000000E+00; -5.3273304E-03;  1.2065084E+04;
  6.9404650E-01;  9.9999998E-03;  2.8023684E-01;6713;  1.0944219E-02;  0.0000000E+00;  1.1544828E-02;  9.9751404E+02;  1.1306658E-01; -2.0595947E+03;3; -1.5796268E+00;  0.0000000E+00;  1.7489799E+00;0;  4.1920682E-03;  3.1165398E+04;  0.0000000E+00; -8.4395180E+00;  4.0000000E+04;  0.0000000E+00;  3.9938402E+04;  1.2895180E-02;  0.0000000E+00; -8.7031117E-03;  1.5886074E+04;
  6.9428933E-01;  9.9999998E-03;  2.9025212E-01;6714;  1.2129304E-02;  0.0000000E+00;  1.0913085E-02;  9.9742365E+02;  1.1310297E-01; -2.1344568E+03;3; -1.4098555E+00;  0.0000000E+00;  1.8801756E+00;0;  3.9631464E-03;  3.1144279E+04;  0.0000000E+00; -1.0224893E+01;  4.0000000E+04;  0.0000000E+00;  3.9935406E+04;  1.8232338E-02;  0.0000000E+00; -1.4269192E-02;  1.8933477E+04;
  6.9449210E-01;  9.9999998E-03;  3.0026585E-01;6715;  1.3389769E-02;  0.0000000E+00;  1.0341641E-02;  9.9739563E+02;  1.1312354E-01; -2.1576660E+03;3; -1.2452916E+00;  0.0000000E+00;  2.0478539E+00;0;  3.2532904E-03;  3.1134736E+04;  0.0000000E+00; -1.1065722E+01;  4.0000000E+04;  0.0000000E+00;  3.9934039E+04;  2.2982050E-02;  0.0000000E+00; -1.9728759E-02;  2.0306467E+04;
  7.0559907E-01;  9.9999998E-03;  2.4026050E-01;6770;  6.8007843E-03;  0.0000000E+00;  1.1368850E-02;  9.9753467E+02;  1.1607365E-01; -2.0424592E+03;3; -1.8933400E+00;  0.0000000E+00;  1.5943949E+00;0; -1.6575124E-02;  2.9586998E+04;  0.0000000E+00; -5.7677132E-01;  4.0000000E+04;  0.0000000E+00;  3.9919898E+04; -5.0128219E-03;  0.0000000E+00; -1.1562303E-02;  3.3588872E+03;
  7.0576680E-01;  9.9999998E-03;  2.5025606E-01;6771;  7.7907029E-03;  0.0000000E+00;  1.1366763E-02;  9.9757642E+02;  1.1612593E-01; -2.0078923E+03;3; -1.8949733E+00;  0.0000000E+00;  1.6102400E+00;0; -7.4117710E-03;  2.9559371E+04;  0.0000000E+00; -1.5501983E+00;  4.0000000E+04;  0.0000000E+00;  3.9926859E+04;  3.7985384E-03;  0.0000000E+00; -1.1210309E-02;  5.2778970E+03;
  7.0600593E-01;  9.9999998E-03;  2.6026601E-01;6772;  8.7661156E-03;  0.0000000E+00;  1.1394952E-02;  9.9760492E+02;  1.1619013E-01; -1.9842881E+03;3; -1.8519995E+00;  0.0000000E+00;  1.6342500E+00;0;  3.2736519E-03;  2.9527025E+04;  0.0000000E+00; -2.9299068E+00;  4.0000000E+04;  0.0000000E+00;  3.9930215E+04;  1.2040272E-02;  0.0000000E+00; -8.7666204E-03;  7.6414790E+03;
  7.0629704E-01;  9.9999998E-03;  2.7028644E-01;6773;  9.7555630E-03;  0.0000000E+00;  1.1067154E-02;  9.9756006E+02;  1.1626185E-01; -2.0214227E+03;3; -1.7470298E+00;  0.0000000E+00;  1.6463065E+00;0;  1.1441011E-02;  2.9492506E+04;  0.0000000E+00; -4.6054101E+00;  4.0000000E+04;  0.0000000E+00;  3.9925562E+04;  1.9685753E-02;  0.0000000E+00; -8.2447417E-03;  1.0293360E+04;
  7.0655942E-01;  9.9999998E-03;  2.8030604E-01;6774;  1.0827729E-02;  0.0000000E+00;  1.0465935E-02;  9.9751801E+02;  1.1632186E-01; -2.0562859E+03;3; -1.5979728E+00;  0.0000000E+00;  1.7073135E+00;0;  1.5142230E-02;  2.9465631E+04;  0.0000000E+00; -6.3451672E+00;  4.0000000E+04;  0.0000000E+00;  3.9919418E+04;  2.6659818E-02;  0.0000000E+00; -1.1517588E-02;  1.3278183E+04;
  7.0676953E-01;  9.9999998E-03;  2.9032293E-01;6775;  1.1984705E-02;  0.0000000E+00;  9.7893253E-03;  9.9751318E+02;  1.1636340E-01; -2.0602859E+03;3; -1.4516833E+00;  0.0000000E+00;  1.8227760E+00;0;  1.5618922E-02;  2.9449227E+04;  0.0000000E+00; -7.7358427E+00;  4.0000000E+04;  0.0000000E+00;  3.9915250E+04;  3.2953788E-02;  0.0000000E+00; -1.7334865E-02;  1.5758781E+04;
  7.0691592E-01;  9.9999998E-03;  3.0033812E-01;6776;  1.3189529E-02;  0.0000000E+00;  9.1692787E-03;  9.9753973E+02;  1.1638027E-01; -2.0382618E+03;3; -1.3157482E+00;  0.0000000E+00;  1.9800969E+00;0;  1.5396772E-02;  2.9445674E+04;  0.0000000E+00; -8.3751688E+00;  4.0000000E+04;  0.0000000E+00;  3.9912895E+04;  3.8585033E-02;  0.0000000E+00; -2.3188261E-02;  1.6847234E+04;
  7.1808553E-01;  9.9999998E-03;  2.4033552E-01;6831;  6.5172529E-03;  0.0000000E+00;  1.0273818E-02;  9.9752216E+02;  1.1959387E-01; -2.0528289E+03;3; -1.7633944E+00;  0.0000000E+00;  1.5777303E+00;0; -7.1254605E-03;  2.7893248E+04;  0.0000000E+00; -4.2091042E-01;  4.0000000E+04;  0.0000000E+00;  3.9898352E+04;  7.2139744E-03;  0.0000000E+00; -1.4339435E-02;  3.1710078E+03;
  7.1821547E-01;  9.9999998E-03;  2.5033593E-01;6832;  7.5738956E-03;  0.0000000E+00;  1.0142337E-02;  9.9758759E+02;  1.1964690E-01; -1.9986577E+03;3; -1.8003709E+00;  0.0000000E+00;  1.5774615E+00;0;  2.8354488E-03;  2.7870215E+04;  0.0000000E+00; -1.3832709E+00;  4.0000000E+04;  0.0000000E+00;  3.9902066E+04;  1.7492807E-02;  0.0000000E+00; -1.4657358E-02;  4.8675283E+03;
  7.1836102E-01;  9.9999998E-03;  2.6034212E-01;6833;  8.6062932E-03;  0.0000000E+00;  1.0157899E-02;  9.9770367E+02;  1.1970447E-01; -1.9024630E+03;3; -1.7863846E+00;  0.0000000E+00;  1.6086003E+00;0;  1.4743533E-02;  2.7847045E+04;  0.0000000E+00; -2.8357310E+00;  4.0000000E+04;  0.0000000E+00;  3.9906422E+04;  2.7100712E-02;  0.0000000E+00; -1.2357179E-02;  7.6243052E+03;
  7.1842396E-01;  9.9999998E-03;  2.7035964E-01;6834;  9.6385796E-03;  0.0000000E+00;  9.9031199E-03;  9.9773315E+02;  1.1973210E-01; -1.8780193E+03;3; -1.7179805E+00;  0.0000000E+00;  1.6382596E+00;0;  2.4810389E-02;  2.7838588E+04;  0.0000000E+00; -4.7665892E+00;  4.0000000E+04;  0.0000000E+00;  3.9903348E+04;  3.5871472E-02;  0.0000000E+00; -1.1061084E-02;  1.1035562E+04;
  7.1844995E-01;  9.9999998E-03;  2.8037852E-01;6835;  1.0723638E-02;  0.0000000E+00;  9.3237972E-03;  9.9773114E+02;  1.1974037E-01; -1.8796982E+03;3; -1.6053277E+00;  0.0000000E+00;  1.7015342E+00;0;  2.9968634E-02;  2.7839471E+04;  0.0000000E+00; -6.8670740E+00;  4.0000000E+04;  0.0000000E+00;  3.9897551E+04;  4.3850638E-02;  0.0000000E+00; -1.3882005E-02;  1.4890747E+04;
  7.1844095E-01;  9.9999998E-03;  2.9039523E-01;6836;  1.1873406E-02;  0.0000000E+00;  8.6433915E-03;  9.9773700E+02;  1.1973148E-01; -1.8748589E+03;3; -1.4801122E+00;  0.0000000E+00;  1.8016449E+00;0;  3.1520020E-02;  2.7847857E+04;  0.0000000E+00; -8.6449862E+00;  4.0000000E+04;  0.0000000E+00;  3.9893621E+04;  5.1068120E-02;  0.0000000E+00; -1.9548099E-02;  1.8229000E+04;
  7.1839410E-01;  9.9999998E-03;  3.0041054E-01;6837;  1.3064291E-02;  0.0000000E+00;  8.0043627E-03;  9.9774603E+02;  1.1970387E-01; -1.8673529E+03;3; -1.3671386E+00;  0.0000000E+00;  1.9454997E+00;0;  3.2056965E-02;  2.7864166E+04;  0.0000000E+00; -9.6248894E+00;  4.0000000E+04;  0.0000000E+00;  3.9891699E+04;  5.7571378E-02;  0.0000000E+00; -2.5514411E-02;  2.0017557E+04;
  7.3011833E-01;  9.9999998E-03;  2.4039648E-01;6892;  6.2701749E-03;  0.0000000E+00;  9.1590732E-03;  9.9745544E+02;  1.2325647E-01; -2.1081355E+03;3; -1.6720698E+00;  0.0000000E+00;  1.5823035E+00;0;  4.7204923E-03;  2.6276354E+04;  0.0000000E+00; -4.8563477E-01;  4.0000000E+04;  0.0000000E+00;  3.9878832E+04;  2.1226933E-02;  0.0000000E+00; -1.6506441E-02;  3.3998218E+03;
  7.3007458E-01;  9.9999998E-03;  2.5040728E-01;6893;  7.3856781E-03;  0.0000000E+00;  8.9013083E-03;  9.9744830E+02;  1.2325774E-01; -2.1140120E+03;3; -1.7010355E+00;  0.0000000E+00;  1.6029756E+00;0;  1.5622433E-02;  2.6275002E+04;  0.0000000E+00; -1.4172945E+00;  4.0000000E+04;  0.0000000E+00;  3.9879051E+04;  3.3024933E-02;  0.0000000E+00; -1.7402500E-02;  4.8117764E+03;
  7.3001403E-01;  9.9999998E-03;  2.6041266E-01;6894;  8.4656561E-03;  0.0000000E+00;  8.8602034E-03;  9.9754395E+02;  1.2325568E-01; -2.0348043E+03;3; -1.7375556E+00;  0.0000000E+00;  1.6207120E+00;0;  2.8430223E-02;  2.6277012E+04;  0.0000000E+00; -2.7599440E+00;  4.0000000E+04;  0.0000000E+00;  3.9884152E+04;  4.4020846E-02;  0.0000000E+00; -1.5590622E-02;  7.5291025E+03;
  7.2994435E-01;  9.9999998E-03;  2.7042747E-01;6895;  9.5169460E-03;  0.0000000E+00;  8.6956602E-03;  9.9759467E+02;  1.2324636E-01; -1.9927809E+03;3; -1.7053438E+00;  0.0000000E+00;  1.6567363E+00;0;  4.0924713E-02;  2.6283572E+04;  0.0000000E+00; -4.4372783E+00;  4.0000000E+04;  0.0000000E+00;  3.9884355E+04;  5.4186139E-02;  0.0000000E+00; -1.3261428E-02;  1.0716862E+04;
  7.2988087E-01;  9.9999998E-03;  2.8044677E-01;6896;  1.0598009E-02;  0.0000000E+00;  8.1298435E-03;  9.9758368E+02;  1.2323128E-01; -2.0018671E+03;3; -1.6207517E+00;  0.0000000E+00;  1.7175982E+00;0;  4.7986705E-02;  2.6293367E+04;  0.0000000E+00; -6.1878767E+00;  4.0000000E+04;  0.0000000E+00;  3.9879637E+04;  6.3539177E-02;  0.0000000E+00; -1.5552471E-02;  1.4004438E+04;
  7.2980136E-01;  9.9999998E-03;  2.9046461E-01;6897;  1.1726080E-02;  0.0000000E+00;  7.4304040E-03;  9.9757239E+02;  1.2320489E-01; -2.0112495E+03;3; -1.5136214E+00;  0.0000000E+00;  1.7982850E+00;0;  5.0977945E-02;  2.6307111E+04;  0.0000000E+00; -7.5671086E+00;  4.0000000E+04;  0.0000000E+00;  3.9876078E+04;  7.2070554E-02;  0.0000000E+00; -2.1092610E-02;  1.6657033E+04;
  7.2968507E-01;  9.9999998E-03;  3.0048105E-01;6898;  1.2870428E-02;  0.0000000E+00;  6.7581092E-03;  9.9754810E+02;  1.2316252E-01; -2.0313477E+03;3; -1.4170674E+00;  0.0000000E+00;  1.9287040E+00;0;  5.2544653E-02;  2.6326547E+04;  0.0000000E+00; -8.1369934E+00;  4.0000000E+04;  0.0000000E+00;  3.9874590E+04;  7.9796411E-02;  0.0000000E+00; -2.7251756E-02;  1.7729912E+04;
  7.4211049E-01;  9.9999998E-03;  2.4043567E-01;6953;  6.0999487E-03;  0.0000000E+00;  8.0176191E-03;  9.9714136E+02;  1.2709633E-01; -2.3683250E+03;3; -1.6056665E+00;  0.0000000E+00;  1.6268859E+00;0;  1.8349454E-02;  2.4711844E+04;  0.0000000E+00; -4.1053712E-01;  4.0000000E+04;  0.0000000E+00;  3.9863953E+04;  3.6272984E-02;  0.0000000E+00; -1.7923530E-02;  4.0194910E+03;
  7.4206930E-01;  9.9999998E-03;  2.5046447E-01;6954;  7.2541013E-03;  0.0000000E+00;  7.6480759E-03;  9.9704767E+02;  1.2709978E-01; -2.4459524E+03;3; -1.6374824E+00;  0.0000000E+00;  1.6502265E+00;0;  3.1035490E-02;  2.4706814E+04;  0.0000000E+00; -9.5266026E-01;  4.0000000E+04;  0.0000000E+00;  3.9861031E+04;  5.0018933E-02;  0.0000000E+00; -1.8983442E-02;  4.3538916E+03;
  7.4201727E-01;  9.9999998E-03;  2.6047817E-01;6955;  8.3716409E-03;  0.0000000E+00;  7.4677244E-03;  9.9706982E+02;  1.2709929E-01; -2.4275825E+03;3; -1.6782393E+00;  0.0000000E+00;  1.7057035E+00;0;  4.5047272E-02;  2.4705178E+04;  0.0000000E+00; -1.5673687E+00;  4.0000000E+04;  0.0000000E+00;  3.9864410E+04;  6.2940814E-02;  0.0000000E+00; -1.7893542E-02;  5.5773564E+03;
  7.4197674E-01;  9.9999998E-03;  2.7049404E-01;6956;  9.4411848E-03;  0.0000000E+00;  7.3326291E-03;  9.9709576E+02;  1.2709881E-01; -2.4061018E+03;3; -1.6988682E+00;  0.0000000E+00;  1.7063903E+00;0;  6.0213216E-02;  2.4705160E+04;  0.0000000E+00; -2.1123424E+00;  4.0000000E+04;  0.0000000E+00;  3.9867113E+04;  7.5019635E-02;  0.0000000E+00; -1.4806419E-02;  6.6649136E+03;
  7.4197245E-01;  9.9999998E-03;  2.8051549E-01;6957;  1.0515288E-02;  0.0000000E+00;  6.7611784E-03;  9.9706268E+02;  1.2710457E-01; -2.4335083E+03;3; -1.6282982E+00;  0.0000000E+00;  1.7445973E+00;0;  6.9801375E-02;  2.4703896E+04;  0.0000000E+00; -2.3847313E+00;  4.0000000E+04;  0.0000000E+00;  3.9863980E+04;  8.6278386E-02;  0.0000000E+00; -1.6477007E-02;  6.9031821E+03;
  7.4192822E-01;  9.9999998E-03;  2.9053593E-01;6958;  1.1635984E-02;  0.0000000E+00;  6.0066055E-03;  9.9701825E+02;  1.2709673E-01; -2.4702974E+03;3; -1.5420551E+00;  0.0000000E+00;  1.8221096E+00;0;  7.4376397E-02;  2.4707389E+04;  0.0000000E+00; -2.1099880E+00;  4.0000000E+04;  0.0000000E+00;  3.9860996E+04;  9.6575476E-02;  0.0000000E+00; -2.2199079E-02;  6.2023188E+03;
  7.4184293E-01;  9.9999998E-03;  3.0055496E-01;6959;  1.2794062E-02;  0.0000000E+00;  5.2630659E-03;  9.9696985E+02;  1.2707601E-01; -2.5104443E+03;3; -1.4634436E+00;  0.0000000E+00;  1.9271814E+00;0;  7.6955266E-02;  2.4715365E+04;  0.0000000E+00; -1.1382461E+00;  4.0000000E+04;  0.0000000E+00;  3.9860086E+04;  1.0593439E-01;  0.0000000E+00; -2.8979123E-02;  4.4867734E+03;
  7.5536388E-01;  9.9999998E-03;  2.4049273E-01;7014;  6.1216704E-03;  0.0000000E+00;  6.5740766E-03;  9.9698712E+02;  1.3146847E-01; -2.4961230E+03;3; -1.5131121E+00;  0.0000000E+00;  1.7080419E+00;0;  3.3090360E-02;  2.3107172E+04;  0.0000000E+00; -2.3552027E-01;  4.0000000E+04;  0.0000000E+00;  3.9840664E+04;  5.2205380E-02;  0.0000000E+00; -1.9115021E-02;  3.7902434E+03;
  7.5521940E-01;  9.9999998E-03;  2.5053144E-01;7015;  7.3055509E-03;  0.0000000E+00;  6.0999622E-03;  9.9680157E+02;  1.3144511E-01; -2.6498467E+03;3; -1.5972904E+00;  0.0000000E+00;  1.7470481E+00;0;  4.7743004E-02;  2.3107537E+04;  0.0000000E+00; -2.4234745E-01;  4.0000000E+04;  0.0000000E+00;  3.9836602E+04;  6.8008363E-02;  0.0000000E+00; -2.0265359E-02;  3.2825527E+03;
  7.5496864E-01;  9.9999998E-03;  2.6055014E-01;7016;  8.4691141E-03;  0.0000000E+00;  5.7781287E-03;  9.9671027E+02;  1.3139175E-01; -2.7254988E+03;3; -1.6552364E+00;  0.0000000E+00;  1.8041703E+00;0;  6.2768385E-02;  2.3119303E+04;  0.0000000E+00;  1.0334990E-01;  4.0000000E+04;  0.0000000E+00;  3.9839930E+04;  8.2790099E-02;  0.0000000E+00; -2.0021711E-02;  3.4833918E+03;
  7.5476426E-01;  9.9999998E-03;  2.7056605E-01;7017;  9.5929056E-03;  0.0000000E+00;  5.6629837E-03;  9.9667450E+02;  1.3134778E-01; -2.7551277E+03;3; -1.6469115E+00;  0.0000000E+00;  1.8279874E+00;0;  8.0115147E-02;  2.3129625E+04;  0.0000000E+00;  9.9844360E-01;  4.0000000E+04;  0.0000000E+00;  3.9845738E+04;  9.6657924E-02;  0.0000000E+00; -1.6542776E-02;  4.6528628E+03;
  7.5466353E-01;  9.9999998E-03;  2.8058824E-01;7018;  1.0745295E-02;  0.0000000E+00;  5.1428005E-03;  9.9659650E+02;  1.3132827E-01; -2.8197185E+03;3; -1.6282494E+00;  0.0000000E+00;  1.8036395E+00;0;  9.2576392E-02;  2.3133252E+04;  0.0000000E+00;  2.5305409E+00;  4.0000000E+04;  0.0000000E+00;  3.9845785E+04;  1.0965802E-01;  0.0000000E+00; -1.7081628E-02;  7.0641812E+03;
  7.5455487E-01;  9.9999998E-03;  2.9061076E-01;7019;  1.2015218E-02;  0.0000000E+00;  4.2613698E-03;  9.9651038E+02;  1.3130458E-01; -2.8910745E+03;3; -1.5690670E+00;  0.0000000E+00;  1.8612236E+00;0;  9.7216517E-02;  2.3139240E+04;  0.0000000E+00;  4.8091445E+00;  4.0000000E+04;  0.0000000E+00;  3.9844098E+04;  1.2155611E-01;  0.0000000E+00; -2.4339598E-02;  1.1686037E+04;
  7.5441569E-01;  9.9999998E-03;  3.0063203E-01;7020;  1.3542888E-02;  0.0000000E+00;  3.3559431E-03;  9.9643878E+02;  1.3127016E-01; -2.9503813E+03;3; -1.3861851E+00;  0.0000000E+00;  1.9117774E+00;0;  9.8683700E-02;  2.3149541E+04;  0.0000000E+00;  7.8177414E+00;  4.0000000E+04;  0.0000000E+00;  3.9843910E+04;  1.3226931E-01;  0.0000000E+00; -3.3585612E-02;  1.8246818E+04;
  7.6931506E-01;  9.9999998E-03;  2.4058972E-01;7075;  6.6015306E-03;  0.0000000E+00;  4.8604026E-03;  9.9758612E+02;  1.3629089E-01; -1.9998409E+03;3; -1.0628302E+00;  0.0000000E+00;  2.0477014E+00;0;  4.5437593E-02;  2.1545947E+04;  0.0000000E+00; -2.9834414E-01;  4.0000000E+04;  0.0000000E+00;  3.9803555E+04;  6.5083154E-02;  0.0000000E+00; -1.9645561E-02;  2.2753652E+03;
  7.6915675E-01;  9.9999998E-03;  2.5063282E-01;7076;  7.9686847E-03;  0.0000000E+00;  4.0474571E-03;  9.9730859E+02;  1.3625117E-01; -2.2297600E+03;3; -1.2398982E+00;  0.0000000E+00;  1.8568320E+00;0;  6.0750470E-02;  2.1549006E+04;  0.0000000E+00; -6.1944503E-02;  4.0000000E+04;  0.0000000E+00;  3.9795445E+04;  8.2882904E-02;  0.0000000E+00; -2.2132432E-02;  1.0004713E+03;
  7.6886445E-01;  9.9999998E-03;  2.6065075E-01;7077;  9.4087794E-03;  0.0000000E+00;  3.2323978E-03;  9.9710687E+02;  1.3617711E-01; -2.3969153E+03;3; -1.1821529E+00;  0.0000000E+00;  1.7787606E+00;0;  7.3520698E-02;  2.1562184E+04;  0.0000000E+00;  7.5337160E-01;  4.0000000E+04;  0.0000000E+00;  3.9797031E+04;  9.9625856E-02;  0.0000000E+00; -2.6105156E-02;  2.3788120E+03;
  7.6865166E-01;  9.9999998E-03;  2.7065986E-01;7078;  1.0914307E-02;  0.0000000E+00;  2.9770008E-03;  9.9705707E+02;  1.3612583E-01; -2.4381487E+03;3; -1.0831376E+00;  0.0000000E+00;  1.8446755E+00;0;  9.0117566E-02;  2.1570266E+04;  0.0000000E+00;  2.3712926E+00;  4.0000000E+04;  0.0000000E+00;  3.9807363E+04;  1.1535235E-01;  0.0000000E+00; -2.5234789E-02;  6.9171025E+03;
  7.6863468E-01;  9.9999998E-03;  2.8067839E-01;7079;  1.2635730E-02;  0.0000000E+00;  2.5469018E-03;  9.9703168E+02;  1.3612922E-01; -2.4591851E+03;3; -7.5196427E-01;  0.0000000E+00;  1.8022932E+00;0;  1.0470854E-01;  2.1565055E+04;  0.0000000E+00;  4.6652493E+00;  4.0000000E+04;  0.0000000E+00;  3.9812801E+04;  1.3006748E-01;  0.0000000E+00; -2.5358941E-02;  1.2930591E+04;
  7.6865053E-01;  9.9999998E-03;  2.9070184E-01;7080;  1.4986932E-02;  0.0000000E+00;  1.5843121E-03;  9.9697577E+02;  1.3613954E-01; -2.5055046E+03;3; -1.7166191E-01;  0.0000000E+00;  1.8207952E+00;0;  1.0929799E-01;  2.1559217E+04;  0.0000000E+00;  7.6260419E+00;  4.0000000E+04;  0.0000000E+00;  3.9813816E+04;  1.4335011E-01;  0.0000000E+00; -3.4052115E-02;  2.0452805E+04;
  7.6864207E-01;  9.9999998E-03;  3.0072618E-01;7081;  1.7902637E-02;  0.0000000E+00;  5.0637254E-04;  9.9694086E+02;  1.3613909E-01; -2.5344421E+03;3;  7.8152287E-01;  0.0000000E+00;  1.8962066E+00;0;  1.0898951E-01;  2.1558713E+04;  0.0000000E+00;  1.1171344E+01;  4.0000000E+04;  0.0000000E+00;  3.9813902E+04;  1.5500675E-01;  0.0000000E+00; -4.6017248E-02;  2.9297363E+04;
  7.8396267E-01;  9.9999998E-03;  2.4069875E-01;7136;  9.7033577E-03;  0.0000000E+00;  3.4146700E-03;  9.9903247E+02;  1.4168152E-01; -8.0155573E+02;3;  3.1664546E+00;  0.0000000E+00;  3.1357646E+00;0;  5.3085126E-02;  2.0004537E+04;  0.0000000E+00; -5.1231670E-01;  4.0000000E+04;  0.0000000E+00;  3.9764184E+04;  6.9660082E-02;  0.0000000E+00; -1.6574958E-02;  1.4667826E+03;
  7.8381556E-01;  9.9999998E-03;  2.5073794E-01;7137;  1.1754829E-02;  0.0000000E+00;  2.2526190E-03;  9.9873914E+02;  1.4163859E-01; -1.0446100E+03;3;  3.1322906E+00;  0.0000000E+00;  2.7815428E+00;0;  6.9562919E-02;  2.0007697E+04;  0.0000000E+00; -3.8225287E-01;  4.0000000E+04;  0.0000000E+00;  3.9754992E+04;  8.8496238E-02;  0.0000000E+00; -1.8933317E-02;  1.0816483E+03;
  7.8358805E-01;  9.9999998E-03;  2.6076183E-01;7138;  1.3814953E-02;  0.0000000E+00;  7.3901762E-04;  9.9845282E+02;  1.4157392E-01; -1.2817880E+03;3;  2.9132540E+00;  0.0000000E+00;  2.4258833E+00;0;  7.9291843E-02;  2.0016270E+04;  0.0000000E+00;  2.5643992E-01;  4.0000000E+04;  0.0000000E+00;  3.9749652E+04;  1.0637261E-01;  0.0000000E+00; -2.7080769E-02;  2.3515454E+03;
  7.8347141E-01;  9.9999998E-03;  2.7077103E-01;7139;  1.6592635E-02;  0.0000000E+00;  4.0618816E-05;  9.9836847E+02;  1.4155322E-01; -1.3517117E+03;3;  3.4825926E+00;  0.0000000E+00;  2.4705296E+00;0;  9.2003785E-02;  2.0014312E+04;  0.0000000E+00;  1.6259922E+00;  4.0000000E+04;  0.0000000E+00;  3.9757117E+04;  1.2284714E-01;  0.0000000E+00; -3.0843357E-02;  6.2501689E+03;
  7.8370970E-01;  9.9999998E-03;  2.8078747E-01;7140;  2.0079553E-02;  0.0000000E+00; -2.2737785E-04;  9.9844250E+02;  1.4165220E-01; -1.2903308E+03;3;  4.6395855E+00;  0.0000000E+00;  2.6755590E+00;0;  1.0910714E-01;  1.9985002E+04;  0.0000000E+00;  3.2642531E+00;  4.0000000E+04;  0.0000000E+00;  3.9764578E+04;  1.3774073E-01;  0.0000000E+00; -2.8633596E-02;  1.1673993E+04;
  7.8396094E-01;  9.9999998E-03;  2.9081175E-01;7141;  2.3886185E-02;  0.0000000E+00; -8.9632423E-04;  9.9845941E+02;  1.4175479E-01; -1.2763560E+03;3;  5.9139295E+00;  0.0000000E+00;  2.8112450E+00;0;  1.1914335E-01;  1.9955391E+04;  0.0000000E+00;  5.3751426E+00;  4.0000000E+04;  0.0000000E+00;  3.9767082E+04;  1.5090458E-01;  0.0000000E+00; -3.1761233E-02;  1.8500805E+04;
  7.8416735E-01;  9.9999998E-03;  3.0083954E-01;7142;  2.8190685E-02;  0.0000000E+00; -1.8320846E-03;  9.9844263E+02;  1.4184007E-01; -1.2902321E+03;3;  7.4122601E+00;  0.0000000E+00;  2.9804685E+00;0;  1.2202394E-01;  1.9931018E+04;  0.0000000E+00;  8.0469055E+00;  4.0000000E+04;  0.0000000E+00;  3.9767098E+04;  1.6207857E-01;  0.0000000E+00; -4.0054638E-02;  2.6747525E+04;
  7.9895556E-01;  9.9999998E-03;  2.4080956E-01;7197;  1.4777317E-02;  0.0000000E+00;  2.1330609E-03;  1.0001771E+03;  1.4756945E-01;  1.4676083E+02;3;  8.4670563E+00;  0.0000000E+00;  5.1811056E+00;0;  5.1591329E-02;  1.8482295E+04;  0.0000000E+00; -5.4032004E-01;  4.0000000E+04;  0.0000000E+00;  3.9727035E+04;  6.1804909E-02;  0.0000000E+00; -1.0213582E-02;  1.7068613E+03;
  7.9897201E-01;  9.9999998E-03;  2.5082985E-01;7198;  1.8857474E-02;  0.0000000E+00;  1.8153038E-03;  1.0000095E+03;  1.4758514E-01;  7.8022251E+00;3;  9.4507399E+00;  0.0000000E+00;  5.0562921E+00;0;  7.6594889E-02;  1.8471287E+04;  0.0000000E+00; -5.5063188E-01;  4.0000000E+04;  0.0000000E+00;  3.9723852E+04;  7.9572290E-02;  0.0000000E+00; -2.9774043E-03;  1.5819088E+03;
  7.9890376E-01;  9.9999998E-03;  2.6086003E-01;7199;  2.2158278E-02;  0.0000000E+00;  3.8143140E-04;  9.9972101E+02;  1.4757426E-01; -2.3115326E+02;3;  1.0151287E+01;  0.0000000E+00;  4.8152065E+00;0;  9.3227878E-02;  1.8466557E+04;  0.0000000E+00; -2.1891357E-01;  4.0000000E+04;  0.0000000E+00;  3.9714605E+04;  9.6653454E-02;  0.0000000E+00; -3.4255772E-03;  2.6225193E+03;
  7.9892617E-01;  9.9999998E-03;  2.7087796E-01;7200;  2.5757551E-02;  0.0000000E+00; -7.6545170E-04;  9.9956573E+02;  1.4760180E-01; -3.5979120E+02;3;  1.0779766E+01;  0.0000000E+00;  4.6280842E+00;0;  1.0779940E-01;  1.8453355E+04;  0.0000000E+00;  6.8402272E-01;  4.0000000E+04;  0.0000000E+00;  3.9714418E+04;  1.1228509E-01;  0.0000000E+00; -4.4856817E-03;  5.2456929E+03;
  7.9918069E-01;  9.9999998E-03;  2.8089681E-01;7201;  3.0185862E-02;  0.0000000E+00; -1.2135415E-03;  9.9953436E+02;  1.4771824E-01; -3.8576572E+02;3;  1.1963416E+01;  0.0000000E+00;  4.5689311E+00;0;  1.2740877E-01;  1.8420506E+04;  0.0000000E+00;  2.0421598E+00;  4.0000000E+04;  0.0000000E+00;  3.9718969E+04;  1.2589039E-01;  0.0000000E+00;  1.5183773E-03;  1.0205382E+04;
  7.9936564E-01;  9.9999998E-03;  2.9092175E-01;7202;  3.4834351E-02;  0.0000000E+00; -1.8438173E-03;  9.9943726E+02;  1.4780827E-01; -4.6620764E+02;3;  1.3089080E+01;  0.0000000E+00;  4.5086040E+00;0;  1.4112993E-01;  1.8392953E+04;  0.0000000E+00;  4.2334747E+00;  4.0000000E+04;  0.0000000E+00;  3.9722031E+04;  1.3778691E-01;  0.0000000E+00;  3.3430182E-03;  1.8030139E+04;
  7.9936117E-01;  9.9999998E-03;  3.0094984E-01;7203;  3.9713807E-02;  0.0000000E+00; -2.6379800E-03;  9.9924774E+02;  1.4782621E-01; -6.2323975E+02;3;  1.4309473E+01;  0.0000000E+00;  4.5211210E+00;0;  1.4719424E-01;  1.8382430E+04;  0.0000000E+00;  7.6168776E+00;  4.0000000E+04;  0.0000000E+00;  3.9723934E+04;  1.4803390E-01;  0.0000000E+00; -8.3966757E-04;  2.9109369E+04;
  8.1358308E-01;  9.9999998E-03;  2.4087419E-01;7258;  1.7067708E-02;  0.0000000E+00; -8.3921949E-04;  1.0000026E+03;  1.5356131E-01;  2.1727703E+00;3;  1.0401574E+01;  0.0000000E+00;  5.6160064E+00;0;  3.4572951E-02;  1.7056201E+04;  0.0000000E+00; -8.4485993E-02;  4.0000000E+04;  0.0000000E+00;  3.9707832E+04;  4.3856807E-02;  0.0000000E+00; -9.2838556E-03;  2.8261044E+02;
  8.1360912E-01;  9.9999998E-03;  2.5088730E-01;7259;  2.2013305E-02;  0.0000000E+00; -4.3124310E-04;  9.9990649E+02;  1.5357794E-01; -7.7479012E+01;3;  1.1791466E+01;  0.0000000E+00;  5.7147360E+00;0;  6.4149305E-02;  1.7045867E+04;  0.0000000E+00;  1.2282716E-02;  4.0000000E+04;  0.0000000E+00;  3.9710836E+04;  5.9869103E-02;  0.0000000E+00;  4.2801988E-03;  6.4650916E+02;
  8.1342334E-01;  9.9999998E-03;  2.6092616E-01;7260;  2.6498003E-02;  0.0000000E+00; -1.2479654E-03;  9.9958899E+02;  1.5351491E-01; -3.4053235E+02;3;  1.2791500E+01;  0.0000000E+00;  5.4896221E+00;0;  8.7898619E-02;  1.7052691E+04;  0.0000000E+00;  3.6691463E-01;  4.0000000E+04;  0.0000000E+00;  3.9700598E+04;  7.5323813E-02;  0.0000000E+00;  1.2574805E-02;  1.9730184E+03;
  8.1323463E-01;  9.9999998E-03;  2.7095547E-01;7261;  3.0809579E-02;  0.0000000E+00; -2.3882072E-03;  9.9932471E+02;  1.5345258E-01; -5.5948834E+02;3;  1.3701086E+01;  0.0000000E+00;  5.1542392E+00;0;  1.0579939E-01;  1.7060266E+04;  0.0000000E+00;  1.1910683E+00;  4.0000000E+04;  0.0000000E+00;  3.9694293E+04;  8.9629300E-02;  0.0000000E+00;  1.6170094E-02;  5.2244595E+03;
  8.1332999E-01;  9.9999998E-03;  2.8098100E-01;7262;  3.5466082E-02;  0.0000000E+00; -3.2261976E-03;  9.9919391E+02;  1.5349887E-01; -6.6783057E+02;3;  1.4680382E+01;  0.0000000E+00;  4.9779186E+00;0;  1.2269475E-01;  1.7045377E+04;  0.0000000E+00;  2.2670107E+00;  4.0000000E+04;  0.0000000E+00;  3.9694383E+04;  1.0196299E-01;  0.0000000E+00;  2.0731760E-02;  9.2253086E+03;
  8.1344199E-01;  9.9999998E-03;  2.9100963E-01;7263;  4.0295716E-02;  0.0000000E+00; -4.0935236E-03;  9.9903705E+02;  1.5355682E-01; -7.9780170E+02;3;  1.5584511E+01;  0.0000000E+00;  4.7308617E+00;0;  1.3381757E-01;  1.7027273E+04;  0.0000000E+00;  3.7511315E+00;  4.0000000E+04;  0.0000000E+00;  3.9695477E+04;  1.1271887E-01;  0.0000000E+00;  2.1098698E-02;  1.4590296E+04;
  8.1345218E-01;  9.9999998E-03;  3.0104086E-01;7264;  4.5411680E-02;  0.0000000E+00; -5.0103785E-03;  9.9878448E+02;  1.5358475E-01; -1.0070296E+03;3;  1.6457346E+01;  0.0000000E+00;  4.4946413E+00;0;  1.3802068E-01;  1.7014141E+04;  0.0000000E+00;  6.1000843E+00;  4.0000000E+04;  0.0000000E+00;  3.9697227E+04;  1.2209307E-01;  0.0000000E+00;  1.5927609E-02;  2.2518189E+04;
  8.2678944E-01;  9.9999998E-03;  2.7101550E-01;7322;  3.2241598E-02;  0.0000000E+00; -6.1083287E-03;  9.9800525E+02;  1.5923472E-01; -1.6525878E+03;3;  1.4567742E+01;  0.0000000E+00;  4.6850872E+00;0;  7.6539144E-02;  1.5802985E+04;  0.0000000E+00;  1.4665582E+00;  4.0000000E+04;  0.0000000E+00;  3.9690012E+04;  6.0437944E-02;  0.0000000E+00;  1.6101204E-02;  3.8062844E+03;
  8.2681739E-01;  9.9999998E-03;  2.8104994E-01;7323;  3.7159197E-02;  0.0000000E+00; -7.1022357E-03;  9.9772205E+02;  1.5926099E-01; -1.8872467E+03;3;  1.5461765E+01;  0.0000000E+00;  4.3947129E+00;0;  8.9369826E-02;  1.5791308E+04;  0.0000000E+00;  1.8821595E+00;  4.0000000E+04;  0.0000000E+00;  3.9686605E+04;  7.1222268E-02;  0.0000000E+00;  1.8147556E-02;  4.7119854E+03;
  8.2692510E-01;  9.9999998E-03;  2.9108435E-01;7324;  4.2303905E-02;  0.0000000E+00; -8.0937035E-03;  9.9744727E+02;  1.5932398E-01; -2.1148936E+03;3;  1.6328455E+01;  0.0000000E+00;  4.1047897E+00;0;  9.6543938E-02;  1.5772175E+04;  0.0000000E+00;  2.4820988E+00;  4.0000000E+04;  0.0000000E+00;  3.9685926E+04;  8.0583222E-02;  0.0000000E+00;  1.5960716E-02;  6.3423018E+03;
  8.2695109E-01;  9.9999998E-03;  2.6097256E-01;7321;  2.7357616E-02;  0.0000000E+00; -5.1902677E-03;  9.9835107E+02;  1.5928540E-01; -1.3660786E+03;3;  1.3507491E+01;  0.0000000E+00;  4.9546843E+00;0;  5.8348291E-02;  1.5798687E+04;  0.0000000E+00;  1.1430143E+00;  4.0000000E+04;  0.0000000E+00;  3.9700508E+04;  4.8046216E-02;  0.0000000E+00;  1.0302075E-02;  3.8554666E+03;
  8.2701236E-01;  9.9999998E-03;  3.0112004E-01;7325;  4.7785360E-02;  0.0000000E+00; -8.9929020E-03;  9.9713062E+02;  1.5938804E-01; -2.3772061E+03;3;  1.7226604E+01;  0.0000000E+00;  3.9854896E+00;0;  9.9599063E-02;  1.5752434E+04;  0.0000000E+00;  3.4776795E+00;  4.0000000E+04;  0.0000000E+00;  3.9686566E+04;  8.8773005E-02;  0.0000000E+00;  1.0826057E-02;  9.2763486E+03;
  8.2718295E-01;  9.9999998E-03;  2.5092292E-01;7320;  2.2393851E-02;  0.0000000E+00; -4.9127936E-03;  9.9867487E+02;  1.5936631E-01; -1.0978406E+03;3;  1.2323041E+01;  0.0000000E+00;  5.1000605E+00;0;  3.3134837E-02;  1.5788472E+04;  0.0000000E+00;  8.7716770E-01;  4.0000000E+04;  0.0000000E+00;  3.9709895E+04;  3.4459192E-02;  0.0000000E+00; -1.3243567E-03;  4.4238584E+03;
  8.2732433E-01;  9.9999998E-03;  2.4090303E-01;7319;  1.7292647E-02;  0.0000000E+00; -5.5393861E-03;  9.9875049E+02;  1.5941395E-01; -1.0351759E+03;3;  1.0964554E+01;  0.0000000E+00;  4.8646049E+00;0;  5.3026481E-03;  1.5784648E+04;  0.0000000E+00;  6.3182282E-01;  4.0000000E+04;  0.0000000E+00;  3.9702336E+04;  2.0175265E-02;  0.0000000E+00; -1.4872617E-02;  3.3831567E+03;
  8.4262455E-01;  9.9999998E-03;  2.8113064E-01;7384;  3.6956526E-02;  0.0000000E+00; -1.3112131E-02;  9.9585327E+02;  1.6595900E-01; -3.4354880E+03;3;  1.5866521E+01;  0.0000000E+00;  3.3860581E+00;0;  3.2914631E-02;  1.4501099E+04;  0.0000000E+00;  7.8084803E-01;  4.0000000E+04;  0.0000000E+00;  3.9682391E+04;  2.9731758E-02;  0.0000000E+00;  3.1828748E-03;  5.0930806E+03;
  8.4278852E-01;  9.9999998E-03;  2.9117173E-01;7385;  4.2299490E-02;  0.0000000E+00; -1.4160312E-02;  9.9547418E+02;  1.6605967E-01; -3.7495515E+03;3;  1.6824020E+01;  0.0000000E+00;  3.2657371E+00;0;  3.4921467E-02;  1.4476658E+04;  0.0000000E+00;  3.4092475E-02;  4.0000000E+04;  0.0000000E+00;  3.9679516E+04;  3.7038896E-02;  0.0000000E+00; -2.1174294E-03;  8.1319292E+03;
  8.4281588E-01;  9.9999998E-03;  3.0121142E-01;7386;  4.8173357E-02;  0.0000000E+00; -1.4986176E-02;  9.9510046E+02;  1.6612552E-01; -4.0591707E+03;3;  1.7811832E+01;  0.0000000E+00;  3.2029295E+00;0;  3.6062468E-02;  1.4459261E+04;  0.0000000E+00; -6.1504948E-01;  4.0000000E+04;  0.0000000E+00;  3.9679199E+04;  4.4024095E-02;  0.0000000E+00; -7.9616280E-03;  1.1491810E+04;
  8.4246832E-01;  9.9999998E-03;  2.7108580E-01;7383;  3.1842910E-02;  0.0000000E+00; -1.2048655E-02;  9.9625970E+02;  1.6587673E-01; -3.0987590E+03;3;  1.4858055E+01;  0.0000000E+00;  3.5878336E+00;0;  2.5801811E-02;  1.4522858E+04;  0.0000000E+00;  1.3749723E+00;  4.0000000E+04;  0.0000000E+00;  3.9689684E+04;  2.1542028E-02;  0.0000000E+00;  4.2597838E-03;  5.0020737E+03;
  8.4258842E-01;  9.9999998E-03;  2.6103169E-01;7382;  2.6801791E-02;  0.0000000E+00; -1.1268393E-02;  9.9669269E+02;  1.6590746E-01; -2.7400059E+03;3;  1.3806755E+01;  0.0000000E+00;  3.8050556E+00;0;  1.1351913E-02;  1.4523382E+04;  0.0000000E+00;  1.6231872E+00;  4.0000000E+04;  0.0000000E+00;  3.9701574E+04;  1.1755355E-02;  0.0000000E+00; -4.0344195E-04;  7.1217261E+03;
  8.4274679E-01;  9.9999998E-03;  2.5097615E-01;7381;  2.1650895E-02;  0.0000000E+00; -1.1357602E-02;  9.9701410E+02;  1.6595979E-01; -2.4737429E+03;3;  1.2553125E+01;  0.0000000E+00;  3.7479300E+00;0; -1.1399623E-02;  1.4520013E+04;  0.0000000E+00;  1.4800442E+00;  4.0000000E+04;  0.0000000E+00;  3.9706266E+04;  9.8262902E-04;  0.0000000E+00; -1.2382252E-02;  8.0281597E+03;
  8.4275758E-01;  9.9999998E-03;  2.4095663E-01;7380;  1.6495338E-02;  0.0000000E+00; -1.1956680E-02;  9.9706689E+02;  1.6596048E-01; -2.4299915E+03;3;  1.0989058E+01;  0.0000000E+00;  3.2632134E+00;0; -3.4167945E-02;  1.4525352E+04;  0.0000000E+00;  1.1026822E+00;  4.0000000E+04;  0.0000000E+00;  3.9691906E+04; -1.0273768E-02;  0.0000000E+00; -2.3894178E-02;  6.3535942E+03;
  8.5920322E-01;  9.9999998E-03;  2.4105640E-01;7441;  1.5340627E-02;  0.0000000E+00; -1.9121848E-02;  9.9566632E+02;  1.7338479E-01; -3.5903416E+03;3;  1.0722815E+01;  0.0000000E+00;  1.4761164E+00;0; -7.3912576E-02;  1.3292399E+04;  0.0000000E+00;  6.4785367E-01;  4.0000000E+04;  0.0000000E+00;  3.9670043E+04; -4.1659944E-02;  0.0000000E+00; -3.2252628E-02;  7.0693423E+03;
  8.5906082E-01;  9.9999998E-03;  2.5107393E-01;7442;  2.0308098E-02;  0.0000000E+00; -1.8820921E-02;  9.9561383E+02;  1.7334791E-01; -3.6338462E+03;3;  1.2410408E+01;  0.0000000E+00;  1.8276836E+00;0; -5.7595763E-02;  1.3293808E+04;  0.0000000E+00;  1.0878249E+00;  4.0000000E+04;  0.0000000E+00;  3.9688375E+04; -3.3509266E-02;  0.0000000E+00; -2.4086498E-02;  9.1079004E+03;
  8.5898942E-01;  9.9999998E-03;  2.6112396E-01;7443;  2.5443777E-02;  0.0000000E+00; -1.8567801E-02;  9.9531213E+02;  1.7334847E-01; -3.8837632E+03;3;  1.3873175E+01;  0.0000000E+00;  2.2149687E+00;0; -3.9460190E-02;  1.3288556E+04;  0.0000000E+00;  1.1110725E+00;  4.0000000E+04;  0.0000000E+00;  3.9691758E+04; -2.6055405E-02;  0.0000000E+00; -1.3404787E-02;  9.1523613E+03;
  8.5912544E-01;  9.9999998E-03;  2.7118304E-01;7444;  3.0517036E-02;  0.0000000E+00; -1.9171184E-02;  9.9480054E+02;  1.7344528E-01; -4.3076494E+03;3;  1.5002953E+01;  0.0000000E+00;  2.1371999E+00;0; -2.8834101E-02;  1.3267007E+04;  0.0000000E+00;  5.6274271E-01;  4.0000000E+04;  0.0000000E+00;  3.9682633E+04; -1.9805158E-02;  0.0000000E+00; -9.0289423E-03;  9.0327900E+03;
  8.5928732E-01;  9.9999998E-03;  2.8123450E-01;7445;  3.5648998E-02;  0.0000000E+00; -2.0163652E-02;  9.9429773E+02;  1.7356208E-01; -4.7241777E+03;3;  1.6058887E+01;  0.0000000E+00;  1.9996793E+00;0; -2.6462957E-02;  1.3242043E+04;  0.0000000E+00; -4.8604593E-01;  4.0000000E+04;  0.0000000E+00;  3.9673691E+04; -1.4312538E-02;  0.0000000E+00; -1.2150419E-02;  1.2895767E+04;
  8.5922456E-01;  9.9999998E-03;  2.9127952E-01;7446;  4.1031338E-02;  0.0000000E+00; -2.1112762E-02;  9.9387653E+02;  1.7359343E-01; -5.0731528E+03;3;  1.7037680E+01;  0.0000000E+00;  1.9611486E+00;0; -2.8758559E-02;  1.3231760E+04;  0.0000000E+00; -2.1183846E+00;  4.0000000E+04;  0.0000000E+00;  3.9668426E+04; -8.7344982E-03;  0.0000000E+00; -2.0024061E-02;  2.0485062E+04;
  8.5904378E-01;  9.9999998E-03;  3.0132183E-01;7447;  4.6945047E-02;  0.0000000E+00; -2.1842368E-02;  9.9349933E+02;  1.7358759E-01; -5.3856357E+03;3;  1.8054522E+01;  0.0000000E+00;  2.0150945E+00;0; -3.0752894E-02;  1.3228503E+04;  0.0000000E+00; -4.1099019E+00;  4.0000000E+04;  0.0000000E+00;  3.9666648E+04; -3.0329165E-03;  0.0000000E+00; -2.7719976E-02;  2.9565838E+04;
  8.7769115E-01;  9.9999998E-03;  2.4122779E-01;7502;  1.3963132E-02;  0.0000000E+00; -2.7714478E-02;  9.9439288E+02;  1.8205209E-01; -4.6453550E+03;3;  1.0994885E+01;  0.0000000E+00;  8.8991567E-02;0; -1.0797967E-01;  1.2055619E+04;  0.0000000E+00; -3.2613689E-01;  4.0000000E+04;  0.0000000E+00;  3.9626430E+04; -6.7223698E-02;  0.0000000E+00; -4.0755969E-02;  5.2975864E+03;
  8.7746829E-01;  9.9999998E-03;  2.5122684E-01;7503;  1.8788062E-02;  0.0000000E+00; -2.7576998E-02;  9.9437177E+02;  1.8198480E-01; -4.6628359E+03;3;  1.2401298E+01;  0.0000000E+00;  1.5557684E-01;0; -9.8183542E-02;  1.2061692E+04;  0.0000000E+00;  1.3070063E-01;  4.0000000E+04;  0.0000000E+00;  3.9651016E+04; -6.4000808E-02;  0.0000000E+00; -3.4182731E-02;  8.3332285E+03;
  8.7766457E-01;  9.9999998E-03;  2.6126009E-01;7504;  2.3687059E-02;  0.0000000E+00; -2.7333761E-02;  9.9413605E+02;  1.8213096E-01; -4.8581372E+03;3;  1.3825683E+01;  0.0000000E+00;  2.0993964E-01;0; -8.5919842E-02;  1.2037738E+04;  0.0000000E+00;  2.2011586E-01;  4.0000000E+04;  0.0000000E+00;  3.9666914E+04; -6.1518978E-02;  0.0000000E+00; -2.4400866E-02;  1.0739739E+04;
  8.7802249E-01;  9.9999998E-03;  2.7131549E-01;7505;  2.8638925E-02;  0.0000000E+00; -2.7672857E-02;  9.9365906E+02;  1.8236822E-01; -5.2532822E+03;3;  1.5098245E+01;  0.0000000E+00;  2.3449147E-01;0; -7.8292161E-02;  1.2000834E+04;  0.0000000E+00; -1.6592303E-02;  4.0000000E+04;  0.0000000E+00;  3.9664852E+04; -5.9708778E-02;  0.0000000E+00; -1.8583382E-02;  1.2571242E+04;
  8.7802941E-01;  9.9999998E-03;  2.8136840E-01;7506;  3.3670399E-02;  0.0000000E+00; -2.8343730E-02;  9.9317316E+02;  1.8244183E-01; -5.6558350E+03;3;  1.6222416E+01;  0.0000000E+00;  2.6020586E-01;0; -7.8471057E-02;  1.1986021E+04;  0.0000000E+00; -7.9526085E-01;  4.0000000E+04;  0.0000000E+00;  3.9656844E+04; -5.7627287E-02;  0.0000000E+00; -2.0843770E-02;  1.6915438E+04;
  8.7777084E-01;  9.9999998E-03;  2.9141563E-01;7507;  3.8871422E-02;  0.0000000E+00; -2.9057452E-02;  9.9273938E+02;  1.8239330E-01; -6.0152290E+03;3;  1.7227707E+01;  0.0000000E+00;  3.3051229E-01;0; -8.4158957E-02;  1.1988209E+04;  0.0000000E+00; -2.4020092E+00;  4.0000000E+04;  0.0000000E+00;  3.9650359E+04; -5.5053234E-02;  0.0000000E+00; -2.9105725E-02;  2.5273014E+04;
  8.7736624E-01;  9.9999998E-03;  3.0145961E-01;7508;  4.4477258E-02;  0.0000000E+00; -2.9628431E-02;  9.9235059E+02;  1.8228218E-01; -6.3373403E+03;3;  1.8187252E+01;  0.0000000E+00;  4.3603754E-01;0; -9.0248443E-02;  1.1999486E+04;  0.0000000E+00; -4.7800026E+00;  4.0000000E+04;  0.0000000E+00;  3.9646949E+04; -5.1861785E-02;  0.0000000E+00; -3.8386658E-02;  3.6485781E+04;
  8.9624065E-01;  9.9999998E-03;  2.4139801E-01;7563;  1.2339122E-02;  0.0000000E+00; -3.6499843E-02;  9.9392010E+02;  1.9113550E-01; -5.0370283E+03;3;  1.1558311E+01;  0.0000000E+00; -1.2895763E+00;0; -1.0878826E-01;  1.0949560E+04;  0.0000000E+00; -5.9265429E-01;  4.0000000E+04;  0.0000000E+00;  3.9583066E+04; -6.2053915E-02;  0.0000000E+00; -4.6734344E-02;  4.1385635E+03;
  8.9614546E-01;  9.9999998E-03;  2.5140461E-01;7564;  1.7141553E-02;  0.0000000E+00; -3.6720995E-02;  9.9386243E+02;  1.9115157E-01; -5.0847798E+03;3;  1.2912517E+01;  0.0000000E+00; -1.2545238E+00;0; -1.0910840E-01;  1.0947418E+04;  0.0000000E+00; -2.6425257E-01;  4.0000000E+04;  0.0000000E+00;  3.9603621E+04; -6.8046816E-02;  0.0000000E+00; -4.1061584E-02;  6.7986094E+03;
  8.9661980E-01;  9.9999998E-03;  2.6142961E-01;7565;  2.1898003E-02;  0.0000000E+00; -3.6709975E-02;  9.9366248E+02;  1.9144367E-01; -5.2504517E+03;3;  1.4273327E+01;  0.0000000E+00; -1.2439121E+00;0; -1.0592404E-01;  1.0910794E+04;  0.0000000E+00; -2.5124192E-01;  4.0000000E+04;  0.0000000E+00;  3.9623578E+04; -7.3118560E-02;  0.0000000E+00; -3.2805484E-02;  1.0237818E+04;
  8.9702296E-01;  9.9999998E-03;  2.7147287E-01;7566;  2.6639963E-02;  0.0000000E+00; -3.6694679E-02;  9.9330756E+02;  1.9169584E-01; -5.5445132E+03;3;  1.5502822E+01;  0.0000000E+00; -1.2860698E+00;0; -1.0305794E-01;  1.0877212E+04;  0.0000000E+00; -5.5655396E-01;  4.0000000E+04;  0.0000000E+00;  3.9631379E+04; -7.8220993E-02;  0.0000000E+00; -2.4836943E-02;  1.3946171E+04;
  8.9715737E-01;  9.9999998E-03;  2.8152168E-01;7567;  3.1380635E-02;  0.0000000E+00; -3.6936823E-02;  9.9286206E+02;  1.9182776E-01; -5.9135845E+03;3;  1.6642517E+01;  0.0000000E+00; -1.2950374E+00;0; -1.0617264E-01;  1.0857424E+04;  0.0000000E+00; -1.3333193E+00;  4.0000000E+04;  0.0000000E+00;  3.9629891E+04; -8.3122909E-02;  0.0000000E+00; -2.3049735E-02;  1.9518033E+04;
  8.9692128E-01;  9.9999998E-03;  2.9156938E-01;7568;  3.6193900E-02;  0.0000000E+00; -3.7294760E-02;  9.9241125E+02;  1.9179140E-01; -6.2870508E+03;3;  1.7662657E+01;  0.0000000E+00; -1.2396632E+00;0; -1.1581672E-01;  1.0857575E+04;  0.0000000E+00; -2.8961892E+00;  4.0000000E+04;  0.0000000E+00;  3.9624520E+04; -8.7267384E-02;  0.0000000E+00; -2.8549336E-02;  2.8644457E+04;
  8.9646608E-01;  9.9999998E-03;  3.0161530E-01;7569;  4.1284651E-02;  0.0000000E+00; -3.7566230E-02;  9.9199457E+02;  1.9165577E-01; -6.6322715E+03;3;  1.8595600E+01;  0.0000000E+00; -1.1495690E+00;0; -1.2670036E-01;  1.0869817E+04;  0.0000000E+00; -5.2639694E+00;  4.0000000E+04;  0.0000000E+00;  3.9619680E+04; -9.0168335E-02;  0.0000000E+00; -3.6532018E-02;  4.0945812E+04;
  9.1694641E-01;  9.9999998E-03;  2.4158831E-01;7624;  1.0415670E-02;  0.0000000E+00; -4.6686769E-02;  9.9365192E+02;  2.0114809E-01; -5.2591680E+03;3;  1.2256587E+01;  0.0000000E+00; -3.0896347E+00;0; -1.9401550E-02;  9.8964463E+03;  0.0000000E+00; -6.2197512E-01;  4.0000000E+04;  0.0000000E+00;  3.9538059E+04;  3.4206714E-02;  0.0000000E+00; -5.3608265E-02;  3.0955486E+03;
  9.1692322E-01;  9.9999998E-03;  2.5160417E-01;7625;  1.5127957E-02;  0.0000000E+00; -4.7302790E-02;  9.9348712E+02;  2.0122060E-01; -5.3957046E+03;3;  1.3551214E+01;  0.0000000E+00; -3.1117003E+00;0; -3.9680541E-02;  9.8887793E+03;  0.0000000E+00; -4.0956753E-01;  4.0000000E+04;  0.0000000E+00;  3.9553734E+04;  9.1554271E-03;  0.0000000E+00; -4.8835967E-02;  5.2128564E+03;
  9.1725528E-01;  9.9999998E-03;  2.6162323E-01;7626;  1.9805953E-02;  0.0000000E+00; -4.7474239E-02;  9.9329407E+02;  2.0146233E-01; -5.5556479E+03;3;  1.4845865E+01;  0.0000000E+00; -3.1022718E+00;0; -5.5101641E-02;  9.8620771E+03;  0.0000000E+00; -3.1741014E-01;  4.0000000E+04;  0.0000000E+00;  3.9574152E+04; -1.1513336E-02;  0.0000000E+00; -4.3588307E-02;  8.1721953E+03;
  9.1759527E-01;  9.9999998E-03;  2.7165416E-01;7627;  2.4424478E-02;  0.0000000E+00; -4.7118850E-02;  9.9299084E+02;  2.0169836E-01; -5.8068457E+03;3;  1.6159319E+01;  0.0000000E+00; -2.9678278E+00;0; -6.6234007E-02;  9.8336230E+03;  0.0000000E+00; -3.6710849E-01;  4.0000000E+04;  0.0000000E+00;  3.9589512E+04; -3.0723147E-02;  0.0000000E+00; -3.5510857E-02;  1.0937466E+04;
  9.1775131E-01;  9.9999998E-03;  2.8169331E-01;7628;  2.8766224E-02;  0.0000000E+00; -4.6521746E-02;  9.9256970E+02;  2.0185064E-01; -6.1557676E+03;3;  1.7297247E+01;  0.0000000E+00; -2.8702991E+00;0; -7.5948685E-02;  9.8124902E+03;  0.0000000E+00; -5.4751295E-01;  4.0000000E+04;  0.0000000E+00;  3.9597684E+04; -4.9501371E-02;  0.0000000E+00; -2.6447318E-02;  1.3346586E+04;
  9.1758299E-01;  9.9999998E-03;  2.9173660E-01;7629;  3.2697730E-02;  0.0000000E+00; -4.5880534E-02;  9.9205731E+02;  2.0185196E-01; -6.5802422E+03;3;  1.8240454E+01;  0.0000000E+00; -2.9285693E+00;0; -8.7856807E-02;  9.8060986E+03;  0.0000000E+00; -9.2037565E-01;  4.0000000E+04;  0.0000000E+00;  3.9598953E+04; -6.8048514E-02;  0.0000000E+00; -1.9808292E-02;  1.5894207E+04;
  9.1720492E-01;  9.9999998E-03;  3.0178279E-01;7630;  3.6426112E-02;  0.0000000E+00; -4.5389161E-02;  9.9150763E+02;  2.0175603E-01; -7.0356299E+03;3;  1.9092144E+01;  0.0000000E+00; -2.8522091E+00;0; -1.0377713E-01;  9.8095059E+03;  0.0000000E+00; -1.5377524E+00;  4.0000000E+04;  0.0000000E+00;  3.9595785E+04; -8.5301094E-02;  0.0000000E+00; -1.8476035E-02;  1.9143107E+04;
  9.3944395E-01;  9.9999998E-03;  2.4178152E-01;7685;  8.4841708E-03;  0.0000000E+00; -5.7665311E-02;  9.9459943E+02;  2.1143652E-01; -4.4741851E+03;3;  1.3051373E+01;  0.0000000E+00; -5.5146546E+00;0;  2.8618732E-01;  8.9818711E+03;  0.0000000E+00; -2.4809322E-01;  4.0000000E+04;  0.0000000E+00;  3.9499066E+04;  3.5353920E-01;  0.0000000E+00; -6.7351885E-02;  2.6717664E+03;
  9.3918234E-01;  9.9999998E-03;  2.5180620E-01;7686;  1.3031861E-02;  0.0000000E+00; -5.8506146E-02;  9.9413770E+02;  2.1141471E-01; -4.8566841E+03;3;  1.4461961E+01;  0.0000000E+00; -5.4382157E+00;0;  2.2473705E-01;  8.9790498E+03;  0.0000000E+00; -4.5707119E-01;  4.0000000E+04;  0.0000000E+00;  3.9509172E+04;  2.8931233E-01;  0.0000000E+00; -6.4575292E-02;  4.0080806E+03;
  9.3944287E-01;  9.9999998E-03;  2.6182246E-01;7687;  1.7456355E-02;  0.0000000E+00; -5.8918137E-02;  9.9376270E+02;  2.1160710E-01; -5.1673828E+03;3;  1.5613528E+01;  0.0000000E+00; -5.4438629E+00;0;  1.7570929E-01;  8.9563457E+03;  0.0000000E+00; -5.2021289E-01;  4.0000000E+04;  0.0000000E+00;  3.9527684E+04;  2.4022824E-01;  0.0000000E+00; -6.4518943E-02;  6.3967231E+03;
  9.3987131E-01;  9.9999998E-03;  2.7184477E-01;7688;  2.1774642E-02;  0.0000000E+00; -5.8374826E-02;  9.9335303E+02;  2.1186346E-01; -5.5067720E+03;3;  1.6793932E+01;  0.0000000E+00; -5.1878271E+00;0;  1.3793632E-01;  8.9264658E+03;  0.0000000E+00; -3.5147101E-01;  4.0000000E+04;  0.0000000E+00;  3.9547844E+04;  1.9785170E-01;  0.0000000E+00; -5.9915375E-02;  9.5367471E+03;
  9.4015241E-01;  9.9999998E-03;  2.8187263E-01;7689;  2.5530729E-02;  0.0000000E+00; -5.6277607E-02;  9.9284753E+02;  2.1205808E-01; -5.9255146E+03;3;  1.7798771E+01;  0.0000000E+00; -4.9324164E+00;0;  1.2010621E-01;  8.9002422E+03;  0.0000000E+00;  2.9499662E-01;  4.0000000E+04;  0.0000000E+00;  3.9566852E+04;  1.5651397E-01;  0.0000000E+00; -3.6407769E-02;  1.4570300E+04;
  9.4024128E-01;  9.9999998E-03;  2.9191142E-01;7690;  2.8215997E-02;  0.0000000E+00; -5.1890094E-02;  9.9218207E+02;  2.1216837E-01; -6.4768438E+03;3;  1.8454439E+01;  0.0000000E+00; -3.5297320E+00;0;  1.4218900E-01;  8.8806465E+03;  0.0000000E+00;  1.5491971E+00;  4.0000000E+04;  0.0000000E+00;  3.9576234E+04;  1.1578115E-01;  0.0000000E+00;  2.6407842E-02;  2.1945320E+04;
  9.4024825E-01;  9.9999998E-03;  3.0196056E-01;7691;  3.0066544E-02;  0.0000000E+00; -4.8060078E-02;  9.9139404E+02;  2.1223809E-01; -7.1296982E+03;3;  1.9492395E+01;  0.0000000E+00; -3.9181335E+00;0;  1.6271058E-01;  8.8650254E+03;  0.0000000E+00;  3.2168376E+00;  4.0000000E+04;  0.0000000E+00;  3.9573629E+04;  7.7278718E-02;  0.0000000E+00;  8.5431859E-02;  3.1044867E+04;
  9.6339637E-01;  9.9999998E-03;  2.4194670E-01;7746;  6.5165921E-03;  0.0000000E+00; -6.9067352E-02;  9.9574768E+02;  2.2017309E-01; -3.5228401E+03;3;  1.3673748E+01;  0.0000000E+00; -8.8963079E+00;0;  9.8144084E-01;  8.3032197E+03;  0.0000000E+00;  5.4935014E-01;  4.0000000E+04;  0.0000000E+00;  3.9475234E+04;  1.0896703E+00;  0.0000000E+00; -1.0822947E-01;  3.9130894E+03;
  9.6308964E-01;  9.9999998E-03;  2.5198334E-01;7747;  1.0717264E-02;  0.0000000E+00; -7.0068620E-02;  9.9491425E+02;  2.2016744E-01; -4.2133159E+03;3;  1.5554152E+01;  0.0000000E+00; -8.7647963E+00;0;  8.5651720E-01;  8.2936348E+03;  0.0000000E+00; -3.0735523E-01;  4.0000000E+04;  0.0000000E+00;  3.9480035E+04;  9.7027981E-01;  0.0000000E+00; -1.1376265E-01;  4.1510732E+03;
  9.6330518E-01;  9.9999998E-03;  2.6199463E-01;7748;  1.4775596E-02;  0.0000000E+00; -7.0268326E-02;  9.9426215E+02;  2.2030610E-01; -4.7535283E+03;3;  1.7086338E+01;  0.0000000E+00; -8.3519640E+00;0;  7.5768197E-01;  8.2717012E+03;  0.0000000E+00; -9.0316904E-01;  4.0000000E+04;  0.0000000E+00;  3.9500926E+04;  8.8043159E-01;  0.0000000E+00; -1.2274960E-01;  7.1922397E+03;
  9.6387076E-01;  9.9999998E-03;  2.7200359E-01;7749;  1.8445211E-02;  0.0000000E+00; -6.8223611E-02;  9.9379510E+02;  2.2053660E-01; -5.1404653E+03;3;  1.7900799E+01;  0.0000000E+00; -8.3076191E+00;0;  6.9784802E-01;  8.2428359E+03;  0.0000000E+00; -1.1070038E+00;  4.0000000E+04;  0.0000000E+00;  3.9533629E+04;  8.1090176E-01;  0.0000000E+00; -1.1305372E-01;  1.3600013E+04;
  9.6438342E-01;  9.9999998E-03;  2.8202534E-01;7750;  2.0981407E-02;  0.0000000E+00; -5.9095465E-02;  9.9325964E+02;  2.2074187E-01; -5.5840410E+03;3;  1.8389177E+01;  0.0000000E+00; -5.4843397E+00;0;  7.4792254E-01;  8.2152246E+03;  0.0000000E+00; -7.0212996E-01;  4.0000000E+04;  0.0000000E+00;  3.9563238E+04;  7.4658328E-01;  0.0000000E+00;  1.3392725E-03;  2.3572062E+04;
  9.6490282E-01;  9.9999998E-03;  2.9207361E-01;7751;  2.2582784E-02;  0.0000000E+00; -4.4798069E-02;  9.9240100E+02;  2.2094774E-01; -6.2954019E+03;3;  1.7830816E+01;  0.0000000E+00; -1.1783226E+00;0;  9.1933060E-01;  8.1883672E+03;  0.0000000E+00;  2.9375267E-01;  4.0000000E+04;  0.0000000E+00;  3.9566254E+04;  6.8927938E-01;  0.0000000E+00;  2.3005119E-01;  3.5412430E+04;
  9.6542895E-01;  9.9999998E-03;  3.0213365E-01;7752;  2.4052497E-02;  0.0000000E+00; -4.1229196E-02;  9.9143958E+02;  2.2114877E-01; -7.0918921E+03;3;  2.0191721E+01;  0.0000000E+00; -5.7138567E+00;0;  9.3554044E-01;  8.1633491E+03;  0.0000000E+00;  1.4574072E+00;  4.0000000E+04;  0.0000000E+00;  3.9554266E+04;  6.3816094E-01;  0.0000000E+00;  2.9737946E-01;  4.7076254E+04;
  9.8731393E-01;  9.9999998E-03;  2.4206248E-01;7807;  3.8714651E-03;  0.0000000E+00; -8.0375925E-02;  9.9467218E+02;  2.2496365E-01; -4.4137803E+03;3;  1.4723067E+01;  0.0000000E+00; -1.2228087E+01;0;  2.1386063E+00;  7.9344009E+03;  0.0000000E+00;  1.1031202E+00;  4.0000000E+04;  0.0000000E+00;  3.9465992E+04;  2.3429160E+00;  0.0000000E+00; -2.0430967E-01;  6.7828901E+03;
  9.8738569E-01;  9.9999998E-03;  2.5211233E-01;7808;  7.4800076E-03;  0.0000000E+00; -8.1463017E-02;  9.9367151E+02;  2.2504091E-01; -5.2427520E+03;3;  1.8324854E+01;  0.0000000E+00; -1.2350516E+01;0;  1.9602110E+00;  7.9160132E+03;  0.0000000E+00; -8.5025758E-02;  4.0000000E+04;  0.0000000E+00;  3.9468059E+04;  2.1966288E+00;  0.0000000E+00; -2.3641779E-01;  5.5708066E+03;
  9.8773289E-01;  9.9999998E-03;  2.6212192E-01;7809;  1.0955643E-02;  0.0000000E+00; -8.1281990E-02;  9.9290186E+02;  2.2514816E-01; -5.8803799E+03;3;  2.0287519E+01;  0.0000000E+00; -1.4214804E+01;0;  1.8076229E+00;  7.8941606E+03;  0.0000000E+00; -1.3028413E+00;  4.0000000E+04;  0.0000000E+00;  3.9492547E+04;  2.0786431E+00;  0.0000000E+00; -2.7102020E-01;  8.4763271E+03;
  9.8845869E-01;  9.9999998E-03;  2.7211964E-01;7810;  1.3476124E-02;  0.0000000E+00; -7.6537043E-02;  9.9248059E+02;  2.2530095E-01; -6.2293857E+03;3;  2.1079981E+01;  0.0000000E+00; -1.5460796E+01;0;  1.7352493E+00;  7.8697861E+03;  0.0000000E+00; -2.4388256E+00;  4.0000000E+04;  0.0000000E+00;  3.9539473E+04;  1.9951640E+00;  0.0000000E+00; -2.5991479E-01;  1.4793966E+04;
  9.8908228E-01;  9.9999998E-03;  2.8213951E-01;7811;  1.3944646E-02;  0.0000000E+00; -6.0200647E-02;  9.9195477E+02;  2.2543569E-01; -6.6650029E+03;3;  1.6863110E+01;  0.0000000E+00; -3.1257210E+00;0;  1.8526435E+00;  7.8468306E+03;  0.0000000E+00; -3.3079579E+00;  4.0000000E+04;  0.0000000E+00;  3.9577367E+04;  1.9178461E+00;  0.0000000E+00; -6.5202601E-02;  2.1050361E+04;
  9.8979408E-01;  9.9999998E-03;  2.9219761E-01;7812;  1.3315002E-02;  0.0000000E+00; -4.0304966E-02;  9.9090900E+02;  2.2558787E-01; -7.5313506E+03;3;  1.7155684E+01;  0.0000000E+00; -4.5282598E+00;0;  2.1176941E+00;  7.8232588E+03;  0.0000000E+00; -3.8997936E+00;  4.0000000E+04;  0.0000000E+00;  3.9573574E+04;  1.8581785E+00;  0.0000000E+00;  2.5951564E-01;  2.3961844E+04;
  9.9050671E-01;  9.9999998E-03;  3.0226347E-01;7813;  1.4368666E-02;  0.0000000E+00; -4.1590426E-02;  9.8971362E+02;  2.2574726E-01; -8.5216367E+03;3;  2.1903252E+01;  0.0000000E+00; -1.4096711E+01;0;  2.0615633E+00;  7.8003872E+03;  0.0000000E+00; -4.3682995E+00;  4.0000000E+04;  0.0000000E+00;  3.9557055E+04;  1.8083690E+00;  0.0000000E+00;  2.5319412E-01;  2.5900941E+04;
  1.0109198E+00;  9.9999998E-03;  2.4216735E-01;7868; -2.1540567E-03;  0.0000000E+00; -8.3849899E-02;  9.9275818E+02;  2.2624020E-01; -5.9993081E+03;3;  1.7823183E+01;  0.0000000E+00; -3.3166096E+01;0;  3.6813197E+00;  7.8156211E+03;  0.0000000E+00;  7.3798728E-01;  4.0000000E+04;  0.0000000E+00;  3.9449508E+04;  4.0144296E+00;  0.0000000E+00; -3.3310983E-01;  7.0925498E+03;
  1.0113058E+00;  9.9999998E-03;  2.5223461E-01;7869;  6.5580889E-04;  0.0000000E+00; -8.6652569E-02;  9.9164612E+02;  2.2629628E-01; -6.9205474E+03;3;  2.2167454E+01;  0.0000000E+00; -3.2891796E+01;0;  3.4737163E+00;  7.7978110E+03;  0.0000000E+00; -2.0371725E-01;  4.0000000E+04;  0.0000000E+00;  3.9442027E+04;  3.8876667E+00;  0.0000000E+00; -4.1395035E-01;  4.5638813E+03;
  1.0116978E+00;  9.9999998E-03;  2.6226324E-01;7870;  3.6767086E-03;  0.0000000E+00; -8.9921787E-02;  9.9065826E+02;  2.2635619E-01; -7.7388823E+03;3;  2.6033340E+01;  0.0000000E+00; -3.1658155E+01;0;  3.2486131E+00;  7.7791499E+03;  0.0000000E+00; -1.4419436E+00;  4.0000000E+04;  0.0000000E+00;  3.9449543E+04;  3.7715194E+00;  0.0000000E+00; -5.2290624E-01;  4.1574336E+03;
  1.0122064E+00;  9.9999998E-03;  2.7226362E-01;7871;  5.8560809E-03;  0.0000000E+00; -9.0225428E-02;  9.9002942E+02;  2.2641918E-01; -8.2598643E+03;3;  2.8613647E+01;  0.0000000E+00; -2.8445045E+01;0;  3.0560756E+00;  7.7598296E+03;  0.0000000E+00; -2.8303640E+00;  4.0000000E+04;  0.0000000E+00;  3.9485941E+04;  3.6764503E+00;  0.0000000E+00; -6.2037462E-01;  8.8512861E+03;
  1.0126785E+00;  9.9999998E-03;  2.8226620E-01;7872;  6.1401213E-03;  0.0000000E+00; -8.4370732E-02;  9.8958826E+02;  2.2648241E-01; -8.6253037E+03;3;  2.8670580E+01;  0.0000000E+00; -2.2649090E+01;0;  2.9695024E+00;  7.7408638E+03;  0.0000000E+00; -4.1261783E+00;  4.0000000E+04;  0.0000000E+00;  3.9536031E+04;  3.5927005E+00;  0.0000000E+00; -6.2319791E-01;  1.5272124E+04;
  1.0134010E+00;  9.9999998E-03;  2.9229376E-01;7873;  2.5759111E-03;  0.0000000E+00; -6.8367973E-02;  9.8899530E+02;  2.2656408E-01; -9.1165068E+03;3;  2.1314518E+01;  0.0000000E+00; -1.1517861E+01;0;  3.1275535E+00;  7.7220781E+03;  0.0000000E+00; -5.3881783E+00;  4.0000000E+04;  0.0000000E+00;  3.9570004E+04;  3.5462797E+00;  0.0000000E+00; -4.1872633E-01;  1.9766107E+04;
  1.0141376E+00;  9.9999998E-03;  3.0234328E-01;7874; -3.3141747E-03;  0.0000000E+00; -4.6275325E-02;  9.8804376E+02;  2.2666202E-01; -9.9047637E+03;3;  2.5356619E+01;  0.0000000E+00; -1.4951518E+00;0;  3.4737051E+00;  7.7032104E+03;  0.0000000E+00; -6.5059123E+00;  4.0000000E+04;  0.0000000E+00;  3.9578285E+04;  3.5193937E+00;  0.0000000E+00; -4.5688562E-02;  2.1311494E+04;
  1.0326433E+00;  9.9999998E-03;  2.4219866E-01;7929;  1.2764473E-01;  0.0000000E+00; -5.3470902E-02;  9.9283295E+02;  2.2545333E-01; -5.9371772E+03;3; -1.2233273E+02;  0.0000000E+00; -5.8400208E+01;0;  5.1405978E+00;  7.8712251E+03;  0.0000000E+00; -2.6663566E-01;  4.0000000E+04;  0.0000000E+00;  3.9440117E+04;  5.4984770E+00;  0.0000000E+00; -3.5787904E-01;  4.6260747E+03;
  1.0331060E+00;  9.9999998E-03;  2.5227275E-01;7930;  1.0563804E-01;  0.0000000E+00; -5.7980012E-02;  9.9175879E+02;  2.2548264E-01; -6.8270361E+03;3; -1.2605787E+02;  0.0000000E+00; -5.6191975E+01;0;  4.9970388E+00;  7.8549766E+03;  0.0000000E+00; -7.0951253E-01;  4.0000000E+04;  0.0000000E+00;  3.9433555E+04;  5.4341621E+00;  0.0000000E+00; -4.3712312E-01;  3.2287810E+03;
  1.0334074E+00;  9.9999998E-03;  2.6232666E-01;7931;  7.6617576E-02;  0.0000000E+00; -6.4443685E-02;  9.9063422E+02;  2.2551636E-01; -7.7586187E+03;3; -1.2969394E+02;  0.0000000E+00; -5.2819000E+01;0;  4.8147588E+00;  7.8381743E+03;  0.0000000E+00; -1.3264376E+00;  4.0000000E+04;  0.0000000E+00;  3.9427996E+04;  5.3684330E+00;  0.0000000E+00; -5.5367428E-01;  1.9463271E+03;
  1.0335832E+00;  9.9999998E-03;  2.7234921E-01;7932;  4.1645728E-02;  0.0000000E+00; -7.0314571E-02;  9.8978253E+02;  2.2554667E-01; -8.4641562E+03;3; -1.3319751E+02;  0.0000000E+00; -5.0305325E+01;0;  4.6153312E+00;  7.8213604E+03;  0.0000000E+00; -1.9868251E+00;  4.0000000E+04;  0.0000000E+00;  3.9444289E+04;  5.3034549E+00;  0.0000000E+00; -6.8812352E-01;  3.8989624E+03;
  1.0338053E+00;  9.9999998E-03;  2.8235865E-01;7933;  1.0922479E-02;  0.0000000E+00; -7.1636505E-02;  9.8925311E+02;  2.2558002E-01; -8.9027139E+03;3; -1.2578982E+02;  0.0000000E+00; -4.6064613E+01;0;  4.4786320E+00;  7.8049199E+03;  0.0000000E+00; -2.4915700E+00;  4.0000000E+04;  0.0000000E+00;  3.9484262E+04;  5.2488060E+00;  0.0000000E+00; -7.7017391E-01;  9.0014111E+03;
  1.0342202E+00;  9.9999998E-03;  2.9238027E-01;7934; -4.4247485E-03;  0.0000000E+00; -6.7940652E-02;  9.8872992E+02;  2.2562587E-01; -9.3361348E+03;3; -6.3958000E+01;  0.0000000E+00; -3.2075649E+01;0;  4.4607015E+00;  7.7885127E+03;  0.0000000E+00; -2.7031679E+00;  4.0000000E+04;  0.0000000E+00;  3.9523719E+04;  5.2132921E+00;  0.0000000E+00; -7.5259066E-01;  1.4237287E+04;
  1.0347613E+00;  9.9999998E-03;  3.0241597E-01;7935; -1.2777625E-02;  0.0000000E+00; -6.1640713E-02;  9.8799066E+02;  2.2569551E-01; -9.9484922E+03;3; -3.7682034E+01;  0.0000000E+00; -1.4156501E+01;0;  4.5470524E+00;  7.7711060E+03;  0.0000000E+00; -2.5073621E+00;  4.0000000E+04;  0.0000000E+00;  3.9552125E+04;  5.1955466E+00;  0.0000000E+00; -6.4849442E-01;  1.8519400E+04;
  1.0531734E+00;  9.9999998E-03;  2.4224135E-01;7990;  2.8677368E-01;  0.0000000E+00; -1.1621644E-02;  9.9518665E+02;  2.2361316E-01; -3.9872578E+03;3; -1.5992346E+02;  0.0000000E+00; -6.3755058E+01;0;  6.2006216E+00;  8.0437686E+03;  0.0000000E+00; -7.9631299E-01;  4.0000000E+04;  0.0000000E+00;  3.9408340E+04;  6.5478754E+00;  0.0000000E+00; -3.4725389E-01;  1.1912910E+03;
  1.0535179E+00;  9.9999998E-03;  2.5231054E-01;7991;  2.6166105E-01;  0.0000000E+00; -1.7087402E-02;  9.9411932E+02;  2.2363636E-01; -4.8713589E+03;3; -1.6756741E+02;  0.0000000E+00; -6.2663742E+01;0;  6.1406512E+00;  8.0276870E+03;  0.0000000E+00; -1.0959077E+00;  4.0000000E+04;  0.0000000E+00;  3.9401250E+04;  6.5496683E+00;  0.0000000E+00; -4.0901709E-01;  1.8026976E+03;
  1.0539322E+00;  9.9999998E-03;  2.6236647E-01;7992;  2.3764563E-01;  0.0000000E+00; -2.4622101E-02;  9.9303033E+02;  2.2366245E-01; -5.7734795E+03;3; -1.7429779E+02;  0.0000000E+00; -6.0699726E+01;0;  6.0511909E+00;  8.0120151E+03;  0.0000000E+00; -1.3820677E+00;  4.0000000E+04;  0.0000000E+00;  3.9392805E+04;  6.5543518E+00;  0.0000000E+00; -5.0316077E-01;  2.7758552E+03;
  1.0543038E+00;  9.9999998E-03;  2.7240387E-01;7993;  2.0987728E-01;  0.0000000E+00; -3.2967646E-02;  9.9211414E+02;  2.2368206E-01; -6.5324126E+03;3; -1.8104953E+02;  0.0000000E+00; -5.7943165E+01;0;  5.9284778E+00;  7.9971123E+03;  0.0000000E+00; -1.5146527E+00;  4.0000000E+04;  0.0000000E+00;  3.9395391E+04;  6.5565047E+00;  0.0000000E+00; -6.2802708E-01;  2.9843442E+03;
  1.0546067E+00;  9.9999998E-03;  2.8242666E-01;7994;  1.7766689E-01;  0.0000000E+00; -3.8511179E-02;  9.9149811E+02;  2.2370185E-01; -7.0426958E+03;3; -1.8893814E+02;  0.0000000E+00; -5.4122269E+01;0;  5.8252492E+00;  7.9825571E+03;  0.0000000E+00; -1.3384941E+00;  4.0000000E+04;  0.0000000E+00;  3.9419922E+04;  6.5539517E+00;  0.0000000E+00; -7.2870272E-01;  5.2011328E+03;
  1.0548424E+00;  9.9999998E-03;  2.9245365E-01;7995;  1.4273462E-01;  0.0000000E+00; -4.0971477E-02;  9.9094330E+02;  2.2373612E-01; -7.5022710E+03;3; -1.9777199E+02;  0.0000000E+00; -5.0239174E+01;0;  5.7804556E+00;  7.9676284E+03;  0.0000000E+00; -7.2224373E-01;  4.0000000E+04;  0.0000000E+00;  3.9452266E+04;  6.5464168E+00;  0.0000000E+00; -7.6596093E-01;  1.1532570E+04;
  1.0550600E+00;  9.9999998E-03;  3.0249062E-01;7996;  1.0727404E-01;  0.0000000E+00; -4.1911155E-02;  9.9023590E+02;  2.2379136E-01; -8.0882446E+03;3; -2.0683789E+02;  0.0000000E+00; -4.6749161E+01;0;  5.7900867E+00;  7.9514639E+03;  0.0000000E+00;  4.5453539E-01;  4.0000000E+04;  0.0000000E+00;  3.9480785E+04;  6.5370193E+00;  0.0000000E+00; -7.4693245E-01;  1.9931490E+04;
  1.0749999E+00;  9.9999998E-03;  2.5232500E-01;8052;  4.7588521E-01;  0.0000000E+00;  3.3021335E-02;  9.9804578E+02;  2.2098798E-01; -1.6187172E+03;3; -1.7046428E+02;  0.0000000E+00; -6.3044426E+01;0;  6.7441740E+00;  8.2928613E+03;  0.0000000E+00; -1.3225970E+00;  4.0000000E+04;  0.0000000E+00;  3.9358715E+04;  7.0689864E+00;  0.0000000E+00; -3.2481223E-01;  8.0526938E+03;
  1.0747153E+00;  9.9999998E-03;  2.4226056E-01;8051;  4.9475679E-01;  0.0000000E+00;  3.9159082E-02;  9.9907574E+02;  2.2095206E-01; -7.6556610E+02;3; -1.6095819E+02;  0.0000000E+00; -6.2800919E+01;0;  6.6986752E+00;  8.3089199E+03;  0.0000000E+00; -6.2876469E-01;  4.0000000E+04;  0.0000000E+00;  3.9367875E+04;  6.9821048E+00;  0.0000000E+00; -2.8342971E-01;  6.7425273E+03;
  1.0753362E+00;  9.9999998E-03;  2.6238275E-01;8053;  4.5896858E-01;  0.0000000E+00;  2.4228686E-02;  9.9695038E+02;  2.2101779E-01; -2.5260771E+03;3; -1.7863229E+02;  0.0000000E+00; -6.2852051E+01;0;  6.7556057E+00;  8.2772500E+03;  0.0000000E+00; -1.9075301E+00;  4.0000000E+04;  0.0000000E+00;  3.9346238E+04;  7.1492257E+00;  0.0000000E+00; -3.9362010E-01;  9.2643164E+03;
  1.0756221E+00;  9.9999998E-03;  2.7243057E-01;8054;  4.3714425E-01;  0.0000000E+00;  1.3389730E-02;  9.9593201E+02;  2.2103606E-01; -3.3696472E+03;3; -1.8713252E+02;  0.0000000E+00; -6.1977989E+01;0;  6.7158704E+00;  8.2625576E+03;  0.0000000E+00; -2.1318409E+00;  4.0000000E+04;  0.0000000E+00;  3.9338324E+04;  7.2186189E+00;  0.0000000E+00; -5.0274843E-01;  9.9931543E+03;
  1.0759604E+00;  9.9999998E-03;  2.8246388E-01;8055;  4.1212150E-01;  0.0000000E+00;  3.9391988E-03;  9.9520795E+02;  2.2105154E-01; -3.9693669E+03;3; -1.9649985E+02;  0.0000000E+00; -6.0144886E+01;0;  6.6603475E+00;  8.2489629E+03;  0.0000000E+00; -1.7592362E+00;  4.0000000E+04;  0.0000000E+00;  3.9350207E+04;  7.2778854E+00;  0.0000000E+00; -6.1753815E-01;  1.1396286E+04;
  1.0761763E+00;  9.9999998E-03;  2.9249725E-01;8056;  3.7975067E-01;  0.0000000E+00; -2.6445389E-03;  9.9465680E+02;  2.2107565E-01; -4.4259077E+03;3; -2.0807942E+02;  0.0000000E+00; -5.7460880E+01;0;  6.6332936E+00;  8.2357627E+03;  0.0000000E+00; -7.2734427E-01;  4.0000000E+04;  0.0000000E+00;  3.9375680E+04;  7.3218327E+00;  0.0000000E+00; -6.8853921E-01;  1.7839395E+04;
  1.0762708E+00;  9.9999998E-03;  3.0253872E-01;8057;  3.4066495E-01;  0.0000000E+00; -7.2664456E-03;  9.9409827E+02;  2.2111250E-01; -4.8885723E+03;3; -2.2140518E+02;  0.0000000E+00; -5.5062923E+01;0;  6.6421676E+00;  8.2227705E+03;  0.0000000E+00;  7.8927666E-01;  4.0000000E+04;  0.0000000E+00;  3.9402633E+04;  7.3492370E+00;  0.0000000E+00; -7.0706940E-01;  2.7509838E+04;
  1.0972645E+00;  9.9999998E-03;  2.4222521E-01;8112;  7.1938622E-01;  0.0000000E+00;  9.3751736E-02;  1.0034050E+03;  2.1734336E-01;  2.8202305E+03;3; -1.2287772E+02;  0.0000000E+00; -5.3752232E+01;0;  6.4335999E+00;  8.6673535E+03;  0.0000000E+00; -1.6279942E-01;  4.0000000E+04;  0.0000000E+00;  3.9331570E+04;  6.5724626E+00;  0.0000000E+00; -1.3886279E-01;  1.2390424E+04;
  1.0975757E+00;  9.9999998E-03;  2.5228816E-01;8113;  7.1042997E-01;  0.0000000E+00;  8.7906361E-02;  1.0025121E+03;  2.1739042E-01;  2.0806863E+03;3; -1.3183586E+02;  0.0000000E+00; -5.4790771E+01;0;  6.5716105E+00;  8.6533486E+03;  0.0000000E+00; -1.3644174E+00;  4.0000000E+04;  0.0000000E+00;  3.9319840E+04;  6.7264361E+00;  0.0000000E+00; -1.5482564E-01;  1.4358643E+04;
  1.0979037E+00;  9.9999998E-03;  2.6235071E-01;8114;  7.0270240E-01;  0.0000000E+00;  7.9287782E-02;  1.0014815E+03;  2.1742289E-01;  1.2271028E+03;3; -1.3997911E+02;  0.0000000E+00; -5.5846512E+01;0;  6.6793518E+00;  8.6398662E+03;  0.0000000E+00; -2.5143919E+00;  4.0000000E+04;  0.0000000E+00;  3.9302777E+04;  6.8676424E+00;  0.0000000E+00; -1.8829046E-01;  1.6239719E+04;
  1.0980655E+00;  9.9999998E-03;  2.7241048E-01;8115;  6.8805027E-01;  0.0000000E+00;  6.7502007E-02;  1.0004073E+03;  2.1744578E-01;  3.3738394E+02;3; -1.4949274E+02;  0.0000000E+00; -5.7101273E+01;0;  6.7327790E+00;  8.6259531E+03;  0.0000000E+00; -3.3191600E+00;  4.0000000E+04;  0.0000000E+00;  3.9284098E+04;  6.9983268E+00;  0.0000000E+00; -2.6554763E-01;  1.7615408E+04;
  1.0982994E+00;  9.9999998E-03;  2.8245446E-01;8116;  6.7144275E-01;  0.0000000E+00;  5.5749204E-02;  9.9959326E+02;  2.1746312E-01; -3.3688995E+02;3; -1.5888858E+02;  0.0000000E+00; -5.7186272E+01;0;  6.7404132E+00;  8.6127832E+03;  0.0000000E+00; -3.4771144E+00;  4.0000000E+04;  0.0000000E+00;  3.9285043E+04;  7.1114397E+00;  0.0000000E+00; -3.7102643E-01;  1.7610879E+04;
  1.0985895E+00;  9.9999998E-03;  2.9249495E-01;8117;  6.5361649E-01;  0.0000000E+00;  4.6785139E-02;  9.9899817E+02;  2.1747728E-01; -8.2978314E+02;3; -1.6901675E+02;  0.0000000E+00; -5.6704018E+01;0;  6.7541342E+00;  8.6002939E+03;  0.0000000E+00; -2.7009346E+00;  4.0000000E+04;  0.0000000E+00;  3.9304398E+04;  7.2080345E+00;  0.0000000E+00; -4.5390013E-01;  2.0707277E+04;
  1.0988103E+00;  9.9999998E-03;  3.0254248E-01;8118;  6.3172615E-01;  0.0000000E+00;  4.0085766E-02;  9.9846570E+02;  2.1749867E-01; -1.2707894E+03;3; -1.8097855E+02;  0.0000000E+00; -5.6290619E+01;0;  6.7930779E+00;  8.5883379E+03;  0.0000000E+00; -1.0001563E+00;  4.0000000E+04;  0.0000000E+00;  3.9329004E+04;  7.2905369E+00;  0.0000000E+00; -4.9745876E-01;  3.0428160E+04;
  1.1199410E+00;  9.9999998E-03;  2.4212280E-01;8173;  9.0444916E-01;  0.0000000E+00;  1.4344889E-01;  1.0070945E+03;  2.1253832E-01;  5.8755337E+03;3; -6.3863388E+01;  0.0000000E+00; -3.7060013E+01;0;  5.4657483E+00;  9.1348496E+03;  0.0000000E+00;  1.4991613E-01;  4.0000000E+04;  0.0000000E+00;  3.9311812E+04;  5.3839946E+00;  0.0000000E+00;  8.1753530E-02;  1.5503521E+04;
  1.1205928E+00;  9.9999998E-03;  2.5218424E-01;8174;  9.0348369E-01;  0.0000000E+00;  1.3894333E-01;  1.0064700E+03;  2.1252356E-01;  5.3582842E+03;3; -7.1406639E+01;  0.0000000E+00; -3.8836018E+01;0;  5.6362619E+00;  9.1313574E+03;  0.0000000E+00; -1.0635508E+00;  4.0000000E+04;  0.0000000E+00;  3.9298000E+04;  5.5362344E+00;  0.0000000E+00;  1.0002755E-01;  1.7705605E+04;
  1.1215413E+00;  9.9999998E-03;  2.6224729E-01;8175;  9.0821773E-01;  0.0000000E+00;  1.3129243E-01;  1.0056865E+03;  2.1246479E-01;  4.7094287E+03;3; -7.5389030E+01;  0.0000000E+00; -3.9825985E+01;0;  5.7589755E+00;  9.1300684E+03;  0.0000000E+00; -2.3985763E+00;  4.0000000E+04;  0.0000000E+00;  3.9278625E+04;  5.6542568E+00;  0.0000000E+00;  1.0471859E-01;  2.0362070E+04;
  1.1220748E+00;  9.9999998E-03;  2.7231497E-01;8176;  9.0691817E-01;  0.0000000E+00;  1.2089921E-01;  1.0047278E+03;  2.1244539E-01;  3.9154626E+03;3; -8.2549835E+01;  0.0000000E+00; -4.1597271E+01;0;  5.8564830E+00;  9.1233389E+03;  0.0000000E+00; -3.5489392E+00;  4.0000000E+04;  0.0000000E+00;  3.9253602E+04;  5.7837529E+00;  0.0000000E+00;  7.2729908E-02;  2.3041445E+04;
  1.1223340E+00;  9.9999998E-03;  2.8237021E-01;8177;  9.0041375E-01;  0.0000000E+00;  1.0973794E-01;  1.0039236E+03;  2.1244995E-01;  3.2493552E+03;3; -9.1283745E+01;  0.0000000E+00; -4.3059086E+01;0;  5.9201307E+00;  9.1131279E+03;  0.0000000E+00; -4.2387805E+00;  4.0000000E+04;  0.0000000E+00;  3.9245621E+04;  5.9157448E+00;  0.0000000E+00;  4.3858364E-03;  2.3215164E+04;
  1.1228026E+00;  9.9999998E-03;  2.9241911E-01;8178;  8.9738268E-01;  0.0000000E+00;  1.0098393E-01;  1.0033589E+03;  2.1243301E-01;  2.7816848E+03;3; -9.8057602E+01;  0.0000000E+00; -4.4451622E+01;0;  5.9596286E+00;  9.1047207E+03;  0.0000000E+00; -4.1024098E+00;  4.0000000E+04;  0.0000000E+00;  3.9258270E+04;  6.0195804E+00;  0.0000000E+00; -5.9951853E-02;  2.1626504E+04;
  1.1234330E+00;  9.9999998E-03;  3.0247292E-01;8179;  8.9856935E-01;  0.0000000E+00;  9.4959289E-02;  1.0028793E+03;  2.1240185E-01;  2.3845044E+03;3; -1.0434708E+02;  0.0000000E+00; -4.5073765E+01;0;  6.0001860E+00;  9.0978770E+03;  0.0000000E+00; -2.8365250E+00;  4.0000000E+04;  0.0000000E+00;  3.9278426E+04;  6.0994115E+00;  0.0000000E+00; -9.9225461E-02;  2.3367893E+04;
  1.1418953E+00;  9.9999998E-03;  2.4192727E-01;8234;  1.0198195E+00;  0.0000000E+00;  1.6919732E-01;  1.0086835E+03;  2.0657258E-01;  7.1905483E+03;3;  8.5367279E+00;  0.0000000E+00; -1.3081304E+01;0;  4.1125202E+00;  9.6979688E+03;  0.0000000E+00;  1.4730942E-02;  4.0000000E+04;  0.0000000E+00;  3.9328703E+04;  3.8367801E+00;  0.0000000E+00;  2.7574000E-01;  1.3954700E+04;
  1.1428994E+00;  9.9999998E-03;  2.5199595E-01;8235;  1.0270349E+00;  0.0000000E+00;  1.6664755E-01;  1.0082506E+03;  2.0644070E-01;  6.8319712E+03;3;  3.9189732E-01;  0.0000000E+00; -1.4486637E+01;0;  4.2567053E+00;  9.7089199E+03;  0.0000000E+00; -7.5425428E-01;  4.0000000E+04;  0.0000000E+00;  3.9316059E+04;  3.9400318E+00;  0.0000000E+00;  3.1667337E-01;  1.5821453E+04;
  1.1442692E+00;  9.9999998E-03;  2.6206544E-01;8236;  1.0344996E+00;  0.0000000E+00;  1.6149750E-01;  1.0076542E+03;  2.0624115E-01;  6.3380469E+03;3; -5.4097753E+00;  0.0000000E+00; -1.6257683E+01;0;  4.3569188E+00;  9.7240664E+03;  0.0000000E+00; -1.6950971E+00;  4.0000000E+04;  0.0000000E+00;  3.9297801E+04;  3.9997468E+00;  0.0000000E+00;  3.5717210E-01;  1.8502613E+04;
  1.1451057E+00;  9.9999998E-03;  2.7214134E-01;8237;  1.0400290E+00;  0.0000000E+00;  1.5246038E-01;  1.0068688E+03;  2.0613250E-01;  5.6876016E+03;3; -1.0992988E+01;  0.0000000E+00; -1.7271421E+01;0;  4.4348664E+00;  9.7285225E+03;  0.0000000E+00; -2.6307349E+00;  4.0000000E+04;  0.0000000E+00;  3.9272500E+04;  4.0836172E+00;  0.0000000E+00;  3.5124904E-01;  2.1929508E+04;
  1.1456474E+00;  9.9999998E-03;  2.8220639E-01;8238;  1.0424329E+00;  0.0000000E+00;  1.4314617E-01;  1.0061572E+03;  2.0606896E-01;  5.0984751E+03;3; -1.8202925E+01;  0.0000000E+00; -1.8630262E+01;0;  4.4865217E+00;  9.7268779E+03;  0.0000000E+00; -3.2785511E+00;  4.0000000E+04;  0.0000000E+00;  3.9260918E+04;  4.1760716E+00;  0.0000000E+00;  3.1045011E-01;  2.3248244E+04;
  1.1463104E+00;  9.9999998E-03;  2.9226378E-01;8239;  1.0467099E+00;  0.0000000E+00;  1.3617983E-01;  1.0056356E+03;  2.0598879E-01;  4.6664951E+03;3; -2.4271198E+01;  0.0000000E+00; -1.9854643E+01;0;  4.5142155E+00;  9.7260752E+03;  0.0000000E+00; -3.3811841E+00;  4.0000000E+04;  0.0000000E+00;  3.9268602E+04;  4.2449951E+00;  0.0000000E+00;  2.6922026E-01;  2.1677387E+04;
  1.1471634E+00;  9.9999998E-03;  3.0232328E-01;8240;  1.0551609E+00;  0.0000000E+00;  1.3161640E-01;  1.0052098E+03;  2.0588882E-01;  4.3138745E+03;3; -2.7983248E+01;  0.0000000E+00; -2.1125303E+01;0;  4.5255690E+00;  9.7271846E+03;  0.0000000E+00; -2.8837104E+00;  4.0000000E+04;  0.0000000E+00;  3.9285109E+04;  4.2848816E+00;  0.0000000E+00;  2.4068733E-01;  1.8971863E+04;
  1.1628647E+00;  9.9999998E-03;  2.4169050E-01;8295;  1.0516831E+00;  0.0000000E+00;  1.6564007E-01;  1.0082023E+03;  1.9982347E-01;  6.7907827E+03;3;  5.4798222E+01;  0.0000000E+00;  9.0779362E+00;0;  2.7753210E+00;  1.0343798E+04;  0.0000000E+00; -2.7865189E-01;  4.0000000E+04;  0.0000000E+00;  3.9368453E+04;  2.3921697E+00;  0.0000000E+00;  3.8315135E-01;  9.6785537E+03;
  1.1638721E+00;  9.9999998E-03;  2.5177658E-01;8296;  1.0637441E+00;  0.0000000E+00;  1.6430017E-01;  1.0078986E+03;  1.9963364E-01;  6.5392407E+03;3;  5.1196957E+01;  0.0000000E+00;  8.0820751E+00;0;  2.8768392E+00;  1.0363837E+04;  0.0000000E+00; -6.8857735E-01;  4.0000000E+04;  0.0000000E+00;  3.9356344E+04;  2.4596190E+00;  0.0000000E+00;  4.1722006E-01;  1.1407586E+04;
  1.1651626E+00;  9.9999998E-03;  2.6185864E-01;8297;  1.0753075E+00;  0.0000000E+00;  1.6117094E-01;  1.0074571E+03;  1.9937953E-01;  6.1736938E+03;3;  4.7443493E+01;  0.0000000E+00;  6.9338446E+00;0;  2.9507732E+00;  1.0388104E+04;  0.0000000E+00; -1.3766183E+00;  4.0000000E+04;  0.0000000E+00;  3.9340289E+04;  2.4949346E+00;  0.0000000E+00;  4.5583880E-01;  1.4064572E+04;
  1.1660821E+00;  9.9999998E-03;  2.7194291E-01;8298;  1.0854716E+00;  0.0000000E+00;  1.5535647E-01;  1.0068386E+03;  1.9920950E-01;  5.6615239E+03;3;  4.2399448E+01;  0.0000000E+00;  4.4302340E+00;0;  3.0056310E+00;  1.0401846E+04;  0.0000000E+00; -2.2451353E+00;  4.0000000E+04;  0.0000000E+00;  3.9318375E+04;  2.5416279E+00;  0.0000000E+00;  4.6400309E-01;  1.7853656E+04;
  1.1667365E+00;  9.9999998E-03;  2.8201827E-01;8299;  1.0939244E+00;  0.0000000E+00;  1.4793310E-01;  1.0062133E+03;  1.9909005E-01;  5.1438516E+03;3;  3.6488026E+01;  0.0000000E+00;  3.2296298E+00;0;  3.0191350E+00;  1.0407698E+04;  0.0000000E+00; -2.9171014E+00;  4.0000000E+04;  0.0000000E+00;  3.9305238E+04;  2.5946620E+00;  0.0000000E+00;  4.2447308E-01;  2.0315814E+04;
  1.1674985E+00;  9.9999998E-03;  2.9208431E-01;8300;  1.1028219E+00;  0.0000000E+00;  1.4220275E-01;  1.0056976E+03;  1.9895422E-01;  4.7168765E+03;3;  3.1595123E+01;  0.0000000E+00;  2.1997418E+00;0;  3.0060024E+00;  1.0414093E+04;  0.0000000E+00; -3.1295767E+00;  4.0000000E+04;  0.0000000E+00;  3.9309066E+04;  2.6287360E+00;  0.0000000E+00;  3.7726644E-01;  1.9981061E+04;
  1.1684451E+00;  9.9999998E-03;  3.0214903E-01;8301;  1.1136386E+00;  0.0000000E+00;  1.3883543E-01;  1.0052354E+03;  1.9879568E-01;  4.3341118E+03;3;  2.7302988E+01;  0.0000000E+00;  1.2890939E+00;0;  2.9835124E+00;  1.0422334E+04;  0.0000000E+00; -2.8761506E+00;  4.0000000E+04;  0.0000000E+00;  3.9322754E+04;  2.6381609E+00;  0.0000000E+00;  3.4535146E-01;  1.7809752E+04;
  1.1825620E+00;  9.9999998E-03;  2.4147366E-01;8356;  1.0540491E+00;  0.0000000E+00;  1.4624688E-01;  1.0066113E+03;  1.9275425E-01;  5.4722119E+03;3;  6.0705986E+01;  0.0000000E+00;  2.0030607E+01;0;  1.7375664E+00;  1.1066343E+04;  0.0000000E+00; -5.1719952E-01;  4.0000000E+04;  0.0000000E+00;  3.9412648E+04;  1.2997888E+00;  0.0000000E+00;  4.3777749E-01;  5.0754600E+03;
  1.1834866E+00;  9.9999998E-03;  2.5157425E-01;8357;  1.0668143E+00;  0.0000000E+00;  1.4613414E-01;  1.0064675E+03;  1.9255538E-01;  5.3532441E+03;3;  5.7738457E+01;  0.0000000E+00;  1.8998219E+01;0;  1.8021367E+00;  1.1091447E+04;  0.0000000E+00; -9.7424918E-01;  4.0000000E+04;  0.0000000E+00;  3.9401105E+04;  1.3410537E+00;  0.0000000E+00;  4.6108288E-01;  6.9353877E+03;
  1.1846243E+00;  9.9999998E-03;  2.6166922E-01;8358;  1.0793561E+00;  0.0000000E+00;  1.4439216E-01;  1.0061615E+03;  1.9230090E-01;  5.0997769E+03;3;  5.5662498E+01;  0.0000000E+00;  1.7351517E+01;0;  1.8464937E+00;  1.1120370E+04;  0.0000000E+00; -1.9354302E+00;  4.0000000E+04;  0.0000000E+00;  3.9385762E+04;  1.3620560E+00;  0.0000000E+00;  4.8443773E-01;  1.0450570E+04;
  1.1855226E+00;  9.9999998E-03;  2.7176136E-01;8359;  1.0916317E+00;  0.0000000E+00;  1.4082824E-01;  1.0056808E+03;  1.9210200E-01;  4.7018848E+03;3;  5.3271690E+01;  0.0000000E+00;  1.6601528E+01;0;  1.8690660E+00;  1.1140684E+04;  0.0000000E+00; -3.2583103E+00;  4.0000000E+04;  0.0000000E+00;  3.9366055E+04;  1.3852440E+00;  0.0000000E+00;  4.8382199E-01;  1.5616182E+04;
  1.1860169E+00;  9.9999998E-03;  2.8184679E-01;8360;  1.1034095E+00;  0.0000000E+00;  1.3612497E-01;  1.0051086E+03;  1.9199821E-01;  4.2282524E+03;3;  5.0066254E+01;  0.0000000E+00;  1.5432242E+01;0;  1.8645836E+00;  1.1147184E+04;  0.0000000E+00; -4.2432690E+00;  4.0000000E+04;  0.0000000E+00;  3.9351215E+04;  1.4204241E+00;  0.0000000E+00;  4.4415951E-01;  1.9576031E+04;
  1.1864697E+00;  9.9999998E-03;  2.9192325E-01;8361;  1.1152433E+00;  0.0000000E+00;  1.3230272E-01;  1.0045891E+03;  1.9192964E-01;  3.7982385E+03;3;  4.6301834E+01;  0.0000000E+00;  1.4072741E+01;0;  1.8416097E+00;  1.1148188E+04;  0.0000000E+00; -4.4352317E+00;  4.0000000E+04;  0.0000000E+00;  3.9350184E+04;  1.4499766E+00;  0.0000000E+00;  3.9163315E-01;  2.0202391E+04;
  1.1871192E+00;  9.9999998E-03;  3.0199501E-01;8362;  1.1283287E+00;  0.0000000E+00;  1.3021919E-01;  1.0041093E+03;  1.9184743E-01;  3.4010759E+03;3;  4.3408142E+01;  0.0000000E+00;  1.3792308E+01;0;  1.8135355E+00;  1.1150037E+04;  0.0000000E+00; -3.9879801E+00;  4.0000000E+04;  0.0000000E+00;  3.9360477E+04;  1.4610324E+00;  0.0000000E+00;  3.5250303E-01;  1.8495191E+04;
  1.2010010E+00;  9.9999998E-03;  2.4130158E-01;8417;  1.0519807E+00;  0.0000000E+00;  1.2243989E-01;  1.0045002E+03;  1.8569021E-01;  3.7237458E+03;3;  6.3001423E+01;  0.0000000E+00;  2.8402164E+01;0;  1.0460806E+00;  1.1857891E+04;  0.0000000E+00; -1.0317408E+00;  4.0000000E+04;  0.0000000E+00;  3.9453629E+04;  5.7503897E-01;  0.0000000E+00;  4.7104162E-01;  2.0039971E+03;
  1.2017812E+00;  9.9999998E-03;  2.5140744E-01;8418;  1.0653949E+00;  0.0000000E+00;  1.2375740E-01;  1.0045214E+03;  1.8551822E-01;  3.7412505E+03;3;  6.0332493E+01;  0.0000000E+00;  2.5096292E+01;0;  1.0914840E+00;  1.1883809E+04;  0.0000000E+00; -1.8160607E+00;  4.0000000E+04;  0.0000000E+00;  3.9444430E+04;  5.9798324E-01;  0.0000000E+00;  4.9350071E-01;  4.8303262E+03;
  1.2025429E+00;  9.9999998E-03;  2.6151183E-01;8419;  1.0782259E+00;  0.0000000E+00;  1.2381063E-01;  1.0043613E+03;  1.8535686E-01;  3.6087249E+03;3;  5.7789742E+01;  0.0000000E+00;  2.4051468E+01;0;  1.1276083E+00;  1.1906171E+04;  0.0000000E+00; -3.1620300E+00;  4.0000000E+04;  0.0000000E+00;  3.9429926E+04;  6.1598986E-01;  0.0000000E+00;  5.1161844E-01;  9.6301436E+03;
  1.2031715E+00;  9.9999998E-03;  2.7161351E-01;8420;  1.0908459E+00;  0.0000000E+00;  1.2186379E-01;  1.0039810E+03;  1.8522416E-01;  3.2940259E+03;3;  5.5423382E+01;  0.0000000E+00;  2.3036140E+01;0;  1.1358494E+00;  1.1922246E+04;  0.0000000E+00; -4.8036380E+00;  4.0000000E+04;  0.0000000E+00;  3.9409535E+04;  6.3292408E-01;  0.0000000E+00;  5.0292528E-01;  1.5654954E+04;
  1.2035600E+00;  9.9999998E-03;  2.8170758E-01;8421;  1.1034794E+00;  0.0000000E+00;  1.1834137E-01;  1.0034752E+03;  1.8514904E-01;  2.8754824E+03;3;  5.3625961E+01;  0.0000000E+00;  2.2651514E+01;0;  1.1030506E+00;  1.1928271E+04;  0.0000000E+00; -5.9258866E+00;  4.0000000E+04;  0.0000000E+00;  3.9390758E+04;  6.5301979E-01;  0.0000000E+00;  4.5003083E-01;  2.0092178E+04;
  1.2040418E+00;  9.9999998E-03;  2.9179040E-01;8422;  1.1164582E+00;  0.0000000E+00;  1.1514380E-01;  1.0029865E+03;  1.8507828E-01;  2.4710459E+03;3;  5.1963055E+01;  0.0000000E+00;  2.2731834E+01;0;  1.0434034E+00;  1.1931821E+04;  0.0000000E+00; -6.0807905E+00;  4.0000000E+04;  0.0000000E+00;  3.9385086E+04;  6.6485143E-01;  0.0000000E+00;  3.7855190E-01;  2.1245377E+04;
  1.2047750E+00;  9.9999998E-03;  3.0186564E-01;8423;  1.1304969E+00;  0.0000000E+00;  1.1331018E-01;  1.0024960E+03;  1.8497895E-01;  2.0652256E+03;3;  5.0270515E+01;  0.0000000E+00;  2.2741394E+01;0;  9.8265445E-01;  1.1937273E+04;  0.0000000E+00; -5.3101039E+00;  4.0000000E+04;  0.0000000E+00;  3.9391605E+04;  6.6239572E-01;  0.0000000E+00;  3.2025874E-01;  1.9721977E+04;
  1.2184142E+00;  9.9999998E-03;  2.4118488E-01;8478;  1.0481757E+00;  0.0000000E+00;  9.1924712E-02;  1.0021958E+03;  1.7881547E-01;  1.8163309E+03;3;  6.4033356E+01;  0.0000000E+00;  4.6718208E+01;0;  5.9736872E-01;  1.2713580E+04;  0.0000000E+00; -1.9240496E+00;  4.0000000E+04;  0.0000000E+00;  3.9487461E+04;  1.3593577E-01;  0.0000000E+00;  4.6143293E-01;  5.1666738E+03;
  1.2188363E+00;  9.9999998E-03;  2.5128487E-01;8479;  1.0618722E+00;  0.0000000E+00;  1.0037528E-01;  1.0024090E+03;  1.7874327E-01;  1.9926193E+03;3;  6.1322948E+01;  0.0000000E+00;  3.1615761E+01;0;  6.6397673E-01;  1.2730220E+04;  0.0000000E+00; -2.9726346E+00;  4.0000000E+04;  0.0000000E+00;  3.9482020E+04;  1.4904754E-01;  0.0000000E+00;  5.1492918E-01;  7.6055864E+03;
  1.2194953E+00;  9.9999998E-03;  2.6138863E-01;8480;  1.0749447E+00;  0.0000000E+00;  1.0209832E-01;  1.0023876E+03;  1.7860268E-01;  1.9748392E+03;3;  5.8728291E+01;  0.0000000E+00;  2.8827578E+01;0;  6.9386244E-01;  1.2753254E+04;  0.0000000E+00; -4.5797977E+00;  4.0000000E+04;  0.0000000E+00;  3.9471203E+04;  1.5490088E-01;  0.0000000E+00;  5.3896153E-01;  1.1921610E+04;
  1.2202045E+00;  9.9999998E-03;  2.7149418E-01;8481;  1.0876974E+00;  0.0000000E+00;  1.0159290E-01;  1.0020882E+03;  1.7844886E-01;  1.7272152E+03;3;  5.7378613E+01;  0.0000000E+00;  2.7186466E+01;0;  6.9254804E-01;  1.2775282E+04;  0.0000000E+00; -6.4057875E+00;  4.0000000E+04;  0.0000000E+00;  3.9450730E+04;  1.5695705E-01;  0.0000000E+00;  5.3559101E-01;  1.7277553E+04;
  1.2207940E+00;  9.9999998E-03;  2.8159505E-01;8482;  1.1005760E+00;  0.0000000E+00;  9.8124042E-02;  1.0015928E+03;  1.7832895E-01;  1.3175039E+03;3;  5.5923012E+01;  0.0000000E+00;  2.6422037E+01;0;  6.2905228E-01;  1.2790010E+04;  0.0000000E+00; -7.5521245E+00;  4.0000000E+04;  0.0000000E+00;  3.9426719E+04;  1.5894164E-01;  0.0000000E+00;  4.7011063E-01;  2.1167953E+04;
  1.2214929E+00;  9.9999998E-03;  2.9168308E-01;8483;  1.1137003E+00;  0.0000000E+00;  9.4610877E-02;  1.0010493E+03;  1.7820279E-01;  8.6786938E+02;3;  5.4229149E+01;  0.0000000E+00;  2.6752560E+01;0;  5.3260249E-01;  1.2802563E+04;  0.0000000E+00; -7.3184547E+00;  4.0000000E+04;  0.0000000E+00;  3.9414027E+04;  1.5598828E-01;  0.0000000E+00;  3.7661421E-01;  2.1350330E+04;
  1.2224573E+00;  9.9999998E-03;  3.0176064E-01;8484;  1.1275270E+00;  0.0000000E+00;  9.2280552E-02;  1.0004527E+03;  1.7803937E-01;  3.7447037E+02;3;  5.2885597E+01;  0.0000000E+00;  2.6862431E+01;0;  4.3864352E-01;  1.2817053E+04;  0.0000000E+00; -5.2759190E+00;  4.0000000E+04;  0.0000000E+00;  3.9415918E+04;  1.4458920E-01;  0.0000000E+00;  2.9405430E-01;  1.6811277E+04;
  1.2356415E+00;  9.9999998E-03;  2.4111623E-01;8539;  1.0432035E+00;  0.0000000E+00;  5.7130206E-02;  9.9992676E+02;  1.7206737E-01; -6.0565491E+01;3;  6.5906853E+01;  0.0000000E+00;  5.0409435E+01;0;  3.0174941E-01;  1.3654083E+04;  0.0000000E+00; -3.1096854E+00;  4.0000000E+04;  0.0000000E+00;  3.9515266E+04; -1.2143327E-01;  0.0000000E+00;  4.2318270E-01;  9.4180830E+03;
  1.2361336E+00;  9.9999998E-03;  2.5119871E-01;8540;  1.0568420E+00;  0.0000000E+00;  7.1714327E-02;  1.0002639E+03;  1.7196862E-01;  2.1811131E+02;3;  6.3129578E+01;  0.0000000E+00;  4.6433971E+01;0;  3.7565747E-01;  1.3676830E+04;  0.0000000E+00; -4.7132196E+00;  4.0000000E+04;  0.0000000E+00;  3.9516086E+04; -1.2459078E-01;  0.0000000E+00;  5.0024825E-01;  1.3001533E+04;
  1.2367177E+00;  9.9999998E-03;  2.6129720E-01;8541;  1.0702637E+00;  0.0000000E+00;  7.8754939E-02;  1.0003625E+03;  1.7184354E-01;  2.9971283E+02;3;  6.0391804E+01;  0.0000000E+00;  3.3406822E+01;0;  4.3255815E-01;  1.3701226E+04;  0.0000000E+00; -6.8083200E+00;  4.0000000E+04;  0.0000000E+00;  3.9509242E+04; -1.2935916E-01;  0.0000000E+00;  5.6191730E-01;  1.7806619E+04;
  1.2373196E+00;  9.9999998E-03;  2.7140346E-01;8542;  1.0831201E+00;  0.0000000E+00;  8.0131695E-02;  1.0001375E+03;  1.7171162E-01;  1.1363445E+02;3;  5.8258324E+01;  0.0000000E+00;  3.0808004E+01;0;  4.3841004E-01;  1.3723652E+04;  0.0000000E+00; -8.8127270E+00;  4.0000000E+04;  0.0000000E+00;  3.9489914E+04; -1.3482165E-01;  0.0000000E+00;  5.7323170E-01;  2.2494398E+04;
  1.2379304E+00;  9.9999998E-03;  2.8150967E-01;8543;  1.0959635E+00;  0.0000000E+00;  7.7258535E-02;  9.9961029E+02;  1.7158362E-01; -3.2217166E+02;3;  5.6946247E+01;  0.0000000E+00;  2.9488209E+01;0;  3.6721537E-01;  1.3742277E+04;  0.0000000E+00; -9.6400061E+00;  4.0000000E+04;  0.0000000E+00;  3.9460473E+04; -1.4080039E-01;  0.0000000E+00;  5.0801575E-01;  2.4483396E+04;
  1.2387784E+00;  9.9999998E-03;  2.9160291E-01;8544;  1.1089926E+00;  0.0000000E+00;  7.3119923E-02;  9.9891638E+02;  1.7141737E-01; -8.9582782E+02;3;  5.5959488E+01;  0.0000000E+00;  3.0055351E+01;0;  2.4400656E-01;  1.3761923E+04;  0.0000000E+00; -8.2608271E+00;  4.0000000E+04;  0.0000000E+00;  3.9439727E+04; -1.5024106E-01;  0.0000000E+00;  3.9424762E-01;  2.1150443E+04;
  1.2399138E+00;  9.9999998E-03;  3.0168280E-01;8545;  1.1224968E+00;  0.0000000E+00;  7.0382647E-02;  9.9808575E+02;  1.7120756E-01; -1.5824724E+03;3;  5.5027699E+01;  0.0000000E+00;  2.9968023E+01;0;  1.2939073E-01;  1.3782439E+04;  0.0000000E+00; -3.2873726E+00;  4.0000000E+04;  0.0000000E+00;  3.9436379E+04; -1.6368459E-01;  0.0000000E+00;  2.9307532E-01;  9.0684180E+03;
  1.2522364E+00;  9.9999998E-03;  2.4108550E-01;8600;  1.0370060E+00;  0.0000000E+00;  2.6536994E-02;  9.9791858E+02;  1.6571437E-01; -1.7198763E+03;3;  6.6961754E+01;  0.0000000E+00;  4.9936378E+01;0;  1.2714782E-01;  1.4651688E+04;  0.0000000E+00; -4.2757883E+00;  4.0000000E+04;  0.0000000E+00;  3.9537105E+04; -2.5982466E-01;  0.0000000E+00;  3.8697249E-01;  1.3119951E+04;
  1.2527208E+00;  9.9999998E-03;  2.5115359E-01;8601;  1.0506390E+00;  0.0000000E+00;  3.9616849E-02;  9.9835980E+02;  1.6561237E-01; -1.3552880E+03;3;  6.4832138E+01;  0.0000000E+00;  5.4436508E+01;0;  1.7373031E-01;  1.4678354E+04;  0.0000000E+00; -6.3920999E+00;  4.0000000E+04;  0.0000000E+00;  3.9541934E+04; -2.7462685E-01;  0.0000000E+00;  4.4835716E-01;  1.7981119E+04;
  1.2531955E+00;  9.9999998E-03;  2.6124239E-01;8602;  1.0642394E+00;  0.0000000E+00;  5.4428194E-02;  9.9859424E+02;  1.6550608E-01; -1.1615621E+03;3;  6.2663658E+01;  0.0000000E+00;  4.3326832E+01;0;  2.7299744E-01;  1.4703351E+04;  0.0000000E+00; -8.8415670E+00;  4.0000000E+04;  0.0000000E+00;  3.9539668E+04; -2.8829038E-01;  0.0000000E+00;  5.6128782E-01;  2.3584725E+04;
  1.2537436E+00;  9.9999998E-03;  2.7134562E-01;8603;  1.0772909E+00;  0.0000000E+00;  5.9134103E-02;  9.9845135E+02;  1.6537955E-01; -1.2795864E+03;3;  6.0424328E+01;  0.0000000E+00;  3.3045708E+01;0;  3.0702597E-01;  1.4728918E+04;  0.0000000E+00; -1.0975715E+01;  4.0000000E+04;  0.0000000E+00;  3.9522285E+04; -3.0123097E-01;  0.0000000E+00;  6.0825694E-01;  2.8145512E+04;
  1.2544602E+00;  9.9999998E-03;  2.8145337E-01;8604;  1.0899650E+00;  0.0000000E+00;  5.7449784E-02;  9.9785944E+02;  1.6522197E-01; -1.7686268E+03;3;  5.8938675E+01;  0.0000000E+00;  3.0777229E+01;0;  2.4551162E-01;  1.4754204E+04;  0.0000000E+00; -1.1488106E+01;  4.0000000E+04;  0.0000000E+00;  3.9490055E+04; -3.1413069E-01;  0.0000000E+00;  5.5964231E-01;  2.8680600E+04;
  1.2554848E+00;  9.9999998E-03;  2.9155025E-01;8605;  1.1026188E+00;  0.0000000E+00;  5.2541696E-02;  9.9692847E+02;  1.6501623E-01; -2.5377178E+03;3;  5.8081379E+01;  0.0000000E+00;  3.1011946E+01;0;  1.0271281E-01;  1.4779813E+04;  0.0000000E+00; -8.4864388E+00;  4.0000000E+04;  0.0000000E+00;  3.9462594E+04; -3.2802999E-01;  0.0000000E+00;  4.3074280E-01;  2.0750854E+04;
  1.2566969E+00;  9.9999998E-03;  3.0163169E-01;8606;  1.1155893E+00;  0.0000000E+00;  4.9558230E-02;  9.9577521E+02;  1.6478986E-01; -3.4903435E+03;3;  5.7589394E+01;  0.0000000E+00;  3.0989677E+01;0; -2.6073962E-02;  1.4799713E+04;  0.0000000E+00;  1.0002053E+00;  4.0000000E+04;  0.0000000E+00;  3.9454406E+04; -3.4163073E-01;  0.0000000E+00;  3.1555676E-01;  4.6425576E+03;
  1.2684366E+00;  9.9999998E-03;  2.4108227E-01;8661;  1.0302627E+00;  0.0000000E+00; -1.6862254E-04;  9.9616705E+02;  1.5969691E-01; -3.1649187E+03;3;  6.6803108E+01;  0.0000000E+00;  4.8698200E+01;0;  2.1880239E-02;  1.5713607E+04;  0.0000000E+00; -5.7621207E+00;  4.0000000E+04;  0.0000000E+00;  3.9554820E+04; -3.3048415E-01;  0.0000000E+00;  3.5236439E-01;  1.6835396E+04;
  1.2688365E+00;  9.9999998E-03;  2.5114331E-01;8662;  1.0433294E+00;  0.0000000E+00;  9.4268303E-03;  9.9665637E+02;  1.5961501E-01; -2.7608450E+03;3;  6.5825615E+01;  0.0000000E+00;  5.5231140E+01;0;  3.5974652E-02;  1.5740054E+04;  0.0000000E+00; -8.6370564E+00;  4.0000000E+04;  0.0000000E+00;  3.9560023E+04; -3.5658216E-01;  0.0000000E+00;  3.9255682E-01;  2.3435629E+04;
  1.2692322E+00;  9.9999998E-03;  2.6121992E-01;8663;  1.0567591E+00;  0.0000000E+00;  2.6284480E-02;  9.9699896E+02;  1.5952194E-01; -2.4779045E+03;3;  6.4750816E+01;  0.0000000E+00;  5.4832664E+01;0;  1.2941545E-01;  1.5766538E+04;  0.0000000E+00; -1.1859576E+01;  4.0000000E+04;  0.0000000E+00;  3.9562730E+04; -3.7990099E-01;  0.0000000E+00;  5.0931644E-01;  3.1053953E+04;
  1.2697277E+00;  9.9999998E-03;  2.7131620E-01;8664;  1.0699698E+00;  0.0000000E+00;  3.8584914E-02;  9.9692883E+02;  1.5939651E-01; -2.5357666E+03;3;  6.2594849E+01;  0.0000000E+00;  3.7030064E+01;0;  2.3304772E-01;  1.5795199E+04;  0.0000000E+00; -1.4603460E+01;  4.0000000E+04;  0.0000000E+00;  3.9549301E+04; -4.0055943E-01;  0.0000000E+00;  6.3360715E-01;  3.7046230E+04;
  1.2704479E+00;  9.9999998E-03;  2.8142267E-01;8665;  1.0824466E+00;  0.0000000E+00;  3.9251987E-02;  9.9627478E+02;  1.5923347E-01; -3.0756714E+03;3;  6.1380913E+01;  0.0000000E+00;  3.0482212E+01;0;  2.0107856E-01;  1.5823381E+04;  0.0000000E+00; -1.5035967E+01;  4.0000000E+04;  0.0000000E+00;  3.9516840E+04; -4.1914633E-01;  0.0000000E+00;  6.2022489E-01;  3.7142066E+04;
  1.2715480E+00;  9.9999998E-03;  2.9152113E-01;8666;  1.0946802E+00;  0.0000000E+00;  3.3914886E-02;  9.9504504E+02;  1.5901826E-01; -4.0907212E+03;3;  6.0697361E+01;  0.0000000E+00;  3.2026833E+01;0;  4.6532094E-02;  1.5847811E+04;  0.0000000E+00; -1.0025766E+01;  4.0000000E+04;  0.0000000E+00;  3.9485027E+04; -4.3627980E-01;  0.0000000E+00;  4.8281190E-01;  2.4316979E+04;
  1.2727120E+00;  9.9999998E-03;  3.0160263E-01;8667;  1.1071191E+00;  0.0000000E+00;  3.0867634E-02;  9.9349286E+02;  1.5880889E-01; -5.3718857E+03;3;  6.0372154E+01;  0.0000000E+00;  3.2778751E+01;0; -9.3233794E-02;  1.5858196E+04;  0.0000000E+00;  5.6885304E+00;  4.0000000E+04;  0.0000000E+00;  3.9474148E+04; -4.4981375E-01;  0.0000000E+00;  3.5657996E-01;  1.4444758E+04;
  1.2841696E+00;  9.9999998E-03;  2.4109378E-01;8722;  1.0234222E+00;  0.0000000E+00; -2.3084750E-02;  9.9471222E+02;  1.5407296E-01; -4.3623384E+03;3;  6.6110420E+01;  0.0000000E+00;  4.7275181E+01;0; -3.9220780E-02;  1.6827088E+04;  0.0000000E+00; -7.4712296E+00;  4.0000000E+04;  0.0000000E+00;  3.9570680E+04; -3.5742429E-01;  0.0000000E+00;  3.1820351E-01;  2.0096293E+04;
  1.2845106E+00;  9.9999998E-03;  2.5115454E-01;8723;  1.0353452E+00;  0.0000000E+00; -1.6600119E-02;  9.9516870E+02;  1.5400384E-01; -3.9856853E+03;3;  6.5932869E+01;  0.0000000E+00;  5.3715031E+01;0; -5.3391457E-02;  1.6853188E+04;  0.0000000E+00; -1.1585936E+01;  4.0000000E+04;  0.0000000E+00;  3.9574473E+04; -3.9710739E-01;  0.0000000E+00;  3.4371594E-01;  2.9069916E+04;
  1.2848282E+00;  9.9999998E-03;  2.6122227E-01;8724;  1.0479116E+00;  0.0000000E+00; -1.8224613E-03;  9.9554242E+02;  1.5391597E-01; -3.6773027E+03;3;  6.6004440E+01;  0.0000000E+00;  5.8858459E+01;0;  4.5600832E-03;  1.6881246E+04;  0.0000000E+00; -1.6235826E+01;  4.0000000E+04;  0.0000000E+00;  3.9580598E+04; -4.3196607E-01;  0.0000000E+00;  4.3652615E-01;  3.9722871E+04;
  1.2852001E+00;  9.9999998E-03;  2.7130979E-01;8725;  1.0610579E+00;  0.0000000E+00;  1.7254690E-02;  9.9554547E+02;  1.5380120E-01; -3.6747078E+03;3;  6.5475044E+01;  0.0000000E+00;  4.7304523E+01;0;  1.6211373E-01;  1.6911566E+04;  0.0000000E+00; -2.0040073E+01;  4.0000000E+04;  0.0000000E+00;  3.9572184E+04; -4.6140367E-01;  0.0000000E+00;  6.2351739E-01;  4.7894516E+04;
  1.2858965E+00;  9.9999998E-03;  2.8141257E-01;8726;  1.0734963E+00;  0.0000000E+00;  2.3322605E-02;  9.9479248E+02;  1.5363757E-01; -4.2956782E+03;3;  6.3468525E+01;  0.0000000E+00;  3.0571617E+01;0;  2.0208594E-01;  1.6940443E+04;  0.0000000E+00; -2.0797289E+01;  4.0000000E+04;  0.0000000E+00;  3.9541797E+04; -4.8619798E-01;  0.0000000E+00;  6.8828392E-01;  4.8717844E+04;
  1.2871355E+00;  9.9999998E-03;  2.9150960E-01;8727;  1.0851606E+00;  0.0000000E+00;  1.8647512E-02;  9.9309314E+02;  1.5341079E-01; -5.6969873E+03;3;  6.3077682E+01;  0.0000000E+00;  2.7753147E+01;0;  6.0400665E-02;  1.6958377E+04;  0.0000000E+00; -1.3534593E+01;  4.0000000E+04;  0.0000000E+00;  3.9510211E+04; -5.0710791E-01;  0.0000000E+00;  5.6750858E-01;  3.1747086E+04;
  1.2881953E+00;  9.9999998E-03;  3.0158946E-01;8728;  1.0969901E+00;  0.0000000E+00;  1.5105153E-02;  9.9108289E+02;  1.5323821E-01; -7.3545645E+03;3;  6.3290813E+01;  0.0000000E+00;  2.9861788E+01;0; -9.6077085E-02;  1.6950678E+04;  0.0000000E+00;  1.1160134E+01;  4.0000000E+04;  0.0000000E+00;  3.9498496E+04; -5.2087915E-01;  0.0000000E+00;  4.2480206E-01;  2.5316098E+04;
  1.2997661E+00;  9.9999998E-03;  2.5117648E-01;8784;  1.0271295E+00;  0.0000000E+00; -3.8332343E-02;  9.9383105E+02;  1.4880528E-01; -5.0836924E+03;3;  6.5307053E+01;  0.0000000E+00;  5.1453365E+01;0; -1.0528842E-01;  1.8000105E+04;  0.0000000E+00; -1.5181690E+01;  4.0000000E+04;  0.0000000E+00;  3.9589359E+04; -4.0424839E-01;  0.0000000E+00;  2.9895997E-01;  3.4194758E+04;
  1.2996665E+00;  9.9999998E-03;  2.4111187E-01;8783;  1.0165472E+00;  0.0000000E+00; -4.2967893E-02;  9.9343420E+02;  1.4882618E-01; -5.4107676E+03;3;  6.4722862E+01;  0.0000000E+00;  4.6458694E+01;0; -6.7339420E-02;  1.7984309E+04;  0.0000000E+00; -9.8094082E+00;  4.0000000E+04;  0.0000000E+00;  3.9586555E+04; -3.4754431E-01;  0.0000000E+00;  2.8020489E-01;  2.3423816E+04;
  1.2998115E+00;  9.9999998E-03;  2.6124281E-01;8785;  1.0383437E+00;  0.0000000E+00; -2.6202949E-02;  9.9424213E+02;  1.4876401E-01; -4.7449033E+03;3;  6.6100525E+01;  0.0000000E+00;  5.7993721E+01;0; -8.6100131E-02;  1.8021496E+04;  0.0000000E+00; -2.0836155E+01;  4.0000000E+04;  0.0000000E+00;  3.9595531E+04; -4.5340613E-01;  0.0000000E+00;  3.6730599E-01;  4.6120238E+04;
  1.2999380E+00;  9.9999998E-03;  2.7132389E-01;8786;  1.0505778E+00;  0.0000000E+00; -5.4050069E-03;  9.9436627E+02;  1.4868423E-01; -4.6425425E+03;3;  6.7407646E+01;  0.0000000E+00;  5.5829876E+01;0;  6.8227440E-02;  1.8049635E+04;  0.0000000E+00; -2.5125364E+01;  4.0000000E+04;  0.0000000E+00;  3.9591098E+04; -4.9390492E-01;  0.0000000E+00;  5.6213236E-01;  5.4560988E+04;
  1.3005445E+00;  9.9999998E-03;  2.8142208E-01;8787;  1.0631611E+00;  0.0000000E+00;  8.5626515E-03;  9.9355396E+02;  1.4853981E-01; -5.3117153E+03;3;  6.6453835E+01;  0.0000000E+00;  3.5847054E+01;0;  2.0711249E-01;  1.8075617E+04;  0.0000000E+00; -2.6141371E+01;  4.0000000E+04;  0.0000000E+00;  3.9563758E+04; -5.2577949E-01;  0.0000000E+00;  7.3289198E-01;  5.6003582E+04;
  1.3019078E+00;  9.9999998E-03;  2.9151490E-01;8788;  1.0743524E+00;  0.0000000E+00;  7.4303714E-03;  9.9127222E+02;  1.4831218E-01; -7.1911187E+03;3;  6.5332611E+01;  0.0000000E+00;  2.2710920E+01;0;  1.2715447E-01;  1.8078445E+04;  0.0000000E+00; -1.6589878E+01;  4.0000000E+04;  0.0000000E+00;  3.9536305E+04; -5.5065191E-01;  0.0000000E+00;  6.7780638E-01;  3.6403512E+04;
  1.3026266E+00;  9.9999998E-03;  3.0159399E-01;8789;  1.0857288E+00;  0.0000000E+00;  3.4462085E-03;  9.8910669E+02;  1.4822364E-01; -8.9748135E+03;3;  6.5647797E+01;  0.0000000E+00;  2.5664543E+01;0; -4.6236038E-02;  1.8047424E+04;  0.0000000E+00;  1.8414793E+01;  4.0000000E+04;  0.0000000E+00;  3.9521883E+04; -5.6494635E-01;  0.0000000E+00;  5.1871032E-01;  3.8607547E+04;
  1.3145136E+00;  9.9999998E-03;  2.5120857E-01;8845;  1.0189307E+00;  0.0000000E+00; -5.6582697E-02;  9.9257373E+02;  1.4407313E-01; -6.1118115E+03;3;  6.4174881E+01;  0.0000000E+00;  5.0092693E+01;0; -1.3014725E-01;  1.9153291E+04;  0.0000000E+00; -1.8812050E+01;  4.0000000E+04;  0.0000000E+00;  3.9603414E+04; -3.7771553E-01;  0.0000000E+00;  2.4756828E-01;  3.7327719E+04;
  1.3145965E+00;  9.9999998E-03;  2.4114220E-01;8844;  1.0098692E+00;  0.0000000E+00; -6.0494319E-02;  9.9231018E+02;  1.4407152E-01; -6.3286797E+03;3;  6.3152088E+01;  0.0000000E+00;  4.7024277E+01;0; -6.9420934E-02;  1.9145965E+04;  0.0000000E+00; -1.2181768E+01;  4.0000000E+04;  0.0000000E+00;  3.9598984E+04; -2.9995444E-01;  0.0000000E+00;  2.3053351E-01;  2.5473607E+04;
  1.3142551E+00;  9.9999998E-03;  2.6127693E-01;8846;  1.0286275E+00;  0.0000000E+00; -4.6363600E-02;  9.9300507E+02;  1.4407475E-01; -5.7569990E+03;3;  6.5791199E+01;  0.0000000E+00;  5.6349026E+01;0; -1.4502943E-01;  1.9167250E+04;  0.0000000E+00; -2.4545521E+01;  4.0000000E+04;  0.0000000E+00;  3.9608648E+04; -4.4531161E-01;  0.0000000E+00;  3.0028218E-01;  4.7938625E+04;
  1.3140981E+00;  9.9999998E-03;  2.7135539E-01;8847;  1.0393863E+00;  0.0000000E+00; -2.6908334E-02;  9.9331940E+02;  1.4404289E-01; -5.4983638E+03;3;  6.8256134E+01;  0.0000000E+00;  5.7987953E+01;0; -2.5303125E-02;  1.9192115E+04;  0.0000000E+00; -2.7938412E+01;  4.0000000E+04;  0.0000000E+00;  3.9605047E+04; -5.0055277E-01;  0.0000000E+00;  4.7524965E-01;  5.3635871E+04;
  1.3145758E+00;  9.9999998E-03;  2.8144711E-01;8848;  1.0513310E+00;  0.0000000E+00; -7.4920123E-03;  9.9253345E+02;  1.4392789E-01; -6.1449351E+03;3;  6.9373810E+01;  0.0000000E+00;  4.4058689E+01;0;  1.7275870E-01;  1.9212965E+04;  0.0000000E+00; -2.8548471E+01;  4.0000000E+04;  0.0000000E+00;  3.9583059E+04; -5.4184479E-01;  0.0000000E+00;  7.1460348E-01;  5.4675461E+04;
  1.3159233E+00;  9.9999998E-03;  2.9153454E-01;8849;  1.0626277E+00;  0.0000000E+00; -1.3705300E-03;  9.8974200E+02;  1.4373104E-01; -8.4411621E+03;3;  6.8308167E+01;  0.0000000E+00;  2.5955511E+01;0;  2.0766258E-01;  1.9192295E+04;  0.0000000E+00; -1.5872468E+01;  4.0000000E+04;  0.0000000E+00;  3.9561137E+04; -5.7046169E-01;  0.0000000E+00;  7.7812427E-01;  3.2533551E+04;
  1.3160431E+00;  9.9999998E-03;  3.0161652E-01;8850;  1.0738368E+00;  0.0000000E+00; -3.9559817E-03;  9.8815417E+02;  1.4375153E-01; -9.7476270E+03;3;  6.8527748E+01;  0.0000000E+00;  2.2168322E+01;0;  5.0533473E-02;  1.9152111E+04;  0.0000000E+00;  2.8185692E+01;  4.0000000E+04;  0.0000000E+00;  3.9538008E+04; -5.8698004E-01;  0.0000000E+00;  6.3751352E-01;  5.4573395E+04;
  1.3287678E+00;  9.9999998E-03;  2.4119401E-01;8905;  1.0035583E+00;  0.0000000E+00; -7.5814858E-02;  9.9133240E+02;  1.3986269E-01; -7.1222847E+03;3;  6.1141949E+01;  0.0000000E+00;  4.6689774E+01;0; -4.9202949E-02;  2.0278918E+04;  0.0000000E+00; -1.3214522E+01;  4.0000000E+04;  0.0000000E+00;  3.9601777E+04; -2.1445364E-01;  0.0000000E+00;  1.6525069E-01;  2.4279471E+04;
  1.3284533E+00;  9.9999998E-03;  2.5125942E-01;8906;  1.0110972E+00;  0.0000000E+00; -7.2110109E-02;  9.9151868E+02;  1.3989574E-01; -6.9694937E+03;3;  6.2897808E+01;  0.0000000E+00;  4.8641460E+01;0; -1.3711795E-01;  2.0273768E+04;  0.0000000E+00; -1.9608866E+01;  4.0000000E+04;  0.0000000E+00;  3.9608500E+04; -3.1668186E-01;  0.0000000E+00;  1.7956391E-01;  3.4289031E+04;
  1.3279637E+00;  9.9999998E-03;  2.6132870E-01;8907;  1.0192342E+00;  0.0000000E+00; -6.3243158E-02;  9.9204230E+02;  1.3992585E-01; -6.5395908E+03;3;  6.5095741E+01;  0.0000000E+00;  5.3995777E+01;0; -1.8513922E-01;  2.0284311E+04;  0.0000000E+00; -2.3990362E+01;  4.0000000E+04;  0.0000000E+00;  3.9613320E+04; -4.0601814E-01;  0.0000000E+00;  2.2087891E-01;  4.1041750E+04;
  1.3276485E+00;  9.9999998E-03;  2.7140459E-01;8908;  1.0283897E+00;  0.0000000E+00; -4.5612503E-02;  9.9254211E+02;  1.3991834E-01; -6.1291016E+03;3;  6.8064972E+01;  0.0000000E+00;  5.9028709E+01;0; -1.0443845E-01;  2.0310773E+04;  0.0000000E+00; -2.6041765E+01;  4.0000000E+04;  0.0000000E+00;  3.9610465E+04; -4.7913852E-01;  0.0000000E+00;  3.7470007E-01;  4.3775270E+04;
  1.3280295E+00;  9.9999998E-03;  2.8148824E-01;8909;  1.0389071E+00;  0.0000000E+00; -2.4273992E-02;  9.9183423E+02;  1.3982610E-01; -6.7105371E+03;3;  7.0858582E+01;  0.0000000E+00;  5.2617550E+01;0;  1.0354006E-01;  2.0328281E+04;  0.0000000E+00; -2.6242144E+01;  4.0000000E+04;  0.0000000E+00;  3.9595598E+04; -5.3299564E-01;  0.0000000E+00;  6.3653570E-01;  4.4916539E+04;
  1.3286132E+00;  9.9999998E-03;  3.0165905E-01;8911;  1.0612469E+00;  0.0000000E+00; -9.7831720E-03;  9.8869244E+02;  1.3979714E-01; -9.2917432E+03;3;  7.0412453E+01;  0.0000000E+00;  2.4441051E+01;0;  1.4410591E-01;  2.0266752E+04;  0.0000000E+00;  3.6779510E+01;  4.0000000E+04;  0.0000000E+00;  3.9539426E+04; -5.9007192E-01;  0.0000000E+00;  7.3417783E-01;  6.5329023E+04;
  1.3291769E+00;  9.9999998E-03;  2.9156920E-01;8910;  1.0498582E+00;  0.0000000E+00; -1.1543291E-02;  9.8889465E+02;  1.3967822E-01; -9.1249805E+03;3;  7.1526718E+01;  0.0000000E+00;  3.5243618E+01;0;  2.3466772E-01;  2.0286666E+04;  0.0000000E+00; -9.7336321E+00;  4.0000000E+04;  0.0000000E+00;  3.9579906E+04; -5.6776607E-01;  0.0000000E+00;  8.0243379E-01;  2.1211184E+04;
  1.3409246E+00;  9.9999998E-03;  2.7147010E-01;8968;  1.0176481E+00;  0.0000000E+00; -6.2840536E-02;  9.9170538E+02;  1.3623144E-01; -6.8048232E+03;3;  6.7165871E+01;  0.0000000E+00;  5.7833035E+01;0; -1.8324099E-01;  2.1394246E+04;  0.0000000E+00; -2.2473364E+01;  4.0000000E+04;  0.0000000E+00;  3.9607102E+04; -4.2647797E-01;  0.0000000E+00;  2.4323697E-01;  3.3553559E+04;
  1.3412611E+00;  9.9999998E-03;  2.6139709E-01;8967;  1.0101042E+00;  0.0000000E+00; -7.7697963E-02;  9.9116351E+02;  1.3623729E-01; -7.2490083E+03;3;  6.3901608E+01;  0.0000000E+00;  5.1269505E+01;0; -2.1263354E-01;  2.1365754E+04;  0.0000000E+00; -2.0636637E+01;  4.0000000E+04;  0.0000000E+00;  3.9608598E+04; -3.3361536E-01;  0.0000000E+00;  1.2098183E-01;  3.1088537E+04;
  1.3412302E+00;  9.9999998E-03;  2.8154483E-01;8969;  1.0264697E+00;  0.0000000E+00; -4.2225800E-02;  9.9099792E+02;  1.3615155E-01; -7.3848760E+03;3;  7.1229172E+01;  0.0000000E+00;  5.7422382E+01;0; -4.3487549E-03;  2.1407264E+04;  0.0000000E+00; -2.1882292E+01;  4.0000000E+04;  0.0000000E+00;  3.9600793E+04; -4.9576870E-01;  0.0000000E+00;  4.9141994E-01;  3.4480738E+04;
  1.3417923E+00;  9.9999998E-03;  2.5132474E-01;8966;  1.0035839E+00;  0.0000000E+00; -8.5115455E-02;  9.9066565E+02;  1.3619843E-01; -7.6567964E+03;3;  6.1242115E+01;  0.0000000E+00;  4.6484810E+01;0; -1.2777624E-01;  2.1358371E+04;  0.0000000E+00; -1.7097052E+01;  4.0000000E+04;  0.0000000E+00;  3.9605641E+04; -2.2112356E-01;  0.0000000E+00;  9.3347318E-02;  2.6459869E+04;
  1.3422297E+00;  9.9999998E-03;  2.4125430E-01;8965;  9.9765748E-01;  0.0000000E+00; -8.8579476E-02;  9.9057715E+02;  1.3614416E-01; -7.7289043E+03;3;  5.9318550E+01;  0.0000000E+00;  4.4259823E+01;0; -7.8409165E-03;  2.1374871E+04;  0.0000000E+00; -1.1742537E+01;  4.0000000E+04;  0.0000000E+00;  3.9599715E+04; -9.2952982E-02;  0.0000000E+00;  8.5112065E-02;  1.9764902E+04;
  1.3419979E+00;  9.9999998E-03;  2.9161891E-01;8970;  1.0365452E+00;  0.0000000E+00; -2.5026934E-02;  9.8842035E+02;  1.3606869E-01; -9.4982988E+03;3;  7.3562202E+01;  0.0000000E+00;  4.6121166E+01;0;  1.8087864E-01;  2.1354717E+04;  0.0000000E+00;  3.4663263E-01;  4.0000000E+04;  0.0000000E+00;  3.9590414E+04; -5.4132634E-01;  0.0000000E+00;  7.2220498E-01;  1.4988537E+04;
  1.3539222E+00;  9.9999998E-03;  2.7154505E-01;9027;  1.0069623E+00;  0.0000000E+00; -7.5876817E-02;  9.9087683E+02;  1.3292772E-01; -7.4690024E+03;3;  6.6581184E+01;  0.0000000E+00;  5.4984463E+01;0; -2.2577611E-01;  2.2440424E+04;  0.0000000E+00; -1.8143333E+01;  4.0000000E+04;  0.0000000E+00;  3.9601539E+04; -3.4236237E-01;  0.0000000E+00;  1.1658626E-01;  2.4973473E+04;
  1.3542589E+00;  9.9999998E-03;  2.6147091E-01;9026;  1.0010777E+00;  0.0000000E+00; -8.8597506E-02;  9.9036737E+02;  1.3293269E-01; -7.8856582E+03;3;  6.2731522E+01;  0.0000000E+00;  4.6786129E+01;0; -2.1385241E-01;  2.2411029E+04;  0.0000000E+00; -1.6078339E+01;  4.0000000E+04;  0.0000000E+00;  3.9604285E+04; -2.2821997E-01;  0.0000000E+00;  1.4367558E-02;  2.2370889E+04;
  1.3541383E+00;  9.9999998E-03;  2.8161544E-01;9028;  1.0141979E+00;  0.0000000E+00; -5.7563916E-02;  9.9012305E+02;  1.3287057E-01; -8.0858389E+03;3;  7.1170654E+01;  0.0000000E+00;  5.8832409E+01;0; -9.4089329E-02;  2.2443906E+04;  0.0000000E+00; -1.5874153E+01;  4.0000000E+04;  0.0000000E+00;  3.9598918E+04; -4.2929476E-01;  0.0000000E+00;  3.3520544E-01;  2.5033570E+04;
  1.3544054E+00;  9.9999998E-03;  2.9168788E-01;9029;  1.0230583E+00;  0.0000000E+00; -3.9866608E-02;  9.8845343E+02;  1.3285707E-01; -9.4522100E+03;3;  7.4323959E+01;  0.0000000E+00;  5.4613045E+01;0;  8.0446810E-02;  2.2399273E+04;  0.0000000E+00;  1.1987865E+01;  4.0000000E+04;  0.0000000E+00;  3.9585781E+04; -4.9133447E-01;  0.0000000E+00;  5.7178128E-01;  2.3904598E+04;
  1.3547815E+00;  9.9999998E-03;  2.5139359E-01;9025;  9.9628997E-01;  0.0000000E+00; -9.5135048E-02;  9.8993616E+02;  1.3289845E-01; -8.2378779E+03;3;  5.9363640E+01;  0.0000000E+00;  4.2048374E+01;0; -9.7534440E-02;  2.2403805E+04;  0.0000000E+00; -1.2750272E+01;  4.0000000E+04;  0.0000000E+00;  3.9603484E+04; -9.1737948E-02;  0.0000000E+00; -5.7964898E-03;  1.9357092E+04;
  1.3552376E+00;  9.9999998E-03;  2.4131493E-01;9024;  9.9203587E-01;  0.0000000E+00; -9.8142065E-02;  9.8999329E+02;  1.3284589E-01; -8.1904727E+03;3;  5.7744286E+01;  0.0000000E+00;  3.9840618E+01;0;  5.6626968E-02;  2.2427006E+04;  0.0000000E+00; -8.0656328E+00;  4.0000000E+04;  0.0000000E+00;  3.9597902E+04;  6.2020663E-02;  0.0000000E+00; -5.3936969E-03;  1.6357537E+04;
  1.3666154E+00;  9.9999998E-03;  2.7163383E-01;9086;  9.9637389E-01;  0.0000000E+00; -8.6152583E-02;  9.9014948E+02;  1.2998137E-01; -8.0448257E+03;3;  6.5491959E+01;  0.0000000E+00;  4.9204323E+01;0; -2.4958216E-01;  2.3445893E+04;  0.0000000E+00; -1.3244450E+01;  4.0000000E+04;  0.0000000E+00;  3.9589430E+04; -2.3012102E-01;  0.0000000E+00; -1.9461142E-02;  1.8749400E+04;
  1.3664505E+00;  9.9999998E-03;  2.9177871E-01;9088;  1.0090739E+00;  0.0000000E+00; -5.4753114E-02;  9.8914050E+02;  1.2999052E-01; -8.8691641E+03;3;  7.4780746E+01;  0.0000000E+00;  5.6905609E+01;0; -4.3932229E-02;  2.3432262E+04;  0.0000000E+00;  2.1882460E+01;  4.0000000E+04;  0.0000000E+00;  3.9561473E+04; -4.2275217E-01;  0.0000000E+00;  3.7881994E-01;  3.2767559E+04;
  1.3669713E+00;  9.9999998E-03;  2.6155740E-01;9085;  9.9228156E-01;  0.0000000E+00; -9.6416101E-02;  9.8963782E+02;  1.2998115E-01; -8.4620967E+03;3;  6.0807224E+01;  0.0000000E+00;  4.0653984E+01;0; -1.9310679E-01;  2.3414662E+04;  0.0000000E+00; -1.1158653E+01;  4.0000000E+04;  0.0000000E+00;  3.9594719E+04; -9.3204819E-02;  0.0000000E+00; -9.9901967E-02;  1.7445561E+04;
  1.3666849E+00;  9.9999998E-03;  2.8170329E-01;9087;  1.0020359E+00;  0.0000000E+00; -7.0812695E-02;  9.8949066E+02;  1.2995449E-01; -8.5827451E+03;3;  7.0287766E+01;  0.0000000E+00;  5.7362011E+01;0; -1.7460799E-01;  2.3442680E+04;  0.0000000E+00; -8.0824871E+00;  4.0000000E+04;  0.0000000E+00;  3.9585211E+04; -3.3741891E-01;  0.0000000E+00;  1.6281092E-01;  1.7630867E+04;
  1.3675228E+00;  9.9999998E-03;  2.5147536E-01;9084;  9.8928428E-01;  0.0000000E+00; -1.0185294E-01;  9.8916882E+02;  1.2994994E-01; -8.8440371E+03;3;  5.7442524E+01;  0.0000000E+00;  3.5362831E+01;0; -4.3911211E-02;  2.3403256E+04;  0.0000000E+00; -8.2003002E+00;  4.0000000E+04;  0.0000000E+00;  3.9596258E+04;  6.7888737E-02;  0.0000000E+00; -1.1179995E-01;  1.7151297E+04;
  1.3680160E+00;  9.9999998E-03;  2.4138911E-01;9083;  9.8667848E-01;  0.0000000E+00; -1.0434738E-01;  9.8930957E+02;  1.2990224E-01; -8.7282080E+03;3;  5.5680084E+01;  0.0000000E+00;  3.1058323E+01;0;  1.4393109E-01;  2.3429348E+04;  0.0000000E+00; -3.9870617E+00;  4.0000000E+04;  0.0000000E+00;  3.9591887E+04;  2.4670364E-01;  0.0000000E+00; -1.0277256E-01;  1.7818072E+04;
  1.3782744E+00;  9.9999998E-03;  2.9188964E-01;9147;  9.9438554E-01;  0.0000000E+00; -6.8157114E-02;  9.9035687E+02;  1.2742063E-01; -7.8544854E+03;3;  7.5223785E+01;  0.0000000E+00;  5.3586254E+01;0; -1.6777259E-01;  2.4457465E+04;  0.0000000E+00;  2.7550299E+01;  4.0000000E+04;  0.0000000E+00;  3.9519855E+04; -3.4232184E-01;  0.0000000E+00;  1.7454925E-01;  3.4436941E+04;
  1.3788735E+00;  9.9999998E-03;  2.8181121E-01;9146;  9.8955786E-01;  0.0000000E+00; -8.1599370E-02;  9.8936658E+02;  1.2736720E-01; -8.6597832E+03;3;  6.9176582E+01;  0.0000000E+00;  5.1189671E+01;0; -2.4116026E-01;  2.4416633E+04;  0.0000000E+00;  7.2898853E-01;  4.0000000E+04;  0.0000000E+00;  3.9554938E+04; -2.2886993E-01;  0.0000000E+00; -1.2290324E-02;  1.5092449E+04;
  1.3789918E+00;  9.9999998E-03;  2.7174109E-01;9145;  9.8609865E-01;  0.0000000E+00; -9.3708158E-02;  9.8967731E+02;  1.2736641E-01; -8.4064854E+03;3;  6.3494858E+01;  0.0000000E+00;  4.0964653E+01;0; -2.5484115E-01;  2.4413678E+04;  0.0000000E+00; -7.8116632E+00;  4.0000000E+04;  0.0000000E+00;  3.9564125E+04; -9.6295819E-02;  0.0000000E+00; -1.5854532E-01;  1.5301678E+04;
  1.3793906E+00;  9.9999998E-03;  2.6166409E-01;9144;  9.8390138E-01;  0.0000000E+00; -1.0112075E-01;  9.8903479E+02;  1.2735894E-01; -8.9288525E+03;3;  5.8604115E+01;  0.0000000E+00;  3.2343037E+01;0; -1.4934050E-01;  2.4375988E+04;  0.0000000E+00; -6.1297612E+00;  4.0000000E+04;  0.0000000E+00;  3.9572270E+04;  6.4406499E-02;  0.0000000E+00; -2.1374699E-01;  1.6825699E+04;
  1.3799826E+00;  9.9999998E-03;  2.5157875E-01;9143;  9.8266447E-01;  0.0000000E+00; -1.0503834E-01;  9.8840619E+02;  1.2733038E-01; -9.4392900E+03;3;  5.5086155E+01;  0.0000000E+00;  2.5430059E+01;0;  3.4057125E-02;  2.4353584E+04;  0.0000000E+00; -3.6007340E+00;  4.0000000E+04;  0.0000000E+00;  3.9577594E+04;  2.4946882E-01;  0.0000000E+00; -2.1541169E-01;  1.9056262E+04;
  1.3805248E+00;  9.9999998E-03;  2.4148645E-01;9142;  9.8160124E-01;  0.0000000E+00; -1.0618834E-01;  9.8852002E+02;  1.2728958E-01; -9.3453066E+03;3;  5.3056946E+01;  0.0000000E+00;  1.8849817E+01;0;  2.5755864E-01;  2.4375611E+04;  0.0000000E+00;  2.3999754E-01;  4.0000000E+04;  0.0000000E+00;  3.9576094E+04;  4.5118013E-01;  0.0000000E+00; -1.9362150E-01;  2.1875076E+04;
  1.3907814E+00;  9.9999998E-03;  2.8193769E-01;9204;  9.7715253E-01;  0.0000000E+00; -8.8729903E-02;  9.8982422E+02;  1.2507208E-01; -8.2601885E+03;3;  6.8080811E+01;  0.0000000E+00;  4.0003582E+01;0; -2.7357101E-01;  2.5368713E+04;  0.0000000E+00;  8.5783634E+00;  4.0000000E+04;  0.0000000E+00;  3.9509559E+04; -1.1167703E-01;  0.0000000E+00; -1.6189399E-01;  1.5908562E+04;
  1.3910946E+00;  9.9999998E-03;  2.7186751E-01;9203;  9.7602564E-01;  0.0000000E+00; -9.7196378E-02;  9.8954950E+02;  1.2505455E-01; -8.4824014E+03;3;  6.1191494E+01;  0.0000000E+00;  3.0529818E+01;0; -2.2195208E-01;  2.5345676E+04;  0.0000000E+00; -2.5746615E+00;  4.0000000E+04;  0.0000000E+00;  3.9524840E+04;  4.9212314E-02;  0.0000000E+00; -2.7116439E-01;  1.4183588E+04;
  1.3915194E+00;  9.9999998E-03;  2.6179013E-01;9202;  9.7600329E-01;  0.0000000E+00; -1.0228232E-01;  9.8876074E+02;  1.2504350E-01; -9.1214512E+03;3;  5.5346584E+01;  0.0000000E+00;  2.2893747E+01;0; -7.7752456E-02;  2.5297885E+04;  0.0000000E+00; -1.0655320E+00;  4.0000000E+04;  0.0000000E+00;  3.9537312E+04;  2.3436449E-01;  0.0000000E+00; -3.1211695E-01;  1.8796072E+04;
  1.3921163E+00;  9.9999998E-03;  2.5170249E-01;9201;  9.7663063E-01;  0.0000000E+00; -1.0432099E-01;  9.8792810E+02;  1.2501903E-01; -9.7954697E+03;3;  5.1952126E+01;  0.0000000E+00;  1.4548751E+01;0;  1.3865033E-01;  2.5260018E+04;  0.0000000E+00;  1.9259491E+00;  4.0000000E+04;  0.0000000E+00;  3.9547910E+04;  4.4124755E-01;  0.0000000E+00; -3.0259722E-01;  2.3591389E+04;
  1.3927022E+00;  9.9999998E-03;  2.4160545E-01;9200;  9.7715855E-01;  0.0000000E+00; -1.0381006E-01;  9.8785651E+02;  1.2498488E-01; -9.8518027E+03;3;  4.9278011E+01;  0.0000000E+00;  6.6234441E+00;0;  3.9332563E-01;  2.5268592E+04;  0.0000000E+00;  5.4109221E+00;  4.0000000E+04;  0.0000000E+00;  3.9550891E+04;  6.6250026E-01;  0.0000000E+00; -2.6917464E-01;  2.7456281E+04;
  1.4024844E+00;  9.9999998E-03;  2.8207970E-01;9261;  9.6489143E-01;  0.0000000E+00; -9.0523608E-02;  9.9081909E+02;  1.2304041E-01; -7.4245542E+03;3;  6.7125755E+01;  0.0000000E+00;  2.4441883E+01;0; -2.4607235E-01;  2.6295420E+04;  0.0000000E+00;  1.3454165E+01;  4.0000000E+04;  0.0000000E+00;  3.9452320E+04;  3.2500485E-03;  0.0000000E+00; -2.4932240E-01;  1.4233260E+04;
  1.4029510E+00;  9.9999998E-03;  2.7200902E-01;9260;  9.6624506E-01;  0.0000000E+00; -9.6227773E-02;  9.8993781E+02;  1.2301611E-01; -8.1359380E+03;3;  5.8275993E+01;  0.0000000E+00;  1.8624008E+01;0; -1.4601471E-01;  2.6246102E+04;  0.0000000E+00;  1.8828638E+00;  4.0000000E+04;  0.0000000E+00;  3.9475797E+04;  1.9399439E-01;  0.0000000E+00; -3.4000909E-01;  1.3147022E+04;
  1.4033989E+00;  9.9999998E-03;  2.6193163E-01;9259;  9.6851617E-01;  0.0000000E+00; -9.9261098E-02;  9.8897437E+02;  1.2300306E-01; -8.9134922E+03;3;  5.2367702E+01;  0.0000000E+00;  1.1216637E+01;0;  2.9989660E-02;  2.6185262E+04;  0.0000000E+00;  3.2312994E+00;  4.0000000E+04;  0.0000000E+00;  3.9493609E+04;  4.0331483E-01;  0.0000000E+00; -3.7332517E-01;  2.0351367E+04;
  1.4039962E+00;  9.9999998E-03;  2.5184360E-01;9258;  9.7114599E-01;  0.0000000E+00; -9.9644899E-02;  9.8783258E+02;  1.2298384E-01; -9.8344648E+03;3;  4.7342014E+01;  0.0000000E+00;  2.3080118E+00;0;  2.7021760E-01;  2.6124770E+04;  0.0000000E+00;  7.2021384E+00;  4.0000000E+04;  0.0000000E+00;  3.9508699E+04;  6.3031793E-01;  0.0000000E+00; -3.6010033E-01;  2.7812396E+04;
  1.4046139E+00;  9.9999998E-03;  2.4174473E-01;9257;  9.7350413E-01;  0.0000000E+00; -9.7258262E-02;  9.8739471E+02;  1.2295615E-01; -1.0186162E+04;3;  4.5215221E+01;  0.0000000E+00; -6.4032960E+00;0;  5.5038196E-01;  2.6110055E+04;  0.0000000E+00;  1.0774975E+01;  4.0000000E+04;  0.0000000E+00;  3.9516707E+04;  8.6714894E-01;  0.0000000E+00; -3.1676698E-01;  3.2718051E+04;
  1.4140719E+00;  9.9999998E-03;  2.8223437E-01;9318;  9.5191252E-01;  0.0000000E+00; -8.6837299E-02;  9.9204175E+02;  1.2124672E-01; -6.4075933E+03;3;  6.5892464E+01;  0.0000000E+00;  9.5152864E+00;0; -1.7220539E-01;  2.7180828E+04;  0.0000000E+00;  1.5161644E+01;  4.0000000E+04;  0.0000000E+00;  3.9387305E+04;  9.5385514E-02;  0.0000000E+00; -2.6759091E-01;  9.2452793E+03;
  1.4146276E+00;  9.9999998E-03;  2.7216545E-01;9317;  9.5640856E-01;  0.0000000E+00; -9.0707101E-02;  9.9074329E+02;  1.2122341E-01; -7.4513701E+03;3;  5.6025108E+01;  0.0000000E+00;  3.7494447E+00;0; -3.2345146E-02;  2.7110484E+04;  0.0000000E+00;  4.5978518E+00;  4.0000000E+04;  0.0000000E+00;  3.9416668E+04;  3.1984487E-01;  0.0000000E+00; -3.5219002E-01;  9.8207227E+03;
  1.4150915E+00;  9.9999998E-03;  2.6209086E-01;9316;  9.6137160E-01;  0.0000000E+00; -9.2394009E-02;  9.8960419E+02;  1.2120870E-01; -8.3667051E+03;3;  4.9411480E+01;  0.0000000E+00; -3.2493842E+00;0;  1.6508010E-01;  2.7038889E+04;  0.0000000E+00;  5.4075685E+00;  4.0000000E+04;  0.0000000E+00;  3.9437707E+04;  5.5451089E-01;  0.0000000E+00; -3.8943079E-01;  1.8620014E+04;
  1.4156827E+00;  9.9999998E-03;  2.5200438E-01;9315;  9.6630454E-01;  0.0000000E+00; -9.0983801E-02;  9.8810748E+02;  1.2119308E-01; -9.5688867E+03;3;  4.2654110E+01;  0.0000000E+00; -1.1760589E+01;0;  4.2685133E-01;  2.6952547E+04;  0.0000000E+00;  1.0688761E+01;  4.0000000E+04;  0.0000000E+00;  3.9457574E+04;  8.0030292E-01;  0.0000000E+00; -3.7345159E-01;  2.8950439E+04;
  1.4163126E+00;  9.9999998E-03;  2.4190587E-01;9314;  9.7115344E-01;  0.0000000E+00; -8.6910158E-02;  9.8719550E+02;  1.2117190E-01; -1.0299974E+04;3;  3.3783142E+01;  0.0000000E+00; -1.8938633E+01;0;  7.2395229E-01;  2.6906697E+04;  0.0000000E+00;  1.5208114E+01;  4.0000000E+04;  0.0000000E+00;  3.9471000E+04;  1.0512456E+00;  0.0000000E+00; -3.2729325E-01;  3.5870770E+04;
  1.4261962E+00;  9.9999998E-03;  2.7233207E-01;9373;  9.4629556E-01;  0.0000000E+00; -8.0261335E-02;  9.9170258E+02;  1.1965036E-01; -6.6447026E+03;3;  5.5746872E+01;  0.0000000E+00; -1.2844208E+01;0;  1.1063862E-01;  2.7922725E+04;  0.0000000E+00;  6.1196251E+00;  4.0000000E+04;  0.0000000E+00;  3.9351750E+04;  4.0356413E-01;  0.0000000E+00; -2.9292551E-01;  5.1877236E+03;
  1.4266486E+00;  9.9999998E-03;  2.6226318E-01;9372;  9.5414388E-01;  0.0000000E+00; -8.0621623E-02;  9.9058966E+02;  1.1963527E-01; -7.5342583E+03;3;  4.6731857E+01;  0.0000000E+00; -2.0241697E+01;0;  3.3180335E-01;  2.7854613E+04;  0.0000000E+00;  4.9297900E+00;  4.0000000E+04;  0.0000000E+00;  3.9373988E+04;  6.6513395E-01;  0.0000000E+00; -3.3333060E-01;  1.3003557E+04;
  1.4272003E+00;  9.9999998E-03;  2.5218040E-01;9371;  9.6196294E-01;  0.0000000E+00; -7.7746995E-02;  9.8891821E+02;  1.1962346E-01; -8.8701299E+03;3;  3.6901352E+01;  0.0000000E+00; -2.8654558E+01;0;  6.1004221E-01;  2.7751623E+04;  0.0000000E+00;  1.1726828E+01;  4.0000000E+04;  0.0000000E+00;  3.9397238E+04;  9.3065310E-01;  0.0000000E+00; -3.2061088E-01;  2.6262139E+04;
  1.4278262E+00;  9.9999998E-03;  2.4208489E-01;9370;  9.7162074E-01;  0.0000000E+00; -7.2384983E-02;  9.8746710E+02;  1.1960915E-01; -1.0028514E+04;3;  5.1724739E+00;  0.0000000E+00; -3.4449841E+01;0;  9.2454797E-01;  2.7669023E+04;  0.0000000E+00;  1.7927176E+01;  4.0000000E+04;  0.0000000E+00;  3.9415418E+04;  1.2051864E+00;  0.0000000E+00; -2.8063840E-01;  3.5919812E+04;
  1.4376519E+00;  9.9999998E-03;  2.7250543E-01;9428;  9.3534106E-01;  0.0000000E+00; -6.4537331E-02;  9.9284436E+02;  1.1827265E-01; -5.6961597E+03;3;  5.4435658E+01;  0.0000000E+00; -2.9119196E+01;0;  2.6562709E-01;  2.8685283E+04;  0.0000000E+00;  9.2631054E+00;  4.0000000E+04;  0.0000000E+00;  3.9283613E+04;  4.1623282E-01;  0.0000000E+00; -1.5060575E-01;  2.0201108E+03;
  1.4381275E+00;  9.9999998E-03;  2.6244232E-01;9427;  9.4655788E-01;  0.0000000E+00; -6.3650005E-02;  9.9170233E+02;  1.1826169E-01; -6.6034780E+03;3;  4.2079880E+01;  0.0000000E+00; -3.6013386E+01;0;  5.1701427E-01;  2.8615822E+04;  0.0000000E+00;  2.9175696E+00;  4.0000000E+04;  0.0000000E+00;  3.9308180E+04;  7.0911688E-01;  0.0000000E+00; -1.9210263E-01;  5.6801187E+03;
  1.4386071E+00;  9.9999998E-03;  2.5236776E-01;9426;  9.5855343E-01;  0.0000000E+00; -5.9874751E-02;  9.9016638E+02;  1.1825209E-01; -7.8236895E+03;3;  1.8493052E+01;  0.0000000E+00; -4.3083569E+01;0;  8.1303602E-01;  2.8518643E+04;  0.0000000E+00;  9.2417536E+00;  4.0000000E+04;  0.0000000E+00;  3.9330109E+04;  1.0034732E+00;  0.0000000E+00; -1.9043712E-01;  1.9041006E+04;
  1.4391923E+00;  9.9999998E-03;  2.4227807E-01;9425;  9.7698486E-01;  0.0000000E+00; -5.3971235E-02;  9.8831488E+02;  1.1824204E-01; -9.2936377E+03;3; -4.7312134E+01;  0.0000000E+00; -4.0398376E+01;0;  1.1577196E+00;  2.8406473E+04;  0.0000000E+00;  1.7834341E+01;  4.0000000E+04;  0.0000000E+00;  3.9351438E+04;  1.3269410E+00;  0.0000000E+00; -1.6922134E-01;  3.1924088E+04;
  1.4495348E+00;  9.9999998E-03;  2.6262477E-01;9481;  9.4009215E-01;  0.0000000E+00; -4.3346953E-02;  9.9277039E+02;  1.1706354E-01; -5.7135298E+03;3;  2.0263262E+01;  0.0000000E+00; -3.7599796E+01;0;  6.7930245E-01;  2.9313066E+04;  0.0000000E+00;  3.7953203E+00;  4.0000000E+04;  0.0000000E+00;  3.9241879E+04;  6.7322981E-01;  0.0000000E+00;  6.0726288E-03;  2.4714153E+03;
  1.4499524E+00;  9.9999998E-03;  2.5255996E-01;9480;  9.5918530E-01;  0.0000000E+00; -3.9319161E-02;  9.9162109E+02;  1.1705661E-01; -6.6199893E+03;3; -3.3677181E+01;  0.0000000E+00; -3.6402367E+01;0;  1.0148723E+00;  2.9238873E+04;  0.0000000E+00;  4.1439877E+00;  4.0000000E+04;  0.0000000E+00;  3.9261848E+04;  1.0239727E+00;  0.0000000E+00; -9.1003841E-03;  9.1334395E+03;
  1.4504504E+00;  9.9999998E-03;  2.4247921E-01;9479;  9.9120104E-01;  0.0000000E+00; -3.5843018E-02;  9.8979578E+02;  1.1704940E-01; -8.0594321E+03;3; -1.2322770E+02;  0.0000000E+00; -9.3108101E+00;0;  1.3880342E+00;  2.9123293E+04;  0.0000000E+00;  1.4136632E+01;  4.0000000E+04;  0.0000000E+00;  3.9282641E+04;  1.4379754E+00;  0.0000000E+00; -4.9941190E-02;  2.3824793E+04;
  1.4608071E+00;  9.9999998E-03;  2.6280898E-01;9534;  9.4032866E-01;  0.0000000E+00; -2.5257109E-02;  9.9419189E+02;  1.1602201E-01; -4.5536816E+03;3; -4.4702991E+01;  0.0000000E+00; -1.5133326E+01;0;  7.6598799E-01;  2.9972193E+04;  0.0000000E+00;  1.1939295E+01;  4.0000000E+04;  0.0000000E+00;  3.9174059E+04;  5.9787655E-01;  0.0000000E+00;  1.6811141E-01;  2.1882041E+03;
  1.4612677E+00;  9.9999998E-03;  2.5275218E-01;9533;  9.7273874E-01;  0.0000000E+00; -2.3239991E-02;  9.9291254E+02;  1.1601983E-01; -5.5547749E+03;3; -1.2897668E+02;  0.0000000E+00; -9.3524647E-01;0;  1.1732399E+00;  2.9889793E+04;  0.0000000E+00;  1.1334851E+00;  4.0000000E+04;  0.0000000E+00;  3.9195191E+04;  1.0647066E+00;  0.0000000E+00;  1.0853340E-01;  2.8754395E+03;
  1.4616648E+00;  9.9999998E-03;  2.4268436E-01;9532;  1.0166930E+00;  0.0000000E+00; -2.3263684E-02;  9.9156085E+02;  1.1601450E-01; -6.6121191E+03;3; -1.5968973E+02;  0.0000000E+00;  7.7182107E+00;0;  1.5731025E+00;  2.9803023E+04;  0.0000000E+00;  6.7784839E+00;  4.0000000E+04;  0.0000000E+00;  3.9211020E+04;  1.5551130E+00;  0.0000000E+00;  1.7989537E-02;  1.2555964E+04;
  1.4724960E+00;  9.9999998E-03;  2.5294453E-01;9585;  1.0019150E+00;  0.0000000E+00; -1.4244399E-02;  9.9419812E+02;  1.1512041E-01; -4.5055869E+03;3; -1.7189017E+02;  0.0000000E+00;  1.3192931E+01;0;  1.2990712E+00;  3.0485775E+04;  0.0000000E+00;  7.8010869E+00;  4.0000000E+04;  0.0000000E+00;  3.9126223E+04;  1.1610571E+00;  0.0000000E+00;  1.3801408E-01;  2.1260298E+03;
  1.4728730E+00;  9.9999998E-03;  2.4288836E-01;9584;  1.0471659E+00;  0.0000000E+00; -1.4691675E-02;  9.9314331E+02;  1.1511920E-01; -5.3229766E+03;3; -1.6712672E+02;  0.0000000E+00;  1.1171010E+01;0;  1.6955359E+00;  3.0418195E+04;  0.0000000E+00;  2.7549696E-01;  4.0000000E+04;  0.0000000E+00;  3.9139164E+04;  1.6463535E+00;  0.0000000E+00;  4.9182449E-02;  3.5273533E+03;
  1.4840416E+00;  9.9999998E-03;  2.4308825E-01;9634;  1.0800427E+00;  0.0000000E+00; -8.3606206E-03;  9.9444446E+02;  1.1434702E-01; -4.2678047E+03;3; -1.7159697E+02;  0.0000000E+00;  1.2923144E+01;0;  1.7625107E+00;  3.0964945E+04;  0.0000000E+00;  4.4175010E+00;  4.0000000E+04;  0.0000000E+00;  3.9066254E+04;  1.7064592E+00;  0.0000000E+00;  5.6051526E-02;  2.2290623E+03;
